<?xml version="1.0"?>
<VTKFile type="UnstructuredGrid" version="0.1" byte_order="LittleEndian">
<UnstructuredGrid>
<Piece NumberOfPoints="31898" NumberOfCells="11152">
<Points>
<DataArray type="Float64" NumberOfComponents="3" format="ascii">
-0.5 -0.5 0 -0.47620991077874902 -0.44978878706170539 0 -0.49999999999999473 -0.42132396840504388 0 -0.5 -0.5 0 -0.47160970827802529 -0.4793630013852106 0 -0.47620991077874902 -0.44978878706170539 0 -0.5 -0.5 0 -0.47160970827802529 -0.4793630013852106 0 -0.44860394795025399 -0.5 0 -0.47160970827802529 -0.4793630013852106 0 -0.44860394795025399 -0.5 0 -0.4490820238307246 -0.45820516232899983 0 -0.44860394795025399 -0.5 0 -0.4490820238307246 -0.45820516232899983 0 -0.42881687682924802 -0.47781464288736519 0 -0.4490820238307246 -0.45820516232899983 0 -0.45555437223955858 -0.42914059360647611 0 -0.4490820238307246 -0.45820516232899983 0 -0.45555437223955858 -0.42914059360647611 0 -0.43867285131603428 -0.4271457417558665 0 -0.4490820238307246 -0.45820516232899983 0 -0.43867285131603428 -0.4271457417558665 0 -0.4263356171060747 -0.44269880333887462 0 -0.47160970827802529 -0.4793630013852106 0 -0.4490820238307246 -0.45820516232899983 0 -0.47620991077874902 -0.44978878706170539 0 -0.4490820238307246 -0.45820516232899983 0 -0.47620991077874902 -0.44978878706170539 0 -0.45555437223955858 -0.42914059360647611 0 -0.47620991077874902 -0.44978878706170539 0 -0.48101336032419229 -0.41069999664450008 0 -0.45555437223955858 -0.42914059360647611 0 -0.47620991077874902 -0.44978878706170539 0 -0.49999999999999473 -0.42132396840504388 0 -0.48101336032419229 -0.41069999664450008 0 -0.49999999999999473 -0.42132396840504388 0 -0.48101336032419229 -0.41069999664450008 0 -0.5 -0.393886241813306 0 -0.49999999999999473 -0.42132396840504388 0 -0.48101336032419229 -0.41069999664450008 0 -0.5 -0.393886241813306 0 -0.47854472220918332 -0.38978458738689759 0 -0.48422759779560409 -0.37130120630367158 0 -0.5 -0.393886241813306 0 -0.5 -0.36644851522156802 0 -0.48422759779560409 -0.37130120630367158 0 -0.48101336032419229 -0.41069999664450008 0 -0.5 -0.393886241813306 0 -0.47854472220918332 -0.38978458738689759 0 -0.48101336032419229 -0.41069999664450008 0 -0.47854472220918332 -0.38978458738689759 0 -0.46202672064839212 -0.40007602488395211 0 -0.48101336032419229 -0.41069999664450008 0 -0.46202672064839212 -0.40007602488395211 0 -0.47854472220918332 -0.38978458738689759 0 -0.46725442735267431 -0.37660061361585562 0 -0.46202672064839212 -0.40007602488395211 0 -0.47854472220918332 -0.38978458738689759 0 -0.46725442735267431 -0.37660061361585562 0 -0.48422759779560409 -0.37130120630367158 0 -0.46725442735267431 -0.37660061361585562 0 -0.46202672064839212 -0.40007602488395211 0 -0.46725442735267431 -0.37660061361585562 0 -0.45645674801697989 -0.38644133236760531 0 -0.46202672064839212 -0.40007602488395211 0 -0.46725442735267431 -0.37660061361585562 0 -0.45645674801697989 -0.38644133236760531 0 -0.4540003998136638 -0.37455519391687309 0 -0.45645674801697989 -0.38644133236760531 0 -0.46202672064839212 -0.40007602488395211 0 -0.44257020456291563 -0.38918913383950271 0 -0.46202672064839212 -0.40007602488395211 0 -0.44257020456291563 -0.38918913383950271 0 -0.44727608925983742 -0.41095911152778891 0 -0.46202672064839212 -0.40007602488395211 0 -0.44257020456291563 -0.38918913383950271 0 -0.44257020456291563 -0.38918913383950271 0 -0.44727608925983742 -0.41095911152778891 0 -0.43479358559901082 -0.4041454901736512 0 -0.44257020456291563 -0.38918913383950271 0 -0.4540003998136638 -0.37455519391687309 0 -0.44172858264042247 -0.37082207246888088 0 -0.45645674801697989 -0.38644133236760531 0 -0.44257020456291563 -0.38918913383950271 0 -0.4540003998136638 -0.37455519391687309 0 -0.46202672064839212 -0.40007602488395211 0 -0.45555437223955858 -0.42914059360647611 0 -0.44727608925983742 -0.41095911152778891 0 -0.46202672064839212 -0.40007602488395211 0 -0.45555437223955858 -0.42914059360647611 0 -0.48101336032419229 -0.41069999664450008 0 -0.46202672064839212 -0.40007602488395211 0 -0.45555437223955858 -0.42914059360647611 0 -0.44727608925983742 -0.41095911152778891 0 -0.43867285131603428 -0.4271457417558665 0 -0.43676601469929588 -0.41441201227470881 0 -0.44727608925983742 -0.41095911152778891 0 -0.43676601469929588 -0.41441201227470881 0 -0.43479358559901082 -0.4041454901736512 0 -0.45555437223955858 -0.42914059360647611 0 -0.44727608925983742 -0.41095911152778891 0 -0.43867285131603428 -0.4271457417558665 0 -0.43867285131603428 -0.4271457417558665 0 -0.42681803064840879 -0.42717069814352421 0 -0.4263356171060747 -0.44269880333887462 0 -0.42681803064840879 -0.42717069814352421 0 -0.41531815884496182 -0.42985383783075998 0 -0.4263356171060747 -0.44269880333887462 0 -0.42681803064840879 -0.42717069814352421 0 -0.42624289495594048 -0.42089725947505818 0 -0.42083332353326591 -0.42146747131641099 0 -0.42681803064840879 -0.42717069814352421 0 -0.43096994786351572 -0.41951492446283251 0 -0.42624289495594048 -0.42089725947505818 0 -0.43867285131603428 -0.4271457417558665 0 -0.42681803064840879 -0.42717069814352421 0 -0.43096994786351572 -0.41951492446283251 0 -0.43867285131603428 -0.4271457417558665 0 -0.43676601469929588 -0.41441201227470881 0 -0.43096994786351572 -0.41951492446283251 0 -0.43676601469929588 -0.41441201227470881 0 -0.43096994786351572 -0.41951492446283251 0 -0.42907264086257813 -0.41311715872526122 0 -0.43676601469929588 -0.41441201227470881 0 -0.42907264086257813 -0.41311715872526122 0 -0.43479358559901082 -0.4041454901736512 0 -0.42907264086257813 -0.41311715872526122 0 -0.43479358559901082 -0.4041454901736512 0 -0.42460885511582858 -0.40417321677700252 0 -0.42907264086257813 -0.41311715872526122 0 -0.41997834854398469 -0.41180534796019508 0 -0.42907264086257813 -0.41311715872526122 0 -0.42635027777857132 -0.41543594397746519 0 -0.41997834854398469 -0.41180534796019508 0 -0.42907264086257813 -0.41311715872526122 0 -0.41997834854398469 -0.41180534796019508 0 -0.42460885511582858 -0.40417321677700252 0 -0.42635027777857132 -0.41543594397746519 0 -0.41997834854398469 -0.41180534796019508 0 -0.42635027777857132 -0.41543594397746519 0 -0.42083332353326591 -0.42146747131641099 0 -0.41997834854398469 -0.41180534796019508 0 -0.43096994786351572 -0.41951492446283251 0 -0.42624289495594048 -0.42089725947505818 0 -0.42635027777857132 -0.41543594397746519 0 -0.43096994786351572 -0.41951492446283251 0 -0.42907264086257813 -0.41311715872526122 0 -0.42635027777857132 -0.41543594397746519 0 -0.42624289495594048 -0.42089725947505818 0 -0.42635027777857132 -0.41543594397746519 0 -0.42083332353326591 -0.42146747131641099 0 -0.42083332353326591 -0.42146747131641099 0 -0.41997834854398469 -0.41180534796019508 0 -0.40992282953163789 -0.42011435591993562 0 -0.41997834854398469 -0.41180534796019508 0 -0.39756877647335259 -0.40857286797681719 0 -0.41997834854398469 -0.41180534796019508 0 -0.40992282953163789 -0.42011435591993562 0 -0.39756877647335259 -0.40857286797681719 0 -0.40992282953163789 -0.42011435591993562 0 -0.41531815884496182 -0.42985383783075998 0 -0.39591554026262499 -0.42887225451549271 0 -0.41531815884496182 -0.42985383783075998 0 -0.39591554026262499 -0.42887225451549271 0 -0.41160927495564159 -0.44339431233754628 0 -0.42083332353326591 -0.42146747131641099 0 -0.40992282953163789 -0.42011435591993562 0 -0.41531815884496182 -0.42985383783075998 0 -0.42681803064840879 -0.42717069814352421 0 -0.42083332353326591 -0.42146747131641099 0 -0.41531815884496182 -0.42985383783075998 0 -0.44257020456291563 -0.38918913383950271 0 -0.42311368847744002 -0.37830224279505142 0 -0.42594061475171041 -0.39368797999533162 0 -0.44257020456291563 -0.38918913383950271 0 -0.42311368847744002 -0.37830224279505142 0 -0.44172858264042247 -0.37082207246888088 0 -0.44257020456291563 -0.38918913383950271 0 -0.42311368847744002 -0.37830224279505142 0 -0.42311368847744002 -0.37830224279505142 0 -0.42594061475171041 -0.39368797999533162 0 -0.416587075656149 -0.38785930376960043 0 -0.44257020456291563 -0.38918913383950271 0 -0.42594061475171041 -0.39368797999533162 0 -0.43479358559901082 -0.4041454901736512 0 -0.42594061475171041 -0.39368797999533162 0 -0.43479358559901082 -0.4041454901736512 0 -0.42460885511582858 -0.40417321677700252 0 -0.41997834854398469 -0.41180534796019508 0 -0.41325908582185972 -0.39811010703057192 0 -0.39770572831670092 -0.39911486077581648 0 -0.41997834854398469 -0.41180534796019508 0 -0.39770572831670092 -0.39911486077581648 0 -0.42594061475171041 -0.39368797999533162 0 -0.42460885511582858 -0.40417321677700252 0 -0.41325908582185972 -0.39811010703057192 0 -0.41997834854398469 -0.41180534796019508 0 -0.42460885511582858 -0.40417321677700252 0 -0.41325908582185972 -0.39811010703057192 0 -0.42594061475171041 -0.39368797999533162 0 -0.41325908582185972 -0.39811010703057192 0 -0.416587075656149 -0.38785930376960043 0 -0.41325908582185972 -0.39811010703057192 0 -0.416587075656149 -0.38785930376960043 0 -0.40403491357358612 -0.38133688525744702 0 -0.42311368847744002 -0.37830224279505142 0 -0.40403491357358612 -0.38133688525744702 0 -0.40365717239196519 -0.36741535175059892 0 -0.42311368847744002 -0.37830224279505142 0 -0.416587075656149 -0.38785930376960043 0 -0.40403491357358612 -0.38133688525744702 0 -0.40403491357358612 -0.38133688525744702 0 -0.39190790742475001 -0.38540387676521748 0 -0.39770572831670092 -0.39911486077581648 0 -0.40403491357358612 -0.38133688525744702 0 -0.39190790742475001 -0.38540387676521748 0 -0.3904578797192948 -0.37473938743617019 0 -0.41325908582185972 -0.39811010703057192 0 -0.40403491357358612 -0.38133688525744702 0 -0.39770572831670092 -0.39911486077581648 0 -0.39770572831670092 -0.39911486077581648 0 -0.37543310808941849 -0.38642437359143528 0 -0.39770572831670092 -0.39911486077581648 0 -0.37515920440272033 -0.40534038799344108 0 -0.37543310808941849 -0.38642437359143528 0 -0.39770572831670092 -0.39911486077581648 0 -0.37515920440272033 -0.40534038799344108 0 -0.39756877647335259 -0.40857286797681719 0 -0.37515920440272033 -0.40534038799344108 0 -0.37543310808941849 -0.38642437359143528 0 -0.37543310808941849 -0.38642437359143528 0 -0.3904578797192948 -0.37473938743617019 0 -0.37568304780698558 -0.36916333065311507 0 -0.39190790742475001 -0.38540387676521748 0 -0.37543310808941849 -0.38642437359143528 0 -0.3904578797192948 -0.37473938743617019 0 -0.37543310808941849 -0.38642437359143528 0 -0.37568304780698558 -0.36916333065311507 0 -0.39190790742475001 -0.38540387676521748 0 -0.39770572831670092 -0.39911486077581648 0 -0.37543310808941849 -0.38642437359143528 0 -0.41997834854398469 -0.41180534796019508 0 -0.39770572831670092 -0.39911486077581648 0 -0.39756877647335259 -0.40857286797681719 0 -0.40992282953163789 -0.42011435591993562 0 -0.39591554026262499 -0.42887225451549271 0 -0.39756877647335259 -0.40857286797681719 0 -0.37515920440272033 -0.40534038799344108 0 -0.39591554026262499 -0.42887225451549271 0 -0.39756877647335259 -0.40857286797681719 0 -0.37515920440272033 -0.40534038799344108 0 -0.39756877647335259 -0.40857286797681719 0 -0.37515920440272033 -0.40534038799344108 0 -0.39591554026262499 -0.42887225451549271 0 -0.37472313619600889 -0.43545561783144832 0 -0.39591554026262499 -0.42887225451549271 0 -0.39301703415267508 -0.44654444244683272 0 -0.37472313619600889 -0.43545561783144832 0 -0.39301703415267508 -0.44654444244683272 0 -0.37428706798929601 -0.46557084766945539 0 -0.37472313619600889 -0.43545561783144832 0 -0.39591554026262499 -0.42887225451549271 0 -0.39301703415267508 -0.44654444244683272 0 -0.41160927495564159 -0.44339431233754628 0 -0.39301703415267508 -0.44654444244683272 0 -0.40396056051613372 -0.45751466911048011 0 -0.41160927495564159 -0.44339431233754628 0 -0.40396056051613372 -0.45751466911048011 0 -0.39245383412573559 -0.47875733455523922 0 -0.41207507163844148 -0.46917161410542801 0 -0.40396056051613372 -0.45751466911048011 0 -0.38912381425271458 -0.46154275838996711 0 -0.39245383412573559 -0.47875733455523922 0 -0.40396056051613372 -0.45751466911048011 0 -0.39245383412573559 -0.47875733455523922 0 -0.40396056051613372 -0.45751466911048011 0 -0.40649676728151513 -0.45682610390212369 0 -0.40396056051613372 -0.45751466911048011 0 -0.38912381425271458 -0.46154275838996711 0 -0.39301703415267508 -0.44654444244683272 0 -0.40396056051613372 -0.45751466911048011 0 -0.38912381425271458 -0.46154275838996711 0 -0.39301703415267508 -0.44654444244683272 0 -0.38912381425271458 -0.46154275838996711 0 -0.37428706798929601 -0.46557084766945539 0 -0.38912381425271458 -0.46154275838996711 0 -0.37428706798929601 -0.46557084766945539 0 -0.38912381425271458 -0.46154275838996711 0 -0.38378714202547332 -0.47159002408209011 0 -0.37428706798929601 -0.46557084766945539 0 -0.38378714202547332 -0.47159002408209011 0 -0.39245383412573559 -0.47875733455523922 0 -0.37411677223754131 -0.47733161267270968 0 -0.39245383412573559 -0.47875733455523922 0 -0.37240076261097882 -0.48974555046165519 0 -0.37411677223754131 -0.47733161267270968 0 -0.38378714202547332 -0.47159002408209011 0 -0.37411677223754131 -0.47733161267270968 0 -0.37428706798929601 -0.46557084766945539 0 -0.38912381425271458 -0.46154275838996711 0 -0.38378714202547332 -0.47159002408209011 0 -0.39245383412573559 -0.47875733455523922 0 -0.38094710773533791 -0.49999999999999839 0 -0.39245383412573559 -0.47875733455523922 0 -0.38094710773533791 -0.49999999999999839 0 -0.39245383412573559 -0.47875733455523922 0 -0.37240076261097882 -0.48974555046165519 0 -0.38094710773533791 -0.49999999999999839 0 -0.39245383412573559 -0.47875733455523922 0 -0.40997732063196057 -0.5 0 -0.39245383412573559 -0.47875733455523922 0 -0.41207507163844148 -0.46917161410542801 0 -0.40997732063196057 -0.5 0 -0.41207507163844148 -0.46917161410542801 0 -0.40997732063196057 -0.5 0 -0.42881687682924802 -0.47781464288736519 0 -0.44860394795025399 -0.5 0 -0.40997732063196057 -0.5 0 -0.42881687682924802 -0.47781464288736519 0 -0.41207507163844148 -0.46917161410542801 0 -0.42881687682924802 -0.47781464288736519 0 -0.42627766738448791 -0.46032764904509182 0 -0.4490820238307246 -0.45820516232899983 0 -0.42881687682924802 -0.47781464288736519 0 -0.42627766738448791 -0.46032764904509182 0 -0.4490820238307246 -0.45820516232899983 0 -0.42627766738448791 -0.46032764904509182 0 -0.4263356171060747 -0.44269880333887462 0 -0.42627766738448791 -0.46032764904509182 0 -0.4263356171060747 -0.44269880333887462 0 -0.41655419253802572 -0.45404861160063659 0 -0.4263356171060747 -0.44269880333887462 0 -0.41160927495564159 -0.44339431233754628 0 -0.41655419253802572 -0.45404861160063659 0 -0.41531815884496182 -0.42985383783075998 0 -0.4263356171060747 -0.44269880333887462 0 -0.41160927495564159 -0.44339431233754628 0 -0.40396056051613372 -0.45751466911048011 0 -0.41160927495564159 -0.44339431233754628 0 -0.40649676728151513 -0.45682610390212369 0 -0.41160927495564159 -0.44339431233754628 0 -0.40649676728151513 -0.45682610390212369 0 -0.41655419253802572 -0.45404861160063659 0 -0.40396056051613372 -0.45751466911048011 0 -0.41160927495564159 -0.44339431233754628 0 -0.41207507163844148 -0.46917161410542801 0 -0.40649676728151513 -0.45682610390212369 0 -0.41655419253802572 -0.45404861160063659 0 -0.40396056051613372 -0.45751466911048011 0 -0.41207507163844148 -0.46917161410542801 0 -0.40649676728151513 -0.45682610390212369 0 -0.41207507163844148 -0.46917161410542801 0 -0.42627766738448791 -0.46032764904509182 0 -0.41655419253802572 -0.45404861160063659 0 -0.45662330498375908 -0.25656877445722759 0 -0.43445882011373449 -0.25478651907497341 0 -0.45662330498375908 -0.25656877445722759 0 -0.43445882011373449 -0.25478651907497341 0 -0.45034617445999431 -0.24335722649563979 0 -0.44999384684511368 -0.2755750489792308 0 -0.45662330498375908 -0.25656877445722759 0 -0.43445882011373449 -0.25478651907497341 0 -0.44999384684511368 -0.2755750489792308 0 -0.43077531442077321 -0.27459050524281542 0 -0.43445882011373449 -0.25478651907497341 0 -0.44999384684511368 -0.2755750489792308 0 -0.441361257405879 -0.29303276451920029 0 -0.43077531442077321 -0.27459050524281542 0 -0.44999384684511368 -0.2755750489792308 0 -0.4670541169931961 -0.26846056693166809 0 -0.46910519348062618 -0.28320526693770848 0 -0.44999384684511368 -0.2755750489792308 0 -0.4670541169931961 -0.26846056693166809 0 -0.45662330498375908 -0.25656877445722759 0 -0.45662330498375908 -0.25656877445722759 0 -0.47878778985378329 -0.25835102983948688 0 -0.4670541169931961 -0.26846056693166809 0 -0.45662330498375908 -0.25656877445722759 0 -0.47878778985378329 -0.25835102983948688 0 -0.45662330498375908 -0.25656877445722759 0 -0.47878778985378329 -0.25835102983948688 0 -0.47142395938804471 -0.23802335247430181 0 -0.47878778985378329 -0.25835102983948688 0 -0.5 -0.25669760885461612 0 -0.48361763707807442 -0.27426406281091331 0 -0.47878778985378329 -0.25835102983948688 0 -0.5 -0.25669760885461612 0 -0.4875835208682564 -0.24248539692068891 0 -0.5 -0.25669760885461612 0 -0.48361763707807442 -0.27426406281091331 0 -0.5 -0.28413533544635422 0 -0.4670541169931961 -0.26846056693166809 0 -0.47878778985378329 -0.25835102983948688 0 -0.48361763707807442 -0.27426406281091331 0 -0.4670541169931961 -0.26846056693166809 0 -0.48361763707807442 -0.27426406281091331 0 -0.46910519348062618 -0.28320526693770848 0 -0.46910519348062618 -0.28320526693770848 0 -0.48580896399913942 -0.29193665231809679 0 -0.47164434439118558 -0.29859902487093259 0 -0.48361763707807442 -0.27426406281091331 0 -0.46910519348062618 -0.28320526693770848 0 -0.48580896399913942 -0.29193665231809679 0 -0.5 -0.28413533544635422 0 -0.48580896399913942 -0.29193665231809679 0 -0.5 -0.3115730620380921 0 -0.48361763707807442 -0.27426406281091331 0 -0.5 -0.28413533544635422 0 -0.48580896399913942 -0.29193665231809679 0 -0.48580896399913942 -0.29193665231809679 0 -0.5 -0.3115730620380921 0 -0.48293754746551898 -0.30617437981156609 0 -0.48293754746551898 -0.30617437981156609 0 -0.47164434439118558 -0.29859902487093259 0 -0.47203566342767839 -0.31514771464943409 0 -0.48580896399913942 -0.29193665231809679 0 -0.48293754746551898 -0.30617437981156609 0 -0.47164434439118558 -0.29859902487093259 0 -0.47164434439118558 -0.29859902487093259 0 -0.46096111539772322 -0.3069557537098867 0 -0.47203566342767839 -0.31514771464943409 0 -0.46096111539772322 -0.3069557537098867 0 -0.44739706002137658 -0.30395698434733032 0 -0.45229582611609759 -0.31444164243390338 0 -0.46096111539772322 -0.3069557537098867 0 -0.45682111422556548 -0.29317658806621089 0 -0.44739706002137658 -0.30395698434733032 0 -0.47164434439118558 -0.29859902487093259 0 -0.46096111539772322 -0.3069557537098867 0 -0.45682111422556548 -0.29317658806621089 0 -0.44999384684511368 -0.2755750489792308 0 -0.46910519348062618 -0.28320526693770848 0 -0.45682111422556548 -0.29317658806621089 0 -0.46910519348062618 -0.28320526693770848 0 -0.47164434439118558 -0.29859902487093259 0 -0.45682111422556548 -0.29317658806621089 0 -0.44999384684511368 -0.2755750489792308 0 -0.45682111422556548 -0.29317658806621089 0 -0.441361257405879 -0.29303276451920029 0 -0.45682111422556548 -0.29317658806621089 0 -0.441361257405879 -0.29303276451920029 0 -0.44739706002137658 -0.30395698434733032 0 -0.441361257405879 -0.29303276451920029 0 -0.44739706002137658 -0.30395698434733032 0 -0.43527018611072049 -0.30465000121327751 0 -0.44739706002137658 -0.30395698434733032 0 -0.44024276041750632 -0.31887045497680111 0 -0.43527018611072049 -0.30465000121327751 0 -0.44739706002137658 -0.30395698434733032 0 -0.45229582611609759 -0.31444164243390338 0 -0.44024276041750632 -0.31887045497680111 0 -0.44024276041750632 -0.31887045497680111 0 -0.45653421084860168 -0.32646185290925811 0 -0.44024276041750632 -0.31887045497680111 0 -0.43930980958642257 -0.33554338078202212 0 -0.45653421084860168 -0.32646185290925811 0 -0.45229582611609759 -0.31444164243390338 0 -0.44024276041750632 -0.31887045497680111 0 -0.45653421084860168 -0.32646185290925811 0 -0.43930980958642257 -0.33554338078202212 0 -0.44966367396753332 -0.33841986907325933 0 -0.46855294336124231 -0.32873531729210143 0 -0.43930980958642257 -0.33554338078202212 0 -0.4507851133594416 -0.34910720111649318 0 -0.43930980958642257 -0.33554338078202212 0 -0.44966367396753332 -0.33841986907325933 0 -0.4507851133594416 -0.34910720111649318 0 -0.44966367396753332 -0.33841986907325933 0 -0.46855294336124231 -0.32873531729210143 0 -0.46386644800117471 -0.33586508895417932 0 -0.43930980958642257 -0.33554338078202212 0 -0.46855294336124231 -0.32873531729210143 0 -0.43930980958642257 -0.33554338078202212 0 -0.46855294336124231 -0.32873531729210143 0 -0.45653421084860168 -0.32646185290925811 0 -0.44966367396753332 -0.33841986907325933 0 -0.4586808436472537 -0.3401528003513713 0 -0.45711636988675219 -0.34547487934353349 0 -0.44966367396753332 -0.33841986907325933 0 -0.4586808436472537 -0.3401528003513713 0 -0.46386644800117471 -0.33586508895417932 0 -0.4586808436472537 -0.3401528003513713 0 -0.46472493826860672 -0.34236766697450172 0 -0.45711636988675219 -0.34547487934353349 0 -0.4586808436472537 -0.3401528003513713 0 -0.46472493826860672 -0.34236766697450172 0 -0.46386644800117471 -0.33586508895417932 0 -0.46855294336124231 -0.32873531729210143 0 -0.46207595183026873 -0.31834845619891672 0 -0.47203566342767839 -0.31514771464943409 0 -0.46855294336124231 -0.32873531729210143 0 -0.45653421084860168 -0.32646185290925811 0 -0.46207595183026873 -0.31834845619891672 0 -0.46096111539772322 -0.3069557537098867 0 -0.45229582611609759 -0.31444164243390338 0 -0.46207595183026873 -0.31834845619891672 0 -0.45229582611609759 -0.31444164243390338 0 -0.45653421084860168 -0.32646185290925811 0 -0.46207595183026873 -0.31834845619891672 0 -0.46096111539772322 -0.3069557537098867 0 -0.46207595183026873 -0.31834845619891672 0 -0.47203566342767839 -0.31514771464943409 0 -0.48293754746551898 -0.30617437981156609 0 -0.47203566342767839 -0.31514771464943409 0 -0.47770984076123751 -0.32964979107966252 0 -0.48293754746551898 -0.30617437981156609 0 -0.47770984076123751 -0.32964979107966252 0 -0.48293754746551898 -0.30617437981156609 0 -0.48763303240419292 -0.31981883507337211 0 -0.47770984076123751 -0.32964979107966252 0 -0.46855294336124231 -0.32873531729210143 0 -0.47203566342767839 -0.31514771464943409 0 -0.47770984076123751 -0.32964979107966252 0 -0.5 -0.3115730620380921 0 -0.5 -0.33901078862982997 0 -0.49048543526404831 -0.32960291085151988 0 -0.5 -0.3115730620380921 0 -0.48763303240419292 -0.31981883507337211 0 -0.49048543526404831 -0.32960291085151988 0 -0.5 -0.3115730620380921 0 -0.48293754746551898 -0.30617437981156609 0 -0.48763303240419292 -0.31981883507337211 0 -0.48763303240419292 -0.31981883507337211 0 -0.49048543526404831 -0.32960291085151988 0 -0.47770984076123751 -0.32964979107966252 0 -0.49048543526404831 -0.32960291085151988 0 -0.47770984076123751 -0.32964979107966252 0 -0.48708430315481122 -0.3479620774366432 0 -0.5 -0.33901078862982997 0 -0.49048543526404831 -0.32960291085151988 0 -0.48708430315481122 -0.3479620774366432 0 -0.47770984076123751 -0.32964979107966252 0 -0.47248213405695583 -0.35312520234775913 0 -0.47770984076123751 -0.32964979107966252 0 -0.47248213405695583 -0.35312520234775913 0 -0.48708430315481122 -0.3479620774366432 0 -0.46472493826860672 -0.34236766697450172 0 -0.47770984076123751 -0.32964979107966252 0 -0.47248213405695583 -0.35312520234775913 0 -0.46855294336124231 -0.32873531729210143 0 -0.46386644800117471 -0.33586508895417932 0 -0.47770984076123751 -0.32964979107966252 0 -0.46472493826860672 -0.34236766697450172 0 -0.46386644800117471 -0.33586508895417932 0 -0.47770984076123751 -0.32964979107966252 0 -0.47248213405695583 -0.35312520234775913 0 -0.48708430315481122 -0.3479620774366432 0 -0.48422759779560409 -0.37130120630367158 0 -0.5 -0.33901078862982997 0 -0.48708430315481122 -0.3479620774366432 0 -0.5 -0.36644851522156802 0 -0.48708430315481122 -0.3479620774366432 0 -0.5 -0.36644851522156802 0 -0.48422759779560409 -0.37130120630367158 0 -0.46725442735267431 -0.37660061361585562 0 -0.47248213405695583 -0.35312520234775913 0 -0.48422759779560409 -0.37130120630367158 0 -0.46725442735267431 -0.37660061361585562 0 -0.47248213405695583 -0.35312520234775913 0 -0.46725442735267431 -0.37660061361585562 0 -0.4540003998136638 -0.37455519391687309 0 -0.46226041713245919 -0.36267102145096558 0 -0.46725442735267431 -0.37660061361585562 0 -0.47248213405695583 -0.35312520234775913 0 -0.46226041713245919 -0.36267102145096558 0 -0.4540003998136638 -0.37455519391687309 0 -0.46226041713245919 -0.36267102145096558 0 -0.45167034254705118 -0.36337553476545958 0 -0.47248213405695583 -0.35312520234775913 0 -0.46226041713245919 -0.36267102145096558 0 -0.46130034509645268 -0.35111989715704561 0 -0.46472493826860672 -0.34236766697450172 0 -0.47248213405695583 -0.35312520234775913 0 -0.46130034509645268 -0.35111989715704561 0 -0.46472493826860672 -0.34236766697450172 0 -0.46130034509645268 -0.35111989715704561 0 -0.45711636988675219 -0.34547487934353349 0 -0.46130034509645268 -0.35111989715704561 0 -0.45711636988675219 -0.34547487934353349 0 -0.4507851133594416 -0.34910720111649318 0 -0.46226041713245919 -0.36267102145096558 0 -0.4507851133594416 -0.34910720111649318 0 -0.45167034254705118 -0.36337553476545958 0 -0.46226041713245919 -0.36267102145096558 0 -0.46130034509645268 -0.35111989715704561 0 -0.4507851133594416 -0.34910720111649318 0 -0.46226041713245919 -0.36267102145096558 0 -0.4507851133594416 -0.34910720111649318 0 -0.4507851133594416 -0.34910720111649318 0 -0.44504098357239391 -0.35771747353496869 0 -0.45167034254705118 -0.36337553476545958 0 -0.44966367396753332 -0.33841986907325933 0 -0.45711636988675219 -0.34547487934353349 0 -0.4507851133594416 -0.34910720111649318 0 -0.4507851133594416 -0.34910720111649318 0 -0.44408457896710762 -0.34741130507322732 0 -0.44504098357239391 -0.35771747353496869 0 -0.43930980958642257 -0.33554338078202212 0 -0.4507851133594416 -0.34910720111649318 0 -0.44408457896710762 -0.34741130507322732 0 -0.44408457896710762 -0.34741130507322732 0 -0.43834809566141358 -0.35386966642967582 0 -0.4310745521241639 -0.35060051531725012 0 -0.44408457896710762 -0.34741130507322732 0 -0.43834809566141358 -0.35386966642967582 0 -0.44504098357239391 -0.35771747353496869 0 -0.43834809566141358 -0.35386966642967582 0 -0.44504098357239391 -0.35771747353496869 0 -0.43256408976529492 -0.36260533289695268 0 -0.44504098357239391 -0.35771747353496869 0 -0.44172858264042247 -0.37082207246888088 0 -0.43256408976529492 -0.36260533289695268 0 -0.4540003998136638 -0.37455519391687309 0 -0.44172858264042247 -0.37082207246888088 0 -0.45167034254705118 -0.36337553476545958 0 -0.44504098357239391 -0.35771747353496869 0 -0.44172858264042247 -0.37082207246888088 0 -0.45167034254705118 -0.36337553476545958 0 -0.42311368847744002 -0.37830224279505142 0 -0.44172858264042247 -0.37082207246888088 0 -0.43256408976529492 -0.36260533289695268 0 -0.42311368847744002 -0.37830224279505142 0 -0.43256408976529492 -0.36260533289695268 0 -0.41867380740831611 -0.36398836527224071 0 -0.43256408976529492 -0.36260533289695268 0 -0.42210656065146929 -0.35476551363046099 0 -0.41867380740831611 -0.36398836527224071 0 -0.44408457896710762 -0.34741130507322732 0 -0.4310745521241639 -0.35060051531725012 0 -0.42443636388738298 -0.3390060521705498 0 -0.43834809566141358 -0.35386966642967582 0 -0.43256408976529492 -0.36260533289695268 0 -0.4310745521241639 -0.35060051531725012 0 -0.4310745521241639 -0.35060051531725012 0 -0.42266042161335821 -0.34652378860874011 0 -0.42210656065146929 -0.35476551363046099 0 -0.4310745521241639 -0.35060051531725012 0 -0.42266042161335821 -0.34652378860874011 0 -0.42443636388738298 -0.3390060521705498 0 -0.43256408976529492 -0.36260533289695268 0 -0.4310745521241639 -0.35060051531725012 0 -0.42210656065146929 -0.35476551363046099 0 -0.42210656065146929 -0.35476551363046099 0 -0.41243440171204931 -0.35621682403100541 0 -0.41867380740831611 -0.36398836527224071 0 -0.41243440171204931 -0.35621682403100541 0 -0.40365717239196519 -0.36741535175059892 0 -0.40302160193259851 -0.3439916005776541 0 -0.42210656065146929 -0.35476551363046099 0 -0.41714587076776338 -0.34786779488983011 0 -0.41243440171204931 -0.35621682403100541 0 -0.42266042161335821 -0.34652378860874011 0 -0.42210656065146929 -0.35476551363046099 0 -0.41714587076776338 -0.34786779488983011 0 -0.42266042161335821 -0.34652378860874011 0 -0.41714587076776338 -0.34786779488983011 0 -0.41853876063601031 -0.34037906703560689 0 -0.41714587076776338 -0.34786779488983011 0 -0.41853876063601031 -0.34037906703560689 0 -0.41714587076776338 -0.34786779488983011 0 -0.41243440171204931 -0.35621682403100541 0 -0.40302160193259851 -0.3439916005776541 0 -0.41714587076776338 -0.34786779488983011 0 -0.40302160193259851 -0.3439916005776541 0 -0.41853876063601031 -0.34037906703560689 0 -0.42311368847744002 -0.37830224279505142 0 -0.41867380740831611 -0.36398836527224071 0 -0.40365717239196519 -0.36741535175059892 0 -0.42311368847744002 -0.37830224279505142 0 -0.40365717239196519 -0.36741535175059892 0 -0.41243440171204931 -0.35621682403100541 0 -0.41867380740831611 -0.36398836527224071 0 -0.40365717239196519 -0.36741535175059892 0 -0.40403491357358612 -0.38133688525744702 0 -0.40365717239196519 -0.36741535175059892 0 -0.40403491357358612 -0.38133688525744702 0 -0.40365717239196519 -0.36741535175059892 0 -0.3904578797192948 -0.37473938743617019 0 -0.40365717239196519 -0.36741535175059892 0 -0.38979507995825918 -0.35965881973269581 0 -0.40365717239196519 -0.36741535175059892 0 -0.3904578797192948 -0.37473938743617019 0 -0.38979507995825918 -0.35965881973269581 0 -0.3904578797192948 -0.37473938743617019 0 -0.38979507995825918 -0.35965881973269581 0 -0.37568304780698558 -0.36916333065311507 0 -0.37568304780698558 -0.36916333065311507 0 -0.37593298752455201 -0.35190228771479481 0 -0.38979507995825918 -0.35965881973269581 0 -0.37568304780698558 -0.36916333065311507 0 -0.37593298752455201 -0.35190228771479481 0 -0.38979507995825918 -0.35965881973269581 0 -0.37595629511297179 -0.35029264644438168 0 -0.40302160193259851 -0.3439916005776541 0 -0.37595629511297179 -0.35029264644438168 0 -0.40302160193259851 -0.3439916005776541 0 -0.38842354837557669 -0.33756560667471242 0 -0.37595629511297179 -0.35029264644438168 0 -0.40302160193259851 -0.3439916005776541 0 -0.37595629511297179 -0.35029264644438168 0 -0.37607676276689278 -0.3419730509543204 0 -0.37390838074359528 -0.35076941925389299 0 -0.37595629511297179 -0.35029264644438168 0 -0.37607676276689278 -0.3419730509543204 0 -0.37595629511297179 -0.35029264644438168 0 -0.37593298752455201 -0.35190228771479481 0 -0.37390838074359528 -0.35076941925389299 0 -0.37595629511297179 -0.35029264644438168 0 -0.37593298752455201 -0.35190228771479481 0 -0.38979507995825918 -0.35965881973269581 0 -0.37595629511297179 -0.35029264644438168 0 -0.37593298752455201 -0.35190228771479481 0 -0.38979507995825918 -0.35965881973269581 0 -0.37593298752455201 -0.35190228771479481 0 -0.40365717239196519 -0.36741535175059892 0 -0.40302160193259851 -0.3439916005776541 0 -0.40365717239196519 -0.36741535175059892 0 -0.38979507995825918 -0.35965881973269581 0 -0.40302160193259851 -0.3439916005776541 0 -0.40302160193259851 -0.3439916005776541 0 -0.40263324863316441 -0.32967896077653092 0 -0.40263324863316441 -0.32967896077653092 0 -0.38842354837557669 -0.33756560667471242 0 -0.38442983343225828 -0.32189177462067481 0 -0.40302160193259851 -0.3439916005776541 0 -0.40263324863316441 -0.32967896077653092 0 -0.38842354837557669 -0.33756560667471242 0 -0.37607676276689278 -0.3419730509543204 0 -0.37641717267996733 -0.3184640617331177 0 -0.38842354837557669 -0.33756560667471242 0 -0.37607676276689278 -0.3419730509543204 0 -0.38442983343225828 -0.32189177462067481 0 -0.37607676276689278 -0.3419730509543204 0 -0.38442983343225828 -0.32189177462067481 0 -0.37595629511297179 -0.35029264644438168 0 -0.38842354837557669 -0.33756560667471242 0 -0.37607676276689278 -0.3419730509543204 0 -0.37607676276689278 -0.3419730509543204 0 -0.37641717267996733 -0.3184640617331177 0 -0.38442983343225828 -0.32189177462067481 0 -0.37641717267996733 -0.3184640617331177 0 -0.38442983343225828 -0.32189177462067481 0 -0.3841914044669909 -0.30132118344037401 0 -0.37641717267996733 -0.3184640617331177 0 -0.38442983343225828 -0.32189177462067481 0 -0.40263324863316441 -0.32967896077653092 0 -0.38442983343225828 -0.32189177462067481 0 -0.40185461233875269 -0.30098256284660307 0 -0.40263324863316441 -0.32967896077653092 0 -0.38442983343225828 -0.32189177462067481 0 -0.40263324863316441 -0.32967896077653092 0 -0.40185461233875269 -0.30098256284660307 0 -0.40263324863316441 -0.32967896077653092 0 -0.41242695344044827 -0.31820451366256841 0 -0.40185461233875269 -0.30098256284660307 0 -0.41242695344044827 -0.31820451366256841 0 -0.41920998916455232 -0.33677027649670849 0 -0.42301959421646518 -0.31628833020920039 0 -0.41920998916455232 -0.33677027649670849 0 -0.42301959421646518 -0.31628833020920039 0 -0.41242695344044827 -0.31820451366256841 0 -0.42301959421646518 -0.31628833020920039 0 -0.41541732284930832 -0.30730243798379953 0 -0.40302160193259851 -0.3439916005776541 0 -0.41920998916455232 -0.33677027649670849 0 -0.41853876063601031 -0.34037906703560689 0 -0.40302160193259851 -0.3439916005776541 0 -0.40263324863316441 -0.32967896077653092 0 -0.41920998916455232 -0.33677027649670849 0 -0.40263324863316441 -0.32967896077653092 0 -0.41920998916455232 -0.33677027649670849 0 -0.40263324863316441 -0.32967896077653092 0 -0.41242695344044827 -0.31820451366256841 0 -0.41920998916455232 -0.33677027649670849 0 -0.40302160193259851 -0.3439916005776541 0 -0.41853876063601031 -0.34037906703560689 0 -0.41853876063601031 -0.34037906703560689 0 -0.42443636388738298 -0.3390060521705498 0 -0.41920998916455232 -0.33677027649670849 0 -0.42443636388738298 -0.3390060521705498 0 -0.41920998916455232 -0.33677027649670849 0 -0.41853876063601031 -0.34037906703560689 0 -0.42443636388738298 -0.3390060521705498 0 -0.41920998916455232 -0.33677027649670849 0 -0.41853876063601031 -0.34037906703560689 0 -0.43930980958642257 -0.33554338078202212 0 -0.44408457896710762 -0.34741130507322732 0 -0.42443636388738298 -0.3390060521705498 0 -0.43930980958642257 -0.33554338078202212 0 -0.42443636388738298 -0.3390060521705498 0 -0.42301959421646518 -0.31628833020920039 0 -0.41920998916455232 -0.33677027649670849 0 -0.42443636388738298 -0.3390060521705498 0 -0.42301959421646518 -0.31628833020920039 0 -0.44408457896710762 -0.34741130507322732 0 -0.42443636388738298 -0.3390060521705498 0 -0.42266042161335821 -0.34652378860874011 0 -0.41853876063601031 -0.34037906703560689 0 -0.42443636388738298 -0.3390060521705498 0 -0.43930980958642257 -0.33554338078202212 0 -0.42443636388738298 -0.3390060521705498 0 -0.43930980958642257 -0.33554338078202212 0 -0.42301959421646518 -0.31628833020920039 0 -0.44024276041750632 -0.31887045497680111 0 -0.42395130998641067 -0.31127905704434472 0 -0.44024276041750632 -0.31887045497680111 0 -0.43930980958642257 -0.33554338078202212 0 -0.42301959421646518 -0.31628833020920039 0 -0.44024276041750632 -0.31887045497680111 0 -0.42301959421646518 -0.31628833020920039 0 -0.42395130998641067 -0.31127905704434472 0 -0.42301959421646518 -0.31628833020920039 0 -0.42395130998641067 -0.31127905704434472 0 -0.42395130998641067 -0.31127905704434472 0 -0.42709180872781188 -0.29439449141065738 0 -0.44024276041750632 -0.31887045497680111 0 -0.42395130998641067 -0.31127905704434472 0 -0.43527018611072049 -0.30465000121327751 0 -0.42395130998641067 -0.31127905704434472 0 -0.42709180872781188 -0.29439449141065738 0 -0.41541732284930832 -0.30730243798379953 0 -0.42395130998641067 -0.31127905704434472 0 -0.43527018611072049 -0.30465000121327751 0 -0.42709180872781188 -0.29439449141065738 0 -0.441361257405879 -0.29303276451920029 0 -0.43527018611072049 -0.30465000121327751 0 -0.42709180872781188 -0.29439449141065738 0 -0.42709180872781188 -0.29439449141065738 0 -0.43077531442077321 -0.27459050524281542 0 -0.42709180872781188 -0.29439449141065738 0 -0.41684225135067149 -0.28376244362903152 0 -0.43077531442077321 -0.27459050524281542 0 -0.441361257405879 -0.29303276451920029 0 -0.42709180872781188 -0.29439449141065738 0 -0.441361257405879 -0.29303276451920029 0 -0.42709180872781188 -0.29439449141065738 0 -0.43077531442077321 -0.27459050524281542 0 -0.42709180872781188 -0.29439449141065738 0 -0.41684225135067149 -0.28376244362903152 0 -0.40618483967714292 -0.29638963380315841 0 -0.42709180872781188 -0.29439449141065738 0 -0.40618483967714292 -0.29638963380315841 0 -0.41684225135067149 -0.28376244362903152 0 -0.40690107601488551 -0.28490397733270861 0 -0.40618483967714292 -0.29638963380315841 0 -0.41541732284930832 -0.30730243798379953 0 -0.40185461233875269 -0.30098256284660307 0 -0.40618483967714292 -0.29638963380315841 0 -0.42709180872781188 -0.29439449141065738 0 -0.41541732284930832 -0.30730243798379953 0 -0.40618483967714292 -0.29638963380315841 0 -0.41541732284930832 -0.30730243798379953 0 -0.40618483967714292 -0.29638963380315841 0 -0.41242695344044827 -0.31820451366256841 0 -0.41541732284930832 -0.30730243798379953 0 -0.40185461233875269 -0.30098256284660307 0 -0.41541732284930832 -0.30730243798379953 0 -0.40185461233875269 -0.30098256284660307 0 -0.42301959421646518 -0.31628833020920039 0 -0.41541732284930832 -0.30730243798379953 0 -0.42395130998641067 -0.31127905704434472 0 -0.41541732284930832 -0.30730243798379953 0 -0.42301959421646518 -0.31628833020920039 0 -0.42395130998641067 -0.31127905704434472 0 -0.41541732284930832 -0.30730243798379953 0 -0.38442983343225828 -0.32189177462067481 0 -0.40185461233875269 -0.30098256284660307 0 -0.39448508010510541 -0.297525044214214 0 -0.40185461233875269 -0.30098256284660307 0 -0.40174149504185092 -0.29681366012781812 0 -0.40618483967714292 -0.29638963380315841 0 -0.40185461233875269 -0.30098256284660307 0 -0.40174149504185092 -0.29681366012781812 0 -0.40185461233875269 -0.30098256284660307 0 -0.39448508010510541 -0.297525044214214 0 -0.40174149504185092 -0.29681366012781812 0 -0.40185461233875269 -0.30098256284660307 0 -0.39448508010510541 -0.297525044214214 0 -0.39448508010510541 -0.297525044214214 0 -0.40174149504185092 -0.29681366012781812 0 -0.37641717267996733 -0.3184640617331177 0 -0.37669606201677502 -0.29920373422444158 0 -0.38442983343225828 -0.32189177462067481 0 -0.39448508010510541 -0.297525044214214 0 -0.38442983343225828 -0.32189177462067481 0 -0.39448508010510541 -0.297525044214214 0 -0.3841914044669909 -0.30132118344037401 0 -0.37641717267996733 -0.3184640617331177 0 -0.3841914044669909 -0.30132118344037401 0 -0.37669606201677502 -0.29920373422444158 0 -0.39448508010510541 -0.297525044214214 0 -0.3841914044669909 -0.30132118344037401 0 -0.37928718982873688 -0.29895646409505849 0 -0.39448508010510541 -0.297525044214214 0 -0.37928718982873688 -0.29895646409505849 0 -0.3841914044669909 -0.30132118344037401 0 -0.37928718982873688 -0.29895646409505849 0 -0.3841914044669909 -0.30132118344037401 0 -0.37928718982873688 -0.29895646409505849 0 -0.37669606201677502 -0.29920373422444158 0 -0.37928718982873688 -0.29895646409505849 0 -0.37669606201677502 -0.29920373422444158 0 -0.37671758341694961 -0.29771744858697219 0 -0.37928718982873688 -0.29895646409505849 0 -0.37671758341694961 -0.29771744858697219 0 -0.37928718982873688 -0.29895646409505849 0 -0.37669606201677502 -0.29920373422444158 0 -0.37669606201677502 -0.29920373422444158 0 -0.37671758341694961 -0.29771744858697219 0 -0.37671758341694961 -0.29771744858697219 0 -0.38607699004493318 -0.28757386461908069 0 -0.38483052758877101 -0.28123782127595193 0 -0.37671758341694961 -0.29771744858697219 0 -0.3770412393053626 -0.27536550612006683 0 -0.37671758341694961 -0.29771744858697219 0 -0.38483052758877101 -0.28123782127595193 0 -0.3770412393053626 -0.27536550612006683 0 -0.37928718982873688 -0.29895646409505849 0 -0.37671758341694961 -0.29771744858697219 0 -0.38467000758835601 -0.29297497791584359 0 -0.37671758341694961 -0.29771744858697219 0 -0.38467000758835601 -0.29297497791584359 0 -0.38607699004493318 -0.28757386461908069 0 -0.39448508010510541 -0.297525044214214 0 -0.37928718982873688 -0.29895646409505849 0 -0.38467000758835601 -0.29297497791584359 0 -0.39448508010510541 -0.297525044214214 0 -0.38467000758835601 -0.29297497791584359 0 -0.39448508010510541 -0.297525044214214 0 -0.38467000758835601 -0.29297497791584359 0 -0.39217701296355612 -0.28987936211692023 0 -0.38467000758835601 -0.29297497791584359 0 -0.38607699004493318 -0.28757386461908069 0 -0.39217701296355612 -0.28987936211692023 0 -0.38607699004493318 -0.28757386461908069 0 -0.39049541959166939 -0.28414526237041138 0 -0.39217701296355612 -0.28987936211692023 0 -0.39049541959166939 -0.28414526237041138 0 -0.39420405367365152 -0.27853706101481662 0 -0.38483052758877101 -0.28123782127595193 0 -0.38607699004493318 -0.28757386461908069 0 -0.39049541959166939 -0.28414526237041138 0 -0.38483052758877101 -0.28123782127595193 0 -0.39597078832761667 -0.28551153658085893 0 -0.40174149504185092 -0.29681366012781812 0 -0.40123596036735593 -0.27818233727432817 0 -0.39049541959166939 -0.28414526237041138 0 -0.39597078832761667 -0.28551153658085893 0 -0.39420405367365152 -0.27853706101481662 0 -0.40174149504185092 -0.29681366012781812 0 -0.40123596036735593 -0.27818233727432817 0 -0.40174149504185092 -0.29681366012781812 0 -0.40322207619149192 -0.29288764445213411 0 -0.40123596036735593 -0.27818233727432817 0 -0.39049541959166939 -0.28414526237041138 0 -0.39597078832761667 -0.28551153658085893 0 -0.39217701296355612 -0.28987936211692023 0 -0.39597078832761667 -0.28551153658085893 0 -0.39217701296355612 -0.28987936211692023 0 -0.40174149504185092 -0.29681366012781812 0 -0.39448508010510541 -0.297525044214214 0 -0.39217701296355612 -0.28987936211692023 0 -0.40174149504185092 -0.29681366012781812 0 -0.40690107601488551 -0.28490397733270861 0 -0.40322207619149192 -0.29288764445213411 0 -0.40618483967714292 -0.29638963380315841 0 -0.40174149504185092 -0.29681366012781812 0 -0.40322207619149192 -0.29288764445213411 0 -0.40618483967714292 -0.29638963380315841 0 -0.40174149504185092 -0.29681366012781812 0 -0.40618483967714292 -0.29638963380315841 0 -0.40322207619149192 -0.29288764445213411 0 -0.40618483967714292 -0.29638963380315841 0 -0.40690107601488551 -0.28490397733270861 0 -0.40322207619149192 -0.29288764445213411 0 -0.40123596036735593 -0.27818233727432817 0 -0.39420405367365152 -0.27853706101481662 0 -0.37710287173325818 -0.2711091198417086 0 -0.40073042569286338 -0.25955101442083811 0 -0.40123596036735593 -0.27818233727432817 0 -0.39420405367365152 -0.27853706101481662 0 -0.40073042569286338 -0.25955101442083811 0 -0.40123596036735593 -0.27818233727432817 0 -0.40073042569286338 -0.25955101442083811 0 -0.40123596036735593 -0.27818233727432817 0 -0.40073042569286338 -0.25955101442083811 0 -0.41341650638623911 -0.27076301679274262 0 -0.39597078832761667 -0.28551153658085893 0 -0.40123596036735593 -0.27818233727432817 0 -0.39420405367365152 -0.27853706101481662 0 -0.39420405367365152 -0.27853706101481662 0 -0.37710287173325818 -0.2711091198417086 0 -0.3770412393053626 -0.27536550612006683 0 -0.39420405367365152 -0.27853706101481662 0 -0.3770412393053626 -0.27536550612006683 0 -0.39420405367365152 -0.27853706101481662 0 -0.38483052758877101 -0.28123782127595193 0 -0.3770412393053626 -0.27536550612006683 0 -0.37710287173325818 -0.2711091198417086 0 -0.3770412393053626 -0.27536550612006683 0 -0.37710287173325818 -0.2711091198417086 0 -0.38543722149146659 -0.25821727905458303 0 -0.40073042569286338 -0.25955101442083811 0 -0.37710287173325818 -0.2711091198417086 0 -0.37747963509906429 -0.24508953120583671 0 -0.37710287173325818 -0.2711091198417086 0 -0.40073042569286338 -0.25955101442083811 0 -0.37710287173325818 -0.2711091198417086 0 -0.38543722149146659 -0.25821727905458303 0 -0.37747963509906429 -0.24508953120583671 0 -0.38543722149146659 -0.25821727905458303 0 -0.3938256931015453 -0.25037754026629511 0 -0.37747963509906429 -0.24508953120583671 0 -0.38543722149146659 -0.25821727905458303 0 -0.3938256931015453 -0.25037754026629511 0 -0.40073042569286338 -0.25955101442083811 0 -0.40073042569286338 -0.25955101442083811 0 -0.40282532782868952 -0.25224285689579767 0 -0.40022281387448849 -0.24084313907701979 0 -0.40073042569286338 -0.25955101442083811 0 -0.40022281387448849 -0.24084313907701979 0 -0.3938256931015453 -0.25037754026629511 0 -0.40073042569286338 -0.25955101442083811 0 -0.40022281387448849 -0.24084313907701979 0 -0.40073042569286338 -0.25955101442083811 0 -0.40282532782868952 -0.25224285689579767 0 -0.41385673751816382 -0.25312989710486528 0 -0.40073042569286338 -0.25955101442083811 0 -0.41385673751816382 -0.25312989710486528 0 -0.40073042569286338 -0.25955101442083811 0 -0.41385673751816382 -0.25312989710486528 0 -0.41341650638623911 -0.27076301679274262 0 -0.41385673751816382 -0.25312989710486528 0 -0.41341650638623911 -0.27076301679274262 0 -0.42312684460972783 -0.26331748455384929 0 -0.41385673751816382 -0.25312989710486528 0 -0.41679144862722167 -0.25169429778568547 0 -0.43445882011373449 -0.25478651907497341 0 -0.40282532782868952 -0.25224285689579767 0 -0.41385673751816382 -0.25312989710486528 0 -0.4086566941719203 -0.24778871483445111 0 -0.40282532782868952 -0.25224285689579767 0 -0.41385673751816382 -0.25312989710486528 0 -0.41385673751816382 -0.25312989710486528 0 -0.41679144862722167 -0.25169429778568547 0 -0.41627810448972868 -0.24641300060905449 0 -0.41385673751816382 -0.25312989710486528 0 -0.41679144862722167 -0.25169429778568547 0 -0.41684225135067149 -0.28376244362903152 0 -0.41341650638623911 -0.27076301679274262 0 -0.43077531442077321 -0.27459050524281542 0 -0.40690107601488551 -0.28490397733270861 0 -0.40123596036735593 -0.27818233727432817 0 -0.41341650638623911 -0.27076301679274262 0 -0.41684225135067149 -0.28376244362903152 0 -0.40690107601488551 -0.28490397733270861 0 -0.41341650638623911 -0.27076301679274262 0 -0.41341650638623911 -0.27076301679274262 0 -0.43077531442077321 -0.27459050524281542 0 -0.42312684460972783 -0.26331748455384929 0 -0.43077531442077321 -0.27459050524281542 0 -0.42312684460972783 -0.26331748455384929 0 -0.43445882011373449 -0.25478651907497341 0 -0.41385673751816382 -0.25312989710486528 0 -0.43445882011373449 -0.25478651907497341 0 -0.43077531442077321 -0.27459050524281542 0 -0.43445882011373449 -0.25478651907497341 0 -0.41385673751816382 -0.25312989710486528 0 -0.42312684460972783 -0.26331748455384929 0 -0.43445882011373449 -0.25478651907497341 0 -0.41679144862722167 -0.25169429778568547 0 -0.43445882011373449 -0.25478651907497341 0 -0.42335340856967768 -0.24893549408922019 0 -0.32580796388430833 -0.26195871891040218 0 -0.34139866608006603 -0.2687790352098644 0 -0.31202674084989918 -0.26335133138269068 0 -0.32580796388430833 -0.26195871891040218 0 -0.33345250408021371 -0.25331871279766999 0 -0.32023222063025569 -0.2489608815952247 0 -0.32580796388430833 -0.26195871891040218 0 -0.31664960680882542 -0.25714232151458272 0 -0.32023222063025569 -0.2489608815952247 0 -0.31664960680882542 -0.25714232151458272 0 -0.30853150187083839 -0.25429835417001312 0 -0.32023222063025569 -0.2489608815952247 0 -0.32580796388430833 -0.26195871891040218 0 -0.31664960680882542 -0.25714232151458272 0 -0.31202674084989918 -0.26335133138269068 0 -0.33223611708196649 -0.27626932861073827 0 -0.31972670239926188 -0.28454160199560091 0 -0.31187737399160442 -0.27618124236115132 0 -0.34139866608006603 -0.2687790352098644 0 -0.31202674084989918 -0.26335133138269068 0 -0.33223611708196649 -0.27626932861073827 0 -0.31202674084989918 -0.26335133138269068 0 -0.3062135479255173 -0.26372173898871692 0 -0.33223611708196649 -0.27626932861073827 0 -0.31187737399160442 -0.27618124236115132 0 -0.3062135479255173 -0.26372173898871692 0 -0.33260241140844943 -0.2743168067351805 0 -0.33223611708196649 -0.27626932861073827 0 -0.31202674084989918 -0.26335133138269068 0 -0.33223611708196649 -0.27626932861073827 0 -0.3062135479255173 -0.26372173898871692 0 -0.33260241140844943 -0.2743168067351805 0 -0.34139866608006603 -0.2687790352098644 0 -0.31202674084989918 -0.26335133138269068 0 -0.33223611708196649 -0.27626932861073827 0 -0.34139866608006603 -0.2687790352098644 0 -0.34951875912658742 -0.28460269103381453 0 -0.33223611708196649 -0.27626932861073827 0 -0.34951875912658742 -0.28460269103381453 0 -0.33260241140844943 -0.2743168067351805 0 -0.33223611708196649 -0.27626932861073827 0 -0.34139866608006603 -0.2687790352098644 0 -0.33260241140844943 -0.2743168067351805 0 -0.33223611708196649 -0.27626932861073827 0 -0.34139866608006603 -0.2687790352098644 0 -0.3363084638556994 -0.26041051377605268 0 -0.34457472137820933 -0.25758558818627408 0 -0.32580796388430833 -0.26195871891040218 0 -0.34139866608006603 -0.2687790352098644 0 -0.3363084638556994 -0.26041051377605268 0 -0.32580796388430833 -0.26195871891040218 0 -0.3363084638556994 -0.26041051377605268 0 -0.33345250408021371 -0.25331871279766999 0 -0.3363084638556994 -0.26041051377605268 0 -0.33345250408021371 -0.25331871279766999 0 -0.34457472137820933 -0.25758558818627408 0 -0.33345250408021371 -0.25331871279766999 0 -0.34457472137820933 -0.25758558818627408 0 -0.34395992200845399 -0.24382677409400949 0 -0.34139866608006603 -0.2687790352098644 0 -0.34457472137820933 -0.25758558818627408 0 -0.35733732661955131 -0.26288598862094092 0 -0.34457472137820933 -0.25758558818627408 0 -0.35872453044413888 -0.25078889886649508 0 -0.34395992200845399 -0.24382677409400949 0 -0.34457472137820933 -0.25758558818627408 0 -0.35733732661955131 -0.26288598862094092 0 -0.35872453044413888 -0.25078889886649508 0 -0.37710287173325818 -0.2711091198417086 0 -0.36828299104124951 -0.26081605551440462 0 -0.37747963509906429 -0.24508953120583671 0 -0.35872453044413888 -0.25078889886649508 0 -0.36828299104124951 -0.26081605551440462 0 -0.37747963509906429 -0.24508953120583671 0 -0.35733732661955131 -0.26288598862094092 0 -0.35872453044413888 -0.25078889886649508 0 -0.36828299104124951 -0.26081605551440462 0 -0.37077059131023282 -0.27420673903703829 0 -0.34951875912658742 -0.28460269103381453 0 -0.37710287173325818 -0.2711091198417086 0 -0.3770412393053626 -0.27536550612006683 0 -0.37077059131023282 -0.27420673903703829 0 -0.3770412393053626 -0.27536550612006683 0 -0.37077059131023282 -0.27420673903703829 0 -0.37710287173325818 -0.2711091198417086 0 -0.36828299104124951 -0.26081605551440462 0 -0.37077059131023282 -0.27420673903703829 0 -0.37710287173325818 -0.2711091198417086 0 -0.37077059131023282 -0.27420673903703829 0 -0.35733732661955131 -0.26288598862094092 0 -0.36828299104124951 -0.26081605551440462 0 -0.37077059131023282 -0.27420673903703829 0 -0.34139866608006603 -0.2687790352098644 0 -0.35733732661955131 -0.26288598862094092 0 -0.37077059131023282 -0.27420673903703829 0 -0.34139866608006603 -0.2687790352098644 0 -0.37077059131023282 -0.27420673903703829 0 -0.34951875912658742 -0.28460269103381453 0 -0.34139866608006603 -0.2687790352098644 0 -0.37077059131023282 -0.27420673903703829 0 -0.34951875912658742 -0.28460269103381453 0 -0.3581763596052473 -0.30097106086504849 0 -0.34010739644885768 -0.2892065328944351 0 -0.34951875912658742 -0.28460269103381453 0 -0.34010739644885768 -0.2892065328944351 0 -0.37671758341694961 -0.29771744858697219 0 -0.37077059131023282 -0.27420673903703829 0 -0.34951875912658742 -0.28460269103381453 0 -0.37671758341694961 -0.29771744858697219 0 -0.34951875912658742 -0.28460269103381453 0 -0.37671758341694961 -0.29771744858697219 0 -0.3770412393053626 -0.27536550612006683 0 -0.37077059131023282 -0.27420673903703829 0 -0.37671758341694961 -0.29771744858697219 0 -0.34951875912658742 -0.28460269103381453 0 -0.3581763596052473 -0.30097106086504849 0 -0.37669606201677502 -0.29920373422444158 0 -0.37671758341694961 -0.29771744858697219 0 -0.3581763596052473 -0.30097106086504849 0 -0.37641717267996733 -0.3184640617331177 0 -0.37669606201677502 -0.29920373422444158 0 -0.36799370156123501 -0.30592930732763762 0 -0.37641717267996733 -0.3184640617331177 0 -0.36799370156123501 -0.30592930732763762 0 -0.35803691493684492 -0.31060122461938489 0 -0.37669606201677502 -0.29920373422444158 0 -0.36799370156123501 -0.30592930732763762 0 -0.3581763596052473 -0.30097106086504849 0 -0.37669606201677502 -0.29920373422444158 0 -0.3581763596052473 -0.30097106086504849 0 -0.36799370156123501 -0.30592930732763762 0 -0.35803691493684492 -0.31060122461938489 0 -0.3581763596052473 -0.30097106086504849 0 -0.35803691493684492 -0.31060122461938489 0 -0.33965665719371979 -0.30273838750565862 0 -0.35803691493684492 -0.31060122461938489 0 -0.33965665719371979 -0.30273838750565862 0 -0.34514704515453298 -0.31300544250539297 0 -0.3581763596052473 -0.30097106086504849 0 -0.33965665719371979 -0.30273838750565862 0 -0.34010739644885768 -0.2892065328944351 0 -0.35803691493684492 -0.31060122461938489 0 -0.3581763596052473 -0.30097106086504849 0 -0.33965665719371979 -0.30273838750565862 0 -0.3581763596052473 -0.30097106086504849 0 -0.33965665719371979 -0.30273838750565862 0 -0.33676996251121621 -0.31158184422573892 0 -0.33965665719371979 -0.30273838750565862 0 -0.34514704515453298 -0.31300544250539297 0 -0.33676996251121621 -0.31158184422573892 0 -0.33965665719371979 -0.30273838750565862 0 -0.32704471803945162 -0.30394193902942662 0 -0.33676996251121621 -0.31158184422573892 0 -0.32594772137393307 -0.30978944971135602 0 -0.32704471803945162 -0.30394193902942662 0 -0.33965665719371979 -0.30273838750565862 0 -0.32704471803945162 -0.30394193902942662 0 -0.32819068517220462 -0.29783339261299951 0 -0.33965665719371979 -0.30273838750565862 0 -0.32704471803945162 -0.30394193902942662 0 -0.32819068517220462 -0.29783339261299951 0 -0.33965665719371979 -0.30273838750565862 0 -0.33223611708196649 -0.27626932861073827 0 -0.32819068517220462 -0.29783339261299951 0 -0.33223611708196649 -0.27626932861073827 0 -0.32819068517220462 -0.29783339261299951 0 -0.34010739644885768 -0.2892065328944351 0 -0.33223611708196649 -0.27626932861073827 0 -0.34951875912658742 -0.28460269103381453 0 -0.34010739644885768 -0.2892065328944351 0 -0.32819068517220462 -0.29783339261299951 0 -0.33965665719371979 -0.30273838750565862 0 -0.34010739644885768 -0.2892065328944351 0 -0.32819068517220462 -0.29783339261299951 0 -0.31972670239926188 -0.28454160199560091 0 -0.31332574866090718 -0.291474364566292 0 -0.32819068517220462 -0.29783339261299951 0 -0.31332574866090718 -0.291474364566292 0 -0.33223611708196649 -0.27626932861073827 0 -0.32819068517220462 -0.29783339261299951 0 -0.31972670239926188 -0.28454160199560091 0 -0.31972670239926188 -0.28454160199560091 0 -0.31332574866090718 -0.291474364566292 0 -0.30937392239009109 -0.28339120160471948 0 -0.31972670239926188 -0.28454160199560091 0 -0.30937392239009109 -0.28339120160471948 0 -0.31187737399160442 -0.27618124236115132 0 -0.31992409361072222 -0.30462145692723192 0 -0.32594772137393307 -0.30978944971135602 0 -0.31307430431717392 -0.31869978567557272 0 -0.31992409361072222 -0.30462145692723192 0 -0.32594772137393307 -0.30978944971135602 0 -0.32594772137393307 -0.30978944971135602 0 -0.32704471803945162 -0.30394193902942662 0 -0.31992409361072222 -0.30462145692723192 0 -0.32594772137393307 -0.30978944971135602 0 -0.32704471803945162 -0.30394193902942662 0 -0.32819068517220462 -0.29783339261299951 0 -0.31332574866090718 -0.291474364566292 0 -0.31992409361072222 -0.30462145692723192 0 -0.32819068517220462 -0.29783339261299951 0 -0.32704471803945162 -0.30394193902942662 0 -0.32819068517220462 -0.29783339261299951 0 -0.31992409361072222 -0.30462145692723192 0 -0.32704471803945162 -0.30394193902942662 0 -0.31992409361072222 -0.30462145692723192 0 -0.32704471803945162 -0.30394193902942662 0 -0.32594772137393307 -0.30978944971135602 0 -0.31307430431717392 -0.31869978567557272 0 -0.32184288384298337 -0.33167017375041419 0 -0.32594772137393307 -0.30978944971135602 0 -0.32184288384298337 -0.33167017375041419 0 -0.32184288384298337 -0.33167017375041419 0 -0.31773804631203251 -0.35355089778947202 0 -0.32184288384298337 -0.33167017375041419 0 -0.34475024534571441 -0.34586667392980902 0 -0.31773804631203251 -0.35355089778947202 0 -0.32184288384298337 -0.33167017375041419 0 -0.34612464597635118 -0.32710031367078812 0 -0.34475024534571441 -0.34586667392980902 0 -0.33676996251121621 -0.31158184422573892 0 -0.32594772137393307 -0.30978944971135602 0 -0.34612464597635118 -0.32710031367078812 0 -0.32594772137393307 -0.30978944971135602 0 -0.34612464597635118 -0.32710031367078812 0 -0.32594772137393307 -0.30978944971135602 0 -0.32184288384298337 -0.33167017375041419 0 -0.34612464597635118 -0.32710031367078812 0 -0.33676996251121621 -0.31158184422573892 0 -0.34514704515453298 -0.31300544250539297 0 -0.34612464597635118 -0.32710031367078812 0 -0.35803691493684492 -0.31060122461938489 0 -0.34514704515453298 -0.31300544250539297 0 -0.34612464597635118 -0.32710031367078812 0 -0.35803691493684492 -0.31060122461938489 0 -0.34612464597635118 -0.32710031367078812 0 -0.35600230731325749 -0.33324145173106873 0 -0.37641717267996733 -0.3184640617331177 0 -0.35803691493684492 -0.31060122461938489 0 -0.37641717267996733 -0.3184640617331177 0 -0.35803691493684492 -0.31060122461938489 0 -0.36719759625642318 -0.33008752154143739 0 -0.35803691493684492 -0.31060122461938489 0 -0.36719759625642318 -0.33008752154143739 0 -0.35600230731325749 -0.33324145173106873 0 -0.37607676276689278 -0.3419730509543204 0 -0.37641717267996733 -0.3184640617331177 0 -0.36719759625642318 -0.33008752154143739 0 -0.37607676276689278 -0.3419730509543204 0 -0.3688763256213185 -0.34309961767568647 0 -0.36719759625642318 -0.33008752154143739 0 -0.36719759625642318 -0.33008752154143739 0 -0.36118874601324108 -0.3436521492952741 0 -0.35600230731325749 -0.33324145173106873 0 -0.3688763256213185 -0.34309961767568647 0 -0.36719759625642318 -0.33008752154143739 0 -0.36118874601324108 -0.3436521492952741 0 -0.34612464597635118 -0.32710031367078812 0 -0.35600230731325749 -0.33324145173106873 0 -0.34475024534571441 -0.34586667392980902 0 -0.36118874601324108 -0.3436521492952741 0 -0.35600230731325749 -0.33324145173106873 0 -0.34475024534571441 -0.34586667392980902 0 -0.36118874601324108 -0.3436521492952741 0 -0.34475024534571441 -0.34586667392980902 0 -0.35925477447714671 -0.35134479444962452 0 -0.34475024534571441 -0.34586667392980902 0 -0.35480891830463612 -0.3592101017575729 0 -0.33937201587241012 -0.36587749477948078 0 -0.34475024534571441 -0.34586667392980902 0 -0.35480891830463612 -0.3592101017575729 0 -0.35925477447714671 -0.35134479444962452 0 -0.36118874601324108 -0.3436521492952741 0 -0.37225797237559449 -0.35115364910559932 0 -0.36118874601324108 -0.3436521492952741 0 -0.35925477447714671 -0.35134479444962452 0 -0.36985982957495511 -0.35171195823109852 0 -0.37568304780698558 -0.36916333065311507 0 -0.37593298752455201 -0.35190228771479481 0 -0.37225797237559449 -0.35115364910559932 0 -0.35480891830463612 -0.3592101017575729 0 -0.35925477447714671 -0.35134479444962452 0 -0.36985982957495511 -0.35171195823109852 0 -0.37607676276689278 -0.3419730509543204 0 -0.3688763256213185 -0.34309961767568647 0 -0.37225797237559449 -0.35115364910559932 0 -0.37607676276689278 -0.3419730509543204 0 -0.37225797237559449 -0.35115364910559932 0 -0.37607676276689278 -0.3419730509543204 0 -0.37390838074359528 -0.35076941925389299 0 -0.37225797237559449 -0.35115364910559932 0 -0.37593298752455201 -0.35190228771479481 0 -0.37390838074359528 -0.35076941925389299 0 -0.37225797237559449 -0.35115364910559932 0 -0.3688763256213185 -0.34309961767568647 0 -0.36118874601324108 -0.3436521492952741 0 -0.37225797237559449 -0.35115364910559932 0 -0.37593298752455201 -0.35190228771479481 0 -0.37390838074359528 -0.35076941925389299 0 -0.36118874601324108 -0.3436521492952741 0 -0.36985982957495511 -0.35171195823109852 0 -0.37225797237559449 -0.35115364910559932 0 -0.37595629511297179 -0.35029264644438168 0 -0.37390838074359528 -0.35076941925389299 0 -0.37390838074359528 -0.35076941925389299 0 -0.37225797237559449 -0.35115364910559932 0 -0.36985982957495511 -0.35171195823109852 0 -0.37225797237559449 -0.35115364910559932 0 -0.37568304780698558 -0.36916333065311507 0 -0.37225797237559449 -0.35115364910559932 0 -0.36100598543278789 -0.37820409176948921 0 -0.35480891830463612 -0.3592101017575729 0 -0.36985982957495511 -0.35171195823109852 0 -0.36100598543278789 -0.37820409176948921 0 -0.36985982957495511 -0.35171195823109852 0 -0.37225797237559449 -0.35115364910559932 0 -0.36100598543278789 -0.37820409176948921 0 -0.37225797237559449 -0.35115364910559932 0 -0.36100598543278789 -0.37820409176948921 0 -0.33937201587241012 -0.36587749477948078 0 -0.36100598543278789 -0.37820409176948921 0 -0.35480891830463612 -0.3592101017575729 0 -0.33937201587241012 -0.36587749477948078 0 -0.36100598543278789 -0.37820409176948921 0 -0.33937201587241012 -0.36587749477948078 0 -0.31773804631203251 -0.35355089778947202 0 -0.33937201587241012 -0.36587749477948078 0 -0.31773804631203251 -0.35355089778947202 0 -0.32803705280137402 -0.37447550275240871 0 -0.34475024534571441 -0.34586667392980902 0 -0.33937201587241012 -0.36587749477948078 0 -0.31773804631203251 -0.35355089778947202 0 -0.31773804631203251 -0.35355089778947202 0 -0.31381007312398762 -0.37448885129246268 0 -0.31773804631203251 -0.35355089778947202 0 -0.31381007312398762 -0.37448885129246268 0 -0.32803705280137402 -0.37447550275240871 0 -0.31381007312398762 -0.37448885129246268 0 -0.29871455833571747 -0.36148408621311728 0 -0.29196992941862432 -0.3825632544476108 0 -0.31773804631203251 -0.35355089778947202 0 -0.31381007312398762 -0.37448885129246268 0 -0.29871455833571747 -0.36148408621311728 0 -0.31773804631203251 -0.35355089778947202 0 -0.29871455833571747 -0.36148408621311728 0 -0.29282778547957722 -0.33935753649529382 0 -0.31773804631203251 -0.35355089778947202 0 -0.29282778547957722 -0.33935753649529382 0 -0.29871455833571747 -0.36148408621311728 0 -0.27675503022224163 -0.36681377825091099 0 -0.29282778547957722 -0.33935753649529382 0 -0.29871455833571747 -0.36148408621311728 0 -0.27675503022224163 -0.36681377825091099 0 -0.29196992941862432 -0.3825632544476108 0 -0.27675503022224163 -0.36681377825091099 0 -0.25757508569408222 -0.36424633604315798 0 -0.26546808025963542 -0.34847395767735678 0 -0.27675503022224163 -0.36681377825091099 0 -0.25757508569408222 -0.36424633604315798 0 -0.25812358553267323 -0.37605355791306738 0 -0.25757508569408222 -0.36424633604315798 0 -0.24839247009954951 -0.37292447016044328 0 -0.24532753696728959 -0.36501789644951049 0 -0.25757508569408222 -0.36424633604315798 0 -0.25812358553267323 -0.37605355791306738 0 -0.24839247009954951 -0.37292447016044328 0 -0.25757508569408222 -0.36424633604315798 0 -0.26546808025963542 -0.34847395767735678 0 -0.24650166737573331 -0.3569693529562265 0 -0.26546808025963542 -0.34847395767735678 0 -0.24650166737573331 -0.3569693529562265 0 -0.24881121389389799 -0.33838995723746451 0 -0.27675503022224163 -0.36681377825091099 0 -0.26546808025963542 -0.34847395767735678 0 -0.29282778547957722 -0.33935753649529382 0 -0.26791752464712137 -0.32516417520111718 0 -0.27544300416693679 -0.31995488319631832 0 -0.29282778547957722 -0.33935753649529382 0 -0.26546808025963542 -0.34847395767735678 0 -0.26791752464712137 -0.32516417520111718 0 -0.29282778547957722 -0.33935753649529382 0 -0.26791752464712137 -0.32516417520111718 0 -0.29282778547957722 -0.33935753649529382 0 -0.26791752464712137 -0.32516417520111718 0 -0.24881121389389799 -0.33838995723746451 0 -0.26546808025963542 -0.34847395767735678 0 -0.26791752464712137 -0.32516417520111718 0 -0.24881121389389799 -0.33838995723746451 0 -0.26791752464712137 -0.32516417520111718 0 -0.24881121389389799 -0.33838995723746451 0 -0.2441082332202735 -0.32380704628422963 0 -0.26791752464712137 -0.32516417520111718 0 -0.2444966906846206 -0.31181945912301329 0 -0.26791752464712137 -0.32516417520111718 0 -0.26963915832665503 -0.30942012505775762 0 -0.2444966906846206 -0.31181945912301329 0 -0.26791752464712137 -0.32516417520111718 0 -0.2441082332202735 -0.32380704628422963 0 -0.2444966906846206 -0.31181945912301329 0 -0.26791752464712137 -0.32516417520111718 0 -0.27544300416693679 -0.31995488319631832 0 -0.26963915832665503 -0.30942012505775762 0 -0.26791752464712137 -0.32516417520111718 0 -0.27544300416693679 -0.31995488319631832 0 -0.27544300416693679 -0.31995488319631832 0 -0.29403167998309421 -0.32125824908992018 0 -0.29478162596868879 -0.30702079099249591 0 -0.27544300416693679 -0.31995488319631832 0 -0.29403167998309421 -0.32125824908992018 0 -0.29282778547957722 -0.33935753649529382 0 -0.31307430431717392 -0.31869978567557272 0 -0.32184288384298337 -0.33167017375041419 0 -0.29282778547957722 -0.33935753649529382 0 -0.32184288384298337 -0.33167017375041419 0 -0.31773804631203251 -0.35355089778947202 0 -0.29282778547957722 -0.33935753649529382 0 -0.31307430431717392 -0.31869978567557272 0 -0.29403167998309421 -0.32125824908992018 0 -0.29282778547957722 -0.33935753649529382 0 -0.31307430431717392 -0.31869978567557272 0 -0.29403167998309421 -0.32125824908992018 0 -0.29478162596868879 -0.30702079099249591 0 -0.31992409361072222 -0.30462145692723192 0 -0.29478162596868879 -0.30702079099249591 0 -0.31992409361072222 -0.30462145692723192 0 -0.31307430431717392 -0.31869978567557272 0 -0.29478162596868879 -0.30702079099249591 0 -0.31992409361072222 -0.30462145692723192 0 -0.30687808727867438 -0.29770175581860719 0 -0.29478162596868879 -0.30702079099249591 0 -0.30687808727867438 -0.29770175581860719 0 -0.29813438661480679 -0.29530641477552327 0 -0.29478162596868879 -0.30702079099249591 0 -0.31992409361072222 -0.30462145692723192 0 -0.2984608121496099 -0.28511533651958437 0 -0.31992409361072222 -0.30462145692723192 0 -0.30687808727867438 -0.29770175581860719 0 -0.2984608121496099 -0.28511533651958437 0 -0.31332574866090718 -0.291474364566292 0 -0.31992409361072222 -0.30462145692723192 0 -0.2984608121496099 -0.28511533651958437 0 -0.31332574866090718 -0.291474364566292 0 -0.30937392239009109 -0.28339120160471948 0 -0.2984608121496099 -0.28511533651958437 0 -0.31332574866090718 -0.291474364566292 0 -0.2984608121496099 -0.28511533651958437 0 -0.30937392239009109 -0.28339120160471948 0 -0.2984608121496099 -0.28511533651958437 0 -0.30347897474907187 -0.279643462580969 0 -0.30687808727867438 -0.29770175581860719 0 -0.29951482580247829 -0.29240083595456018 0 -0.29813438661480679 -0.29530641477552327 0 -0.30687808727867438 -0.29770175581860719 0 -0.2984608121496099 -0.28511533651958437 0 -0.29951482580247829 -0.29240083595456018 0 -0.29951482580247829 -0.29240083595456018 0 -0.29813438661480679 -0.29530641477552327 0 -0.29499124589990039 -0.29073588210889412 0 -0.2984608121496099 -0.28511533651958437 0 -0.29951482580247829 -0.29240083595456018 0 -0.29499124589990039 -0.29073588210889412 0 -0.29499124589990039 -0.29073588210889412 0 -0.29148170063899659 -0.29460773718781319 0 -0.28586576089235322 -0.28577101837165192 0 -0.29813438661480679 -0.29530641477552327 0 -0.29499124589990039 -0.29073588210889412 0 -0.29148170063899659 -0.29460773718781319 0 -0.2984608121496099 -0.28511533651958437 0 -0.29499124589990039 -0.29073588210889412 0 -0.28586576089235322 -0.28577101837165192 0 -0.29148170063899659 -0.29460773718781319 0 -0.28586576089235322 -0.28577101837165192 0 -0.2798353156189245 -0.29508903771003908 0 -0.29148170063899659 -0.29460773718781319 0 -0.29478162596868879 -0.30702079099249591 0 -0.2798353156189245 -0.29508903771003908 0 -0.29478162596868879 -0.30702079099249591 0 -0.26963915832665503 -0.30942012505775762 0 -0.2798353156189245 -0.29508903771003908 0 -0.29478162596868879 -0.30702079099249591 0 -0.26963915832665503 -0.30942012505775762 0 -0.29813438661480679 -0.29530641477552327 0 -0.29148170063899659 -0.29460773718781319 0 -0.29478162596868879 -0.30702079099249591 0 -0.27544300416693679 -0.31995488319631832 0 -0.29478162596868879 -0.30702079099249591 0 -0.26963915832665503 -0.30942012505775762 0 -0.26963915832665503 -0.30942012505775762 0 -0.26057201890547982 -0.29344093798311832 0 -0.2798353156189245 -0.29508903771003908 0 -0.26963915832665503 -0.30942012505775762 0 -0.2444966906846206 -0.31181945912301329 0 -0.26963915832665503 -0.30942012505775762 0 -0.26057201890547982 -0.29344093798311832 0 -0.2444966906846206 -0.31181945912301329 0 -0.26057201890547982 -0.29344093798311832 0 -0.27108878797196961 -0.28331686931735522 0 -0.25298377122075039 -0.27518622721876451 0 -0.26057201890547982 -0.29344093798311832 0 -0.25298377122075039 -0.27518622721876451 0 -0.2435111179254994 -0.29490773243705071 0 -0.26057201890547982 -0.29344093798311832 0 -0.27108878797196961 -0.28331686931735522 0 -0.2798353156189245 -0.29508903771003908 0 -0.28586576089235322 -0.28577101837165192 0 -0.27108878797196961 -0.28331686931735522 0 -0.2798353156189245 -0.29508903771003908 0 -0.27108878797196961 -0.28331686931735522 0 -0.27618707322233982 -0.26709712530320262 0 -0.25298377122075039 -0.27518622721876451 0 -0.28586576089235322 -0.28577101837165192 0 -0.27108878797196961 -0.28331686931735522 0 -0.27618707322233982 -0.26709712530320262 0 -0.27618707322233982 -0.26709712530320262 0 -0.25431856302814809 -0.24833495949118861 0 -0.27618707322233982 -0.26709712530320262 0 -0.25298377122075039 -0.27518622721876451 0 -0.25431856302814809 -0.24833495949118861 0 -0.27618707322233982 -0.26709712530320262 0 -0.27309361240676189 -0.24179026653703889 0 -0.25431856302814809 -0.24833495949118861 0 -0.27618707322233982 -0.26709712530320262 0 -0.2907170577323625 -0.25177677077710309 0 -0.27309361240676189 -0.24179026653703889 0 -0.27618707322233982 -0.26709712530320262 0 -0.2907170577323625 -0.25177677077710309 0 -0.29477899871119112 -0.26293378760569941 0 -0.2984608121496099 -0.28511533651958437 0 -0.28586576089235322 -0.28577101837165192 0 -0.27618707322233982 -0.26709712530320262 0 -0.2984608121496099 -0.28511533651958437 0 -0.27618707322233982 -0.26709712530320262 0 -0.27618707322233982 -0.26709712530320262 0 -0.29477899871119112 -0.26293378760569941 0 -0.29948479845841441 -0.27338487519771032 0 -0.2984608121496099 -0.28511533651958437 0 -0.27618707322233982 -0.26709712530320262 0 -0.29948479845841441 -0.27338487519771032 0 -0.29477899871119112 -0.26293378760569941 0 -0.29948479845841441 -0.27338487519771032 0 -0.30156079933714469 -0.26765617134954151 0 -0.30156079933714469 -0.26765617134954151 0 -0.30403476516136241 -0.27459464834518948 0 -0.30588444940973558 -0.27063474712059482 0 -0.29948479845841441 -0.27338487519771032 0 -0.30156079933714469 -0.26765617134954151 0 -0.30403476516136241 -0.27459464834518948 0 -0.30156079933714469 -0.26765617134954151 0 -0.30588444940973558 -0.27063474712059482 0 -0.3062135479255173 -0.26372173898871692 0 -0.2984608121496099 -0.28511533651958437 0 -0.29948479845841441 -0.27338487519771032 0 -0.30347897474907187 -0.279643462580969 0 -0.29948479845841441 -0.27338487519771032 0 -0.30403476516136241 -0.27459464834518948 0 -0.30347897474907187 -0.279643462580969 0 -0.30937392239009109 -0.28339120160471948 0 -0.30347897474907187 -0.279643462580969 0 -0.31187737399160442 -0.27618124236115132 0 -0.30403476516136241 -0.27459464834518948 0 -0.30347897474907187 -0.279643462580969 0 -0.31187737399160442 -0.27618124236115132 0 -0.30403476516136241 -0.27459464834518948 0 -0.31187737399160442 -0.27618124236115132 0 -0.30588444940973558 -0.27063474712059482 0 -0.31187737399160442 -0.27618124236115132 0 -0.30588444940973558 -0.27063474712059482 0 -0.3062135479255173 -0.26372173898871692 0 -0.31664960680882542 -0.25714232151458272 0 -0.31202674084989918 -0.26335133138269068 0 -0.30853150187083839 -0.25429835417001312 0 -0.2907170577323625 -0.25177677077710309 0 -0.29477899871119112 -0.26293378760569941 0 -0.30853150187083839 -0.25429835417001312 0 -0.31202674084989918 -0.26335133138269068 0 -0.3062135479255173 -0.26372173898871692 0 -0.30853150187083839 -0.25429835417001312 0 -0.29477899871119112 -0.26293378760569941 0 -0.30156079933714469 -0.26765617134954151 0 -0.3062135479255173 -0.26372173898871692 0 -0.29477899871119112 -0.26293378760569941 0 -0.3062135479255173 -0.26372173898871692 0 -0.30853150187083839 -0.25429835417001312 0 -0.33709504481289931 -0.46474263175187808 0 -0.33075086723682939 -0.45093918684289991 0 -0.35302422329502631 -0.44785824460859458 0 -0.33709504481289931 -0.46474263175187808 0 -0.33075086723682939 -0.45093918684289991 0 -0.32054712240525829 -0.47546959342145068 0 -0.33075086723682939 -0.45093918684289991 0 -0.34095461206840061 -0.42640878026434909 0 -0.33075086723682939 -0.45093918684289991 0 -0.35302422329502631 -0.44785824460859458 0 -0.34095461206840061 -0.42640878026434909 0 -0.33075086723682939 -0.45093918684289991 0 -0.32054706720266329 -0.44859283512714471 0 -0.3206124180200437 -0.43193612962395289 0 -0.33075086723682939 -0.45093918684289991 0 -0.32054706720266329 -0.44859283512714471 0 -0.31571728338184601 -0.45752087103574601 0 -0.32054706720266329 -0.44859283512714471 0 -0.31571728338184601 -0.45752087103574601 0 -0.30706080135445341 -0.45057148265483188 0 -0.33075086723682939 -0.45093918684289991 0 -0.32054712240525829 -0.47546959342145068 0 -0.33075086723682939 -0.45093918684289991 0 -0.31571728338184601 -0.45752087103574601 0 -0.32054712240525829 -0.47546959342145068 0 -0.32054712240525829 -0.47546959342145068 0 -0.32750579650535672 -0.48798687004089669 0 -0.32933965142182292 -0.47777380670114528 0 -0.32054712240525829 -0.47546959342145068 0 -0.31034337757368669 -0.50000000000000133 0 -0.32750579650535672 -0.48798687004089669 0 -0.33387795429423722 -0.5 0 -0.31034337757368669 -0.50000000000000133 0 -0.32054712240525829 -0.47546959342145068 0 -0.32750579650535672 -0.48798687004089669 0 -0.31034337757368669 -0.50000000000000133 0 -0.32750579650535672 -0.48798687004089669 0 -0.34342087683177741 -0.48669095008188618 0 -0.33387795429423722 -0.5 0 -0.33709504481289931 -0.46474263175187808 0 -0.32933965142182292 -0.47777380670114528 0 -0.35181335970555933 -0.47167232718529989 0 -0.34342087683177741 -0.48669095008188618 0 -0.32933965142182292 -0.47777380670114528 0 -0.35181335970555933 -0.47167232718529989 0 -0.32750579650535672 -0.48798687004089669 0 -0.34342087683177741 -0.48669095008188618 0 -0.32933965142182292 -0.47777380670114528 0 -0.33709504481289931 -0.46474263175187808 0 -0.32054712240525829 -0.47546959342145068 0 -0.32933965142182292 -0.47777380670114528 0 -0.32933965142182292 -0.47777380670114528 0 -0.35181335970555933 -0.47167232718529989 0 -0.34342087683177741 -0.48669095008188618 0 -0.35181335970555933 -0.47167232718529989 0 -0.35979455825166368 -0.48519290092039941 0 -0.34342087683177741 -0.48669095008188618 0 -0.35741253101478748 -0.5 0 -0.35979455825166368 -0.48519290092039941 0 -0.34342087683177741 -0.48669095008188618 0 -0.33387795429423722 -0.5 0 -0.35741253101478748 -0.5 0 -0.38094710773533791 -0.49999999999999839 0 -0.35741253101478748 -0.5 0 -0.37240076261097882 -0.48974555046165519 0 -0.35741253101478748 -0.5 0 -0.35979455825166368 -0.48519290092039941 0 -0.37240076261097882 -0.48974555046165519 0 -0.35181335970555933 -0.47167232718529989 0 -0.35979455825166368 -0.48519290092039941 0 -0.37411677223754131 -0.47733161267270968 0 -0.35181335970555933 -0.47167232718529989 0 -0.37411677223754131 -0.47733161267270968 0 -0.37428706798929601 -0.46557084766945539 0 -0.35979455825166368 -0.48519290092039941 0 -0.37240076261097882 -0.48974555046165519 0 -0.37411677223754131 -0.47733161267270968 0 -0.37411677223754131 -0.47733161267270968 0 -0.37428706798929601 -0.46557084766945539 0 -0.35181335970555933 -0.47167232718529989 0 -0.37428706798929601 -0.46557084766945539 0 -0.35302422329502631 -0.44785824460859458 0 -0.35181335970555933 -0.47167232718529989 0 -0.37428706798929601 -0.46557084766945539 0 -0.33709504481289931 -0.46474263175187808 0 -0.35181335970555933 -0.47167232718529989 0 -0.35302422329502631 -0.44785824460859458 0 -0.37428706798929601 -0.46557084766945539 0 -0.35302422329502631 -0.44785824460859458 0 -0.37472313619600889 -0.43545561783144832 0 -0.37428706798929601 -0.46557084766945539 0 -0.37472313619600889 -0.43545561783144832 0 -0.35302422329502631 -0.44785824460859458 0 -0.37472313619600889 -0.43545561783144832 0 -0.36076670325611282 -0.42019275678090617 0 -0.37515920440272033 -0.40534038799344108 0 -0.37472313619600889 -0.43545561783144832 0 -0.36076670325611282 -0.42019275678090617 0 -0.37515920440272033 -0.40534038799344108 0 -0.36076670325611282 -0.42019275678090617 0 -0.35115835689997099 -0.40187837368579798 0 -0.37515920440272033 -0.40534038799344108 0 -0.37472313619600889 -0.43545561783144832 0 -0.36076670325611282 -0.42019275678090617 0 -0.35115835689997099 -0.40187837368579798 0 -0.34095461206840061 -0.42640878026434909 0 -0.34815033243380111 -0.40144447968524521 0 -0.35115835689997099 -0.40187837368579798 0 -0.34095461206840061 -0.42640878026434909 0 -0.35115835689997099 -0.40187837368579798 0 -0.34095461206840061 -0.42640878026434909 0 -0.35302422329502631 -0.44785824460859458 0 -0.36076670325611282 -0.42019275678090617 0 -0.34095461206840061 -0.42640878026434909 0 -0.37543310808941849 -0.38642437359143528 0 -0.36100598543278789 -0.37820409176948921 0 -0.35115835689997099 -0.40187837368579798 0 -0.37543310808941849 -0.38642437359143528 0 -0.37568304780698558 -0.36916333065311507 0 -0.36100598543278789 -0.37820409176948921 0 -0.37543310808941849 -0.38642437359143528 0 -0.36100598543278789 -0.37820409176948921 0 -0.37515920440272033 -0.40534038799344108 0 -0.37543310808941849 -0.38642437359143528 0 -0.35115835689997099 -0.40187837368579798 0 -0.37515920440272033 -0.40534038799344108 0 -0.35115835689997099 -0.40187837368579798 0 -0.35115835689997099 -0.40187837368579798 0 -0.34646966066369161 -0.38533898881774881 0 -0.34316085436749 -0.39382471367395527 0 -0.34815033243380111 -0.40144447968524521 0 -0.35115835689997099 -0.40187837368579798 0 -0.34316085436749 -0.39382471367395527 0 -0.34815033243380111 -0.40144447968524521 0 -0.35115835689997099 -0.40187837368579798 0 -0.33937201587241012 -0.36587749477948078 0 -0.36100598543278789 -0.37820409176948921 0 -0.34646966066369161 -0.38533898881774881 0 -0.36100598543278789 -0.37820409176948921 0 -0.35115835689997099 -0.40187837368579798 0 -0.36100598543278789 -0.37820409176948921 0 -0.35115835689997099 -0.40187837368579798 0 -0.34646966066369161 -0.38533898881774881 0 -0.33937201587241012 -0.36587749477948078 0 -0.32803705280137402 -0.37447550275240871 0 -0.34646966066369161 -0.38533898881774881 0 -0.32803705280137402 -0.37447550275240871 0 -0.34646966066369161 -0.38533898881774881 0 -0.32931529664348408 -0.38869437358142001 0 -0.34646966066369161 -0.38533898881774881 0 -0.32931529664348408 -0.38869437358142001 0 -0.34316085436749 -0.39382471367395527 0 -0.34815033243380111 -0.40144447968524521 0 -0.33486919938690762 -0.39884665705885908 0 -0.32944617452305069 -0.41182817437998842 0 -0.32931529664348408 -0.38869437358142001 0 -0.34316085436749 -0.39382471367395527 0 -0.33486919938690762 -0.39884665705885908 0 -0.32931529664348408 -0.38869437358142001 0 -0.33486919938690762 -0.39884665705885908 0 -0.32365381597648563 -0.39942827076698811 0 -0.34815033243380111 -0.40144447968524521 0 -0.34316085436749 -0.39382471367395527 0 -0.33486919938690762 -0.39884665705885908 0 -0.33486919938690762 -0.39884665705885908 0 -0.32365381597648563 -0.39942827076698811 0 -0.32944617452305069 -0.41182817437998842 0 -0.32931529664348408 -0.38869437358142001 0 -0.32365381597648563 -0.39942827076698811 0 -0.30988209993594379 -0.39542680479545339 0 -0.32365381597648563 -0.39942827076698811 0 -0.30595412674790001 -0.41636475829844438 0 -0.30988209993594379 -0.39542680479545339 0 -0.31381007312398762 -0.37448885129246268 0 -0.32931529664348408 -0.38869437358142001 0 -0.30988209993594379 -0.39542680479545339 0 -0.31381007312398762 -0.37448885129246268 0 -0.32803705280137402 -0.37447550275240871 0 -0.32931529664348408 -0.38869437358142001 0 -0.34095461206840061 -0.42640878026434909 0 -0.32944617452305069 -0.41182817437998842 0 -0.3206124180200437 -0.43193612962395289 0 -0.33075086723682939 -0.45093918684289991 0 -0.34095461206840061 -0.42640878026434909 0 -0.3206124180200437 -0.43193612962395289 0 -0.34815033243380111 -0.40144447968524521 0 -0.34095461206840061 -0.42640878026434909 0 -0.32944617452305069 -0.41182817437998842 0 -0.32944617452305069 -0.41182817437998842 0 -0.3206124180200437 -0.43193612962395289 0 -0.30595412674790001 -0.41636475829844438 0 -0.32365381597648563 -0.39942827076698811 0 -0.32944617452305069 -0.41182817437998842 0 -0.30595412674790001 -0.41636475829844438 0 -0.3206124180200437 -0.43193612962395289 0 -0.30595412674790001 -0.41636475829844438 0 -0.29602166034141808 -0.43748304283089118 0 -0.30595412674790001 -0.41636475829844438 0 -0.28680587137917263 -0.41476105187328532 0 -0.29502227998321778 -0.40112933436643161 0 -0.30595412674790001 -0.41636475829844438 0 -0.28680587137917263 -0.41476105187328532 0 -0.29602166034141808 -0.43748304283089118 0 -0.28680587137917263 -0.41476105187328532 0 -0.29602166034141808 -0.43748304283089118 0 -0.27149625348017281 -0.42637325053463759 0 -0.29602166034141808 -0.43748304283089118 0 -0.27149625348017281 -0.42637325053463759 0 -0.29602166034141808 -0.43748304283089118 0 -0.27149625348017281 -0.42637325053463759 0 -0.27906578537949278 -0.44687665772048962 0 -0.31381007312398762 -0.37448885129246268 0 -0.30988209993594379 -0.39542680479545339 0 -0.31381007312398762 -0.37448885129246268 0 -0.30988209993594379 -0.39542680479545339 0 -0.29196992941862432 -0.3825632544476108 0 -0.30595412674790001 -0.41636475829844438 0 -0.30988209993594379 -0.39542680479545339 0 -0.30595412674790001 -0.41636475829844438 0 -0.30988209993594379 -0.39542680479545339 0 -0.29502227998321778 -0.40112933436643161 0 -0.30988209993594379 -0.39542680479545339 0 -0.29502227998321778 -0.40112933436643161 0 -0.29196992941862432 -0.3825632544476108 0 -0.28680587137917263 -0.41476105187328532 0 -0.29502227998321778 -0.40112933436643161 0 -0.2806661672136338 -0.39648987600255969 0 -0.29502227998321778 -0.40112933436643161 0 -0.29196992941862432 -0.3825632544476108 0 -0.2806661672136338 -0.39648987600255969 0 -0.27675503022224163 -0.36681377825091099 0 -0.29196992941862432 -0.3825632544476108 0 -0.26924588117792803 -0.38334910629271668 0 -0.29196992941862432 -0.3825632544476108 0 -0.26924588117792803 -0.38334910629271668 0 -0.2806661672136338 -0.39648987600255969 0 -0.27675503022224163 -0.36681377825091099 0 -0.26924588117792803 -0.38334910629271668 0 -0.25812358553267323 -0.37605355791306738 0 -0.28680587137917263 -0.41476105187328532 0 -0.2806661672136338 -0.39648987600255969 0 -0.26326431180229581 -0.40282557300305732 0 -0.26924588117792803 -0.38334910629271668 0 -0.2806661672136338 -0.39648987600255969 0 -0.26326431180229581 -0.40282557300305732 0 -0.26326431180229581 -0.40282557300305732 0 -0.2504897110532438 -0.38524934403489181 0 -0.24394706363899241 -0.39877073912243299 0 -0.26326431180229581 -0.40282557300305732 0 -0.24697084661892749 -0.41526345823838401 0 -0.24394706363899241 -0.39877073912243299 0 -0.26924588117792803 -0.38334910629271668 0 -0.26326431180229581 -0.40282557300305732 0 -0.2504897110532438 -0.38524934403489181 0 -0.26924588117792803 -0.38334910629271668 0 -0.2504897110532438 -0.38524934403489181 0 -0.25812358553267323 -0.37605355791306738 0 -0.2504897110532438 -0.38524934403489181 0 -0.25812358553267323 -0.37605355791306738 0 -0.24839247009954951 -0.37292447016044328 0 -0.28680587137917263 -0.41476105187328532 0 -0.26326431180229581 -0.40282557300305732 0 -0.27149625348017281 -0.42637325053463759 0 -0.27149625348017281 -0.42637325053463759 0 -0.24697084661892749 -0.41526345823838401 0 -0.26326431180229581 -0.40282557300305732 0 -0.27149625348017281 -0.42637325053463759 0 -0.24697084661892749 -0.41526345823838401 0 -0.27149625348017281 -0.42637325053463759 0 -0.25687425522332558 -0.44642006451091643 0 -0.24697084661892749 -0.41526345823838401 0 -0.25687425522332558 -0.44642006451091643 0 -0.27607931301277078 -0.46657199895299017 0 -0.25409384940020791 -0.47271975939701871 0 -0.25687425522332558 -0.44642006451091643 0 -0.27607931301277078 -0.46657199895299017 0 -0.27906578537949278 -0.44687665772048962 0 -0.27149625348017281 -0.42637325053463759 0 -0.25687425522332558 -0.44642006451091643 0 -0.27906578537949278 -0.44687665772048962 0 -0.29602166034141808 -0.43748304283089118 0 -0.27906578537949278 -0.44687665772048962 0 -0.29968055871002541 -0.46203125713240301 0 -0.27607931301277078 -0.46657199895299017 0 -0.27906578537949278 -0.44687665772048962 0 -0.29968055871002541 -0.46203125713240301 0 -0.31571728338184601 -0.45752087103574601 0 -0.29968055871002541 -0.46203125713240301 0 -0.30706080135445341 -0.45057148265483188 0 -0.31571728338184601 -0.45752087103574601 0 -0.32054712240525829 -0.47546959342145068 0 -0.29968055871002541 -0.46203125713240301 0 -0.32054706720266329 -0.44859283512714471 0 -0.29602166034141808 -0.43748304283089118 0 -0.32054706720266329 -0.44859283512714471 0 -0.3206124180200437 -0.43193612962395289 0 -0.29602166034141808 -0.43748304283089118 0 -0.32054706720266329 -0.44859283512714471 0 -0.29602166034141808 -0.43748304283089118 0 -0.30706080135445341 -0.45057148265483188 0 -0.29602166034141808 -0.43748304283089118 0 -0.29968055871002541 -0.46203125713240301 0 -0.30706080135445341 -0.45057148265483188 0 -0.32054712240525829 -0.47546959342145068 0 -0.31034337757368669 -0.50000000000000133 0 -0.2941570887960146 -0.48201569375099518 0 -0.32054712240525829 -0.47546959342145068 0 -0.29968055871002541 -0.46203125713240301 0 -0.2941570887960146 -0.48201569375099518 0 -0.27607931301277078 -0.46657199895299017 0 -0.29968055871002541 -0.46203125713240301 0 -0.2941570887960146 -0.48201569375099518 0 -0.2941570887960146 -0.48201569375099518 0 -0.28248249767631262 -0.5 0 -0.27039562620846602 -0.48462576079096858 0 -0.31034337757368669 -0.50000000000000133 0 -0.2941570887960146 -0.48201569375099518 0 -0.28248249767631262 -0.5 0 -0.28248249767631262 -0.5 0 -0.27039562620846602 -0.48462576079096858 0 -0.25462161777893849 -0.5 0 -0.27607931301277078 -0.46657199895299017 0 -0.2941570887960146 -0.48201569375099518 0 -0.27039562620846602 -0.48462576079096858 0 -0.27607931301277078 -0.46657199895299017 0 -0.27039562620846602 -0.48462576079096858 0 -0.25409384940020791 -0.47271975939701871 0 -0.27039562620846602 -0.48462576079096858 0 -0.25409384940020791 -0.47271975939701871 0 -0.25462161777893849 -0.5 0 -0.25462161777893849 -0.5 0 -0.23155232774708009 -0.47932355884050398 0 -0.22676073788156451 -0.5 0 -0.25409384940020791 -0.47271975939701871 0 -0.25462161777893849 -0.5 0 -0.23155232774708009 -0.47932355884050398 0 -0.25409384940020791 -0.47271975939701871 0 -0.23155232774708009 -0.47932355884050398 0 -0.2350399564306665 -0.45937717328673289 0 -0.23155232774708009 -0.47932355884050398 0 -0.2350399564306665 -0.45937717328673289 0 -0.2080224731694312 -0.47403962225972662 0 -0.23155232774708009 -0.47932355884050398 0 -0.22676073788156451 -0.5 0 -0.2080224731694312 -0.47403962225972662 0 -0.25687425522332558 -0.44642006451091643 0 -0.2350399564306665 -0.45937717328673289 0 -0.23180750449586429 -0.4343742486430574 0 -0.25687425522332558 -0.44642006451091643 0 -0.25409384940020791 -0.47271975939701871 0 -0.2350399564306665 -0.45937717328673289 0 -0.2350399564306665 -0.45937717328673289 0 -0.21590660946663959 -0.44883644739355771 0 -0.2080224731694312 -0.47403962225972662 0 -0.2350399564306665 -0.45937717328673289 0 -0.21590660946663959 -0.44883644739355771 0 -0.23180750449586429 -0.4343742486430574 0 -0.21590660946663959 -0.44883644739355771 0 -0.1943898331460783 -0.4473597119794826 0 -0.20910912931781811 -0.42543372189632289 0 -0.21590660946663959 -0.44883644739355771 0 -0.1943898331460783 -0.4473597119794826 0 -0.2080224731694312 -0.47403962225972662 0 -0.1943898331460783 -0.4473597119794826 0 -0.2080224731694312 -0.47403962225972662 0 -0.17967053697433849 -0.46928570206264231 0 -0.22676073788156451 -0.5 0 -0.2080224731694312 -0.47403962225972662 0 -0.19889985798419041 -0.5 0 -0.2080224731694312 -0.47403962225972662 0 -0.1821948971586228 -0.48648437486529872 0 -0.17967053697433849 -0.46928570206264231 0 -0.2080224731694312 -0.47403962225972662 0 -0.19889985798419041 -0.5 0 -0.1821948971586228 -0.48648437486529872 0 -0.19889985798419041 -0.5 0 -0.1821948971586228 -0.48648437486529872 0 -0.17103897808681609 -0.49999999999999778 0 -0.1821948971586228 -0.48648437486529872 0 -0.17103897808681609 -0.49999999999999778 0 -0.16495124080259491 -0.49121169214579941 0 -0.17103897808681609 -0.49999999999999778 0 -0.16495124080259491 -0.49121169214579941 0 -0.17103897808681609 -0.49999999999999778 0 -0.16495124080259491 -0.49121169214579941 0 -0.15905149781887321 -0.49999999999999961 0 -0.16495124080259491 -0.49121169214579941 0 -0.15905149781887321 -0.49999999999999961 0 -0.1545750311736096 -0.49062041690426861 0 -0.16495124080259491 -0.49121169214579941 0 -0.15905149781887321 -0.49999999999999961 0 -0.16495124080259491 -0.49121169214579941 0 -0.16530166315622061 -0.47155300009798301 0 -0.17967053697433849 -0.46928570206264231 0 -0.16495124080259491 -0.49121169214579941 0 -0.16530166315622061 -0.47155300009798301 0 -0.15083103946930049 -0.47082765280793248 0 -0.16495124080259491 -0.49121169214579941 0 -0.1545750311736096 -0.49062041690426861 0 -0.15083103946930049 -0.47082765280793248 0 -0.16495124080259491 -0.49121169214579941 0 -0.15083103946930049 -0.47082765280793248 0 -0.16495124080259491 -0.49121169214579941 0 -0.17967053697433849 -0.46928570206264231 0 -0.1821948971586228 -0.48648437486529872 0 -0.16495124080259491 -0.49121169214579941 0 -0.17967053697433849 -0.46928570206264231 0 -0.1943898331460783 -0.4473597119794826 0 -0.17967053697433849 -0.46928570206264231 0 -0.1943898331460783 -0.4473597119794826 0 -0.17967053697433849 -0.46928570206264231 0 -0.1657538353786501 -0.45488695337555668 0 -0.1943898331460783 -0.4473597119794826 0 -0.1657538353786501 -0.45488695337555668 0 -0.1755027511393909 -0.43471579892562301 0 -0.1657538353786501 -0.45488695337555668 0 -0.15761868306950341 -0.43586407366366631 0 -0.1755027511393909 -0.43471579892562301 0 -0.16530166315622061 -0.47155300009798301 0 -0.1657538353786501 -0.45488695337555668 0 -0.15083103946930049 -0.47082765280793248 0 -0.16530166315622061 -0.47155300009798301 0 -0.17967053697433849 -0.46928570206264231 0 -0.1657538353786501 -0.45488695337555668 0 -0.13671083813600751 -0.45044361347006462 0 -0.15083103946930049 -0.47082765280793248 0 -0.13671083813600751 -0.45044361347006462 0 -0.13441782301728619 -0.47175980973682791 0 -0.15083103946930049 -0.47082765280793248 0 -0.1657538353786501 -0.45488695337555668 0 -0.13671083813600751 -0.45044361347006462 0 -0.15083103946930049 -0.47082765280793248 0 -0.13671083813600751 -0.45044361347006462 0 -0.13816776916695811 -0.432543871779144 0 -0.15761868306950341 -0.43586407366366631 0 -0.1657538353786501 -0.45488695337555668 0 -0.13671083813600751 -0.45044361347006462 0 -0.15761868306950341 -0.43586407366366631 0 -0.13671083813600751 -0.45044361347006462 0 -0.13816776916695811 -0.432543871779144 0 -0.1225906368027144 -0.43005957413219659 0 -0.13671083813600751 -0.45044361347006462 0 -0.1225906368027144 -0.43005957413219659 0 -0.13671083813600751 -0.45044361347006462 0 -0.13441782301728619 -0.47175980973682791 0 -0.1201929706126502 -0.46127799294672761 0 -0.13441782301728619 -0.47175980973682791 0 -0.12605423818426559 -0.48707922202292669 0 -0.14429533434837091 -0.48908967660720287 0 -0.13441782301728619 -0.47175980973682791 0 -0.12605423818426559 -0.48707922202292669 0 -0.1201929706126502 -0.46127799294672761 0 -0.1295391708778694 -0.5 0 -0.12605423818426559 -0.48707922202292669 0 -0.14429533434837091 -0.48908967660720287 0 -0.15905149781887321 -0.49999999999999961 0 -0.1295391708778694 -0.5 0 -0.14429533434837091 -0.48908967660720287 0 -0.15905149781887321 -0.49999999999999961 0 -0.14429533434837091 -0.48908967660720287 0 -0.1545750311736096 -0.49062041690426861 0 -0.14429533434837091 -0.48908967660720287 0 -0.1545750311736096 -0.49062041690426861 0 -0.15083103946930049 -0.47082765280793248 0 -0.13441782301728619 -0.47175980973682791 0 -0.14429533434837091 -0.48908967660720287 0 -0.15083103946930049 -0.47082765280793248 0 -0.15345949684661231 -0.4053237642064671 0 -0.15136585988972451 -0.39002590355483568 0 -0.13982663417143551 -0.39933000433158738 0 -0.15136585988972451 -0.39002590355483568 0 -0.1368738238800834 -0.3880397179408614 0 -0.13982663417143551 -0.39933000433158738 0 -0.15345949684661231 -0.4053237642064671 0 -0.13982663417143551 -0.39933000433158738 0 -0.1398029654186671 -0.41064466143528439 0 -0.15136585988972451 -0.39002590355483568 0 -0.1368738238800834 -0.3880397179408614 0 -0.13959568407155781 -0.37291875636350952 0 -0.15136585988972451 -0.39002590355483568 0 -0.15951650330528561 -0.37856285477961621 0 -0.13959568407155781 -0.37291875636350952 0 -0.1368738238800834 -0.3880397179408614 0 -0.12625141541498519 -0.38197991289387551 0 -0.13959568407155781 -0.37291875636350952 0 -0.1368738238800834 -0.3880397179408614 0 -0.12625141541498519 -0.38197991289387551 0 -0.1273295258527142 -0.39594401256049883 0 -0.1368738238800834 -0.3880397179408614 0 -0.1273295258527142 -0.39594401256049883 0 -0.13982663417143551 -0.39933000433158738 0 -0.13982663417143551 -0.39933000433158738 0 -0.1295768038857959 -0.40463739140698729 0 -0.1398029654186671 -0.41064466143528439 0 -0.1273295258527142 -0.39594401256049883 0 -0.13982663417143551 -0.39933000433158738 0 -0.1295768038857959 -0.40463739140698729 0 -0.1273295258527142 -0.39594401256049883 0 -0.1295768038857959 -0.40463739140698729 0 -0.1219584454402414 -0.40406961642135292 0 -0.1295768038857959 -0.40463739140698729 0 -0.1296119374269841 -0.41417592727859581 0 -0.1225700411049412 -0.40994677461386392 0 -0.1296119374269841 -0.41417592727859581 0 -0.12315425937001 -0.41747458531602638 0 -0.1225700411049412 -0.40994677461386392 0 -0.1296119374269841 -0.41417592727859581 0 -0.13713184062407599 -0.42036644340313623 0 -0.12908399078123631 -0.42243277819987513 0 -0.1296119374269841 -0.41417592727859581 0 -0.12908399078123631 -0.42243277819987513 0 -0.12315425937001 -0.41747458531602638 0 -0.1296119374269841 -0.41417592727859581 0 -0.13713184062407599 -0.42036644340313623 0 -0.1398029654186671 -0.41064466143528439 0 -0.1295768038857959 -0.40463739140698729 0 -0.1296119374269841 -0.41417592727859581 0 -0.1398029654186671 -0.41064466143528439 0 -0.12908399078123631 -0.42243277819987513 0 -0.13816776916695811 -0.432543871779144 0 -0.1225906368027144 -0.43005957413219659 0 -0.13713184062407599 -0.42036644340313623 0 -0.12908399078123631 -0.42243277819987513 0 -0.13816776916695811 -0.432543871779144 0 -0.13816776916695811 -0.432543871779144 0 -0.14921107955709881 -0.42003443798493328 0 -0.15761868306950341 -0.43586407366366631 0 -0.13713184062407599 -0.42036644340313623 0 -0.13816776916695811 -0.432543871779144 0 -0.14921107955709881 -0.42003443798493328 0 -0.15345949684661231 -0.4053237642064671 0 -0.1398029654186671 -0.41064466143528439 0 -0.14921107955709881 -0.42003443798493328 0 -0.13713184062407599 -0.42036644340313623 0 -0.1398029654186671 -0.41064466143528439 0 -0.14921107955709881 -0.42003443798493328 0 -0.15345949684661231 -0.4053237642064671 0 -0.14921107955709881 -0.42003443798493328 0 -0.17009787391258249 -0.41611158199907422 0 -0.14921107955709881 -0.42003443798493328 0 -0.17009787391258249 -0.41611158199907422 0 -0.15761868306950341 -0.43586407366366631 0 -0.17009787391258249 -0.41611158199907422 0 -0.15761868306950341 -0.43586407366366631 0 -0.1755027511393909 -0.43471579892562301 0 -0.1943898331460783 -0.4473597119794826 0 -0.1755027511393909 -0.43471579892562301 0 -0.18951413900105801 -0.42212105940109063 0 -0.17009787391258249 -0.41611158199907422 0 -0.1755027511393909 -0.43471579892562301 0 -0.18951413900105801 -0.42212105940109063 0 -0.17009787391258249 -0.41611158199907422 0 -0.18562609472684241 -0.40161550393767448 0 -0.18951413900105801 -0.42212105940109063 0 -0.18562609472684241 -0.40161550393767448 0 -0.16863204450281991 -0.39380366607865908 0 -0.18254917963999329 -0.38971973427100182 0 -0.17009787391258249 -0.41611158199907422 0 -0.18562609472684241 -0.40161550393767448 0 -0.16863204450281991 -0.39380366607865908 0 -0.18562609472684241 -0.40161550393767448 0 -0.18254917963999329 -0.38971973427100182 0 -0.19364364155811911 -0.391297223908462 0 -0.15345949684661231 -0.4053237642064671 0 -0.17009787391258249 -0.41611158199907422 0 -0.16863204450281991 -0.39380366607865908 0 -0.15345949684661231 -0.4053237642064671 0 -0.15136585988972451 -0.39002590355483568 0 -0.16863204450281991 -0.39380366607865908 0 -0.15951650330528561 -0.37856285477961621 0 -0.17625218554490921 -0.38180729220612769 0 -0.1663610822414904 -0.3702523776444529 0 -0.16863204450281991 -0.39380366607865908 0 -0.15951650330528561 -0.37856285477961621 0 -0.17625218554490921 -0.38180729220612769 0 -0.15136585988972451 -0.39002590355483568 0 -0.16863204450281991 -0.39380366607865908 0 -0.15951650330528561 -0.37856285477961621 0 -0.17625218554490921 -0.38180729220612769 0 -0.1663610822414904 -0.3702523776444529 0 -0.18579747934449059 -0.37379744869579251 0 -0.16863204450281991 -0.39380366607865908 0 -0.17625218554490921 -0.38180729220612769 0 -0.18254917963999329 -0.38971973427100182 0 -0.17625218554490921 -0.38180729220612769 0 -0.18254917963999329 -0.38971973427100182 0 -0.18859193186727599 -0.38007498522408562 0 -0.17625218554490921 -0.38180729220612769 0 -0.18859193186727599 -0.38007498522408562 0 -0.18579747934449059 -0.37379744869579251 0 -0.18859193186727599 -0.38007498522408562 0 -0.2014200033848125 -0.37119512976538899 0 -0.18859193186727599 -0.38007498522408562 0 -0.2014200033848125 -0.37119512976538899 0 -0.18579747934449059 -0.37379744869579251 0 -0.18859193186727599 -0.38007498522408562 0 -0.1989719328316337 -0.38216032023399737 0 -0.2014200033848125 -0.37119512976538899 0 -0.1989719328316337 -0.38216032023399737 0 -0.20694960464083431 -0.38128159833907621 0 -0.2014200033848125 -0.37119512976538899 0 -0.1989719328316337 -0.38216032023399737 0 -0.19364364155811911 -0.391297223908462 0 -0.20620014074293039 -0.39180645285032889 0 -0.18859193186727599 -0.38007498522408562 0 -0.1989719328316337 -0.38216032023399737 0 -0.19364364155811911 -0.391297223908462 0 -0.18254917963999329 -0.38971973427100182 0 -0.18859193186727599 -0.38007498522408562 0 -0.19364364155811911 -0.391297223908462 0 -0.18562609472684241 -0.40161550393767448 0 -0.19364364155811911 -0.391297223908462 0 -0.20208872018367391 -0.4070926974887904 0 -0.19364364155811911 -0.391297223908462 0 -0.20620014074293039 -0.39180645285032889 0 -0.20208872018367391 -0.4070926974887904 0 -0.20620014074293039 -0.39180645285032889 0 -0.21479853281951461 -0.38638530273916921 0 -0.22382842548955789 -0.4035077318131633 0 -0.20620014074293039 -0.39180645285032889 0 -0.20208872018367391 -0.4070926974887904 0 -0.22382842548955789 -0.4035077318131633 0 -0.21479853281951461 -0.38638530273916921 0 -0.20694960464083431 -0.38128159833907621 0 -0.21335741342528061 -0.3748607861064962 0 -0.21479853281951461 -0.38638530273916921 0 -0.22412886374227589 -0.38235217247817599 0 -0.21335741342528061 -0.3748607861064962 0 -0.20694960464083431 -0.38128159833907621 0 -0.2014200033848125 -0.37119512976538899 0 -0.21335741342528061 -0.3748607861064962 0 -0.20620014074293039 -0.39180645285032889 0 -0.21479853281951461 -0.38638530273916921 0 -0.20694960464083431 -0.38128159833907621 0 -0.1989719328316337 -0.38216032023399737 0 -0.20620014074293039 -0.39180645285032889 0 -0.20694960464083431 -0.38128159833907621 0 -0.1943898331460783 -0.4473597119794826 0 -0.20910912931781811 -0.42543372189632289 0 -0.1943898331460783 -0.4473597119794826 0 -0.18951413900105801 -0.42212105940109063 0 -0.20910912931781811 -0.42543372189632289 0 -0.18951413900105801 -0.42212105940109063 0 -0.20208872018367391 -0.4070926974887904 0 -0.20910912931781811 -0.42543372189632289 0 -0.18562609472684241 -0.40161550393767448 0 -0.18951413900105801 -0.42212105940109063 0 -0.20208872018367391 -0.4070926974887904 0 -0.20208872018367391 -0.4070926974887904 0 -0.20910912931781811 -0.42543372189632289 0 -0.22382842548955789 -0.4035077318131633 0 -0.20910912931781811 -0.42543372189632289 0 -0.22382842548955789 -0.4035077318131633 0 -0.21590660946663959 -0.44883644739355771 0 -0.20910912931781811 -0.42543372189632289 0 -0.23180750449586429 -0.4343742486430574 0 -0.20910912931781811 -0.42543372189632289 0 -0.23180750449586429 -0.4343742486430574 0 -0.22382842548955789 -0.4035077318131633 0 -0.23180750449586429 -0.4343742486430574 0 -0.24697084661892749 -0.41526345823838401 0 -0.22382842548955789 -0.4035077318131633 0 -0.25687425522332558 -0.44642006451091643 0 -0.23180750449586429 -0.4343742486430574 0 -0.24697084661892749 -0.41526345823838401 0 -0.22412886374227589 -0.38235217247817599 0 -0.2351820232309369 -0.38700758852266848 0 -0.22952037500089251 -0.37311519752493849 0 -0.22412886374227589 -0.38235217247817599 0 -0.22186900287429051 -0.37074082218821958 0 -0.21335741342528061 -0.3748607861064962 0 -0.22412886374227589 -0.38235217247817599 0 -0.22952037500089251 -0.37311519752493849 0 -0.22186900287429051 -0.37074082218821958 0 -0.22382842548955789 -0.4035077318131633 0 -0.24394706363899241 -0.39877073912243299 0 -0.2351820232309369 -0.38700758852266848 0 -0.21479853281951461 -0.38638530273916921 0 -0.22412886374227589 -0.38235217247817599 0 -0.22382842548955789 -0.4035077318131633 0 -0.22412886374227589 -0.38235217247817599 0 -0.22382842548955789 -0.4035077318131633 0 -0.2351820232309369 -0.38700758852266848 0 -0.24697084661892749 -0.41526345823838401 0 -0.22382842548955789 -0.4035077318131633 0 -0.24394706363899241 -0.39877073912243299 0 -0.2504897110532438 -0.38524934403489181 0 -0.24394706363899241 -0.39877073912243299 0 -0.2351820232309369 -0.38700758852266848 0 -0.2504897110532438 -0.38524934403489181 0 -0.2351820232309369 -0.38700758852266848 0 -0.24036284435674521 -0.37772398595485779 0 -0.2351820232309369 -0.38700758852266848 0 -0.24036284435674521 -0.37772398595485779 0 -0.22952037500089251 -0.37311519752493849 0 -0.2504897110532438 -0.38524934403489181 0 -0.24036284435674521 -0.37772398595485779 0 -0.24839247009954951 -0.37292447016044328 0 -0.24839247009954951 -0.37292447016044328 0 -0.24532753696728959 -0.36501789644951049 0 -0.23861636880082099 -0.36955921174380651 0 -0.24036284435674521 -0.37772398595485779 0 -0.24839247009954951 -0.37292447016044328 0 -0.23861636880082099 -0.36955921174380651 0 -0.25757508569408222 -0.36424633604315798 0 -0.24532753696728959 -0.36501789644951049 0 -0.24650166737573331 -0.3569693529562265 0 -0.24532753696728959 -0.36501789644951049 0 -0.24234943749700691 -0.36154613291017651 0 -0.24650166737573331 -0.3569693529562265 0 -0.24532753696728959 -0.36501789644951049 0 -0.24234943749700691 -0.36154613291017651 0 -0.23928568589256061 -0.36455139619594779 0 -0.24234943749700691 -0.36154613291017651 0 -0.23928568589256061 -0.36455139619594779 0 -0.23696933381926599 -0.3585493042599866 0 -0.24532753696728959 -0.36501789644951049 0 -0.23928568589256061 -0.36455139619594779 0 -0.23861636880082099 -0.36955921174380651 0 -0.23928568589256061 -0.36455139619594779 0 -0.23861636880082099 -0.36955921174380651 0 -0.23345080570298909 -0.36409891217005902 0 -0.23928568589256061 -0.36455139619594779 0 -0.23345080570298909 -0.36409891217005902 0 -0.23696933381926599 -0.3585493042599866 0 -0.24036284435674521 -0.37772398595485779 0 -0.23861636880082099 -0.36955921174380651 0 -0.22952037500089251 -0.37311519752493849 0 -0.23345080570298909 -0.36409891217005902 0 -0.22186900287429051 -0.37074082218821958 0 -0.21424807490234879 -0.36231527430669241 0 -0.22952037500089251 -0.37311519752493849 0 -0.23345080570298909 -0.36409891217005902 0 -0.22186900287429051 -0.37074082218821958 0 -0.23696933381926599 -0.3585493042599866 0 -0.21424807490234879 -0.36231527430669241 0 -0.23861636880082099 -0.36955921174380651 0 -0.22952037500089251 -0.37311519752493849 0 -0.23345080570298909 -0.36409891217005902 0 -0.23345080570298909 -0.36409891217005902 0 -0.23696933381926599 -0.3585493042599866 0 -0.21424807490234879 -0.36231527430669241 0 -0.22913587473404851 -0.35200963246311751 0 -0.2097464541822805 -0.33582260124732738 0 -0.22913587473404851 -0.35200963246311751 0 -0.23696933381926599 -0.3585493042599866 0 -0.21424807490234879 -0.36231527430669241 0 -0.22913587473404851 -0.35200963246311751 0 -0.21998707993494029 -0.33959044394559312 0 -0.22913587473404851 -0.35200963246311751 0 -0.21424807490234879 -0.36231527430669241 0 -0.22913587473404851 -0.35200963246311751 0 -0.23696933381926599 -0.3585493042599866 0 -0.22913587473404851 -0.35200963246311751 0 -0.24881121389389799 -0.33838995723746451 0 -0.22913587473404851 -0.35200963246311751 0 -0.23696933381926599 -0.3585493042599866 0 -0.24650166737573331 -0.3569693529562265 0 -0.22913587473404851 -0.35200963246311751 0 -0.24650166737573331 -0.3569693529562265 0 -0.24881121389389799 -0.33838995723746451 0 -0.23696933381926599 -0.3585493042599866 0 -0.24650166737573331 -0.3569693529562265 0 -0.24234943749700691 -0.36154613291017651 0 -0.23696933381926599 -0.3585493042599866 0 -0.24650166737573331 -0.3569693529562265 0 -0.22913587473404851 -0.35200963246311751 0 -0.24881121389389799 -0.33838995723746451 0 -0.2325545649384867 -0.33453283978227571 0 -0.24881121389389799 -0.33838995723746451 0 -0.2441082332202735 -0.32380704628422963 0 -0.2325545649384867 -0.33453283978227571 0 -0.23613058105125781 -0.31890710479075163 0 -0.2279063026952847 -0.3135077128279592 0 -0.2444966906846206 -0.31181945912301329 0 -0.2441082332202735 -0.32380704628422963 0 -0.23498207165859719 -0.32537142019391418 0 -0.23613058105125781 -0.31890710479075163 0 -0.2441082332202735 -0.32380704628422963 0 -0.23498207165859719 -0.32537142019391418 0 -0.2325545649384867 -0.33453283978227571 0 -0.2441082332202735 -0.32380704628422963 0 -0.23613058105125781 -0.31890710479075163 0 -0.2444966906846206 -0.31181945912301329 0 -0.2279063026952847 -0.3135077128279592 0 -0.2193464910840433 -0.31976030368968739 0 -0.21134622408423179 -0.310554889255794 0 -0.23613058105125781 -0.31890710479075163 0 -0.2279063026952847 -0.3135077128279592 0 -0.22829430606921119 -0.32293804105388452 0 -0.23498207165859719 -0.32537142019391418 0 -0.22829430606921119 -0.32293804105388452 0 -0.2325545649384867 -0.33453283978227571 0 -0.23498207165859719 -0.32537142019391418 0 -0.23613058105125781 -0.31890710479075163 0 -0.22829430606921119 -0.32293804105388452 0 -0.22829430606921119 -0.32293804105388452 0 -0.2193464910840433 -0.31976030368968739 0 -0.22209033975117781 -0.32887735541776358 0 -0.2279063026952847 -0.3135077128279592 0 -0.22829430606921119 -0.32293804105388452 0 -0.2193464910840433 -0.31976030368968739 0 -0.22913587473404851 -0.35200963246311751 0 -0.2325545649384867 -0.33453283978227571 0 -0.21998707993494029 -0.33959044394559312 0 -0.22913587473404851 -0.35200963246311751 0 -0.21998707993494029 -0.33959044394559312 0 -0.2097464541822805 -0.33582260124732738 0 -0.22829430606921119 -0.32293804105388452 0 -0.2325545649384867 -0.33453283978227571 0 -0.22209033975117781 -0.32887735541776358 0 -0.2325545649384867 -0.33453283978227571 0 -0.22209033975117781 -0.32887735541776358 0 -0.21998707993494029 -0.33959044394559312 0 -0.21998707993494029 -0.33959044394559312 0 -0.21026925672920721 -0.32756514861737779 0 -0.22209033975117781 -0.32887735541776358 0 -0.21998707993494029 -0.33959044394559312 0 -0.21026925672920721 -0.32756514861737779 0 -0.21998707993494029 -0.33959044394559312 0 -0.2097464541822805 -0.33582260124732738 0 -0.21026925672920721 -0.32756514861737779 0 -0.2097464541822805 -0.33582260124732738 0 -0.21026925672920721 -0.32756514861737779 0 -0.21026925672920721 -0.32756514861737779 0 -0.21134622408423179 -0.310554889255794 0 -0.19267178705524021 -0.30578920503631912 0 -0.21026925672920721 -0.32756514861737779 0 -0.21134622408423179 -0.310554889255794 0 -0.2097464541822805 -0.33582260124732738 0 -0.21026925672920721 -0.32756514861737779 0 -0.19254159852174429 -0.31996122112867409 0 -0.2193464910840433 -0.31976030368968739 0 -0.21026925672920721 -0.32756514861737779 0 -0.21134622408423179 -0.310554889255794 0 -0.2193464910840433 -0.31976030368968739 0 -0.22209033975117781 -0.32887735541776358 0 -0.21026925672920721 -0.32756514861737779 0 -0.2097464541822805 -0.33582260124732738 0 -0.1943588054861482 -0.32297640251143073 0 -0.19254159852174429 -0.31996122112867409 0 -0.21026925672920721 -0.32756514861737779 0 -0.19267178705524021 -0.30578920503631912 0 -0.21026925672920721 -0.32756514861737779 0 -0.19254159852174429 -0.31996122112867409 0 -0.19267178705524021 -0.30578920503631912 0 -0.2097464541822805 -0.33582260124732738 0 -0.19254159852174429 -0.31996122112867409 0 -0.1943588054861482 -0.32297640251143073 0 -0.18737083868624629 -0.33075534874643497 0 -0.18479650728396149 -0.32227615663527998 0 -0.1943588054861482 -0.32297640251143073 0 -0.19254159852174429 -0.31996122112867409 0 -0.1789711567900161 -0.3101302037755338 0 -0.2097464541822805 -0.33582260124732738 0 -0.19466829689393059 -0.33824472710720138 0 -0.19565175395430129 -0.3512554891803924 0 -0.2097464541822805 -0.33582260124732738 0 -0.1943588054861482 -0.32297640251143073 0 -0.19466829689393059 -0.33824472710720138 0 -0.2097464541822805 -0.33582260124732738 0 -0.1943588054861482 -0.32297640251143073 0 -0.1943588054861482 -0.32297640251143073 0 -0.19466829689393059 -0.33824472710720138 0 -0.18737083868624629 -0.33075534874643497 0 -0.19466829689393059 -0.33824472710720138 0 -0.18164424501215659 -0.34621916084723381 0 -0.18737083868624629 -0.33075534874643497 0 -0.19466829689393059 -0.33824472710720138 0 -0.19565175395430129 -0.3512554891803924 0 -0.18164424501215659 -0.34621916084723381 0 -0.20800359978069241 -0.36335027445133922 0 -0.18480326185087809 -0.36719565018674682 0 -0.19565175395430129 -0.3512554891803924 0 -0.20800359978069241 -0.36335027445133922 0 -0.18480326185087809 -0.36719565018674682 0 -0.2014200033848125 -0.37119512976538899 0 -0.18480326185087809 -0.36719565018674682 0 -0.18579747934449059 -0.37379744869579251 0 -0.2014200033848125 -0.37119512976538899 0 -0.20800359978069241 -0.36335027445133922 0 -0.18480326185087809 -0.36719565018674682 0 -0.2014200033848125 -0.37119512976538899 0 -0.20800359978069241 -0.36335027445133922 0 -0.20803809997708481 -0.36661394692190907 0 -0.20800359978069241 -0.36335027445133922 0 -0.20803809997708481 -0.36661394692190907 0 -0.21424807490234879 -0.36231527430669241 0 -0.20800359978069241 -0.36335027445133922 0 -0.20803809997708481 -0.36661394692190907 0 -0.2014200033848125 -0.37119512976538899 0 -0.20803809997708481 -0.36661394692190907 0 -0.21335741342528061 -0.3748607861064962 0 -0.2014200033848125 -0.37119512976538899 0 -0.20803809997708481 -0.36661394692190907 0 -0.20803809997708481 -0.36661394692190907 0 -0.21335741342528061 -0.3748607861064962 0 -0.21424807490234879 -0.36231527430669241 0 -0.22186900287429051 -0.37074082218821958 0 -0.21335741342528061 -0.3748607861064962 0 -0.21424807490234879 -0.36231527430669241 0 -0.20800359978069241 -0.36335027445133922 0 -0.21424807490234879 -0.36231527430669241 0 -0.20803809997708481 -0.36661394692190907 0 -0.21424807490234879 -0.36231527430669241 0 -0.2097464541822805 -0.33582260124732738 0 -0.19565175395430129 -0.3512554891803924 0 -0.20800359978069241 -0.36335027445133922 0 -0.2097464541822805 -0.33582260124732738 0 -0.20800359978069241 -0.36335027445133922 0 -0.2097464541822805 -0.33582260124732738 0 -0.20800359978069241 -0.36335027445133922 0 -0.21424807490234879 -0.36231527430669241 0 -0.22913587473404851 -0.35200963246311751 0 -0.2097464541822805 -0.33582260124732738 0 -0.21424807490234879 -0.36231527430669241 0 -0.2335542019388327 -0.26090262277066528 0 -0.21472073189145299 -0.25725591714607071 0 -0.22837296648480071 -0.23789375384220129 0 -0.2335542019388327 -0.26090262277066528 0 -0.21357196166535461 -0.27540027352014051 0 -0.21472073189145299 -0.25725591714607071 0 -0.25298377122075039 -0.27518622721876451 0 -0.2335542019388327 -0.26090262277066528 0 -0.25431856302814809 -0.24833495949118861 0 -0.25298377122075039 -0.27518622721876451 0 -0.2335542019388327 -0.26090262277066528 0 -0.23093648268818689 -0.28342115129973 0 -0.2335542019388327 -0.26090262277066528 0 -0.23093648268818689 -0.28342115129973 0 -0.21357196166535461 -0.27540027352014051 0 -0.23093648268818689 -0.28342115129973 0 -0.21242319143925911 -0.29354462989421048 0 -0.21357196166535461 -0.27540027352014051 0 -0.23093648268818689 -0.28342115129973 0 -0.2435111179254994 -0.29490773243705071 0 -0.2284599410619414 -0.30268204450860919 0 -0.23093648268818689 -0.28342115129973 0 -0.2284599410619414 -0.30268204450860919 0 -0.21242319143925911 -0.29354462989421048 0 -0.25298377122075039 -0.27518622721876451 0 -0.23093648268818689 -0.28342115129973 0 -0.2435111179254994 -0.29490773243705071 0 -0.2444966906846206 -0.31181945912301329 0 -0.2284599410619414 -0.30268204450860919 0 -0.2435111179254994 -0.29490773243705071 0 -0.2444966906846206 -0.31181945912301329 0 -0.2284599410619414 -0.30268204450860919 0 -0.26057201890547982 -0.29344093798311832 0 -0.2435111179254994 -0.29490773243705071 0 -0.2444966906846206 -0.31181945912301329 0 -0.2279063026952847 -0.3135077128279592 0 -0.2444966906846206 -0.31181945912301329 0 -0.2284599410619414 -0.30268204450860919 0 -0.2284599410619414 -0.30268204450860919 0 -0.21242319143925911 -0.29354462989421048 0 -0.2279063026952847 -0.3135077128279592 0 -0.2284599410619414 -0.30268204450860919 0 -0.21134622408423179 -0.310554889255794 0 -0.2284599410619414 -0.30268204450860919 0 -0.21134622408423179 -0.310554889255794 0 -0.21242319143925911 -0.29354462989421048 0 -0.21134622408423179 -0.310554889255794 0 -0.19267178705524021 -0.30578920503631912 0 -0.21242319143925911 -0.29354462989421048 0 -0.21134622408423179 -0.310554889255794 0 -0.21242319143925911 -0.29354462989421048 0 -0.19267178705524021 -0.30578920503631912 0 -0.19410774352861071 -0.2831088592208712 0 -0.21242319143925911 -0.29354462989421048 0 -0.19410774352861071 -0.2831088592208712 0 -0.21242319143925911 -0.29354462989421048 0 -0.21357196166535461 -0.27540027352014051 0 -0.19410774352861071 -0.2831088592208712 0 -0.21242319143925911 -0.29354462989421048 0 -0.21242319143925911 -0.29354462989421048 0 -0.21357196166535461 -0.27540027352014051 0 -0.21357196166535461 -0.27540027352014051 0 -0.21472073189145299 -0.25725591714607071 0 -0.19410774352861071 -0.2831088592208712 0 -0.21357196166535461 -0.27540027352014051 0 -0.1965391795889786 -0.26204425282134669 0 -0.19410774352861071 -0.2831088592208712 0 -0.1965391795889786 -0.26204425282134669 0 -0.17579229561796161 -0.27267308854753308 0 -0.1965391795889786 -0.26204425282134669 0 -0.20565562739327201 -0.24334207984173631 0 -0.18863044441395099 -0.24733650333174401 0 -0.1965391795889786 -0.26204425282134669 0 -0.18340152769721799 -0.25642831405215172 0 -0.18863044441395099 -0.24733650333174401 0 -0.1965391795889786 -0.26204425282134669 0 -0.21472073189145299 -0.25725591714607071 0 -0.20565562739327201 -0.24334207984173631 0 -0.21357196166535461 -0.27540027352014051 0 -0.1965391795889786 -0.26204425282134669 0 -0.21472073189145299 -0.25725591714607071 0 -0.15747684770731041 -0.26223731787419863 0 -0.16344648285301799 -0.25937253054906129 0 -0.17579229561796161 -0.27267308854753308 0 -0.1593809120407062 -0.25278805690175971 0 -0.16344648285301799 -0.25937253054906129 0 -0.1534429259631987 -0.25724555178864622 0 -0.1593809120407062 -0.25278805690175971 0 -0.16344648285301799 -0.25937253054906129 0 -0.16709258238786229 -0.25188408856254202 0 -0.1593809120407062 -0.25278805690175971 0 -0.16709258238786229 -0.25188408856254202 0 -0.1601832428566283 -0.24550858739866141 0 -0.15747684770731041 -0.26223731787419863 0 -0.16344648285301799 -0.25937253054906129 0 -0.1534429259631987 -0.25724555178864622 0 -0.16344648285301799 -0.25937253054906129 0 -0.1534429259631987 -0.25724555178864622 0 -0.16344648285301799 -0.25937253054906129 0 -0.17379217291466831 -0.25992581321180469 0 -0.17579229561796161 -0.27267308854753308 0 -0.16344648285301799 -0.25937253054906129 0 -0.16709258238786229 -0.25188408856254202 0 -0.17379217291466831 -0.25992581321180469 0 -0.16709258238786229 -0.25188408856254202 0 -0.17679077873490559 -0.25046109420941731 0 -0.17379217291466831 -0.25992581321180469 0 -0.1965391795889786 -0.26204425282134669 0 -0.18340152769721799 -0.25642831405215172 0 -0.17579229561796161 -0.27267308854753308 0 -0.17679077873490559 -0.25046109420941731 0 -0.18340152769721799 -0.25642831405215172 0 -0.17379217291466831 -0.25992581321180469 0 -0.18340152769721799 -0.25642831405215172 0 -0.17379217291466831 -0.25992581321180469 0 -0.17579229561796161 -0.27267308854753308 0 -0.17679077873490559 -0.25046109420941731 0 -0.18340152769721799 -0.25642831405215172 0 -0.18863044441395099 -0.24733650333174401 0 -0.19410774352861071 -0.2831088592208712 0 -0.17579229561796161 -0.27267308854753308 0 -0.17507431738127369 -0.28401326145526029 0 -0.19410774352861071 -0.2831088592208712 0 -0.17579229561796161 -0.27267308854753308 0 -0.15747684770731041 -0.26223731787419863 0 -0.17507431738127369 -0.28401326145526029 0 -0.15747684770731041 -0.26223731787419863 0 -0.17579229561796161 -0.27267308854753308 0 -0.15747684770731041 -0.26223731787419863 0 -0.17579229561796161 -0.27267308854753308 0 -0.17507431738127369 -0.28401326145526029 0 -0.15747684770731041 -0.26223731787419863 0 -0.1596399504195592 -0.27820623095404468 0 -0.17507431738127369 -0.28401326145526029 0 -0.1596399504195592 -0.27820623095404468 0 -0.1624028041075358 -0.29248408411088062 0 -0.1494793968803598 -0.28070198605355251 0 -0.1624028041075358 -0.29248408411088062 0 -0.15973767967650701 -0.30493196891575292 0 -0.15108397830665751 -0.29236825921418419 0 -0.1624028041075358 -0.29248408411088062 0 -0.17507431738127369 -0.28401326145526029 0 -0.17391538329452061 -0.29489800819007239 0 -0.1596399504195592 -0.27820623095404468 0 -0.1624028041075358 -0.29248408411088062 0 -0.17507431738127369 -0.28401326145526029 0 -0.19267178705524021 -0.30578920503631912 0 -0.19410774352861071 -0.2831088592208712 0 -0.17507431738127369 -0.28401326145526029 0 -0.19267178705524021 -0.30578920503631912 0 -0.17507431738127369 -0.28401326145526029 0 -0.17391538329452061 -0.29489800819007239 0 -0.19267178705524021 -0.30578920503631912 0 -0.17507431738127369 -0.28401326145526029 0 -0.17391538329452061 -0.29489800819007239 0 -0.17532621133471249 -0.30426618216820789 0 -0.19254159852174429 -0.31996122112867409 0 -0.19267178705524021 -0.30578920503631912 0 -0.17532621133471249 -0.30426618216820789 0 -0.19267178705524021 -0.30578920503631912 0 -0.17391538329452061 -0.29489800819007239 0 -0.17532621133471249 -0.30426618216820789 0 -0.19254159852174429 -0.31996122112867409 0 -0.17532621133471249 -0.30426618216820789 0 -0.1789711567900161 -0.3101302037755338 0 -0.19254159852174429 -0.31996122112867409 0 -0.17532621133471249 -0.30426618216820789 0 -0.17532621133471249 -0.30426618216820789 0 -0.15973767967650701 -0.30493196891575292 0 -0.16582550601247259 -0.31644195918285489 0 -0.1624028041075358 -0.29248408411088062 0 -0.17532621133471249 -0.30426618216820789 0 -0.15973767967650701 -0.30493196891575292 0 -0.1624028041075358 -0.29248408411088062 0 -0.17532621133471249 -0.30426618216820789 0 -0.1624028041075358 -0.29248408411088062 0 -0.17391538329452061 -0.29489800819007239 0 -0.17532621133471249 -0.30426618216820789 0 -0.144593184228827 -0.30237793828586917 0 -0.15261731536399281 -0.31699983390472031 0 -0.1327552185807534 -0.31482398186879779 0 -0.15973767967650701 -0.30493196891575292 0 -0.144593184228827 -0.30237793828586917 0 -0.15261731536399281 -0.31699983390472031 0 -0.15973767967650701 -0.30493196891575292 0 -0.144593184228827 -0.30237793828586917 0 -0.15108397830665751 -0.29236825921418419 0 -0.144593184228827 -0.30237793828586917 0 -0.1304175251842298 -0.30012492429455973 0 -0.1327552185807534 -0.31482398186879779 0 -0.1304175251842298 -0.30012492429455973 0 -0.1327552185807534 -0.31482398186879779 0 -0.11567190875339491 -0.3081878681979589 0 -0.1304175251842298 -0.30012492429455973 0 -0.13697378053928061 -0.28594316463020741 0 -0.11725087491461519 -0.29108504565108578 0 -0.144593184228827 -0.30237793828586917 0 -0.1304175251842298 -0.30012492429455973 0 -0.13697378053928061 -0.28594316463020741 0 -0.13697378053928061 -0.28594316463020741 0 -0.15108397830665751 -0.29236825921418419 0 -0.1494793968803598 -0.28070198605355251 0 -0.144593184228827 -0.30237793828586917 0 -0.13697378053928061 -0.28594316463020741 0 -0.15108397830665751 -0.29236825921418419 0 -0.1624028041075358 -0.29248408411088062 0 -0.15108397830665751 -0.29236825921418419 0 -0.1494793968803598 -0.28070198605355251 0 -0.1624028041075358 -0.29248408411088062 0 -0.1494793968803598 -0.28070198605355251 0 -0.15747684770731041 -0.26223731787419863 0 -0.1596399504195592 -0.27820623095404468 0 -0.1503927610565664 -0.27179087804580171 0 -0.1596399504195592 -0.27820623095404468 0 -0.1494793968803598 -0.28070198605355251 0 -0.1503927610565664 -0.27179087804580171 0 -0.15747684770731041 -0.26223731787419863 0 -0.1503927610565664 -0.27179087804580171 0 -0.1469785187108 -0.2635474229235048 0 -0.1503927610565664 -0.27179087804580171 0 -0.13966748117377659 -0.26847157538705668 0 -0.1469785187108 -0.2635474229235048 0 -0.1503927610565664 -0.27179087804580171 0 -0.14153524490660671 -0.2763029116229278 0 -0.13966748117377659 -0.26847157538705668 0 -0.1494793968803598 -0.28070198605355251 0 -0.1503927610565664 -0.27179087804580171 0 -0.14153524490660671 -0.2763029116229278 0 -0.13697378053928061 -0.28594316463020741 0 -0.1494793968803598 -0.28070198605355251 0 -0.14153524490660671 -0.2763029116229278 0 -0.13697378053928061 -0.28594316463020741 0 -0.14153524490660671 -0.2763029116229278 0 -0.13219795163187159 -0.27110871778552531 0 -0.13697378053928061 -0.28594316463020741 0 -0.1173011125765811 -0.2721428964285707 0 -0.13697378053928061 -0.28594316463020741 0 -0.13219795163187159 -0.27110871778552531 0 -0.1173011125765811 -0.2721428964285707 0 -0.13219795163187159 -0.27110871778552531 0 -0.1333337708168415 -0.26377523499205202 0 -0.12600056203783161 -0.26301541000095829 0 -0.13219795163187159 -0.27110871778552531 0 -0.12600056203783161 -0.26301541000095829 0 -0.1173011125765811 -0.2721428964285707 0 -0.13219795163187159 -0.27110871778552531 0 -0.13966748117377659 -0.26847157538705668 0 -0.1333337708168415 -0.26377523499205202 0 -0.14153524490660671 -0.2763029116229278 0 -0.13219795163187159 -0.27110871778552531 0 -0.13966748117377659 -0.26847157538705668 0 -0.13966748117377659 -0.26847157538705668 0 -0.13807993829988649 -0.25979154560904222 0 -0.1333337708168415 -0.26377523499205202 0 -0.13807993829988649 -0.25979154560904222 0 -0.1333337708168415 -0.26377523499205202 0 -0.13072292094084129 -0.25648892617767749 0 -0.12600056203783161 -0.26301541000095829 0 -0.13072292094084129 -0.25648892617767749 0 -0.1187556211832122 -0.25814451816493872 0 -0.1333337708168415 -0.26377523499205202 0 -0.12600056203783161 -0.26301541000095829 0 -0.13072292094084129 -0.25648892617767749 0 -0.13072292094084129 -0.25648892617767749 0 -0.13218950310710981 -0.25272660122947088 0 -0.1187556211832122 -0.25814451816493872 0 -0.13072292094084129 -0.25648892617767749 0 -0.13218950310710981 -0.25272660122947088 0 -0.13218950310710981 -0.25272660122947088 0 -0.1459019403517107 -0.25564217047089421 0 -0.13375162957080131 -0.24871916986845621 0 -0.13218950310710981 -0.25272660122947088 0 -0.1459019403517107 -0.25564217047089421 0 -0.13218950310710981 -0.25272660122947088 0 -0.13375162957080131 -0.24871916986845621 0 -0.1459019403517107 -0.25564217047089421 0 -0.13375162957080131 -0.24871916986845621 0 -0.13807993829988649 -0.25979154560904222 0 -0.13218950310710981 -0.25272660122947088 0 -0.1459019403517107 -0.25564217047089421 0 -0.13807993829988649 -0.25979154560904222 0 -0.13072292094084129 -0.25648892617767749 0 -0.13218950310710981 -0.25272660122947088 0 -0.1459019403517107 -0.25564217047089421 0 -0.1534429259631987 -0.25724555178864622 0 -0.1378886282313006 -0.2381062402767252 0 -0.13966748117377659 -0.26847157538705668 0 -0.13807993829988649 -0.25979154560904222 0 -0.1469785187108 -0.2635474229235048 0 -0.13807993829988649 -0.25979154560904222 0 -0.1459019403517107 -0.25564217047089421 0 -0.1469785187108 -0.2635474229235048 0 -0.15747684770731041 -0.26223731787419863 0 -0.1459019403517107 -0.25564217047089421 0 -0.1534429259631987 -0.25724555178864622 0 -0.15747684770731041 -0.26223731787419863 0 -0.1459019403517107 -0.25564217047089421 0 -0.1469785187108 -0.2635474229235048 0 -0.15747684770731041 -0.26223731787419863 0 -0.1459019403517107 -0.25564217047089421 0 -0.15747684770731041 -0.26223731787419863 0 -0.1534429259631987 -0.25724555178864622 0 -0.1593809120407062 -0.25278805690175971 0 -0.1534429259631987 -0.25724555178864622 0 -0.15289321433053751 -0.246830478479277 0 -0.1459019403517107 -0.25564217047089421 0 -0.1534429259631987 -0.25724555178864622 0 -0.17143624801538501 -0.35840063883308271 0 -0.1580141783998408 -0.34710035810185619 0 -0.15489216358121211 -0.36256913283011211 0 -0.17143624801538501 -0.35840063883308271 0 -0.1580141783998408 -0.34710035810185619 0 -0.18164424501215659 -0.34621916084723381 0 -0.17143624801538501 -0.35840063883308271 0 -0.1663610822414904 -0.3702523776444529 0 -0.15489216358121211 -0.36256913283011211 0 -0.15951650330528561 -0.37856285477961621 0 -0.1663610822414904 -0.3702523776444529 0 -0.15489216358121211 -0.36256913283011211 0 -0.17143624801538501 -0.35840063883308271 0 -0.1663610822414904 -0.3702523776444529 0 -0.18480326185087809 -0.36719565018674682 0 -0.1663610822414904 -0.3702523776444529 0 -0.18480326185087809 -0.36719565018674682 0 -0.1663610822414904 -0.3702523776444529 0 -0.18480326185087809 -0.36719565018674682 0 -0.18579747934449059 -0.37379744869579251 0 -0.18480326185087809 -0.36719565018674682 0 -0.18579747934449059 -0.37379744869579251 0 -0.18480326185087809 -0.36719565018674682 0 -0.18164424501215659 -0.34621916084723381 0 -0.19565175395430129 -0.3512554891803924 0 -0.18480326185087809 -0.36719565018674682 0 -0.18164424501215659 -0.34621916084723381 0 -0.17143624801538501 -0.35840063883308271 0 -0.18480326185087809 -0.36719565018674682 0 -0.18164424501215659 -0.34621916084723381 0 -0.18164424501215659 -0.34621916084723381 0 -0.17848522817343529 -0.32524267150772068 0 -0.1629610955137164 -0.33076913941787212 0 -0.18164424501215659 -0.34621916084723381 0 -0.17848522817343529 -0.32524267150772068 0 -0.18164424501215659 -0.34621916084723381 0 -0.18737083868624629 -0.33075534874643497 0 -0.17848522817343529 -0.32524267150772068 0 -0.17532621133471249 -0.30426618216820789 0 -0.17848522817343529 -0.32524267150772068 0 -0.17532621133471249 -0.30426618216820789 0 -0.1789711567900161 -0.3101302037755338 0 -0.17848522817343529 -0.32524267150772068 0 -0.17532621133471249 -0.30426618216820789 0 -0.17848522817343529 -0.32524267150772068 0 -0.16582550601247259 -0.31644195918285489 0 -0.1943588054861482 -0.32297640251143073 0 -0.1789711567900161 -0.3101302037755338 0 -0.18479650728396149 -0.32227615663527998 0 -0.1789711567900161 -0.3101302037755338 0 -0.18479650728396149 -0.32227615663527998 0 -0.17848522817343529 -0.32524267150772068 0 -0.1943588054861482 -0.32297640251143073 0 -0.1789711567900161 -0.3101302037755338 0 -0.18737083868624629 -0.33075534874643497 0 -0.18479650728396149 -0.32227615663527998 0 -0.17848522817343529 -0.32524267150772068 0 -0.17848522817343529 -0.32524267150772068 0 -0.16582550601247259 -0.31644195918285489 0 -0.1629610955137164 -0.33076913941787212 0 -0.16582550601247259 -0.31644195918285489 0 -0.1629610955137164 -0.33076913941787212 0 -0.15261731536399281 -0.31699983390472031 0 -0.15973767967650701 -0.30493196891575292 0 -0.16582550601247259 -0.31644195918285489 0 -0.15261731536399281 -0.31699983390472031 0 -0.1580141783998408 -0.34710035810185619 0 -0.18164424501215659 -0.34621916084723381 0 -0.1629610955137164 -0.33076913941787212 0 -0.1580141783998408 -0.34710035810185619 0 -0.1629610955137164 -0.33076913941787212 0 -0.14559484309128301 -0.3331209990743299 0 -0.14559484309128301 -0.3331209990743299 0 -0.15261731536399281 -0.31699983390472031 0 -0.1327552185807534 -0.31482398186879779 0 -0.1629610955137164 -0.33076913941787212 0 -0.14559484309128301 -0.3331209990743299 0 -0.15261731536399281 -0.31699983390472031 0 -0.14559484309128301 -0.3331209990743299 0 -0.1327552185807534 -0.31482398186879779 0 -0.12678352480283511 -0.3369129194106073 0 -0.14559484309128301 -0.3331209990743299 0 -0.12678352480283511 -0.3369129194106073 0 -0.14043772588655989 -0.35211976174212622 0 -0.12678352480283511 -0.3369129194106073 0 -0.14043772588655989 -0.35211976174212622 0 -0.1203130985899742 -0.35955571918490481 0 -0.1580141783998408 -0.34710035810185619 0 -0.14043772588655989 -0.35211976174212622 0 -0.15489216358121211 -0.36256913283011211 0 -0.1580141783998408 -0.34710035810185619 0 -0.14559484309128301 -0.3331209990743299 0 -0.14043772588655989 -0.35211976174212622 0 -0.14043772588655989 -0.35211976174212622 0 -0.15489216358121211 -0.36256913283011211 0 -0.13959568407155781 -0.37291875636350952 0 -0.15951650330528561 -0.37856285477961621 0 -0.15489216358121211 -0.36256913283011211 0 -0.13959568407155781 -0.37291875636350952 0 -0.12625141541498519 -0.38197991289387551 0 -0.13959568407155781 -0.37291875636350952 0 -0.1203130985899742 -0.35955571918490481 0 -0.14043772588655989 -0.35211976174212622 0 -0.13959568407155781 -0.37291875636350952 0 -0.1203130985899742 -0.35955571918490481 0 -0.1203130985899742 -0.35955571918490481 0 -0.11384267237711319 -0.38219851895920232 0 -0.1203130985899742 -0.35955571918490481 0 -0.10849363524981311 -0.36442991456039969 0 -0.11384267237711319 -0.38219851895920232 0 -0.12625141541498519 -0.38197991289387551 0 -0.1203130985899742 -0.35955571918490481 0 -0.11384267237711319 -0.38219851895920232 0 -0.10849363524981311 -0.36442991456039969 0 -0.096157591159299352 -0.35547454281719221 0 -0.10176491866177829 -0.38015793077534599 0 -0.096157591159299352 -0.35547454281719221 0 -0.10176491866177829 -0.38015793077534599 0 -0.096157591159299352 -0.35547454281719221 0 -0.10176491866177829 -0.38015793077534599 0 -0.085276019388031976 -0.37619188405436782 0 -0.096157591159299352 -0.35547454281719221 0 -0.10964553082547281 -0.34513317088572909 0 -0.090550263656820479 -0.33079115485903843 0 -0.10849363524981311 -0.36442991456039969 0 -0.096157591159299352 -0.35547454281719221 0 -0.10964553082547281 -0.34513317088572909 0 -0.1203130985899742 -0.35955571918490481 0 -0.10849363524981311 -0.36442991456039969 0 -0.10964553082547281 -0.34513317088572909 0 -0.12678352480283511 -0.3369129194106073 0 -0.1203130985899742 -0.35955571918490481 0 -0.10964553082547281 -0.34513317088572909 0 -0.12678352480283511 -0.3369129194106073 0 -0.1203130985899742 -0.35955571918490481 0 -0.12678352480283511 -0.3369129194106073 0 -0.10964553082547281 -0.34513317088572909 0 -0.1112875311940303 -0.32576775904759792 0 -0.1327552185807534 -0.31482398186879779 0 -0.12678352480283511 -0.3369129194106073 0 -0.1112875311940303 -0.32576775904759792 0 -0.1327552185807534 -0.31482398186879779 0 -0.1112875311940303 -0.32576775904759792 0 -0.11567190875339491 -0.3081878681979589 0 -0.1112875311940303 -0.32576775904759792 0 -0.1011365257202933 -0.31403431577096802 0 -0.11567190875339491 -0.3081878681979589 0 -0.1112875311940303 -0.32576775904759792 0 -0.1011365257202933 -0.31403431577096802 0 -0.090550263656820479 -0.33079115485903843 0 -0.10964553082547281 -0.34513317088572909 0 -0.1112875311940303 -0.32576775904759792 0 -0.090550263656820479 -0.33079115485903843 0 -0.096157591159299352 -0.35547454281719221 0 -0.090550263656820479 -0.33079115485903843 0 -0.096157591159299352 -0.35547454281719221 0 -0.090550263656820479 -0.33079115485903843 0 -0.073144777225565616 -0.33606175945158517 0 -0.090550263656820479 -0.33079115485903843 0 -0.084942936154341619 -0.30610776690088481 0 -0.090550263656820479 -0.33079115485903843 0 -0.073144777225565616 -0.33606175945158517 0 -0.084942936154341619 -0.30610776690088481 0 -0.1011365257202933 -0.31403431577096802 0 -0.090550263656820479 -0.33079115485903843 0 -0.084942936154341619 -0.30610776690088481 0 -0.073144777225565616 -0.33606175945158517 0 -0.084942936154341619 -0.30610776690088481 0 -0.060613113796085999 -0.32288269869712272 0 -0.073144777225565616 -0.33606175945158517 0 -0.076755031766953086 -0.35884624094615858 0 -0.063306301319701316 -0.35299520754669739 0 -0.076755031766953086 -0.35884624094615858 0 -0.063306301319701316 -0.35299520754669739 0 -0.065890469742167113 -0.37350781086095058 0 -0.076755031766953086 -0.35884624094615858 0 -0.065890469742167113 -0.37350781086095058 0 -0.085276019388031976 -0.37619188405436782 0 -0.096157591159299352 -0.35547454281719221 0 -0.076755031766953086 -0.35884624094615858 0 -0.085276019388031976 -0.37619188405436782 0 -0.096157591159299352 -0.35547454281719221 0 -0.073144777225565616 -0.33606175945158517 0 -0.076755031766953086 -0.35884624094615858 0 -0.097628444613881649 -0.25834262822693399 0 -0.1173011125765811 -0.2721428964285707 0 -0.097628444613881649 -0.25834262822693399 0 -0.1187556211832122 -0.25814451816493872 0 -0.1098930818979398 -0.24798588601512411 0 -0.13218950310710981 -0.25272660122947088 0 -0.1187556211832122 -0.25814451816493872 0 -0.1098930818979398 -0.24798588601512411 0 -0.097628444613881649 -0.25834262822693399 0 -0.1187556211832122 -0.25814451816493872 0 -0.1173011125765811 -0.2721428964285707 0 -0.13218950310710981 -0.25272660122947088 0 -0.1098930818979398 -0.24798588601512411 0 -0.12600056203783161 -0.26301541000095829 0 -0.1187556211832122 -0.25814451816493872 0 -0.1173011125765811 -0.2721428964285707 0 -0.097628444613881649 -0.25834262822693399 0 -0.1173011125765811 -0.2721428964285707 0 -0.090762408808148426 -0.27102181932101072 0 -0.1173011125765811 -0.2721428964285707 0 -0.096655829275762523 -0.28444542957314378 0 -0.090762408808148426 -0.27102181932101072 0 -0.096655829275762523 -0.28444542957314378 0 -0.10322998884287909 -0.29931702984935987 0 -0.084942936154341619 -0.30610776690088481 0 -0.096655829275762523 -0.28444542957314378 0 -0.11725087491461519 -0.29108504565108578 0 -0.10322998884287909 -0.29931702984935987 0 -0.13697378053928061 -0.28594316463020741 0 -0.1173011125765811 -0.2721428964285707 0 -0.11725087491461519 -0.29108504565108578 0 -0.1173011125765811 -0.2721428964285707 0 -0.096655829275762523 -0.28444542957314378 0 -0.11725087491461519 -0.29108504565108578 0 -0.11725087491461519 -0.29108504565108578 0 -0.11567190875339491 -0.3081878681979589 0 -0.10322998884287909 -0.29931702984935987 0 -0.1304175251842298 -0.30012492429455973 0 -0.11725087491461519 -0.29108504565108578 0 -0.11567190875339491 -0.3081878681979589 0 -0.1011365257202933 -0.31403431577096802 0 -0.10322998884287909 -0.29931702984935987 0 -0.084942936154341619 -0.30610776690088481 0 -0.1011365257202933 -0.31403431577096802 0 -0.11567190875339491 -0.3081878681979589 0 -0.10322998884287909 -0.29931702984935987 0 -0.084942936154341619 -0.30610776690088481 0 -0.066237696895848033 -0.30175990202967712 0 -0.078368201618682937 -0.28822753231137022 0 -0.084942936154341619 -0.30610776690088481 0 -0.066237696895848033 -0.30175990202967712 0 -0.060613113796085999 -0.32288269869712272 0 -0.066237696895848033 -0.30175990202967712 0 -0.078368201618682937 -0.28822753231137022 0 -0.057136779716869042 -0.28712205926022771 0 -0.078368201618682937 -0.28822753231137022 0 -0.072744725061100565 -0.27289296274949931 0 -0.057136779716869042 -0.28712205926022771 0 -0.096655829275762523 -0.28444542957314378 0 -0.084942936154341619 -0.30610776690088481 0 -0.078368201618682937 -0.28822753231137022 0 -0.096655829275762523 -0.28444542957314378 0 -0.078368201618682937 -0.28822753231137022 0 -0.090762408808148426 -0.27102181932101072 0 -0.078368201618682937 -0.28822753231137022 0 -0.090762408808148426 -0.27102181932101072 0 -0.072744725061100565 -0.27289296274949931 0 -0.090762408808148426 -0.27102181932101072 0 -0.072744725061100565 -0.27289296274949931 0 -0.081281336266817772 -0.26097832242812891 0 -0.072744725061100565 -0.27289296274949931 0 -0.067161912638977472 -0.25903173736147111 0 -0.055745381016590281 -0.2682223094504298 0 -0.072744725061100565 -0.27289296274949931 0 -0.067161912638977472 -0.25903173736147111 0 -0.081281336266817772 -0.26097832242812891 0 -0.067161912638977472 -0.25903173736147111 0 -0.081281336266817772 -0.26097832242812891 0 -0.077955776651182085 -0.24454236002529731 0 -0.067161912638977472 -0.25903173736147111 0 -0.056939497423126581 -0.24878681181634871 0 -0.077955776651182085 -0.24454236002529731 0 -0.097628444613881649 -0.25834262822693399 0 -0.081281336266817772 -0.26097832242812891 0 -0.077955776651182085 -0.24454236002529731 0 -0.097628444613881649 -0.25834262822693399 0 -0.090762408808148426 -0.27102181932101072 0 -0.081281336266817772 -0.26097832242812891 0 -0.097628444613881649 -0.25834262822693399 0 -0.077955776651182085 -0.24454236002529731 0 -0.025857267464119819 -0.25506418495113531 0 -0.050191684441297867 -0.2485850187836515 0 -0.034199021844566052 -0.25740496373097072 0 -0.056939497423126581 -0.24878681181634871 0 -0.034199021844566052 -0.25740496373097072 0 -0.041398382443623198 -0.25192549838374201 0 -0.056939497423126581 -0.24878681181634871 0 -0.041398382443623198 -0.25192549838374201 0 -0.025857267464119819 -0.25506418495113531 0 -0.050191684441297867 -0.2485850187836515 0 -0.034199021844566052 -0.25740496373097072 0 -0.048255079716108998 -0.25800015923011232 0 -0.056939497423126581 -0.24878681181634871 0 -0.034199021844566052 -0.25740496373097072 0 -0.041398382443623198 -0.25192549838374201 0 -0.025857267464119819 -0.25506418495113531 0 -0.041398382443623198 -0.25192549838374201 0 -0.025857267464119819 -0.25506418495113531 0 -0.034199021844566052 -0.25740496373097072 0 -0.037307574571523318 -0.26201401924185519 0 -0.024854767991187229 -0.26705994663832661 0 -0.037307574571523318 -0.26201401924185519 0 -0.048255079716108998 -0.25800015923011232 0 -0.046606779304586107 -0.26584835010199509 0 -0.034199021844566052 -0.25740496373097072 0 -0.037307574571523318 -0.26201401924185519 0 -0.048255079716108998 -0.25800015923011232 0 -0.05702546769870083 -0.25851025446459042 0 -0.048255079716108998 -0.25800015923011232 0 -0.056939497423126581 -0.24878681181634871 0 -0.041398382443623198 -0.25192549838374201 0 -0.056939497423126581 -0.24878681181634871 0 -0.067161912638977472 -0.25903173736147111 0 -0.05702546769870083 -0.25851025446459042 0 -0.056939497423126581 -0.24878681181634871 0 -0.067161912638977472 -0.25903173736147111 0 -0.05702546769870083 -0.25851025446459042 0 -0.055745381016590281 -0.2682223094504298 0 -0.05702546769870083 -0.25851025446459042 0 -0.048255079716108998 -0.25800015923011232 0 -0.055745381016590281 -0.2682223094504298 0 -0.048255079716108998 -0.25800015923011232 0 -0.055745381016590281 -0.2682223094504298 0 -0.046606779304586107 -0.26584835010199509 0 -0.055745381016590281 -0.2682223094504298 0 -0.045119081914121867 -0.27515691248558288 0 -0.046606779304586107 -0.26584835010199509 0 -0.055745381016590281 -0.2682223094504298 0 -0.045119081914121867 -0.27515691248558288 0 -0.057136779716869042 -0.28712205926022771 0 -0.072744725061100565 -0.27289296274949931 0 -0.055745381016590281 -0.2682223094504298 0 -0.057136779716869042 -0.28712205926022771 0 -0.037307574571523318 -0.26201401924185519 0 -0.034478529498429812 -0.28951379058442123 0 -0.037307574571523318 -0.26201401924185519 0 -0.034478529498429812 -0.28951379058442123 0 -0.024854767991187229 -0.26705994663832661 0 -0.037307574571523318 -0.26201401924185519 0 -0.045119081914121867 -0.27515691248558288 0 -0.034478529498429812 -0.28951379058442123 0 -0.037307574571523318 -0.26201401924185519 0 -0.045119081914121867 -0.27515691248558288 0 -0.046606779304586107 -0.26584835010199509 0 -0.045119081914121867 -0.27515691248558288 0 -0.034478529498429812 -0.28951379058442123 0 -0.057136779716869042 -0.28712205926022771 0 -0.034478529498429812 -0.28951379058442123 0 -0.057136779716869042 -0.28712205926022771 0 -0.05012745319326059 -0.30445945297878008 0 -0.066237696895848033 -0.30175990202967712 0 -0.05012745319326059 -0.30445945297878008 0 -0.060613113796085999 -0.32288269869712272 0 -0.066237696895848033 -0.30175990202967712 0 -0.057136779716869042 -0.28712205926022771 0 -0.05012745319326059 -0.30445945297878008 0 -0.034478529498429812 -0.28951379058442123 0 -0.05012745319326059 -0.30445945297878008 0 -0.031649484425336299 -0.31701356192698721 0 -0.034478529498429812 -0.28951379058442123 0 -0.031649484425336299 -0.31701356192698721 0 -0.034478529498429812 -0.28951379058442123 0 -0.020284114256294641 -0.29759304008048471 0 -0.031649484425336299 -0.31701356192698721 0 -0.020284114256294641 -0.29759304008048471 0 -0.01007927323019326 -0.3103345258507364 0 -0.031649484425336299 -0.31701356192698721 0 -0.020284114256294641 -0.29759304008048471 0 -0.01007927323019326 -0.3103345258507364 0 -0.0080748459131490501 -0.2914060437848453 0 -0.01007927323019326 -0.3103345258507364 0 -0.0080748459131490501 -0.2914060437848453 0 0.0017563221397047381 -0.2997067901486577 0 -0.020284114256294641 -0.29759304008048471 0 -0.0080748459131490501 -0.2914060437848453 0 -0.017138438214364771 -0.27969727825543328 0 -0.0080748459131490501 -0.2914060437848453 0 -0.002848760243290064 -0.27761611820401882 0 0.0066437179820165657 -0.2861171845936395 0 -0.0080748459131490501 -0.2914060437848453 0 -0.017138438214364771 -0.27969727825543328 0 -0.002848760243290064 -0.27761611820401882 0 -0.034478529498429812 -0.28951379058442123 0 -0.020284114256294641 -0.29759304008048471 0 -0.017138438214364771 -0.27969727825543328 0 -0.034478529498429812 -0.28951379058442123 0 -0.024854767991187229 -0.26705994663832661 0 -0.017138438214364771 -0.27969727825543328 0 -0.024854767991187229 -0.26705994663832661 0 -0.01588915841142927 -0.27169793716392882 0 -0.01145854626600548 -0.26602311564559261 0 -0.024854767991187229 -0.26705994663832661 0 -0.01588915841142927 -0.27169793716392882 0 -0.017138438214364771 -0.27969727825543328 0 -0.017138438214364771 -0.27969727825543328 0 -0.011833725783772399 -0.27375861231724341 0 -0.002848760243290064 -0.27761611820401882 0 -0.01145854626600548 -0.26602311564559261 0 0.01128192931255503 -0.27464126756021451 0 -0.002848760243290064 -0.27761611820401882 0 -0.01145854626600548 -0.26602311564559261 0 0.01128192931255503 -0.27464126756021451 0 -0.01588915841142927 -0.27169793716392882 0 -0.017138438214364771 -0.27969727825543328 0 -0.011833725783772399 -0.27375861231724341 0 -0.011833725783772399 -0.27375861231724341 0 -0.002848760243290064 -0.27761611820401882 0 -0.01145854626600548 -0.26602311564559261 0 -0.01588915841142927 -0.27169793716392882 0 -0.011833725783772399 -0.27375861231724341 0 -0.01145854626600548 -0.26602311564559261 0 -0.01269776775011346 -0.25850600500130039 0 -0.0051360078472848583 -0.25701396995817721 0 0.0057158633005241696 -0.26337829885565528 0 -0.01145854626600548 -0.26602311564559261 0 -0.01269776775011346 -0.25850600500130039 0 0.0057158633005241696 -0.26337829885565528 0 -0.01269776775011346 -0.25850600500130039 0 0.0057158633005241696 -0.26337829885565528 0 -0.0009620894167222515 -0.25496392916579452 0 -0.0051360078472848583 -0.25701396995817721 0 0.0057158633005241696 -0.26337829885565528 0 -0.0071971320314794382 -0.2528457057960789 0 -0.01082738352359053 -0.24876902592697839 0 -0.0029313858115674811 -0.24854412401401971 0 -0.0009620894167222515 -0.25496392916579452 0 -0.0071971320314794382 -0.2528457057960789 0 -0.0029313858115674811 -0.24854412401401971 0 -0.0009620894167222515 -0.25496392916579452 0 -0.0051360078472848583 -0.25701396995817721 0 -0.0071971320314794382 -0.2528457057960789 0 -0.0051360078472848583 -0.25701396995817721 0 -0.0071971320314794382 -0.2528457057960789 0 -0.0094143843739788544 -0.25459574361389747 0 -0.0071971320314794382 -0.2528457057960789 0 -0.0094143843739788544 -0.25459574361389747 0 -0.01082738352359053 -0.24876902592697839 0 -0.01269776775011346 -0.25850600500130039 0 -0.0094143843739788544 -0.25459574361389747 0 -0.01082738352359053 -0.24876902592697839 0 -0.01269776775011346 -0.25850600500130039 0 -0.0051360078472848583 -0.25701396995817721 0 -0.0094143843739788544 -0.25459574361389747 0 -0.01269776775011346 -0.25850600500130039 0 -0.025857267464119819 -0.25506418495113531 0 -0.034199021844566052 -0.25740496373097072 0 -0.01145854626600548 -0.26602311564559261 0 -0.025857267464119819 -0.25506418495113531 0 -0.01269776775011346 -0.25850600500130039 0 -0.025857267464119819 -0.25506418495113531 0 -0.02368513365757598 -0.23851275990414511 0 -0.034199021844566052 -0.25740496373097072 0 -0.024854767991187229 -0.26705994663832661 0 -0.01145854626600548 -0.26602311564559261 0 -0.034199021844566052 -0.25740496373097072 0 -0.01145854626600548 -0.26602311564559261 0 -0.01145854626600548 -0.26602311564559261 0 -0.01269776775011346 -0.25850600500130039 0 -0.025857267464119819 -0.25506418495113531 0 -0.046940286889098168 -0.35955036210978841 0 -0.050269733973634309 -0.3392354021108881 0 -0.02882043935224279 -0.34451333326955308 0 -0.046940286889098168 -0.35955036210978841 0 -0.02882043935224279 -0.34451333326955308 0 -0.026419717968229769 -0.36867473508972981 0 -0.046940286889098168 -0.35955036210978841 0 -0.026419717968229769 -0.36867473508972981 0 -0.046935058978613817 -0.3783756837809118 0 -0.065890469742167113 -0.37350781086095058 0 -0.046940286889098168 -0.35955036210978841 0 -0.046935058978613817 -0.3783756837809118 0 -0.063306301319701316 -0.35299520754669739 0 -0.065890469742167113 -0.37350781086095058 0 -0.046940286889098168 -0.35955036210978841 0 -0.063306301319701316 -0.35299520754669739 0 -0.046940286889098168 -0.35955036210978841 0 -0.050269733973634309 -0.3392354021108881 0 -0.073144777225565616 -0.33606175945158517 0 -0.063306301319701316 -0.35299520754669739 0 -0.050269733973634309 -0.3392354021108881 0 -0.073144777225565616 -0.33606175945158517 0 -0.050269733973634309 -0.3392354021108881 0 -0.060613113796085999 -0.32288269869712272 0 -0.050269733973634309 -0.3392354021108881 0 -0.060613113796085999 -0.32288269869712272 0 -0.031649484425336299 -0.31701356192698721 0 -0.05012745319326059 -0.30445945297878008 0 -0.060613113796085999 -0.32288269869712272 0 -0.031649484425336299 -0.31701356192698721 0 -0.050269733973634309 -0.3392354021108881 0 -0.031649484425336299 -0.31701356192698721 0 -0.02882043935224279 -0.34451333326955308 0 -0.031649484425336299 -0.31701356192698721 0 -0.02882043935224279 -0.34451333326955308 0 -0.031649484425336299 -0.31701356192698721 0 -0.0038616663111063101 -0.33241552487502413 0 -0.02882043935224279 -0.34451333326955308 0 -0.01007927323019326 -0.3103345258507364 0 -0.031649484425336299 -0.31701356192698721 0 -0.0038616663111063101 -0.33241552487502413 0 -0.01007927323019326 -0.3103345258507364 0 -0.0038616663111063101 -0.33241552487502413 0 0.0094652366165251054 -0.31053241408104548 0 -0.0038616663111063101 -0.33241552487502413 0 -0.0043130761299947744 -0.35643483176966217 0 -0.02882043935224279 -0.34451333326955308 0 -0.0043130761299947744 -0.35643483176966217 0 -0.02882043935224279 -0.34451333326955308 0 -0.026419717968229769 -0.36867473508972981 0 -0.0043130761299947744 -0.35643483176966217 0 -0.026419717968229769 -0.36867473508972981 0 -0.0064694903547723136 -0.38059021958606692 0 -0.0064694903547723136 -0.38059021958606692 0 -0.0080625817845775948 -0.40608726553411861 0 -0.026496984295852101 -0.39226102623928111 0 -0.0064694903547723136 -0.38059021958606692 0 -0.0080625817845775948 -0.40608726553411861 0 0.009690974369139977 -0.39295199195252922 0 -0.0080625817845775948 -0.40608726553411861 0 -0.026496984295852101 -0.39226102623928111 0 -0.029852467816379728 -0.41236872525256307 0 -0.026419717968229769 -0.36867473508972981 0 -0.0064694903547723136 -0.38059021958606692 0 -0.026496984295852101 -0.39226102623928111 0 -0.026496984295852101 -0.39226102623928111 0 -0.048213792324517578 -0.39768762776665978 0 -0.046935058978613817 -0.3783756837809118 0 -0.026419717968229769 -0.36867473508972981 0 -0.026496984295852101 -0.39226102623928111 0 -0.046935058978613817 -0.3783756837809118 0 -0.026496984295852101 -0.39226102623928111 0 -0.048213792324517578 -0.39768762776665978 0 -0.029852467816379728 -0.41236872525256307 0 -0.048213792324517578 -0.39768762776665978 0 -0.065379196062645584 -0.39052657147488062 0 -0.06528413140028641 -0.40548789039177052 0 -0.048213792324517578 -0.39768762776665978 0 -0.046935058978613817 -0.3783756837809118 0 -0.065379196062645584 -0.39052657147488062 0 -0.065890469742167113 -0.37350781086095058 0 -0.046935058978613817 -0.3783756837809118 0 -0.065379196062645584 -0.39052657147488062 0 -0.052630130657334448 -0.42871109396582502 0 -0.036803499053157718 -0.43392585985635063 0 -0.055908543568221357 -0.44353945242809251 0 -0.052630130657334448 -0.42871109396582502 0 -0.048282499091199083 -0.41684649723306111 0 -0.065713266975248902 -0.42040157794015642 0 -0.052630130657334448 -0.42871109396582502 0 -0.055908543568221357 -0.44353945242809251 0 -0.077753046024815156 -0.43509142098737241 0 -0.048282499091199083 -0.41684649723306111 0 -0.06528413140028641 -0.40548789039177052 0 -0.065713266975248902 -0.42040157794015642 0 -0.048213792324517578 -0.39768762776665978 0 -0.048282499091199083 -0.41684649723306111 0 -0.06528413140028641 -0.40548789039177052 0 -0.048213792324517578 -0.39768762776665978 0 -0.048282499091199083 -0.41684649723306111 0 -0.029852467816379728 -0.41236872525256307 0 -0.048282499091199083 -0.41684649723306111 0 -0.036803499053157718 -0.43392585985635063 0 -0.029852467816379728 -0.41236872525256307 0 -0.052630130657334448 -0.42871109396582502 0 -0.048282499091199083 -0.41684649723306111 0 -0.036803499053157718 -0.43392585985635063 0 -0.036803499053157718 -0.43392585985635063 0 -0.01686747062211669 -0.42668809062348251 0 -0.022482277956740859 -0.44034230556013138 0 -0.036803499053157718 -0.43392585985635063 0 -0.01686747062211669 -0.42668809062348251 0 -0.029852467816379728 -0.41236872525256307 0 -0.0080625817845775948 -0.40608726553411861 0 -0.01686747062211669 -0.42668809062348251 0 -0.029852467816379728 -0.41236872525256307 0 -0.0080625817845775948 -0.40608726553411861 0 -0.01686747062211669 -0.42668809062348251 0 0.01224976062295041 -0.42183763890738629 0 -0.01686747062211669 -0.42668809062348251 0 -0.008216644178786571 -0.4466179140804285 0 0.01224976062295041 -0.42183763890738629 0 -0.008216644178786571 -0.4466179140804285 0 -0.0021957942935651631 -0.46571035637089769 0 -0.016151777162071251 -0.46269316979172348 0 -0.0021957942935651631 -0.46571035637089769 0 -0.016151777162071251 -0.46269316979172348 0 -0.01292321871024151 -0.47600360382280887 0 -0.008216644178786571 -0.4466179140804285 0 -0.016151777162071251 -0.46269316979172348 0 -0.028753682251359231 -0.45370767630375852 0 -0.016151777162071251 -0.46269316979172348 0 -0.030722049445265721 -0.46513815794063051 0 -0.025757536927686689 -0.47561542944709773 0 -0.016151777162071251 -0.46269316979172348 0 -0.030722049445265721 -0.46513815794063051 0 -0.028753682251359231 -0.45370767630375852 0 -0.036803499053157718 -0.43392585985635063 0 -0.028753682251359231 -0.45370767630375852 0 -0.022482277956740859 -0.44034230556013138 0 -0.01686747062211669 -0.42668809062348251 0 -0.008216644178786571 -0.4466179140804285 0 -0.022482277956740859 -0.44034230556013138 0 -0.008216644178786571 -0.4466179140804285 0 -0.028753682251359231 -0.45370767630375852 0 -0.022482277956740859 -0.44034230556013138 0 -0.011489863113854141 -0.5 0 -0.010144146689038991 -0.48941639725935437 0 0.012735562036971701 -0.48508522326900949 0 -0.010144146689038991 -0.48941639725935437 0 -0.00065605929082254884 -0.47874224407546379 0 -0.01292321871024151 -0.47600360382280887 0 -0.010144146689038991 -0.48941639725935437 0 -0.01292321871024151 -0.47600360382280887 0 -0.022633997898264431 -0.48384402599231691 0 -0.0021957942935651631 -0.46571035637089769 0 -0.00065605929082254884 -0.47874224407546379 0 -0.01292321871024151 -0.47600360382280887 0 -0.016151777162071251 -0.46269316979172348 0 -0.01292321871024151 -0.47600360382280887 0 -0.025757536927686689 -0.47561542944709773 0 -0.025757536927686689 -0.47561542944709773 0 -0.022633997898264431 -0.48384402599231691 0 -0.032724513000240443 -0.48384135401243772 0 -0.01292321871024151 -0.47600360382280887 0 -0.025757536927686689 -0.47561542944709773 0 -0.022633997898264431 -0.48384402599231691 0 -0.011489863113854141 -0.5 0 -0.010144146689038991 -0.48941639725935437 0 -0.033023855415049652 -0.49374757124969931 0 -0.010144146689038991 -0.48941639725935437 0 -0.022633997898264431 -0.48384402599231691 0 -0.033023855415049652 -0.49374757124969931 0 -0.011489863113854141 -0.5 0 -0.041002190054857779 -0.5 0 -0.033023855415049652 -0.49374757124969931 0 -0.010144146689038991 -0.48941639725935437 0 -0.033023855415049652 -0.49374757124969931 0 -0.022633997898264431 -0.48384402599231691 0 -0.033023855415049652 -0.49374757124969931 0 -0.032724513000240443 -0.48384135401243772 0 -0.041002190054857779 -0.5 0 -0.040644419244316249 -0.48874723383863622 0 -0.055758353525359711 -0.48944453406372251 0 -0.041002190054857779 -0.5 0 -0.033023855415049652 -0.49374757124969931 0 -0.040644419244316249 -0.48874723383863622 0 -0.033023855415049652 -0.49374757124969931 0 -0.040644419244316249 -0.48874723383863622 0 -0.032724513000240443 -0.48384135401243772 0 -0.040644419244316249 -0.48874723383863622 0 -0.040713184226073652 -0.47670270986732172 0 -0.055758353525359711 -0.48944453406372251 0 -0.040644419244316249 -0.48874723383863622 0 -0.040713184226073652 -0.47670270986732172 0 -0.032724513000240443 -0.48384135401243772 0 -0.025757536927686689 -0.47561542944709773 0 -0.040713184226073652 -0.47670270986732172 0 -0.032724513000240443 -0.48384135401243772 0 -0.030722049445265721 -0.46513815794063051 0 -0.025757536927686689 -0.47561542944709773 0 -0.040713184226073652 -0.47670270986732172 0 -0.040713184226073652 -0.47670270986732172 0 -0.05604151524233808 -0.47085547185542692 0 -0.042137987481662489 -0.46199998676314519 0 -0.040713184226073652 -0.47670270986732172 0 -0.05604151524233808 -0.47085547185542692 0 -0.055758353525359711 -0.48944453406372251 0 -0.05604151524233808 -0.47085547185542692 0 -0.055758353525359711 -0.48944453406372251 0 -0.068357021366280857 -0.47830767763467641 0 -0.041002190054857779 -0.5 0 -0.055758353525359711 -0.48944453406372251 0 -0.070514516995861642 -0.5 0 -0.036803499053157718 -0.43392585985635063 0 -0.028753682251359231 -0.45370767630375852 0 -0.042591220718736618 -0.44931976272637059 0 -0.036803499053157718 -0.43392585985635063 0 -0.042591220718736618 -0.44931976272637059 0 -0.055908543568221357 -0.44353945242809251 0 -0.028753682251359231 -0.45370767630375852 0 -0.042591220718736618 -0.44931976272637059 0 -0.042137987481662489 -0.46199998676314519 0 -0.030722049445265721 -0.46513815794063051 0 -0.028753682251359231 -0.45370767630375852 0 -0.042137987481662489 -0.46199998676314519 0 -0.030722049445265721 -0.46513815794063051 0 -0.040713184226073652 -0.47670270986732172 0 -0.042137987481662489 -0.46199998676314519 0 -0.042591220718736618 -0.44931976272637059 0 -0.042137987481662489 -0.46199998676314519 0 -0.054601469153056192 -0.45704509188174619 0 -0.05604151524233808 -0.47085547185542692 0 -0.054601469153056192 -0.45704509188174619 0 -0.071896784036839162 -0.45711427830285839 0 -0.05604151524233808 -0.47085547185542692 0 -0.042137987481662489 -0.46199998676314519 0 -0.054601469153056192 -0.45704509188174619 0 -0.054601469153056192 -0.45704509188174619 0 -0.055908543568221357 -0.44353945242809251 0 -0.071896784036839162 -0.45711427830285839 0 -0.042591220718736618 -0.44931976272637059 0 -0.054601469153056192 -0.45704509188174619 0 -0.055908543568221357 -0.44353945242809251 0 -0.055908543568221357 -0.44353945242809251 0 -0.071896784036839162 -0.45711427830285839 0 -0.077753046024815156 -0.43509142098737241 0 -0.071896784036839162 -0.45711427830285839 0 -0.087573937031005744 -0.47412410395137422 0 -0.093954286744555499 -0.45179652052777369 0 -0.087573937031005744 -0.47412410395137422 0 -0.093954286744555499 -0.45179652052777369 0 -0.071896784036839162 -0.45711427830285839 0 -0.093954286744555499 -0.45179652052777369 0 -0.077753046024815156 -0.43509142098737241 0 -0.093954286744555499 -0.45179652052777369 0 -0.10033463645810529 -0.42946893710417328 0 -0.077753046024815156 -0.43509142098737241 0 -0.055758353525359711 -0.48944453406372251 0 -0.070514516995861642 -0.5 0 -0.068357021366280857 -0.47830767763467641 0 -0.05604151524233808 -0.47085547185542692 0 -0.071896784036839162 -0.45711427830285839 0 -0.068357021366280857 -0.47830767763467641 0 -0.071896784036839162 -0.45711427830285839 0 -0.068357021366280857 -0.47830767763467641 0 -0.087573937031005744 -0.47412410395137422 0 -0.070514516995861642 -0.5 0 -0.068357021366280857 -0.47830767763467641 0 -0.087573937031005744 -0.47412410395137422 0 -0.070514516995861642 -0.5 0 -0.087573937031005744 -0.47412410395137422 0 -0.10002684393686551 -0.5 0 -0.087573937031005744 -0.47412410395137422 0 -0.10002684393686551 -0.5 0 -0.10780494223314389 -0.47765854937150709 0 -0.087573937031005744 -0.47412410395137422 0 -0.10780494223314389 -0.47765854937150709 0 -0.1029954147344513 -0.46359439800738522 0 -0.12605423818426559 -0.48707922202292669 0 -0.10780494223314389 -0.47765854937150709 0 -0.1201929706126502 -0.46127799294672761 0 -0.12605423818426559 -0.48707922202292669 0 -0.1201929706126502 -0.46127799294672761 0 -0.12605423818426559 -0.48707922202292669 0 -0.10002684393686551 -0.5 0 -0.10780494223314389 -0.47765854937150709 0 -0.1295391708778694 -0.5 0 -0.12605423818426559 -0.48707922202292669 0 -0.10002684393686551 -0.5 0 -0.093954286744555499 -0.45179652052777369 0 -0.10033463645810529 -0.42946893710417328 0 -0.10636180231815941 -0.44832292249131772 0 -0.11433170304103479 -0.43547676387052858 0 -0.10033463645810529 -0.42946893710417328 0 -0.10636180231815941 -0.44832292249131772 0 -0.093954286744555499 -0.45179652052777369 0 -0.10033463645810529 -0.42946893710417328 0 -0.087573937031005744 -0.47412410395137422 0 -0.093954286744555499 -0.45179652052777369 0 -0.1029954147344513 -0.46359439800738522 0 -0.10636180231815941 -0.44832292249131772 0 -0.093954286744555499 -0.45179652052777369 0 -0.1029954147344513 -0.46359439800738522 0 -0.10780494223314389 -0.47765854937150709 0 -0.1029954147344513 -0.46359439800738522 0 -0.1201929706126502 -0.46127799294672761 0 -0.10636180231815941 -0.44832292249131772 0 -0.1029954147344513 -0.46359439800738522 0 -0.1201929706126502 -0.46127799294672761 0 -0.13671083813600751 -0.45044361347006462 0 -0.1201929706126502 -0.46127799294672761 0 -0.11433170304103479 -0.43547676387052858 0 -0.10636180231815941 -0.44832292249131772 0 -0.1201929706126502 -0.46127799294672761 0 -0.11433170304103479 -0.43547676387052858 0 -0.13671083813600751 -0.45044361347006462 0 -0.1225906368027144 -0.43005957413219659 0 -0.11433170304103479 -0.43547676387052858 0 -0.1201929706126502 -0.46127799294672761 0 -0.11433170304103479 -0.43547676387052858 0 -0.1225906368027144 -0.43005957413219659 0 -0.11433170304103479 -0.43547676387052858 0 -0.10847043546942051 -0.40967553479432928 0 -0.11433170304103479 -0.43547676387052858 0 -0.10847043546942051 -0.40967553479432928 0 -0.12908399078123631 -0.42243277819987513 0 -0.1225906368027144 -0.43005957413219659 0 -0.12315425937001 -0.41747458531602638 0 -0.11433170304103479 -0.43547676387052858 0 -0.10033463645810529 -0.42946893710417328 0 -0.10847043546942051 -0.40967553479432928 0 -0.10033463645810529 -0.42946893710417328 0 -0.094107383989168333 -0.41562629379671062 0 -0.1067149861716557 -0.40714135368057303 0 -0.10033463645810529 -0.42946893710417328 0 -0.1067149861716557 -0.40714135368057303 0 -0.10847043546942051 -0.40967553479432928 0 -0.10033463645810529 -0.42946893710417328 0 -0.1067149861716557 -0.40714135368057303 0 -0.094107383989168333 -0.41562629379671062 0 -0.1067149861716557 -0.40714135368057303 0 -0.093615658715422545 -0.40476526464288082 0 -0.10847043546942051 -0.40967553479432928 0 -0.1105756132387118 -0.40676785322215941 0 -0.1073722461642546 -0.40484131873350049 0 -0.10847043546942051 -0.40967553479432928 0 -0.1073722461642546 -0.40484131873350049 0 -0.1067149861716557 -0.40714135368057303 0 -0.10847043546942051 -0.40967553479432928 0 -0.1073722461642546 -0.40484131873350049 0 -0.1067149861716557 -0.40714135368057303 0 -0.10847043546942051 -0.40967553479432928 0 -0.1225906368027144 -0.43005957413219659 0 -0.1163272184937543 -0.41351727508190028 0 -0.12315425937001 -0.41747458531602638 0 -0.10847043546942051 -0.40967553479432928 0 -0.1125412123036873 -0.40894162881917728 0 -0.1163272184937543 -0.41351727508190028 0 -0.1125412123036873 -0.40894162881917728 0 -0.1105756132387118 -0.40676785322215941 0 -0.1147915820128618 -0.40580585217832088 0 -0.1225906368027144 -0.43005957413219659 0 -0.10847043546942051 -0.40967553479432928 0 -0.1163272184937543 -0.41351727508190028 0 -0.10847043546942051 -0.40967553479432928 0 -0.1125412123036873 -0.40894162881917728 0 -0.1105756132387118 -0.40676785322215941 0 -0.1225906368027144 -0.43005957413219659 0 -0.10847043546942051 -0.40967553479432928 0 -0.1125412123036873 -0.40894162881917728 0 -0.1163272184937543 -0.41351727508190028 0 -0.1147915820128618 -0.40580585217832088 0 -0.1225700411049412 -0.40994677461386392 0 -0.1219584454402414 -0.40406961642135292 0 -0.1147915820128618 -0.40580585217832088 0 -0.1163272184937543 -0.41351727508190028 0 -0.1225700411049412 -0.40994677461386392 0 -0.1147915820128618 -0.40580585217832088 0 -0.1163272184937543 -0.41351727508190028 0 -0.12315425937001 -0.41747458531602638 0 -0.1225700411049412 -0.40994677461386392 0 -0.1273295258527142 -0.39594401256049883 0 -0.1219584454402414 -0.40406961642135292 0 -0.1190781430676657 -0.39944145851713192 0 -0.11305295545189779 -0.39895005080087959 0 -0.11384267237711319 -0.38219851895920232 0 -0.1073722461642546 -0.40484131873350049 0 -0.1295768038857959 -0.40463739140698729 0 -0.1225700411049412 -0.40994677461386392 0 -0.1219584454402414 -0.40406961642135292 0 -0.1182582065806136 -0.392437760624607 0 -0.11305295545189779 -0.39895005080087959 0 -0.11384267237711319 -0.38219851895920232 0 -0.11384267237711319 -0.38219851895920232 0 -0.1073722461642546 -0.40484131873350049 0 -0.1219584454402414 -0.40406961642135292 0 -0.1190781430676657 -0.39944145851713192 0 -0.1147915820128618 -0.40580585217832088 0 -0.1273295258527142 -0.39594401256049883 0 -0.1190781430676657 -0.39944145851713192 0 -0.1182582065806136 -0.392437760624607 0 -0.1190781430676657 -0.39944145851713192 0 -0.1182582065806136 -0.392437760624607 0 -0.11305295545189779 -0.39895005080087959 0 -0.1105756132387118 -0.40676785322215941 0 -0.1114480992169309 -0.40409126873371493 0 -0.1073722461642546 -0.40484131873350049 0 -0.1105756132387118 -0.40676785322215941 0 -0.1114480992169309 -0.40409126873371493 0 -0.1147915820128618 -0.40580585217832088 0 -0.11305295545189779 -0.39895005080087959 0 -0.1114480992169309 -0.40409126873371493 0 -0.1147915820128618 -0.40580585217832088 0 -0.11305295545189779 -0.39895005080087959 0 -0.1114480992169309 -0.40409126873371493 0 -0.1073722461642546 -0.40484131873350049 0 -0.1190781430676657 -0.39944145851713192 0 -0.11305295545189779 -0.39895005080087959 0 -0.1147915820128618 -0.40580585217832088 0 -0.12625141541498519 -0.38197991289387551 0 -0.1182582065806136 -0.392437760624607 0 -0.11384267237711319 -0.38219851895920232 0 -0.12625141541498519 -0.38197991289387551 0 -0.1273295258527142 -0.39594401256049883 0 -0.1182582065806136 -0.392437760624607 0 -0.11384267237711319 -0.38219851895920232 0 -0.10176491866177829 -0.38015793077534599 0 -0.1073722461642546 -0.40484131873350049 0 -0.10176491866177829 -0.38015793077534599 0 -0.095995502779844255 -0.39166661886747001 0 -0.085276019388031976 -0.37619188405436782 0 -0.10849363524981311 -0.36442991456039969 0 -0.11384267237711319 -0.38219851895920232 0 -0.10176491866177829 -0.38015793077534599 0 -0.10176491866177829 -0.38015793077534599 0 -0.1073722461642546 -0.40484131873350049 0 -0.095995502779844255 -0.39166661886747001 0 -0.10176491866177829 -0.38015793077534599 0 -0.1073722461642546 -0.40484131873350049 0 -0.1067149861716557 -0.40714135368057303 0 -0.1073722461642546 -0.40484131873350049 0 -0.095995502779844255 -0.39166661886747001 0 -0.1067149861716557 -0.40714135368057303 0 -0.1073722461642546 -0.40484131873350049 0 -0.1067149861716557 -0.40714135368057303 0 -0.095995502779844255 -0.39166661886747001 0 -0.1067149861716557 -0.40714135368057303 0 -0.095995502779844255 -0.39166661886747001 0 -0.093615658715422545 -0.40476526464288082 0 -0.093615658715422545 -0.40476526464288082 0 -0.081664681120336771 -0.39582842074610342 0 -0.082451352827770552 -0.41163664718976212 0 -0.095995502779844255 -0.39166661886747001 0 -0.093615658715422545 -0.40476526464288082 0 -0.081664681120336771 -0.39582842074610342 0 -0.095995502779844255 -0.39166661886747001 0 -0.081664681120336771 -0.39582842074610342 0 -0.085276019388031976 -0.37619188405436782 0 -0.081664681120336771 -0.39582842074610342 0 -0.085276019388031976 -0.37619188405436782 0 -0.074552591578295357 -0.38401367178407558 0 -0.095995502779844255 -0.39166661886747001 0 -0.085276019388031976 -0.37619188405436782 0 -0.081664681120336771 -0.39582842074610342 0 -0.065379196062645584 -0.39052657147488062 0 -0.074552591578295357 -0.38401367178407558 0 -0.065890469742167113 -0.37350781086095058 0 -0.085276019388031976 -0.37619188405436782 0 -0.074552591578295357 -0.38401367178407558 0 -0.065890469742167113 -0.37350781086095058 0 -0.065379196062645584 -0.39052657147488062 0 -0.074552591578295357 -0.38401367178407558 0 -0.081664681120336771 -0.39582842074610342 0 -0.06528413140028641 -0.40548789039177052 0 -0.082451352827770552 -0.41163664718976212 0 -0.081664681120336771 -0.39582842074610342 0 -0.065379196062645584 -0.39052657147488062 0 -0.06528413140028641 -0.40548789039177052 0 -0.065713266975248902 -0.42040157794015642 0 -0.085028608260126398 -0.42320905853578622 0 -0.082451352827770552 -0.41163664718976212 0 -0.06528413140028641 -0.40548789039177052 0 -0.065713266975248902 -0.42040157794015642 0 -0.082451352827770552 -0.41163664718976212 0 -0.065713266975248902 -0.42040157794015642 0 -0.077753046024815156 -0.43509142098737241 0 -0.085028608260126398 -0.42320905853578622 0 -0.052630130657334448 -0.42871109396582502 0 -0.065713266975248902 -0.42040157794015642 0 -0.077753046024815156 -0.43509142098737241 0 -0.10033463645810529 -0.42946893710417328 0 -0.077753046024815156 -0.43509142098737241 0 -0.085028608260126398 -0.42320905853578622 0 -0.10033463645810529 -0.42946893710417328 0 -0.094107383989168333 -0.41562629379671062 0 -0.085028608260126398 -0.42320905853578622 0 -0.094107383989168333 -0.41562629379671062 0 -0.085028608260126398 -0.42320905853578622 0 -0.082451352827770552 -0.41163664718976212 0 -0.094107383989168333 -0.41562629379671062 0 -0.093615658715422545 -0.40476526464288082 0 -0.082451352827770552 -0.41163664718976212 0 -0.080832567710134945 -0.085265223789800185 0 -0.09573268077664969 -0.090624673380050064 0 -0.094924188455715333 -0.074372309221374736 0 -0.080832567710134945 -0.085265223789800185 0 -0.0944050220014645 -0.1050702242089397 0 -0.09573268077664969 -0.090624673380050064 0 -0.094924188455715333 -0.074372309221374736 0 -0.077079431972146645 -0.050953682142663811 0 -0.080832567710134945 -0.085265223789800185 0 -0.077460787511610923 -0.070469280456870842 0 -0.094924188455715333 -0.074372309221374736 0 -0.077460787511610923 -0.070469280456870842 0 -0.094924188455715333 -0.074372309221374736 0 -0.078535685693175539 -0.061573663464548622 0 -0.080832567710134945 -0.085265223789800185 0 -0.072736864716213656 -0.076885636419884412 0 -0.077460787511610923 -0.070469280456870842 0 -0.072736864716213656 -0.076885636419884412 0 -0.077460787511610923 -0.070469280456870842 0 -0.067174029152377468 -0.071022972744677337 0 -0.077460787511610923 -0.070469280456870842 0 -0.067174029152377468 -0.071022972744677337 0 -0.070308423821052124 -0.061023041189074957 0 -0.077460787511610923 -0.070469280456870842 0 -0.078535685693175539 -0.061573663464548622 0 -0.070308423821052124 -0.061023041189074957 0 -0.067174029152377468 -0.071022972744677337 0 -0.070308423821052124 -0.061023041189074957 0 -0.060830035872249492 -0.064558057335980773 0 -0.072736864716213656 -0.076885636419884412 0 -0.067174029152377468 -0.071022972744677337 0 -0.063732237529271596 -0.080733089011810297 0 -0.067174029152377468 -0.071022972744677337 0 -0.063732237529271596 -0.080733089011810297 0 -0.058000192015007383 -0.073011667883306972 0 -0.080832567710134945 -0.085265223789800185 0 -0.063732237529271596 -0.080733089011810297 0 -0.066023591375222151 -0.09957098179305135 0 -0.080832567710134945 -0.085265223789800185 0 -0.072736864716213656 -0.076885636419884412 0 -0.063732237529271596 -0.080733089011810297 0 -0.066023591375222151 -0.09957098179305135 0 -0.069466171350113709 -0.1135628440840601 0 -0.0944050220014645 -0.1050702242089397 0 -0.066023591375222151 -0.09957098179305135 0 -0.069466171350113709 -0.1135628440840601 0 -0.054384952187449757 -0.110609208962567 0 -0.077516787342341589 -0.1242022911324857 0 -0.069466171350113709 -0.1135628440840601 0 -0.059238207921678762 -0.13024384051707169 0 -0.077516787342341589 -0.1242022911324857 0 -0.093262550211769629 -0.1231040070079162 0 -0.0944050220014645 -0.1050702242089397 0 -0.077516787342341589 -0.1242022911324857 0 -0.069466171350113709 -0.1135628440840601 0 -0.0944050220014645 -0.1050702242089397 0 -0.066023591375222151 -0.09957098179305135 0 -0.0944050220014645 -0.1050702242089397 0 -0.080832567710134945 -0.085265223789800185 0 -0.066023591375222151 -0.09957098179305135 0 -0.0944050220014645 -0.1050702242089397 0 -0.0944050220014645 -0.1050702242089397 0 -0.1071147179002416 -0.1244919901550422 0 -0.11276894493928399 -0.097790936300085646 0 -0.0944050220014645 -0.1050702242089397 0 -0.11276894493928399 -0.097790936300085646 0 -0.09573268077664969 -0.090624673380050064 0 -0.093262550211769629 -0.1231040070079162 0 -0.0944050220014645 -0.1050702242089397 0 -0.1071147179002416 -0.1244919901550422 0 -0.1071147179002416 -0.1244919901550422 0 -0.11276894493928399 -0.097790936300085646 0 -0.1306137014228527 -0.1212095633787966 0 -0.11276894493928399 -0.097790936300085646 0 -0.1306137014228527 -0.1212095633787966 0 -0.112702195828283 -0.076339248342475546 0 -0.13438499311011279 -0.096174695905308166 0 -0.11276894493928399 -0.097790936300085646 0 -0.112702195828283 -0.076339248342475546 0 -0.13438499311011279 -0.096174695905308166 0 -0.11276894493928399 -0.097790936300085646 0 -0.094924188455715333 -0.074372309221374736 0 -0.112702195828283 -0.076339248342475546 0 -0.11276894493928399 -0.097790936300085646 0 -0.094924188455715333 -0.074372309221374736 0 -0.11276894493928399 -0.097790936300085646 0 -0.09573268077664969 -0.090624673380050064 0 -0.094924188455715333 -0.074372309221374736 0 -0.094924188455715333 -0.074372309221374736 0 -0.1026030192468113 -0.064894788769428779 0 -0.112702195828283 -0.076339248342475546 0 -0.094924188455715333 -0.074372309221374736 0 -0.1026030192468113 -0.064894788769428779 0 -0.090333769324138391 -0.059362086744932152 0 -0.1026030192468113 -0.064894788769428779 0 -0.112702195828283 -0.076339248342475546 0 -0.1158705629695205 -0.060236298698018297 0 -0.112702195828283 -0.076339248342475546 0 -0.1158705629695205 -0.060236298698018297 0 -0.13497135686491851 -0.078315161523928284 0 -0.1158705629695205 -0.060236298698018297 0 -0.1150956899200111 -0.045830426672337207 0 -0.1070798181065768 -0.041876824406217303 0 -0.1158705629695205 -0.060236298698018297 0 -0.1150956899200111 -0.045830426672337207 0 -0.12809376798702951 -0.047905065599393698 0 -0.1163329610324388 -0.034474533447810513 0 -0.12530131535501859 -0.034952786400489197 0 -0.12809376798702951 -0.047905065599393698 0 -0.11023593420079281 -0.033339602888773932 0 -0.1150956899200111 -0.045830426672337207 0 -0.12809376798702951 -0.047905065599393698 0 -0.11023593420079281 -0.033339602888773932 0 -0.1163329610324388 -0.034474533447810513 0 -0.12809376798702951 -0.047905065599393698 0 -0.11023593420079281 -0.033339602888773932 0 -0.12809376798702951 -0.047905065599393698 0 -0.1163329610324388 -0.034474533447810513 0 -0.1221370268088495 -0.025998648103035 0 -0.12530131535501859 -0.034952786400489197 0 -0.11023593420079281 -0.033339602888773932 0 -0.1150956899200111 -0.045830426672337207 0 -0.1070798181065768 -0.041876824406217303 0 -0.11023593420079281 -0.033339602888773932 0 -0.1163329610324388 -0.034474533447810513 0 -0.097427134368436918 -0.027820357899848831 0 -0.11023593420079281 -0.033339602888773932 0 -0.1070798181065768 -0.041876824406217303 0 -0.097427134368436918 -0.027820357899848831 0 -0.1070798181065768 -0.041876824406217303 0 -0.096769769074122519 -0.04215743587210824 0 -0.097427134368436918 -0.027820357899848831 0 -0.1158705629695205 -0.060236298698018297 0 -0.1070798181065768 -0.041876824406217303 0 -0.096769769074122519 -0.04215743587210824 0 -0.1026030192468113 -0.064894788769428779 0 -0.1158705629695205 -0.060236298698018297 0 -0.099264754381345577 -0.055060356505970513 0 -0.1158705629695205 -0.060236298698018297 0 -0.096769769074122519 -0.04215743587210824 0 -0.099264754381345577 -0.055060356505970513 0 -0.096769769074122519 -0.04215743587210824 0 -0.099264754381345577 -0.055060356505970513 0 -0.090746651292135133 -0.048651172445365112 0 -0.1158705629695205 -0.060236298698018297 0 -0.096769769074122519 -0.04215743587210824 0 -0.1026030192468113 -0.064894788769428779 0 -0.099264754381345577 -0.055060356505970513 0 -0.090333769324138391 -0.059362086744932152 0 -0.1029392013539359 -0.0085751277431150782 0 -0.12735709500343681 0.004015926865657337 0 -0.1236693299605585 -0.0137973575501921 0 -0.1110604598185659 -0.0207882196779367 0 -0.1029392013539359 -0.0085751277431150782 0 -0.1236693299605585 -0.0137973575501921 0 -0.1029392013539359 -0.0085751277431150782 0 -0.12735709500343681 0.004015926865657337 0 -0.1236693299605585 -0.0137973575501921 0 -0.1110604598185659 -0.0207882196779367 0 -0.1221370268088495 -0.025998648103035 0 -0.1163329610324388 -0.034474533447810513 0 -0.1221370268088495 -0.025998648103035 0 -0.11173939550707281 -0.027270439782157759 0 -0.1110604598185659 -0.0207882196779367 0 -0.1221370268088495 -0.025998648103035 0 -0.11173939550707281 -0.027270439782157759 0 -0.1163329610324388 -0.034474533447810513 0 -0.097427134368436918 -0.027820357899848831 0 -0.1110604598185659 -0.0207882196779367 0 -0.097427134368436918 -0.027820357899848831 0 -0.1029392013539359 -0.0085751277431150782 0 -0.1163329610324388 -0.034474533447810513 0 -0.11173939550707281 -0.027270439782157759 0 -0.097427134368436918 -0.027820357899848831 0 -0.1110604598185659 -0.0207882196779367 0 -0.11173939550707281 -0.027270439782157759 0 -0.097427134368436918 -0.027820357899848831 0 -0.1029392013539359 -0.0085751277431150782 0 -0.086097875964997059 -0.0058870606910941042 0 -0.078521307704434995 -0.021166182351887271 0 -0.1029392013539359 -0.0085751277431150782 0 -0.078521307704434995 -0.021166182351887271 0 -0.1029392013539359 -0.0085751277431150782 0 -0.086097875964997059 -0.0058870606910941042 0 -0.091682611010439896 0.0063963380850077774 0 -0.086097875964997059 -0.0058870606910941042 0 -0.073830544796709738 -0.0078542708917730738 0 -0.078933949510919491 0.00072378658541613432 0 -0.086097875964997059 -0.0058870606910941042 0 -0.078521307704434995 -0.021166182351887271 0 -0.073830544796709738 -0.0078542708917730738 0 -0.097427134368436918 -0.027820357899848831 0 -0.078521307704434995 -0.021166182351887271 0 -0.097427134368436918 -0.027820357899848831 0 -0.078521307704434995 -0.021166182351887271 0 -0.077668975178724509 -0.024078573046198169 0 -0.097427134368436918 -0.027820357899848831 0 -0.1029392013539359 -0.0085751277431150782 0 -0.078521307704434995 -0.021166182351887271 0 -0.078521307704434995 -0.021166182351887271 0 -0.055132092173872667 -0.033226800447327051 0 -0.05822397002114936 -0.01402224463886402 0 -0.078521307704434995 -0.021166182351887271 0 -0.055132092173872667 -0.033226800447327051 0 -0.077668975178724509 -0.024078573046198169 0 -0.075465350998538308 -0.032772608828030472 0 -0.055132092173872667 -0.033226800447327051 0 -0.078521307704434995 -0.021166182351887271 0 -0.077668975178724509 -0.024078573046198169 0 -0.055132092173872667 -0.033226800447327051 0 -0.078521307704434995 -0.021166182351887271 0 -0.05822397002114936 -0.01402224463886402 0 -0.078521307704434995 -0.021166182351887271 0 -0.073830544796709738 -0.0078542708917730738 0 -0.05822397002114936 -0.01402224463886402 0 -0.073830544796709738 -0.0078542708917730738 0 -0.05822397002114936 -0.01402224463886402 0 -0.068462160169621672 0.0025537029525893409 0 -0.073830544796709738 -0.0078542708917730738 0 -0.078933949510919491 0.00072378658541613432 0 -0.068462160169621672 0.0025537029525893409 0 -0.094924188455715333 -0.074372309221374736 0 -0.090333769324138391 -0.059362086744932152 0 -0.077079431972146645 -0.050953682142663811 0 -0.094924188455715333 -0.074372309221374736 0 -0.078535685693175539 -0.061573663464548622 0 -0.077079431972146645 -0.050953682142663811 0 -0.084868245962835154 -0.053326759561897898 0 -0.090333769324138391 -0.059362086744932152 0 -0.077079431972146645 -0.050953682142663811 0 -0.084868245962835154 -0.053326759561897898 0 -0.080876314157704687 -0.04955372347343575 0 -0.082849096915408454 -0.045583035938281863 0 -0.080876314157704687 -0.04955372347343575 0 -0.078708481780428496 -0.048351416250899462 0 -0.082849096915408454 -0.045583035938281863 0 -0.080876314157704687 -0.04955372347343575 0 -0.078708481780428496 -0.048351416250899462 0 -0.077079431972146645 -0.050953682142663811 0 -0.084868245962835154 -0.053326759561897898 0 -0.080876314157704687 -0.04955372347343575 0 -0.077079431972146645 -0.050953682142663811 0 -0.084868245962835154 -0.053326759561897898 0 -0.090746651292135133 -0.048651172445365112 0 -0.082849096915408454 -0.045583035938281863 0 -0.084868245962835154 -0.053326759561897898 0 -0.090333769324138391 -0.059362086744932152 0 -0.090746651292135133 -0.048651172445365112 0 -0.099264754381345577 -0.055060356505970513 0 -0.090333769324138391 -0.059362086744932152 0 -0.090746651292135133 -0.048651172445365112 0 -0.096769769074122519 -0.04215743587210824 0 -0.088481073739883592 -0.043344290748051233 0 -0.083558777677868248 -0.036985518736449702 0 -0.096769769074122519 -0.04215743587210824 0 -0.097427134368436918 -0.027820357899848831 0 -0.077668975178724509 -0.024078573046198169 0 -0.096769769074122519 -0.04215743587210824 0 -0.077668975178724509 -0.024078573046198169 0 -0.083558777677868248 -0.036985518736449702 0 -0.096769769074122519 -0.04215743587210824 0 -0.077668975178724509 -0.024078573046198169 0 -0.090746651292135133 -0.048651172445365112 0 -0.088481073739883592 -0.043344290748051233 0 -0.082849096915408454 -0.045583035938281863 0 -0.096769769074122519 -0.04215743587210824 0 -0.090746651292135133 -0.048651172445365112 0 -0.088481073739883592 -0.043344290748051233 0 -0.077668975178724509 -0.024078573046198169 0 -0.083558777677868248 -0.036985518736449702 0 -0.075465350998538308 -0.032772608828030472 0 -0.083558777677868248 -0.036985518736449702 0 -0.082849096915408454 -0.045583035938281863 0 -0.075062618692292638 -0.040325846155841297 0 -0.088481073739883592 -0.043344290748051233 0 -0.083558777677868248 -0.036985518736449702 0 -0.082849096915408454 -0.045583035938281863 0 -0.082849096915408454 -0.045583035938281863 0 -0.078067002861142085 -0.04575568247049161 0 -0.075062618692292638 -0.040325846155841297 0 -0.078708481780428496 -0.048351416250899462 0 -0.082849096915408454 -0.045583035938281863 0 -0.078067002861142085 -0.04575568247049161 0 -0.075647814056438792 -0.048762431536943832 0 -0.055132092173872667 -0.033226800447327051 0 -0.078067002861142085 -0.04575568247049161 0 -0.075062618692292638 -0.040325846155841297 0 -0.075647814056438792 -0.048762431536943832 0 -0.075062618692292638 -0.040325846155841297 0 -0.075465350998538308 -0.032772608828030472 0 -0.055132092173872667 -0.033226800447327051 0 -0.075647814056438792 -0.048762431536943832 0 -0.061428605263776047 -0.046553119166432878 0 -0.055132092173872667 -0.033226800447327051 0 -0.075062618692292638 -0.040325846155841297 0 -0.075647814056438792 -0.048762431536943832 0 -0.055132092173872667 -0.033226800447327051 0 -0.083558777677868248 -0.036985518736449702 0 -0.075062618692292638 -0.040325846155841297 0 -0.075465350998538308 -0.032772608828030472 0 -0.065722760200719738 -0.052253177456942877 0 -0.075647814056438792 -0.048762431536943832 0 -0.061428605263776047 -0.046553119166432878 0 -0.065722760200719738 -0.052253177456942877 0 -0.07269306068786438 -0.052406879740114577 0 -0.069833853901725543 -0.055329661047837618 0 -0.065722760200719738 -0.052253177456942877 0 -0.07269306068786438 -0.052406879740114577 0 -0.075647814056438792 -0.048762431536943832 0 -0.07269306068786438 -0.052406879740114577 0 -0.073703714626092445 -0.056102563442451223 0 -0.069833853901725543 -0.055329661047837618 0 -0.07269306068786438 -0.052406879740114577 0 -0.077079431972146645 -0.050953682142663811 0 -0.073703714626092445 -0.056102563442451223 0 -0.078708481780428496 -0.048351416250899462 0 -0.077079431972146645 -0.050953682142663811 0 -0.075647814056438792 -0.048762431536943832 0 -0.07269306068786438 -0.052406879740114577 0 -0.077079431972146645 -0.050953682142663811 0 -0.075647814056438792 -0.048762431536943832 0 -0.078708481780428496 -0.048351416250899462 0 -0.078067002861142085 -0.04575568247049161 0 -0.075647814056438792 -0.048762431536943832 0 -0.078535685693175539 -0.061573663464548622 0 -0.073703714626092445 -0.056102563442451223 0 -0.070308423821052124 -0.061023041189074957 0 -0.078535685693175539 -0.061573663464548622 0 -0.077079431972146645 -0.050953682142663811 0 -0.073703714626092445 -0.056102563442451223 0 -0.073703714626092445 -0.056102563442451223 0 -0.070308423821052124 -0.061023041189074957 0 -0.069833853901725543 -0.055329661047837618 0 -0.070308423821052124 -0.061023041189074957 0 -0.064391701294429504 -0.057679717025484439 0 -0.060830035872249492 -0.064558057335980773 0 -0.070308423821052124 -0.061023041189074957 0 -0.069833853901725543 -0.055329661047837618 0 -0.064391701294429504 -0.057679717025484439 0 -0.065722760200719738 -0.052253177456942877 0 -0.069833853901725543 -0.055329661047837618 0 -0.064391701294429504 -0.057679717025484439 0 -0.064391701294429504 -0.057679717025484439 0 -0.055978059279945473 -0.056388284161067823 0 -0.060830035872249492 -0.064558057335980773 0 -0.065722760200719738 -0.052253177456942877 0 -0.064391701294429504 -0.057679717025484439 0 -0.055978059279945473 -0.056388284161067823 0 -0.055978059279945473 -0.056388284161067823 0 -0.041230103293456458 -0.058058117591144771 0 -0.049479852383656611 -0.067543566470139038 0 -0.055978059279945473 -0.056388284161067823 0 -0.049741921456861897 -0.048697412542500033 0 -0.041230103293456458 -0.058058117591144771 0 -0.055978059279945473 -0.056388284161067823 0 -0.049741921456861897 -0.048697412542500033 0 -0.061428605263776047 -0.046553119166432878 0 -0.065722760200719738 -0.052253177456942877 0 -0.055978059279945473 -0.056388284161067823 0 -0.061428605263776047 -0.046553119166432878 0 -0.049741921456861897 -0.048697412542500033 0 -0.061428605263776047 -0.046553119166432878 0 -0.055132092173872667 -0.033226800447327051 0 -0.049741921456861897 -0.048697412542500033 0 -0.055132092173872667 -0.033226800447327051 0 -0.032367863380537598 -0.044965144957206583 0 -0.055132092173872667 -0.033226800447327051 0 -0.032367863380537598 -0.044965144957206583 0 -0.055132092173872667 -0.033226800447327051 0 -0.032367863380537598 -0.044965144957206583 0 -0.031233838643279398 -0.031193199633022049 0 -0.049741921456861897 -0.048697412542500033 0 -0.032367863380537598 -0.044965144957206583 0 -0.041230103293456458 -0.058058117591144771 0 -0.032367863380537598 -0.044965144957206583 0 -0.041230103293456458 -0.058058117591144771 0 -0.026902341230915561 -0.060374551747501753 0 -0.05822397002114936 -0.01402224463886402 0 -0.057836245250817257 0.0062936453779614283 0 -0.044352522143416888 0.0050416822031405977 0 -0.05822397002114936 -0.01402224463886402 0 -0.037926632337863607 -0.0068783069258408786 0 -0.05822397002114936 -0.01402224463886402 0 -0.068462160169621672 0.0025537029525893409 0 -0.057836245250817257 0.0062936453779614283 0 -0.055132092173872667 -0.033226800447327051 0 -0.05822397002114936 -0.01402224463886402 0 -0.036243114184870161 -0.018923029155399909 0 -0.055132092173872667 -0.033226800447327051 0 -0.036243114184870161 -0.018923029155399909 0 -0.031233838643279398 -0.031193199633022049 0 -0.055132092173872667 -0.033226800447327051 0 -0.036243114184870161 -0.018923029155399909 0 -0.05822397002114936 -0.01402224463886402 0 -0.036243114184870161 -0.018923029155399909 0 -0.037926632337863607 -0.0068783069258408786 0 -0.05822397002114936 -0.01402224463886402 0 -0.037926632337863607 -0.0068783069258408786 0 -0.044352522143416888 0.0050416822031405977 0 -0.036243114184870161 -0.018923029155399909 0 -0.037926632337863607 -0.0068783069258408786 0 -0.029121832422534862 -0.0067169982391169078 0 -0.037926632337863607 -0.0068783069258408786 0 -0.029539197120254941 -0.00051038393964639519 0 -0.029121832422534862 -0.0067169982391169078 0 -0.037926632337863607 -0.0068783069258408786 0 -0.029539197120254941 -0.00051038393964639519 0 -0.03614709390981162 0.0015378833132510439 0 -0.037926632337863607 -0.0068783069258408786 0 -0.03614709390981162 0.0015378833132510439 0 -0.044352522143416888 0.0050416822031405977 0 -0.036243114184870161 -0.018923029155399909 0 -0.017354136195868258 -0.0046192578634720229 0 -0.01819617019275287 -0.0061732580868559192 0 -0.036243114184870161 -0.018923029155399909 0 -0.017354136195868258 -0.0046192578634720229 0 -0.029121832422534862 -0.0067169982391169078 0 -0.036243114184870161 -0.018923029155399909 0 -0.01819617019275287 -0.0061732580868559192 0 -0.019637671972121611 -0.02148729346067638 0 -0.036243114184870161 -0.018923029155399909 0 -0.017354136195868258 -0.0046192578634720229 0 -0.017354136195868258 -0.0046192578634720229 0 -0.01819617019275287 -0.0061732580868559192 0 -0.013500839782477779 -0.0058155532537883976 0 -0.017354136195868258 -0.0046192578634720229 0 -0.01819617019275287 -0.0061732580868559192 0 -0.017354136195868258 -0.0046192578634720229 0 -0.024546082273817361 -0.00265401331122534 0 -0.02112675760807068 0.0030512678310729521 0 -0.024546082273817361 -0.00265401331122534 0 -0.029539197120254941 -0.00051038393964639519 0 -0.02112675760807068 0.0030512678310729521 0 -0.017354136195868258 -0.0046192578634720229 0 -0.024546082273817361 -0.00265401331122534 0 -0.029121832422534862 -0.0067169982391169078 0 -0.024546082273817361 -0.00265401331122534 0 -0.029539197120254941 -0.00051038393964639519 0 -0.029121832422534862 -0.0067169982391169078 0 -0.01819617019275287 -0.0061732580868559192 0 -0.019637671972121611 -0.02148729346067638 0 -0.011008321991883009 -0.01057962122923565 0 -0.036243114184870161 -0.018923029155399909 0 -0.019637671972121611 -0.02148729346067638 0 -0.031233838643279398 -0.031193199633022049 0 -0.019637671972121611 -0.02148729346067638 0 -0.031233838643279398 -0.031193199633022049 0 -0.016064986363794779 -0.036441041599790329 0 -0.0077215053668332834 -0.022860670268973711 0 -0.00118246574067416 -0.01324232368796026 0 0.0015263381015913891 -0.033415212413580753 0 -0.0077215053668332834 -0.022860670268973711 0 -0.016064986363794779 -0.036441041599790329 0 0.0015263381015913891 -0.033415212413580753 0 -0.019637671972121611 -0.02148729346067638 0 -0.0077215053668332834 -0.022860670268973711 0 -0.016064986363794779 -0.036441041599790329 0 -0.019637671972121611 -0.02148729346067638 0 -0.0077215053668332834 -0.022860670268973711 0 -0.011008321991883009 -0.01057962122923565 0 -0.011008321991883009 -0.01057962122923565 0 -0.00118246574067416 -0.01324232368796026 0 -0.0072764121498596901 -0.0036325873431357339 0 -0.0077215053668332834 -0.022860670268973711 0 -0.011008321991883009 -0.01057962122923565 0 -0.00118246574067416 -0.01324232368796026 0 -0.00118246574067416 -0.01324232368796026 0 -0.0072764121498596901 -0.0036325873431357339 0 0.0012074066645448821 -0.00065723147797176382 0 -0.0072764121498596901 -0.0036325873431357339 0 -0.013500839782477779 -0.0058155532537883976 0 -0.013607688627124061 -0.00178224205395049 0 -0.011008321991883009 -0.01057962122923565 0 -0.0072764121498596901 -0.0036325873431357339 0 -0.013500839782477779 -0.0058155532537883976 0 -0.01819617019275287 -0.0061732580868559192 0 -0.011008321991883009 -0.01057962122923565 0 -0.013500839782477779 -0.0058155532537883976 0 -0.017354136195868258 -0.0046192578634720229 0 -0.013500839782477779 -0.0058155532537883976 0 -0.013607688627124061 -0.00178224205395049 0 -0.017354136195868258 -0.0046192578634720229 0 -0.013607688627124061 -0.00178224205395049 0 -0.032367863380537598 -0.044965144957206583 0 -0.0096036345872028556 -0.056703489467087059 0 -0.032367863380537598 -0.044965144957206583 0 -0.026902341230915561 -0.060374551747501753 0 -0.0096036345872028556 -0.056703489467087059 0 -0.032367863380537598 -0.044965144957206583 0 -0.031233838643279398 -0.031193199633022049 0 -0.016064986363794779 -0.036441041599790329 0 -0.032367863380537598 -0.044965144957206583 0 -0.016064986363794779 -0.036441041599790329 0 -0.0096036345872028556 -0.056703489467087059 0 -0.0096036345872028556 -0.056703489467087059 0 0.0015263381015913891 -0.033415212413580753 0 -0.016064986363794779 -0.036441041599790329 0 -0.0096036345872028556 -0.056703489467087059 0 0.0015263381015913891 -0.033415212413580753 0 -0.0096036345872028556 -0.056703489467087059 0 0.0015263381015913891 -0.033415212413580753 0 0.007298405735321048 -0.051477207310420908 0 -0.0096036345872028556 -0.056703489467087059 0 0.0052181775422467033 -0.064346337314722044 0 -0.0096036345872028556 -0.056703489467087059 0 -0.0043762627118289626 -0.071729097412358583 0 0.0052181775422467033 -0.064346337314722044 0 -0.0043762627118289626 -0.071729097412358583 0 -0.0092607301227374331 -0.088572496961274561 0 -0.01646375475339092 -0.071057556949349329 0 -0.0096036345872028556 -0.056703489467087059 0 -0.01646375475339092 -0.071057556949349329 0 -0.0096036345872028556 -0.056703489467087059 0 -0.0043762627118289626 -0.071729097412358583 0 -0.01646375475339092 -0.071057556949349329 0 -0.0092607301227374331 -0.088572496961274561 0 -0.00044729776891663488 -0.1011528385718463 0 0.0042106568376920582 -0.081118225430045127 0 -0.0043762627118289626 -0.071729097412358583 0 -0.0092607301227374331 -0.088572496961274561 0 0.0042106568376920582 -0.081118225430045127 0 -0.0092607301227374331 -0.088572496961274561 0 -0.037642160748979789 -0.094071739377162955 0 -0.0092607301227374331 -0.088572496961274561 0 -0.023323874919582349 -0.085411624431610003 0 -0.01646375475339092 -0.071057556949349329 0 -0.0092607301227374331 -0.088572496961274561 0 -0.023323874919582349 -0.085411624431610003 0 -0.037642160748979789 -0.094071739377162955 0 -0.023323874919582349 -0.085411624431610003 0 -0.01646375475339092 -0.071057556949349329 0 -0.023323874919582349 -0.085411624431610003 0 -0.01646375475339092 -0.071057556949349329 0 -0.034846350139989962 -0.07108844977272101 0 -0.026902341230915561 -0.060374551747501753 0 -0.01646375475339092 -0.071057556949349329 0 -0.034846350139989962 -0.07108844977272101 0 -0.026902341230915561 -0.060374551747501753 0 -0.0096036345872028556 -0.056703489467087059 0 -0.01646375475339092 -0.071057556949349329 0 -0.041230103293456458 -0.058058117591144771 0 -0.026902341230915561 -0.060374551747501753 0 -0.034846350139989962 -0.07108844977272101 0 -0.041230103293456458 -0.058058117591144771 0 -0.034846350139989962 -0.07108844977272101 0 -0.049479852383656611 -0.067543566470139038 0 -0.034846350139989962 -0.07108844977272101 0 -0.048784805137481749 -0.081200653853927454 0 -0.049479852383656611 -0.067543566470139038 0 -0.023323874919582349 -0.085411624431610003 0 -0.034846350139989962 -0.07108844977272101 0 -0.036149297736508462 -0.082943116858855345 0 -0.023323874919582349 -0.085411624431610003 0 -0.036149297736508462 -0.082943116858855345 0 -0.037642160748979789 -0.094071739377162955 0 -0.036149297736508462 -0.082943116858855345 0 -0.048784805137481749 -0.081200653853927454 0 -0.037642160748979789 -0.094071739377162955 0 -0.034846350139989962 -0.07108844977272101 0 -0.036149297736508462 -0.082943116858855345 0 -0.048784805137481749 -0.081200653853927454 0 -0.063732237529271596 -0.080733089011810297 0 -0.066023591375222151 -0.09957098179305135 0 -0.048784805137481749 -0.081200653853927454 0 -0.066023591375222151 -0.09957098179305135 0 -0.048784805137481749 -0.081200653853927454 0 -0.037642160748979789 -0.094071739377162955 0 -0.063732237529271596 -0.080733089011810297 0 -0.048784805137481749 -0.081200653853927454 0 -0.058000192015007383 -0.073011667883306972 0 -0.055978059279945473 -0.056388284161067823 0 -0.060830035872249492 -0.064558057335980773 0 -0.049479852383656611 -0.067543566470139038 0 -0.058000192015007383 -0.073011667883306972 0 -0.060830035872249492 -0.064558057335980773 0 -0.049479852383656611 -0.067543566470139038 0 -0.067174029152377468 -0.071022972744677337 0 -0.058000192015007383 -0.073011667883306972 0 -0.060830035872249492 -0.064558057335980773 0 -0.048784805137481749 -0.081200653853927454 0 -0.058000192015007383 -0.073011667883306972 0 -0.049479852383656611 -0.067543566470139038 0 -0.069466171350113709 -0.1135628440840601 0 -0.054384952187449757 -0.110609208962567 0 -0.059238207921678762 -0.13024384051707169 0 -0.054384952187449757 -0.110609208962567 0 -0.059238207921678762 -0.13024384051707169 0 -0.032945469352336033 -0.1293562392835419 0 -0.066023591375222151 -0.09957098179305135 0 -0.054384952187449757 -0.110609208962567 0 -0.037642160748979789 -0.094071739377162955 0 -0.066023591375222151 -0.09957098179305135 0 -0.037642160748979789 -0.094071739377162955 0 -0.054384952187449757 -0.110609208962567 0 -0.037642160748979789 -0.094071739377162955 0 -0.035661083064217503 -0.11124856921529409 0 -0.054384952187449757 -0.110609208962567 0 -0.032945469352336033 -0.1293562392835419 0 -0.054384952187449757 -0.110609208962567 0 -0.035661083064217503 -0.11124856921529409 0 -0.032945469352336033 -0.1293562392835419 0 -0.01767174996810443 -0.1109570892379047 0 -0.012892303975098539 -0.12786221844410239 0 -0.032945469352336033 -0.1293562392835419 0 -0.035661083064217503 -0.11124856921529409 0 -0.01767174996810443 -0.1109570892379047 0 -0.032945469352336033 -0.1293562392835419 0 -0.0092607301227374331 -0.088572496961274561 0 -0.037642160748979789 -0.094071739377162955 0 -0.01767174996810443 -0.1109570892379047 0 -0.037642160748979789 -0.094071739377162955 0 -0.035661083064217503 -0.11124856921529409 0 -0.01767174996810443 -0.1109570892379047 0 -0.01767174996810443 -0.1109570892379047 0 -0.00044729776891663488 -0.1011528385718463 0 0.005085065621477718 -0.1151057880332567 0 -0.0092607301227374331 -0.088572496961274561 0 -0.01767174996810443 -0.1109570892379047 0 -0.00044729776891663488 -0.1011528385718463 0 -0.01767174996810443 -0.1109570892379047 0 -0.012892303975098539 -0.12786221844410239 0 0.005085065621477718 -0.1151057880332567 0 -0.012892303975098539 -0.12786221844410239 0 0.0027021066240326768 -0.1317064378292063 0 0.005085065621477718 -0.1151057880332567 0 -0.011505986517222349 -0.14810326960451681 0 -0.033736789854580403 -0.16402697950055581 0 -0.032945469352336033 -0.1293562392835419 0 -0.012892303975098539 -0.12786221844410239 0 -0.011505986517222349 -0.14810326960451681 0 0.0027021066240326768 -0.1317064378292063 0 -0.011505986517222349 -0.14810326960451681 0 -0.032945469352336033 -0.1293562392835419 0 -0.012892303975098539 -0.12786221844410239 0 -0.011505986517222349 -0.14810326960451681 0 -0.032945469352336033 -0.1293562392835419 0 -0.011505986517222349 -0.14810326960451681 0 0.009933496317892726 -0.16685029992549011 0 -0.011505986517222349 -0.14810326960451681 0 -0.0085976242789068957 -0.177408956520272 0 0.009933496317892726 -0.16685029992549011 0 -0.0085976242789068957 -0.177408956520272 0 -0.003739977245034012 -0.19168309442994089 0 -0.02712874487570623 -0.18796761311505439 0 -0.0085976242789068957 -0.177408956520272 0 -0.003739977245034012 -0.19168309442994089 0 0.0034571977838801569 -0.17702496179755631 0 -0.0085976242789068957 -0.177408956520272 0 -0.02712874487570623 -0.18796761311505439 0 -0.0085976242789068957 -0.177408956520272 0 -0.033736789854580403 -0.16402697950055581 0 -0.02712874487570623 -0.18796761311505439 0 -0.011505986517222349 -0.14810326960451681 0 -0.0085976242789068957 -0.177408956520272 0 -0.033736789854580403 -0.16402697950055581 0 -0.033736789854580403 -0.16402697950055581 0 -0.041678182321736049 -0.18065303021324261 0 -0.02712874487570623 -0.18796761311505439 0 -0.033736789854580403 -0.16402697950055581 0 -0.041678182321736049 -0.18065303021324261 0 -0.060187329084152079 -0.17209125852752319 0 -0.041678182321736049 -0.18065303021324261 0 -0.060187329084152079 -0.17209125852752319 0 -0.045659865472505487 -0.198526269709837 0 -0.060187329084152079 -0.17209125852752319 0 -0.045659865472505487 -0.198526269709837 0 -0.033736789854580403 -0.16402697950055581 0 -0.060187329084152079 -0.17209125852752319 0 -0.051699405537506939 -0.14899167338562519 0 -0.060187329084152079 -0.17209125852752319 0 -0.051699405537506939 -0.14899167338562519 0 -0.072389231474787458 -0.1492400490994332 0 -0.051699405537506939 -0.14899167338562519 0 -0.059238207921678762 -0.13024384051707169 0 -0.072389231474787458 -0.1492400490994332 0 -0.033736789854580403 -0.16402697950055581 0 -0.051699405537506939 -0.14899167338562519 0 -0.032945469352336033 -0.1293562392835419 0 -0.051699405537506939 -0.14899167338562519 0 -0.059238207921678762 -0.13024384051707169 0 -0.032945469352336033 -0.1293562392835419 0 -0.025857267464119819 -0.25506418495113531 0 -0.02368513365757598 -0.23851275990414511 0 -0.036167443228362108 -0.24337299090061551 0 -0.01269776775011346 -0.25850600500130039 0 -0.02368513365757598 -0.23851275990414511 0 -0.01269776775011346 -0.25850600500130039 0 -0.02368513365757598 -0.23851275990414511 0 -0.01082738352359053 -0.24876902592697839 0 -0.02368513365757598 -0.23851275990414511 0 -0.0067432183097289999 -0.239968376336817 0 -0.0090267388034834407 -0.23007068799598671 0 -0.02368513365757598 -0.23851275990414511 0 -0.01082738352359053 -0.24876902592697839 0 -0.0067432183097289999 -0.239968376336817 0 -0.01082738352359053 -0.24876902592697839 0 -0.0029313858115674811 -0.24854412401401971 0 -0.0067432183097289999 -0.239968376336817 0 -0.0029313858115674811 -0.24854412401401971 0 -0.0067432183097289999 -0.239968376336817 0 0.0026199421412959989 -0.2430643023623929 0 -0.0067432183097289999 -0.239968376336817 0 0.0026199421412959989 -0.2430643023623929 0 0.0017465435191736189 -0.23378549097037141 0 -0.0067432183097289999 -0.239968376336817 0 -0.0090267388034834407 -0.23007068799598671 0 0.0017465435191736189 -0.23378549097037141 0 -0.0090267388034834407 -0.23007068799598671 0 -0.00080535468136348092 -0.21995366459000901 0 -0.01839049427805331 -0.2195873775130934 0 -0.0090267388034834407 -0.23007068799598671 0 -0.00080535468136348092 -0.21995366459000901 0 0.0017465435191736189 -0.23378549097037141 0 -0.02368513365757598 -0.23851275990414511 0 -0.0090267388034834407 -0.23007068799598671 0 -0.01839049427805331 -0.2195873775130934 0 -0.02368513365757598 -0.23851275990414511 0 -0.01839049427805331 -0.2195873775130934 0 -0.034672499565036527 -0.2185195148069887 0 -0.02368513365757598 -0.23851275990414511 0 -0.034672499565036527 -0.2185195148069887 0 -0.01839049427805331 -0.2195873775130934 0 -0.027127261386640289 -0.20489204062456881 0 -0.034672499565036527 -0.2185195148069887 0 -0.01839049427805331 -0.2195873775130934 0 -0.027127261386640289 -0.20489204062456881 0 -0.01084996336714465 -0.20584666152463099 0 -0.00080535468136348092 -0.21995366459000901 0 -0.01839049427805331 -0.2195873775130934 0 -0.01084996336714465 -0.20584666152463099 0 -0.00080535468136348092 -0.21995366459000901 0 -0.01084996336714465 -0.20584666152463099 0 0.01016515501406726 -0.20926501301563591 0 -0.01084996336714465 -0.20584666152463099 0 -0.003739977245034012 -0.19168309442994089 0 0.01016515501406726 -0.20926501301563591 0 -0.01084996336714465 -0.20584666152463099 0 -0.003739977245034012 -0.19168309442994089 0 -0.02712874487570623 -0.18796761311505439 0 -0.027127261386640289 -0.20489204062456881 0 -0.01084996336714465 -0.20584666152463099 0 -0.02712874487570623 -0.18796761311505439 0 -0.041678182321736049 -0.18065303021324261 0 -0.02712874487570623 -0.18796761311505439 0 -0.045659865472505487 -0.198526269709837 0 -0.02712874487570623 -0.18796761311505439 0 -0.045659865472505487 -0.198526269709837 0 -0.027127261386640289 -0.20489204062456881 0 -0.02712874487570623 -0.18796761311505439 0 -0.045659865472505487 -0.198526269709837 0 -0.045659865472505487 -0.198526269709837 0 -0.067682806497079445 -0.21107449474949169 0 -0.062708331551170268 -0.19442045911658551 0 -0.060187329084152079 -0.17209125852752319 0 -0.045659865472505487 -0.198526269709837 0 -0.062708331551170268 -0.19442045911658551 0 -0.045659865472505487 -0.198526269709837 0 -0.067682806497079445 -0.21107449474949169 0 -0.045659865472505487 -0.198526269709837 0 -0.054546183461555722 -0.22015285450131489 0 -0.067682806497079445 -0.21107449474949169 0 -0.045659865472505487 -0.198526269709837 0 -0.034672499565036527 -0.2185195148069887 0 -0.054546183461555722 -0.22015285450131489 0 -0.045659865472505487 -0.198526269709837 0 -0.034672499565036527 -0.2185195148069887 0 -0.027127261386640289 -0.20489204062456881 0 -0.045659865472505487 -0.198526269709837 0 -0.034672499565036527 -0.2185195148069887 0 -0.034672499565036527 -0.2185195148069887 0 -0.044145410485190079 -0.23242073182379891 0 -0.054546183461555722 -0.22015285450131489 0 -0.02368513365757598 -0.23851275990414511 0 -0.034672499565036527 -0.2185195148069887 0 -0.044145410485190079 -0.23242073182379891 0 -0.044145410485190079 -0.23242073182379891 0 -0.054546183461555722 -0.22015285450131489 0 -0.061280333386656921 -0.23284462843810469 0 -0.061280333386656921 -0.23284462843810469 0 -0.050191684441297867 -0.2485850187836515 0 -0.071591358857016049 -0.2429226102204386 0 -0.050191684441297867 -0.2485850187836515 0 -0.071591358857016049 -0.2429226102204386 0 -0.056939497423126581 -0.24878681181634871 0 -0.050191684441297867 -0.2485850187836515 0 -0.071591358857016049 -0.2429226102204386 0 -0.044145410485190079 -0.23242073182379891 0 -0.061280333386656921 -0.23284462843810469 0 -0.050191684441297867 -0.2485850187836515 0 -0.041398382443623198 -0.25192549838374201 0 -0.056939497423126581 -0.24878681181634871 0 -0.050191684441297867 -0.2485850187836515 0 -0.044145410485190079 -0.23242073182379891 0 -0.050191684441297867 -0.2485850187836515 0 -0.036167443228362108 -0.24337299090061551 0 -0.02368513365757598 -0.23851275990414511 0 -0.044145410485190079 -0.23242073182379891 0 -0.036167443228362108 -0.24337299090061551 0 -0.025857267464119819 -0.25506418495113531 0 -0.050191684441297867 -0.2485850187836515 0 -0.036167443228362108 -0.24337299090061551 0 -0.097628444613881649 -0.25834262822693399 0 -0.087470553331264578 -0.24262075389877999 0 -0.077955776651182085 -0.24454236002529731 0 -0.087470553331264578 -0.24262075389877999 0 -0.087928467376508473 -0.23859976953689591 0 -0.1005617376665941 -0.23997685579502359 0 -0.087928467376508473 -0.23859976953689591 0 -0.07453604668454375 -0.2421434382925548 0 -0.07383618536286593 -0.22753148747966839 0 -0.087928467376508473 -0.23859976953689591 0 -0.07453604668454375 -0.2421434382925548 0 -0.087928467376508473 -0.23859976953689591 0 -0.077955776651182085 -0.24454236002529731 0 -0.07453604668454375 -0.2421434382925548 0 -0.087470553331264578 -0.24262075389877999 0 -0.087928467376508473 -0.23859976953689591 0 -0.077955776651182085 -0.24454236002529731 0 -0.087470553331264578 -0.24262075389877999 0 -0.077955776651182085 -0.24454236002529731 0 -0.056939497423126581 -0.24878681181634871 0 -0.077955776651182085 -0.24454236002529731 0 -0.071591358857016049 -0.2429226102204386 0 -0.056939497423126581 -0.24878681181634871 0 -0.077955776651182085 -0.24454236002529731 0 -0.077955776651182085 -0.24454236002529731 0 -0.071591358857016049 -0.2429226102204386 0 -0.07453604668454375 -0.2421434382925548 0 -0.077955776651182085 -0.24454236002529731 0 -0.07453604668454375 -0.2421434382925548 0 -0.071591358857016049 -0.2429226102204386 0 -0.07453604668454375 -0.2421434382925548 0 -0.056939497423126581 -0.24878681181634871 0 -0.071591358857016049 -0.2429226102204386 0 -0.061280333386656921 -0.23284462843810469 0 -0.071591358857016049 -0.2429226102204386 0 -0.07453604668454375 -0.2421434382925548 0 -0.061280333386656921 -0.23284462843810469 0 -0.07453604668454375 -0.2421434382925548 0 -0.07383618536286593 -0.22753148747966839 0 -0.089705747521653334 -0.22362271978914661 0 -0.067682806497079445 -0.21107449474949169 0 -0.054546183461555722 -0.22015285450131489 0 -0.061280333386656921 -0.23284462843810469 0 -0.07383618536286593 -0.22753148747966839 0 -0.054546183461555722 -0.22015285450131489 0 -0.07383618536286593 -0.22753148747966839 0 -0.067682806497079445 -0.21107449474949169 0 -0.061280333386656921 -0.23284462843810469 0 -0.07453604668454375 -0.2421434382925548 0 -0.07383618536286593 -0.22753148747966839 0 -0.087928467376508473 -0.23859976953689591 0 -0.07383618536286593 -0.22753148747966839 0 -0.089705747521653334 -0.22362271978914661 0 -0.087928467376508473 -0.23859976953689591 0 -0.089705747521653334 -0.22362271978914661 0 -0.1005617376665941 -0.23997685579502359 0 -0.089705747521653334 -0.22362271978914661 0 -0.067682806497079445 -0.21107449474949169 0 -0.089705747521653334 -0.22362271978914661 0 -0.084027466008495671 -0.20735524824550181 0 -0.09921486728828334 -0.20109800384388701 0 -0.089705747521653334 -0.22362271978914661 0 -0.084027466008495671 -0.20735524824550181 0 -0.067682806497079445 -0.21107449474949169 0 -0.084027466008495671 -0.20735524824550181 0 -0.067682806497079445 -0.21107449474949169 0 -0.079506442726966622 -0.19362577459948219 0 -0.067682806497079445 -0.21107449474949169 0 -0.062708331551170268 -0.19442045911658551 0 -0.079506442726966622 -0.19362577459948219 0 -0.079506442726966622 -0.19362577459948219 0 -0.09921486728828334 -0.20109800384388701 0 -0.089369030920126963 -0.1732707743578942 0 -0.084027466008495671 -0.20735524824550181 0 -0.079506442726966622 -0.19362577459948219 0 -0.09921486728828334 -0.20109800384388701 0 -0.09921486728828334 -0.20109800384388701 0 -0.1156293974943295 -0.1822747327150937 0 -0.1210853022939376 -0.205467400633562 0 -0.1156293974943295 -0.1822747327150937 0 -0.13505851963374399 -0.18906788910329131 0 -0.09921486728828334 -0.20109800384388701 0 -0.1210853022939376 -0.205467400633562 0 -0.1156293974943295 -0.1822747327150937 0 -0.1210853022939376 -0.205467400633562 0 -0.10755849924533691 -0.2178899443088799 0 -0.11989889803527461 -0.22145143588075511 0 -0.1210853022939376 -0.205467400633562 0 -0.11989889803527461 -0.22145143588075511 0 -0.13086176299679239 -0.21746526838305219 0 -0.089705747521653334 -0.22362271978914661 0 -0.09921486728828334 -0.20109800384388701 0 -0.10755849924533691 -0.2178899443088799 0 -0.09921486728828334 -0.20109800384388701 0 -0.1210853022939376 -0.205467400633562 0 -0.10755849924533691 -0.2178899443088799 0 -0.089705747521653334 -0.22362271978914661 0 -0.11172868854622731 -0.23617094482880149 0 -0.1005617376665941 -0.23997685579502359 0 -0.089705747521653334 -0.22362271978914661 0 -0.11172868854622731 -0.23617094482880149 0 -0.089705747521653334 -0.22362271978914661 0 -0.10755849924533691 -0.2178899443088799 0 -0.11172868854622731 -0.23617094482880149 0 -0.11989889803527461 -0.22145143588075511 0 -0.11172868854622731 -0.23617094482880149 0 -0.127825895831608 -0.22987551408160201 0 -0.10755849924533691 -0.2178899443088799 0 -0.11989889803527461 -0.22145143588075511 0 -0.11172868854622731 -0.23617094482880149 0 -0.13218950310710981 -0.25272660122947088 0 -0.1218823470606431 -0.24640061544388489 0 -0.1098930818979398 -0.24798588601512411 0 -0.11172868854622731 -0.23617094482880149 0 -0.13375162957080131 -0.24871916986845621 0 -0.11172868854622731 -0.23617094482880149 0 -0.1218823470606431 -0.24640061544388489 0 -0.13375162957080131 -0.24871916986845621 0 -0.11172868854622731 -0.23617094482880149 0 -0.13375162957080131 -0.24871916986845621 0 -0.127825895831608 -0.22987551408160201 0 -0.11172868854622731 -0.23617094482880149 0 -0.1218823470606431 -0.24640061544388489 0 -0.1098930818979398 -0.24798588601512411 0 -0.097628444613881649 -0.25834262822693399 0 -0.087470553331264578 -0.24262075389877999 0 -0.1098930818979398 -0.24798588601512411 0 -0.087470553331264578 -0.24262075389877999 0 -0.1098930818979398 -0.24798588601512411 0 -0.1005617376665941 -0.23997685579502359 0 -0.087470553331264578 -0.24262075389877999 0 -0.1098930818979398 -0.24798588601512411 0 -0.11172868854622731 -0.23617094482880149 0 -0.1098930818979398 -0.24798588601512411 0 -0.1005617376665941 -0.23997685579502359 0 -0.087470553331264578 -0.24262075389877999 0 -0.1005617376665941 -0.23997685579502359 0 -0.072389231474787458 -0.1492400490994332 0 -0.089369030920126963 -0.1732707743578942 0 -0.096011965921864201 -0.14265464397282879 0 -0.077516787342341589 -0.1242022911324857 0 -0.093262550211769629 -0.1231040070079162 0 -0.096011965921864201 -0.14265464397282879 0 -0.077516787342341589 -0.1242022911324857 0 -0.072389231474787458 -0.1492400490994332 0 -0.096011965921864201 -0.14265464397282879 0 -0.077516787342341589 -0.1242022911324857 0 -0.059238207921678762 -0.13024384051707169 0 -0.072389231474787458 -0.1492400490994332 0 -0.060187329084152079 -0.17209125852752319 0 -0.072389231474787458 -0.1492400490994332 0 -0.089369030920126963 -0.1732707743578942 0 -0.060187329084152079 -0.17209125852752319 0 -0.079506442726966622 -0.19362577459948219 0 -0.089369030920126963 -0.1732707743578942 0 -0.060187329084152079 -0.17209125852752319 0 -0.062708331551170268 -0.19442045911658551 0 -0.079506442726966622 -0.19362577459948219 0 -0.089369030920126963 -0.1732707743578942 0 -0.1107512355661594 -0.16096683979900789 0 -0.096011965921864201 -0.14265464397282879 0 -0.09921486728828334 -0.20109800384388701 0 -0.089369030920126963 -0.1732707743578942 0 -0.1156293974943295 -0.1822747327150937 0 -0.089369030920126963 -0.1732707743578942 0 -0.1156293974943295 -0.1822747327150937 0 -0.1107512355661594 -0.16096683979900789 0 -0.1156293974943295 -0.1822747327150937 0 -0.13204392770037571 -0.1634514615863005 0 -0.1156293974943295 -0.1822747327150937 0 -0.1107512355661594 -0.16096683979900789 0 -0.13204392770037571 -0.1634514615863005 0 -0.1107512355661594 -0.16096683979900789 0 -0.12070185579410091 -0.1431825863629223 0 -0.13204392770037571 -0.1634514615863005 0 -0.1107512355661594 -0.16096683979900789 0 -0.12070185579410091 -0.1431825863629223 0 -0.096011965921864201 -0.14265464397282879 0 -0.1071147179002416 -0.1244919901550422 0 -0.12070185579410091 -0.1431825863629223 0 -0.096011965921864201 -0.14265464397282879 0 -0.093262550211769629 -0.1231040070079162 0 -0.1071147179002416 -0.1244919901550422 0 -0.096011965921864201 -0.14265464397282879 0 -0.1071147179002416 -0.1244919901550422 0 -0.12070185579410091 -0.1431825863629223 0 -0.1306137014228527 -0.1212095633787966 0 -0.12070185579410091 -0.1431825863629223 0 -0.14845845790642179 -0.14462819045750719 0 -0.1306137014228527 -0.1212095633787966 0 -0.14845845790642179 -0.14462819045750719 0 -0.1306137014228527 -0.1212095633787966 0 -0.15036797716661271 -0.14243845987679379 0 -0.14845845790642179 -0.14462819045750719 0 -0.1306137014228527 -0.1212095633787966 0 -0.15406265534163929 -0.1294064941378926 0 -0.15036797716661271 -0.14243845987679379 0 -0.1306137014228527 -0.1212095633787966 0 -0.15406265534163929 -0.1294064941378926 0 -0.15036797716661271 -0.14243845987679379 0 -0.1564494690737798 -0.13971242061594299 0 -0.1543278084257422 -0.1453912472931165 0 -0.14845845790642179 -0.14462819045750719 0 -0.15894149653025619 -0.15184230729274609 0 -0.15519343748037609 -0.14309809199123349 0 -0.15036797716661271 -0.14243845987679379 0 -0.1564494690737798 -0.13971242061594299 0 -0.1543278084257422 -0.1453912472931165 0 -0.15519343748037609 -0.14309809199123349 0 -0.15036797716661271 -0.14243845987679379 0 -0.1543278084257422 -0.1453912472931165 0 -0.15036797716661271 -0.14243845987679379 0 -0.14845845790642179 -0.14462819045750719 0 -0.15036797716661271 -0.14243845987679379 0 -0.14845845790642179 -0.14462819045750719 0 -0.12070185579410091 -0.1431825863629223 0 -0.14845845790642179 -0.14462819045750719 0 -0.13204392770037571 -0.1634514615863005 0 -0.14845845790642179 -0.14462819045750719 0 -0.13204392770037571 -0.1634514615863005 0 -0.13204392770037571 -0.1634514615863005 0 -0.1475860696211248 -0.17640031700015249 0 -0.13505851963374399 -0.18906788910329131 0 -0.1156293974943295 -0.1822747327150937 0 -0.13204392770037571 -0.1634514615863005 0 -0.13505851963374399 -0.18906788910329131 0 -0.1475860696211248 -0.17640031700015249 0 -0.1655722477793394 -0.1670875310098065 0 -0.15496537504316019 -0.19429807729602311 0 -0.1475860696211248 -0.17640031700015249 0 -0.13505851963374399 -0.18906788910329131 0 -0.15496537504316019 -0.19429807729602311 0 -0.1475860696211248 -0.17640031700015249 0 -0.14862352044039201 -0.16347018067920821 0 -0.1655722477793394 -0.1670875310098065 0 -0.14845845790642179 -0.14462819045750719 0 -0.13204392770037571 -0.1634514615863005 0 -0.14862352044039201 -0.16347018067920821 0 -0.14845845790642179 -0.14462819045750719 0 -0.14862352044039201 -0.16347018067920821 0 -0.1655722477793394 -0.1670875310098065 0 -0.13204392770037571 -0.1634514615863005 0 -0.1475860696211248 -0.17640031700015249 0 -0.14862352044039201 -0.16347018067920821 0 -0.1655722477793394 -0.1670875310098065 0 -0.1716614177265566 -0.15146656102038991 0 -0.1655722477793394 -0.1670875310098065 0 -0.15894149653025619 -0.15184230729274609 0 -0.1716614177265566 -0.15146656102038991 0 -0.1655722477793394 -0.1670875310098065 0 -0.17557921295501691 -0.18022020591375351 0 -0.1689483943248192 -0.19264195369377959 0 -0.1655722477793394 -0.1670875310098065 0 -0.15496537504316019 -0.19429807729602311 0 -0.1689483943248192 -0.19264195369377959 0 -0.1655722477793394 -0.1670875310098065 0 -0.15496537504316019 -0.19429807729602311 0 -0.1655722477793394 -0.1670875310098065 0 -0.17557921295501691 -0.18022020591375351 0 -0.17557921295501691 -0.18022020591375351 0 -0.18239484980351819 -0.16464781923938721 0 -0.1907059301477185 -0.18468107337543721 0 -0.1655722477793394 -0.1670875310098065 0 -0.17557921295501691 -0.18022020591375351 0 -0.18239484980351819 -0.16464781923938721 0 -0.1655722477793394 -0.1670875310098065 0 -0.18239484980351819 -0.16464781923938721 0 -0.1716614177265566 -0.15146656102038991 0 -0.18239484980351819 -0.16464781923938721 0 -0.1716614177265566 -0.15146656102038991 0 -0.1894311146879058 -0.1465309504005988 0 -0.17775058767377289 -0.13584559103097291 0 -0.1716614177265566 -0.15146656102038991 0 -0.1894311146879058 -0.1465309504005988 0 -0.17775058767377289 -0.13584559103097291 0 -0.1716614177265566 -0.15146656102038991 0 -0.17775058767377289 -0.13584559103097291 0 -0.1894311146879058 -0.1465309504005988 0 -0.17775058767377289 -0.13584559103097291 0 -0.19823449762692411 -0.13229999761030051 0 -0.18534812722118199 -0.1163550958908785 0 -0.17775058767377289 -0.13584559103097291 0 -0.18534812722118199 -0.1163550958908785 0 -0.15406265534163929 -0.1294064941378926 0 -0.16394560233522651 -0.1386698702264933 0 -0.15606779039194271 -0.1160101434681408 0 -0.17775058767377289 -0.13584559103097291 0 -0.16394560233522651 -0.1386698702264933 0 -0.15606779039194271 -0.1160101434681408 0 -0.17775058767377289 -0.13584559103097291 0 -0.15606779039194271 -0.1160101434681408 0 -0.15406265534163929 -0.1294064941378926 0 -0.16394560233522651 -0.1386698702264933 0 -0.1564494690737798 -0.13971242061594299 0 -0.16394560233522651 -0.1386698702264933 0 -0.1564494690737798 -0.13971242061594299 0 -0.15962849525536979 -0.1448502401790808 0 -0.14845845790642179 -0.14462819045750719 0 -0.1655722477793394 -0.1670875310098065 0 -0.14845845790642179 -0.14462819045750719 0 -0.1655722477793394 -0.1670875310098065 0 -0.15894149653025619 -0.15184230729274609 0 -0.15519343748037609 -0.14309809199123349 0 -0.1564494690737798 -0.13971242061594299 0 -0.15962849525536979 -0.1448502401790808 0 -0.1543278084257422 -0.1453912472931165 0 -0.15519343748037609 -0.14309809199123349 0 -0.15962849525536979 -0.1448502401790808 0 -0.1543278084257422 -0.1453912472931165 0 -0.15962849525536979 -0.1448502401790808 0 -0.15894149653025619 -0.15184230729274609 0 -0.15962849525536979 -0.1448502401790808 0 -0.15894149653025619 -0.15184230729274609 0 -0.1716614177265566 -0.15146656102038991 0 -0.17775058767377289 -0.13584559103097291 0 -0.16394560233522651 -0.1386698702264933 0 -0.1716614177265566 -0.15146656102038991 0 -0.16394560233522651 -0.1386698702264933 0 -0.15962849525536979 -0.1448502401790808 0 -0.1716614177265566 -0.15146656102038991 0 -0.1534429259631987 -0.25724555178864622 0 -0.15289321433053751 -0.246830478479277 0 -0.1378886282313006 -0.2381062402767252 0 -0.1534429259631987 -0.25724555178864622 0 -0.1378886282313006 -0.2381062402767252 0 -0.15348527020851541 -0.23913552791147211 0 -0.1378886282313006 -0.2381062402767252 0 -0.15430752157141919 -0.22794821467022949 0 -0.15289321433053751 -0.246830478479277 0 -0.15348527020851541 -0.23913552791147211 0 -0.1601832428566283 -0.24550858739866141 0 -0.15289321433053751 -0.246830478479277 0 -0.15348527020851541 -0.23913552791147211 0 -0.1378886282313006 -0.2381062402767252 0 -0.1459019403517107 -0.25564217047089421 0 -0.13375162957080131 -0.24871916986845621 0 -0.1378886282313006 -0.2381062402767252 0 -0.13375162957080131 -0.24871916986845621 0 -0.1378886282313006 -0.2381062402767252 0 -0.127825895831608 -0.22987551408160201 0 -0.13375162957080131 -0.24871916986845621 0 -0.1378886282313006 -0.2381062402767252 0 -0.13218950310710981 -0.25272660122947088 0 -0.1218823470606431 -0.24640061544388489 0 -0.13375162957080131 -0.24871916986845621 0 -0.127825895831608 -0.22987551408160201 0 -0.14435850230698141 -0.22150862358223991 0 -0.13086176299679239 -0.21746526838305219 0 -0.1378886282313006 -0.2381062402767252 0 -0.127825895831608 -0.22987551408160201 0 -0.14435850230698141 -0.22150862358223991 0 -0.11989889803527461 -0.22145143588075511 0 -0.127825895831608 -0.22987551408160201 0 -0.13086176299679239 -0.21746526838305219 0 -0.1378886282313006 -0.2381062402767252 0 -0.14435850230698141 -0.22150862358223991 0 -0.14435850230698141 -0.22150862358223991 0 -0.15430752157141919 -0.22794821467022949 0 -0.16410544360365359 -0.21493654602220469 0 -0.1378886282313006 -0.2381062402767252 0 -0.14435850230698141 -0.22150862358223991 0 -0.15430752157141919 -0.22794821467022949 0 -0.14435850230698141 -0.22150862358223991 0 -0.15496537504316019 -0.19429807729602311 0 -0.14435850230698141 -0.22150862358223991 0 -0.1373527607074172 -0.20563907323320921 0 -0.15496537504316019 -0.19429807729602311 0 -0.14435850230698141 -0.22150862358223991 0 -0.15496537504316019 -0.19429807729602311 0 -0.16410544360365359 -0.21493654602220469 0 -0.14435850230698141 -0.22150862358223991 0 -0.1373527607074172 -0.20563907323320921 0 -0.13086176299679239 -0.21746526838305219 0 -0.1210853022939376 -0.205467400633562 0 -0.1373527607074172 -0.20563907323320921 0 -0.13086176299679239 -0.21746526838305219 0 -0.1210853022939376 -0.205467400633562 0 -0.1373527607074172 -0.20563907323320921 0 -0.13505851963374399 -0.18906788910329131 0 -0.1373527607074172 -0.20563907323320921 0 -0.13505851963374399 -0.18906788910329131 0 -0.15496537504316019 -0.19429807729602311 0 -0.1689483943248192 -0.19264195369377959 0 -0.17994482166635981 -0.2014366202218163 0 -0.16410544360365359 -0.21493654602220469 0 -0.15496537504316019 -0.19429807729602311 0 -0.1689483943248192 -0.19264195369377959 0 -0.16410544360365359 -0.21493654602220469 0 -0.17557921295501691 -0.18022020591375351 0 -0.1689483943248192 -0.19264195369377959 0 -0.17994482166635981 -0.2014366202218163 0 -0.17557921295501691 -0.18022020591375351 0 -0.17994482166635981 -0.2014366202218163 0 -0.1907059301477185 -0.18468107337543721 0 -0.17994482166635981 -0.2014366202218163 0 -0.1784102433228649 -0.21681777692650089 0 -0.16410544360365359 -0.21493654602220469 0 -0.17994482166635981 -0.2014366202218163 0 -0.18904495760185211 -0.20873870471059999 0 -0.19252771524915421 -0.19930647688205899 0 -0.17994482166635981 -0.2014366202218163 0 -0.1784102433228649 -0.21681777692650089 0 -0.18904495760185211 -0.20873870471059999 0 -0.1784102433228649 -0.21681777692650089 0 -0.19175951728552271 -0.21959172261586679 0 -0.18904495760185211 -0.20873870471059999 0 -0.15430752157141919 -0.22794821467022949 0 -0.16410544360365359 -0.21493654602220469 0 -0.16877954452522659 -0.2255120540677526 0 -0.15430752157141919 -0.22794821467022949 0 -0.16877954452522659 -0.2255120540677526 0 -0.16324537569009509 -0.2357306359809743 0 -0.15348527020851541 -0.23913552791147211 0 -0.15430752157141919 -0.22794821467022949 0 -0.16324537569009509 -0.2357306359809743 0 -0.16877954452522659 -0.2255120540677526 0 -0.17781387366555559 -0.23090770197000129 0 -0.16324537569009509 -0.2357306359809743 0 -0.1784102433228649 -0.21681777692650089 0 -0.16410544360365359 -0.21493654602220469 0 -0.16877954452522659 -0.2255120540677526 0 -0.1784102433228649 -0.21681777692650089 0 -0.16877954452522659 -0.2255120540677526 0 -0.17781387366555559 -0.23090770197000129 0 -0.1784102433228649 -0.21681777692650089 0 -0.17781387366555559 -0.23090770197000129 0 -0.19175951728552271 -0.21959172261586679 0 -0.17781387366555559 -0.23090770197000129 0 -0.1805311654956796 -0.2411950136452527 0 -0.19410287643929239 -0.23312434657521411 0 -0.17781387366555559 -0.23090770197000129 0 -0.1805311654956796 -0.2411950136452527 0 -0.16955513552828311 -0.24305067226283769 0 -0.17679077873490559 -0.25046109420941731 0 -0.1805311654956796 -0.2411950136452527 0 -0.18863044441395099 -0.24733650333174401 0 -0.17679077873490559 -0.25046109420941731 0 -0.1805311654956796 -0.2411950136452527 0 -0.16955513552828311 -0.24305067226283769 0 -0.16709258238786229 -0.25188408856254202 0 -0.17679077873490559 -0.25046109420941731 0 -0.16955513552828311 -0.24305067226283769 0 -0.16709258238786229 -0.25188408856254202 0 -0.16955513552828311 -0.24305067226283769 0 -0.1601832428566283 -0.24550858739866141 0 -0.17781387366555559 -0.23090770197000129 0 -0.16955513552828311 -0.24305067226283769 0 -0.16324537569009509 -0.2357306359809743 0 -0.16955513552828311 -0.24305067226283769 0 -0.16324537569009509 -0.2357306359809743 0 -0.1601832428566283 -0.24550858739866141 0 -0.15348527020851541 -0.23913552791147211 0 -0.16324537569009509 -0.2357306359809743 0 -0.1601832428566283 -0.24550858739866141 0 -0.1593809120407062 -0.25278805690175971 0 -0.15289321433053751 -0.246830478479277 0 -0.1601832428566283 -0.24550858739866141 0 -0.20565562739327201 -0.24334207984173631 0 -0.19410287643929239 -0.23312434657521411 0 -0.21201774175915139 -0.2290986139018284 0 -0.21472073189145299 -0.25725591714607071 0 -0.20565562739327201 -0.24334207984173631 0 -0.22837296648480071 -0.23789375384220129 0 -0.20565562739327201 -0.24334207984173631 0 -0.21201774175915139 -0.2290986139018284 0 -0.22837296648480071 -0.23789375384220129 0 -0.20565562739327201 -0.24334207984173631 0 -0.18863044441395099 -0.24733650333174401 0 -0.19410287643929239 -0.23312434657521411 0 -0.1805311654956796 -0.2411950136452527 0 -0.18863044441395099 -0.24733650333174401 0 -0.19410287643929239 -0.23312434657521411 0 -0.17781387366555559 -0.23090770197000129 0 -0.19410287643929239 -0.23312434657521411 0 -0.19175951728552271 -0.21959172261586679 0 -0.19410287643929239 -0.23312434657521411 0 -0.19175951728552271 -0.21959172261586679 0 -0.20443040571370949 -0.21985141578154491 0 -0.21201774175915139 -0.2290986139018284 0 -0.20443040571370949 -0.21985141578154491 0 -0.22630383013383959 -0.21240708539258099 0 -0.19410287643929239 -0.23312434657521411 0 -0.21201774175915139 -0.2290986139018284 0 -0.20443040571370949 -0.21985141578154491 0 -0.20157622681128409 -0.2075672839719423 0 -0.21557055542943429 -0.1904257004922347 0 -0.22630383013383959 -0.21240708539258099 0 -0.20157622681128409 -0.2075672839719423 0 -0.22630383013383959 -0.21240708539258099 0 -0.20443040571370949 -0.21985141578154491 0 -0.20157622681128409 -0.2075672839719423 0 -0.22630383013383959 -0.21240708539258099 0 -0.19175951728552271 -0.21959172261586679 0 -0.20443040571370949 -0.21985141578154491 0 -0.20157622681128409 -0.2075672839719423 0 -0.19175951728552271 -0.21959172261586679 0 -0.20157622681128409 -0.2075672839719423 0 -0.19175951728552271 -0.21959172261586679 0 -0.18904495760185211 -0.20873870471059999 0 -0.20157622681128409 -0.2075672839719423 0 -0.18904495760185211 -0.20873870471059999 0 -0.20157622681128409 -0.2075672839719423 0 -0.19252771524915421 -0.19930647688205899 0 -0.17994482166635981 -0.2014366202218163 0 -0.19252771524915421 -0.19930647688205899 0 -0.1907059301477185 -0.18468107337543721 0 -0.20157622681128409 -0.2075672839719423 0 -0.19252771524915421 -0.19930647688205899 0 -0.20187756758401409 -0.19506767240709361 0 -0.19252771524915421 -0.19930647688205899 0 -0.20187756758401409 -0.19506767240709361 0 -0.1907059301477185 -0.18468107337543721 0 -0.20157622681128409 -0.2075672839719423 0 -0.21557055542943429 -0.1904257004922347 0 -0.20187756758401409 -0.19506767240709361 0 -0.21557055542943429 -0.1904257004922347 0 -0.2038146335316797 -0.1820121315948606 0 -0.20157622681128409 -0.2075672839719423 0 -0.20187756758401409 -0.19506767240709361 0 -0.21557055542943429 -0.1904257004922347 0 -0.21557055542943429 -0.1904257004922347 0 -0.23533053747689989 -0.1962925907305976 0 -0.22630383013383959 -0.21240708539258099 0 -0.23533053747689989 -0.1962925907305976 0 -0.25103143345639523 -0.21724688681321891 0 -0.25418198431724581 -0.18809916394242601 0 -0.22630383013383959 -0.21240708539258099 0 -0.25103143345639523 -0.21724688681321891 0 -0.23533053747689989 -0.1962925907305976 0 -0.22630383013383959 -0.21240708539258099 0 -0.25103143345639523 -0.21724688681321891 0 -0.21201774175915139 -0.2290986139018284 0 -0.22630383013383959 -0.21240708539258099 0 -0.22837296648480071 -0.23789375384220129 0 -0.22630383013383959 -0.21240708539258099 0 -0.22837296648480071 -0.23789375384220129 0 -0.25103143345639523 -0.21724688681321891 0 -0.22837296648480071 -0.23789375384220129 0 -0.25431856302814809 -0.24833495949118861 0 -0.25103143345639523 -0.21724688681321891 0 -0.2335542019388327 -0.26090262277066528 0 -0.22837296648480071 -0.23789375384220129 0 -0.25431856302814809 -0.24833495949118861 0 -0.20708483324238849 -0.15128624944667929 0 -0.22647357207813959 -0.15205360930679629 0 -0.2195633859389316 -0.1340578990397249 0 -0.20708483324238849 -0.15128624944667929 0 -0.19823449762692411 -0.13229999761030051 0 -0.2195633859389316 -0.1340578990397249 0 -0.19823449762692411 -0.13229999761030051 0 -0.2195633859389316 -0.1340578990397249 0 -0.21022893699736381 -0.1097241998529486 0 -0.17775058767377289 -0.13584559103097291 0 -0.19823449762692411 -0.13229999761030051 0 -0.1894311146879058 -0.1465309504005988 0 -0.20708483324238849 -0.15128624944667929 0 -0.1894311146879058 -0.1465309504005988 0 -0.19351686899232889 -0.15854259719770419 0 -0.20708483324238849 -0.15128624944667929 0 -0.19823449762692411 -0.13229999761030051 0 -0.1894311146879058 -0.1465309504005988 0 -0.20708483324238849 -0.15128624944667929 0 -0.19351686899232889 -0.15854259719770419 0 -0.19880271024428661 -0.17007658736909009 0 -0.18239484980351819 -0.16464781923938721 0 -0.1894311146879058 -0.1465309504005988 0 -0.19351686899232889 -0.15854259719770419 0 -0.18239484980351819 -0.16464781923938721 0 -0.19351686899232889 -0.15854259719770419 0 -0.19880271024428661 -0.17007658736909009 0 -0.18239484980351819 -0.16464781923938721 0 -0.19880271024428661 -0.17007658736909009 0 -0.1907059301477185 -0.18468107337543721 0 -0.19880271024428661 -0.17007658736909009 0 -0.1907059301477185 -0.18468107337543721 0 -0.2038146335316797 -0.1820121315948606 0 -0.20187756758401409 -0.19506767240709361 0 -0.1907059301477185 -0.18468107337543721 0 -0.2038146335316797 -0.1820121315948606 0 -0.21557055542943429 -0.1904257004922347 0 -0.2038146335316797 -0.1820121315948606 0 -0.21355186476225221 -0.16985639920369799 0 -0.19880271024428661 -0.17007658736909009 0 -0.2038146335316797 -0.1820121315948606 0 -0.21355186476225221 -0.16985639920369799 0 -0.20708483324238849 -0.15128624944667929 0 -0.21355186476225221 -0.16985639920369799 0 -0.22647357207813959 -0.15205360930679629 0 -0.20708483324238849 -0.15128624944667929 0 -0.19880271024428661 -0.17007658736909009 0 -0.21355186476225221 -0.16985639920369799 0 -0.22956488404758479 -0.1732841170125273 0 -0.2435592126657353 -0.1561425335328199 0 -0.22647357207813959 -0.15205360930679629 0 -0.21355186476225221 -0.16985639920369799 0 -0.22956488404758479 -0.1732841170125273 0 -0.22647357207813959 -0.15205360930679629 0 -0.21557055542943429 -0.1904257004922347 0 -0.21355186476225221 -0.16985639920369799 0 -0.22956488404758479 -0.1732841170125273 0 -0.21557055542943429 -0.1904257004922347 0 -0.22956488404758479 -0.1732841170125273 0 -0.21557055542943429 -0.1904257004922347 0 -0.23533053747689989 -0.1962925907305976 0 -0.22956488404758479 -0.1732841170125273 0 -0.23533053747689989 -0.1962925907305976 0 -0.22956488404758479 -0.1732841170125273 0 -0.25418198431724581 -0.18809916394242601 0 -0.22956488404758479 -0.1732841170125273 0 -0.25418198431724581 -0.18809916394242601 0 -0.2565438833259911 -0.1687602707777138 0 -0.22956488404758479 -0.1732841170125273 0 -0.2435592126657353 -0.1561425335328199 0 -0.22956488404758479 -0.1732841170125273 0 -0.2435592126657353 -0.1561425335328199 0 -0.2565438833259911 -0.1687602707777138 0 -0.2435592126657353 -0.1561425335328199 0 -0.22647357207813959 -0.15205360930679629 0 -0.2432602079730701 -0.13485583854350039 0 -0.22647357207813959 -0.15205360930679629 0 -0.2195633859389316 -0.1340578990397249 0 -0.2432602079730701 -0.13485583854350039 0 -0.2195633859389316 -0.1340578990397249 0 -0.2432602079730701 -0.13485583854350039 0 -0.23065476516460279 -0.11957242830579699 0 -0.2432602079730701 -0.13485583854350039 0 -0.2499653418643101 -0.1102460646797562 0 -0.23065476516460279 -0.11957242830579699 0 -0.2499653418643101 -0.1102460646797562 0 -0.2308399038819596 -0.1034577205422559 0 -0.23065476516460279 -0.11957242830579699 0 -0.2308399038819596 -0.1034577205422559 0 -0.25308440776240432 -0.086371671251396109 0 -0.2499653418643101 -0.1102460646797562 0 -0.2308399038819596 -0.1034577205422559 0 -0.25308440776240432 -0.086371671251396109 0 -0.2308399038819596 -0.1034577205422559 0 -0.21022893699736381 -0.1097241998529486 0 -0.21520721362926831 -0.098298511723915558 0 -0.2308399038819596 -0.1034577205422559 0 -0.22013457808717909 -0.089221868029860679 0 -0.21520721362926831 -0.098298511723915558 0 -0.2308399038819596 -0.1034577205422559 0 -0.23065476516460279 -0.11957242830579699 0 -0.21022893699736381 -0.1097241998529486 0 -0.2195633859389316 -0.1340578990397249 0 -0.23065476516460279 -0.11957242830579699 0 -0.21022893699736381 -0.1097241998529486 0 -0.2335598957907816 -0.079883889973887123 0 -0.24475965461883589 -0.059498385283178377 0 -0.2582325144520296 -0.070050845257802419 0 -0.2335598957907816 -0.079883889973887123 0 -0.2582325144520296 -0.070050845257802419 0 -0.25308440776240432 -0.086371671251396109 0 -0.2308399038819596 -0.1034577205422559 0 -0.2335598957907816 -0.079883889973887123 0 -0.25308440776240432 -0.086371671251396109 0 -0.2308399038819596 -0.1034577205422559 0 -0.22013457808717909 -0.089221868029860679 0 -0.2335598957907816 -0.079883889973887123 0 -0.22013457808717909 -0.089221868029860679 0 -0.2335598957907816 -0.079883889973887123 0 -0.21963876375789801 -0.077814354495200549 0 -0.2335598957907816 -0.079883889973887123 0 -0.21595644614104051 -0.065738508165203102 0 -0.24475965461883589 -0.059498385283178377 0 -0.21595644614104051 -0.065738508165203102 0 -0.24475965461883589 -0.059498385283178377 0 -0.2335598957907816 -0.079883889973887123 0 -0.21963876375789801 -0.077814354495200549 0 -0.21595644614104051 -0.065738508165203102 0 -0.20438945881064449 -0.068244458930106389 0 -0.21100771399754009 -0.086966924160961745 0 -0.21595644614104051 -0.065738508165203102 0 -0.21100771399754009 -0.086966924160961745 0 -0.20438945881064449 -0.068244458930106389 0 -0.21595644614104051 -0.065738508165203102 0 -0.21100771399754009 -0.086966924160961745 0 -0.21963876375789801 -0.077814354495200549 0 -0.21595644614104051 -0.065738508165203102 0 -0.21100771399754009 -0.086966924160961745 0 -0.20438945881064449 -0.068244458930106389 0 -0.21595644614104051 -0.065738508165203102 0 -0.20438945881064449 -0.068244458930106389 0 -0.21595644614104051 -0.065738508165203102 0 -0.20711132549122371 -0.057203435059411119 0 -0.20438945881064449 -0.068244458930106389 0 -0.21100771399754009 -0.086966924160961745 0 -0.19851231957361129 -0.085310821531315487 0 -0.22013457808717909 -0.089221868029860679 0 -0.21963876375789801 -0.077814354495200549 0 -0.21100771399754009 -0.086966924160961745 0 -0.22013457808717909 -0.089221868029860679 0 -0.21100771399754009 -0.086966924160961745 0 -0.21520721362926831 -0.098298511723915558 0 -0.21100771399754009 -0.086966924160961745 0 -0.19851231957361129 -0.085310821531315487 0 -0.20550431009004061 -0.095676697317907802 0 -0.21100771399754009 -0.086966924160961745 0 -0.21520721362926831 -0.098298511723915558 0 -0.20550431009004061 -0.095676697317907802 0 -0.19851231957361129 -0.085310821531315487 0 -0.18118326058104209 -0.08825419183970401 0 -0.18409944718507371 -0.07264022497537044 0 -0.19851231957361129 -0.085310821531315487 0 -0.19294566676858971 -0.096864600750783431 0 -0.18118326058104209 -0.08825419183970401 0 -0.19851231957361129 -0.085310821531315487 0 -0.20550431009004061 -0.095676697317907802 0 -0.19294566676858971 -0.096864600750783431 0 -0.20438945881064449 -0.068244458930106389 0 -0.19851231957361129 -0.085310821531315487 0 -0.18409944718507371 -0.07264022497537044 0 -0.20438945881064449 -0.068244458930106389 0 -0.18409944718507371 -0.07264022497537044 0 -0.18769526278089041 -0.057829612445021099 0 -0.20438945881064449 -0.068244458930106389 0 -0.18409944718507371 -0.07264022497537044 0 -0.21022893699736381 -0.1097241998529486 0 -0.21520721362926831 -0.098298511723915558 0 -0.20550431009004061 -0.095676697317907802 0 -0.21022893699736381 -0.1097241998529486 0 -0.20550431009004061 -0.095676697317907802 0 -0.19294566676858971 -0.096864600750783431 0 -0.19294566676858971 -0.096864600750783431 0 -0.18534812722118199 -0.1163550958908785 0 -0.21022893699736381 -0.1097241998529486 0 -0.19294566676858971 -0.096864600750783431 0 -0.18534812722118199 -0.1163550958908785 0 -0.19823449762692411 -0.13229999761030051 0 -0.21022893699736381 -0.1097241998529486 0 -0.18534812722118199 -0.1163550958908785 0 -0.18534812722118199 -0.1163550958908785 0 -0.17423934197139679 -0.1017815859784342 0 -0.15606779039194271 -0.1160101434681408 0 -0.17775058767377289 -0.13584559103097291 0 -0.18534812722118199 -0.1163550958908785 0 -0.15606779039194271 -0.1160101434681408 0 -0.16057304666404501 -0.10079887419961479 0 -0.17423934197139679 -0.1017815859784342 0 -0.15606779039194271 -0.1160101434681408 0 -0.16057304666404501 -0.10079887419961479 0 -0.16746185343044401 -0.091445336260546128 0 -0.1570966781871318 -0.090327755750333361 0 -0.16057304666404501 -0.10079887419961479 0 -0.17423934197139679 -0.1017815859784342 0 -0.16746185343044401 -0.091445336260546128 0 -0.17423934197139679 -0.1017815859784342 0 -0.18118326058104209 -0.08825419183970401 0 -0.16746185343044401 -0.091445336260546128 0 -0.19294566676858971 -0.096864600750783431 0 -0.18534812722118199 -0.1163550958908785 0 -0.17423934197139679 -0.1017815859784342 0 -0.19294566676858971 -0.096864600750783431 0 -0.17423934197139679 -0.1017815859784342 0 -0.18118326058104209 -0.08825419183970401 0 -0.18118326058104209 -0.08825419183970401 0 -0.18409944718507371 -0.07264022497537044 0 -0.16915717098214109 -0.081397787743409861 0 -0.18118326058104209 -0.08825419183970401 0 -0.16746185343044401 -0.091445336260546128 0 -0.16915717098214109 -0.081397787743409861 0 -0.18409944718507371 -0.07264022497537044 0 -0.1702117591297739 -0.06777753321031553 0 -0.16380943555950259 -0.077035991020633382 0 -0.18409944718507371 -0.07264022497537044 0 -0.16380943555950259 -0.077035991020633382 0 -0.16915717098214109 -0.081397787743409861 0 -0.18409944718507371 -0.07264022497537044 0 -0.17187825396406881 -0.057945450019426657 0 -0.18769526278089041 -0.057829612445021099 0 -0.18409944718507371 -0.07264022497537044 0 -0.16380943555950259 -0.077035991020633382 0 -0.18409944718507371 -0.07264022497537044 0 -0.1702117591297739 -0.06777753321031553 0 -0.17187825396406881 -0.057945450019426657 0 -0.16380943555950259 -0.077035991020633382 0 -0.16105989981045041 -0.063488466825831633 0 -0.14595160177326619 -0.062470528310013429 0 -0.1702117591297739 -0.06777753321031553 0 -0.16105989981045041 -0.063488466825831633 0 -0.17187825396406881 -0.057945450019426657 0 -0.1702117591297739 -0.06777753321031553 0 -0.16380943555950259 -0.077035991020633382 0 -0.16105989981045041 -0.063488466825831633 0 -0.16380943555950259 -0.077035991020633382 0 -0.16109871639751261 -0.084134952385501949 0 -0.14796844382834351 -0.080467891152587012 0 -0.16746185343044401 -0.091445336260546128 0 -0.16915717098214109 -0.081397787743409861 0 -0.16109871639751261 -0.084134952385501949 0 -0.16380943555950259 -0.077035991020633382 0 -0.16915717098214109 -0.081397787743409861 0 -0.16109871639751261 -0.084134952385501949 0 -0.16380943555950259 -0.077035991020633382 0 -0.16915717098214109 -0.081397787743409861 0 -0.16746185343044401 -0.091445336260546128 0 -0.16109871639751261 -0.084134952385501949 0 -0.1570966781871318 -0.090327755750333361 0 -0.16380943555950259 -0.077035991020633382 0 -0.14796844382834351 -0.080467891152587012 0 -0.14796844382834351 -0.080467891152587012 0 -0.13497135686491851 -0.078315161523928284 0 -0.1484932433812913 -0.094043062253026791 0 -0.1570966781871318 -0.090327755750333361 0 -0.14796844382834351 -0.080467891152587012 0 -0.1484932433812913 -0.094043062253026791 0 -0.16109871639751261 -0.084134952385501949 0 -0.1570966781871318 -0.090327755750333361 0 -0.14796844382834351 -0.080467891152587012 0 -0.16380943555950259 -0.077035991020633382 0 -0.14796844382834351 -0.080467891152587012 0 -0.14595160177326619 -0.062470528310013429 0 -0.16380943555950259 -0.077035991020633382 0 -0.14595160177326619 -0.062470528310013429 0 -0.14796844382834351 -0.080467891152587012 0 -0.13497135686491851 -0.078315161523928284 0 -0.14595160177326619 -0.062470528310013429 0 -0.1158705629695205 -0.060236298698018297 0 -0.13497135686491851 -0.078315161523928284 0 -0.1158705629695205 -0.060236298698018297 0 -0.13497135686491851 -0.078315161523928284 0 -0.13122182239868371 -0.062231763532838429 0 -0.13497135686491851 -0.078315161523928284 0 -0.13122182239868371 -0.062231763532838429 0 -0.14595160177326619 -0.062470528310013429 0 -0.112702195828283 -0.076339248342475546 0 -0.13497135686491851 -0.078315161523928284 0 -0.13438499311011279 -0.096174695905308166 0 -0.13497135686491851 -0.078315161523928284 0 -0.13438499311011279 -0.096174695905308166 0 -0.1484932433812913 -0.094043062253026791 0 -0.11276894493928399 -0.097790936300085646 0 -0.13438499311011279 -0.096174695905308166 0 -0.1306137014228527 -0.1212095633787966 0 -0.13438499311011279 -0.096174695905308166 0 -0.1306137014228527 -0.1212095633787966 0 -0.15606779039194271 -0.1160101434681408 0 -0.15406265534163929 -0.1294064941378926 0 -0.1306137014228527 -0.1212095633787966 0 -0.15606779039194271 -0.1160101434681408 0 -0.13438499311011279 -0.096174695905308166 0 -0.15606779039194271 -0.1160101434681408 0 -0.1484932433812913 -0.094043062253026791 0 -0.16057304666404501 -0.10079887419961479 0 -0.15606779039194271 -0.1160101434681408 0 -0.1484932433812913 -0.094043062253026791 0 -0.13438499311011279 -0.096174695905308166 0 -0.15606779039194271 -0.1160101434681408 0 -0.16057304666404501 -0.10079887419961479 0 -0.1570966781871318 -0.090327755750333361 0 -0.1484932433812913 -0.094043062253026791 0 -0.14513665439653431 -0.02122229521611602 0 -0.15148395360685291 -0.031475856168514699 0 -0.16129500549156001 -0.024264335985147129 0 -0.14513665439653431 -0.02122229521611602 0 -0.1346415055917565 -0.031432898451717602 0 -0.15148395360685291 -0.031475856168514699 0 -0.14513665439653431 -0.02122229521611602 0 -0.15327979458335059 -0.01391829646419882 0 -0.16129500549156001 -0.024264335985147129 0 -0.1412848112475209 -0.008091449167619497 0 -0.15773416148281841 -0.0035868741371463562 0 -0.14801408494475049 0.0031182785745780331 0 -0.15327979458335059 -0.01391829646419882 0 -0.1412848112475209 -0.008091449167619497 0 -0.15773416148281841 -0.0035868741371463562 0 -0.14513665439653431 -0.02122229521611602 0 -0.15327979458335059 -0.01391829646419882 0 -0.1412848112475209 -0.008091449167619497 0 -0.1236693299605585 -0.0137973575501921 0 -0.1412848112475209 -0.008091449167619497 0 -0.12735709500343681 0.004015926865657337 0 -0.1412848112475209 -0.008091449167619497 0 -0.12735709500343681 0.004015926865657337 0 -0.14801408494475049 0.0031182785745780331 0 -0.1236693299605585 -0.0137973575501921 0 -0.1412848112475209 -0.008091449167619497 0 -0.13426109495296229 -0.02049569832685658 0 -0.1236693299605585 -0.0137973575501921 0 -0.1221370268088495 -0.025998648103035 0 -0.13426109495296229 -0.02049569832685658 0 -0.14513665439653431 -0.02122229521611602 0 -0.1412848112475209 -0.008091449167619497 0 -0.13426109495296229 -0.02049569832685658 0 -0.14513665439653431 -0.02122229521611602 0 -0.13426109495296229 -0.02049569832685658 0 -0.1346415055917565 -0.031432898451717602 0 -0.1221370268088495 -0.025998648103035 0 -0.12530131535501859 -0.034952786400489197 0 -0.1346415055917565 -0.031432898451717602 0 -0.1221370268088495 -0.025998648103035 0 -0.13426109495296229 -0.02049569832685658 0 -0.1346415055917565 -0.031432898451717602 0 -0.12530131535501859 -0.034952786400489197 0 -0.1346415055917565 -0.031432898451717602 0 -0.12809376798702951 -0.047905065599393698 0 -0.1346415055917565 -0.031432898451717602 0 -0.12809376798702951 -0.047905065599393698 0 -0.14629371500633531 -0.042796653234188263 0 -0.12809376798702951 -0.047905065599393698 0 -0.14595160177326619 -0.062470528310013429 0 -0.12809376798702951 -0.047905065599393698 0 -0.14595160177326619 -0.062470528310013429 0 -0.14629371500633531 -0.042796653234188263 0 -0.13122182239868371 -0.062231763532838429 0 -0.12809376798702951 -0.047905065599393698 0 -0.14595160177326619 -0.062470528310013429 0 -0.1158705629695205 -0.060236298698018297 0 -0.13122182239868371 -0.062231763532838429 0 -0.12809376798702951 -0.047905065599393698 0 -0.14595160177326619 -0.062470528310013429 0 -0.14629371500633531 -0.042796653234188263 0 -0.15696853651444401 -0.052603520026387289 0 -0.16105989981045041 -0.063488466825831633 0 -0.14595160177326619 -0.062470528310013429 0 -0.15696853651444401 -0.052603520026387289 0 -0.15148395360685291 -0.031475856168514699 0 -0.14629371500633531 -0.042796653234188263 0 -0.16402488563849801 -0.041062174760887443 0 -0.1346415055917565 -0.031432898451717602 0 -0.15148395360685291 -0.031475856168514699 0 -0.14629371500633531 -0.042796653234188263 0 -0.14629371500633531 -0.042796653234188263 0 -0.16402488563849801 -0.041062174760887443 0 -0.15696853651444401 -0.052603520026387289 0 -0.15148395360685291 -0.031475856168514699 0 -0.16402488563849801 -0.041062174760887443 0 -0.16129500549156001 -0.024264335985147129 0 -0.16402488563849801 -0.041062174760887443 0 -0.17409393016306191 -0.030370879776367592 0 -0.16129500549156001 -0.024264335985147129 0 -0.16402488563849801 -0.041062174760887443 0 -0.15696853651444401 -0.052603520026387289 0 -0.17187825396406881 -0.057945450019426657 0 -0.16105989981045041 -0.063488466825831633 0 -0.15696853651444401 -0.052603520026387289 0 -0.17187825396406881 -0.057945450019426657 0 -0.16402488563849801 -0.041062174760887443 0 -0.17187825396406881 -0.057945450019426657 0 -0.18133558272394029 -0.043618149437272283 0 -0.17187825396406881 -0.057945450019426657 0 -0.18133558272394029 -0.043618149437272283 0 -0.18769526278089041 -0.057829612445021099 0 -0.18133558272394029 -0.043618149437272283 0 -0.17409393016306191 -0.030370879776367592 0 -0.18915768363079971 -0.025155098795753519 0 -0.16402488563849801 -0.041062174760887443 0 -0.18133558272394029 -0.043618149437272283 0 -0.17409393016306191 -0.030370879776367592 0 -0.17409393016306191 -0.030370879776367592 0 -0.17549551533112251 -0.014893414490097231 0 -0.18915768363079971 -0.025155098795753519 0 -0.16129500549156001 -0.024264335985147129 0 -0.16350931143073591 -0.01273440345064396 0 -0.17549551533112251 -0.014893414490097231 0 -0.17409393016306191 -0.030370879776367592 0 -0.16129500549156001 -0.024264335985147129 0 -0.17549551533112251 -0.014893414490097231 0 -0.15327979458335059 -0.01391829646419882 0 -0.16129500549156001 -0.024264335985147129 0 -0.16350931143073591 -0.01273440345064396 0 -0.15773416148281841 -0.0035868741371463562 0 -0.16716832075785379 -0.0032078365625175 0 -0.1619193683370386 0.0066468078375689294 0 -0.15773416148281841 -0.0035868741371463562 0 -0.16350931143073591 -0.01273440345064396 0 -0.16716832075785379 -0.0032078365625175 0 -0.15327979458335059 -0.01391829646419882 0 -0.15773416148281841 -0.0035868741371463562 0 -0.16350931143073591 -0.01273440345064396 0 -0.16350931143073591 -0.01273440345064396 0 -0.16716832075785379 -0.0032078365625175 0 -0.17549551533112251 -0.014893414490097231 0 -0.17549551533112251 -0.014893414490097231 0 -0.18154179604087481 -0.0036104187285780349 0 -0.18915768363079971 -0.025155098795753519 0 -0.18154179604087481 -0.0036104187285780349 0 -0.18915768363079971 -0.025155098795753519 0 -0.17549551533112251 -0.014893414490097231 0 -0.17584419881677341 0.0071523107965592754 0 -0.17549551533112251 -0.014893414490097231 0 -0.18154179604087481 -0.0036104187285780349 0 -0.17584419881677341 0.0071523107965592754 0 -0.16716832075785379 -0.0032078365625175 0 -0.17549551533112251 -0.014893414490097231 0 -0.17584419881677341 0.0071523107965592754 0 -0.18154179604087481 -0.0036104187285780349 0 -0.19066530249761049 -0.0041303576494283751 0 -0.18915768363079971 -0.025155098795753519 0 -0.18154179604087481 -0.0036104187285780349 0 -0.19066530249761049 -0.0041303576494283751 0 -0.18717715497560061 0.0062623078557712403 0 -0.19066530249761049 -0.0041303576494283751 0 -0.1989264366345522 -0.0080023544535597537 0 -0.18915768363079971 -0.025155098795753519 0 -0.19066530249761049 -0.0041303576494283751 0 -0.1989264366345522 -0.0080023544535597537 0 -0.1965234412062255 0.0098537758749781944 0 -0.1989264366345522 -0.0080023544535597537 0 -0.2007918169376324 -0.0191738513677071 0 -0.20680177871376751 -0.0119671669755851 0 -0.18915768363079971 -0.025155098795753519 0 -0.2007918169376324 -0.0191738513677071 0 -0.21013076049929519 -0.028334228638799381 0 -0.1989264366345522 -0.0080023544535597537 0 -0.18915768363079971 -0.025155098795753519 0 -0.2007918169376324 -0.0191738513677071 0 -0.2007918169376324 -0.0191738513677071 0 -0.21013076049929519 -0.028334228638799381 0 -0.20680177871376751 -0.0119671669755851 0 -0.21013076049929519 -0.028334228638799381 0 -0.21702438745170211 -0.0043907958627755336 0 -0.21921501925093501 -0.017985606360015789 0 -0.21013076049929519 -0.028334228638799381 0 -0.21702438745170211 -0.0043907958627755336 0 -0.21013076049929519 -0.028334228638799381 0 -0.22271521407306469 -0.037269361340154371 0 -0.21921501925093501 -0.017985606360015789 0 -0.21013076049929519 -0.028334228638799381 0 -0.21702438745170211 -0.0043907958627755336 0 -0.20680177871376751 -0.0119671669755851 0 -0.1989264366345522 -0.0080023544535597537 0 -0.20680177871376751 -0.0119671669755851 0 -0.20713549204565579 6.5395444916274768e-05 0 -0.21702438745170211 -0.0043907958627755336 0 -0.20680177871376751 -0.0119671669755851 0 -0.20713549204565579 6.5395444916274768e-05 0 -0.20438945881064449 -0.068244458930106389 0 -0.1967735712207245 -0.046699778862929052 0 -0.20438945881064449 -0.068244458930106389 0 -0.18769526278089041 -0.057829612445021099 0 -0.1967735712207245 -0.046699778862929052 0 -0.20438945881064449 -0.068244458930106389 0 -0.1967735712207245 -0.046699778862929052 0 -0.20711132549122371 -0.057203435059411119 0 -0.18133558272394029 -0.043618149437272283 0 -0.18769526278089041 -0.057829612445021099 0 -0.1967735712207245 -0.046699778862929052 0 -0.18133558272394029 -0.043618149437272283 0 -0.18915768363079971 -0.025155098795753519 0 -0.1967735712207245 -0.046699778862929052 0 -0.18915768363079971 -0.025155098795753519 0 -0.1967735712207245 -0.046699778862929052 0 -0.18915768363079971 -0.025155098795753519 0 -0.21013076049929519 -0.028334228638799381 0 -0.1967735712207245 -0.046699778862929052 0 -0.21013076049929519 -0.028334228638799381 0 -0.21132582579248671 -0.048130994279405613 0 -0.22271521407306469 -0.037269361340154371 0 -0.21013076049929519 -0.028334228638799381 0 -0.1967735712207245 -0.046699778862929052 0 -0.21132582579248671 -0.048130994279405613 0 -0.21595644614104051 -0.065738508165203102 0 -0.21132582579248671 -0.048130994279405613 0 -0.22271521407306469 -0.037269361340154371 0 -0.21595644614104051 -0.065738508165203102 0 -0.21132582579248671 -0.048130994279405613 0 -0.20711132549122371 -0.057203435059411119 0 -0.1967735712207245 -0.046699778862929052 0 -0.21132582579248671 -0.048130994279405613 0 -0.20711132549122371 -0.057203435059411119 0 -0.21595644614104051 -0.065738508165203102 0 -0.2284172135094342 -0.053659916570315727 0 -0.24475965461883589 -0.059498385283178377 0 -0.21595644614104051 -0.065738508165203102 0 -0.2284172135094342 -0.053659916570315727 0 -0.22271521407306469 -0.037269361340154371 0 -0.21595644614104051 -0.065738508165203102 0 -0.22271521407306469 -0.037269361340154371 0 -0.2284172135094342 -0.053659916570315727 0 -0.22271521407306469 -0.037269361340154371 0 -0.23903543051913109 -0.043198085603962481 0 -0.22271521407306469 -0.037269361340154371 0 -0.23903543051913109 -0.043198085603962481 0 -0.24161885061771041 -0.026720350447010301 0 -0.23903543051913109 -0.043198085603962481 0 -0.24161885061771041 -0.026720350447010301 0 -0.25766621977661042 -0.038842414379153638 0 -0.23903543051913109 -0.043198085603962481 0 -0.24475965461883589 -0.059498385283178377 0 -0.25766621977661042 -0.038842414379153638 0 -0.2284172135094342 -0.053659916570315727 0 -0.23903543051913109 -0.043198085603962481 0 -0.24475965461883589 -0.059498385283178377 0 -0.22947398200509031 -0.0088002145151058891 0 -0.22867745033346079 0.0038692188645070222 0 -0.2401015516947359 0.00075261550232862703 0 -0.21702438745170211 -0.0043907958627755336 0 -0.22947398200509031 -0.0088002145151058891 0 -0.22867745033346079 0.0038692188645070222 0 -0.21702438745170211 -0.0043907958627755336 0 -0.22947398200509031 -0.0088002145151058891 0 -0.21921501925093501 -0.017985606360015789 0 -0.22271521407306469 -0.037269361340154371 0 -0.22947398200509031 -0.0088002145151058891 0 -0.21921501925093501 -0.017985606360015789 0 -0.22271521407306469 -0.037269361340154371 0 -0.22947398200509031 -0.0088002145151058891 0 -0.22271521407306469 -0.037269361340154371 0 -0.22947398200509031 -0.0088002145151058891 0 -0.24161885061771041 -0.026720350447010301 0 -0.22947398200509031 -0.0088002145151058891 0 -0.24161885061771041 -0.026720350447010301 0 -0.2437457614006571 -0.011962382738850049 0 -0.24161885061771041 -0.026720350447010301 0 -0.2437457614006571 -0.011962382738850049 0 -0.2598032925822476 -0.0188915667982569 0 -0.22947398200509031 -0.0088002145151058891 0 -0.2437457614006571 -0.011962382738850049 0 -0.2401015516947359 0.00075261550232862703 0 -0.2437457614006571 -0.011962382738850049 0 -0.25267499080189931 -0.0034516002120552492 0 -0.2401015516947359 0.00075261550232862703 0 -0.25267499080189931 -0.0034516002120552492 0 -0.2598032925822476 -0.0188915667982569 0 -0.26909988492935111 -0.0018655285383734981 0 -0.2437457614006571 -0.011962382738850049 0 -0.25267499080189931 -0.0034516002120552492 0 -0.2598032925822476 -0.0188915667982569 0 -0.2598032925822476 -0.0188915667982569 0 -0.27267419604841259 -0.026924212746328481 0 -0.25766621977661042 -0.038842414379153638 0 -0.24161885061771041 -0.026720350447010301 0 -0.2598032925822476 -0.0188915667982569 0 -0.25766621977661042 -0.038842414379153638 0 -0.2598032925822476 -0.0188915667982569 0 -0.27267419604841259 -0.026924212746328481 0 -0.27804425228895369 -0.016131696666228459 0 -0.27267419604841259 -0.026924212746328481 0 -0.27804425228895369 -0.016131696666228459 0 -0.28378415359151371 -0.031280105512012511 0 -0.27804425228895369 -0.016131696666228459 0 -0.26909988492935111 -0.0018655285383734981 0 -0.2917254884257266 -0.0017566381736345419 0 -0.2598032925822476 -0.0188915667982569 0 -0.27804425228895369 -0.016131696666228459 0 -0.26909988492935111 -0.0018655285383734981 0 -0.27804425228895369 -0.016131696666228459 0 -0.2917254884257266 -0.0017566381736345419 0 -0.2928870998243559 -0.020527937726781 0 -0.27804425228895369 -0.016131696666228459 0 -0.2928870998243559 -0.020527937726781 0 -0.28378415359151371 -0.031280105512012511 0 -0.2928870998243559 -0.020527937726781 0 -0.29943422057661201 -0.032203920876667472 0 -0.28378415359151371 -0.031280105512012511 0 -0.2928870998243559 -0.020527937726781 0 -0.31144738423897378 -0.02126732740536201 0 -0.29943422057661201 -0.032203920876667472 0 -0.31144738423897378 -0.02126732740536201 0 -0.31110423911055801 -0.035316851109560482 0 -0.29943422057661201 -0.032203920876667472 0 -0.2917254884257266 -0.0017566381736345419 0 -0.31144738423897378 -0.02126732740536201 0 -0.31177688145040278 0.0050359958776742568 0 -0.2917254884257266 -0.0017566381736345419 0 -0.2928870998243559 -0.020527937726781 0 -0.31144738423897378 -0.02126732740536201 0 -0.2917254884257266 -0.0017566381736345419 0 -0.31144738423897378 -0.02126732740536201 0 -0.30323190850646392 -0.052883144282766713 0 -0.3023660715744253 -0.047018139519123002 0 -0.29757341552329353 -0.05219957266967655 0 -0.29931176789370939 -0.061629941742321552 0 -0.30659897303184058 -0.057135789817405573 0 -0.30728911182784302 -0.064893595009923935 0 -0.30323190850646392 -0.052883144282766713 0 -0.29931176789370939 -0.061629941742321552 0 -0.30659897303184058 -0.057135789817405573 0 -0.30323190850646392 -0.052883144282766713 0 -0.29757341552329353 -0.05219957266967655 0 -0.29931176789370939 -0.061629941742321552 0 -0.30659897303184058 -0.057135789817405573 0 -0.30728911182784302 -0.064893595009923935 0 -0.31405483352543062 -0.056831087900065053 0 -0.30323190850646392 -0.052883144282766713 0 -0.3023660715744253 -0.047018139519123002 0 -0.31025625293594222 -0.050033124508212908 0 -0.30659897303184058 -0.057135789817405573 0 -0.31025625293594222 -0.050033124508212908 0 -0.31405483352543062 -0.056831087900065053 0 -0.30323190850646392 -0.052883144282766713 0 -0.30659897303184058 -0.057135789817405573 0 -0.31025625293594222 -0.050033124508212908 0 -0.3023660715744253 -0.047018139519123002 0 -0.31110423911055801 -0.035316851109560482 0 -0.29943422057661201 -0.032203920876667472 0 -0.3023660715744253 -0.047018139519123002 0 -0.29943422057661201 -0.032203920876667472 0 -0.29166722635019171 -0.038853801873014321 0 -0.29943422057661201 -0.032203920876667472 0 -0.29166722635019171 -0.038853801873014321 0 -0.28378415359151371 -0.031280105512012511 0 -0.3023660715744253 -0.047018139519123002 0 -0.29166722635019171 -0.038853801873014321 0 -0.28390051605192418 -0.042754285685484159 0 -0.29166722635019171 -0.038853801873014321 0 -0.28378415359151371 -0.031280105512012511 0 -0.28390051605192418 -0.042754285685484159 0 -0.3023660715744253 -0.047018139519123002 0 -0.28390051605192418 -0.042754285685484159 0 -0.27356286309663053 -0.053258262401150697 0 -0.3023660715744253 -0.047018139519123002 0 -0.27356286309663053 -0.053258262401150697 0 -0.29757341552329353 -0.05219957266967655 0 -0.27356286309663053 -0.053258262401150697 0 -0.27532891164284878 -0.069285621960536392 0 -0.29757341552329353 -0.05219957266967655 0 -0.27532891164284878 -0.069285621960536392 0 -0.3023660715744253 -0.047018139519123002 0 -0.29757341552329353 -0.05219957266967655 0 -0.27356286309663053 -0.053258262401150697 0 -0.29757341552329353 -0.05219957266967655 0 -0.29931176789370939 -0.061629941742321552 0 -0.27532891164284878 -0.069285621960536392 0 -0.27267419604841259 -0.026924212746328481 0 -0.27375437843427658 -0.039043607324579933 0 -0.25766621977661042 -0.038842414379153638 0 -0.27356286309663053 -0.053258262401150697 0 -0.27375437843427658 -0.039043607324579933 0 -0.25766621977661042 -0.038842414379153638 0 -0.28378415359151371 -0.031280105512012511 0 -0.28390051605192418 -0.042754285685484159 0 -0.27375437843427658 -0.039043607324579933 0 -0.27267419604841259 -0.026924212746328481 0 -0.28378415359151371 -0.031280105512012511 0 -0.27375437843427658 -0.039043607324579933 0 -0.28390051605192418 -0.042754285685484159 0 -0.27356286309663053 -0.053258262401150697 0 -0.27375437843427658 -0.039043607324579933 0 -0.24475965461883589 -0.059498385283178377 0 -0.27356286309663053 -0.053258262401150697 0 -0.2582325144520296 -0.070050845257802419 0 -0.24475965461883589 -0.059498385283178377 0 -0.27356286309663053 -0.053258262401150697 0 -0.24475965461883589 -0.059498385283178377 0 -0.27356286309663053 -0.053258262401150697 0 -0.25766621977661042 -0.038842414379153638 0 -0.2582325144520296 -0.070050845257802419 0 -0.25308440776240432 -0.086371671251396109 0 -0.27532891164284878 -0.069285621960536392 0 -0.25308440776240432 -0.086371671251396109 0 -0.27532891164284878 -0.069285621960536392 0 -0.25308440776240432 -0.086371671251396109 0 -0.27361062541114611 -0.085405998149086934 0 -0.26907394573302829 -0.10103393024372311 0 -0.27361062541114611 -0.085405998149086934 0 -0.26907394573302829 -0.10103393024372311 0 -0.28494676303449051 -0.09097811142482605 0 -0.25308440776240432 -0.086371671251396109 0 -0.27361062541114611 -0.085405998149086934 0 -0.27532891164284878 -0.069285621960536392 0 -0.27356286309663053 -0.053258262401150697 0 -0.2582325144520296 -0.070050845257802419 0 -0.27532891164284878 -0.069285621960536392 0 -0.27361062541114611 -0.085405998149086934 0 -0.27532891164284878 -0.069285621960536392 0 -0.28561909888295839 -0.079360655864953042 0 -0.2432602079730701 -0.13485583854350039 0 -0.2499653418643101 -0.1102460646797562 0 -0.26490928006600228 -0.12397715003998409 0 -0.2499653418643101 -0.1102460646797562 0 -0.26490928006600228 -0.12397715003998409 0 -0.26907394573302829 -0.10103393024372311 0 -0.2499653418643101 -0.1102460646797562 0 -0.25308440776240432 -0.086371671251396109 0 -0.26907394573302829 -0.10103393024372311 0 -0.26907394573302829 -0.10103393024372311 0 -0.28789548083438649 -0.11161882002010511 0 -0.28494676303449051 -0.09097811142482605 0 -0.26490928006600228 -0.12397715003998409 0 -0.28789548083438649 -0.11161882002010511 0 -0.28428672055728371 -0.13281235115180859 0 -0.26490928006600228 -0.12397715003998409 0 -0.26907394573302829 -0.10103393024372311 0 -0.28789548083438649 -0.11161882002010511 0 -0.28789548083438649 -0.11161882002010511 0 -0.28428672055728371 -0.13281235115180859 0 -0.30877835781368662 -0.12931532841693749 0 -0.28789548083438649 -0.11161882002010511 0 -0.29765529442092259 -0.094840601490837839 0 -0.28494676303449051 -0.09097811142482605 0 -0.30761934067920371 -0.1042503242997595 0 -0.29765529442092259 -0.094840601490837839 0 -0.30832877355579341 -0.086934752854072747 0 -0.30761934067920371 -0.1042503242997595 0 -0.30832877355579341 -0.086934752854072747 0 -0.31968159473222052 -0.091584555267719248 0 -0.28789548083438649 -0.11161882002010511 0 -0.30761934067920371 -0.1042503242997595 0 -0.29765529442092259 -0.094840601490837839 0 -0.28789548083438649 -0.11161882002010511 0 -0.30761934067920371 -0.1042503242997595 0 -0.30877835781368662 -0.12931532841693749 0 -0.29931176789370939 -0.061629941742321552 0 -0.27532891164284878 -0.069285621960536392 0 -0.29568251685582603 -0.071589435967753134 0 -0.27532891164284878 -0.069285621960536392 0 -0.29568251685582603 -0.071589435967753134 0 -0.28561909888295839 -0.079360655864953042 0 -0.29568251685582603 -0.071589435967753134 0 -0.28561909888295839 -0.079360655864953042 0 -0.29849490204505058 -0.081938345925378783 0 -0.27361062541114611 -0.085405998149086934 0 -0.28561909888295839 -0.079360655864953042 0 -0.28494676303449051 -0.09097811142482605 0 -0.29765529442092259 -0.094840601490837839 0 -0.28494676303449051 -0.09097811142482605 0 -0.29849490204505058 -0.081938345925378783 0 -0.28561909888295839 -0.079360655864953042 0 -0.28494676303449051 -0.09097811142482605 0 -0.29849490204505058 -0.081938345925378783 0 -0.29849490204505058 -0.081938345925378783 0 -0.30832877355579341 -0.086934752854072747 0 -0.3066986514807607 -0.074546990101646726 0 -0.29765529442092259 -0.094840601490837839 0 -0.29849490204505058 -0.081938345925378783 0 -0.30832877355579341 -0.086934752854072747 0 -0.30832877355579341 -0.086934752854072747 0 -0.3066986514807607 -0.074546990101646726 0 -0.31636087034116728 -0.076704125898778439 0 -0.3066986514807607 -0.074546990101646726 0 -0.31411021802290889 -0.069356746280106005 0 -0.31636087034116728 -0.076704125898778439 0 -0.29568251685582603 -0.071589435967753134 0 -0.29849490204505058 -0.081938345925378783 0 -0.3066986514807607 -0.074546990101646726 0 -0.29568251685582603 -0.071589435967753134 0 -0.3066986514807607 -0.074546990101646726 0 -0.30728911182784302 -0.064893595009923935 0 -0.29931176789370939 -0.061629941742321552 0 -0.29568251685582603 -0.071589435967753134 0 -0.30728911182784302 -0.064893595009923935 0 -0.3066986514807607 -0.074546990101646726 0 -0.30728911182784302 -0.064893595009923935 0 -0.31411021802290889 -0.069356746280106005 0 -0.30728911182784302 -0.064893595009923935 0 -0.31630436981946819 -0.062936971351065629 0 -0.31411021802290889 -0.069356746280106005 0 -0.31630436981946819 -0.062936971351065629 0 -0.31411021802290889 -0.069356746280106005 0 -0.32389808664530562 -0.067702049039115322 0 -0.31630436981946819 -0.062936971351065629 0 -0.32389808664530562 -0.067702049039115322 0 -0.32481687078849097 -0.058022226865728103 0 -0.32389808664530562 -0.067702049039115322 0 -0.3259684841043719 -0.075020057435826168 0 -0.31636087034116728 -0.076704125898778439 0 -0.31411021802290889 -0.069356746280106005 0 -0.32389808664530562 -0.067702049039115322 0 -0.31636087034116728 -0.076704125898778439 0 -0.30832877355579341 -0.086934752854072747 0 -0.32608803180755441 -0.084321365842938284 0 -0.30832877355579341 -0.086934752854072747 0 -0.31968159473222052 -0.091584555267719248 0 -0.32608803180755441 -0.084321365842938284 0 -0.30832877355579341 -0.086934752854072747 0 -0.31636087034116728 -0.076704125898778439 0 -0.32608803180755441 -0.084321365842938284 0 -0.31968159473222052 -0.091584555267719248 0 -0.32608803180755441 -0.084321365842938284 0 -0.3259684841043719 -0.075020057435826168 0 -0.31636087034116728 -0.076704125898778439 0 -0.32608803180755441 -0.084321365842938284 0 -0.31968159473222052 -0.091584555267719248 0 -0.32608803180755441 -0.084321365842938284 0 -0.34030971713070318 -0.087052614945596102 0 -0.32608803180755441 -0.084321365842938284 0 -0.34030971713070318 -0.087052614945596102 0 -0.34745734249292459 -0.081176736816750444 0 -0.32608803180755441 -0.084321365842938284 0 -0.33752694762346008 -0.07135268896247253 0 -0.34745734249292459 -0.081176736816750444 0 -0.32608803180755441 -0.084321365842938284 0 -0.34745734249292459 -0.081176736816750444 0 -0.33752694762346008 -0.07135268896247253 0 -0.3489658634393657 -0.058384012082006782 0 -0.33645864726091979 -0.05858208772264157 0 -0.33752694762346008 -0.07135268896247253 0 -0.3489658634393657 -0.058384012082006782 0 -0.32389808664530562 -0.067702049039115322 0 -0.33752694762346008 -0.07135268896247253 0 -0.33645864726091979 -0.05858208772264157 0 -0.3259684841043719 -0.075020057435826168 0 -0.32608803180755441 -0.084321365842938284 0 -0.33752694762346008 -0.07135268896247253 0 -0.32608803180755441 -0.084321365842938284 0 -0.33752694762346008 -0.07135268896247253 0 -0.32389808664530562 -0.067702049039115322 0 -0.3259684841043719 -0.075020057435826168 0 -0.33752694762346008 -0.07135268896247253 0 -0.32454403747219479 -0.1081839716812668 0 -0.30877835781368662 -0.12931532841693749 0 -0.30761934067920371 -0.1042503242997595 0 -0.32454403747219479 -0.1081839716812668 0 -0.30877835781368662 -0.12931532841693749 0 -0.32454403747219479 -0.1081839716812668 0 -0.33570809008837621 -0.11845594114356341 0 -0.30877835781368662 -0.12931532841693749 0 -0.30761934067920371 -0.1042503242997595 0 -0.31968159473222052 -0.091584555267719248 0 -0.32454403747219479 -0.1081839716812668 0 -0.34030971713070318 -0.087052614945596102 0 -0.32454403747219479 -0.1081839716812668 0 -0.34278855512837281 -0.1049294584887832 0 -0.31968159473222052 -0.091584555267719248 0 -0.34030971713070318 -0.087052614945596102 0 -0.32454403747219479 -0.1081839716812668 0 -0.34030971713070318 -0.087052614945596102 0 -0.32454403747219479 -0.1081839716812668 0 -0.32454403747219479 -0.1081839716812668 0 -0.34278855512837281 -0.1049294584887832 0 -0.33570809008837621 -0.11845594114356341 0 -0.33570809008837621 -0.11845594114356341 0 -0.35404294059136687 -0.1217835462641018 0 -0.33688620478323589 -0.13358080389391511 0 -0.34278855512837281 -0.1049294584887832 0 -0.35404294059136687 -0.1217835462641018 0 -0.35932798989652742 -0.1047455147758234 0 -0.34278855512837281 -0.1049294584887832 0 -0.33570809008837621 -0.11845594114356341 0 -0.35404294059136687 -0.1217835462641018 0 -0.34278855512837281 -0.1049294584887832 0 -0.35932798989652742 -0.1047455147758234 0 -0.35079718399447979 -0.093651592615473511 0 -0.34030971713070318 -0.087052614945596102 0 -0.34278855512837281 -0.1049294584887832 0 -0.35079718399447979 -0.093651592615473511 0 -0.35932798989652742 -0.1047455147758234 0 -0.35079718399447979 -0.093651592615473511 0 -0.36132419909701757 -0.091459041133748031 0 -0.35932798989652742 -0.1047455147758234 0 -0.37367929427193591 -0.1014825750548952 0 -0.37212838853434238 -0.11808059788504249 0 -0.35932798989652742 -0.1047455147758234 0 -0.37367929427193591 -0.1014825750548952 0 -0.36132419909701757 -0.091459041133748031 0 -0.35404294059136687 -0.1217835462641018 0 -0.37212838853434238 -0.11808059788504249 0 -0.37028068739271691 -0.13083580994494901 0 -0.35404294059136687 -0.1217835462641018 0 -0.35932798989652742 -0.1047455147758234 0 -0.37212838853434238 -0.11808059788504249 0 -0.35069420168351129 -0.07223638641294812 0 -0.34745734249292459 -0.081176736816750444 0 -0.36882665317829499 -0.078032107790563188 0 -0.36882665317829499 -0.078032107790563188 0 -0.3489658634393657 -0.058384012082006782 0 -0.35069420168351129 -0.07223638641294812 0 -0.36882665317829499 -0.078032107790563188 0 -0.3489658634393657 -0.058384012082006782 0 -0.33752694762346008 -0.07135268896247253 0 -0.35069420168351129 -0.07223638641294812 0 -0.3489658634393657 -0.058384012082006782 0 -0.33752694762346008 -0.07135268896247253 0 -0.35069420168351129 -0.07223638641294812 0 -0.34745734249292459 -0.081176736816750444 0 -0.34745734249292459 -0.081176736816750444 0 -0.36882665317829499 -0.078032107790563188 0 -0.34745734249292459 -0.081176736816750444 0 -0.36132419909701757 -0.091459041133748031 0 -0.36882665317829499 -0.078032107790563188 0 -0.34030971713070318 -0.087052614945596102 0 -0.34745734249292459 -0.081176736816750444 0 -0.35079718399447979 -0.093651592615473511 0 -0.34745734249292459 -0.081176736816750444 0 -0.35079718399447979 -0.093651592615473511 0 -0.36132419909701757 -0.091459041133748031 0 -0.37367929427193591 -0.1014825750548952 0 -0.36132419909701757 -0.091459041133748031 0 -0.36882665317829499 -0.078032107790563188 0 -0.36882665317829499 -0.078032107790563188 0 -0.36862349457690058 -0.057461967220355487 0 -0.3489658634393657 -0.058384012082006782 0 -0.36882665317829499 -0.078032107790563188 0 -0.36862349457690058 -0.057461967220355487 0 -0.37947166312044489 -0.067272628224985004 0 -0.36862349457690058 -0.057461967220355487 0 -0.3489658634393657 -0.058384012082006782 0 -0.36066681755822472 -0.045118253717945672 0 -0.36862349457690058 -0.057461967220355487 0 -0.37355784227175309 -0.045246792894939887 0 -0.3815482533063424 -0.052412606119804542 0 -0.36862349457690058 -0.057461967220355487 0 -0.36066681755822472 -0.045118253717945672 0 -0.37355784227175309 -0.045246792894939887 0 -0.3489658634393657 -0.058384012082006782 0 -0.36066681755822472 -0.045118253717945672 0 -0.3489658634393657 -0.058384012082006782 0 -0.34511111307690212 -0.046137334811030092 0 -0.36066681755822472 -0.045118253717945672 0 -0.35304062521722218 -0.036039659744318157 0 -0.3553139768507978 -0.023567241021099371 0 -0.33371347875736079 -0.040226824134751989 0 -0.34511111307690212 -0.046137334811030092 0 -0.35304062521722218 -0.036039659744318157 0 -0.33371347875736079 -0.040226824134751989 0 -0.34511111307690212 -0.046137334811030092 0 -0.35304062521722218 -0.036039659744318157 0 -0.36066681755822472 -0.045118253717945672 0 -0.36066681755822472 -0.045118253717945672 0 -0.37236777167708351 -0.031852495353884333 0 -0.35304062521722218 -0.036039659744318157 0 -0.37236777167708351 -0.031852495353884333 0 -0.35304062521722218 -0.036039659744318157 0 -0.36066681755822472 -0.045118253717945672 0 -0.37236777167708351 -0.031852495353884333 0 -0.36066681755822472 -0.045118253717945672 0 -0.37355784227175309 -0.045246792894939887 0 -0.37236777167708351 -0.031852495353884333 0 -0.37236777167708351 -0.031852495353884333 0 -0.3739022591900184 -0.02415390189740213 0 -0.36770044175442279 -0.02036669541201027 0 -0.37236777167708351 -0.031852495353884333 0 -0.36770044175442279 -0.02036669541201027 0 -0.3553139768507978 -0.023567241021099371 0 -0.36770044175442279 -0.02036669541201027 0 -0.35847393927256738 -0.010652033510738681 0 -0.38297625517291389 -0.017448943304264108 0 -0.35304062521722218 -0.036039659744318157 0 -0.37236777167708351 -0.031852495353884333 0 -0.3553139768507978 -0.023567241021099371 0 -0.3739022591900184 -0.02415390189740213 0 -0.36770044175442279 -0.02036669541201027 0 -0.38297625517291389 -0.017448943304264108 0 -0.36770044175442279 -0.02036669541201027 0 -0.35847393927256738 -0.010652033510738681 0 -0.3553139768507978 -0.023567241021099371 0 -0.35847393927256738 -0.010652033510738681 0 -0.38297625517291389 -0.017448943304264108 0 -0.37278444596104371 -0.0079457960458173115 0 -0.35847393927256738 -0.010652033510738681 0 -0.38297625517291389 -0.017448943304264108 0 -0.37474494217865062 -0.0022388935110706832 0 -0.37278444596104371 -0.0079457960458173115 0 -0.36307869926690151 -0.00068504054922277494 0 -0.37278444596104371 -0.0079457960458173115 0 -0.36307869926690151 -0.00068504054922277494 0 -0.35847393927256738 -0.010652033510738681 0 -0.36307869926690151 -0.00068504054922277494 0 -0.34718119132474479 -0.01384164818341615 0 -0.36064890389212972 0.0125435277679194 0 -0.36307869926690151 -0.00068504054922277494 0 -0.35847393927256738 -0.010652033510738681 0 -0.34718119132474479 -0.01384164818341615 0 -0.34718119132474479 -0.01384164818341615 0 -0.36064890389212972 0.0125435277679194 0 -0.34718119132474479 -0.01384164818341615 0 -0.3553139768507978 -0.023567241021099371 0 -0.33371347875736079 -0.040226824134751989 0 -0.35847393927256738 -0.010652033510738681 0 -0.34718119132474479 -0.01384164818341615 0 -0.3553139768507978 -0.023567241021099371 0 -0.34718119132474479 -0.01384164818341615 0 -0.33035884889608558 -0.02420969997450095 0 -0.33371347875736079 -0.040226824134751989 0 -0.34718119132474479 -0.01384164818341615 0 -0.33371347875736079 -0.040226824134751989 0 -0.34718119132474479 -0.01384164818341615 0 -0.32828291010712762 -0.0049346835118845543 0 -0.34055428987364128 0.0059527955302196532 0 -0.34718119132474479 -0.01384164818341615 0 -0.33035884889608558 -0.02420969997450095 0 -0.32828291010712762 -0.0049346835118845543 0 -0.31144738423897378 -0.02126732740536201 0 -0.32828291010712762 -0.0049346835118845543 0 -0.31177688145040278 0.0050359958776742568 0 -0.31144738423897378 -0.02126732740536201 0 -0.33116928005221918 -0.040778016637091109 0 -0.31144738423897378 -0.02126732740536201 0 -0.33035884889608558 -0.02420969997450095 0 -0.32828291010712762 -0.0049346835118845543 0 -0.31144738423897378 -0.02126732740536201 0 -0.33035884889608558 -0.02420969997450095 0 -0.33116928005221918 -0.040778016637091109 0 -0.3023660715744253 -0.047018139519123002 0 -0.31110423911055801 -0.035316851109560482 0 -0.33116928005221918 -0.040778016637091109 0 -0.3023660715744253 -0.047018139519123002 0 -0.31025625293594222 -0.050033124508212908 0 -0.33116928005221918 -0.040778016637091109 0 -0.3023660715744253 -0.047018139519123002 0 -0.33116928005221918 -0.040778016637091109 0 -0.31144738423897378 -0.02126732740536201 0 -0.31110423911055801 -0.035316851109560482 0 -0.33116928005221918 -0.040778016637091109 0 -0.31025625293594222 -0.050033124508212908 0 -0.31770057673851387 -0.05020147555903863 0 -0.33116928005221918 -0.040778016637091109 0 -0.31025625293594222 -0.050033124508212908 0 -0.31770057673851387 -0.05020147555903863 0 -0.31405483352543062 -0.056831087900065053 0 -0.31770057673851387 -0.05020147555903863 0 -0.31405483352543062 -0.056831087900065053 0 -0.31936567051967829 -0.054711673150449433 0 -0.31630436981946819 -0.062936971351065629 0 -0.31936567051967829 -0.054711673150449433 0 -0.32481687078849097 -0.058022226865728103 0 -0.30728911182784302 -0.064893595009923935 0 -0.31630436981946819 -0.062936971351065629 0 -0.31405483352543062 -0.056831087900065053 0 -0.31630436981946819 -0.062936971351065629 0 -0.31405483352543062 -0.056831087900065053 0 -0.31936567051967829 -0.054711673150449433 0 -0.31770057673851387 -0.05020147555903863 0 -0.32448711316898249 -0.050622394842538963 0 -0.33116928005221918 -0.040778016637091109 0 -0.31936567051967829 -0.054711673150449433 0 -0.32481687078849097 -0.058022226865728103 0 -0.32448711316898249 -0.050622394842538963 0 -0.31770057673851387 -0.05020147555903863 0 -0.31936567051967829 -0.054711673150449433 0 -0.32448711316898249 -0.050622394842538963 0 -0.32481687078849097 -0.058022226865728103 0 -0.32770904195502032 -0.053173566283506987 0 -0.32448711316898249 -0.050622394842538963 0 -0.32770904195502032 -0.053173566283506987 0 -0.32448711316898249 -0.050622394842538963 0 -0.32972533979495861 -0.048040159006195682 0 -0.3489658634393657 -0.058384012082006782 0 -0.34511111307690212 -0.046137334811030092 0 -0.3326728772282519 -0.042265511425067279 0 -0.32972533979495861 -0.048040159006195682 0 -0.33645864726091979 -0.05858208772264157 0 -0.3326728772282519 -0.042265511425067279 0 -0.3489658634393657 -0.058384012082006782 0 -0.3326728772282519 -0.042265511425067279 0 -0.32770904195502032 -0.053173566283506987 0 -0.32972533979495861 -0.048040159006195682 0 -0.33645864726091979 -0.05858208772264157 0 -0.3489658634393657 -0.058384012082006782 0 -0.33645864726091979 -0.05858208772264157 0 -0.3326728772282519 -0.042265511425067279 0 -0.32389808664530562 -0.067702049039115322 0 -0.32481687078849097 -0.058022226865728103 0 -0.33645864726091979 -0.05858208772264157 0 -0.32481687078849097 -0.058022226865728103 0 -0.32770904195502032 -0.053173566283506987 0 -0.33645864726091979 -0.05858208772264157 0 -0.34511111307690212 -0.046137334811030092 0 -0.33371347875736079 -0.040226824134751989 0 -0.3326728772282519 -0.042265511425067279 0 -0.33035884889608558 -0.02420969997450095 0 -0.33116928005221918 -0.040778016637091109 0 -0.33371347875736079 -0.040226824134751989 0 -0.35304062521722218 -0.036039659744318157 0 -0.33371347875736079 -0.040226824134751989 0 -0.32448711316898249 -0.050622394842538963 0 -0.32972533979495861 -0.048040159006195682 0 -0.33116928005221918 -0.040778016637091109 0 -0.33116928005221918 -0.040778016637091109 0 -0.3326728772282519 -0.042265511425067279 0 -0.32972533979495861 -0.048040159006195682 0 -0.3326728772282519 -0.042265511425067279 0 -0.32972533979495861 -0.048040159006195682 0 -0.33116928005221918 -0.040778016637091109 0 -0.3326728772282519 -0.042265511425067279 0 -0.33116928005221918 -0.040778016637091109 0 -0.33371347875736079 -0.040226824134751989 0 -0.33116928005221918 -0.040778016637091109 0 -0.33371347875736079 -0.040226824134751989 0 -0.3326728772282519 -0.042265511425067279 0 -0.33371347875736079 -0.040226824134751989 0 -0.3326728772282519 -0.042265511425067279 0 -0.2907170577323625 -0.25177677077710309 0 -0.30853150187083839 -0.25429835417001312 0 -0.30748271917561598 -0.2431056607245809 0 -0.30748271917561598 -0.2431056607245809 0 -0.3004866401015065 -0.2269264896544945 0 -0.32066485276457768 -0.2334308190911655 0 -0.2907170577323625 -0.25177677077710309 0 -0.30748271917561598 -0.2431056607245809 0 -0.3004866401015065 -0.2269264896544945 0 -0.30853150187083839 -0.25429835417001312 0 -0.30748271917561598 -0.2431056607245809 0 -0.32023222063025569 -0.2489608815952247 0 -0.3004866401015065 -0.2269264896544945 0 -0.27575903677895092 -0.22208668823385669 0 -0.3004866401015065 -0.2269264896544945 0 -0.27309361240676189 -0.24179026653703889 0 -0.27575903677895092 -0.22208668823385669 0 -0.3004866401015065 -0.2269264896544945 0 -0.27575903677895092 -0.22208668823385669 0 -0.29482007196541532 -0.2089319155152673 0 -0.2907170577323625 -0.25177677077710309 0 -0.3004866401015065 -0.2269264896544945 0 -0.27309361240676189 -0.24179026653703889 0 -0.27309361240676189 -0.24179026653703889 0 -0.25431856302814809 -0.24833495949118861 0 -0.25103143345639523 -0.21724688681321891 0 -0.27575903677895092 -0.22208668823385669 0 -0.25103143345639523 -0.21724688681321891 0 -0.27309361240676189 -0.24179026653703889 0 -0.27575903677895092 -0.22208668823385669 0 -0.25103143345639523 -0.21724688681321891 0 -0.27575903677895092 -0.22208668823385669 0 -0.25103143345639523 -0.21724688681321891 0 -0.27708552823660842 -0.19790031786117671 0 -0.25103143345639523 -0.21724688681321891 0 -0.25418198431724581 -0.18809916394242601 0 -0.27708552823660842 -0.19790031786117671 0 -0.27708552823660842 -0.19790031786117671 0 -0.29482007196541532 -0.2089319155152673 0 -0.30195969341908391 -0.19078830755985379 0 -0.29482007196541532 -0.2089319155152673 0 -0.30195969341908391 -0.19078830755985379 0 -0.32674672588845421 -0.2120308859258328 0 -0.3004866401015065 -0.2269264896544945 0 -0.29482007196541532 -0.2089319155152673 0 -0.32674672588845421 -0.2120308859258328 0 -0.27575903677895092 -0.22208668823385669 0 -0.27708552823660842 -0.19790031786117671 0 -0.29482007196541532 -0.2089319155152673 0 -0.30195969341908391 -0.19078830755985379 0 -0.30674796742087651 -0.1684647150882764 0 -0.32123008678095788 -0.18729232698745699 0 -0.30674796742087651 -0.1684647150882764 0 -0.2930126781551784 -0.15044668515260809 0 -0.3206808779707625 -0.15110047818677941 0 -0.27724699849667023 -0.17157804188827869 0 -0.2930126781551784 -0.15044668515260809 0 -0.30674796742087651 -0.1684647150882764 0 -0.27724699849667023 -0.17157804188827869 0 -0.2930126781551784 -0.15044668515260809 0 -0.27708552823660842 -0.19790031786117671 0 -0.30195969341908391 -0.19078830755985379 0 -0.27724699849667023 -0.17157804188827869 0 -0.30195969341908391 -0.19078830755985379 0 -0.30674796742087651 -0.1684647150882764 0 -0.27724699849667023 -0.17157804188827869 0 -0.25418198431724581 -0.18809916394242601 0 -0.27708552823660842 -0.19790031786117671 0 -0.27724699849667023 -0.17157804188827869 0 -0.25418198431724581 -0.18809916394242601 0 -0.2565438833259911 -0.1687602707777138 0 -0.27724699849667023 -0.17157804188827869 0 -0.2435592126657353 -0.1561425335328199 0 -0.2565438833259911 -0.1687602707777138 0 -0.26683780591716472 -0.14870377212940841 0 -0.27724699849667023 -0.17157804188827869 0 -0.26683780591716472 -0.14870377212940841 0 -0.2930126781551784 -0.15044668515260809 0 -0.2565438833259911 -0.1687602707777138 0 -0.27724699849667023 -0.17157804188827869 0 -0.26683780591716472 -0.14870377212940841 0 -0.2435592126657353 -0.1561425335328199 0 -0.2432602079730701 -0.13485583854350039 0 -0.26683780591716472 -0.14870377212940841 0 -0.2432602079730701 -0.13485583854350039 0 -0.26490928006600228 -0.12397715003998409 0 -0.26683780591716472 -0.14870377212940841 0 -0.26490928006600228 -0.12397715003998409 0 -0.26683780591716472 -0.14870377212940841 0 -0.28428672055728371 -0.13281235115180859 0 -0.28428672055728371 -0.13281235115180859 0 -0.2930126781551784 -0.15044668515260809 0 -0.30877835781368662 -0.12931532841693749 0 -0.26683780591716472 -0.14870377212940841 0 -0.28428672055728371 -0.13281235115180859 0 -0.2930126781551784 -0.15044668515260809 0 -0.2930126781551784 -0.15044668515260809 0 -0.30877835781368662 -0.12931532841693749 0 -0.3206808779707625 -0.15110047818677941 0 -0.2930126781551784 -0.15044668515260809 0 -0.30877835781368662 -0.12931532841693749 0 -0.33570809008837621 -0.11845594114356341 0 -0.30877835781368662 -0.12931532841693749 0 -0.33688620478323589 -0.13358080389391511 0 -0.30877835781368662 -0.12931532841693749 0 -0.3206808779707625 -0.15110047818677941 0 -0.33688620478323589 -0.13358080389391511 0 -0.3206808779707625 -0.15110047818677941 0 -0.33688620478323589 -0.13358080389391511 0 -0.34399943231138669 -0.15408109000358611 0 -0.33688620478323589 -0.13358080389391511 0 -0.35929992868189681 -0.1386942596847188 0 -0.35404294059136687 -0.1217835462641018 0 -0.33688620478323589 -0.13358080389391511 0 -0.35929992868189681 -0.1386942596847188 0 -0.35404294059136687 -0.1217835462641018 0 -0.35929992868189681 -0.1386942596847188 0 -0.37028068739271691 -0.13083580994494901 0 -0.35929992868189681 -0.1386942596847188 0 -0.37028068739271691 -0.13083580994494901 0 -0.3804539816512269 -0.14482329966991631 0 -0.35929992868189681 -0.1386942596847188 0 -0.3804539816512269 -0.14482329966991631 0 -0.35929992868189681 -0.1386942596847188 0 -0.3655172116091886 -0.15688196674787641 0 -0.3804539816512269 -0.14482329966991631 0 -0.3655172116091886 -0.15688196674787641 0 -0.3804539816512269 -0.14482329966991631 0 -0.3655172116091886 -0.15688196674787641 0 -0.37839901512320262 -0.15996290040625341 0 -0.3804539816512269 -0.14482329966991631 0 -0.33688620478323589 -0.13358080389391511 0 -0.35929992868189681 -0.1386942596847188 0 -0.34399943231138669 -0.15408109000358611 0 -0.35929992868189681 -0.1386942596847188 0 -0.34399943231138669 -0.15408109000358611 0 -0.3655172116091886 -0.15688196674787641 0 -0.34399943231138669 -0.15408109000358611 0 -0.35323542112630057 -0.1671812377988513 0 -0.3655172116091886 -0.15688196674787641 0 -0.3655172116091886 -0.15688196674787641 0 -0.37378547386561772 -0.17392500984250869 0 -0.37839901512320262 -0.15996290040625341 0 -0.35323542112630057 -0.1671812377988513 0 -0.3655172116091886 -0.15688196674787641 0 -0.37378547386561772 -0.17392500984250869 0 -0.37378547386561772 -0.17392500984250869 0 -0.35240556330307887 -0.18479875362473361 0 -0.36895563931783232 -0.19259611207654981 0 -0.35323542112630057 -0.1671812377988513 0 -0.37378547386561772 -0.17392500984250869 0 -0.35240556330307887 -0.18479875362473361 0 -0.35323542112630057 -0.1671812377988513 0 -0.35240556330307887 -0.18479875362473361 0 -0.33400288196205857 -0.17193246321376471 0 -0.35240556330307887 -0.18479875362473361 0 -0.33400288196205857 -0.17193246321376471 0 -0.33669316521431608 -0.19324526314955739 0 -0.33400288196205857 -0.17193246321376471 0 -0.32123008678095788 -0.18729232698745699 0 -0.33669316521431608 -0.19324526314955739 0 -0.3206808779707625 -0.15110047818677941 0 -0.34399943231138669 -0.15408109000358611 0 -0.33400288196205857 -0.17193246321376471 0 -0.34399943231138669 -0.15408109000358611 0 -0.35323542112630057 -0.1671812377988513 0 -0.33400288196205857 -0.17193246321376471 0 -0.30674796742087651 -0.1684647150882764 0 -0.3206808779707625 -0.15110047818677941 0 -0.33400288196205857 -0.17193246321376471 0 -0.30674796742087651 -0.1684647150882764 0 -0.33400288196205857 -0.17193246321376471 0 -0.32123008678095788 -0.18729232698745699 0 -0.30195969341908391 -0.19078830755985379 0 -0.32123008678095788 -0.18729232698745699 0 -0.32674672588845421 -0.2120308859258328 0 -0.32674672588845421 -0.2120308859258328 0 -0.35024140450074381 -0.20994798342056251 0 -0.32674672588845421 -0.2120308859258328 0 -0.33669316521431608 -0.19324526314955739 0 -0.35024140450074381 -0.20994798342056251 0 -0.32674672588845421 -0.2120308859258328 0 -0.35024140450074381 -0.20994798342056251 0 -0.3377174746324717 -0.2284461722996495 0 -0.32123008678095788 -0.18729232698745699 0 -0.32674672588845421 -0.2120308859258328 0 -0.33669316521431608 -0.19324526314955739 0 -0.35240556330307887 -0.18479875362473361 0 -0.36895563931783232 -0.19259611207654981 0 -0.35024140450074381 -0.20994798342056251 0 -0.35240556330307887 -0.18479875362473361 0 -0.33669316521431608 -0.19324526314955739 0 -0.35024140450074381 -0.20994798342056251 0 -0.36895563931783232 -0.19259611207654981 0 -0.37373608311303341 -0.20786508091529229 0 -0.35024140450074381 -0.20994798342056251 0 -0.37373608311303341 -0.20786508091529229 0 -0.35024140450074381 -0.20994798342056251 0 -0.37373608311303341 -0.20786508091529229 0 -0.35024140450074381 -0.20994798342056251 0 -0.36602803805366552 -0.21914337572849349 0 -0.37373608311303341 -0.20786508091529229 0 -0.36602803805366552 -0.21914337572849349 0 -0.37785639846487218 -0.21906994256996459 0 -0.35024140450074381 -0.20994798342056251 0 -0.357966965356528 -0.23170644806675769 0 -0.3377174746324717 -0.2284461722996495 0 -0.35024140450074381 -0.20994798342056251 0 -0.357966965356528 -0.23170644806675769 0 -0.36602803805366552 -0.21914337572849349 0 -0.357966965356528 -0.23170644806675769 0 -0.36602803805366552 -0.21914337572849349 0 -0.36983275924353248 -0.22875232439276311 0 -0.36602803805366552 -0.21914337572849349 0 -0.36983275924353248 -0.22875232439276311 0 -0.37785639846487218 -0.21906994256996459 0 -0.357966965356528 -0.23170644806675769 0 -0.36983275924353248 -0.22875232439276311 0 -0.37747963509906429 -0.24508953120583671 0 -0.35872453044413888 -0.25078889886649508 0 -0.357966965356528 -0.23170644806675769 0 -0.37747963509906429 -0.24508953120583671 0 -0.357966965356528 -0.23170644806675769 0 -0.34395992200845399 -0.24382677409400949 0 -0.3377174746324717 -0.2284461722996495 0 -0.35872453044413888 -0.25078889886649508 0 -0.357966965356528 -0.23170644806675769 0 -0.34395992200845399 -0.24382677409400949 0 -0.33345250408021371 -0.25331871279766999 0 -0.34395992200845399 -0.24382677409400949 0 -0.33132333615916232 -0.2411148243472106 0 -0.33345250408021371 -0.25331871279766999 0 -0.33132333615916232 -0.2411148243472106 0 -0.32023222063025569 -0.2489608815952247 0 -0.34395992200845399 -0.24382677409400949 0 -0.33132333615916232 -0.2411148243472106 0 -0.3377174746324717 -0.2284461722996495 0 -0.32674672588845421 -0.2120308859258328 0 -0.3377174746324717 -0.2284461722996495 0 -0.32066485276457768 -0.2334308190911655 0 -0.33132333615916232 -0.2411148243472106 0 -0.3377174746324717 -0.2284461722996495 0 -0.32066485276457768 -0.2334308190911655 0 -0.3004866401015065 -0.2269264896544945 0 -0.32674672588845421 -0.2120308859258328 0 -0.32066485276457768 -0.2334308190911655 0 -0.30748271917561598 -0.2431056607245809 0 -0.32066485276457768 -0.2334308190911655 0 -0.32023222063025569 -0.2489608815952247 0 -0.33132333615916232 -0.2411148243472106 0 -0.32066485276457768 -0.2334308190911655 0 -0.32023222063025569 -0.2489608815952247 0 -0.43445882011373449 -0.25478651907497341 0 -0.43806130733353449 -0.23541812032183559 0 -0.43445882011373449 -0.25478651907497341 0 -0.4258852610480256 -0.24284815888716721 0 -0.43806130733353449 -0.23541812032183559 0 -0.4258852610480256 -0.24284815888716721 0 -0.42538833238501789 -0.2333934851751748 0 -0.41698539980062188 -0.23875950084572559 0 -0.43445882011373449 -0.25478651907497341 0 -0.4258852610480256 -0.24284815888716721 0 -0.42335340856967768 -0.24893549408922019 0 -0.4258852610480256 -0.24284815888716721 0 -0.42538833238501789 -0.2333934851751748 0 -0.43806130733353449 -0.23541812032183559 0 -0.43091611572645672 -0.22699763907763329 0 -0.42538833238501789 -0.2333934851751748 0 -0.43806130733353449 -0.23541812032183559 0 -0.43091611572645672 -0.22699763907763329 0 -0.44166379455333399 -0.21604972156869759 0 -0.43806130733353449 -0.23541812032183559 0 -0.43091611572645672 -0.22699763907763329 0 -0.43133498143110582 -0.21921018883561361 0 -0.44166379455333399 -0.21604972156869759 0 -0.43133498143110582 -0.21921018883561361 0 -0.4232485836513401 -0.22477446532261011 0 -0.4232102070061276 -0.21869015764887889 0 -0.43091611572645672 -0.22699763907763329 0 -0.43133498143110582 -0.21921018883561361 0 -0.4232485836513401 -0.22477446532261011 0 -0.43091611572645672 -0.22699763907763329 0 -0.4232485836513401 -0.22477446532261011 0 -0.42538833238501789 -0.2333934851751748 0 -0.4232485836513401 -0.22477446532261011 0 -0.42538833238501789 -0.2333934851751748 0 -0.41731365953457839 -0.2310953018814938 0 -0.4232485836513401 -0.22477446532261011 0 -0.41731365953457839 -0.2310953018814938 0 -0.4121948509493269 -0.2247325638453028 0 -0.41731365953457839 -0.2310953018814938 0 -0.4080561583250083 -0.23272886934204159 0 -0.41698539980062188 -0.23875950084572559 0 -0.4232485836513401 -0.22477446532261011 0 -0.4121948509493269 -0.2247325638453028 0 -0.41685681033243982 -0.21746512418924929 0 -0.4232485836513401 -0.22477446532261011 0 -0.41685681033243982 -0.21746512418924929 0 -0.4232102070061276 -0.21869015764887889 0 -0.4121948509493269 -0.2247325638453028 0 -0.4080561583250083 -0.23272886934204159 0 -0.39971520205611372 -0.2221352637332015 0 -0.4121948509493269 -0.2247325638453028 0 -0.40807454407470489 -0.21592977391801271 0 -0.41685681033243982 -0.21746512418924929 0 -0.4121948509493269 -0.2247325638453028 0 -0.39971520205611372 -0.2221352637332015 0 -0.40807454407470489 -0.21592977391801271 0 -0.41731365953457839 -0.2310953018814938 0 -0.4121948509493269 -0.2247325638453028 0 -0.4080561583250083 -0.23272886934204159 0 -0.4080561583250083 -0.23272886934204159 0 -0.40983148527785651 -0.24118391776602099 0 -0.41698539980062188 -0.23875950084572559 0 -0.42538833238501789 -0.2333934851751748 0 -0.41731365953457839 -0.2310953018814938 0 -0.41698539980062188 -0.23875950084572559 0 -0.40983148527785651 -0.24118391776602099 0 -0.41698539980062188 -0.23875950084572559 0 -0.41627810448972868 -0.24641300060905449 0 -0.4258852610480256 -0.24284815888716721 0 -0.42335340856967768 -0.24893549408922019 0 -0.41627810448972868 -0.24641300060905449 0 -0.4258852610480256 -0.24284815888716721 0 -0.41698539980062188 -0.23875950084572559 0 -0.41627810448972868 -0.24641300060905449 0 -0.41679144862722167 -0.25169429778568547 0 -0.42335340856967768 -0.24893549408922019 0 -0.41627810448972868 -0.24641300060905449 0 -0.41385673751816382 -0.25312989710486528 0 -0.41627810448972868 -0.24641300060905449 0 -0.4086566941719203 -0.24778871483445111 0 -0.40983148527785651 -0.24118391776602099 0 -0.41627810448972868 -0.24641300060905449 0 -0.4086566941719203 -0.24778871483445111 0 -0.40282532782868952 -0.25224285689579767 0 -0.4086566941719203 -0.24778871483445111 0 -0.40022281387448849 -0.24084313907701979 0 -0.40983148527785651 -0.24118391776602099 0 -0.4086566941719203 -0.24778871483445111 0 -0.40022281387448849 -0.24084313907701979 0 -0.4080561583250083 -0.23272886934204159 0 -0.40983148527785651 -0.24118391776602099 0 -0.40022281387448849 -0.24084313907701979 0 -0.40022281387448849 -0.24084313907701979 0 -0.3903832871219331 -0.2411545733314838 0 -0.38772777019650018 -0.2315142496456449 0 -0.3938256931015453 -0.25037754026629511 0 -0.40022281387448849 -0.24084313907701979 0 -0.3903832871219331 -0.2411545733314838 0 -0.3938256931015453 -0.25037754026629511 0 -0.3903832871219331 -0.2411545733314838 0 -0.37747963509906429 -0.24508953120583671 0 -0.3903832871219331 -0.2411545733314838 0 -0.37747963509906429 -0.24508953120583671 0 -0.38772777019650018 -0.2315142496456449 0 -0.37747963509906429 -0.24508953120583671 0 -0.37785639846487218 -0.21906994256996459 0 -0.37747963509906429 -0.24508953120583671 0 -0.37785639846487218 -0.21906994256996459 0 -0.38772777019650018 -0.2315142496456449 0 -0.36983275924353248 -0.22875232439276311 0 -0.37747963509906429 -0.24508953120583671 0 -0.37785639846487218 -0.21906994256996459 0 -0.37785639846487218 -0.21906994256996459 0 -0.38772777019650018 -0.2315142496456449 0 -0.38790285805175961 -0.2167146319195192 0 -0.4080561583250083 -0.23272886934204159 0 -0.40022281387448849 -0.24084313907701979 0 -0.39971520205611372 -0.2221352637332015 0 -0.40022281387448849 -0.24084313907701979 0 -0.39971520205611372 -0.2221352637332015 0 -0.38772777019650018 -0.2315142496456449 0 -0.39971520205611372 -0.2221352637332015 0 -0.38790285805175961 -0.2167146319195192 0 -0.40022281387448849 -0.24084313907701979 0 -0.38772777019650018 -0.2315142496456449 0 -0.39971520205611372 -0.2221352637332015 0 -0.39971520205611372 -0.2221352637332015 0 -0.39723076172532301 -0.205782178410022 0 -0.40807454407470489 -0.21592977391801271 0 -0.39971520205611372 -0.2221352637332015 0 -0.39723076172532301 -0.205782178410022 0 -0.38790285805175961 -0.2167146319195192 0 -0.39723076172532301 -0.205782178410022 0 -0.41303892827123678 -0.21093405469715851 0 -0.40807454407470489 -0.21592977391801271 0 -0.37373608311303341 -0.20786508091529229 0 -0.39723076172532301 -0.205782178410022 0 -0.38370630256805799 -0.1971119561512929 0 -0.37373608311303341 -0.20786508091529229 0 -0.39723076172532301 -0.205782178410022 0 -0.38790285805175961 -0.2167146319195192 0 -0.37373608311303341 -0.20786508091529229 0 -0.39723076172532301 -0.205782178410022 0 -0.37373608311303341 -0.20786508091529229 0 -0.37785639846487218 -0.21906994256996459 0 -0.38790285805175961 -0.2167146319195192 0 -0.36895563931783232 -0.19259611207654981 0 -0.38370630256805799 -0.1971119561512929 0 -0.3831693110633177 -0.1873742460103984 0 -0.36895563931783232 -0.19259611207654981 0 -0.37373608311303341 -0.20786508091529229 0 -0.38370630256805799 -0.1971119561512929 0 -0.38370630256805799 -0.1971119561512929 0 -0.39543971762078378 -0.19194216334420211 0 -0.3831693110633177 -0.1873742460103984 0 -0.39723076172532301 -0.205782178410022 0 -0.38370630256805799 -0.1971119561512929 0 -0.39543971762078378 -0.19194216334420211 0 -0.39723076172532301 -0.205782178410022 0 -0.39543971762078378 -0.19194216334420211 0 -0.40534117689708921 -0.19634387975323889 0 -0.39543971762078378 -0.19194216334420211 0 -0.40534117689708921 -0.19634387975323889 0 -0.40730162077548249 -0.18407395049314179 0 -0.39723076172532301 -0.205782178410022 0 -0.40534117689708921 -0.19634387975323889 0 -0.42072544033761272 -0.20369927590475301 0 -0.42032122747045741 -0.1927313373696285 0 -0.42072544033761272 -0.20369927590475301 0 -0.40730162077548249 -0.18407395049314179 0 -0.42072544033761272 -0.20369927590475301 0 -0.40730162077548249 -0.18407395049314179 0 -0.40534117689708921 -0.19634387975323889 0 -0.42072544033761272 -0.20369927590475301 0 -0.40730162077548249 -0.18407395049314179 0 -0.39723076172532301 -0.205782178410022 0 -0.41303892827123678 -0.21093405469715851 0 -0.42072544033761272 -0.20369927590475301 0 -0.39723076172532301 -0.205782178410022 0 -0.42072544033761272 -0.20369927590475301 0 -0.41303892827123678 -0.21093405469715851 0 -0.40807454407470489 -0.21592977391801271 0 -0.41685681033243982 -0.21746512418924929 0 -0.41303892827123678 -0.21093405469715851 0 -0.41685681033243982 -0.21746512418924929 0 -0.42140045260962489 -0.21331085224804261 0 -0.41685681033243982 -0.21746512418924929 0 -0.42140045260962489 -0.21331085224804261 0 -0.4232102070061276 -0.21869015764887889 0 -0.41303892827123678 -0.21093405469715851 0 -0.42140045260962489 -0.21331085224804261 0 -0.42072544033761272 -0.20369927590475301 0 -0.42512182626149492 -0.2033095177213731 0 -0.43378961613155448 -0.20908682079381441 0 -0.44184138868315109 -0.20247798044170351 0 -0.42072544033761272 -0.20369927590475301 0 -0.42512182626149492 -0.2033095177213731 0 -0.43133498143110582 -0.21921018883561361 0 -0.42072544033761272 -0.20369927590475301 0 -0.42512182626149492 -0.2033095177213731 0 -0.43133498143110582 -0.21921018883561361 0 -0.42512182626149492 -0.2033095177213731 0 -0.43378961613155448 -0.20908682079381441 0 -0.43133498143110582 -0.21921018883561361 0 -0.42140045260962489 -0.21331085224804261 0 -0.4232102070061276 -0.21869015764887889 0 -0.43133498143110582 -0.21921018883561361 0 -0.42072544033761272 -0.20369927590475301 0 -0.43133498143110582 -0.21921018883561361 0 -0.42140045260962489 -0.21331085224804261 0 -0.42072544033761272 -0.20369927590475301 0 -0.43133498143110582 -0.21921018883561361 0 -0.43378961613155448 -0.20908682079381441 0 -0.44166379455333399 -0.21604972156869759 0 -0.42032122747045741 -0.1927313373696285 0 -0.44184138868315109 -0.20247798044170351 0 -0.42032122747045741 -0.1927313373696285 0 -0.43099962817645188 -0.18319011649723049 0 -0.43833565968517207 -0.19112957676178299 0 -0.42032122747045741 -0.1927313373696285 0 -0.42512182626149492 -0.2033095177213731 0 -0.44184138868315109 -0.20247798044170351 0 -0.42032122747045741 -0.1927313373696285 0 -0.43833565968517207 -0.19112957676178299 0 -0.44184138868315109 -0.20247798044170351 0 -0.42032122747045741 -0.1927313373696285 0 -0.42072544033761272 -0.20369927590475301 0 -0.42512182626149492 -0.2033095177213731 0 -0.42549584187692119 -0.17333418479170171 0 -0.43099962817645188 -0.18319011649723049 0 -0.41834400919125792 -0.18158621355319651 0 -0.42032122747045741 -0.1927313373696285 0 -0.43099962817645188 -0.18319011649723049 0 -0.41834400919125792 -0.18158621355319651 0 -0.43099962817645188 -0.18319011649723049 0 -0.43495901877196291 -0.17485617288990979 0 -0.44455133712372419 -0.18300714728765441 0 -0.42549584187692119 -0.17333418479170171 0 -0.43099962817645188 -0.18319011649723049 0 -0.43495901877196291 -0.17485617288990979 0 -0.42549584187692119 -0.17333418479170171 0 -0.43495901877196291 -0.17485617288990979 0 -0.43155613508544272 -0.1669321437644439 0 -0.43495901877196291 -0.17485617288990979 0 -0.43155613508544272 -0.1669321437644439 0 -0.44219215159727421 -0.16781727210851849 0 -0.43155613508544272 -0.1669321437644439 0 -0.43166640735559808 -0.1552039120346444 0 -0.44219215159727421 -0.16781727210851849 0 -0.43155613508544272 -0.1669321437644439 0 -0.4214232379976206 -0.16216052115063159 0 -0.43166640735559808 -0.1552039120346444 0 -0.42549584187692119 -0.17333418479170171 0 -0.43155613508544272 -0.1669321437644439 0 -0.4214232379976206 -0.16216052115063159 0 -0.42549584187692119 -0.17333418479170171 0 -0.4214232379976206 -0.16216052115063159 0 -0.41110577652129249 -0.1670682470007229 0 -0.4214232379976206 -0.16216052115063159 0 -0.41110577652129249 -0.1670682470007229 0 -0.40669002996807779 -0.1495058137550834 0 -0.41110577652129249 -0.1670682470007229 0 -0.41834400919125792 -0.18158621355319651 0 -0.40730162077548249 -0.18407395049314179 0 -0.42549584187692119 -0.17333418479170171 0 -0.41110577652129249 -0.1670682470007229 0 -0.41834400919125792 -0.18158621355319651 0 -0.42032122747045741 -0.1927313373696285 0 -0.41834400919125792 -0.18158621355319651 0 -0.40730162077548249 -0.18407395049314179 0 -0.39543971762078378 -0.19194216334420211 0 -0.40730162077548249 -0.18407395049314179 0 -0.39267839793348491 -0.17927693187167279 0 -0.40730162077548249 -0.18407395049314179 0 -0.39267839793348491 -0.17927693187167279 0 -0.39387780121335469 -0.16444862508152899 0 -0.40730162077548249 -0.18407395049314179 0 -0.39387780121335469 -0.16444862508152899 0 -0.37378547386561772 -0.17392500984250869 0 -0.36895563931783232 -0.19259611207654981 0 -0.3831693110633177 -0.1873742460103984 0 -0.37378547386561772 -0.17392500984250869 0 -0.39267839793348491 -0.17927693187167279 0 -0.3831693110633177 -0.1873742460103984 0 -0.37378547386561772 -0.17392500984250869 0 -0.39267839793348491 -0.17927693187167279 0 -0.39387780121335469 -0.16444862508152899 0 -0.39543971762078378 -0.19194216334420211 0 -0.39267839793348491 -0.17927693187167279 0 -0.3831693110633177 -0.1873742460103984 0 -0.37378547386561772 -0.17392500984250869 0 -0.37839901512320262 -0.15996290040625341 0 -0.39387780121335469 -0.16444862508152899 0 -0.37839901512320262 -0.15996290040625341 0 -0.39387780121335469 -0.16444862508152899 0 -0.3804539816512269 -0.14482329966991631 0 -0.41110577652129249 -0.1670682470007229 0 -0.39387780121335469 -0.16444862508152899 0 -0.40669002996807779 -0.1495058137550834 0 -0.41110577652129249 -0.1670682470007229 0 -0.40730162077548249 -0.18407395049314179 0 -0.39387780121335469 -0.16444862508152899 0 -0.39387780121335469 -0.16444862508152899 0 -0.3804539816512269 -0.14482329966991631 0 -0.40669002996807779 -0.1495058137550834 0 -0.3804539816512269 -0.14482329966991631 0 -0.39647179587780151 -0.13189450107720049 0 -0.40669002996807779 -0.1495058137550834 0 -0.3804539816512269 -0.14482329966991631 0 -0.40669002996807779 -0.1495058137550834 0 -0.39387780121335469 -0.16444862508152899 0 -0.3804539816512269 -0.14482329966991631 0 -0.3804539816512269 -0.14482329966991631 0 -0.38278168804071749 -0.12940228238898679 0 -0.39647179587780151 -0.13189450107720049 0 -0.3804539816512269 -0.14482329966991631 0 -0.39647179587780151 -0.13189450107720049 0 -0.37212838853434238 -0.11808059788504249 0 -0.37028068739271691 -0.13083580994494901 0 -0.38278168804071749 -0.12940228238898679 0 -0.37028068739271691 -0.13083580994494901 0 -0.3804539816512269 -0.14482329966991631 0 -0.38278168804071749 -0.12940228238898679 0 -0.38278168804071749 -0.12940228238898679 0 -0.39647179587780151 -0.13189450107720049 0 -0.39044023874876249 -0.11757149150947201 0 -0.39647179587780151 -0.13189450107720049 0 -0.40828286160401828 -0.1310364195873514 0 -0.40669002996807779 -0.1495058137550834 0 -0.39647179587780151 -0.13189450107720049 0 -0.40828286160401828 -0.1310364195873514 0 -0.41122993917504558 -0.1199812866788818 0 -0.39647179587780151 -0.13189450107720049 0 -0.41122993917504558 -0.1199812866788818 0 -0.40828286160401828 -0.1310364195873514 0 -0.41930562378398423 -0.12797048681614909 0 -0.41122993917504558 -0.1199812866788818 0 -0.41930562378398423 -0.12797048681614909 0 -0.41533589961201212 -0.13938201891822019 0 -0.4273858072007774 -0.14414008567558009 0 -0.40828286160401828 -0.1310364195873514 0 -0.41533589961201212 -0.13938201891822019 0 -0.40669002996807779 -0.1495058137550834 0 -0.40828286160401828 -0.1310364195873514 0 -0.41930562378398423 -0.12797048681614909 0 -0.41533589961201212 -0.13938201891822019 0 -0.40669002996807779 -0.1495058137550834 0 -0.43166640735559808 -0.1552039120346444 0 -0.4214232379976206 -0.16216052115063159 0 -0.40669002996807779 -0.1495058137550834 0 -0.43166640735559808 -0.1552039120346444 0 -0.41533589961201212 -0.13938201891822019 0 -0.40669002996807779 -0.1495058137550834 0 -0.4273858072007774 -0.14414008567558009 0 -0.40669002996807779 -0.1495058137550834 0 -0.4273858072007774 -0.14414008567558009 0 -0.43166640735559808 -0.1552039120346444 0 -0.43166640735559808 -0.1552039120346444 0 -0.43525592456887258 -0.14374997194848471 0 -0.44410307239699631 -0.15282998285397989 0 -0.4273858072007774 -0.14414008567558009 0 -0.43166640735559808 -0.1552039120346444 0 -0.43525592456887258 -0.14374997194848471 0 -0.41930562378398423 -0.12797048681614909 0 -0.43525592456887258 -0.14374997194848471 0 -0.41930562378398423 -0.12797048681614909 0 -0.4273858072007774 -0.14414008567558009 0 -0.43525592456887258 -0.14374997194848471 0 -0.41930562378398423 -0.12797048681614909 0 -0.4273858072007774 -0.14414008567558009 0 -0.41930562378398423 -0.12797048681614909 0 -0.43525592456887258 -0.14374997194848471 0 -0.43389101300267191 -0.13422730327376839 0 -0.41930562378398423 -0.12797048681614909 0 -0.43389101300267191 -0.13422730327376839 0 -0.4149348530849476 -0.1169905694289516 0 -0.43389101300267191 -0.13422730327376839 0 -0.4149348530849476 -0.1169905694289516 0 -0.43389101300267191 -0.13422730327376839 0 -0.43160182387889101 -0.1187955019330571 0 -0.44085253015216358 -0.1237950587173612 0 -0.43389101300267191 -0.13422730327376839 0 -0.44872577578551592 -0.13320174295465559 0 -0.452847172920396 -0.1514640371185853 0 -0.44872577578551592 -0.13320174295465559 0 -0.45896755277767909 -0.12575633132281341 0 -0.45000974795797011 -0.119430952696417 0 -0.44872577578551592 -0.13320174295465559 0 -0.45000974795797011 -0.119430952696417 0 -0.44085253015216358 -0.1237950587173612 0 -0.43389101300267191 -0.13422730327376839 0 -0.44872577578551592 -0.13320174295465559 0 -0.44085253015216358 -0.1237950587173612 0 -0.43525592456887258 -0.14374997194848471 0 -0.43389101300267191 -0.13422730327376839 0 -0.452847172920396 -0.1514640371185853 0 -0.43525592456887258 -0.14374997194848471 0 -0.44410307239699631 -0.15282998285397989 0 -0.452847172920396 -0.1514640371185853 0 -0.44872577578551592 -0.13320174295465559 0 -0.452847172920396 -0.1514640371185853 0 -0.456386085566235 -0.14096643446963419 0 -0.43389101300267191 -0.13422730327376839 0 -0.452847172920396 -0.1514640371185853 0 -0.44410307239699631 -0.15282998285397989 0 -0.452847172920396 -0.1514640371185853 0 -0.45664278474311831 -0.16090201031420531 0 -0.452847172920396 -0.1514640371185853 0 -0.456386085566235 -0.14096643446963419 0 -0.46738274896045578 -0.15003021006820461 0 -0.452847172920396 -0.1514640371185853 0 -0.46738274896045578 -0.15003021006820461 0 -0.45664278474311831 -0.16090201031420531 0 -0.456386085566235 -0.14096643446963419 0 -0.46738274896045578 -0.15003021006820461 0 -0.47200539146090159 -0.13839174763128981 0 -0.456386085566235 -0.14096643446963419 0 -0.47200539146090159 -0.13839174763128981 0 -0.47750202174635031 -0.1215216316744509 0 -0.456386085566235 -0.14096643446963419 0 -0.45896755277767909 -0.12575633132281341 0 -0.47750202174635031 -0.1215216316744509 0 -0.456386085566235 -0.14096643446963419 0 -0.47750202174635031 -0.1215216316744509 0 -0.44872577578551592 -0.13320174295465559 0 -0.456386085566235 -0.14096643446963419 0 -0.45896755277767909 -0.12575633132281341 0 -0.47200539146090159 -0.13839174763128981 0 -0.48675070957056549 -0.14104871431286931 0 -0.47750202174635031 -0.1215216316744509 0 -0.50000000000000011 -0.12648838757554831 0 -0.48675070957056549 -0.14104871431286931 0 -0.5 -0.15043640832747529 0 -0.50000000000000011 -0.12648838757554831 0 -0.48675070957056549 -0.14104871431286931 0 -0.47750202174635031 -0.1215216316744509 0 -0.48675070957056549 -0.14104871431286931 0 -0.5 -0.15043640832747529 0 -0.48062174440056549 -0.15969986187448909 0 -0.46738274896045578 -0.15003021006820461 0 -0.47200539146090159 -0.13839174763128981 0 -0.48675070957056549 -0.14104871431286931 0 -0.48675070957056549 -0.14104871431286931 0 -0.48062174440056549 -0.15969986187448909 0 -0.46738274896045578 -0.15003021006820461 0 -0.48675070957056549 -0.14104871431286931 0 -0.48062174440056549 -0.15969986187448909 0 -0.48062174440056549 -0.15969986187448909 0 -0.46548313673471758 -0.16971310035941381 0 -0.46753260370971428 -0.1600862956540782 0 -0.46738274896045578 -0.15003021006820461 0 -0.48062174440056549 -0.15969986187448909 0 -0.46753260370971428 -0.1600862956540782 0 -0.48062174440056549 -0.15969986187448909 0 -0.47449277923056221 -0.17835100943610771 0 -0.46548313673471758 -0.16971310035941381 0 -0.48062174440056549 -0.15969986187448909 0 -0.47449277923056221 -0.17835100943610771 0 -0.5 -0.15043640832747529 0 -0.48062174440056549 -0.15969986187448909 0 -0.49999999999999828 -0.17438442907940241 0 -0.48062174440056549 -0.15969986187448909 0 -0.49999999999999828 -0.17438442907940241 0 -0.47449277923056221 -0.17835100943610771 0 -0.49999999999999828 -0.17438442907940241 0 -0.47449277923056221 -0.17835100943610771 0 -0.49999999999999828 -0.17438442907940241 0 -0.47449277923056221 -0.17835100943610771 0 -0.48549376880548989 -0.19132810400505559 0 -0.47449277923056221 -0.17835100943610771 0 -0.46892716456320649 -0.19528781647494389 0 -0.47449277923056221 -0.17835100943610771 0 -0.45952205817714309 -0.18067907836188021 0 -0.46892716456320649 -0.19528781647494389 0 -0.45952205817714309 -0.18067907836188021 0 -0.46548313673471758 -0.16971310035941381 0 -0.45289664290439807 -0.17180374819378549 0 -0.47449277923056221 -0.17835100943610771 0 -0.45952205817714309 -0.18067907836188021 0 -0.47449277923056221 -0.17835100943610771 0 -0.45952205817714309 -0.18067907836188021 0 -0.46548313673471758 -0.16971310035941381 0 -0.46548313673471758 -0.16971310035941381 0 -0.46753260370971428 -0.1600862956540782 0 -0.45664278474311831 -0.16090201031420531 0 -0.46738274896045578 -0.15003021006820461 0 -0.46753260370971428 -0.1600862956540782 0 -0.45664278474311831 -0.16090201031420531 0 -0.46548313673471758 -0.16971310035941381 0 -0.45664278474311831 -0.16090201031420531 0 -0.45289664290439807 -0.17180374819378549 0 -0.45664278474311831 -0.16090201031420531 0 -0.45289664290439807 -0.17180374819378549 0 -0.44219215159727421 -0.16781727210851849 0 -0.43166640735559808 -0.1552039120346444 0 -0.45664278474311831 -0.16090201031420531 0 -0.44219215159727421 -0.16781727210851849 0 -0.43166640735559808 -0.1552039120346444 0 -0.45664278474311831 -0.16090201031420531 0 -0.43166640735559808 -0.1552039120346444 0 -0.44410307239699631 -0.15282998285397989 0 -0.45664278474311831 -0.16090201031420531 0 -0.43495901877196291 -0.17485617288990979 0 -0.44219215159727421 -0.16781727210851849 0 -0.44455133712372419 -0.18300714728765441 0 -0.43099962817645188 -0.18319011649723049 0 -0.44455133712372419 -0.18300714728765441 0 -0.43833565968517207 -0.19112957676178299 0 -0.45952205817714309 -0.18067907836188021 0 -0.44455133712372419 -0.18300714728765441 0 -0.45396471697207569 -0.194241302212698 0 -0.45952205817714309 -0.18067907836188021 0 -0.44455133712372419 -0.18300714728765441 0 -0.45952205817714309 -0.18067907836188021 0 -0.45289664290439807 -0.17180374819378549 0 -0.44455133712372419 -0.18300714728765441 0 -0.45289664290439807 -0.17180374819378549 0 -0.44219215159727421 -0.16781727210851849 0 -0.44455133712372419 -0.18300714728765441 0 -0.44455133712372419 -0.18300714728765441 0 -0.43833565968517207 -0.19112957676178299 0 -0.45396471697207569 -0.194241302212698 0 -0.43833565968517207 -0.19112957676178299 0 -0.44184138868315109 -0.20247798044170351 0 -0.45396471697207569 -0.194241302212698 0 -0.44184138868315109 -0.20247798044170351 0 -0.46336154989584488 -0.2122246235137781 0 -0.45396471697207569 -0.194241302212698 0 -0.44184138868315109 -0.20247798044170351 0 -0.46336154989584488 -0.2122246235137781 0 -0.45338394269579491 -0.2190794284651259 0 -0.43378961613155448 -0.20908682079381441 0 -0.44184138868315109 -0.20247798044170351 0 -0.44166379455333399 -0.21604972156869759 0 -0.44184138868315109 -0.20247798044170351 0 -0.44166379455333399 -0.21604972156869759 0 -0.45338394269579491 -0.2190794284651259 0 -0.44184138868315109 -0.20247798044170351 0 -0.46336154989584488 -0.2122246235137781 0 -0.46336154989584488 -0.2122246235137781 0 -0.46892716456320649 -0.19528781647494389 0 -0.46336154989584488 -0.2122246235137781 0 -0.45396471697207569 -0.194241302212698 0 -0.46892716456320649 -0.19528781647494389 0 -0.45952205817714309 -0.18067907836188021 0 -0.45396471697207569 -0.194241302212698 0 -0.46892716456320649 -0.19528781647494389 0 -0.47449277923056221 -0.17835100943610771 0 -0.46892716456320649 -0.19528781647494389 0 -0.48549376880548989 -0.19132810400505559 0 -0.46892716456320649 -0.19528781647494389 0 -0.48549376880548989 -0.19132810400505559 0 -0.47978640147694102 -0.20418872613165631 0 -0.5 -0.20182215567114031 0 -0.48549376880548989 -0.19132810400505559 0 -0.47978640147694102 -0.20418872613165631 0 -0.49999999999999828 -0.17438442907940241 0 -0.5 -0.20182215567114031 0 -0.48549376880548989 -0.19132810400505559 0 -0.5 -0.20182215567114031 0 -0.48114952412016337 -0.22028093099336349 0 -0.49893749834448198 -0.22833723847294871 0 -0.5 -0.20182215567114031 0 -0.47978640147694102 -0.20418872613165631 0 -0.48114952412016337 -0.22028093099336349 0 -0.46336154989584488 -0.2122246235137781 0 -0.48114952412016337 -0.22028093099336349 0 -0.46336154989584488 -0.2122246235137781 0 -0.47978640147694102 -0.20418872613165631 0 -0.48114952412016337 -0.22028093099336349 0 -0.46336154989584488 -0.2122246235137781 0 -0.46892716456320649 -0.19528781647494389 0 -0.47978640147694102 -0.20418872613165631 0 -0.46336154989584488 -0.2122246235137781 0 -0.48114952412016337 -0.22028093099336349 0 -0.46857810181099829 -0.22486784275082261 0 -0.48114952412016337 -0.22028093099336349 0 -0.48798868478634799 -0.231470988200419 0 -0.47142395938804471 -0.23802335247430181 0 -0.48114952412016337 -0.22028093099336349 0 -0.47142395938804471 -0.23802335247430181 0 -0.46857810181099829 -0.22486784275082261 0 -0.48114952412016337 -0.22028093099336349 0 -0.48798868478634799 -0.231470988200419 0 -0.49893749834448198 -0.22833723847294871 0 -0.48114952412016337 -0.22028093099336349 0 -0.49893749834448198 -0.22833723847294871 0 -0.48798868478634799 -0.231470988200419 0 -0.49893749834448198 -0.22833723847294871 0 -0.4875835208682564 -0.24248539692068891 0 -0.5 -0.25669760885461612 0 -0.49893749834448198 -0.22833723847294871 0 -0.4875835208682564 -0.24248539692068891 0 -0.48798868478634799 -0.231470988200419 0 -0.4875835208682564 -0.24248539692068891 0 -0.47142395938804471 -0.23802335247430181 0 -0.47878778985378329 -0.25835102983948688 0 -0.4875835208682564 -0.24248539692068891 0 -0.47142395938804471 -0.23802335247430181 0 -0.45662330498375908 -0.25656877445722759 0 -0.47142395938804471 -0.23802335247430181 0 -0.45034617445999431 -0.24335722649563979 0 -0.47142395938804471 -0.23802335247430181 0 -0.45735065046854989 -0.23051648340969341 0 -0.45034617445999431 -0.24335722649563979 0 -0.46336154989584488 -0.2122246235137781 0 -0.46857810181099829 -0.22486784275082261 0 -0.45735065046854989 -0.23051648340969341 0 -0.46336154989584488 -0.2122246235137781 0 -0.45735065046854989 -0.23051648340969341 0 -0.47142395938804471 -0.23802335247430181 0 -0.46857810181099829 -0.22486784275082261 0 -0.45735065046854989 -0.23051648340969341 0 -0.46336154989584488 -0.2122246235137781 0 -0.45338394269579491 -0.2190794284651259 0 -0.45735065046854989 -0.23051648340969341 0 -0.45338394269579491 -0.2190794284651259 0 -0.45735065046854989 -0.23051648340969341 0 -0.43806130733353449 -0.23541812032183559 0 -0.44166379455333399 -0.21604972156869759 0 -0.43806130733353449 -0.23541812032183559 0 -0.44166379455333399 -0.21604972156869759 0 -0.45338394269579491 -0.2190794284651259 0 -0.43806130733353449 -0.23541812032183559 0 -0.45735065046854989 -0.23051648340969341 0 -0.45034617445999431 -0.24335722649563979 0 -0.43806130733353449 -0.23541812032183559 0 -0.43445882011373449 -0.25478651907497341 0 -0.45034617445999431 -0.24335722649563979 0 -0.43806130733353449 -0.23541812032183559 0 -0.41324955929443102 -0.038374170610562031 0 -0.41005136228565903 -0.05540387285823338 0 -0.42435348212729052 -0.04457483879584373 0 -0.41324955929443102 -0.038374170610562031 0 -0.41005136228565903 -0.05540387285823338 0 -0.39900851660089293 -0.046429079601448257 0 -0.41324955929443102 -0.038374170610562031 0 -0.40747857107326091 -0.02424585309778798 0 -0.40045416304880688 -0.034240371911693122 0 -0.41005136228565903 -0.05540387285823338 0 -0.4246600563061857 -0.059067830999859447 0 -0.41422906440869389 -0.068128229862373102 0 -0.41005136228565903 -0.05540387285823338 0 -0.4246600563061857 -0.059067830999859447 0 -0.42435348212729052 -0.04457483879584373 0 -0.4246600563061857 -0.059067830999859447 0 -0.42435348212729052 -0.04457483879584373 0 -0.43957367317472601 -0.045089571971719818 0 -0.4246600563061857 -0.059067830999859447 0 -0.43957367317472601 -0.045089571971719818 0 -0.44544580640037118 -0.056213229689383748 0 -0.41324955929443102 -0.038374170610562031 0 -0.42435348212729052 -0.04457483879584373 0 -0.42981912379901888 -0.030443092666165631 0 -0.42435348212729052 -0.04457483879584373 0 -0.42981912379901888 -0.030443092666165631 0 -0.43957367317472601 -0.045089571971719818 0 -0.41302196833726168 -0.01226972299954816 0 -0.4392085005598273 -0.024676348383282701 0 -0.42659341977192161 -0.010103830507352861 0 -0.41302196833726168 -0.01226972299954816 0 -0.4392085005598273 -0.024676348383282701 0 -0.42981912379901888 -0.030443092666165631 0 -0.41673372021425997 -0.022240754673565791 0 -0.4392085005598273 -0.024676348383282701 0 -0.41302196833726168 -0.01226972299954816 0 -0.41673372021425997 -0.022240754673565791 0 -0.4392085005598273 -0.024676348383282701 0 -0.43741768347029059 -0.01288367903972009 0 -0.42659341977192161 -0.010103830507352861 0 -0.4392085005598273 -0.024676348383282701 0 -0.4441818909265971 -0.00998157505946092 0 -0.42578104856505677 0.0031949168855625672 0 -0.43741768347029059 -0.01288367903972009 0 -0.4441818909265971 -0.00998157505946092 0 -0.42578104856505677 0.0031949168855625672 0 -0.43741768347029059 -0.01288367903972009 0 -0.42659341977192161 -0.010103830507352861 0 -0.42578104856505677 0.0031949168855625672 0 -0.43741768347029059 -0.01288367903972009 0 -0.42578104856505677 0.0031949168855625672 0 -0.42659341977192161 -0.010103830507352861 0 -0.41753789792717189 -0.0038843189997757009 0 -0.42578104856505677 0.0031949168855625672 0 -0.42659341977192161 -0.010103830507352861 0 -0.41753789792717189 -0.0038843189997757009 0 -0.41302196833726168 -0.01226972299954816 0 -0.41753789792717189 -0.0038843189997757009 0 -0.41302196833726168 -0.01226972299954816 0 -0.40771050441737638 -0.0035262849216432719 0 -0.41753789792717189 -0.0038843189997757009 0 -0.40771050441737638 -0.0035262849216432719 0 -0.41105156913745711 0.0034129409419674369 0 -0.42981912379901888 -0.030443092666165631 0 -0.40747857107326091 -0.02424585309778798 0 -0.41324955929443102 -0.038374170610562031 0 -0.42981912379901888 -0.030443092666165631 0 -0.40747857107326091 -0.02424585309778798 0 -0.42981912379901888 -0.030443092666165631 0 -0.41673372021425997 -0.022240754673565791 0 -0.40747857107326091 -0.02424585309778798 0 -0.41302196833726168 -0.01226972299954816 0 -0.41673372021425997 -0.022240754673565791 0 -0.40747857107326091 -0.02424585309778798 0 -0.41673372021425997 -0.022240754673565791 0 -0.40747857107326091 -0.02424585309778798 0 -0.40747857107326091 -0.02424585309778798 0 -0.38992317137517202 -0.02804917422583518 0 -0.40747857107326091 -0.02424585309778798 0 -0.38992317137517202 -0.02804917422583518 0 -0.38297625517291389 -0.017448943304264108 0 -0.40747857107326091 -0.02424585309778798 0 -0.38992317137517202 -0.02804917422583518 0 -0.40045416304880688 -0.034240371911693122 0 -0.40747857107326091 -0.02424585309778798 0 -0.39567459441968961 -0.012635194689989219 0 -0.38297625517291389 -0.017448943304264108 0 -0.40747857107326091 -0.02424585309778798 0 -0.38297625517291389 -0.017448943304264108 0 -0.41302196833726168 -0.01226972299954816 0 -0.40747857107326091 -0.02424585309778798 0 -0.39567459441968961 -0.012635194689989219 0 -0.41302196833726168 -0.01226972299954816 0 -0.40771050441737638 -0.0035262849216432719 0 -0.38683543611469601 0.0001369023841863784 0 -0.41302196833726168 -0.01226972299954816 0 -0.39567459441968961 -0.012635194689989219 0 -0.38683543611469601 0.0001369023841863784 0 -0.41302196833726168 -0.01226972299954816 0 -0.38683543611469601 0.0001369023841863784 0 -0.40771050441737638 -0.0035262849216432719 0 -0.38683543611469601 0.0001369023841863784 0 -0.40226596945639398 0.0014711925349297271 0 -0.39567459441968961 -0.012635194689989219 0 -0.38502252263107412 -0.0084426060797158468 0 -0.38683543611469601 0.0001369023841863784 0 -0.39567459441968961 -0.012635194689989219 0 -0.38502252263107412 -0.0084426060797158468 0 -0.38297625517291389 -0.017448943304264108 0 -0.38502252263107412 -0.0084426060797158468 0 -0.38009964520605882 -0.0090403485437739461 0 -0.38297625517291389 -0.017448943304264108 0 -0.37278444596104371 -0.0079457960458173115 0 -0.38009964520605882 -0.0090403485437739461 0 -0.38297625517291389 -0.017448943304264108 0 -0.37474494217865062 -0.0022388935110706832 0 -0.38502252263107412 -0.0084426060797158468 0 -0.38683543611469601 0.0001369023841863784 0 -0.37474494217865062 -0.0022388935110706832 0 -0.38502252263107412 -0.0084426060797158468 0 -0.38009964520605882 -0.0090403485437739461 0 -0.37474494217865062 -0.0022388935110706832 0 -0.37278444596104371 -0.0079457960458173115 0 -0.38009964520605882 -0.0090403485437739461 0 -0.37236777167708351 -0.031852495353884333 0 -0.38992317137517202 -0.02804917422583518 0 -0.37990921189048049 -0.023302515363219579 0 -0.37236777167708351 -0.031852495353884333 0 -0.38992317137517202 -0.02804917422583518 0 -0.38992317137517202 -0.02804917422583518 0 -0.38297625517291389 -0.017448943304264108 0 -0.37990921189048049 -0.023302515363219579 0 -0.3739022591900184 -0.02415390189740213 0 -0.38297625517291389 -0.017448943304264108 0 -0.37990921189048049 -0.023302515363219579 0 -0.37236777167708351 -0.031852495353884333 0 -0.3739022591900184 -0.02415390189740213 0 -0.37990921189048049 -0.023302515363219579 0 -0.37236777167708351 -0.031852495353884333 0 -0.37990921189048049 -0.023302515363219579 0 -0.38458287424021398 -0.039388642062709187 0 -0.39900851660089293 -0.046429079601448257 0 -0.3815482533063424 -0.052412606119804542 0 -0.37355784227175309 -0.045246792894939887 0 -0.37236777167708351 -0.031852495353884333 0 -0.38458287424021398 -0.039388642062709187 0 -0.37236777167708351 -0.031852495353884333 0 -0.38992317137517202 -0.02804917422583518 0 -0.38458287424021398 -0.039388642062709187 0 -0.37355784227175309 -0.045246792894939887 0 -0.38458287424021398 -0.039388642062709187 0 -0.3815482533063424 -0.052412606119804542 0 -0.38458287424021398 -0.039388642062709187 0 -0.39900851660089293 -0.046429079601448257 0 -0.40045416304880688 -0.034240371911693122 0 -0.38992317137517202 -0.02804917422583518 0 -0.38458287424021398 -0.039388642062709187 0 -0.40045416304880688 -0.034240371911693122 0 -0.41324955929443102 -0.038374170610562031 0 -0.39900851660089293 -0.046429079601448257 0 -0.40045416304880688 -0.034240371911693122 0 -0.39900851660089293 -0.046429079601448257 0 -0.39626447370361728 -0.06091275685647668 0 -0.3815482533063424 -0.052412606119804542 0 -0.41005136228565903 -0.05540387285823338 0 -0.39626447370361728 -0.06091275685647668 0 -0.40517181862379281 -0.066558370858305557 0 -0.41005136228565903 -0.05540387285823338 0 -0.39900851660089293 -0.046429079601448257 0 -0.39626447370361728 -0.06091275685647668 0 -0.36862349457690058 -0.057461967220355487 0 -0.3815482533063424 -0.052412606119804542 0 -0.37947166312044489 -0.067272628224985004 0 -0.3815482533063424 -0.052412606119804542 0 -0.37947166312044489 -0.067272628224985004 0 -0.39260231949431601 -0.074533368335879327 0 -0.36882665317829499 -0.078032107790563188 0 -0.39260231949431601 -0.074533368335879327 0 -0.39626447370361728 -0.06091275685647668 0 -0.3815482533063424 -0.052412606119804542 0 -0.39260231949431601 -0.074533368335879327 0 -0.3815482533063424 -0.052412606119804542 0 -0.39260231949431601 -0.074533368335879327 0 -0.36882665317829499 -0.078032107790563188 0 -0.37947166312044489 -0.067272628224985004 0 -0.39260231949431601 -0.074533368335879327 0 -0.36882665317829499 -0.078032107790563188 0 -0.39260231949431601 -0.074533368335879327 0 -0.39002829617667018 -0.099006697234722524 0 -0.36882665317829499 -0.078032107790563188 0 -0.39002829617667018 -0.099006697234722524 0 -0.37367929427193591 -0.1014825750548952 0 -0.36882665317829499 -0.078032107790563188 0 -0.39002829617667018 -0.099006697234722524 0 -0.39260231949431601 -0.074533368335879327 0 -0.39002829617667018 -0.099006697234722524 0 -0.39510370691593599 -0.098958215311000047 0 -0.39260231949431601 -0.074533368335879327 0 -0.40274583300482147 -0.094831984843681591 0 -0.39260231949431601 -0.074533368335879327 0 -0.39510370691593599 -0.098958215311000047 0 -0.40274583300482147 -0.094831984843681591 0 -0.40361170428446441 -0.083317353290434007 0 -0.39260231949431601 -0.074533368335879327 0 -0.40274583300482147 -0.094831984843681591 0 -0.40361170428446441 -0.083317353290434007 0 -0.39867569396630093 -0.073639632925658519 0 -0.40696916935602839 -0.074517235882718885 0 -0.39867569396630093 -0.073639632925658519 0 -0.40517181862379281 -0.066558370858305557 0 -0.40696916935602839 -0.074517235882718885 0 -0.39626447370361728 -0.06091275685647668 0 -0.39867569396630093 -0.073639632925658519 0 -0.40517181862379281 -0.066558370858305557 0 -0.39626447370361728 -0.06091275685647668 0 -0.39867569396630093 -0.073639632925658519 0 -0.39260231949431601 -0.074533368335879327 0 -0.40361170428446441 -0.083317353290434007 0 -0.39867569396630093 -0.073639632925658519 0 -0.39260231949431601 -0.074533368335879327 0 -0.39867569396630093 -0.073639632925658519 0 -0.39260231949431601 -0.074533368335879327 0 -0.37212838853434238 -0.11808059788504249 0 -0.38278168804071749 -0.12940228238898679 0 -0.39044023874876249 -0.11757149150947201 0 -0.37367929427193591 -0.1014825750548952 0 -0.37212838853434238 -0.11808059788504249 0 -0.39044023874876249 -0.11757149150947201 0 -0.37367929427193591 -0.1014825750548952 0 -0.39044023874876249 -0.11757149150947201 0 -0.39002829617667018 -0.099006697234722524 0 -0.39510370691593599 -0.098958215311000047 0 -0.40274583300482147 -0.094831984843681591 0 -0.41288934651532883 -0.11513060135148299 0 -0.39002829617667018 -0.099006697234722524 0 -0.39510370691593599 -0.098958215311000047 0 -0.41122993917504558 -0.1199812866788818 0 -0.39510370691593599 -0.098958215311000047 0 -0.41288934651532883 -0.11513060135148299 0 -0.39647179587780151 -0.13189450107720049 0 -0.39044023874876249 -0.11757149150947201 0 -0.41122993917504558 -0.1199812866788818 0 -0.39002829617667018 -0.099006697234722524 0 -0.41122993917504558 -0.1199812866788818 0 -0.39044023874876249 -0.11757149150947201 0 -0.39002829617667018 -0.099006697234722524 0 -0.41122993917504558 -0.1199812866788818 0 -0.39510370691593599 -0.098958215311000047 0 -0.41122993917504558 -0.1199812866788818 0 -0.41288934651532883 -0.11513060135148299 0 -0.41930562378398423 -0.12797048681614909 0 -0.41122993917504558 -0.1199812866788818 0 -0.4149348530849476 -0.1169905694289516 0 -0.41930562378398423 -0.12797048681614909 0 -0.41122993917504558 -0.1199812866788818 0 -0.41930562378398423 -0.12797048681614909 0 -0.4149348530849476 -0.1169905694289516 0 -0.41122993917504558 -0.1199812866788818 0 -0.41288934651532883 -0.11513060135148299 0 -0.4149348530849476 -0.1169905694289516 0 -0.41122993917504558 -0.1199812866788818 0 -0.4149348530849476 -0.1169905694289516 0 -0.41288934651532883 -0.11513060135148299 0 -0.4149348530849476 -0.1169905694289516 0 -0.41288934651532883 -0.11513060135148299 0 -0.4149348530849476 -0.1169905694289516 0 -0.41458672172207622 -0.10427776634057311 0 -0.40274583300482147 -0.094831984843681591 0 -0.41288934651532883 -0.11513060135148299 0 -0.4149348530849476 -0.1169905694289516 0 -0.41458672172207622 -0.10427776634057311 0 -0.43059848591229039 -0.1043464168163742 0 -0.40274583300482147 -0.094831984843681591 0 -0.41288934651532883 -0.11513060135148299 0 -0.41458672172207622 -0.10427776634057311 0 -0.41458672172207622 -0.10427776634057311 0 -0.41348552386521947 -0.090840815536544176 0 -0.43025813067654672 -0.08737754853092726 0 -0.40274583300482147 -0.094831984843681591 0 -0.41458672172207622 -0.10427776634057311 0 -0.41348552386521947 -0.090840815536544176 0 -0.43059848591229039 -0.1043464168163742 0 -0.43025813067654672 -0.08737754853092726 0 -0.44626211873963212 -0.091702264203795431 0 -0.41458672172207622 -0.10427776634057311 0 -0.43059848591229039 -0.1043464168163742 0 -0.43025813067654672 -0.08737754853092726 0 -0.41458672172207622 -0.10427776634057311 0 -0.43025813067654672 -0.08737754853092726 0 -0.4149348530849476 -0.1169905694289516 0 -0.43059848591229039 -0.1043464168163742 0 -0.43160182387889101 -0.1187955019330571 0 -0.4149348530849476 -0.1169905694289516 0 -0.43059848591229039 -0.1043464168163742 0 -0.43389101300267191 -0.13422730327376839 0 -0.4149348530849476 -0.1169905694289516 0 -0.43160182387889101 -0.1187955019330571 0 -0.43059848591229039 -0.1043464168163742 0 -0.43160182387889101 -0.1187955019330571 0 -0.44003429013576911 -0.11331979272890801 0 -0.43160182387889101 -0.1187955019330571 0 -0.44085253015216358 -0.1237950587173612 0 -0.44003429013576911 -0.11331979272890801 0 -0.41422906440869389 -0.068128229862373102 0 -0.41539885585273961 -0.080089681603359497 0 -0.42594434486026628 -0.073522222089585226 0 -0.4246600563061857 -0.059067830999859447 0 -0.41422906440869389 -0.068128229862373102 0 -0.42594434486026628 -0.073522222089585226 0 -0.41005136228565903 -0.05540387285823338 0 -0.40517181862379281 -0.066558370858305557 0 -0.41422906440869389 -0.068128229862373102 0 -0.40517181862379281 -0.066558370858305557 0 -0.41422906440869389 -0.068128229862373102 0 -0.40696916935602839 -0.074517235882718885 0 -0.41422906440869389 -0.068128229862373102 0 -0.40696916935602839 -0.074517235882718885 0 -0.41539885585273961 -0.080089681603359497 0 -0.41348552386521947 -0.090840815536544176 0 -0.41539885585273961 -0.080089681603359497 0 -0.43025813067654672 -0.08737754853092726 0 -0.40361170428446441 -0.083317353290434007 0 -0.41348552386521947 -0.090840815536544176 0 -0.41539885585273961 -0.080089681603359497 0 -0.40361170428446441 -0.083317353290434007 0 -0.40696916935602839 -0.074517235882718885 0 -0.41539885585273961 -0.080089681603359497 0 -0.40361170428446441 -0.083317353290434007 0 -0.40274583300482147 -0.094831984843681591 0 -0.41348552386521947 -0.090840815536544176 0 -0.41539885585273961 -0.080089681603359497 0 -0.43025813067654672 -0.08737754853092726 0 -0.42594434486026628 -0.073522222089585226 0 -0.4246600563061857 -0.059067830999859447 0 -0.44592953963101739 -0.07047733072128165 0 -0.43025813067654672 -0.08737754853092726 0 -0.42594434486026628 -0.073522222089585226 0 -0.44592953963101739 -0.07047733072128165 0 -0.4246600563061857 -0.059067830999859447 0 -0.42594434486026628 -0.073522222089585226 0 -0.44592953963101739 -0.07047733072128165 0 -0.44592953963101739 -0.07047733072128165 0 -0.45893666683642192 -0.056450303318209168 0 -0.44592953963101739 -0.07047733072128165 0 -0.44626211873963212 -0.091702264203795431 0 -0.46192575156697407 -0.079058111591217034 0 -0.43025813067654672 -0.08737754853092726 0 -0.44592953963101739 -0.07047733072128165 0 -0.43025813067654672 -0.08737754853092726 0 -0.44592953963101739 -0.07047733072128165 0 -0.44626211873963212 -0.091702264203795431 0 -0.44626211873963212 -0.091702264203795431 0 -0.46631049206888459 -0.091444160656324658 0 -0.46192575156697407 -0.079058111591217034 0 -0.44626211873963212 -0.091702264203795431 0 -0.46192575156697407 -0.079058111591217034 0 -0.46631049206888459 -0.091444160656324658 0 -0.46192575156697407 -0.079058111591217034 0 -0.47702460168979111 -0.087157524427869615 0 -0.44592953963101739 -0.07047733072128165 0 -0.46192575156697407 -0.079058111591217034 0 -0.45893666683642192 -0.056450303318209168 0 -0.46192575156697407 -0.079058111591217034 0 -0.47491389520024407 -0.068573693827893439 0 -0.45893666683642192 -0.056450303318209168 0 -0.46192575156697407 -0.079058111591217034 0 -0.47491389520024407 -0.068573693827893439 0 -0.44592953963101739 -0.07047733072128165 0 -0.46192575156697407 -0.079058111591217034 0 -0.45000974795797011 -0.119430952696417 0 -0.44085253015216358 -0.1237950587173612 0 -0.44003429013576911 -0.11331979272890801 0 -0.45000974795797011 -0.119430952696417 0 -0.44003429013576911 -0.11331979272890801 0 -0.44926481423485548 -0.10476542824413421 0 -0.43059848591229039 -0.1043464168163742 0 -0.44626211873963212 -0.091702264203795431 0 -0.43059848591229039 -0.1043464168163742 0 -0.44626211873963212 -0.091702264203795431 0 -0.44926481423485548 -0.10476542824413421 0 -0.43059848591229039 -0.1043464168163742 0 -0.44003429013576911 -0.11331979272890801 0 -0.44926481423485548 -0.10476542824413421 0 -0.44626211873963212 -0.091702264203795431 0 -0.44926481423485548 -0.10476542824413421 0 -0.46153012095291662 -0.1019472767233552 0 -0.44626211873963212 -0.091702264203795431 0 -0.46631049206888459 -0.091444160656324658 0 -0.46153012095291662 -0.1019472767233552 0 -0.46631049206888459 -0.091444160656324658 0 -0.46153012095291662 -0.1019472767233552 0 -0.4710589232177344 -0.098453604121520433 0 -0.46153012095291662 -0.1019472767233552 0 -0.46221413283232399 -0.11366089481890911 0 -0.47430793409480421 -0.10627177682285049 0 -0.44926481423485548 -0.10476542824413421 0 -0.46153012095291662 -0.1019472767233552 0 -0.46221413283232399 -0.11366089481890911 0 -0.45896755277767909 -0.12575633132281341 0 -0.46221413283232399 -0.11366089481890911 0 -0.47750202174635031 -0.1215216316744509 0 -0.45000974795797011 -0.119430952696417 0 -0.44926481423485548 -0.10476542824413421 0 -0.46221413283232399 -0.11366089481890911 0 -0.45896755277767909 -0.12575633132281341 0 -0.45000974795797011 -0.119430952696417 0 -0.46221413283232399 -0.11366089481890911 0 -0.47750202174635031 -0.1215216316744509 0 -0.47430793409480421 -0.10627177682285049 0 -0.48673501487359588 -0.1010237797652184 0 -0.46221413283232399 -0.11366089481890911 0 -0.47750202174635031 -0.1215216316744509 0 -0.47430793409480421 -0.10627177682285049 0 -0.47430793409480421 -0.10627177682285049 0 -0.47745372589702628 -0.099742000537211661 0 -0.48673501487359588 -0.1010237797652184 0 -0.46153012095291662 -0.1019472767233552 0 -0.47430793409480421 -0.10627177682285049 0 -0.4710589232177344 -0.098453604121520433 0 -0.46631049206888459 -0.091444160656324658 0 -0.4710589232177344 -0.098453604121520433 0 -0.47771303140197108 -0.093218841439257433 0 -0.47430793409480421 -0.10627177682285049 0 -0.4710589232177344 -0.098453604121520433 0 -0.47745372589702628 -0.099742000537211661 0 -0.4710589232177344 -0.098453604121520433 0 -0.47745372589702628 -0.099742000537211661 0 -0.47771303140197108 -0.093218841439257433 0 -0.47745372589702628 -0.099742000537211661 0 -0.48673501487359588 -0.1010237797652184 0 -0.47771303140197108 -0.093218841439257433 0 -0.48673501487359588 -0.1010237797652184 0 -0.47771303140197108 -0.093218841439257433 0 -0.47702460168979111 -0.087157524427869615 0 -0.47750202174635031 -0.1215216316744509 0 -0.48673501487359588 -0.1010237797652184 0 -0.4986179579264654 -0.1020768288792674 0 -0.48673501487359588 -0.1010237797652184 0 -0.49842317329231273 -0.098636270432611556 0 -0.47702460168979111 -0.087157524427869615 0 -0.48673501487359588 -0.1010237797652184 0 -0.49842317329231273 -0.098636270432611556 0 -0.4986179579264654 -0.1020768288792674 0 -0.49999999999999939 -0.099482120969144883 0 -0.49842317329231273 -0.098636270432611556 0 -0.4986179579264654 -0.1020768288792674 0 -0.49842317329231273 -0.098636270432611556 0 -0.4986179579264654 -0.1020768288792674 0 -0.49999999999999939 -0.099482120969144883 0 -0.49842317329231273 -0.098636270432611556 0 -0.50000000000000011 -0.12648838757554831 0 -0.47750202174635031 -0.1215216316744509 0 -0.4986179579264654 -0.1020768288792674 0 -0.47750202174635031 -0.1215216316744509 0 -0.4986179579264654 -0.1020768288792674 0 -0.47491389520024407 -0.068573693827893439 0 -0.47702460168979111 -0.087157524427869615 0 -0.4847984782487687 -0.075944598732494498 0 -0.47491389520024407 -0.068573693827893439 0 -0.47702460168979111 -0.087157524427869615 0 -0.47967839073812912 -0.064727650616396362 0 -0.4847984782487687 -0.075944598732494498 0 -0.48794163871831331 -0.064119883023254248 0 -0.47967839073812912 -0.064727650616396362 0 -0.47491389520024407 -0.068573693827893439 0 -0.4847984782487687 -0.075944598732494498 0 -0.47967839073812912 -0.064727650616396362 0 -0.47491389520024407 -0.068573693827893439 0 -0.46192575156697407 -0.079058111591217034 0 -0.47702460168979111 -0.087157524427869615 0 -0.46192575156697407 -0.079058111591217034 0 -0.47491389520024407 -0.068573693827893439 0 -0.47702460168979111 -0.087157524427869615 0 -0.46631049206888459 -0.091444160656324658 0 -0.47771303140197108 -0.093218841439257433 0 -0.47702460168979111 -0.087157524427869615 0 -0.47771303140197108 -0.093218841439257433 0 -0.47702460168979111 -0.087157524427869615 0 -0.49842317329231273 -0.098636270432611556 0 -0.49712708577170861 -0.075742961183477536 0 -0.4847984782487687 -0.075944598732494498 0 -0.49999999999999939 -0.099482120969144883 0 -0.49842317329231273 -0.098636270432611556 0 -0.5 -0.078030389970551228 0 -0.49842317329231273 -0.098636270432611556 0 -0.49712708577170861 -0.075742961183477536 0 -0.49842317329231273 -0.098636270432611556 0 -0.5 -0.078030389970551228 0 -0.49712708577170861 -0.075742961183477536 0 -0.49842317329231273 -0.098636270432611556 0 -0.47702460168979111 -0.087157524427869615 0 -0.4847984782487687 -0.075944598732494498 0 -0.49842317329231273 -0.098636270432611556 0 -0.47702460168979111 -0.087157524427869615 0 -0.5 -0.078030389970551228 0 -0.49712708577170861 -0.075742961183477536 0 -0.49999999999999928 -0.056578658971957581 0 -0.49712708577170861 -0.075742961183477536 0 -0.49583099825110311 -0.052849651934343489 0 -0.49712708577170861 -0.075742961183477536 0 -0.48794163871831331 -0.064119883023254248 0 -0.49583099825110311 -0.052849651934343489 0 -0.49712708577170861 -0.075742961183477536 0 -0.4847984782487687 -0.075944598732494498 0 -0.48794163871831331 -0.064119883023254248 0 -0.49712708577170861 -0.075742961183477536 0 -0.49999999999999928 -0.056578658971957581 0 -0.49583099825110311 -0.052849651934343489 0 -0.49583099825110311 -0.052849651934343489 0 -0.47748890114140963 -0.036443372127734748 0 -0.48227324058185622 -0.051334552649559453 0 -0.49999999999999928 -0.056578658971957581 0 -0.49583099825110311 -0.052849651934343489 0 -0.49999999999999928 -0.056578658971957581 0 -0.50000000000000144 -0.053559852644015388 0 -0.49583099825110311 -0.052849651934343489 0 -0.48794163871831331 -0.064119883023254248 0 -0.49583099825110311 -0.052849651934343489 0 -0.48227324058185622 -0.051334552649559453 0 -0.50000000000000144 -0.053559852644015388 0 -0.49583099825110311 -0.052849651934343489 0 -0.48598145264485831 -0.02728491224803695 0 -0.49583099825110311 -0.052849651934343489 0 -0.47748890114140963 -0.036443372127734748 0 -0.48598145264485831 -0.02728491224803695 0 -0.50000000000000144 -0.053559852644015388 0 -0.48598145264485831 -0.02728491224803695 0 -0.50000000000000144 -0.053559852644015388 0 -0.48598145264485831 -0.02728491224803695 0 -0.5 -0.025161366008633609 0 -0.49583099825110311 -0.052849651934343489 0 -0.47748890114140963 -0.036443372127734748 0 -0.47748890114140963 -0.036443372127734748 0 -0.48598145264485831 -0.02728491224803695 0 -0.47748890114140963 -0.036443372127734748 0 -0.47194379404182718 -0.042423275915137587 0 -0.48227324058185622 -0.051334552649559453 0 -0.47748890114140963 -0.036443372127734748 0 -0.47194379404182718 -0.042423275915137587 0 -0.47748890114140963 -0.036443372127734748 0 -0.47194379404182718 -0.042423275915137587 0 -0.47056077858213702 -0.03024644074295027 0 -0.47194379404182718 -0.042423275915137587 0 -0.46539503278239303 -0.037082973767017267 0 -0.47056077858213702 -0.03024644074295027 0 -0.47194379404182718 -0.042423275915137587 0 -0.47056077858213702 -0.03024644074295027 0 -0.47748890114140963 -0.036443372127734748 0 -0.47056077858213702 -0.03024644074295027 0 -0.47748890114140963 -0.036443372127734748 0 -0.47056077858213702 -0.03024644074295027 0 -0.47745882259212458 -0.028728106929589409 0 -0.47967839073812912 -0.064727650616396362 0 -0.47491389520024407 -0.068573693827893439 0 -0.47194379404182718 -0.042423275915137587 0 -0.47967839073812912 -0.064727650616396362 0 -0.47194379404182718 -0.042423275915137587 0 -0.48227324058185622 -0.051334552649559453 0 -0.47491389520024407 -0.068573693827893439 0 -0.47194379404182718 -0.042423275915137587 0 -0.47967839073812912 -0.064727650616396362 0 -0.48794163871831331 -0.064119883023254248 0 -0.48227324058185622 -0.051334552649559453 0 -0.47491389520024407 -0.068573693827893439 0 -0.47194379404182718 -0.042423275915137587 0 -0.45893666683642192 -0.056450303318209168 0 -0.45893666683642192 -0.056450303318209168 0 -0.45743491846808387 -0.04563500224908737 0 -0.44544580640037118 -0.056213229689383748 0 -0.47194379404182718 -0.042423275915137587 0 -0.45893666683642192 -0.056450303318209168 0 -0.45743491846808387 -0.04563500224908737 0 -0.47194379404182718 -0.042423275915137587 0 -0.45893666683642192 -0.056450303318209168 0 -0.46539503278239303 -0.037082973767017267 0 -0.44890774518284438 -0.02927164544362729 0 -0.46539503278239303 -0.037082973767017267 0 -0.45215967652477718 -0.036640332234541717 0 -0.44890774518284438 -0.02927164544362729 0 -0.46539503278239303 -0.037082973767017267 0 -0.44890774518284438 -0.02927164544362729 0 -0.46189821575704781 -0.02986243911986371 0 -0.47194379404182718 -0.042423275915137587 0 -0.46539503278239303 -0.037082973767017267 0 -0.45743491846808387 -0.04563500224908737 0 -0.46539503278239303 -0.037082973767017267 0 -0.46189821575704781 -0.02986243911986371 0 -0.47056077858213702 -0.03024644074295027 0 -0.46539503278239303 -0.037082973767017267 0 -0.45743491846808387 -0.04563500224908737 0 -0.45215967652477718 -0.036640332234541717 0 -0.42981912379901888 -0.030443092666165631 0 -0.45215967652477718 -0.036640332234541717 0 -0.45743491846808387 -0.04563500224908737 0 -0.45215967652477718 -0.036640332234541717 0 -0.43957367317472601 -0.045089571971719818 0 -0.42981912379901888 -0.030443092666165631 0 -0.45215967652477718 -0.036640332234541717 0 -0.43957367317472601 -0.045089571971719818 0 -0.45743491846808387 -0.04563500224908737 0 -0.43957367317472601 -0.045089571971719818 0 -0.44544580640037118 -0.056213229689383748 0 -0.4246600563061857 -0.059067830999859447 0 -0.44592953963101739 -0.07047733072128165 0 -0.44544580640037118 -0.056213229689383748 0 -0.44592953963101739 -0.07047733072128165 0 -0.45893666683642192 -0.056450303318209168 0 -0.44544580640037118 -0.056213229689383748 0 -0.4441818909265971 -0.00998157505946092 0 -0.45588653083934588 0.00041698580085632909 0 -0.44737850259376799 0.0077656591989471307 0 -0.4441818909265971 -0.00998157505946092 0 -0.4570262928383732 -0.018140378997512391 0 -0.45633913854906122 -0.0094275687658610888 0 -0.4441818909265971 -0.00998157505946092 0 -0.45633913854906122 -0.0094275687658610888 0 -0.45588653083934588 0.00041698580085632909 0 -0.43741768347029059 -0.01288367903972009 0 -0.4441818909265971 -0.00998157505946092 0 -0.44890774518284438 -0.02927164544362729 0 -0.42981912379901888 -0.030443092666165631 0 -0.45215967652477718 -0.036640332234541717 0 -0.4392085005598273 -0.024676348383282701 0 -0.4441818909265971 -0.00998157505946092 0 -0.44890774518284438 -0.02927164544362729 0 -0.46258273328813732 -0.023158067004484729 0 -0.43741768347029059 -0.01288367903972009 0 -0.44890774518284438 -0.02927164544362729 0 -0.43741768347029059 -0.01288367903972009 0 -0.4392085005598273 -0.024676348383282701 0 -0.44890774518284438 -0.02927164544362729 0 -0.4392085005598273 -0.024676348383282701 0 -0.44890774518284438 -0.02927164544362729 0 -0.45215967652477718 -0.036640332234541717 0 -0.4392085005598273 -0.024676348383282701 0 -0.44890774518284438 -0.02927164544362729 0 -0.4441818909265971 -0.00998157505946092 0 -0.46258273328813732 -0.023158067004484729 0 -0.46258273328813732 -0.023158067004484729 0 -0.46826183959192841 -0.01000530680732737 0 -0.47056077858213702 -0.03024644074295027 0 -0.4441818909265971 -0.00998157505946092 0 -0.4570262928383732 -0.018140378997512391 0 -0.46258273328813732 -0.023158067004484729 0 -0.4570262928383732 -0.018140378997512391 0 -0.46258273328813732 -0.023158067004484729 0 -0.44890774518284438 -0.02927164544362729 0 -0.46189821575704781 -0.02986243911986371 0 -0.46258273328813732 -0.023158067004484729 0 -0.46258273328813732 -0.023158067004484729 0 -0.47056077858213702 -0.03024644074295027 0 -0.46189821575704781 -0.02986243911986371 0 -0.46258273328813732 -0.023158067004484729 0 -0.47056077858213702 -0.03024644074295027 0 -0.4570262928383732 -0.018140378997512391 0 -0.46258273328813732 -0.023158067004484729 0 -0.46826183959192841 -0.01000530680732737 0 -0.4570262928383732 -0.018140378997512391 0 -0.46826183959192841 -0.01000530680732737 0 -0.45633913854906122 -0.0094275687658610888 0 -0.46826183959192841 -0.01000530680732737 0 -0.45633913854906122 -0.0094275687658610888 0 -0.45588653083934588 0.00041698580085632909 0 -0.46826183959192841 -0.01000530680732737 0 -0.47597217662329228 -0.0085245425598697612 0 -0.4659629006017233 0.010235827128295859 0 -0.46826183959192841 -0.01000530680732737 0 -0.47597217662329228 -0.0085245425598697612 0 -0.47580415800009379 -0.02093770259963601 0 -0.47597217662329228 -0.0085245425598697612 0 -0.48922725890134677 -0.010453537226696331 0 -0.48082517856277007 0.001845263919603602 0 -0.47597217662329228 -0.0085245425598697612 0 -0.47580415800009379 -0.02093770259963601 0 -0.48598145264485831 -0.02728491224803695 0 -0.47597217662329228 -0.0085245425598697612 0 -0.48598145264485831 -0.02728491224803695 0 -0.46826183959192841 -0.01000530680732737 0 -0.47056077858213702 -0.03024644074295027 0 -0.47580415800009379 -0.02093770259963601 0 -0.47597217662329228 -0.0085245425598697612 0 -0.48598145264485831 -0.02728491224803695 0 -0.4893389393206713 -0.02366416211133009 0 -0.46826183959192841 -0.01000530680732737 0 -0.47056077858213702 -0.03024644074295027 0 -0.47056077858213702 -0.03024644074295027 0 -0.47580415800009379 -0.02093770259963601 0 -0.47745882259212458 -0.028728106929589409 0 -0.47580415800009379 -0.02093770259963601 0 -0.47745882259212458 -0.028728106929589409 0 -0.48598145264485831 -0.02728491224803695 0 -0.47748890114140963 -0.036443372127734748 0 -0.47745882259212458 -0.028728106929589409 0 -0.48598145264485831 -0.02728491224803695 0 -0.48598145264485831 -0.02728491224803695 0 -0.4893389393206713 -0.02366416211133009 0 -0.5 -0.025161366008633609 0 -0.48598145264485831 -0.02728491224803695 0 -0.4893389393206713 -0.02366416211133009 0 -0.4893389393206713 -0.02366416211133009 0 -0.5 -0.025161366008633609 0 -0.48922725890134677 -0.010453537226696331 0 -0.48922725890134677 -0.010453537226696331 0 -0.5 0.0032371206267481911 0 -0.48082517856277007 0.001845263919603602 0 -0.5 -0.025161366008633609 0 -0.48922725890134677 -0.010453537226696331 0 -0.5 0.0032371206267481911 0 -0.47597217662329228 -0.0085245425598697612 0 -0.4893389393206713 -0.02366416211133009 0 -0.48922725890134677 -0.010453537226696331 0 -0.5 0.0032371206267481911 0 -0.48596576445654982 0.01457961489688041 0 -0.48082517856277007 0.001845263919603602 0 -0.48596576445654982 0.01457961489688041 0 -0.47541999506787802 0.025418180444172121 0 -0.5 0.031635607262129987 0 -0.5 0.0032371206267481911 0 -0.48596576445654982 0.01457961489688041 0 -0.5 0.031635607262129987 0 -0.48596576445654982 0.01457961489688041 0 -0.47541999506787802 0.025418180444172121 0 -0.47401658579892991 0.013489912392399149 0 -0.47541999506787802 0.025418180444172121 0 -0.46963945276383978 0.01793989872667965 0 -0.47401658579892991 0.013489912392399149 0 -0.47597217662329228 -0.0085245425598697612 0 -0.48082517856277007 0.001845263919603602 0 -0.4659629006017233 0.010235827128295859 0 -0.47401658579892991 0.013489912392399149 0 -0.48082517856277007 0.001845263919603602 0 -0.4659629006017233 0.010235827128295859 0 -0.46963945276383978 0.01793989872667965 0 -0.47401658579892991 0.013489912392399149 0 -0.4659629006017233 0.010235827128295859 0 -0.47597217662329228 -0.0085245425598697612 0 -0.4659629006017233 0.010235827128295859 0 -0.48596576445654982 0.01457961489688041 0 -0.47401658579892991 0.013489912392399149 0 -0.48082517856277007 0.001845263919603602 0 -0.5 0.060034093897511798 0 -0.47816362815030861 0.043832779932641487 0 -0.48068047186290208 0.063626500276227002 0 -0.47541999506787802 0.025418180444172121 0 -0.5 0.031635607262129987 0 -0.47816362815030861 0.043832779932641487 0 -0.5 0.060034093897511798 0 -0.5 0.031635607262129987 0 -0.47816362815030861 0.043832779932641487 0 -0.47541999506787802 0.025418180444172121 0 -0.47816362815030861 0.043832779932641487 0 -0.46442391639916691 0.036471327701905212 0 -0.47816362815030861 0.043832779932641487 0 -0.46119618507356652 0.049359273152949731 0 -0.48068047186290208 0.063626500276227002 0 -0.46119618507356652 0.049359273152949731 0 -0.46103932749027238 0.064238871702306077 0 -0.48068047186290208 0.063626500276227002 0 -0.46119618507356652 0.049359273152949731 0 -0.44286953411296898 0.045255716157198693 0 -0.46103932749027238 0.064238871702306077 0 -0.47816362815030861 0.043832779932641487 0 -0.46119618507356652 0.049359273152949731 0 -0.46442391639916691 0.036471327701905212 0 -0.46119618507356652 0.049359273152949731 0 -0.46442391639916691 0.036471327701905212 0 -0.45082509298125129 0.038608595210277222 0 -0.46442391639916691 0.036471327701905212 0 -0.45082509298125129 0.038608595210277222 0 -0.4583939967914884 0.024422211169287101 0 -0.45082509298125129 0.038608595210277222 0 -0.4583939967914884 0.024422211169287101 0 -0.46119618507356652 0.049359273152949731 0 -0.45082509298125129 0.038608595210277222 0 -0.44286953411296898 0.045255716157198693 0 -0.45082509298125129 0.038608595210277222 0 -0.4405409619944019 0.035432846457562263 0 -0.4458839614772655 0.023387518650519249 0 -0.45082509298125129 0.038608595210277222 0 -0.4405409619944019 0.035432846457562263 0 -0.44286953411296898 0.045255716157198693 0 -0.4405409619944019 0.035432846457562263 0 -0.44286953411296898 0.045255716157198693 0 -0.43229092530358848 0.04451632412921195 0 -0.44286953411296898 0.045255716157198693 0 -0.44282721760043869 0.062046251170956107 0 -0.46103932749027238 0.064238871702306077 0 -0.44286953411296898 0.045255716157198693 0 -0.44282721760043869 0.062046251170956107 0 -0.43188097302969042 0.056955122555226501 0 -0.44286953411296898 0.045255716157198693 0 -0.46103932749027238 0.064238871702306077 0 -0.46826183959192841 -0.01000530680732737 0 -0.45588653083934588 0.00041698580085632909 0 -0.4659629006017233 0.010235827128295859 0 -0.46826183959192841 -0.01000530680732737 0 -0.4659629006017233 0.010235827128295859 0 -0.45609316173783881 0.014082317838893479 0 -0.45588653083934588 0.00041698580085632909 0 -0.4659629006017233 0.010235827128295859 0 -0.46963945276383978 0.01793989872667965 0 -0.4659629006017233 0.010235827128295859 0 -0.4583939967914884 0.024422211169287101 0 -0.4659629006017233 0.010235827128295859 0 -0.4583939967914884 0.024422211169287101 0 -0.47541999506787802 0.025418180444172121 0 -0.46963945276383978 0.01793989872667965 0 -0.4583939967914884 0.024422211169287101 0 -0.47541999506787802 0.025418180444172121 0 -0.46442391639916691 0.036471327701905212 0 -0.4583939967914884 0.024422211169287101 0 -0.45609316173783881 0.014082317838893479 0 -0.4659629006017233 0.010235827128295859 0 -0.4583939967914884 0.024422211169287101 0 -0.45609316173783881 0.014082317838893479 0 -0.4583939967914884 0.024422211169287101 0 -0.4458839614772655 0.023387518650519249 0 -0.45082509298125129 0.038608595210277222 0 -0.4583939967914884 0.024422211169287101 0 -0.4458839614772655 0.023387518650519249 0 -0.4405409619944019 0.035432846457562263 0 -0.4458839614772655 0.023387518650519249 0 -0.43566193494816191 0.02574822372494872 0 -0.4458839614772655 0.023387518650519249 0 -0.4359559447540089 0.01018896392150693 0 -0.43566193494816191 0.02574822372494872 0 -0.4441818909265971 -0.00998157505946092 0 -0.44737850259376799 0.0077656591989471307 0 -0.4359559447540089 0.01018896392150693 0 -0.4458839614772655 0.023387518650519249 0 -0.44737850259376799 0.0077656591989471307 0 -0.4359559447540089 0.01018896392150693 0 -0.45609316173783881 0.014082317838893479 0 -0.4458839614772655 0.023387518650519249 0 -0.44737850259376799 0.0077656591989471307 0 -0.45609316173783881 0.014082317838893479 0 -0.45588653083934588 0.00041698580085632909 0 -0.44737850259376799 0.0077656591989471307 0 -0.4441818909265971 -0.00998157505946092 0 -0.4359559447540089 0.01018896392150693 0 -0.42578104856505677 0.0031949168855625672 0 -0.42578104856505677 0.0031949168855625672 0 -0.41622595309658328 0.016397403714119251 0 -0.42870406893849561 0.019163111370922251 0 -0.4359559447540089 0.01018896392150693 0 -0.42578104856505677 0.0031949168855625672 0 -0.42870406893849561 0.019163111370922251 0 -0.41753789792717189 -0.0038843189997757009 0 -0.42578104856505677 0.0031949168855625672 0 -0.41105156913745711 0.0034129409419674369 0 -0.42578104856505677 0.0031949168855625672 0 -0.40852807671777941 0.0155494406680463 0 -0.41622595309658328 0.016397403714119251 0 -0.42578104856505677 0.0031949168855625672 0 -0.40852807671777941 0.0155494406680463 0 -0.41105156913745711 0.0034129409419674369 0 -0.42578104856505677 0.0031949168855625672 0 -0.40852807671777941 0.0155494406680463 0 -0.42578104856505677 0.0031949168855625672 0 -0.41622595309658328 0.016397403714119251 0 -0.40852807671777941 0.0155494406680463 0 -0.41105156913745711 0.0034129409419674369 0 -0.40262572535869262 0.0089097845909437267 0 -0.40771050441737638 -0.0035262849216432719 0 -0.41105156913745711 0.0034129409419674369 0 -0.40226596945639398 0.0014711925349297271 0 -0.40667085762811028 0.029599890542676258 0 -0.41622595309658328 0.016397403714119251 0 -0.42870406893849561 0.019163111370922251 0 -0.40667085762811028 0.029599890542676258 0 -0.42870406893849561 0.019163111370922251 0 -0.40667085762811028 0.029599890542676258 0 -0.41990433555607742 0.03061685230769556 0 -0.42870406893849561 0.019163111370922251 0 -0.40852807671777941 0.0155494406680463 0 -0.40667085762811028 0.029599890542676258 0 -0.41622595309658328 0.016397403714119251 0 -0.40667085762811028 0.029599890542676258 0 -0.41622595309658328 0.016397403714119251 0 -0.41990433555607742 0.03061685230769556 0 -0.4284463216954002 0.029357354603554459 0 -0.42870406893849561 0.019163111370922251 0 -0.4359559447540089 0.01018896392150693 0 -0.42870406893849561 0.019163111370922251 0 -0.43566193494816191 0.02574822372494872 0 -0.4284463216954002 0.029357354603554459 0 -0.42870406893849561 0.019163111370922251 0 -0.43566193494816191 0.02574822372494872 0 -0.4284463216954002 0.029357354603554459 0 -0.43566193494816191 0.02574822372494872 0 -0.43264023121812112 0.033917661463996759 0 -0.4405409619944019 0.035432846457562263 0 -0.43264023121812112 0.033917661463996759 0 -0.43229092530358848 0.04451632412921195 0 -0.43264023121812112 0.033917661463996759 0 -0.43229092530358848 0.04451632412921195 0 -0.42532103781614489 0.037340924150209003 0 -0.4405409619944019 0.035432846457562263 0 -0.43566193494816191 0.02574822372494872 0 -0.43264023121812112 0.033917661463996759 0 -0.43229092530358848 0.04451632412921195 0 -0.42532103781614489 0.037340924150209003 0 -0.42042490988599091 0.046091327469671317 0 -0.4284463216954002 0.029357354603554459 0 -0.43264023121812112 0.033917661463996759 0 -0.42532103781614489 0.037340924150209003 0 -0.41990433555607742 0.03061685230769556 0 -0.4284463216954002 0.029357354603554459 0 -0.42532103781614489 0.037340924150209003 0 -0.43229092530358848 0.04451632412921195 0 -0.43188097302969042 0.056955122555226501 0 -0.42585725303016408 0.051510102087770737 0 -0.44286953411296898 0.045255716157198693 0 -0.43229092530358848 0.04451632412921195 0 -0.43188097302969042 0.056955122555226501 0 -0.43229092530358848 0.04451632412921195 0 -0.42585725303016408 0.051510102087770737 0 -0.42042490988599091 0.046091327469671317 0 -0.43188097302969042 0.056955122555226501 0 -0.41883220390138681 0.058477634196973202 0 -0.43131469147834472 0.070632617455275076 0 -0.43188097302969042 0.056955122555226501 0 -0.42585725303016408 0.051510102087770737 0 -0.41883220390138681 0.058477634196973202 0 -0.41883220390138681 0.058477634196973202 0 -0.40840220717331749 0.048304634434869917 0 -0.39985653820026013 0.060860810446949978 0 -0.42585725303016408 0.051510102087770737 0 -0.41883220390138681 0.058477634196973202 0 -0.42042490988599091 0.046091327469671317 0 -0.41883220390138681 0.058477634196973202 0 -0.40840220717331749 0.048304634434869917 0 -0.42042490988599091 0.046091327469671317 0 -0.41990433555607742 0.03061685230769556 0 -0.42532103781614489 0.037340924150209003 0 -0.4122967326089878 0.037821593301397609 0 -0.42532103781614489 0.037340924150209003 0 -0.42042490988599091 0.046091327469671317 0 -0.4122967326089878 0.037821593301397609 0 -0.40840220717331749 0.048304634434869917 0 -0.4122967326089878 0.037821593301397609 0 -0.40579981868685489 0.041495006097714962 0 -0.40840220717331749 0.048304634434869917 0 -0.42042490988599091 0.046091327469671317 0 -0.4122967326089878 0.037821593301397609 0 -0.4122967326089878 0.037821593301397609 0 -0.40278544391907911 0.034968452634622761 0 -0.40579981868685489 0.041495006097714962 0 -0.40667085762811028 0.029599890542676258 0 -0.4122967326089878 0.037821593301397609 0 -0.40278544391907911 0.034968452634622761 0 -0.40667085762811028 0.029599890542676258 0 -0.41990433555607742 0.03061685230769556 0 -0.4122967326089878 0.037821593301397609 0 -0.40667085762811028 0.029599890542676258 0 -0.40278544391907911 0.034968452634622761 0 -0.40667085762811028 0.029599890542676258 0 -0.38856614517843069 0.038175802748282091 0 -0.40667085762811028 0.029599890542676258 0 -0.38856614517843069 0.038175802748282091 0 -0.39127510487050182 0.027903964450529759 0 -0.40667085762811028 0.029599890542676258 0 -0.40278544391907911 0.034968452634622761 0 -0.38856614517843069 0.038175802748282091 0 -0.40278544391907911 0.034968452634622761 0 -0.40579981868685489 0.041495006097714962 0 -0.3977250587697031 0.045015474274426849 0 -0.40840220717331749 0.048304634434869917 0 -0.40579981868685489 0.041495006097714962 0 -0.3977250587697031 0.045015474274426849 0 -0.40278544391907911 0.034968452634622761 0 -0.3977250587697031 0.045015474274426849 0 -0.38856614517843069 0.038175802748282091 0 -0.40840220717331749 0.048304634434869917 0 -0.3977250587697031 0.045015474274426849 0 -0.39985653820026013 0.060860810446949978 0 -0.3977250587697031 0.045015474274426849 0 -0.39985653820026013 0.060860810446949978 0 -0.38472691017257071 0.052921849058569698 0 -0.39985653820026013 0.060860810446949978 0 -0.38472691017257071 0.052921849058569698 0 -0.38510762700538009 0.066428587654483159 0 -0.38472691017257071 0.052921849058569698 0 -0.37046143272875132 0.04675171495388801 0 -0.37000681959492809 0.05831264468359916 0 -0.38472691017257071 0.052921849058569698 0 -0.38510762700538009 0.066428587654483159 0 -0.37000681959492809 0.05831264468359916 0 -0.38856614517843069 0.038175802748282091 0 -0.37871402691879819 0.03757115751491092 0 -0.37046143272875132 0.04675171495388801 0 -0.38856614517843069 0.038175802748282091 0 -0.37046143272875132 0.04675171495388801 0 -0.38472691017257071 0.052921849058569698 0 -0.38856614517843069 0.038175802748282091 0 -0.37046143272875132 0.04675171495388801 0 -0.38856614517843069 0.038175802748282091 0 -0.38315308642314733 0.033917821982192238 0 -0.39127510487050182 0.027903964450529759 0 -0.38856614517843069 0.038175802748282091 0 -0.38315308642314733 0.033917821982192238 0 -0.37871402691879819 0.03757115751491092 0 -0.3977250587697031 0.045015474274426849 0 -0.38472691017257071 0.052921849058569698 0 -0.38856614517843069 0.038175802748282091 0 -0.37871402691879819 0.03757115751491092 0 -0.3764786745208083 0.032098692741998169 0 -0.37046143272875132 0.04675171495388801 0 -0.38315308642314733 0.033917821982192238 0 -0.3764786745208083 0.032098692741998169 0 -0.38155727091044611 0.028316364585127811 0 -0.38315308642314733 0.033917821982192238 0 -0.37871402691879819 0.03757115751491092 0 -0.3764786745208083 0.032098692741998169 0 -0.3764786745208083 0.032098692741998169 0 -0.38155727091044611 0.028316364585127811 0 -0.37960108001976323 0.022263106047543741 0 -0.37960108001976323 0.022263106047543741 0 -0.37998819155715241 0.0057865511937031933 0 -0.37123175334181557 0.027162262264614271 0 -0.3764786745208083 0.032098692741998169 0 -0.37960108001976323 0.022263106047543741 0 -0.37123175334181557 0.027162262264614271 0 -0.38155727091044611 0.028316364585127811 0 -0.38533699425949169 0.022674384769296389 0 -0.37960108001976323 0.022263106047543741 0 -0.38155727091044611 0.028316364585127811 0 -0.38533699425949169 0.022674384769296389 0 -0.39127510487050182 0.027903964450529759 0 -0.38315308642314733 0.033917821982192238 0 -0.38155727091044611 0.028316364585127811 0 -0.39127510487050182 0.027903964450529759 0 -0.39054146691731162 0.018060194648231769 0 -0.38533699425949169 0.022674384769296389 0 -0.39127510487050182 0.027903964450529759 0 -0.38533699425949169 0.022674384769296389 0 -0.3837100485794358 0.01682829411504885 0 -0.37960108001976323 0.022263106047543741 0 -0.39054146691731162 0.018060194648231769 0 -0.38533699425949169 0.022674384769296389 0 -0.3837100485794358 0.01682829411504885 0 -0.3837100485794358 0.01682829411504885 0 -0.37960108001976323 0.022263106047543741 0 -0.37998819155715241 0.0057865511937031933 0 -0.37998819155715241 0.0057865511937031933 0 -0.38683543611469601 0.0001369023841863784 0 -0.36064890389212972 0.0125435277679194 0 -0.37998819155715241 0.0057865511937031933 0 -0.38683543611469601 0.0001369023841863784 0 -0.38901012294298121 0.0062908016400105649 0 -0.38683543611469601 0.0001369023841863784 0 -0.38901012294298121 0.0062908016400105649 0 -0.39501457079486157 0.0055715078560810288 0 -0.37998819155715241 0.0057865511937031933 0 -0.38901012294298121 0.0062908016400105649 0 -0.38744744785130802 0.01185902438546781 0 -0.3837100485794358 0.01682829411504885 0 -0.37998819155715241 0.0057865511937031933 0 -0.38744744785130802 0.01185902438546781 0 -0.38901012294298121 0.0062908016400105649 0 -0.38744744785130802 0.01185902438546781 0 -0.39422738021243581 0.01127211946813913 0 -0.39054146691731162 0.018060194648231769 0 -0.3837100485794358 0.01682829411504885 0 -0.38744744785130802 0.01185902438546781 0 -0.39054146691731162 0.018060194648231769 0 -0.39422738021243581 0.01127211946813913 0 -0.39743955081534421 0.016339100765178138 0 -0.39054146691731162 0.018060194648231769 0 -0.38744744785130802 0.01185902438546781 0 -0.39422738021243581 0.01127211946813913 0 -0.39422738021243581 0.01127211946813913 0 -0.39501457079486157 0.0055715078560810288 0 -0.40262572535869262 0.0089097845909437267 0 -0.39422738021243581 0.01127211946813913 0 -0.40262572535869262 0.0089097845909437267 0 -0.39743955081534421 0.016339100765178138 0 -0.38683543611469601 0.0001369023841863784 0 -0.39501457079486157 0.0055715078560810288 0 -0.40226596945639398 0.0014711925349297271 0 -0.38901012294298121 0.0062908016400105649 0 -0.39422738021243581 0.01127211946813913 0 -0.39501457079486157 0.0055715078560810288 0 -0.41105156913745711 0.0034129409419674369 0 -0.40226596945639398 0.0014711925349297271 0 -0.40262572535869262 0.0089097845909437267 0 -0.39501457079486157 0.0055715078560810288 0 -0.40226596945639398 0.0014711925349297271 0 -0.40262572535869262 0.0089097845909437267 0 -0.40852807671777941 0.0155494406680463 0 -0.40262572535869262 0.0089097845909437267 0 -0.39743955081534421 0.016339100765178138 0 -0.40852807671777941 0.0155494406680463 0 -0.39127510487050182 0.027903964450529759 0 -0.40852807671777941 0.0155494406680463 0 -0.40667085762811028 0.029599890542676258 0 -0.39127510487050182 0.027903964450529759 0 -0.40852807671777941 0.0155494406680463 0 -0.39127510487050182 0.027903964450529759 0 -0.39743955081534421 0.016339100765178138 0 -0.39054146691731162 0.018060194648231769 0 -0.39127510487050182 0.027903964450529759 0 -0.39743955081534421 0.016339100765178138 0 -0.39792088922733271 0.1160922105611595 0 -0.40104213778508202 0.092866093853817611 0 -0.41467909406405851 0.1139188519362445 0 -0.39792088922733271 0.1160922105611595 0 -0.3782625711058698 0.101617738696854 0 -0.40104213778508202 0.092866093853817611 0 -0.3782625711058698 0.101617738696854 0 -0.38372255811484618 0.13025780258704611 0 -0.3782625711058698 0.101617738696854 0 -0.38372255811484618 0.13025780258704611 0 -0.36747352968705388 0.12273486311700831 0 -0.39792088922733271 0.1160922105611595 0 -0.3782625711058698 0.101617738696854 0 -0.38372255811484618 0.13025780258704611 0 -0.39792088922733271 0.1160922105611595 0 -0.3782625711058698 0.101617738696854 0 -0.3782625711058698 0.101617738696854 0 -0.40104213778508202 0.092866093853817611 0 -0.37470600383380392 0.082961959162170973 0 -0.39520328107527708 0.075997639864115257 0 -0.40104213778508202 0.092866093853817611 0 -0.37470600383380392 0.082961959162170973 0 -0.3782625711058698 0.101617738696854 0 -0.37470600383380392 0.082961959162170973 0 -0.40104213778508202 0.092866093853817611 0 -0.37470600383380392 0.082961959162170973 0 -0.38510762700538009 0.066428587654483159 0 -0.37000681959492809 0.05831264468359916 0 -0.37470600383380392 0.082961959162170973 0 -0.38510762700538009 0.066428587654483159 0 -0.39520328107527708 0.075997639864115257 0 -0.37470600383380392 0.082961959162170973 0 -0.39985653820026013 0.060860810446949978 0 -0.39520328107527708 0.075997639864115257 0 -0.41322693425173768 0.074694678089132868 0 -0.39985653820026013 0.060860810446949978 0 -0.38510762700538009 0.066428587654483159 0 -0.39520328107527708 0.075997639864115257 0 -0.39520328107527708 0.075997639864115257 0 -0.40104213778508202 0.092866093853817611 0 -0.41322693425173768 0.074694678089132868 0 -0.40104213778508202 0.092866093853817611 0 -0.41322693425173768 0.074694678089132868 0 -0.42957324029363853 0.085693113452461764 0 -0.41883220390138681 0.058477634196973202 0 -0.41322693425173768 0.074694678089132868 0 -0.43131469147834472 0.070632617455275076 0 -0.41883220390138681 0.058477634196973202 0 -0.39985653820026013 0.060860810446949978 0 -0.41322693425173768 0.074694678089132868 0 -0.43131469147834472 0.070632617455275076 0 -0.42957324029363853 0.085693113452461764 0 -0.4470315618909167 0.073148927984774167 0 -0.41322693425173768 0.074694678089132868 0 -0.43131469147834472 0.070632617455275076 0 -0.42957324029363853 0.085693113452461764 0 -0.44282721760043869 0.062046251170956107 0 -0.43188097302969042 0.056955122555226501 0 -0.43131469147834472 0.070632617455275076 0 -0.42957324029363853 0.085693113452461764 0 -0.42737827173636012 0.1027702285454639 0 -0.44343173260412461 0.097571970950778963 0 -0.40104213778508202 0.092866093853817611 0 -0.42737827173636012 0.1027702285454639 0 -0.41467909406405851 0.1139188519362445 0 -0.40104213778508202 0.092866093853817611 0 -0.42737827173636012 0.1027702285454639 0 -0.40104213778508202 0.092866093853817611 0 -0.42957324029363853 0.085693113452461764 0 -0.42737827173636012 0.1027702285454639 0 -0.39792088922733271 0.1160922105611595 0 -0.41467909406405851 0.1139188519362445 0 -0.417579207348795 0.13056668242546571 0 -0.39792088922733271 0.1160922105611595 0 -0.417579207348795 0.13056668242546571 0 -0.41467909406405851 0.1139188519362445 0 -0.42608096723388439 0.1205091241492761 0 -0.417579207348795 0.13056668242546571 0 -0.42737827173636012 0.1027702285454639 0 -0.41467909406405851 0.1139188519362445 0 -0.42608096723388439 0.1205091241492761 0 -0.42737827173636012 0.1027702285454639 0 -0.42608096723388439 0.1205091241492761 0 -0.43826405507869293 0.1195835460605416 0 -0.42608096723388439 0.1205091241492761 0 -0.43826405507869293 0.1195835460605416 0 -0.43293323699752101 0.1317554923945817 0 -0.43826405507869293 0.1195835460605416 0 -0.45371440568763749 0.1126743632371118 0 -0.44901593584904892 0.12912088192892021 0 -0.42737827173636012 0.1027702285454639 0 -0.43826405507869293 0.1195835460605416 0 -0.45371440568763749 0.1126743632371118 0 -0.4523882543875366 0.10983005993361 0 -0.45371440568763749 0.1126743632371118 0 -0.42737827173636012 0.1027702285454639 0 -0.4523882543875366 0.10983005993361 0 -0.44343173260412461 0.097571970950778963 0 -0.42737827173636012 0.1027702285454639 0 -0.4523882543875366 0.10983005993361 0 -0.45371440568763749 0.1126743632371118 0 -0.42737827173636012 0.1027702285454639 0 -0.45371440568763749 0.1126743632371118 0 -0.44343173260412461 0.097571970950778963 0 -0.45084974973894648 0.096020795281878568 0 -0.45306155814551219 0.1028275296158008 0 -0.44343173260412461 0.097571970950778963 0 -0.45084974973894648 0.096020795281878568 0 -0.44733932132275389 0.088290098875458828 0 -0.4523882543875366 0.10983005993361 0 -0.44343173260412461 0.097571970950778963 0 -0.45306155814551219 0.1028275296158008 0 -0.4523882543875366 0.10983005993361 0 -0.45306155814551219 0.1028275296158008 0 -0.45661100561120399 0.109540819014999 0 -0.45306155814551219 0.1028275296158008 0 -0.46084618436187341 0.10490351706993729 0 -0.45661100561120399 0.109540819014999 0 -0.45306155814551219 0.1028275296158008 0 -0.46084618436187341 0.10490351706993729 0 -0.45799439118323759 0.099220837031069903 0 -0.46084618436187341 0.10490351706993729 0 -0.4635407771028337 0.1124237257980706 0 -0.45661100561120399 0.109540819014999 0 -0.45799439118323759 0.099220837031069903 0 -0.46723244863383712 0.097971273043108306 0 -0.45594156200913483 0.091684632610025046 0 -0.45084974973894648 0.096020795281878568 0 -0.45799439118323759 0.099220837031069903 0 -0.45594156200913483 0.091684632610025046 0 -0.45084974973894648 0.096020795281878568 0 -0.45306155814551219 0.1028275296158008 0 -0.45799439118323759 0.099220837031069903 0 -0.46084618436187341 0.10490351706993729 0 -0.45799439118323759 0.099220837031069903 0 -0.46723244863383712 0.097971273043108306 0 -0.46084618436187341 0.10490351706993729 0 -0.46723244863383712 0.097971273043108306 0 -0.46686982756835349 0.1074114054382402 0 -0.46084618436187341 0.10490351706993729 0 -0.46686982756835349 0.1074114054382402 0 -0.4635407771028337 0.1124237257980706 0 -0.45371440568763749 0.1126743632371118 0 -0.46425598871103851 0.13528374379222011 0 -0.4635407771028337 0.1124237257980706 0 -0.45674497769142258 0.1138140594952527 0 -0.46958882025875243 0.12035793204680111 0 -0.46686982756835349 0.1074114054382402 0 -0.4635407771028337 0.1124237257980706 0 -0.47044075898603932 0.11380610730348489 0 -0.4635407771028337 0.1124237257980706 0 -0.46958882025875243 0.12035793204680111 0 -0.47044075898603932 0.11380610730348489 0 -0.45674497769142258 0.1138140594952527 0 -0.45371440568763749 0.1126743632371118 0 -0.46425598871103851 0.13528374379222011 0 -0.45674497769142258 0.1138140594952527 0 -0.46958882025875243 0.12035793204680111 0 -0.46425598871103851 0.13528374379222011 0 -0.4523882543875366 0.10983005993361 0 -0.45661100561120399 0.109540819014999 0 -0.45371440568763749 0.1126743632371118 0 -0.45674497769142258 0.1138140594952527 0 -0.45661100561120399 0.109540819014999 0 -0.45371440568763749 0.1126743632371118 0 -0.45674497769142258 0.1138140594952527 0 -0.45371440568763749 0.1126743632371118 0 -0.4635407771028337 0.1124237257980706 0 -0.45674497769142258 0.1138140594952527 0 -0.45661100561120399 0.109540819014999 0 -0.44282721760043869 0.062046251170956107 0 -0.4470315618909167 0.073148927984774167 0 -0.46103932749027238 0.064238871702306077 0 -0.44282721760043869 0.062046251170956107 0 -0.43131469147834472 0.070632617455275076 0 -0.4470315618909167 0.073148927984774167 0 -0.42957324029363853 0.085693113452461764 0 -0.44343173260412461 0.097571970950778963 0 -0.44733932132275389 0.088290098875458828 0 -0.42957324029363853 0.085693113452461764 0 -0.4470315618909167 0.073148927984774167 0 -0.44733932132275389 0.088290098875458828 0 -0.4470315618909167 0.073148927984774167 0 -0.44733932132275389 0.088290098875458828 0 -0.46047789149500767 0.082617330138573752 0 -0.45084974973894648 0.096020795281878568 0 -0.44733932132275389 0.088290098875458828 0 -0.45594156200913483 0.091684632610025046 0 -0.44733932132275389 0.088290098875458828 0 -0.45594156200913483 0.091684632610025046 0 -0.46047789149500767 0.082617330138573752 0 -0.46723244863383712 0.097971273043108306 0 -0.45594156200913483 0.091684632610025046 0 -0.46047789149500767 0.082617330138573752 0 -0.46047789149500767 0.082617330138573752 0 -0.46103932749027238 0.064238871702306077 0 -0.47920912086757578 0.083222027247413538 0 -0.4470315618909167 0.073148927984774167 0 -0.46047789149500767 0.082617330138573752 0 -0.46103932749027238 0.064238871702306077 0 -0.46103932749027238 0.064238871702306077 0 -0.48068047186290208 0.063626500276227002 0 -0.47920912086757578 0.083222027247413538 0 -0.46103932749027238 0.064238871702306077 0 -0.47920912086757578 0.083222027247413538 0 -0.46723244863383712 0.097971273043108306 0 -0.46047789149500767 0.082617330138573752 0 -0.47920912086757578 0.083222027247413538 0 -0.48068047186290208 0.063626500276227002 0 -0.47920912086757578 0.083222027247413538 0 -0.5 0.088432580532893601 0 -0.47920912086757578 0.083222027247413538 0 -0.49737891424487929 0.102205182792521 0 -0.47920912086757578 0.083222027247413538 0 -0.5 0.088432580532893601 0 -0.49737891424487929 0.102205182792521 0 -0.5 0.060034093897511798 0 -0.48068047186290208 0.063626500276227002 0 -0.5 0.088432580532893601 0 -0.47827810320487629 0.116675775998883 0 -0.48837893466537508 0.1117690854599766 0 -0.4842723158563047 0.1301441798928954 0 -0.47827810320487629 0.116675775998883 0 -0.47512549980118862 0.10796659812409699 0 -0.48837893466537508 0.1117690854599766 0 -0.47827810320487629 0.116675775998883 0 -0.46958882025875243 0.12035793204680111 0 -0.4842723158563047 0.1301441798928954 0 -0.47827810320487629 0.116675775998883 0 -0.47044075898603932 0.11380610730348489 0 -0.47512549980118862 0.10796659812409699 0 -0.46686982756835349 0.1074114054382402 0 -0.47044075898603932 0.11380610730348489 0 -0.47512549980118862 0.10796659812409699 0 -0.47827810320487629 0.116675775998883 0 -0.46958882025875243 0.12035793204680111 0 -0.47044075898603932 0.11380610730348489 0 -0.46723244863383712 0.097971273043108306 0 -0.47512549980118862 0.10796659812409699 0 -0.48162445158666772 0.1005823670901454 0 -0.46723244863383712 0.097971273043108306 0 -0.47920912086757578 0.083222027247413538 0 -0.48162445158666772 0.1005823670901454 0 -0.46723244863383712 0.097971273043108306 0 -0.46686982756835349 0.1074114054382402 0 -0.47512549980118862 0.10796659812409699 0 -0.47512549980118862 0.10796659812409699 0 -0.48162445158666772 0.1005823670901454 0 -0.48837893466537508 0.1117690854599766 0 -0.48162445158666772 0.1005823670901454 0 -0.49737891424487929 0.102205182792521 0 -0.48837893466537508 0.1117690854599766 0 -0.47920912086757578 0.083222027247413538 0 -0.48162445158666772 0.1005823670901454 0 -0.49737891424487929 0.102205182792521 0 -0.5 0.088432580532893601 0 -0.49737891424487929 0.102205182792521 0 -0.5 0.1168310671682755 0 -0.49737891424487929 0.102205182792521 0 -0.5 0.1168310671682755 0 -0.48837893466537508 0.1117690854599766 0 -0.5 0.1168310671682755 0 -0.48837893466537508 0.1117690854599766 0 -0.4842723158563047 0.1301441798928954 0 -0.5 0.1168310671682755 0 -0.4842723158563047 0.1301441798928954 0 -0.5 0.14522955380365729 0 -0.46958882025875243 0.12035793204680111 0 -0.4842723158563047 0.1301441798928954 0 -0.46425598871103851 0.13528374379222011 0 -0.4842723158563047 0.1301441798928954 0 -0.47479757173443998 0.15789312434732811 0 -0.46425598871103851 0.13528374379222011 0 -0.47479757173443998 0.15789312434732811 0 -0.46425598871103851 0.13528374379222011 0 -0.4842723158563047 0.1301441798928954 0 -0.5 0.14522955380365729 0 -0.47479757173443998 0.15789312434732811 0 -0.5 0.14522955380365729 0 -0.49999999999999972 0.17362804043903909 0 -0.47479757173443998 0.15789312434732811 0 -0.49999999999999972 0.17362804043903909 0 -0.47479757173443998 0.15789312434732811 0 -0.49999999999999972 0.17362804043903909 0 -0.49200992699072321 0.1743962810239672 0 -0.47479757173443998 0.15789312434732811 0 -0.48341269367675271 0.17637066895233999 0 -0.49170634683837577 0.1941587336203292 0 -0.49368671912131301 0.1828531969182482 0 -0.49999999999999972 0.17362804043903909 0 -0.5 0.19278741936367841 0 -0.49368671912131301 0.1828531969182482 0 -0.48341269367675271 0.17637066895233999 0 -0.49170634683837577 0.1941587336203292 0 -0.49368671912131301 0.1828531969182482 0 -0.49999999999999972 0.17362804043903909 0 -0.49200992699072321 0.1743962810239672 0 -0.49200992699072321 0.1743962810239672 0 -0.48341269367675271 0.17637066895233999 0 -0.49368671912131301 0.1828531969182482 0 -0.49200992699072321 0.1743962810239672 0 -0.48341269367675271 0.17637066895233999 0 -0.48341269367675271 0.17637066895233999 0 -0.45591042926964898 0.18268667049205081 0 -0.47274380268756999 0.19288508587190861 0 -0.48341269367675271 0.17637066895233999 0 -0.45591042926964898 0.18268667049205081 0 -0.49200992699072321 0.1743962810239672 0 -0.48341269367675271 0.17637066895233999 0 -0.47479757173443998 0.15789312434732811 0 -0.48341269367675271 0.17637066895233999 0 -0.47479757173443998 0.15789312434732811 0 -0.48341269367675271 0.17637066895233999 0 -0.47479757173443998 0.15789312434732811 0 -0.45723956394668003 0.16387676974864759 0 -0.48341269367675271 0.17637066895233999 0 -0.45723956394668003 0.16387676974864759 0 -0.45591042926964898 0.18268667049205081 0 -0.45591042926964898 0.18268667049205081 0 -0.43992511097516529 0.17411109905454999 0 -0.4284081648625454 0.1890026720317621 0 -0.45591042926964898 0.18268667049205081 0 -0.4284081648625454 0.1890026720317621 0 -0.45723956394668003 0.16387676974864759 0 -0.45591042926964898 0.18268667049205081 0 -0.43992511097516529 0.17411109905454999 0 -0.45723956394668003 0.16387676974864759 0 -0.43992511097516529 0.17411109905454999 0 -0.43892522612619872 0.15930650560997939 0 -0.43892522612619872 0.15930650560997939 0 -0.43796764784210812 0.14528805014891141 0 -0.45386540436598038 0.14482430837095511 0 -0.45723956394668003 0.16387676974864759 0 -0.43892522612619872 0.15930650560997939 0 -0.45386540436598038 0.14482430837095511 0 -0.45386540436598038 0.14482430837095511 0 -0.43293323699752101 0.1317554923945817 0 -0.43826405507869293 0.1195835460605416 0 -0.44901593584904892 0.12912088192892021 0 -0.43293323699752101 0.1317554923945817 0 -0.43796764784210812 0.14528805014891141 0 -0.45386540436598038 0.14482430837095511 0 -0.43293323699752101 0.1317554923945817 0 -0.44901593584904892 0.12912088192892021 0 -0.45386540436598038 0.14482430837095511 0 -0.43293323699752101 0.1317554923945817 0 -0.45371440568763749 0.1126743632371118 0 -0.44901593584904892 0.12912088192892021 0 -0.46425598871103851 0.13528374379222011 0 -0.44901593584904892 0.12912088192892021 0 -0.46425598871103851 0.13528374379222011 0 -0.45386540436598038 0.14482430837095511 0 -0.47479757173443998 0.15789312434732811 0 -0.45723956394668003 0.16387676974864759 0 -0.45386540436598038 0.14482430837095511 0 -0.47479757173443998 0.15789312434732811 0 -0.46425598871103851 0.13528374379222011 0 -0.45386540436598038 0.14482430837095511 0 -0.47479757173443998 0.15789312434732811 0 -0.45386540436598038 0.14482430837095511 0 -0.48226153920099157 0.23766317590200001 0 -0.47864167104372218 0.246590621409366 0 -0.48932095354102823 0.25454658797793611 0 -0.47315400564016008 0.2364435414805684 0 -0.47864167104372218 0.246590621409366 0 -0.46938038244821267 0.25133041049185839 0 -0.47315400564016008 0.2364435414805684 0 -0.48226153920099157 0.23766317590200001 0 -0.47864167104372218 0.246590621409366 0 -0.49106398183666961 0.22759324404760359 0 -0.48932095354102823 0.25454658797793611 0 -0.5 0.23810140997737081 0 -0.49106398183666961 0.22759324404760359 0 -0.48932095354102823 0.25454658797793611 0 -0.48226153920099157 0.23766317590200001 0 -0.49106398183666961 0.22759324404760359 0 -0.48932095354102823 0.25454658797793611 0 -0.5 0.23810140997737081 0 -0.49106398183666961 0.22759324404760359 0 -0.50000000000000022 0.21194679828831781 0 -0.49106398183666961 0.22759324404760359 0 -0.47912708394337772 0.2231418845945258 0 -0.48726644121087642 0.21298690825741631 0 -0.48226153920099157 0.23766317590200001 0 -0.49106398183666961 0.22759324404760359 0 -0.47912708394337772 0.2231418845945258 0 -0.47315400564016008 0.2364435414805684 0 -0.48226153920099157 0.23766317590200001 0 -0.47912708394337772 0.2231418845945258 0 -0.47315400564016008 0.2364435414805684 0 -0.47912708394337772 0.2231418845945258 0 -0.46764368341616458 0.22415830119077751 0 -0.47912708394337772 0.2231418845945258 0 -0.47360767850491831 0.20951316246361981 0 -0.46764368341616458 0.22415830119077751 0 -0.47360767850491831 0.20951316246361981 0 -0.48726644121087642 0.21298690825741631 0 -0.49170634683837577 0.1941587336203292 0 -0.47912708394337772 0.2231418845945258 0 -0.47360767850491831 0.20951316246361981 0 -0.48726644121087642 0.21298690825741631 0 -0.49106398183666961 0.22759324404760359 0 -0.50000000000000022 0.21194679828831781 0 -0.48726644121087642 0.21298690825741631 0 -0.50000000000000022 0.21194679828831781 0 -0.48726644121087642 0.21298690825741631 0 -0.49170634683837577 0.1941587336203292 0 -0.50000000000000022 0.21194679828831781 0 -0.49170634683837577 0.1941587336203292 0 -0.50000000000000022 0.21194679828831781 0 -0.5 0.19278741936367841 0 -0.49170634683837577 0.1941587336203292 0 -0.49368671912131301 0.1828531969182482 0 -0.5 0.19278741936367841 0 -0.49170634683837577 0.1941587336203292 0 -0.48341269367675271 0.17637066895233999 0 -0.49170634683837577 0.1941587336203292 0 -0.47274380268756999 0.19288508587190861 0 -0.47360767850491831 0.20951316246361981 0 -0.49170634683837577 0.1941587336203292 0 -0.47274380268756999 0.19288508587190861 0 -0.47360767850491831 0.20951316246361981 0 -0.47274380268756999 0.19288508587190861 0 -0.45820261548712909 0.20353130823034371 0 -0.45591042926964898 0.18268667049205081 0 -0.47274380268756999 0.19288508587190861 0 -0.45820261548712909 0.20353130823034371 0 -0.45591042926964898 0.18268667049205081 0 -0.43516662619925378 0.20614333559983469 0 -0.4284081648625454 0.1890026720317621 0 -0.45591042926964898 0.18268667049205081 0 -0.45820261548712909 0.20353130823034371 0 -0.43516662619925378 0.20614333559983469 0 -0.44192508753596349 0.22328399916790689 0 -0.43516662619925378 0.20614333559983469 0 -0.45032248765871591 0.2151961798839368 0 -0.44192508753596349 0.22328399916790689 0 -0.43516662619925378 0.20614333559983469 0 -0.45032248765871591 0.2151961798839368 0 -0.45820261548712909 0.20353130823034371 0 -0.43516662619925378 0.20614333559983469 0 -0.45032248765871591 0.2151961798839368 0 -0.46109406183397039 0.21551848415653921 0 -0.45620465585954723 0.2251951411450015 0 -0.45032248765871591 0.2151961798839368 0 -0.45820261548712909 0.20353130823034371 0 -0.46109406183397039 0.21551848415653921 0 -0.47360767850491831 0.20951316246361981 0 -0.45820261548712909 0.20353130823034371 0 -0.46109406183397039 0.21551848415653921 0 -0.47360767850491831 0.20951316246361981 0 -0.46109406183397039 0.21551848415653921 0 -0.46764368341616458 0.22415830119077751 0 -0.47315400564016008 0.2364435414805684 0 -0.46764368341616458 0.22415830119077751 0 -0.45925329591452863 0.2407771106774913 0 -0.46764368341616458 0.22415830119077751 0 -0.45620465585954723 0.2251951411450015 0 -0.45925329591452863 0.2407771106774913 0 -0.46109406183397039 0.21551848415653921 0 -0.46764368341616458 0.22415830119077751 0 -0.45620465585954723 0.2251951411450015 0 -0.45032248765871591 0.2151961798839368 0 -0.45620465585954723 0.2251951411450015 0 -0.44192508753596349 0.22328399916790689 0 -0.44192508753596349 0.22328399916790689 0 -0.44062222049055039 0.24203477259657111 0 -0.43146145522804691 0.2313120115293863 0 -0.45620465585954723 0.2251951411450015 0 -0.44062222049055039 0.24203477259657111 0 -0.45620465585954723 0.2251951411450015 0 -0.44192508753596349 0.22328399916790689 0 -0.44062222049055039 0.24203477259657111 0 -0.44062222049055039 0.24203477259657111 0 -0.45046339488490522 0.249057113070103 0 -0.44442574262614493 0.25832327296872359 0 -0.44062222049055039 0.24203477259657111 0 -0.45046339488490522 0.249057113070103 0 -0.45925329591452863 0.2407771106774913 0 -0.45620465585954723 0.2251951411450015 0 -0.44062222049055039 0.24203477259657111 0 -0.45925329591452863 0.2407771106774913 0 -0.45046339488490522 0.249057113070103 0 -0.45925329591452863 0.2407771106774913 0 -0.45807104112411212 0.25534721177055669 0 -0.45925329591452863 0.2407771106774913 0 -0.46938038244821267 0.25133041049185839 0 -0.45807104112411212 0.25534721177055669 0 -0.47315400564016008 0.2364435414805684 0 -0.45925329591452863 0.2407771106774913 0 -0.46938038244821267 0.25133041049185839 0 -0.4198454647722451 0.23985190764030939 0 -0.40081965837488509 0.24074316727492401 0 -0.40585136056822319 0.25674789398696107 0 -0.4198454647722451 0.23985190764030939 0 -0.405480724964072 0.22581663549259839 0 -0.40081965837488509 0.24074316727492401 0 -0.44062222049055039 0.24203477259657111 0 -0.4198454647722451 0.23985190764030939 0 -0.42503978512155383 0.25887440404814072 0 -0.44062222049055039 0.24203477259657111 0 -0.4198454647722451 0.23985190764030939 0 -0.43146145522804691 0.2313120115293863 0 -0.4198454647722451 0.23985190764030939 0 -0.43146145522804691 0.2313120115293863 0 -0.42370673975344808 0.22056464269113771 0 -0.44192508753596349 0.22328399916790689 0 -0.43146145522804691 0.2313120115293863 0 -0.42370673975344808 0.22056464269113771 0 -0.4198454647722451 0.23985190764030939 0 -0.42370673975344808 0.22056464269113771 0 -0.405480724964072 0.22581663549259839 0 -0.42370673975344808 0.22056464269113771 0 -0.40708390191205951 0.20882890034131879 0 -0.405480724964072 0.22581663549259839 0 -0.42370673975344808 0.22056464269113771 0 -0.40708390191205951 0.20882890034131879 0 -0.42107335870595469 0.2022269477122331 0 -0.44192508753596349 0.22328399916790689 0 -0.42370673975344808 0.22056464269113771 0 -0.43516662619925378 0.20614333559983469 0 -0.42370673975344808 0.22056464269113771 0 -0.43516662619925378 0.20614333559983469 0 -0.42107335870595469 0.2022269477122331 0 -0.43516662619925378 0.20614333559983469 0 -0.4284081648625454 0.1890026720317621 0 -0.42107335870595469 0.2022269477122331 0 -0.43516662619925378 0.20614333559983469 0 -0.4284081648625454 0.1890026720317621 0 -0.4284081648625454 0.1890026720317621 0 -0.40915969581062839 0.19342315750049971 0 -0.4284081648625454 0.1890026720317621 0 -0.42107335870595469 0.2022269477122331 0 -0.40915969581062839 0.19342315750049971 0 -0.40708390191205951 0.20882890034131879 0 -0.42107335870595469 0.2022269477122331 0 -0.40915969581062839 0.19342315750049971 0 -0.40708390191205951 0.20882890034131879 0 -0.40915969581062839 0.19342315750049971 0 -0.38991122675871148 0.19784364296923759 0 -0.40915969581062839 0.19342315750049971 0 -0.38991122675871148 0.19784364296923759 0 -0.40915969581062839 0.19342315750049971 0 -0.38991122675871148 0.19784364296923759 0 -0.39569501158598158 0.17813944679546001 0 -0.39158905321283283 0.2136173787495643 0 -0.38435338999826391 0.22831720607051781 0 -0.36414166766971379 0.2074649771098355 0 -0.38991122675871148 0.19784364296923759 0 -0.39158905321283283 0.2136173787495643 0 -0.36414166766971379 0.2074649771098355 0 -0.40708390191205951 0.20882890034131879 0 -0.39158905321283283 0.2136173787495643 0 -0.405480724964072 0.22581663549259839 0 -0.40708390191205951 0.20882890034131879 0 -0.38991122675871148 0.19784364296923759 0 -0.39158905321283283 0.2136173787495643 0 -0.405480724964072 0.22581663549259839 0 -0.38435338999826391 0.22831720607051781 0 -0.40081965837488509 0.24074316727492401 0 -0.39158905321283283 0.2136173787495643 0 -0.405480724964072 0.22581663549259839 0 -0.38435338999826391 0.22831720607051781 0 -0.37619177155740557 0.24036243622333081 0 -0.38790582398472923 0.24962922847932231 0 -0.36318679658289171 0.25196182354824148 0 -0.38435338999826391 0.22831720607051781 0 -0.37619177155740557 0.24036243622333081 0 -0.38790582398472923 0.24962922847932231 0 -0.38435338999826391 0.22831720607051781 0 -0.38790582398472923 0.24962922847932231 0 -0.40081965837488509 0.24074316727492401 0 -0.38790582398472923 0.24962922847932231 0 -0.40081965837488509 0.24074316727492401 0 -0.40585136056822319 0.25674789398696107 0 -0.40926453963391513 0.14045102348790381 0 -0.42614672387873248 0.14526589422012931 0 -0.41883635224822963 0.16472684775983329 0 -0.40926453963391513 0.14045102348790381 0 -0.41883635224822963 0.16472684775983329 0 -0.40926453963391513 0.14045102348790381 0 -0.41883635224822963 0.16472684775983329 0 -0.40029434983296169 0.15790366282291429 0 -0.40926453963391513 0.14045102348790381 0 -0.417579207348795 0.13056668242546571 0 -0.40026410281127539 0.13237877311027449 0 -0.40926453963391513 0.14045102348790381 0 -0.417579207348795 0.13056668242546571 0 -0.42614672387873248 0.14526589422012931 0 -0.417579207348795 0.13056668242546571 0 -0.43293323699752101 0.1317554923945817 0 -0.42614672387873248 0.14526589422012931 0 -0.42608096723388439 0.1205091241492761 0 -0.417579207348795 0.13056668242546571 0 -0.43293323699752101 0.1317554923945817 0 -0.43796764784210812 0.14528805014891141 0 -0.43293323699752101 0.1317554923945817 0 -0.42614672387873248 0.14526589422012931 0 -0.43892522612619872 0.15930650560997939 0 -0.43796764784210812 0.14528805014891141 0 -0.42614672387873248 0.14526589422012931 0 -0.43892522612619872 0.15930650560997939 0 -0.42614672387873248 0.14526589422012931 0 -0.41883635224822963 0.16472684775983329 0 -0.43992511097516529 0.17411109905454999 0 -0.43892522612619872 0.15930650560997939 0 -0.41883635224822963 0.16472684775983329 0 -0.4284081648625454 0.1890026720317621 0 -0.41883635224822963 0.16472684775983329 0 -0.43992511097516529 0.17411109905454999 0 -0.4284081648625454 0.1890026720317621 0 -0.41883635224822963 0.16472684775983329 0 -0.40915969581062839 0.19342315750049971 0 -0.41883635224822963 0.16472684775983329 0 -0.39569501158598158 0.17813944679546001 0 -0.4284081648625454 0.1890026720317621 0 -0.40915969581062839 0.19342315750049971 0 -0.41883635224822963 0.16472684775983329 0 -0.40029434983296169 0.15790366282291429 0 -0.39569501158598158 0.17813944679546001 0 -0.38484252596519369 0.16167484958157691 0 -0.41883635224822963 0.16472684775983329 0 -0.40029434983296169 0.15790366282291429 0 -0.39569501158598158 0.17813944679546001 0 -0.39569501158598158 0.17813944679546001 0 -0.38484252596519369 0.16167484958157691 0 -0.36525228834216061 0.17922160577889321 0 -0.38991122675871148 0.19784364296923759 0 -0.39569501158598158 0.17813944679546001 0 -0.36525228834216061 0.17922160577889321 0 -0.39283331973148827 0.14452614648979731 0 -0.38372255811484618 0.13025780258704611 0 -0.36636290901460722 0.1509782344479508 0 -0.38484252596519369 0.16167484958157691 0 -0.39283331973148827 0.14452614648979731 0 -0.36636290901460722 0.1509782344479508 0 -0.40029434983296169 0.15790366282291429 0 -0.38484252596519369 0.16167484958157691 0 -0.39283331973148827 0.14452614648979731 0 -0.40926453963391513 0.14045102348790381 0 -0.40029434983296169 0.15790366282291429 0 -0.39283331973148827 0.14452614648979731 0 -0.39283331973148827 0.14452614648979731 0 -0.40026410281127539 0.13237877311027449 0 -0.38372255811484618 0.13025780258704611 0 -0.39792088922733271 0.1160922105611595 0 -0.417579207348795 0.13056668242546571 0 -0.40026410281127539 0.13237877311027449 0 -0.39792088922733271 0.1160922105611595 0 -0.40026410281127539 0.13237877311027449 0 -0.38372255811484618 0.13025780258704611 0 -0.40926453963391513 0.14045102348790381 0 -0.39283331973148827 0.14452614648979731 0 -0.40026410281127539 0.13237877311027449 0 -0.38372255811484618 0.13025780258704611 0 -0.36636290901460722 0.1509782344479508 0 -0.36747352968705388 0.12273486311700831 0 -0.36636290901460722 0.1509782344479508 0 -0.36747352968705388 0.12273486311700831 0 -0.35528769071996391 0.12689780186549679 0 -0.36636290901460722 0.1509782344479508 0 -0.36747352968705388 0.12273486311700831 0 -0.35528769071996391 0.12689780186549679 0 -0.33512599087492562 0.1447950320020088 0 -0.35528769071996391 0.12689780186549679 0 -0.35168351666373848 0.14314256241625531 0 -0.33512599087492562 0.1447950320020088 0 -0.35528769071996391 0.12689780186549679 0 -0.33512599087492562 0.1447950320020088 0 -0.34115039425197219 0.12498493974687711 0 -0.35528769071996391 0.12689780186549679 0 -0.35168351666373848 0.14314256241625531 0 -0.36636290901460722 0.1509782344479508 0 -0.35168351666373848 0.14314256241625531 0 -0.36636290901460722 0.1509782344479508 0 -0.34333519974196419 0.16612441953572921 0 -0.38484252596519369 0.16167484958157691 0 -0.36636290901460722 0.1509782344479508 0 -0.36525228834216061 0.17922160577889321 0 -0.36636290901460722 0.1509782344479508 0 -0.36525228834216061 0.17922160577889321 0 -0.36525228834216061 0.17922160577889321 0 -0.34333519974196419 0.16612441953572921 0 -0.34654591437965571 0.19533490523866279 0 -0.36636290901460722 0.1509782344479508 0 -0.36525228834216061 0.17922160577889321 0 -0.34333519974196419 0.16612441953572921 0 -0.34333519974196419 0.16612441953572921 0 -0.31496429102988749 0.16269226213852109 0 -0.33512599087492562 0.1447950320020088 0 -0.34333519974196419 0.16612441953572921 0 -0.34654591437965571 0.19533490523866279 0 -0.32412519241006588 0.1878495682783011 0 -0.31496429102988749 0.16269226213852109 0 -0.32412519241006588 0.1878495682783011 0 -0.34333519974196419 0.16612441953572921 0 -0.31496429102988749 0.16269226213852109 0 -0.32412519241006588 0.1878495682783011 0 -0.31303823693556859 0.17707572181323081 0 -0.31496429102988749 0.16269226213852109 0 -0.32412519241006588 0.1878495682783011 0 -0.31303823693556859 0.17707572181323081 0 -0.32412519241006588 0.1878495682783011 0 -0.3108046026399135 0.18379038091696129 0 -0.31496429102988749 0.16269226213852109 0 -0.31353256245119709 0.1587605055712967 0 -0.31354631638020197 0.13395604467094269 0 -0.33512599087492562 0.1447950320020088 0 -0.3122891553291075 0.14635758184588041 0 -0.31353256245119709 0.1587605055712967 0 -0.33512599087492562 0.1447950320020088 0 -0.3122891553291075 0.14635758184588041 0 -0.31496429102988749 0.16269226213852109 0 -0.31353256245119709 0.1587605055712967 0 -0.33512599087492562 0.1447950320020088 0 -0.31496429102988749 0.16269226213852109 0 -0.33512599087492562 0.1447950320020088 0 -0.31354631638020197 0.13395604467094269 0 -0.32917568526667751 0.12578156900391591 0 -0.33512599087492562 0.1447950320020088 0 -0.31354631638020197 0.13395604467094269 0 -0.32917568526667751 0.12578156900391591 0 -0.32114709127587232 0.11611322513389059 0 -0.32917568526667751 0.12578156900391591 0 -0.33512599087492562 0.1447950320020088 0 -0.34115039425197219 0.12498493974687711 0 -0.35168351666373848 0.14314256241625531 0 -0.34333519974196419 0.16612441953572921 0 -0.33512599087492562 0.1447950320020088 0 -0.36303104699726713 0.23570834844077809 0 -0.34244699517042121 0.23816418055786151 0 -0.36318679658289171 0.25196182354824148 0 -0.34244699517042121 0.23816418055786151 0 -0.36318679658289171 0.25196182354824148 0 -0.33952374355129727 0.25899057541505788 0 -0.37619177155740557 0.24036243622333081 0 -0.36303104699726713 0.23570834844077809 0 -0.36318679658289171 0.25196182354824148 0 -0.38435338999826391 0.22831720607051781 0 -0.37619177155740557 0.24036243622333081 0 -0.36303104699726713 0.23570834844077809 0 -0.38435338999826391 0.22831720607051781 0 -0.36303104699726713 0.23570834844077809 0 -0.36414166766971379 0.2074649771098355 0 -0.36303104699726713 0.23570834844077809 0 -0.36414166766971379 0.2074649771098355 0 -0.36303104699726713 0.23570834844077809 0 -0.35084793517488477 0.2210857468323085 0 -0.34244699517042121 0.23816418055786151 0 -0.36303104699726713 0.23570834844077809 0 -0.35084793517488477 0.2210857468323085 0 -0.36414166766971379 0.2074649771098355 0 -0.35084793517488477 0.2210857468323085 0 -0.36414166766971379 0.2074649771098355 0 -0.34654591437965571 0.19533490523866279 0 -0.36525228834216061 0.17922160577889321 0 -0.36414166766971379 0.2074649771098355 0 -0.38991122675871148 0.19784364296923759 0 -0.36525228834216061 0.17922160577889321 0 -0.36414166766971379 0.2074649771098355 0 -0.36525228834216061 0.17922160577889321 0 -0.36414166766971379 0.2074649771098355 0 -0.34654591437965571 0.19533490523866279 0 -0.32412519241006588 0.1878495682783011 0 -0.33328609379024349 0.2130068744180813 0 -0.34654591437965571 0.19533490523866279 0 -0.32412519241006588 0.1878495682783011 0 -0.33328609379024349 0.2130068744180813 0 -0.32412519241006588 0.1878495682783011 0 -0.33328609379024349 0.2130068744180813 0 -0.31080006153106382 0.20197173666100501 0 -0.32412519241006588 0.1878495682783011 0 -0.31080006153106382 0.20197173666100501 0 -0.3108046026399135 0.18379038091696129 0 -0.33328609379024349 0.2130068744180813 0 -0.31873218963182409 0.22654972870499029 0 -0.31080006153106382 0.20197173666100501 0 -0.35084793517488477 0.2210857468323085 0 -0.34654591437965571 0.19533490523866279 0 -0.33328609379024349 0.2130068744180813 0 -0.35084793517488477 0.2210857468323085 0 -0.33328609379024349 0.2130068744180813 0 -0.34244699517042121 0.23816418055786151 0 -0.33328609379024349 0.2130068744180813 0 -0.34244699517042121 0.23816418055786151 0 -0.33328609379024349 0.2130068744180813 0 -0.31873218963182409 0.22654972870499029 0 -0.34244699517042121 0.23816418055786151 0 -0.31873218963182409 0.22654972870499029 0 -0.32200613725511351 0.24850726385495631 0 -0.34244699517042121 0.23816418055786151 0 -0.31873218963182409 0.22654972870499029 0 -0.32200613725511351 0.24850726385495631 0 -0.30672251365844311 0.23743048015470111 0 -0.32200613725511351 0.24850726385495631 0 -0.34244699517042121 0.23816418055786151 0 -0.33952374355129727 0.25899057541505788 0 -0.29125564533142001 0.24067530578368901 0 -0.30672251365844311 0.23743048015470111 0 -0.30640548876467488 0.25787073169030861 0 -0.32200613725511351 0.24850726385495631 0 -0.30672251365844311 0.23743048015470111 0 -0.30640548876467488 0.25787073169030861 0 -0.29125564533142001 0.24067530578368901 0 -0.30672251365844311 0.23743048015470111 0 -0.29521310730918271 0.21354937073956171 0 -0.31873218963182409 0.22654972870499029 0 -0.30672251365844311 0.23743048015470111 0 -0.29521310730918271 0.21354937073956171 0 -0.29125564533142001 0.24067530578368901 0 -0.29521310730918271 0.21354937073956171 0 -0.29125564533142001 0.24067530578368901 0 -0.29521310730918271 0.21354937073956171 0 -0.27258595833473342 0.22149207507906341 0 -0.29521310730918271 0.21354937073956171 0 -0.28878760701375322 0.1984352968903606 0 -0.27490594785389072 0.20112241201531189 0 -0.31873218963182409 0.22654972870499029 0 -0.29521310730918271 0.21354937073956171 0 -0.31080006153106382 0.20197173666100501 0 -0.29521310730918271 0.21354937073956171 0 -0.29917056928694541 0.1864234356954344 0 -0.29521310730918271 0.21354937073956171 0 -0.31080006153106382 0.20197173666100501 0 -0.29917056928694541 0.1864234356954344 0 -0.31080006153106382 0.20197173666100501 0 -0.3108046026399135 0.18379038091696129 0 -0.29917056928694541 0.1864234356954344 0 -0.28878760701375322 0.1984352968903606 0 -0.29917056928694541 0.1864234356954344 0 -0.28955343229492791 0.1852490896997587 0 -0.29521310730918271 0.21354937073956171 0 -0.28878760701375322 0.1984352968903606 0 -0.29917056928694541 0.1864234356954344 0 -0.28878760701375322 0.1984352968903606 0 -0.27938784373491388 0.18917199981814359 0 -0.28955343229492791 0.1852490896997587 0 -0.27938784373491388 0.18917199981814359 0 -0.27490594785389072 0.20112241201531189 0 -0.26439180367967152 0.18225540552070321 0 -0.28878760701375322 0.1984352968903606 0 -0.27938784373491388 0.18917199981814359 0 -0.27490594785389072 0.20112241201531189 0 -0.27490594785389072 0.20112241201531189 0 -0.25370102580463139 0.2052288024824625 0 -0.26439180367967152 0.18225540552070321 0 -0.25370102580463139 0.2052288024824625 0 -0.26439180367967152 0.18225540552070321 0 -0.23359887481107691 0.1809086922627815 0 -0.27490594785389072 0.20112241201531189 0 -0.25370102580463139 0.2052288024824625 0 -0.27258595833473342 0.22149207507906341 0 -0.29521310730918271 0.21354937073956171 0 -0.27490594785389072 0.20112241201531189 0 -0.27258595833473342 0.22149207507906341 0 -0.29125564533142001 0.24067530578368901 0 -0.27258595833473342 0.22149207507906341 0 -0.26834113505385238 0.23837358332174549 0 -0.27258595833473342 0.22149207507906341 0 -0.25272375818517617 0.22994970808158929 0 -0.26834113505385238 0.23837358332174549 0 -0.25370102580463139 0.2052288024824625 0 -0.27258595833473342 0.22149207507906341 0 -0.25272375818517617 0.22994970808158929 0 -0.25272375818517617 0.22994970808158929 0 -0.25621817608628389 0.2460965770837312 0 -0.26834113505385238 0.23837358332174549 0 -0.25621817608628389 0.2460965770837312 0 -0.26834113505385238 0.23837358332174549 0 -0.26892213733164849 0.25365425058065472 0 -0.29125564533142001 0.24067530578368901 0 -0.26834113505385238 0.23837358332174549 0 -0.26892213733164849 0.25365425058065472 0 -0.29370567785695612 0.15770531643225719 0 -0.28412418886142132 0.16518528890623771 0 -0.28065913062351988 0.14575155473079041 0 -0.30159211447790629 0.14759241864651959 0 -0.29370567785695612 0.15770531643225719 0 -0.28065913062351988 0.14575155473079041 0 -0.29682817834931757 0.13068013418198679 0 -0.30159211447790629 0.14759241864651959 0 -0.28065913062351988 0.14575155473079041 0 -0.29682817834931757 0.13068013418198679 0 -0.28065913062351988 0.14575155473079041 0 -0.28285123447775751 0.1183560919224374 0 -0.31354631638020197 0.13395604467094269 0 -0.29682817834931757 0.13068013418198679 0 -0.30159211447790629 0.14759241864651959 0 -0.31354631638020197 0.13395604467094269 0 -0.3122891553291075 0.14635758184588041 0 -0.30159211447790629 0.14759241864651959 0 -0.31353256245119709 0.1587605055712967 0 -0.3122891553291075 0.14635758184588041 0 -0.30159211447790629 0.14759241864651959 0 -0.31496429102988749 0.16269226213852109 0 -0.31353256245119709 0.1587605055712967 0 -0.30488677357152572 0.1641353808659653 0 -0.30159211447790629 0.14759241864651959 0 -0.30488677357152572 0.1641353808659653 0 -0.29370567785695612 0.15770531643225719 0 -0.31353256245119709 0.1587605055712967 0 -0.30159211447790629 0.14759241864651959 0 -0.30488677357152572 0.1641353808659653 0 -0.31496429102988749 0.16269226213852109 0 -0.30225886166240762 0.17397067591913981 0 -0.31303823693556859 0.17707572181323081 0 -0.31496429102988749 0.16269226213852109 0 -0.30225886166240762 0.17397067591913981 0 -0.31496429102988749 0.16269226213852109 0 -0.30488677357152572 0.1641353808659653 0 -0.30225886166240762 0.17397067591913981 0 -0.30488677357152572 0.1641353808659653 0 -0.30225886166240762 0.17397067591913981 0 -0.29597535979189887 0.1670989905046398 0 -0.30488677357152572 0.1641353808659653 0 -0.29370567785695612 0.15770531643225719 0 -0.29597535979189887 0.1670989905046398 0 -0.31303823693556859 0.17707572181323081 0 -0.3108046026399135 0.18379038091696129 0 -0.30225886166240762 0.17397067591913981 0 -0.30225886166240762 0.17397067591913981 0 -0.29917056928694541 0.1864234356954344 0 -0.28955343229492791 0.1852490896997587 0 -0.3108046026399135 0.18379038091696129 0 -0.30225886166240762 0.17397067591913981 0 -0.29917056928694541 0.1864234356954344 0 -0.30225886166240762 0.17397067591913981 0 -0.28955343229492791 0.1852490896997587 0 -0.30225886166240762 0.17397067591913981 0 -0.28955343229492791 0.1852490896997587 0 -0.29024545837739651 0.173916500811098 0 -0.28955343229492791 0.1852490896997587 0 -0.29024545837739651 0.173916500811098 0 -0.27889874324695868 0.17762520371433099 0 -0.29024545837739651 0.173916500811098 0 -0.28412418886142132 0.16518528890623771 0 -0.27889874324695868 0.17762520371433099 0 -0.27938784373491388 0.18917199981814359 0 -0.28955343229492791 0.1852490896997587 0 -0.27889874324695868 0.17762520371433099 0 -0.29370567785695612 0.15770531643225719 0 -0.29597535979189887 0.1670989905046398 0 -0.28412418886142132 0.16518528890623771 0 -0.30225886166240762 0.17397067591913981 0 -0.29024545837739651 0.173916500811098 0 -0.29597535979189887 0.1670989905046398 0 -0.29024545837739651 0.173916500811098 0 -0.29597535979189887 0.1670989905046398 0 -0.28412418886142132 0.16518528890623771 0 -0.28412418886142132 0.16518528890623771 0 -0.26844272787379447 0.16268744982768751 0 -0.27889874324695868 0.17762520371433099 0 -0.28412418886142132 0.16518528890623771 0 -0.26844272787379447 0.16268744982768751 0 -0.28065913062351988 0.14575155473079041 0 -0.26844272787379447 0.16268744982768751 0 -0.27889874324695868 0.17762520371433099 0 -0.26439180367967152 0.18225540552070321 0 -0.27938784373491388 0.18917199981814359 0 -0.27889874324695868 0.17762520371433099 0 -0.26439180367967152 0.18225540552070321 0 -0.26844272787379447 0.16268744982768751 0 -0.26439180367967152 0.18225540552070321 0 -0.247018622616726 0.15992587597476091 0 -0.26844272787379447 0.16268744982768751 0 -0.25846103874104392 0.14702121199507179 0 -0.247018622616726 0.15992587597476091 0 -0.26844272787379447 0.16268744982768751 0 -0.25846103874104392 0.14702121199507179 0 -0.28065913062351988 0.14575155473079041 0 -0.25846103874104392 0.14702121199507179 0 -0.28065913062351988 0.14575155473079041 0 -0.25922316449870308 0.12628093809151891 0 -0.28065913062351988 0.14575155473079041 0 -0.25922316449870308 0.12628093809151891 0 -0.28285123447775751 0.1183560919224374 0 -0.25846103874104392 0.14702121199507179 0 -0.25922316449870308 0.12628093809151891 0 -0.2369615480924761 0.1404602413506009 0 -0.25922316449870308 0.12628093809151891 0 -0.25136603029008331 0.1103208693098497 0 -0.26687835675477128 0.1014348965859585 0 -0.25136603029008331 0.1103208693098497 0 -0.26687835675477128 0.1014348965859585 0 -0.24377998071086901 0.096378574065869249 0 -0.26687835675477128 0.1014348965859585 0 -0.28737892951993471 0.098967158637655914 0 -0.27569457229827071 0.081243623470509244 0 -0.26687835675477128 0.1014348965859585 0 -0.28285123447775751 0.1183560919224374 0 -0.28737892951993471 0.098967158637655914 0 -0.25922316449870308 0.12628093809151891 0 -0.26687835675477128 0.1014348965859585 0 -0.28285123447775751 0.1183560919224374 0 -0.29682817834931757 0.13068013418198679 0 -0.28285123447775751 0.1183560919224374 0 -0.30549209578720232 0.10774456093924389 0 -0.28285123447775751 0.1183560919224374 0 -0.28737892951993471 0.098967158637655914 0 -0.30549209578720232 0.10774456093924389 0 -0.28737892951993471 0.098967158637655914 0 -0.30549209578720232 0.10774456093924389 0 -0.29743787519420251 0.08153307720754506 0 -0.30549209578720232 0.10774456093924389 0 -0.29743787519420251 0.08153307720754506 0 -0.31354631638020197 0.13395604467094269 0 -0.29682817834931757 0.13068013418198679 0 -0.30549209578720232 0.10774456093924389 0 -0.31354631638020197 0.13395604467094269 0 -0.30549209578720232 0.10774456093924389 0 -0.29926204670725021 0.066629363318123747 0 -0.30931237829482389 0.073252958087475881 0 -0.31697319293959142 0.061410437985649477 0 -0.29926204670725021 0.066629363318123747 0 -0.30931237829482389 0.073252958087475881 0 -0.29743787519420251 0.08153307720754506 0 -0.30549209578720232 0.10774456093924389 0 -0.29743787519420251 0.08153307720754506 0 -0.31312795334666071 0.083579729522452809 0 -0.30931237829482389 0.073252958087475881 0 -0.29743787519420251 0.08153307720754506 0 -0.31312795334666071 0.083579729522452809 0 -0.28737892951993471 0.098967158637655914 0 -0.29743787519420251 0.08153307720754506 0 -0.27569457229827071 0.081243623470509244 0 -0.29743787519420251 0.08153307720754506 0 -0.28743776060402371 0.060458689408765323 0 -0.28938365460120269 0.05532159347584624 0 -0.29743787519420251 0.08153307720754506 0 -0.28938365460120269 0.05532159347584624 0 -0.29926204670725021 0.066629363318123747 0 -0.29743787519420251 0.08153307720754506 0 -0.28938365460120269 0.05532159347584624 0 -0.29743787519420251 0.08153307720754506 0 -0.27569457229827071 0.081243623470509244 0 -0.28743776060402371 0.060458689408765323 0 -0.27569457229827071 0.081243623470509244 0 -0.26257114212692878 0.06573449919026883 0 -0.28743776060402371 0.060458689408765323 0 -0.26257114212692878 0.06573449919026883 0 -0.28743776060402371 0.060458689408765323 0 -0.26687835675477128 0.1014348965859585 0 -0.25261226255175379 0.080423606239198905 0 -0.24377998071086901 0.096378574065869249 0 -0.26687835675477128 0.1014348965859585 0 -0.27569457229827071 0.081243623470509244 0 -0.25261226255175379 0.080423606239198905 0 -0.26257114212692878 0.06573449919026883 0 -0.23770452364983391 0.071010308971772351 0 -0.25261226255175379 0.080423606239198905 0 -0.26257114212692878 0.06573449919026883 0 -0.23770452364983391 0.071010308971772351 0 -0.27569457229827071 0.081243623470509244 0 -0.25261226255175379 0.080423606239198905 0 -0.26257114212692878 0.06573449919026883 0 -0.2522816967992324 0.037264740289820159 0 -0.27263172987273521 0.051913181220590639 0 -0.24906194248509719 0.058488871325365822 0 -0.26257114212692878 0.06573449919026883 0 -0.27263172987273521 0.051913181220590639 0 -0.24906194248509719 0.058488871325365822 0 -0.2522816967992324 0.037264740289820159 0 -0.2684979789729644 0.03593820420606865 0 -0.27263172987273521 0.051913181220590639 0 -0.2684979789729644 0.03593820420606865 0 -0.27263172987273521 0.051913181220590639 0 -0.28132943400820298 0.02911010974414751 0 -0.27263172987273521 0.051913181220590639 0 -0.28132943400820298 0.02911010974414751 0 -0.28938365460120269 0.05532159347584624 0 -0.26257114212692878 0.06573449919026883 0 -0.27263172987273521 0.051913181220590639 0 -0.28743776060402371 0.060458689408765323 0 -0.25267499080189931 -0.0034516002120552492 0 -0.26909988492935111 -0.0018655285383734981 0 -0.25157722050270093 0.012682655753942951 0 -0.26909988492935111 -0.0018655285383734981 0 -0.25157722050270093 0.012682655753942951 0 -0.27200359261247947 0.017754051058092819 0 -0.2522816967992324 0.037264740289820159 0 -0.25157722050270093 0.012682655753942951 0 -0.27200359261247947 0.017754051058092819 0 -0.2522816967992324 0.037264740289820159 0 -0.2684979789729644 0.03593820420606865 0 -0.27200359261247947 0.017754051058092819 0 -0.2522816967992324 0.037264740289820159 0 -0.27200359261247947 0.017754051058092819 0 -0.27200359261247947 0.017754051058092819 0 -0.28831373269731447 0.017122983851404761 0 -0.28132943400820298 0.02911010974414751 0 -0.2684979789729644 0.03593820420606865 0 -0.27200359261247947 0.017754051058092819 0 -0.28132943400820298 0.02911010974414751 0 -0.26909988492935111 -0.0018655285383734981 0 -0.2917254884257266 -0.0017566381736345419 0 -0.27200359261247947 0.017754051058092819 0 -0.2917254884257266 -0.0017566381736345419 0 -0.27200359261247947 0.017754051058092819 0 -0.28831373269731447 0.017122983851404761 0 -0.2917254884257266 -0.0017566381736345419 0 -0.28831373269731447 0.017122983851404761 0 -0.29997880334656019 0.01439552450637107 0 -0.2917254884257266 -0.0017566381736345419 0 -0.27200359261247947 0.017754051058092819 0 -0.28831373269731447 0.017122983851404761 0 -0.29656482898857922 0.02610767777843559 0 -0.29997880334656019 0.01439552450637107 0 -0.28831373269731447 0.017122983851404761 0 -0.28132943400820298 0.02911010974414751 0 -0.29656482898857922 0.02610767777843559 0 -0.28132943400820298 0.02911010974414751 0 -0.29656482898857922 0.02610767777843559 0 -0.29344050585463782 0.03493273697686209 0 -0.29656482898857922 0.02610767777843559 0 -0.31039051656375261 0.022327184027059441 0 -0.30541723396373921 0.038711125382435783 0 -0.31039051656375261 0.022327184027059441 0 -0.30541723396373921 0.038711125382435783 0 -0.32038394146944787 0.031620215762440292 0 -0.29656482898857922 0.02610767777843559 0 -0.31039051656375261 0.022327184027059441 0 -0.29997880334656019 0.01439552450637107 0 -0.31039051656375261 0.022327184027059441 0 -0.31177688145040278 0.0050359958776742568 0 -0.29997880334656019 0.01439552450637107 0 -0.2917254884257266 -0.0017566381736345419 0 -0.31177688145040278 0.0050359958776742568 0 -0.29997880334656019 0.01439552450637107 0 -0.27263172987273521 0.051913181220590639 0 -0.28743776060402371 0.060458689408765323 0 -0.28938365460120269 0.05532159347584624 0 -0.28938365460120269 0.05532159347584624 0 -0.29045052645802971 0.045802035002429492 0 -0.29738278035354182 0.050541329601553678 0 -0.28938365460120269 0.05532159347584624 0 -0.29738278035354182 0.050541329601553678 0 -0.29780899910201009 0.056562827273038227 0 -0.29926204670725021 0.066629363318123747 0 -0.28938365460120269 0.05532159347584624 0 -0.29780899910201009 0.056562827273038227 0 -0.28132943400820298 0.02911010974414751 0 -0.28938365460120269 0.05532159347584624 0 -0.29045052645802971 0.045802035002429492 0 -0.28132943400820298 0.02911010974414751 0 -0.28938365460120269 0.05532159347584624 0 -0.28132943400820298 0.02911010974414751 0 -0.29344050585463782 0.03493273697686209 0 -0.29045052645802971 0.045802035002429492 0 -0.29344050585463782 0.03493273697686209 0 -0.29045052645802971 0.045802035002429492 0 -0.30541723396373921 0.038711125382435783 0 -0.29045052645802971 0.045802035002429492 0 -0.30541723396373921 0.038711125382435783 0 -0.29738278035354182 0.050541329601553678 0 -0.29045052645802971 0.045802035002429492 0 -0.30541723396373921 0.038711125382435783 0 -0.29656482898857922 0.02610767777843559 0 -0.29344050585463782 0.03493273697686209 0 -0.30541723396373921 0.038711125382435783 0 -0.30541723396373921 0.038711125382435783 0 -0.30520751474604563 0.05375902269662923 0 -0.31780711793698518 0.045521831715634557 0 -0.29926204670725021 0.066629363318123747 0 -0.30520751474604563 0.05375902269662923 0 -0.31697319293959142 0.061410437985649477 0 -0.30541723396373921 0.038711125382435783 0 -0.30520751474604563 0.05375902269662923 0 -0.29738278035354182 0.050541329601553678 0 -0.30520751474604563 0.05375902269662923 0 -0.29738278035354182 0.050541329601553678 0 -0.29780899910201009 0.056562827273038227 0 -0.29926204670725021 0.066629363318123747 0 -0.30520751474604563 0.05375902269662923 0 -0.29780899910201009 0.056562827273038227 0 -0.32553678940662539 0.052415823907368687 0 -0.31780711793698518 0.045521831715634557 0 -0.33422422494732851 0.04449049745268327 0 -0.31697319293959142 0.061410437985649477 0 -0.32553678940662539 0.052415823907368687 0 -0.31780711793698518 0.045521831715634557 0 -0.30520751474604563 0.05375902269662923 0 -0.31697319293959142 0.061410437985649477 0 -0.31780711793698518 0.045521831715634557 0 -0.31697319293959142 0.061410437985649477 0 -0.32808937753058609 0.059947696530402161 0 -0.32553678940662539 0.052415823907368687 0 -0.31780711793698518 0.045521831715634557 0 -0.32038394146944787 0.031620215762440292 0 -0.33422422494732851 0.04449049745268327 0 -0.30541723396373921 0.038711125382435783 0 -0.31780711793698518 0.045521831715634557 0 -0.32038394146944787 0.031620215762440292 0 -0.30541723396373921 0.038711125382435783 0 -0.32038394146944787 0.031620215762440292 0 -0.32038394146944787 0.031620215762440292 0 -0.33422422494732851 0.04449049745268327 0 -0.33422422494732851 0.04449049745268327 0 -0.34051642268078958 0.02208187176518148 0 -0.34924074101412461 0.03711639968071382 0 -0.32038394146944787 0.031620215762440292 0 -0.33422422494732851 0.04449049745268327 0 -0.34051642268078958 0.02208187176518148 0 -0.33422422494732851 0.04449049745268327 0 -0.34715076893326918 0.04673829876922056 0 -0.34924074101412461 0.03711639968071382 0 -0.33422422494732851 0.04449049745268327 0 -0.34806450842520742 0.057360779142928031 0 -0.34715076893326918 0.04673829876922056 0 -0.33422422494732851 0.04449049745268327 0 -0.34806450842520742 0.057360779142928031 0 -0.33422422494732851 0.04449049745268327 0 -0.33482930480244999 0.055095026294593591 0 -0.34806450842520742 0.057360779142928031 0 -0.3407399656121517 0.06083029771636933 0 -0.33482930480244999 0.055095026294593591 0 -0.33440717105718593 0.063083878638897639 0 -0.3407399656121517 0.06083029771636933 0 -0.33482930480244999 0.055095026294593591 0 -0.34806450842520742 0.057360779142928031 0 -0.32808937753058609 0.059947696530402161 0 -0.33482930480244999 0.055095026294593591 0 -0.33440717105718593 0.063083878638897639 0 -0.32808937753058609 0.059947696530402161 0 -0.32553678940662539 0.052415823907368687 0 -0.33482930480244999 0.055095026294593591 0 -0.32553678940662539 0.052415823907368687 0 -0.33422422494732851 0.04449049745268327 0 -0.33482930480244999 0.055095026294593591 0 -0.31039051656375261 0.022327184027059441 0 -0.31177688145040278 0.0050359958776742568 0 -0.3261420213634148 0.01391490981329808 0 -0.32828291010712762 -0.0049346835118845543 0 -0.31177688145040278 0.0050359958776742568 0 -0.3261420213634148 0.01391490981329808 0 -0.31039051656375261 0.022327184027059441 0 -0.32038394146944787 0.031620215762440292 0 -0.3261420213634148 0.01391490981329808 0 -0.31039051656375261 0.022327184027059441 0 -0.32038394146944787 0.031620215762440292 0 -0.32038394146944787 0.031620215762440292 0 -0.34051642268078958 0.02208187176518148 0 -0.32038394146944787 0.031620215762440292 0 -0.3261420213634148 0.01391490981329808 0 -0.34051642268078958 0.02208187176518148 0 -0.3261420213634148 0.01391490981329808 0 -0.34051642268078958 0.02208187176518148 0 -0.34055428987364128 0.0059527955302196532 0 -0.32828291010712762 -0.0049346835118845543 0 -0.3261420213634148 0.01391490981329808 0 -0.34055428987364128 0.0059527955302196532 0 -0.34051642268078958 0.02208187176518148 0 -0.34055428987364128 0.0059527955302196532 0 -0.36064890389212972 0.0125435277679194 0 -0.34718119132474479 -0.01384164818341615 0 -0.34055428987364128 0.0059527955302196532 0 -0.36064890389212972 0.0125435277679194 0 -0.34051642268078958 0.02208187176518148 0 -0.36064890389212972 0.0125435277679194 0 -0.34051642268078958 0.02208187176518148 0 -0.35699945364537122 0.027147445145089769 0 -0.34924074101412461 0.03711639968071382 0 -0.34051642268078958 0.02208187176518148 0 -0.35699945364537122 0.027147445145089769 0 -0.36064890389212972 0.0125435277679194 0 -0.35699945364537122 0.027147445145089769 0 -0.36163302121541668 0.029781402687577421 0 -0.35940737946489582 0.035374977024224222 0 -0.37998819155715241 0.0057865511937031933 0 -0.36738966121720701 0.029980518529024301 0 -0.37123175334181557 0.027162262264614271 0 -0.37998819155715241 0.0057865511937031933 0 -0.36738966121720701 0.029980518529024301 0 -0.3645477689834325 0.020181962352102071 0 -0.37998819155715241 0.0057865511937031933 0 -0.36738966121720701 0.029980518529024301 0 -0.36273559053419291 0.026622670051971411 0 -0.36738966121720701 0.029980518529024301 0 -0.3645477689834325 0.020181962352102071 0 -0.35699945364537122 0.027147445145089769 0 -0.36163302121541668 0.029781402687577421 0 -0.36273559053419291 0.026622670051971411 0 -0.35699945364537122 0.027147445145089769 0 -0.36273559053419291 0.026622670051971411 0 -0.3645477689834325 0.020181962352102071 0 -0.36163302121541668 0.029781402687577421 0 -0.36273559053419291 0.026622670051971411 0 -0.36738966121720701 0.029980518529024301 0 -0.35699945364537122 0.027147445145089769 0 -0.3645477689834325 0.020181962352102071 0 -0.36064890389212972 0.0125435277679194 0 -0.3645477689834325 0.020181962352102071 0 -0.36064890389212972 0.0125435277679194 0 -0.37998819155715241 0.0057865511937031933 0 -0.3645477689834325 0.020181962352102071 0 -0.36064890389212972 0.0125435277679194 0 -0.38683543611469601 0.0001369023841863784 0 -0.36064890389212972 0.0125435277679194 0 -0.37474494217865062 -0.0022388935110706832 0 -0.38683543611469601 0.0001369023841863784 0 -0.36064890389212972 0.0125435277679194 0 -0.37474494217865062 -0.0022388935110706832 0 -0.36307869926690151 -0.00068504054922277494 0 -0.36064890389212972 0.0125435277679194 0 -0.35479113087726238 0.05417448586434577 0 -0.34715076893326918 0.04673829876922056 0 -0.35593663516940488 0.04278932274017315 0 -0.35479113087726238 0.05417448586434577 0 -0.35147867423579721 0.06053566178096708 0 -0.3622197730044176 0.060127746183944272 0 -0.35479113087726238 0.05417448586434577 0 -0.35147867423579721 0.06053566178096708 0 -0.35479113087726238 0.05417448586434577 0 -0.34806450842520742 0.057360779142928031 0 -0.35147867423579721 0.06053566178096708 0 -0.35479113087726238 0.05417448586434577 0 -0.34806450842520742 0.057360779142928031 0 -0.34806450842520742 0.057360779142928031 0 -0.35147867423579721 0.06053566178096708 0 -0.3447014191436914 0.063951910484466787 0 -0.34806450842520742 0.057360779142928031 0 -0.35147867423579721 0.06053566178096708 0 -0.3407399656121517 0.06083029771636933 0 -0.34806450842520742 0.057360779142928031 0 -0.3407399656121517 0.06083029771636933 0 -0.34806450842520742 0.057360779142928031 0 -0.3447014191436914 0.063951910484466787 0 -0.35479113087726238 0.05417448586434577 0 -0.34806450842520742 0.057360779142928031 0 -0.34715076893326918 0.04673829876922056 0 -0.34715076893326918 0.04673829876922056 0 -0.34924074101412461 0.03711639968071382 0 -0.35593663516940488 0.04278932274017315 0 -0.36738966121720701 0.029980518529024301 0 -0.35479113087726238 0.05417448586434577 0 -0.35593663516940488 0.04278932274017315 0 -0.35699945364537122 0.027147445145089769 0 -0.34924074101412461 0.03711639968071382 0 -0.35940737946489582 0.035374977024224222 0 -0.34924074101412461 0.03711639968071382 0 -0.35593663516940488 0.04278932274017315 0 -0.35940737946489582 0.035374977024224222 0 -0.36738966121720701 0.029980518529024301 0 -0.35479113087726238 0.05417448586434577 0 -0.36677646394688163 0.041367990420506082 0 -0.37123175334181557 0.027162262264614271 0 -0.37046143272875132 0.04675171495388801 0 -0.36738966121720701 0.029980518529024301 0 -0.35479113087726238 0.05417448586434577 0 -0.37123175334181557 0.027162262264614271 0 -0.36677646394688163 0.041367990420506082 0 -0.37046143272875132 0.04675171495388801 0 -0.3764786745208083 0.032098692741998169 0 -0.37123175334181557 0.027162262264614271 0 -0.37046143272875132 0.04675171495388801 0 -0.36163302121541668 0.029781402687577421 0 -0.36738966121720701 0.029980518529024301 0 -0.35940737946489582 0.035374977024224222 0 -0.36738966121720701 0.029980518529024301 0 -0.35593663516940488 0.04278932274017315 0 -0.35940737946489582 0.035374977024224222 0 -0.36738966121720701 0.029980518529024301 0 -0.37123175334181557 0.027162262264614271 0 -0.36677646394688163 0.041367990420506082 0 -0.36677646394688163 0.041367990420506082 0 -0.37046143272875132 0.04675171495388801 0 -0.36802302346639398 0.047906750352184523 0 -0.36677646394688163 0.041367990420506082 0 -0.36802302346639398 0.047906750352184523 0 -0.37046143272875132 0.04675171495388801 0 -0.37000681959492809 0.05831264468359916 0 -0.36802302346639398 0.047906750352184523 0 -0.37000681959492809 0.05831264468359916 0 -0.37046143272875132 0.04675171495388801 0 -0.36802302346639398 0.047906750352184523 0 -0.37000681959492809 0.05831264468359916 0 -0.37046143272875132 0.04675171495388801 0 -0.36802302346639398 0.047906750352184523 0 -0.35479113087726238 0.05417448586434577 0 -0.36802302346639398 0.047906750352184523 0 -0.35479113087726238 0.05417448586434577 0 -0.36802302346639398 0.047906750352184523 0 -0.3622197730044176 0.060127746183944272 0 -0.35479113087726238 0.05417448586434577 0 -0.36677646394688163 0.041367990420506082 0 -0.36802302346639398 0.047906750352184523 0 -0.36802302346639398 0.047906750352184523 0 -0.3622197730044176 0.060127746183944272 0 -0.37000681959492809 0.05831264468359916 0 -0.35147867423579721 0.06053566178096708 0 -0.36926886504626422 0.077079019973005369 0 -0.3622197730044176 0.060127746183944272 0 -0.37000681959492809 0.05831264468359916 0 -0.36926886504626422 0.077079019973005369 0 -0.37000681959492809 0.05831264468359916 0 -0.36926886504626422 0.077079019973005369 0 -0.37079498002478778 0.078498176574577722 0 -0.36926886504626422 0.077079019973005369 0 -0.34551673285671652 0.071984855543133663 0 -0.36912013352382872 0.080861301107253064 0 -0.37000681959492809 0.05831264468359916 0 -0.37079498002478778 0.078498176574577722 0 -0.37470600383380392 0.082961959162170973 0 -0.35147867423579721 0.06053566178096708 0 -0.3622197730044176 0.060127746183944272 0 -0.36926886504626422 0.077079019973005369 0 -0.37000681959492809 0.05831264468359916 0 -0.37470600383380392 0.082961959162170973 0 -0.37000681959492809 0.05831264468359916 0 -0.36926886504626422 0.077079019973005369 0 -0.36926886504626422 0.077079019973005369 0 -0.37079498002478778 0.078498176574577722 0 -0.34551673285671652 0.071984855543133663 0 -0.34763839367566191 0.079069075487607554 0 -0.36912013352382872 0.080861301107253064 0 -0.34551673285671652 0.071984855543133663 0 -0.36912013352382872 0.080861301107253064 0 -0.35147867423579721 0.06053566178096708 0 -0.36926886504626422 0.077079019973005369 0 -0.34551673285671652 0.071984855543133663 0 -0.34408269824063842 0.074738747125954852 0 -0.34763839367566191 0.079069075487607554 0 -0.34179116264722731 0.080399472229040897 0 -0.34408269824063842 0.074738747125954852 0 -0.34551673285671652 0.071984855543133663 0 -0.34763839367566191 0.079069075487607554 0 -0.34408269824063842 0.074738747125954852 0 -0.34551673285671652 0.071984855543133663 0 -0.35147867423579721 0.06053566178096708 0 -0.34551673285671652 0.071984855543133663 0 -0.3447014191436914 0.063951910484466787 0 -0.35147867423579721 0.06053566178096708 0 -0.34551673285671652 0.071984855543133663 0 -0.34763839367566191 0.079069075487607554 0 -0.36858415035949882 0.094491491786065696 0 -0.34763839367566191 0.079069075487607554 0 -0.36858415035949882 0.094491491786065696 0 -0.35198293914272999 0.094145145766245733 0 -0.34456144318064219 0.08667329674911145 0 -0.34763839367566191 0.079069075487607554 0 -0.35198293914272999 0.094145145766245733 0 -0.34456144318064219 0.08667329674911145 0 -0.35198293914272999 0.094145145766245733 0 -0.34431035454597703 0.093789606507308373 0 -0.34456144318064219 0.08667329674911145 0 -0.34763839367566191 0.079069075487607554 0 -0.34179116264722731 0.080399472229040897 0 -0.3782625711058698 0.101617738696854 0 -0.37470600383380392 0.082961959162170973 0 -0.36858415035949882 0.094491491786065696 0 -0.34763839367566191 0.079069075487607554 0 -0.36912013352382872 0.080861301107253064 0 -0.36858415035949882 0.094491491786065696 0 -0.36926886504626422 0.077079019973005369 0 -0.37079498002478778 0.078498176574577722 0 -0.36912013352382872 0.080861301107253064 0 -0.36926886504626422 0.077079019973005369 0 -0.36912013352382872 0.080861301107253064 0 -0.36912013352382872 0.080861301107253064 0 -0.37470600383380392 0.082961959162170973 0 -0.37079498002478778 0.078498176574577722 0 -0.36912013352382872 0.080861301107253064 0 -0.37470600383380392 0.082961959162170973 0 -0.36912013352382872 0.080861301107253064 0 -0.37470600383380392 0.082961959162170973 0 -0.36858415035949882 0.094491491786065696 0 -0.36912013352382872 0.080861301107253064 0 -0.36858415035949882 0.094491491786065696 0 -0.36858415035949882 0.094491491786065696 0 -0.36747352968705388 0.12273486311700831 0 -0.3782625711058698 0.101617738696854 0 -0.36858415035949882 0.094491491786065696 0 -0.36858415035949882 0.094491491786065696 0 -0.36006702585218792 0.10838608290929221 0 -0.35198293914272999 0.094145145766245733 0 -0.36858415035949882 0.094491491786065696 0 -0.36006702585218792 0.10838608290929221 0 -0.36747352968705388 0.12273486311700831 0 -0.3782625711058698 0.101617738696854 0 -0.36858415035949882 0.094491491786065696 0 -0.36747352968705388 0.12273486311700831 0 -0.36006702585218792 0.10838608290929221 0 -0.36747352968705388 0.12273486311700831 0 -0.35832203275528268 0.1183511860346923 0 -0.35528769071996391 0.12689780186549679 0 -0.36747352968705388 0.12273486311700831 0 -0.35832203275528268 0.1183511860346923 0 -0.35528769071996391 0.12689780186549679 0 -0.35832203275528268 0.1183511860346923 0 -0.35045988476192508 0.115385996246972 0 -0.36006702585218792 0.10838608290929221 0 -0.35832203275528268 0.1183511860346923 0 -0.35045988476192508 0.115385996246972 0 -0.35045988476192508 0.115385996246972 0 -0.34547580274860562 0.10394098399483009 0 -0.33570271963636877 0.11206429961599181 0 -0.35528769071996391 0.12689780186549679 0 -0.35045988476192508 0.115385996246972 0 -0.34115039425197219 0.12498493974687711 0 -0.36006702585218792 0.10838608290929221 0 -0.35198293914272999 0.094145145766245733 0 -0.34547580274860562 0.10394098399483009 0 -0.36006702585218792 0.10838608290929221 0 -0.35045988476192508 0.115385996246972 0 -0.34547580274860562 0.10394098399483009 0 -0.35198293914272999 0.094145145766245733 0 -0.34547580274860562 0.10394098399483009 0 -0.34431035454597703 0.093789606507308373 0 -0.34547580274860562 0.10394098399483009 0 -0.34431035454597703 0.093789606507308373 0 -0.335413749579693 0.097286071719103154 0 -0.34547580274860562 0.10394098399483009 0 -0.335413749579693 0.097286071719103154 0 -0.33570271963636877 0.11206429961599181 0 -0.335413749579693 0.097286071719103154 0 -0.33570271963636877 0.11206429961599181 0 -0.32444247844199348 0.1047035033472971 0 -0.35045988476192508 0.115385996246972 0 -0.34115039425197219 0.12498493974687711 0 -0.33570271963636877 0.11206429961599181 0 -0.32917568526667751 0.12578156900391591 0 -0.33570271963636877 0.11206429961599181 0 -0.32114709127587232 0.11611322513389059 0 -0.32917568526667751 0.12578156900391591 0 -0.34115039425197219 0.12498493974687711 0 -0.33570271963636877 0.11206429961599181 0 -0.31354631638020197 0.13395604467094269 0 -0.30549209578720232 0.10774456093924389 0 -0.32114709127587232 0.11611322513389059 0 -0.30549209578720232 0.10774456093924389 0 -0.32114709127587232 0.11611322513389059 0 -0.32444247844199348 0.1047035033472971 0 -0.33570271963636877 0.11206429961599181 0 -0.32114709127587232 0.11611322513389059 0 -0.32444247844199348 0.1047035033472971 0 -0.30549209578720232 0.10774456093924389 0 -0.32444247844199348 0.1047035033472971 0 -0.32445673593083119 0.090309359328255762 0 -0.30549209578720232 0.10774456093924389 0 -0.32445673593083119 0.090309359328255762 0 -0.31312795334666071 0.083579729522452809 0 -0.335413749579693 0.097286071719103154 0 -0.32444247844199348 0.1047035033472971 0 -0.32445673593083119 0.090309359328255762 0 -0.32445673593083119 0.090309359328255762 0 -0.3275606083710243 0.080211281293741998 0 -0.31312795334666071 0.083579729522452809 0 -0.3275606083710243 0.080211281293741998 0 -0.31312795334666071 0.083579729522452809 0 -0.31976082328641481 0.073112182403608325 0 -0.30931237829482389 0.073252958087475881 0 -0.31312795334666071 0.083579729522452809 0 -0.31976082328641481 0.073112182403608325 0 -0.30931237829482389 0.073252958087475881 0 -0.31697319293959142 0.061410437985649477 0 -0.31976082328641481 0.073112182403608325 0 -0.31697319293959142 0.061410437985649477 0 -0.31976082328641481 0.073112182403608325 0 -0.32886731949388731 0.069155273298144179 0 -0.31697319293959142 0.061410437985649477 0 -0.32808937753058609 0.059947696530402161 0 -0.32886731949388731 0.069155273298144179 0 -0.3275606083710243 0.080211281293741998 0 -0.31976082328641481 0.073112182403608325 0 -0.32886731949388731 0.069155273298144179 0 -0.32886731949388731 0.069155273298144179 0 -0.33770721458858299 0.069047958238937293 0 -0.336378655355973 0.076693290193422539 0 -0.3275606083710243 0.080211281293741998 0 -0.32886731949388731 0.069155273298144179 0 -0.336378655355973 0.076693290193422539 0 -0.33440717105718593 0.063083878638897639 0 -0.32886731949388731 0.069155273298144179 0 -0.33770721458858299 0.069047958238937293 0 -0.32808937753058609 0.059947696530402161 0 -0.33440717105718593 0.063083878638897639 0 -0.32886731949388731 0.069155273298144179 0 -0.3407399656121517 0.06083029771636933 0 -0.33440717105718593 0.063083878638897639 0 -0.33770721458858299 0.069047958238937293 0 -0.3407399656121517 0.06083029771636933 0 -0.3447014191436914 0.063951910484466787 0 -0.33770721458858299 0.069047958238937293 0 -0.34551673285671652 0.071984855543133663 0 -0.3447014191436914 0.063951910484466787 0 -0.33770721458858299 0.069047958238937293 0 -0.34408269824063842 0.074738747125954852 0 -0.33770721458858299 0.069047958238937293 0 -0.336378655355973 0.076693290193422539 0 -0.34408269824063842 0.074738747125954852 0 -0.34551673285671652 0.071984855543133663 0 -0.33770721458858299 0.069047958238937293 0 -0.34551673285671652 0.071984855543133663 0 -0.33770721458858299 0.069047958238937293 0 -0.34408269824063842 0.074738747125954852 0 -0.336378655355973 0.076693290193422539 0 -0.34179116264722731 0.080399472229040897 0 -0.336378655355973 0.076693290193422539 0 -0.34179116264722731 0.080399472229040897 0 -0.33708436589161489 0.085963183755354639 0 -0.34456144318064219 0.08667329674911145 0 -0.34179116264722731 0.080399472229040897 0 -0.33708436589161489 0.085963183755354639 0 -0.34456144318064219 0.08667329674911145 0 -0.34431035454597703 0.093789606507308373 0 -0.33708436589161489 0.085963183755354639 0 -0.34431035454597703 0.093789606507308373 0 -0.335413749579693 0.097286071719103154 0 -0.33708436589161489 0.085963183755354639 0 -0.335413749579693 0.097286071719103154 0 -0.32445673593083119 0.090309359328255762 0 -0.33708436589161489 0.085963183755354639 0 -0.32445673593083119 0.090309359328255762 0 -0.3275606083710243 0.080211281293741998 0 -0.33708436589161489 0.085963183755354639 0 -0.3275606083710243 0.080211281293741998 0 -0.336378655355973 0.076693290193422539 0 -0.33708436589161489 0.085963183755354639 0 -0.38891458820749281 0.47713565504117422 0 -0.42172655890518862 0.5 0 -0.3640375775585698 0.5 0 -0.38891458820749281 0.47713565504117422 0 -0.37103467036260362 0.45695891695805302 0 -0.36943712044780219 0.47475959506207249 0 -0.39694697642853649 0.45370639251272787 0 -0.37103467036260362 0.45695891695805302 0 -0.38891458820749281 0.47713565504117422 0 -0.39694697642853649 0.45370639251272787 0 -0.37103467036260362 0.45695891695805302 0 -0.38249991962136642 0.44345487931465249 0 -0.39694697642853649 0.45370639251272787 0 -0.37103467036260362 0.45695891695805302 0 -0.38249991962136642 0.44345487931465249 0 -0.39694697642853649 0.45370639251272787 0 -0.40464661760035381 0.43350824459614162 0 -0.38891458820749281 0.47713565504117422 0 -0.39694697642853649 0.45370639251272787 0 -0.41631826774707797 0.4711213942969617 0 -0.39694697642853649 0.45370639251272787 0 -0.42285928249446952 0.45045386806740279 0 -0.41631826774707797 0.4711213942969617 0 -0.42285928249446952 0.45045386806740279 0 -0.42501824733507809 0.43459816807542118 0 -0.40464661760035381 0.43350824459614162 0 -0.39694697642853649 0.45370639251272787 0 -0.42285928249446952 0.45045386806740279 0 -0.39694697642853649 0.45370639251272787 0 -0.42285928249446952 0.45045386806740279 0 -0.40464661760035381 0.43350824459614162 0 -0.42285928249446952 0.45045386806740279 0 -0.43521244088076849 0.46107148678855758 0 -0.44877158856040261 0.44720134362207808 0 -0.42285928249446952 0.45045386806740279 0 -0.44877158856040261 0.44720134362207808 0 -0.42285928249446952 0.45045386806740279 0 -0.43592409671607729 0.44045812782560079 0 -0.44877158856040261 0.44720134362207808 0 -0.42285928249446952 0.45045386806740279 0 -0.43592409671607729 0.44045812782560079 0 -0.42501824733507809 0.43459816807542118 0 -0.42285928249446952 0.45045386806740279 0 -0.43521244088076849 0.46107148678855758 0 -0.41631826774707797 0.4711213942969617 0 -0.41631826774707797 0.4711213942969617 0 -0.42172655890518862 0.5 0 -0.43935827984199688 0.47473889959161758 0 -0.43521244088076849 0.46107148678855758 0 -0.41631826774707797 0.4711213942969617 0 -0.43935827984199688 0.47473889959161758 0 -0.38891458820749281 0.47713565504117422 0 -0.41631826774707797 0.4711213942969617 0 -0.42172655890518862 0.5 0 -0.42172655890518862 0.5 0 -0.43935827984199688 0.47473889959161758 0 -0.47784082473980471 0.47626967285504462 0 -0.42172655890518862 0.5 0 -0.5 0.5 0 -0.47784082473980471 0.47626967285504462 0 -0.43935827984199688 0.47473889959161758 0 -0.47784082473980471 0.47626967285504462 0 -0.4487547857598953 0.46184192836472759 0 -0.5 0.5 0 -0.47784082473980471 0.47626967285504462 0 -0.49999999999999589 0.44077113011354369 0 -0.47784082473980471 0.47626967285504462 0 -0.47438579428019922 0.44398623686781052 0 -0.4627013265822788 0.4545376326069438 0 -0.47784082473980471 0.47626967285504462 0 -0.49999999999999589 0.44077113011354369 0 -0.47438579428019922 0.44398623686781052 0 -0.49999999999999589 0.44077113011354369 0 -0.47438579428019922 0.44398623686781052 0 -0.48180565015534738 0.42787197640755792 0 -0.49999999999999589 0.44077113011354369 0 -0.47438579428019922 0.44398623686781052 0 -0.47438579428019922 0.44398623686781052 0 -0.4627013265822788 0.4545376326069438 0 -0.44877158856040261 0.44720134362207808 0 -0.47438579428019922 0.44398623686781052 0 -0.44877158856040261 0.44720134362207808 0 -0.47438579428019922 0.44398623686781052 0 -0.44877158856040261 0.44720134362207808 0 -0.46289485375526918 0.43579199928955081 0 -0.44877158856040261 0.44720134362207808 0 -0.44878504691792248 0.43547483269414872 0 -0.46289485375526918 0.43579199928955081 0 -0.47784082473980471 0.47626967285504462 0 -0.4627013265822788 0.4545376326069438 0 -0.4487547857598953 0.46184192836472759 0 -0.4627013265822788 0.4545376326069438 0 -0.4487547857598953 0.46184192836472759 0 -0.44877158856040261 0.44720134362207808 0 -0.4487547857598953 0.46184192836472759 0 -0.44877158856040261 0.44720134362207808 0 -0.43521244088076849 0.46107148678855758 0 -0.4487547857598953 0.46184192836472759 0 -0.44877158856040261 0.44720134362207808 0 -0.43521244088076849 0.46107148678855758 0 -0.43935827984199688 0.47473889959161758 0 -0.4487547857598953 0.46184192836472759 0 -0.44877158856040261 0.44720134362207808 0 -0.44508566455651338 0.43839632914573512 0 -0.44878504691792248 0.43547483269414872 0 -0.44877158856040261 0.44720134362207808 0 -0.44878504691792248 0.43547483269414872 0 -0.43592409671607729 0.44045812782560079 0 -0.44877158856040261 0.44720134362207808 0 -0.44508566455651338 0.43839632914573512 0 -0.44531233658805403 0.42513554986162888 0 -0.44878504691792248 0.43547483269414872 0 -0.44880957839306629 0.41410011360809668 0 -0.44878504691792248 0.43547483269414872 0 -0.44880957839306629 0.41410011360809668 0 -0.43788570063392329 0.43164093021736671 0 -0.44531233658805403 0.42513554986162888 0 -0.44878504691792248 0.43547483269414872 0 -0.43592409671607729 0.44045812782560079 0 -0.44508566455651338 0.43839632914573512 0 -0.43788570063392329 0.43164093021736671 0 -0.44508566455651338 0.43839632914573512 0 -0.43788570063392329 0.43164093021736671 0 -0.44878504691792248 0.43547483269414872 0 -0.44508566455651338 0.43839632914573512 0 -0.44878504691792248 0.43547483269414872 0 -0.44531233658805403 0.42513554986162888 0 -0.44880957839306629 0.41410011360809668 0 -0.42391867717568832 0.41711337076656618 0 -0.44880957839306629 0.41410011360809668 0 -0.46585669794528167 0.42199291516666237 0 -0.4641229039382897 0.40091036417177778 0 -0.44878504691792248 0.43547483269414872 0 -0.46585669794528167 0.42199291516666237 0 -0.44878504691792248 0.43547483269414872 0 -0.44880957839306629 0.41410011360809668 0 -0.46585669794528167 0.42199291516666237 0 -0.44878504691792248 0.43547483269414872 0 -0.46585669794528167 0.42199291516666237 0 -0.46289485375526918 0.43579199928955081 0 -0.47438579428019922 0.44398623686781052 0 -0.46289485375526918 0.43579199928955081 0 -0.48180565015534738 0.42787197640755792 0 -0.46585669794528167 0.42199291516666237 0 -0.46289485375526918 0.43579199928955081 0 -0.48180565015534738 0.42787197640755792 0 -0.46585669794528167 0.42199291516666237 0 -0.48292834897264081 0.4085109976391762 0 -0.4641229039382897 0.40091036417177778 0 -0.46585669794528167 0.42199291516666237 0 -0.48292834897264081 0.4085109976391762 0 -0.46585669794528167 0.42199291516666237 0 -0.48180565015534738 0.42787197640755792 0 -0.48292834897264081 0.4085109976391762 0 -0.48292834897264081 0.4085109976391762 0 -0.5 0.41790010511261683 0 -0.5 0.39502908011169002 0 -0.48180565015534738 0.42787197640755792 0 -0.48292834897264081 0.4085109976391762 0 -0.5 0.41790010511261683 0 -0.49999999999999589 0.44077113011354369 0 -0.48180565015534738 0.42787197640755792 0 -0.5 0.41790010511261683 0 -0.48850556386005051 0.3766603246979251 0 -0.5 0.39502908011169002 0 -0.47832653283541199 0.38608194873200979 0 -0.48850556386005051 0.3766603246979251 0 -0.5 0.39502908011169002 0 -0.5 0.36887446842263683 0 -0.48292834897264081 0.4085109976391762 0 -0.5 0.39502908011169002 0 -0.47832653283541199 0.38608194873200979 0 -0.48292834897264081 0.4085109976391762 0 -0.5 0.39502908011169002 0 -0.48292834897264081 0.4085109976391762 0 -0.47832653283541199 0.38608194873200979 0 -0.4641229039382897 0.40091036417177778 0 -0.48850556386005051 0.3766603246979251 0 -0.47832653283541199 0.38608194873200979 0 -0.48259334700195489 0.36409898273387958 0 -0.47832653283541199 0.38608194873200979 0 -0.46059005399087027 0.38292215568240928 0 -0.4641229039382897 0.40091036417177778 0 -0.47832653283541199 0.38608194873200979 0 -0.46059005399087027 0.38292215568240928 0 -0.46572599417265398 0.36772482908493609 0 -0.44880957839306629 0.41410011360809668 0 -0.4641229039382897 0.40091036417177778 0 -0.44883410986820999 0.3927253945220448 0 -0.46059005399087027 0.38292215568240928 0 -0.4641229039382897 0.40091036417177778 0 -0.44883410986820999 0.3927253945220448 0 -0.44880957839306629 0.41410011360809668 0 -0.44883410986820999 0.3927253945220448 0 -0.43699833754743561 0.40294499431243458 0 -0.44880957839306629 0.41410011360809668 0 -0.44883410986820999 0.3927253945220448 0 -0.44883410986820999 0.3927253945220448 0 -0.43978391516082421 0.3912231797547942 0 -0.43699833754743561 0.40294499431243458 0 -0.44883410986820999 0.3927253945220448 0 -0.43978391516082421 0.3912231797547942 0 -0.44802713623065987 0.37645115623263098 0 -0.44883410986820999 0.3927253945220448 0 -0.44885864134335329 0.37135067543599282 0 -0.44883410986820999 0.3927253945220448 0 -0.44802713623065987 0.37645115623263098 0 -0.44885864134335329 0.37135067543599282 0 -0.43978391516082421 0.3912231797547942 0 -0.44802713623065987 0.37645115623263098 0 -0.42527607699699133 0.39277117395206662 0 -0.46059005399087027 0.38292215568240928 0 -0.44883410986820999 0.3927253945220448 0 -0.44885864134335329 0.37135067543599282 0 -0.44802713623065987 0.37645115623263098 0 -0.4250431626101242 0.37647010748543319 0 -0.42527607699699133 0.39277117395206662 0 -0.44802713623065987 0.37645115623263098 0 -0.42527607699699133 0.39277117395206662 0 -0.4250431626101242 0.37647010748543319 0 -0.4134887672477453 0.38574914578498593 0 -0.40122768387689522 0.38158953953487368 0 -0.4250431626101242 0.37647010748543319 0 -0.40122768387689522 0.38158953953487368 0 -0.4250431626101242 0.37647010748543319 0 -0.4134887672477453 0.38574914578498593 0 -0.42527607699699133 0.39277117395206662 0 -0.4250431626101242 0.37647010748543319 0 -0.40122768387689522 0.38158953953487368 0 -0.40086489287733429 0.37467411733839928 0 -0.4134887672477453 0.38574914578498593 0 -0.40798835104355652 0.39359067917546098 0 -0.40557429982823212 0.38794008425198068 0 -0.4134887672477453 0.38574914578498593 0 -0.40122768387689522 0.38158953953487368 0 -0.40557429982823212 0.38794008425198068 0 -0.40798835104355652 0.39359067917546098 0 -0.42527607699699133 0.39277117395206662 0 -0.40252501776332311 0.40909119167150271 0 -0.42527607699699133 0.39277117395206662 0 -0.40252501776332311 0.40909119167150271 0 -0.4134887672477453 0.38574914578498593 0 -0.40798835104355652 0.39359067917546098 0 -0.42527607699699133 0.39277117395206662 0 -0.42527607699699133 0.39277117395206662 0 -0.43699833754743561 0.40294499431243458 0 -0.42391867717568832 0.41711337076656618 0 -0.43978391516082421 0.3912231797547942 0 -0.42527607699699133 0.39277117395206662 0 -0.43699833754743561 0.40294499431243458 0 -0.44880957839306629 0.41410011360809668 0 -0.43699833754743561 0.40294499431243458 0 -0.42391867717568832 0.41711337076656618 0 -0.44531233658805403 0.42513554986162888 0 -0.42391867717568832 0.41711337076656618 0 -0.43788570063392329 0.43164093021736671 0 -0.44531233658805403 0.42513554986162888 0 -0.42391867717568832 0.41711337076656618 0 -0.43788570063392329 0.43164093021736671 0 -0.42391867717568832 0.41711337076656618 0 -0.42501824733507809 0.43459816807542118 0 -0.43592409671607729 0.44045812782560079 0 -0.43788570063392329 0.43164093021736671 0 -0.42501824733507809 0.43459816807542118 0 -0.42391867717568832 0.41711337076656618 0 -0.42501824733507809 0.43459816807542118 0 -0.40464661760035381 0.43350824459614162 0 -0.42527607699699133 0.39277117395206662 0 -0.42391867717568832 0.41711337076656618 0 -0.40252501776332311 0.40909119167150271 0 -0.42391867717568832 0.41711337076656618 0 -0.40252501776332311 0.40909119167150271 0 -0.40464661760035381 0.43350824459614162 0 -0.42391867717568832 0.41711337076656618 0 -0.40252501776332311 0.40909119167150271 0 -0.40252501776332311 0.40909119167150271 0 -0.37875820238401509 0.42613984176471847 0 -0.40252501776332311 0.40909119167150271 0 -0.40464661760035381 0.43350824459614162 0 -0.37875820238401509 0.42613984176471847 0 -0.38249991962136642 0.44345487931465249 0 -0.40464661760035381 0.43350824459614162 0 -0.37875820238401509 0.42613984176471847 0 -0.40252501776332311 0.40909119167150271 0 -0.37875820238401509 0.42613984176471847 0 -0.37769092578324193 0.39977892163450779 0 -0.37769092578324193 0.39977892163450779 0 -0.38963770449155072 0.39285491215608792 0 -0.37686086334024771 0.38257038446795849 0 -0.40252501776332311 0.40909119167150271 0 -0.37769092578324193 0.39977892163450779 0 -0.38963770449155072 0.39285491215608792 0 -0.40252501776332311 0.40909119167150271 0 -0.37769092578324193 0.39977892163450779 0 -0.37686086334024771 0.38257038446795849 0 -0.39363670834615189 0.38450398520198442 0 -0.40086489287733429 0.37467411733839928 0 -0.38963770449155072 0.39285491215608792 0 -0.37686086334024771 0.38257038446795849 0 -0.39363670834615189 0.38450398520198442 0 -0.37686086334024771 0.38257038446795849 0 -0.40086489287733429 0.37467411733839928 0 -0.37686086334024771 0.38257038446795849 0 -0.40086489287733429 0.37467411733839928 0 -0.39033592763893787 0.37070590072739279 0 -0.39363670834615189 0.38450398520198442 0 -0.40122768387689522 0.38158953953487368 0 -0.39959239714473138 0.39083097251260251 0 -0.38963770449155072 0.39285491215608792 0 -0.39363670834615189 0.38450398520198442 0 -0.39959239714473138 0.39083097251260251 0 -0.39363670834615189 0.38450398520198442 0 -0.40122768387689522 0.38158953953487368 0 -0.40086489287733429 0.37467411733839928 0 -0.40122768387689522 0.38158953953487368 0 -0.40557429982823212 0.38794008425198068 0 -0.39959239714473138 0.39083097251260251 0 -0.40798835104355652 0.39359067917546098 0 -0.40557429982823212 0.38794008425198068 0 -0.39959239714473138 0.39083097251260251 0 -0.40252501776332311 0.40909119167150271 0 -0.38963770449155072 0.39285491215608792 0 -0.39959239714473138 0.39083097251260251 0 -0.40798835104355652 0.39359067917546098 0 -0.40252501776332311 0.40909119167150271 0 -0.39959239714473138 0.39083097251260251 0 -0.3926828114571661 0.35541775914535301 0 -0.40105078960399698 0.34662517948293931 0 -0.40586906590548888 0.3393029225754271 0 -0.3926828114571661 0.35541775914535301 0 -0.39400561065841477 0.34382680172727831 0 -0.40586906590548888 0.3393029225754271 0 -0.3926828114571661 0.35541775914535301 0 -0.40586906590548888 0.3393029225754271 0 -0.3926828114571661 0.35541775914535301 0 -0.39969836615416421 0.35756427730283669 0 -0.39341808057325789 0.36431669671432632 0 -0.3926828114571661 0.35541775914535301 0 -0.40105078960399698 0.34662517948293931 0 -0.39969836615416421 0.35756427730283669 0 -0.3926828114571661 0.35541775914535301 0 -0.39400561065841477 0.34382680172727831 0 -0.38539473684528258 0.34837828204789067 0 -0.40105078960399698 0.34662517948293931 0 -0.40525205349158999 0.35429039595711992 0 -0.40888688292129022 0.34941903462410451 0 -0.40105078960399698 0.34662517948293931 0 -0.4080564418273247 0.34368885170405422 0 -0.40888688292129022 0.34941903462410451 0 -0.40105078960399698 0.34662517948293931 0 -0.40525205349158999 0.35429039595711992 0 -0.39969836615416421 0.35756427730283669 0 -0.40525205349158999 0.35429039595711992 0 -0.39969836615416421 0.35756427730283669 0 -0.40553625032349627 0.36037170931698131 0 -0.40553625032349627 0.36037170931698131 0 -0.40544017780568847 0.3661562974108753 0 -0.40025021147547779 0.36436392320030081 0 -0.40544017780568847 0.3661562974108753 0 -0.40025021147547779 0.36436392320030081 0 -0.397742957241214 0.36844985128713797 0 -0.39969836615416421 0.35756427730283669 0 -0.40553625032349627 0.36037170931698131 0 -0.40025021147547779 0.36436392320030081 0 -0.40544017780568847 0.3661562974108753 0 -0.40086489287733429 0.37467411733839928 0 -0.397742957241214 0.36844985128713797 0 -0.40086489287733429 0.37467411733839928 0 -0.397742957241214 0.36844985128713797 0 -0.39033592763893787 0.37070590072739279 0 -0.397742957241214 0.36844985128713797 0 -0.39341808057325789 0.36431669671432632 0 -0.39033592763893787 0.37070590072739279 0 -0.39969836615416421 0.35756427730283669 0 -0.40025021147547779 0.36436392320030081 0 -0.39341808057325789 0.36431669671432632 0 -0.40025021147547779 0.36436392320030081 0 -0.397742957241214 0.36844985128713797 0 -0.39341808057325789 0.36431669671432632 0 -0.3926828114571661 0.35541775914535301 0 -0.39341808057325789 0.36431669671432632 0 -0.37949655700884349 0.37153259571527891 0 -0.37949655700884349 0.37153259571527891 0 -0.37823932191431281 0.35548757599615399 0 -0.37024808467873749 0.36543132639488701 0 -0.3926828114571661 0.35541775914535301 0 -0.37949655700884349 0.37153259571527891 0 -0.37823932191431281 0.35548757599615399 0 -0.3926828114571661 0.35541775914535301 0 -0.37949655700884349 0.37153259571527891 0 -0.39341808057325789 0.36431669671432632 0 -0.39033592763893787 0.37070590072739279 0 -0.37949655700884349 0.37153259571527891 0 -0.37686086334024771 0.38257038446795849 0 -0.39033592763893787 0.37070590072739279 0 -0.37949655700884349 0.37153259571527891 0 -0.37823932191431281 0.35548757599615399 0 -0.38539473684528258 0.34837828204789067 0 -0.3787015959315434 0.33902802614693439 0 -0.3926828114571661 0.35541775914535301 0 -0.37823932191431281 0.35548757599615399 0 -0.38539473684528258 0.34837828204789067 0 -0.3787015959315434 0.33902802614693439 0 -0.37816355277066899 0.32985684687273281 0 -0.39158393304450312 0.32769252248945308 0 -0.39400561065841477 0.34382680172727831 0 -0.38539473684528258 0.34837828204789067 0 -0.3787015959315434 0.33902802614693439 0 -0.39158393304450312 0.32769252248945308 0 -0.37442838800096029 0.32044424157556423 0 -0.37816355277066899 0.32985684687273281 0 -0.39158393304450312 0.32769252248945308 0 -0.37442838800096029 0.32044424157556423 0 -0.38613629988198012 0.31665983269396758 0 -0.39158393304450312 0.32769252248945308 0 -0.37442838800096029 0.32044424157556423 0 -0.38613629988198012 0.31665983269396758 0 -0.37442838800096029 0.32044424157556423 0 -0.37415321332832258 0.31386652142517069 0 -0.39158393304450312 0.32769252248945308 0 -0.4039094095666334 0.320812311378052 0 -0.40925887999808552 0.33516025262174892 0 -0.38613629988198012 0.31665983269396758 0 -0.39830358576524327 0.31266849694114901 0 -0.39158393304450312 0.32769252248945308 0 -0.39830358576524327 0.31266849694114901 0 -0.39158393304450312 0.32769252248945308 0 -0.4039094095666334 0.320812311378052 0 -0.39830358576524327 0.31266849694114901 0 -0.4039094095666334 0.320812311378052 0 -0.40826549608127172 0.31275764886218971 0 -0.3787015959315434 0.33902802614693439 0 -0.40777024278950652 0.33697950655941222 0 -0.39158393304450312 0.32769252248945308 0 -0.40925887999808552 0.33516025262174892 0 -0.39158393304450312 0.32769252248945308 0 -0.40777024278950652 0.33697950655941222 0 -0.40925887999808552 0.33516025262174892 0 -0.3787015959315434 0.33902802614693439 0 -0.39158393304450312 0.32769252248945308 0 -0.40777024278950652 0.33697950655941222 0 -0.39400561065841477 0.34382680172727831 0 -0.3787015959315434 0.33902802614693439 0 -0.40777024278950652 0.33697950655941222 0 -0.39400561065841477 0.34382680172727831 0 -0.40586906590548888 0.3393029225754271 0 -0.40777024278950652 0.33697950655941222 0 -0.40105078960399698 0.34662517948293931 0 -0.40586906590548888 0.3393029225754271 0 -0.40105078960399698 0.34662517948293931 0 -0.40586906590548888 0.3393029225754271 0 -0.4080564418273247 0.34368885170405422 0 -0.4080564418273247 0.34368885170405422 0 -0.41125860555200922 0.34134685969384471 0 -0.40895905381070002 0.33957121871677393 0 -0.40586906590548888 0.3393029225754271 0 -0.4080564418273247 0.34368885170405422 0 -0.40895905381070002 0.33957121871677393 0 -0.4080564418273247 0.34368885170405422 0 -0.41125860555200922 0.34134685969384471 0 -0.41366919887348358 0.34576378073699821 0 -0.41125860555200922 0.34134685969384471 0 -0.41273643032526569 0.33662953043248711 0 -0.41433336845197538 0.3415594658204692 0 -0.41125860555200922 0.34134685969384471 0 -0.41433336845197538 0.3415594658204692 0 -0.41366919887348358 0.34576378073699821 0 -0.41125860555200922 0.34134685969384471 0 -0.41273643032526569 0.33662953043248711 0 -0.40895905381070002 0.33957121871677393 0 -0.41273643032526569 0.33662953043248711 0 -0.40777024278950652 0.33697950655941222 0 -0.41273643032526569 0.33662953043248711 0 -0.40895905381070002 0.33957121871677393 0 -0.40777024278950652 0.33697950655941222 0 -0.41273643032526569 0.33662953043248711 0 -0.40777024278950652 0.33697950655941222 0 -0.40925887999808552 0.33516025262174892 0 -0.40777024278950652 0.33697950655941222 0 -0.40925887999808552 0.33516025262174892 0 -0.40586906590548888 0.3393029225754271 0 -0.40895905381070002 0.33957121871677393 0 -0.40777024278950652 0.33697950655941222 0 -0.40586906590548888 0.3393029225754271 0 -0.40777024278950652 0.33697950655941222 0 -0.41273643032526569 0.33662953043248711 0 -0.40925887999808552 0.33516025262174892 0 -0.40925887999808552 0.33516025262174892 0 -0.42024067891477529 0.32173946694831868 0 -0.40925887999808552 0.33516025262174892 0 -0.42071708592719742 0.33131558094746122 0 -0.42024067891477529 0.32173946694831868 0 -0.41273643032526569 0.33662953043248711 0 -0.40925887999808552 0.33516025262174892 0 -0.42071708592719742 0.33131558094746122 0 -0.41273643032526569 0.33662953043248711 0 -0.4199209072431685 0.34318781838679219 0 -0.41433336845197538 0.3415594658204692 0 -0.4199209072431685 0.34318781838679219 0 -0.41433336845197538 0.3415594658204692 0 -0.41366919887348358 0.34576378073699821 0 -0.40925887999808552 0.33516025262174892 0 -0.41892768793075841 0.31754462100172592 0 -0.42141481873501418 0.31567829233095179 0 -0.40925887999808552 0.33516025262174892 0 -0.411263050936583 0.31954773430139438 0 -0.41892768793075841 0.31754462100172592 0 -0.40925887999808552 0.33516025262174892 0 -0.42141481873501418 0.31567829233095179 0 -0.40925887999808552 0.33516025262174892 0 -0.42024067891477529 0.32173946694831868 0 -0.42141481873501418 0.31567829233095179 0 -0.411263050936583 0.31954773430139438 0 -0.40826549608127172 0.31275764886218971 0 -0.41647318301620623 0.31168328686166002 0 -0.4039094095666334 0.320812311378052 0 -0.411263050936583 0.31954773430139438 0 -0.40826549608127172 0.31275764886218971 0 -0.4039094095666334 0.320812311378052 0 -0.40925887999808552 0.33516025262174892 0 -0.411263050936583 0.31954773430139438 0 -0.411263050936583 0.31954773430139438 0 -0.41892768793075841 0.31754462100172592 0 -0.41647318301620623 0.31168328686166002 0 -0.41892768793075841 0.31754462100172592 0 -0.42141481873501418 0.31567829233095179 0 -0.41892768793075841 0.31754462100172592 0 -0.42141481873501418 0.31567829233095179 0 -0.41647318301620623 0.31168328686166002 0 -0.42024067891477529 0.32173946694831868 0 -0.43790895006943947 0.32081412042189511 0 -0.43122247783146522 0.30831868127488848 0 -0.42024067891477529 0.32173946694831868 0 -0.42938605365092247 0.3272194948190838 0 -0.43790895006943947 0.32081412042189511 0 -0.42024067891477529 0.32173946694831868 0 -0.42141481873501418 0.31567829233095179 0 -0.43122247783146522 0.30831868127488848 0 -0.42024067891477529 0.32173946694831868 0 -0.43122247783146522 0.30831868127488848 0 -0.42071708592719742 0.33131558094746122 0 -0.42024067891477529 0.32173946694831868 0 -0.42938605365092247 0.3272194948190838 0 -0.42938605365092247 0.3272194948190838 0 -0.43674098495811231 0.33493788649063261 0 -0.43790895006943947 0.32081412042189511 0 -0.43790895006943947 0.32081412042189511 0 -0.4401847358662575 0.3127477530096977 0 -0.43122247783146522 0.30831868127488848 0 -0.41273643032526569 0.33662953043248711 0 -0.43674098495811231 0.33493788649063261 0 -0.42071708592719742 0.33131558094746122 0 -0.42938605365092247 0.3272194948190838 0 -0.43674098495811231 0.33493788649063261 0 -0.41273643032526569 0.33662953043248711 0 -0.4199209072431685 0.34318781838679219 0 -0.43385085243219867 0.34555045147446217 0 -0.41273643032526569 0.33662953043248711 0 -0.42071708592719742 0.33131558094746122 0 -0.43674098495811231 0.33493788649063261 0 -0.41273643032526569 0.33662953043248711 0 -0.43385085243219867 0.34555045147446217 0 -0.41273643032526569 0.33662953043248711 0 -0.43674098495811231 0.33493788649063261 0 -0.43385085243219867 0.34555045147446217 0 -0.43385085243219867 0.34555045147446217 0 -0.4302486007270056 0.35272204188882378 0 -0.42573384958437638 0.34916959158482058 0 -0.43385085243219867 0.34555045147446217 0 -0.43539550265875948 0.35741731211322858 0 -0.44110397924445488 0.35756373905142852 0 -0.43539550265875948 0.35741731211322858 0 -0.4302486007270056 0.35272204188882378 0 -0.42757171946388478 0.35850981688022993 0 -0.43385085243219867 0.34555045147446217 0 -0.43539550265875948 0.35741731211322858 0 -0.4302486007270056 0.35272204188882378 0 -0.4302486007270056 0.35272204188882378 0 -0.42480748600639012 0.35482075793933809 0 -0.42573384958437638 0.34916959158482058 0 -0.4302486007270056 0.35272204188882378 0 -0.42757171946388478 0.35850981688022993 0 -0.42480748600639012 0.35482075793933809 0 -0.42757171946388478 0.35850981688022993 0 -0.42480748600639012 0.35482075793933809 0 -0.42195212413097077 0.36043988011418487 0 -0.4199209072431685 0.34318781838679219 0 -0.43385085243219867 0.34555045147446217 0 -0.42573384958437638 0.34916959158482058 0 -0.42480748600639012 0.35482075793933809 0 -0.42573384958437638 0.34916959158482058 0 -0.41984140151311927 0.3495668882346864 0 -0.4199209072431685 0.34318781838679219 0 -0.42573384958437638 0.34916959158482058 0 -0.41984140151311927 0.3495668882346864 0 -0.4199209072431685 0.34318781838679219 0 -0.41984140151311927 0.3495668882346864 0 -0.41366919887348358 0.34576378073699821 0 -0.41984140151311927 0.3495668882346864 0 -0.41366919887348358 0.34576378073699821 0 -0.41404230344944593 0.35073751764187411 0 -0.42480748600639012 0.35482075793933809 0 -0.41984140151311927 0.3495668882346864 0 -0.41755863725870102 0.35684421707679032 0 -0.42480748600639012 0.35482075793933809 0 -0.41755863725870102 0.35684421707679032 0 -0.42195212413097077 0.36043988011418487 0 -0.41984140151311927 0.3495668882346864 0 -0.41755863725870102 0.35684421707679032 0 -0.41404230344944593 0.35073751764187411 0 -0.41755863725870102 0.35684421707679032 0 -0.41125051028190041 0.35540848222164118 0 -0.41404230344944593 0.35073751764187411 0 -0.41125051028190041 0.35540848222164118 0 -0.40888688292129022 0.34941903462410451 0 -0.41404230344944593 0.35073751764187411 0 -0.41755863725870102 0.35684421707679032 0 -0.41125051028190041 0.35540848222164118 0 -0.41142088061722581 0.36176204086772412 0 -0.40553625032349627 0.36037170931698131 0 -0.41125051028190041 0.35540848222164118 0 -0.41142088061722581 0.36176204086772412 0 -0.40525205349158999 0.35429039595711992 0 -0.40553625032349627 0.36037170931698131 0 -0.41125051028190041 0.35540848222164118 0 -0.40525205349158999 0.35429039595711992 0 -0.41125051028190041 0.35540848222164118 0 -0.40888688292129022 0.34941903462410451 0 -0.4080564418273247 0.34368885170405422 0 -0.40888688292129022 0.34941903462410451 0 -0.41366919887348358 0.34576378073699821 0 -0.40888688292129022 0.34941903462410451 0 -0.41366919887348358 0.34576378073699821 0 -0.41404230344944593 0.35073751764187411 0 -0.4250431626101242 0.37647010748543319 0 -0.40086489287733429 0.37467411733839928 0 -0.42486892241442098 0.36677785020884007 0 -0.40086489287733429 0.37467411733839928 0 -0.42486892241442098 0.36677785020884007 0 -0.40086489287733429 0.37467411733839928 0 -0.41378193274770297 0.36450427419225789 0 -0.42486892241442098 0.36677785020884007 0 -0.40544017780568847 0.3661562974108753 0 -0.40086489287733429 0.37467411733839928 0 -0.41378193274770297 0.36450427419225789 0 -0.40544017780568847 0.3661562974108753 0 -0.41142088061722581 0.36176204086772412 0 -0.41378193274770297 0.36450427419225789 0 -0.40553625032349627 0.36037170931698131 0 -0.40544017780568847 0.3661562974108753 0 -0.41142088061722581 0.36176204086772412 0 -0.41755863725870102 0.35684421707679032 0 -0.41378193274770297 0.36450427419225789 0 -0.42195212413097077 0.36043988011418487 0 -0.41378193274770297 0.36450427419225789 0 -0.42486892241442098 0.36677785020884007 0 -0.42195212413097077 0.36043988011418487 0 -0.41755863725870102 0.35684421707679032 0 -0.41142088061722581 0.36176204086772412 0 -0.41378193274770297 0.36450427419225789 0 -0.4250431626101242 0.37647010748543319 0 -0.44885864134335329 0.37135067543599282 0 -0.4250431626101242 0.37647010748543319 0 -0.42486892241442098 0.36677785020884007 0 -0.44885864134335329 0.37135067543599282 0 -0.42486892241442098 0.36677785020884007 0 -0.448872951951507 0.35888158307927881 0 -0.43539550265875948 0.35741731211322858 0 -0.42486892241442098 0.36677785020884007 0 -0.44110397924445488 0.35756373905142852 0 -0.43539550265875948 0.35741731211322858 0 -0.42757171946388478 0.35850981688022993 0 -0.42486892241442098 0.36677785020884007 0 -0.42757171946388478 0.35850981688022993 0 -0.42486892241442098 0.36677785020884007 0 -0.42195212413097077 0.36043988011418487 0 -0.42486892241442098 0.36677785020884007 0 -0.44885864134335329 0.37135067543599282 0 -0.448872951951507 0.35888158307927881 0 -0.44802713623065987 0.37645115623263098 0 -0.4250431626101242 0.37647010748543319 0 -0.44885864134335329 0.37135067543599282 0 -0.42486892241442098 0.36677785020884007 0 -0.44110397924445488 0.35756373905142852 0 -0.448872951951507 0.35888158307927881 0 -0.44885864134335329 0.37135067543599282 0 -0.448872951951507 0.35888158307927881 0 -0.44885864134335329 0.37135067543599282 0 -0.448872951951507 0.35888158307927881 0 -0.45634368000688869 0.36512471152292858 0 -0.43385085243219867 0.34555045147446217 0 -0.45496527453913199 0.35447137251643651 0 -0.44889299330712729 0.34242966823447613 0 -0.43385085243219867 0.34555045147446217 0 -0.45496527453913199 0.35447137251643651 0 -0.43385085243219867 0.34555045147446217 0 -0.44887533288597797 0.35680703170406669 0 -0.45496527453913199 0.35447137251643651 0 -0.43385085243219867 0.34555045147446217 0 -0.44110397924445488 0.35756373905142852 0 -0.44887533288597797 0.35680703170406669 0 -0.44110397924445488 0.35756373905142852 0 -0.44887533288597797 0.35680703170406669 0 -0.448872951951507 0.35888158307927881 0 -0.44887533288597797 0.35680703170406669 0 -0.448872951951507 0.35888158307927881 0 -0.44887533288597797 0.35680703170406669 0 -0.448872951951507 0.35888158307927881 0 -0.45496527453913199 0.35447137251643651 0 -0.448872951951507 0.35888158307927881 0 -0.45496527453913199 0.35447137251643651 0 -0.47186707529616939 0.3513175305497272 0 -0.448872951951507 0.35888158307927881 0 -0.47186707529616939 0.3513175305497272 0 -0.448872951951507 0.35888158307927881 0 -0.45634368000688869 0.36512471152292858 0 -0.47186707529616939 0.3513175305497272 0 -0.45911772068334677 0.34536620346235469 0 -0.45496527453913199 0.35447137251643651 0 -0.47186707529616939 0.3513175305497272 0 -0.45911772068334677 0.34536620346235469 0 -0.45496527453913199 0.35447137251643651 0 -0.44889299330712729 0.34242966823447613 0 -0.46572599417265398 0.36772482908493609 0 -0.45634368000688869 0.36512471152292858 0 -0.47186707529616939 0.3513175305497272 0 -0.46059005399087027 0.38292215568240928 0 -0.44885864134335329 0.37135067543599282 0 -0.46572599417265398 0.36772482908493609 0 -0.44885864134335329 0.37135067543599282 0 -0.46572599417265398 0.36772482908493609 0 -0.44885864134335329 0.37135067543599282 0 -0.46572599417265398 0.36772482908493609 0 -0.45634368000688869 0.36512471152292858 0 -0.47832653283541199 0.38608194873200979 0 -0.46572599417265398 0.36772482908493609 0 -0.48259334700195489 0.36409898273387958 0 -0.46572599417265398 0.36772482908493609 0 -0.48259334700195489 0.36409898273387958 0 -0.47186707529616939 0.3513175305497272 0 -0.46572599417265398 0.36772482908493609 0 -0.48259334700195489 0.36409898273387958 0 -0.47186707529616939 0.3513175305497272 0 -0.494861198640831 0.34375347802017348 0 -0.47186707529616939 0.3513175305497272 0 -0.48536711719674469 0.35339641184703091 0 -0.494861198640831 0.34375347802017348 0 -0.48259334700195489 0.36409898273387958 0 -0.47186707529616939 0.3513175305497272 0 -0.48536711719674469 0.35339641184703091 0 -0.48259334700195489 0.36409898273387958 0 -0.49214684784802371 0.35441565608434311 0 -0.48536711719674469 0.35339641184703091 0 -0.49214684784802371 0.35441565608434311 0 -0.5 0.36887446842263683 0 -0.5 0.34271985673358363 0 -0.49214684784802371 0.35441565608434311 0 -0.48536711719674469 0.35339641184703091 0 -0.494861198640831 0.34375347802017348 0 -0.49214684784802371 0.35441565608434311 0 -0.494861198640831 0.34375347802017348 0 -0.5 0.34271985673358363 0 -0.48850556386005051 0.3766603246979251 0 -0.48259334700195489 0.36409898273387958 0 -0.5 0.36887446842263683 0 -0.48259334700195489 0.36409898273387958 0 -0.49214684784802371 0.35441565608434311 0 -0.5 0.36887446842263683 0 -0.485708092488497 0.3189911195031831 0 -0.5 0.31656524504453032 0 -0.48475009422380527 0.3315545986069256 0 -0.485708092488497 0.3189911195031831 0 -0.5 0.31656524504453032 0 -0.48583489694974541 0.30845327583860088 0 -0.5 0.31656524504453032 0 -0.5 0.34271985673358363 0 -0.48475009422380527 0.3315545986069256 0 -0.494861198640831 0.34375347802017348 0 -0.5 0.34271985673358363 0 -0.48475009422380527 0.3315545986069256 0 -0.48475009422380527 0.3315545986069256 0 -0.46074553959095882 0.3332462425487791 0 -0.47186707529616939 0.3513175305497272 0 -0.494861198640831 0.34375347802017348 0 -0.48475009422380527 0.3315545986069256 0 -0.47186707529616939 0.3513175305497272 0 -0.48475009422380527 0.3315545986069256 0 -0.46074553959095882 0.3332462425487791 0 -0.48475009422380527 0.3315545986069256 0 -0.47224737878043732 0.31939135852267558 0 -0.46074553959095882 0.3332462425487791 0 -0.485708092488497 0.3189911195031831 0 -0.48475009422380527 0.3315545986069256 0 -0.47224737878043732 0.31939135852267558 0 -0.485708092488497 0.3189911195031831 0 -0.47224737878043732 0.31939135852267558 0 -0.48583489694974541 0.30845327583860088 0 -0.47224737878043732 0.31939135852267558 0 -0.46258830912673421 0.31343425170936878 0 -0.46074553959095882 0.3332462425487791 0 -0.46258830912673421 0.31343425170936878 0 -0.46074553959095882 0.3332462425487791 0 -0.45107709460752138 0.31557533431346357 0 -0.45911772068334677 0.34536620346235469 0 -0.47186707529616939 0.3513175305497272 0 -0.46074553959095882 0.3332462425487791 0 -0.45911772068334677 0.34536620346235469 0 -0.46074553959095882 0.3332462425487791 0 -0.44889299330712729 0.34242966823447613 0 -0.43674098495811231 0.33493788649063261 0 -0.46074553959095882 0.3332462425487791 0 -0.43674098495811231 0.33493788649063261 0 -0.46074553959095882 0.3332462425487791 0 -0.44889299330712729 0.34242966823447613 0 -0.43674098495811231 0.33493788649063261 0 -0.46074553959095882 0.3332462425487791 0 -0.43790895006943947 0.32081412042189511 0 -0.43674098495811231 0.33493788649063261 0 -0.43385085243219867 0.34555045147446217 0 -0.44889299330712729 0.34242966823447613 0 -0.46074553959095882 0.3332462425487791 0 -0.45107709460752138 0.31557533431346357 0 -0.43790895006943947 0.32081412042189511 0 -0.45107709460752138 0.31557533431346357 0 -0.43790895006943947 0.32081412042189511 0 -0.4401847358662575 0.3127477530096977 0 -0.44444415583193408 0.29216055381020578 0 -0.43122247783146522 0.30831868127488848 0 -0.44810052680614793 0.29565349026271098 0 -0.43122247783146522 0.30831868127488848 0 -0.44368336155109173 0.30649675881006838 0 -0.44810052680614793 0.29565349026271098 0 -0.43122247783146522 0.30831868127488848 0 -0.4401847358662575 0.3127477530096977 0 -0.44368336155109173 0.30649675881006838 0 -0.43122247783146522 0.30831868127488848 0 -0.44444415583193408 0.29216055381020578 0 -0.44810052680614793 0.29565349026271098 0 -0.43122247783146522 0.30831868127488848 0 -0.45107709460752138 0.31557533431346357 0 -0.4401847358662575 0.3127477530096977 0 -0.44368336155109173 0.30649675881006838 0 -0.44368336155109173 0.30649675881006838 0 -0.44996115485610377 0.3015940899144034 0 -0.4551770389262465 0.30483297142504889 0 -0.44368336155109173 0.30649675881006838 0 -0.44996115485610377 0.3015940899144034 0 -0.44810052680614793 0.29565349026271098 0 -0.45288369214092922 0.29939313915978533 0 -0.44996115485610377 0.3015940899144034 0 -0.44810052680614793 0.29565349026271098 0 -0.45288369214092922 0.29939313915978533 0 -0.44996115485610377 0.3015940899144034 0 -0.4551770389262465 0.30483297142504889 0 -0.45107709460752138 0.31557533431346357 0 -0.44368336155109173 0.30649675881006838 0 -0.4551770389262465 0.30483297142504889 0 -0.44702735364695217 0.27675533545947301 0 -0.43422108619098299 0.29621681389521232 0 -0.44444415583193408 0.29216055381020578 0 -0.44702735364695217 0.27675533545947301 0 -0.43422108619098299 0.29621681389521232 0 -0.44702735364695217 0.27675533545947301 0 -0.43274811138672559 0.28469846643612018 0 -0.43422108619098299 0.29621681389521232 0 -0.44810052680614793 0.29565349026271098 0 -0.4493542421043164 0.28919027156790111 0 -0.45395006383388498 0.28587005882998617 0 -0.44444415583193408 0.29216055381020578 0 -0.44810052680614793 0.29565349026271098 0 -0.4493542421043164 0.28919027156790111 0 -0.44444415583193408 0.29216055381020578 0 -0.4493542421043164 0.28919027156790111 0 -0.44702735364695217 0.27675533545947301 0 -0.4493542421043164 0.28919027156790111 0 -0.45395006383388498 0.28587005882998617 0 -0.44702735364695217 0.27675533545947301 0 -0.44810052680614793 0.29565349026271098 0 -0.45395006383388498 0.28587005882998617 0 -0.46497857578083068 0.28298829925053381 0 -0.44810052680614793 0.29565349026271098 0 -0.4593999708052337 0.29480301670676529 0 -0.46497857578083068 0.28298829925053381 0 -0.44810052680614793 0.29565349026271098 0 -0.46497857578083068 0.28298829925053381 0 -0.45288369214092922 0.29939313915978533 0 -0.44810052680614793 0.29565349026271098 0 -0.4593999708052337 0.29480301670676529 0 -0.4593999708052337 0.29480301670676529 0 -0.46827174088950307 0.29409138505043392 0 -0.46497857578083068 0.28298829925053381 0 -0.46258830912673421 0.31343425170936878 0 -0.45107709460752138 0.31557533431346357 0 -0.4551770389262465 0.30483297142504889 0 -0.45288369214092922 0.29939313915978533 0 -0.4593999708052337 0.29480301670676529 0 -0.4551770389262465 0.30483297142504889 0 -0.4593999708052337 0.29480301670676529 0 -0.4551770389262465 0.30483297142504889 0 -0.46625021185001803 0.30380681263807602 0 -0.4593999708052337 0.29480301670676529 0 -0.46827174088950307 0.29409138505043392 0 -0.46625021185001803 0.30380681263807602 0 -0.47224737878043732 0.31939135852267558 0 -0.46258830912673421 0.31343425170936878 0 -0.46625021185001803 0.30380681263807602 0 -0.46258830912673421 0.31343425170936878 0 -0.4551770389262465 0.30483297142504889 0 -0.46625021185001803 0.30380681263807602 0 -0.47551717359816043 0.30301602212345602 0 -0.4769183937012712 0.29196404103452073 0 -0.48583489694974541 0.30845327583860088 0 -0.47224737878043732 0.31939135852267558 0 -0.46625021185001803 0.30380681263807602 0 -0.47551717359816043 0.30301602212345602 0 -0.47224737878043732 0.31939135852267558 0 -0.47551717359816043 0.30301602212345602 0 -0.48583489694974541 0.30845327583860088 0 -0.46827174088950307 0.29409138505043392 0 -0.46625021185001803 0.30380681263807602 0 -0.47551717359816043 0.30301602212345602 0 -0.46827174088950307 0.29409138505043392 0 -0.46497857578083068 0.28298829925053381 0 -0.4769183937012712 0.29196404103452073 0 -0.4769183937012712 0.29196404103452073 0 -0.48757792524538679 0.2814999319082685 0 -0.48583489694974541 0.30845327583860088 0 -0.46827174088950307 0.29409138505043392 0 -0.47551717359816043 0.30301602212345602 0 -0.4769183937012712 0.29196404103452073 0 -0.46497857578083068 0.28298829925053381 0 -0.47783287987075052 0.28169384510791978 0 -0.4769183937012712 0.29196404103452073 0 -0.47783287987075052 0.28169384510791978 0 -0.4769183937012712 0.29196404103452073 0 -0.48757792524538679 0.2814999319082685 0 -0.5 0.29041063335547701 0 -0.48757792524538679 0.2814999319082685 0 -0.48583489694974541 0.30845327583860088 0 -0.48757792524538679 0.2814999319082685 0 -0.48583489694974541 0.30845327583860088 0 -0.5 0.31656524504453032 0 -0.5 0.29041063335547701 0 -0.48583489694974541 0.30845327583860088 0 -0.5 0.23810140997737081 0 -0.5 0.26425602166642381 0 -0.48932095354102823 0.25454658797793611 0 -0.48757792524538679 0.2814999319082685 0 -0.48932095354102823 0.25454658797793611 0 -0.48366697684514259 0.26703881783025729 0 -0.48757792524538679 0.2814999319082685 0 -0.5 0.26425602166642381 0 -0.48932095354102823 0.25454658797793611 0 -0.48757792524538679 0.2814999319082685 0 -0.48932095354102823 0.25454658797793611 0 -0.5 0.29041063335547701 0 -0.48757792524538679 0.2814999319082685 0 -0.5 0.26425602166642381 0 -0.46497857578083068 0.28298829925053381 0 -0.48185662475551339 0.27032310823835648 0 -0.46497857578083068 0.28298829925053381 0 -0.47783287987075052 0.28169384510791978 0 -0.48185662475551339 0.27032310823835648 0 -0.48366697684514259 0.26703881783025729 0 -0.45893043448094739 0.2699305570534084 0 -0.48757792524538679 0.2814999319082685 0 -0.48366697684514259 0.26703881783025729 0 -0.48185662475551339 0.27032310823835648 0 -0.48366697684514259 0.26703881783025729 0 -0.48185662475551339 0.27032310823835648 0 -0.47235815296560851 0.27257019559313889 0 -0.46497857578083068 0.28298829925053381 0 -0.48185662475551339 0.27032310823835648 0 -0.47235815296560851 0.27257019559313889 0 -0.48366697684514259 0.26703881783025729 0 -0.46959483388743167 0.25994315597580908 0 -0.45893043448094739 0.2699305570534084 0 -0.48366697684514259 0.26703881783025729 0 -0.47235815296560851 0.27257019559313889 0 -0.45893043448094739 0.2699305570534084 0 -0.47783287987075052 0.28169384510791978 0 -0.48757792524538679 0.2814999319082685 0 -0.48185662475551339 0.27032310823835648 0 -0.48932095354102823 0.25454658797793611 0 -0.48366697684514259 0.26703881783025729 0 -0.47792533453874358 0.25606878273296479 0 -0.48366697684514259 0.26703881783025729 0 -0.46959483388743167 0.25994315597580908 0 -0.47792533453874358 0.25606878273296479 0 -0.47864167104372218 0.246590621409366 0 -0.48932095354102823 0.25454658797793611 0 -0.47792533453874358 0.25606878273296479 0 -0.47864167104372218 0.246590621409366 0 -0.47792533453874358 0.25606878273296479 0 -0.46938038244821267 0.25133041049185839 0 -0.46959483388743167 0.25994315597580908 0 -0.47792533453874358 0.25606878273296479 0 -0.46938038244821267 0.25133041049185839 0 -0.46959483388743167 0.25994315597580908 0 -0.46938038244821267 0.25133041049185839 0 -0.45807104112411212 0.25534721177055669 0 -0.46959483388743167 0.25994315597580908 0 -0.45807104112411212 0.25534721177055669 0 -0.45893043448094739 0.2699305570534084 0 -0.45807104112411212 0.25534721177055669 0 -0.45893043448094739 0.2699305570534084 0 -0.44442574262614493 0.25832327296872359 0 -0.45395006383388498 0.28587005882998617 0 -0.46497857578083068 0.28298829925053381 0 -0.45893043448094739 0.2699305570534084 0 -0.45395006383388498 0.28587005882998617 0 -0.45893043448094739 0.2699305570534084 0 -0.44702735364695217 0.27675533545947301 0 -0.46497857578083068 0.28298829925053381 0 -0.47235815296560851 0.27257019559313889 0 -0.45893043448094739 0.2699305570534084 0 -0.45893043448094739 0.2699305570534084 0 -0.43419389211675241 0.27282229627655952 0 -0.45893043448094739 0.2699305570534084 0 -0.44442574262614493 0.25832327296872359 0 -0.43419389211675241 0.27282229627655952 0 -0.45893043448094739 0.2699305570534084 0 -0.44702735364695217 0.27675533545947301 0 -0.43419389211675241 0.27282229627655952 0 -0.44702735364695217 0.27675533545947301 0 -0.43419389211675241 0.27282229627655952 0 -0.43274811138672559 0.28469846643612018 0 -0.45046339488490522 0.249057113070103 0 -0.45807104112411212 0.25534721177055669 0 -0.44442574262614493 0.25832327296872359 0 -0.44062222049055039 0.24203477259657111 0 -0.44442574262614493 0.25832327296872359 0 -0.42503978512155383 0.25887440404814072 0 -0.44062222049055039 0.24203477259657111 0 -0.42503978512155383 0.25887440404814072 0 -0.44442574262614493 0.25832327296872359 0 -0.42503978512155383 0.25887440404814072 0 -0.43419389211675241 0.27282229627655952 0 -0.42503978512155383 0.25887440404814072 0 -0.40945734975255721 0.27571403549971041 0 -0.40585136056822319 0.25674789398696107 0 -0.4198454647722451 0.23985190764030939 0 -0.42503978512155383 0.25887440404814072 0 -0.40585136056822319 0.25674789398696107 0 -0.40945734975255721 0.27571403549971041 0 -0.43419389211675241 0.27282229627655952 0 -0.42503978512155383 0.25887440404814072 0 -0.40945734975255721 0.27571403549971041 0 -0.42503978512155383 0.25887440404814072 0 -0.40945734975255721 0.27571403549971041 0 -0.43419389211675241 0.27282229627655952 0 -0.40945734975255721 0.27571403549971041 0 -0.43419389211675241 0.27282229627655952 0 -0.4229835889384117 0.28415291652507912 0 -0.43419389211675241 0.27282229627655952 0 -0.43274811138672559 0.28469846643612018 0 -0.4229835889384117 0.28415291652507912 0 -0.43274811138672559 0.28469846643612018 0 -0.43422108619098299 0.29621681389521232 0 -0.42519236151645012 0.29288975242762622 0 -0.43274811138672559 0.28469846643612018 0 -0.42519236151645012 0.29288975242762622 0 -0.4229835889384117 0.28415291652507912 0 -0.42141481873501418 0.31567829233095179 0 -0.43422108619098299 0.29621681389521232 0 -0.42141481873501418 0.31567829233095179 0 -0.43422108619098299 0.29621681389521232 0 -0.42237726971740519 0.30236741203524931 0 -0.44444415583193408 0.29216055381020578 0 -0.43422108619098299 0.29621681389521232 0 -0.43122247783146522 0.30831868127488848 0 -0.42141481873501418 0.31567829233095179 0 -0.43422108619098299 0.29621681389521232 0 -0.43122247783146522 0.30831868127488848 0 -0.43422108619098299 0.29621681389521232 0 -0.42519236151645012 0.29288975242762622 0 -0.42237726971740519 0.30236741203524931 0 -0.42141481873501418 0.31567829233095179 0 -0.43122247783146522 0.30831868127488848 0 -0.42237726971740519 0.30236741203524931 0 -0.41647318301620623 0.31168328686166002 0 -0.40812109447663159 0.30329838776079099 0 -0.42141481873501418 0.31567829233095179 0 -0.42237726971740519 0.30236741203524931 0 -0.41647318301620623 0.31168328686166002 0 -0.42237726971740519 0.30236741203524931 0 -0.40812109447663159 0.30329838776079099 0 -0.41256551749876041 0.29129965580367562 0 -0.40826549608127172 0.31275764886218971 0 -0.41647318301620623 0.31168328686166002 0 -0.40812109447663159 0.30329838776079099 0 -0.40945734975255721 0.27571403549971041 0 -0.4229835889384117 0.28415291652507912 0 -0.41256551749876041 0.29129965580367562 0 -0.42519236151645012 0.29288975242762622 0 -0.4229835889384117 0.28415291652507912 0 -0.41256551749876041 0.29129965580367562 0 -0.42519236151645012 0.29288975242762622 0 -0.42237726971740519 0.30236741203524931 0 -0.41256551749876041 0.29129965580367562 0 -0.40945734975255721 0.27571403549971041 0 -0.39180528154043992 0.29479027846244049 0 -0.39350738277932218 0.27757861076756318 0 -0.40945734975255721 0.27571403549971041 0 -0.39180528154043992 0.29479027846244049 0 -0.40812109447663159 0.30329838776079099 0 -0.41256551749876041 0.29129965580367562 0 -0.39180528154043992 0.29479027846244049 0 -0.40945734975255721 0.27571403549971041 0 -0.41256551749876041 0.29129965580367562 0 -0.39180528154043992 0.29479027846244049 0 -0.38613629988198012 0.31665983269396758 0 -0.39830358576524327 0.31266849694114901 0 -0.39180528154043992 0.29479027846244049 0 -0.39830358576524327 0.31266849694114901 0 -0.40812109447663159 0.30329838776079099 0 -0.39180528154043992 0.29479027846244049 0 -0.39830358576524327 0.31266849694114901 0 -0.40826549608127172 0.31275764886218971 0 -0.40812109447663159 0.30329838776079099 0 -0.39180528154043992 0.29479027846244049 0 -0.37819889022761238 0.29924868842846319 0 -0.37415321332832258 0.31386652142517069 0 -0.38613629988198012 0.31665983269396758 0 -0.39180528154043992 0.29479027846244049 0 -0.37415321332832258 0.31386652142517069 0 -0.39180528154043992 0.29479027846244049 0 -0.37415321332832258 0.31386652142517069 0 -0.39180528154043992 0.29479027846244049 0 -0.37819889022761238 0.29924868842846319 0 -0.37870614451813112 0.28175948497688769 0 -0.39180528154043992 0.29479027846244049 0 -0.37870614451813112 0.28175948497688769 0 -0.39350738277932218 0.27757861076756318 0 -0.37870614451813112 0.28175948497688769 0 -0.37647038179830861 0.26645711442365799 0 -0.39350738277932218 0.27757861076756318 0 -0.37647038179830861 0.26645711442365799 0 -0.39336972403141229 0.26369738761855421 0 -0.39350738277932218 0.27757861076756318 0 -0.38790582398472923 0.24962922847932231 0 -0.37647038179830861 0.26645711442365799 0 -0.39336972403141229 0.26369738761855421 0 -0.38790582398472923 0.24962922847932231 0 -0.37647038179830861 0.26645711442365799 0 -0.36318679658289171 0.25196182354824148 0 -0.40945734975255721 0.27571403549971041 0 -0.40585136056822319 0.25674789398696107 0 -0.39336972403141229 0.26369738761855421 0 -0.38790582398472923 0.24962922847932231 0 -0.40585136056822319 0.25674789398696107 0 -0.39336972403141229 0.26369738761855421 0 -0.40945734975255721 0.27571403549971041 0 -0.39336972403141229 0.26369738761855421 0 -0.39350738277932218 0.27757861076756318 0 -0.40945734975255721 0.27571403549971041 0 -0.39350738277932218 0.27757861076756318 0 -0.35583614606747688 0.27501819518035592 0 -0.36318679658289171 0.25196182354824148 0 -0.33952374355129727 0.25899057541505788 0 -0.37647038179830861 0.26645711442365799 0 -0.35583614606747688 0.27501819518035592 0 -0.36318679658289171 0.25196182354824148 0 -0.37870614451813112 0.28175948497688769 0 -0.37647038179830861 0.26645711442365799 0 -0.35583614606747688 0.27501819518035592 0 -0.37819889022761238 0.29924868842846319 0 -0.37870614451813112 0.28175948497688769 0 -0.36775571630023218 0.2927315942663431 0 -0.37870614451813112 0.28175948497688769 0 -0.35583614606747688 0.27501819518035592 0 -0.36775571630023218 0.2927315942663431 0 -0.37819889022761238 0.29924868842846319 0 -0.36899777432263853 0.30469822459034263 0 -0.37415321332832258 0.31386652142517069 0 -0.36899777432263853 0.30469822459034263 0 -0.36272901898995358 0.31473918551029578 0 -0.37415321332832258 0.31386652142517069 0 -0.37819889022761238 0.29924868842846319 0 -0.36775571630023218 0.2927315942663431 0 -0.36899777432263853 0.30469822459034263 0 -0.36775571630023218 0.2927315942663431 0 -0.36899777432263853 0.30469822459034263 0 -0.35931620367806588 0.30475084950198522 0 -0.36775571630023218 0.2927315942663431 0 -0.35931620367806588 0.30475084950198522 0 -0.35261706249820868 0.29381533636168528 0 -0.36899777432263853 0.30469822459034263 0 -0.35931620367806588 0.30475084950198522 0 -0.36272901898995358 0.31473918551029578 0 -0.35931620367806588 0.30475084950198522 0 -0.35261706249820868 0.29381533636168528 0 -0.34344143829887858 0.30736403781452232 0 -0.35931620367806588 0.30475084950198522 0 -0.34344143829887858 0.30736403781452232 0 -0.35467675850453528 0.31743756764607989 0 -0.35931620367806588 0.30475084950198522 0 -0.35467675850453528 0.31743756764607989 0 -0.36272901898995358 0.31473918551029578 0 -0.35583614606747688 0.27501819518035592 0 -0.36775571630023218 0.2927315942663431 0 -0.35261706249820868 0.29381533636168528 0 -0.35583614606747688 0.27501819518035592 0 -0.35261706249820868 0.29381533636168528 0 -0.33673580814638959 0.28921200504521999 0 -0.35261706249820868 0.29381533636168528 0 -0.33673580814638959 0.28921200504521999 0 -0.34344143829887858 0.30736403781452232 0 -0.33673580814638959 0.28921200504521999 0 -0.32075162894010661 0.28280614760534989 0 -0.33379142081270979 0.2734424933293601 0 -0.34344143829887858 0.30736403781452232 0 -0.31699951866320542 0.30755322334125379 0 -0.34344143829887858 0.30736403781452232 0 -0.31699951866320542 0.30755322334125379 0 -0.33459812393413729 0.32207732583041709 0 -0.33673580814638959 0.28921200504521999 0 -0.34344143829887858 0.30736403781452232 0 -0.31699951866320542 0.30755322334125379 0 -0.33673580814638959 0.28921200504521999 0 -0.31699951866320542 0.30755322334125379 0 -0.32075162894010661 0.28280614760534989 0 -0.31699951866320542 0.30755322334125379 0 -0.32075162894010661 0.28280614760534989 0 -0.30493521127791462 0.28695781074044469 0 -0.32075162894010661 0.28280614760534989 0 -0.31931282352829687 0.26617321261290411 0 -0.33379142081270979 0.2734424933293601 0 -0.32075162894010661 0.28280614760534989 0 -0.31931282352829687 0.26617321261290411 0 -0.30493521127791462 0.28695781074044469 0 -0.35583614606747688 0.27501819518035592 0 -0.33673580814638959 0.28921200504521999 0 -0.33379142081270979 0.2734424933293601 0 -0.35583614606747688 0.27501819518035592 0 -0.33379142081270979 0.2734424933293601 0 -0.33952374355129727 0.25899057541505788 0 -0.31931282352829687 0.26617321261290411 0 -0.33379142081270979 0.2734424933293601 0 -0.33952374355129727 0.25899057541505788 0 -0.32200613725511351 0.24850726385495631 0 -0.31931282352829687 0.26617321261290411 0 -0.33952374355129727 0.25899057541505788 0 -0.32200613725511351 0.24850726385495631 0 -0.31931282352829687 0.26617321261290411 0 -0.30640548876467488 0.25787073169030861 0 -0.31931282352829687 0.26617321261290411 0 -0.30640548876467488 0.25787073169030861 0 -0.3010630097917536 0.27273037638764702 0 -0.31931282352829687 0.26617321261290411 0 -0.3010630097917536 0.27273037638764702 0 -0.30493521127791462 0.28695781074044469 0 -0.31931282352829687 0.26617321261290411 0 -0.30493521127791462 0.28695781074044469 0 -0.3010630097917536 0.27273037638764702 0 -0.29309283898050847 0.28048055459605348 0 -0.30493521127791462 0.28695781074044469 0 -0.3010630097917536 0.27273037638764702 0 -0.29309283898050847 0.28048055459605348 0 -0.28156868640737281 0.27216957229852412 0 -0.30640548876467488 0.25787073169030861 0 -0.3010630097917536 0.27273037638764702 0 -0.28156868640737281 0.27216957229852412 0 -0.30640548876467488 0.25787073169030861 0 -0.28156868640737281 0.27216957229852412 0 -0.28729818335365731 0.26780124082781631 0 -0.28156868640737281 0.27216957229852412 0 -0.28729818335365731 0.26780124082781631 0 -0.27880962639343299 0.26078065685839158 0 -0.29309283898050847 0.28048055459605348 0 -0.28156868640737281 0.27216957229852412 0 -0.28401529333418091 0.28255904946725641 0 -0.30640548876467488 0.25787073169030861 0 -0.28156868640737281 0.27216957229852412 0 -0.29125564533142001 0.24067530578368901 0 -0.30640548876467488 0.25787073169030861 0 -0.28729818335365731 0.26780124082781631 0 -0.29125564533142001 0.24067530578368901 0 -0.28729818335365731 0.26780124082781631 0 -0.27880962639343299 0.26078065685839158 0 -0.29125564533142001 0.24067530578368901 0 -0.28729818335365731 0.26780124082781631 0 -0.29125564533142001 0.24067530578368901 0 -0.26892213733164849 0.25365425058065472 0 -0.27880962639343299 0.26078065685839158 0 -0.26892213733164849 0.25365425058065472 0 -0.27880962639343299 0.26078065685839158 0 -0.26500347954306669 0.26960291480127369 0 -0.28156868640737281 0.27216957229852412 0 -0.25673188405007052 0.28646841290673969 0 -0.28156868640737281 0.27216957229852412 0 -0.26500347954306669 0.26960291480127369 0 -0.25673188405007052 0.28646841290673969 0 -0.28156868640737281 0.27216957229852412 0 -0.27880962639343299 0.26078065685839158 0 -0.26500347954306669 0.26960291480127369 0 -0.28156868640737281 0.27216957229852412 0 -0.27479408276187339 0.28687287199942368 0 -0.28401529333418091 0.28255904946725641 0 -0.26500347954306669 0.26960291480127369 0 -0.25265925142613249 0.26128234508680298 0 -0.25673188405007052 0.28646841290673969 0 -0.26892213733164849 0.25365425058065472 0 -0.26500347954306669 0.26960291480127369 0 -0.25265925142613249 0.26128234508680298 0 -0.25621817608628389 0.2460965770837312 0 -0.26892213733164849 0.25365425058065472 0 -0.25265925142613249 0.26128234508680298 0 -0.25505401324638421 0.30366623925853881 0 -0.26661761067819428 0.2958317928062858 0 -0.26721257633701828 0.30790943684761429 0 -0.25505401324638421 0.30366623925853881 0 -0.26721257633701828 0.30790943684761429 0 -0.25901197930261888 0.31383205914145501 0 -0.26721257633701828 0.30790943684761429 0 -0.25901197930261888 0.31383205914145501 0 -0.26528599585519008 0.31471464054907522 0 -0.25505401324638421 0.30366623925853881 0 -0.25901197930261888 0.31383205914145501 0 -0.24885494741763489 0.31718848033418301 0 -0.25505401324638421 0.30366623925853881 0 -0.25673188405007052 0.28646841290673969 0 -0.26661761067819428 0.2958317928062858 0 -0.26661761067819428 0.2958317928062858 0 -0.27573637841232751 0.29432500902679382 0 -0.27326763327687947 0.30016750757533939 0 -0.28156868640737281 0.27216957229852412 0 -0.25673188405007052 0.28646841290673969 0 -0.27479408276187339 0.28687287199942368 0 -0.26661761067819428 0.2958317928062858 0 -0.27479408276187339 0.28687287199942368 0 -0.27573637841232751 0.29432500902679382 0 -0.25673188405007052 0.28646841290673969 0 -0.26661761067819428 0.2958317928062858 0 -0.27479408276187339 0.28687287199942368 0 -0.27479408276187339 0.28687287199942368 0 -0.28401529333418091 0.28255904946725641 0 -0.28313816676434478 0.29069510378855717 0 -0.27479408276187339 0.28687287199942368 0 -0.27573637841232751 0.29432500902679382 0 -0.28313816676434478 0.29069510378855717 0 -0.27573637841232751 0.29432500902679382 0 -0.28086439858034518 0.29805776896436298 0 -0.28313816676434478 0.29069510378855717 0 -0.28086439858034518 0.29805776896436298 0 -0.27753065875984329 0.30327410754998058 0 -0.28274061889410179 0.30278083970340541 0 -0.27753065875984329 0.30327410754998058 0 -0.27514776209796898 0.30785266251660498 0 -0.28274061889410179 0.30278083970340541 0 -0.27753065875984329 0.30327410754998058 0 -0.27326763327687947 0.30016750757533939 0 -0.27348155140824082 0.30658246875079598 0 -0.28086439858034518 0.29805776896436298 0 -0.27753065875984329 0.30327410754998058 0 -0.27326763327687947 0.30016750757533939 0 -0.27573637841232751 0.29432500902679382 0 -0.28086439858034518 0.29805776896436298 0 -0.27326763327687947 0.30016750757533939 0 -0.26661761067819428 0.2958317928062858 0 -0.27326763327687947 0.30016750757533939 0 -0.26721257633701828 0.30790943684761429 0 -0.26721257633701828 0.30790943684761429 0 -0.27514776209796898 0.30785266251660498 0 -0.27123720609067609 0.3158529302113221 0 -0.26721257633701828 0.30790943684761429 0 -0.27348155140824082 0.30658246875079598 0 -0.27514776209796898 0.30785266251660498 0 -0.26721257633701828 0.30790943684761429 0 -0.27514776209796898 0.30785266251660498 0 -0.27326763327687947 0.30016750757533939 0 -0.26721257633701828 0.30790943684761429 0 -0.27348155140824082 0.30658246875079598 0 -0.27514776209796898 0.30785266251660498 0 -0.2851872012256097 0.31550597615259851 0 -0.27753065875984329 0.30327410754998058 0 -0.27348155140824082 0.30658246875079598 0 -0.27514776209796898 0.30785266251660498 0 -0.27348155140824082 0.30658246875079598 0 -0.27514776209796898 0.30785266251660498 0 -0.27514776209796898 0.30785266251660498 0 -0.2905575990275322 0.30774240886798532 0 -0.27514776209796898 0.30785266251660498 0 -0.2905575990275322 0.30774240886798532 0 -0.2851872012256097 0.31550597615259851 0 -0.2896026760048197 0.2969772506180926 0 -0.2905575990275322 0.30774240886798532 0 -0.30493521127791462 0.28695781074044469 0 -0.27514776209796898 0.30785266251660498 0 -0.28274061889410179 0.30278083970340541 0 -0.2905575990275322 0.30774240886798532 0 -0.2905575990275322 0.30774240886798532 0 -0.2851872012256097 0.31550597615259851 0 -0.28274061889410179 0.30278083970340541 0 -0.2896026760048197 0.2969772506180926 0 -0.2905575990275322 0.30774240886798532 0 -0.28086439858034518 0.29805776896436298 0 -0.28274061889410179 0.30278083970340541 0 -0.2896026760048197 0.2969772506180926 0 -0.28401529333418091 0.28255904946725641 0 -0.28313816676434478 0.29069510378855717 0 -0.29095683727235372 0.28753395384208091 0 -0.28086439858034518 0.29805776896436298 0 -0.2896026760048197 0.2969772506180926 0 -0.28313816676434478 0.29069510378855717 0 -0.2896026760048197 0.2969772506180926 0 -0.28313816676434478 0.29069510378855717 0 -0.29095683727235372 0.28753395384208091 0 -0.2896026760048197 0.2969772506180926 0 -0.29095683727235372 0.28753395384208091 0 -0.30493521127791462 0.28695781074044469 0 -0.29309283898050847 0.28048055459605348 0 -0.29095683727235372 0.28753395384208091 0 -0.30493521127791462 0.28695781074044469 0 -0.29309283898050847 0.28048055459605348 0 -0.28401529333418091 0.28255904946725641 0 -0.29095683727235372 0.28753395384208091 0 -0.31699951866320542 0.30755322334125379 0 -0.2905575990275322 0.30774240886798532 0 -0.30563014257680821 0.31779627416788381 0 -0.31699951866320542 0.30755322334125379 0 -0.2905575990275322 0.30774240886798532 0 -0.2905575990275322 0.30774240886798532 0 -0.30493521127791462 0.28695781074044469 0 -0.31699951866320542 0.30755322334125379 0 -0.2905575990275322 0.30774240886798532 0 -0.30493521127791462 0.28695781074044469 0 -0.30538608464820588 0.33090408634228141 0 -0.28942706780696309 0.31873813168532672 0 -0.30563014257680821 0.31779627416788381 0 -0.30538608464820588 0.33090408634228141 0 -0.31811651498789978 0.32488887006413791 0 -0.30563014257680821 0.31779627416788381 0 -0.30538608464820588 0.33090408634228141 0 -0.2937791937433501 0.31637108240395312 0 -0.30538608464820588 0.33090408634228141 0 -0.3017933608705089 0.344447887165377 0 -0.32134510148944728 0.34307004099923799 0 -0.30538608464820588 0.33090408634228141 0 -0.29093013722955491 0.33661105704622479 0 -0.3017933608705089 0.344447887165377 0 -0.30538608464820588 0.33090408634228141 0 -0.29093013722955491 0.33661105704622479 0 -0.2885751077852815 0.32830696870384862 0 -0.29093013722955491 0.33661105704622479 0 -0.28224162025157051 0.34582573333151501 0 -0.3017933608705089 0.344447887165377 0 -0.2885751077852815 0.32830696870384862 0 -0.28146834572906437 0.33465123959114113 0 -0.2790455690922089 0.3243844570517187 0 -0.29093013722955491 0.33661105704622479 0 -0.2885751077852815 0.32830696870384862 0 -0.28146834572906437 0.33465123959114113 0 -0.29093013722955491 0.33661105704622479 0 -0.28146834572906437 0.33465123959114113 0 -0.28224162025157051 0.34582573333151501 0 -0.30538608464820588 0.33090408634228141 0 -0.2885751077852815 0.32830696870384862 0 -0.28942706780696309 0.31873813168532672 0 -0.30538608464820588 0.33090408634228141 0 -0.28942706780696309 0.31873813168532672 0 -0.2937791937433501 0.31637108240395312 0 -0.28942706780696309 0.31873813168532672 0 -0.2937791937433501 0.31637108240395312 0 -0.2851872012256097 0.31550597615259851 0 -0.2905575990275322 0.30774240886798532 0 -0.30563014257680821 0.31779627416788381 0 -0.2937791937433501 0.31637108240395312 0 -0.2905575990275322 0.30774240886798532 0 -0.2937791937433501 0.31637108240395312 0 -0.2851872012256097 0.31550597615259851 0 -0.28942706780696309 0.31873813168532672 0 -0.2937791937433501 0.31637108240395312 0 -0.2885751077852815 0.32830696870384862 0 -0.28942706780696309 0.31873813168532672 0 -0.2790455690922089 0.3243844570517187 0 -0.28942706780696309 0.31873813168532672 0 -0.2790455690922089 0.3243844570517187 0 -0.2851872012256097 0.31550597615259851 0 -0.2790455690922089 0.3243844570517187 0 -0.28942706780696309 0.31873813168532672 0 -0.2851872012256097 0.31550597615259851 0 -0.2790455690922089 0.3243844570517187 0 -0.28942706780696309 0.31873813168532672 0 -0.2851872012256097 0.31550597615259851 0 -0.27514776209796898 0.30785266251660498 0 -0.2851872012256097 0.31550597615259851 0 -0.27699557949655113 0.31645322234696882 0 -0.2851872012256097 0.31550597615259851 0 -0.27699557949655113 0.31645322234696882 0 -0.2790455690922089 0.3243844570517187 0 -0.27514776209796898 0.30785266251660498 0 -0.27699557949655113 0.31645322234696882 0 -0.27123720609067609 0.3158529302113221 0 -0.27001263578126711 0.32263717043347712 0 -0.2790455690922089 0.3243844570517187 0 -0.25910260253645218 0.33523110656146687 0 -0.26721257633701828 0.30790943684761429 0 -0.27123720609067609 0.3158529302113221 0 -0.26528599585519008 0.31471464054907522 0 -0.27699557949655113 0.31645322234696882 0 -0.27123720609067609 0.3158529302113221 0 -0.27001263578126711 0.32263717043347712 0 -0.27123720609067609 0.3158529302113221 0 -0.26528599585519008 0.31471464054907522 0 -0.26368222169044719 0.32126413599590953 0 -0.27123720609067609 0.3158529302113221 0 -0.27001263578126711 0.32263717043347712 0 -0.26368222169044719 0.32126413599590953 0 -0.27699557949655113 0.31645322234696882 0 -0.27001263578126711 0.32263717043347712 0 -0.2790455690922089 0.3243844570517187 0 -0.2790455690922089 0.3243844570517187 0 -0.25910260253645218 0.33523110656146687 0 -0.2790455690922089 0.3243844570517187 0 -0.26824012707650141 0.34000504592112352 0 -0.28146834572906437 0.33465123959114113 0 -0.2790455690922089 0.3243844570517187 0 -0.26824012707650141 0.34000504592112352 0 -0.2790455690922089 0.3243844570517187 0 -0.26824012707650141 0.34000504592112352 0 -0.25910260253645218 0.33523110656146687 0 -0.28146834572906437 0.33465123959114113 0 -0.26824012707650141 0.34000504592112352 0 -0.28224162025157051 0.34582573333151501 0 -0.25910260253645218 0.33523110656146687 0 -0.25407523553642281 0.3497448278934856 0 -0.23915963598069589 0.34607775607121571 0 -0.25910260253645218 0.33523110656146687 0 -0.25407523553642281 0.3497448278934856 0 -0.26309588156361569 0.34576168367824162 0 -0.26824012707650141 0.34000504592112352 0 -0.25910260253645218 0.33523110656146687 0 -0.26309588156361569 0.34576168367824162 0 -0.25910260253645218 0.33523110656146687 0 -0.25451497659773847 0.32559442806853028 0 -0.24843663428782739 0.33758714710907461 0 -0.25451497659773847 0.32559442806853028 0 -0.25901197930261888 0.31383205914145501 0 -0.24885494741763489 0.31718848033418301 0 -0.25451497659773847 0.32559442806853028 0 -0.25901197930261888 0.31383205914145501 0 -0.26368222169044719 0.32126413599590953 0 -0.25901197930261888 0.31383205914145501 0 -0.26528599585519008 0.31471464054907522 0 -0.26368222169044719 0.32126413599590953 0 -0.27001263578126711 0.32263717043347712 0 -0.25910260253645218 0.33523110656146687 0 -0.26368222169044719 0.32126413599590953 0 -0.25910260253645218 0.33523110656146687 0 -0.25451497659773847 0.32559442806853028 0 -0.26368222169044719 0.32126413599590953 0 -0.26470209097228098 0.37140351159401941 0 -0.25562758441007077 0.36194187249828802 0 -0.266880351992417 0.3582272519812631 0 -0.26470209097228098 0.37140351159401941 0 -0.25213085833087667 0.37355178257669552 0 -0.25562758441007077 0.36194187249828802 0 -0.25213085833087667 0.37355178257669552 0 -0.25562758441007077 0.36194187249828802 0 -0.24329038266145239 0.36134909741814653 0 -0.25562758441007077 0.36194187249828802 0 -0.25407523553642281 0.3497448278934856 0 -0.24329038266145239 0.36134909741814653 0 -0.25407523553642281 0.3497448278934856 0 -0.26309588156361569 0.34576168367824162 0 -0.266880351992417 0.3582272519812631 0 -0.25562758441007077 0.36194187249828802 0 -0.25407523553642281 0.3497448278934856 0 -0.266880351992417 0.3582272519812631 0 -0.266880351992417 0.3582272519812631 0 -0.27640009279511962 0.35155878343443242 0 -0.28837447244510311 0.36628710188532532 0 -0.26309588156361569 0.34576168367824162 0 -0.266880351992417 0.3582272519812631 0 -0.27640009279511962 0.35155878343443242 0 -0.26824012707650141 0.34000504592112352 0 -0.26309588156361569 0.34576168367824162 0 -0.27640009279511962 0.35155878343443242 0 -0.26824012707650141 0.34000504592112352 0 -0.27640009279511962 0.35155878343443242 0 -0.28224162025157051 0.34582573333151501 0 -0.266880351992417 0.3582272519812631 0 -0.28837447244510311 0.36628710188532532 0 -0.266880351992417 0.3582272519812631 0 -0.28837447244510311 0.36628710188532532 0 -0.27747916353329311 0.37529003384729942 0 -0.26470209097228098 0.37140351159401941 0 -0.266880351992417 0.3582272519812631 0 -0.27747916353329311 0.37529003384729942 0 -0.28837447244510311 0.36628710188532532 0 -0.28714059247178902 0.37543321948423419 0 -0.27747916353329311 0.37529003384729942 0 -0.28837447244510311 0.36628710188532532 0 -0.28956810344150979 0.35324588380912608 0 -0.30292150033679799 0.36018321991941088 0 -0.28837447244510311 0.36628710188532532 0 -0.29874239202075642 0.37528196759933868 0 -0.28714059247178902 0.37543321948423419 0 -0.28224162025157051 0.34582573333151501 0 -0.3017933608705089 0.344447887165377 0 -0.28224162025157051 0.34582573333151501 0 -0.28956810344150979 0.35324588380912608 0 -0.3017933608705089 0.344447887165377 0 -0.27640009279511962 0.35155878343443242 0 -0.28224162025157051 0.34582573333151501 0 -0.28956810344150979 0.35324588380912608 0 -0.27640009279511962 0.35155878343443242 0 -0.28837447244510311 0.36628710188532532 0 -0.28956810344150979 0.35324588380912608 0 -0.3017933608705089 0.344447887165377 0 -0.31193410579265052 0.3536039280541286 0 -0.30292150033679799 0.36018321991941088 0 -0.28956810344150979 0.35324588380912608 0 -0.3017933608705089 0.344447887165377 0 -0.30292150033679799 0.36018321991941088 0 -0.3017933608705089 0.344447887165377 0 -0.32134510148944728 0.34307004099923799 0 -0.3017933608705089 0.344447887165377 0 -0.31193410579265052 0.3536039280541286 0 -0.32134510148944728 0.34307004099923799 0 -0.31193410579265052 0.3536039280541286 0 -0.30292150033679799 0.36018321991941088 0 -0.31340485972314069 0.36375751913665871 0 -0.28837447244510311 0.36628710188532532 0 -0.30292150033679799 0.36018321991941088 0 -0.30986859289778912 0.37434695178938759 0 -0.28837447244510311 0.36628710188532532 0 -0.30986859289778912 0.37434695178938759 0 -0.28837447244510311 0.36628710188532532 0 -0.30986859289778912 0.37434695178938759 0 -0.29874239202075642 0.37528196759933868 0 -0.30292150033679799 0.36018321991941088 0 -0.30986859289778912 0.37434695178938759 0 -0.31340485972314069 0.36375751913665871 0 -0.30986859289778912 0.37434695178938759 0 -0.31340485972314069 0.36375751913665871 0 -0.32167824364597858 0.36970754211250728 0 -0.31340485972314069 0.36375751913665871 0 -0.32243327870136801 0.35950699838777223 0 -0.32167824364597858 0.36970754211250728 0 -0.32243327870136801 0.35950699838777223 0 -0.32167824364597858 0.36970754211250728 0 -0.33132177355711989 0.36851943955526861 0 -0.32167824364597858 0.36970754211250728 0 -0.33132177355711989 0.36851943955526861 0 -0.33136271335047512 0.38240680169344993 0 -0.32243327870136801 0.35950699838777223 0 -0.33132177355711989 0.36851943955526861 0 -0.33989838930305449 0.35721367281084643 0 -0.33132177355711989 0.36851943955526861 0 -0.34304766554360439 0.37232322735168022 0 -0.33136271335047512 0.38240680169344993 0 -0.33132177355711989 0.36851943955526861 0 -0.34304766554360439 0.37232322735168022 0 -0.33989838930305449 0.35721367281084643 0 -0.33989838930305449 0.35721367281084643 0 -0.32134510148944728 0.34307004099923799 0 -0.33989838930305449 0.35721367281084643 0 -0.32134510148944728 0.34307004099923799 0 -0.3500233487104954 0.34104903357308669 0 -0.32243327870136801 0.35950699838777223 0 -0.33989838930305449 0.35721367281084643 0 -0.32134510148944728 0.34307004099923799 0 -0.31193410579265052 0.3536039280541286 0 -0.32243327870136801 0.35950699838777223 0 -0.32134510148944728 0.34307004099923799 0 -0.31193410579265052 0.3536039280541286 0 -0.31340485972314069 0.36375751913665871 0 -0.32243327870136801 0.35950699838777223 0 -0.30538608464820588 0.33090408634228141 0 -0.32134510148944728 0.34307004099923799 0 -0.30538608464820588 0.33090408634228141 0 -0.32134510148944728 0.34307004099923799 0 -0.31811651498789978 0.32488887006413791 0 -0.32134510148944728 0.34307004099923799 0 -0.31811651498789978 0.32488887006413791 0 -0.33459812393413729 0.32207732583041709 0 -0.31699951866320542 0.30755322334125379 0 -0.30563014257680821 0.31779627416788381 0 -0.31811651498789978 0.32488887006413791 0 -0.31699951866320542 0.30755322334125379 0 -0.31811651498789978 0.32488887006413791 0 -0.33459812393413729 0.32207732583041709 0 -0.32134510148944728 0.34307004099923799 0 -0.34342889555096417 0.33131534648734451 0 -0.3500233487104954 0.34104903357308669 0 -0.32134510148944728 0.34307004099923799 0 -0.33459812393413729 0.32207732583041709 0 -0.34342889555096417 0.33131534648734451 0 -0.32134510148944728 0.34307004099923799 0 -0.3500233487104954 0.34104903357308669 0 -0.3500233487104954 0.34104903357308669 0 -0.35650114511620551 0.33294276438790088 0 -0.36794029410566942 0.33226259727897972 0 -0.34342889555096417 0.33131534648734451 0 -0.3500233487104954 0.34104903357308669 0 -0.35650114511620551 0.33294276438790088 0 -0.33459812393413729 0.32207732583041709 0 -0.34342889555096417 0.33131534648734451 0 -0.35467675850453528 0.31743756764607989 0 -0.34344143829887858 0.30736403781452232 0 -0.33459812393413729 0.32207732583041709 0 -0.35467675850453528 0.31743756764607989 0 -0.35650114511620551 0.33294276438790088 0 -0.35467675850453528 0.31743756764607989 0 -0.36272901898995358 0.31473918551029578 0 -0.34342889555096417 0.33131534648734451 0 -0.35650114511620551 0.33294276438790088 0 -0.35467675850453528 0.31743756764607989 0 -0.35650114511620551 0.33294276438790088 0 -0.36272901898995358 0.31473918551029578 0 -0.37415321332832258 0.31386652142517069 0 -0.35650114511620551 0.33294276438790088 0 -0.37415321332832258 0.31386652142517069 0 -0.35650114511620551 0.33294276438790088 0 -0.37442838800096029 0.32044424157556423 0 -0.37415321332832258 0.31386652142517069 0 -0.37816355277066899 0.32985684687273281 0 -0.37442838800096029 0.32044424157556423 0 -0.36794029410566942 0.33226259727897972 0 -0.3787015959315434 0.33902802614693439 0 -0.3500233487104954 0.34104903357308669 0 -0.36794029410566942 0.33226259727897972 0 -0.35650114511620551 0.33294276438790088 0 -0.37442838800096029 0.32044424157556423 0 -0.36794029410566942 0.33226259727897972 0 -0.3787015959315434 0.33902802614693439 0 -0.3500233487104954 0.34104903357308669 0 -0.3787015959315434 0.33902802614693439 0 -0.37816355277066899 0.32985684687273281 0 -0.36794029410566942 0.33226259727897972 0 -0.3787015959315434 0.33902802614693439 0 -0.3500233487104954 0.34104903357308669 0 -0.36501658974902518 0.35367198233662939 0 -0.37823932191431281 0.35548757599615399 0 -0.3787015959315434 0.33902802614693439 0 -0.36501658974902518 0.35367198233662939 0 -0.37823932191431281 0.35548757599615399 0 -0.36501658974902518 0.35367198233662939 0 -0.37024808467873749 0.36543132639488701 0 -0.36501658974902518 0.35367198233662939 0 -0.37024808467873749 0.36543132639488701 0 -0.35845167711666143 0.37135730462245548 0 -0.37949655700884349 0.37153259571527891 0 -0.37024808467873749 0.36543132639488701 0 -0.36758280318953013 0.37627165255961892 0 -0.37024808467873749 0.36543132639488701 0 -0.35845167711666143 0.37135730462245548 0 -0.36758280318953013 0.37627165255961892 0 -0.36501658974902518 0.35367198233662939 0 -0.35845167711666143 0.37135730462245548 0 -0.35334750121980912 0.35582299833575448 0 -0.34304766554360439 0.37232322735168022 0 -0.33989838930305449 0.35721367281084643 0 -0.35845167711666143 0.37135730462245548 0 -0.33989838930305449 0.35721367281084643 0 -0.35845167711666143 0.37135730462245548 0 -0.35334750121980912 0.35582299833575448 0 -0.33989838930305449 0.35721367281084643 0 -0.35845167711666143 0.37135730462245548 0 -0.33989838930305449 0.35721367281084643 0 -0.3500233487104954 0.34104903357308669 0 -0.35334750121980912 0.35582299833575448 0 -0.3500233487104954 0.34104903357308669 0 -0.36501658974902518 0.35367198233662939 0 -0.35334750121980912 0.35582299833575448 0 -0.35285683380316007 0.39046665159751448 0 -0.36027192889352422 0.40897543894708011 0 -0.34270265381785459 0.40768080501023862 0 -0.34304766554360439 0.37232322735168022 0 -0.35845167711666143 0.37135730462245548 0 -0.35285683380316007 0.39046665159751448 0 -0.37686086334024771 0.38257038446795849 0 -0.35285683380316007 0.39046665159751448 0 -0.37686086334024771 0.38257038446795849 0 -0.35285683380316007 0.39046665159751448 0 -0.36758280318953013 0.37627165255961892 0 -0.35845167711666143 0.37135730462245548 0 -0.35285683380316007 0.39046665159751448 0 -0.36758280318953013 0.37627165255961892 0 -0.37686086334024771 0.38257038446795849 0 -0.37949655700884349 0.37153259571527891 0 -0.36758280318953013 0.37627165255961892 0 -0.37769092578324193 0.39977892163450779 0 -0.35285683380316007 0.39046665159751448 0 -0.37769092578324193 0.39977892163450779 0 -0.37686086334024771 0.38257038446795849 0 -0.35285683380316007 0.39046665159751448 0 -0.37769092578324193 0.39977892163450779 0 -0.35285683380316007 0.39046665159751448 0 -0.36027192889352422 0.40897543894708011 0 -0.37875820238401509 0.42613984176471847 0 -0.37769092578324193 0.39977892163450779 0 -0.36027192889352422 0.40897543894708011 0 -0.37875820238401509 0.42613984176471847 0 -0.36027192889352422 0.40897543894708011 0 -0.36048507512927641 0.42545129427310208 0 -0.37875820238401509 0.42613984176471847 0 -0.36048507512927641 0.42545129427310208 0 -0.35499138700470761 0.44318849185793469 0 -0.37875820238401509 0.42613984176471847 0 -0.35499138700470761 0.44318849185793469 0 -0.34691622899781399 0.42161541908905831 0 -0.33223168701086447 0.43660936806356893 0 -0.35499138700470761 0.44318849185793469 0 -0.36048507512927641 0.42545129427310208 0 -0.34691622899781399 0.42161541908905831 0 -0.35499138700470761 0.44318849185793469 0 -0.36027192889352422 0.40897543894708011 0 -0.34691622899781399 0.42161541908905831 0 -0.34270265381785459 0.40768080501023862 0 -0.36027192889352422 0.40897543894708011 0 -0.36048507512927641 0.42545129427310208 0 -0.34691622899781399 0.42161541908905831 0 -0.34270265381785459 0.40768080501023862 0 -0.32841174735063311 0.41773478988879181 0 -0.32505653004414181 0.39961172552874852 0 -0.34691622899781399 0.42161541908905831 0 -0.34270265381785459 0.40768080501023862 0 -0.32841174735063311 0.41773478988879181 0 -0.34691622899781399 0.42161541908905831 0 -0.32841174735063311 0.41773478988879181 0 -0.33223168701086447 0.43660936806356893 0 -0.32841174735063311 0.41773478988879181 0 -0.33223168701086447 0.43660936806356893 0 -0.31148998866141242 0.43181261152586448 0 -0.32841174735063311 0.41773478988879181 0 -0.31441363705571701 0.41408607272300291 0 -0.32505653004414181 0.39961172552874852 0 -0.32841174735063311 0.41773478988879181 0 -0.31441363705571701 0.41408607272300291 0 -0.31148998866141242 0.43181261152586448 0 -0.32505653004414181 0.39961172552874852 0 -0.31219235154091651 0.39185403334122892 0 -0.30619500853749271 0.39725637532293351 0 -0.32505653004414181 0.39961172552874852 0 -0.31778050989885959 0.38527433798844479 0 -0.31219235154091651 0.39185403334122892 0 -0.35285683380316007 0.39046665159751448 0 -0.32505653004414181 0.39961172552874852 0 -0.33136271335047512 0.38240680169344993 0 -0.35285683380316007 0.39046665159751448 0 -0.34270265381785459 0.40768080501023862 0 -0.32505653004414181 0.39961172552874852 0 -0.35285683380316007 0.39046665159751448 0 -0.32505653004414181 0.39961172552874852 0 -0.35285683380316007 0.39046665159751448 0 -0.33136271335047512 0.38240680169344993 0 -0.34304766554360439 0.37232322735168022 0 -0.35285683380316007 0.39046665159751448 0 -0.33136271335047512 0.38240680169344993 0 -0.30986859289778912 0.37434695178938759 0 -0.32167824364597858 0.36970754211250728 0 -0.33136271335047512 0.38240680169344993 0 -0.30986859289778912 0.37434695178938759 0 -0.33136271335047512 0.38240680169344993 0 -0.32505653004414181 0.39961172552874852 0 -0.33136271335047512 0.38240680169344993 0 -0.31778050989885959 0.38527433798844479 0 -0.30986859289778912 0.37434695178938759 0 -0.33136271335047512 0.38240680169344993 0 -0.31778050989885959 0.38527433798844479 0 -0.30986859289778912 0.37434695178938759 0 -0.31778050989885959 0.38527433798844479 0 -0.30574515252343709 0.38648905476423068 0 -0.30986859289778912 0.37434695178938759 0 -0.30574515252343709 0.38648905476423068 0 -0.29874239202075642 0.37528196759933868 0 -0.30574515252343709 0.38648905476423068 0 -0.29874239202075642 0.37528196759933868 0 -0.29146244090030071 0.40289140707507309 0 -0.31778050989885959 0.38527433798844479 0 -0.30574515252343709 0.38648905476423068 0 -0.31219235154091651 0.39185403334122892 0 -0.32505653004414181 0.39961172552874852 0 -0.30619500853749271 0.39725637532293351 0 -0.29725622628512233 0.40875679945997928 0 -0.32505653004414181 0.39961172552874852 0 -0.29725622628512233 0.40875679945997928 0 -0.30574515252343709 0.38648905476423068 0 -0.30619500853749271 0.39725637532293351 0 -0.29146244090030071 0.40289140707507309 0 -0.30574515252343709 0.38648905476423068 0 -0.31219235154091651 0.39185403334122892 0 -0.30619500853749271 0.39725637532293351 0 -0.30619500853749271 0.39725637532293351 0 -0.29146244090030071 0.40289140707507309 0 -0.29725622628512233 0.40875679945997928 0 -0.29146244090030071 0.40289140707507309 0 -0.2882496590958894 0.39023794275143442 0 -0.278827461574497 0.39790462172635238 0 -0.28396634188800352 0.38487377460497352 0 -0.2882496590958894 0.39023794275143442 0 -0.278827461574497 0.39790462172635238 0 -0.29146244090030071 0.40289140707507309 0 -0.278827461574497 0.39790462172635238 0 -0.27940045790464241 0.41220012044695847 0 -0.29874239202075642 0.37528196759933868 0 -0.29146244090030071 0.40289140707507309 0 -0.29874239202075642 0.37528196759933868 0 -0.29146244090030071 0.40289140707507309 0 -0.2882496590958894 0.39023794275143442 0 -0.29874239202075642 0.37528196759933868 0 -0.28396634188800352 0.38487377460497352 0 -0.28714059247178902 0.37543321948423419 0 -0.29874239202075642 0.37528196759933868 0 -0.28396634188800352 0.38487377460497352 0 -0.2882496590958894 0.39023794275143442 0 -0.28396634188800352 0.38487377460497352 0 -0.28714059247178902 0.37543321948423419 0 -0.27747916353329311 0.37529003384729942 0 -0.28396634188800352 0.38487377460497352 0 -0.27747916353329311 0.37529003384729942 0 -0.26775424033426293 0.38456849691175748 0 -0.28396634188800352 0.38487377460497352 0 -0.26775424033426293 0.38456849691175748 0 -0.278827461574497 0.39790462172635238 0 -0.26470209097228098 0.37140351159401941 0 -0.27747916353329311 0.37529003384729942 0 -0.26775424033426293 0.38456849691175748 0 -0.278827461574497 0.39790462172635238 0 -0.26298604578065232 0.3973558675440883 0 -0.2677584473194361 0.40899541659639099 0 -0.26775424033426293 0.38456849691175748 0 -0.278827461574497 0.39790462172635238 0 -0.26298604578065232 0.3973558675440883 0 -0.26298604578065232 0.3973558675440883 0 -0.25152819264859128 0.38883491631829081 0 -0.2490618870264745 0.40647588616764979 0 -0.26298604578065232 0.3973558675440883 0 -0.2677584473194361 0.40899541659639099 0 -0.2490618870264745 0.40647588616764979 0 -0.25213085833087667 0.37355178257669552 0 -0.26775424033426293 0.38456849691175748 0 -0.25152819264859128 0.38883491631829081 0 -0.26775424033426293 0.38456849691175748 0 -0.26298604578065232 0.3973558675440883 0 -0.25152819264859128 0.38883491631829081 0 -0.26470209097228098 0.37140351159401941 0 -0.25213085833087667 0.37355178257669552 0 -0.26775424033426293 0.38456849691175748 0 -0.2572482915111563 0.42152384209731297 0 -0.26330490497154813 0.43976041958731371 0 -0.24092688658692171 0.43286849171069308 0 -0.2572482915111563 0.42152384209731297 0 -0.27163392734069919 0.42205675226444578 0 -0.26330490497154813 0.43976041958731371 0 -0.2572482915111563 0.42152384209731297 0 -0.2677584473194361 0.40899541659639099 0 -0.2490618870264745 0.40647588616764979 0 -0.2572482915111563 0.42152384209731297 0 -0.2677584473194361 0.40899541659639099 0 -0.27163392734069919 0.42205675226444578 0 -0.27940045790464241 0.41220012044695847 0 -0.27163392734069919 0.42205675226444578 0 -0.28418248977984512 0.43050084655080739 0 -0.2677584473194361 0.40899541659639099 0 -0.27940045790464241 0.41220012044695847 0 -0.27163392734069919 0.42205675226444578 0 -0.278827461574497 0.39790462172635238 0 -0.2677584473194361 0.40899541659639099 0 -0.27940045790464241 0.41220012044695847 0 -0.27163392734069919 0.42205675226444578 0 -0.28418248977984512 0.43050084655080739 0 -0.26330490497154813 0.43976041958731371 0 -0.28418248977984512 0.43050084655080739 0 -0.29943060469912958 0.42576946359573847 0 -0.28981068171355151 0.44369098771903792 0 -0.29146244090030071 0.40289140707507309 0 -0.28418248977984512 0.43050084655080739 0 -0.29146244090030071 0.40289140707507309 0 -0.27940045790464241 0.41220012044695847 0 -0.28418248977984512 0.43050084655080739 0 -0.28418248977984512 0.43050084655080739 0 -0.29725622628512233 0.40875679945997928 0 -0.29943060469912958 0.42576946359573847 0 -0.29146244090030071 0.40289140707507309 0 -0.28418248977984512 0.43050084655080739 0 -0.29725622628512233 0.40875679945997928 0 -0.31441363705571701 0.41408607272300291 0 -0.32505653004414181 0.39961172552874852 0 -0.29725622628512233 0.40875679945997928 0 -0.31441363705571701 0.41408607272300291 0 -0.29725622628512233 0.40875679945997928 0 -0.29943060469912958 0.42576946359573847 0 -0.31441363705571701 0.41408607272300291 0 -0.29943060469912958 0.42576946359573847 0 -0.31148998866141242 0.43181261152586448 0 -0.29943060469912958 0.42576946359573847 0 -0.31148998866141242 0.43181261152586448 0 -0.28981068171355151 0.44369098771903792 0 -0.31148998866141242 0.43181261152586448 0 -0.30120616623050861 0.45239726712555162 0 -0.31718999816658727 0.45065056632578487 0 -0.31148998866141242 0.43181261152586448 0 -0.30120616623050861 0.45239726712555162 0 -0.31148998866141242 0.43181261152586448 0 -0.30120616623050861 0.45239726712555162 0 -0.28981068171355151 0.44369098771903792 0 -0.30120616623050861 0.45239726712555162 0 -0.29092234379960469 0.47298192272523881 0 -0.30745775624609217 0.47728579204436761 0 -0.30120616623050861 0.45239726712555162 0 -0.30745775624609217 0.47728579204436761 0 -0.31718999816658727 0.45065056632578487 0 -0.2852957606144535 0.45730244818253718 0 -0.28186649269177161 0.46567885888970018 0 -0.29092234379960469 0.47298192272523881 0 -0.30120616623050861 0.45239726712555162 0 -0.29092234379960469 0.47298192272523881 0 -0.30120616623050861 0.45239726712555162 0 -0.2852957606144535 0.45730244818253718 0 -0.29092234379960469 0.47298192272523881 0 -0.2852957606144535 0.45730244818253718 0 -0.28186649269177161 0.46567885888970018 0 -0.27690253865938408 0.45811028602654041 0 -0.28418248977984512 0.43050084655080739 0 -0.28981068171355151 0.44369098771903792 0 -0.27690253865938408 0.45811028602654041 0 -0.30120616623050861 0.45239726712555162 0 -0.2852957606144535 0.45730244818253718 0 -0.28981068171355151 0.44369098771903792 0 -0.2852957606144535 0.45730244818253718 0 -0.28981068171355151 0.44369098771903792 0 -0.27690253865938408 0.45811028602654041 0 -0.28418248977984512 0.43050084655080739 0 -0.27690253865938408 0.45811028602654041 0 -0.28418248977984512 0.43050084655080739 0 -0.27690253865938408 0.45811028602654041 0 -0.26330490497154813 0.43976041958731371 0 -0.2852957606144535 0.45730244818253718 0 -0.27690253865938408 0.45811028602654041 0 -0.28186649269177161 0.46567885888970018 0 -0.27690253865938408 0.45811028602654041 0 -0.27835780074514338 0.47366975871288508 0 -0.27690253865938408 0.45811028602654041 0 -0.25345677561811758 0.46036691342989022 0 -0.27690253865938408 0.45811028602654041 0 -0.25345677561811758 0.46036691342989022 0 -0.26590293397843329 0.47057525233348851 0 -0.25345677561811758 0.46036691342989022 0 -0.25315469521642581 0.4750486889203015 0 -0.26590293397843329 0.47057525233348851 0 -0.25345677561811758 0.46036691342989022 0 -0.26330490497154813 0.43976041958731371 0 -0.24129970279445639 0.44943490890582899 0 -0.27690253865938408 0.45811028602654041 0 -0.25345677561811758 0.46036691342989022 0 -0.26330490497154813 0.43976041958731371 0 -0.26169037092037989 0.4910190989046625 0 -0.25397816739109252 0.5 0 -0.27113802145370669 0.49283981386083792 0 -0.26169037092037989 0.4910190989046625 0 -0.25474868654415728 0.48692894813519849 0 -0.26689660829256312 0.48430763362261348 0 -0.26169037092037989 0.4910190989046625 0 -0.25397816739109252 0.5 0 -0.25474868654415728 0.48692894813519849 0 -0.25315469521642581 0.4750486889203015 0 -0.26689660829256312 0.48430763362261348 0 -0.25315469521642581 0.4750486889203015 0 -0.26689660829256312 0.48430763362261348 0 -0.26590293397843329 0.47057525233348851 0 -0.25474868654415728 0.48692894813519849 0 -0.25315469521642581 0.4750486889203015 0 -0.26689660829256312 0.48430763362261348 0 -0.27690253865938408 0.45811028602654041 0 -0.26590293397843329 0.47057525233348851 0 -0.26946370716205509 0.4860372782758946 0 -0.27690253865938408 0.45811028602654041 0 -0.26946370716205509 0.4860372782758946 0 -0.27690253865938408 0.45811028602654041 0 -0.27835780074514338 0.47366975871288508 0 -0.26946370716205509 0.4860372782758946 0 -0.26689660829256312 0.48430763362261348 0 -0.26590293397843329 0.47057525233348851 0 -0.26946370716205509 0.4860372782758946 0 -0.28186649269177161 0.46567885888970018 0 -0.27835780074514338 0.47366975871288508 0 -0.28298297564177088 0.4743823417855309 0 -0.27835780074514338 0.47366975871288508 0 -0.2798907507987049 0.48286402398659151 0 -0.28298297564177088 0.4743823417855309 0 -0.27835780074514338 0.47366975871288508 0 -0.2798907507987049 0.48286402398659151 0 -0.26946370716205509 0.4860372782758946 0 -0.26946370716205509 0.4860372782758946 0 -0.28063852136870049 0.49356657832492562 0 -0.26946370716205509 0.4860372782758946 0 -0.27113802145370669 0.49283981386083792 0 -0.28063852136870049 0.49356657832492562 0 -0.2798907507987049 0.48286402398659151 0 -0.26946370716205509 0.4860372782758946 0 -0.28063852136870049 0.49356657832492562 0 -0.25397816739109252 0.5 0 -0.27113802145370669 0.49283981386083792 0 -0.27742446875513049 0.50000000000000155 0 -0.26689660829256312 0.48430763362261348 0 -0.26946370716205509 0.4860372782758946 0 -0.27113802145370669 0.49283981386083792 0 -0.26169037092037989 0.4910190989046625 0 -0.26689660829256312 0.48430763362261348 0 -0.27113802145370669 0.49283981386083792 0 -0.26689660829256312 0.48430763362261348 0 -0.26946370716205509 0.4860372782758946 0 -0.27113802145370669 0.49283981386083792 0 -0.28063852136870049 0.49356657832492562 0 -0.27742446875513049 0.50000000000000155 0 -0.28063852136870049 0.49356657832492562 0 -0.27742446875513049 0.50000000000000155 0 -0.28063852136870049 0.49356657832492562 0 -0.27742446875513049 0.50000000000000155 0 -0.29018685806186229 0.50000000000000122 0 -0.28063852136870049 0.49356657832492562 0 -0.29018685806186229 0.50000000000000122 0 -0.29092234379960469 0.47298192272523881 0 -0.28063852136870049 0.49356657832492562 0 -0.29018685806186229 0.50000000000000122 0 -0.29018685806186229 0.50000000000000122 0 -0.29092234379960469 0.47298192272523881 0 -0.30745775624609217 0.47728579204436761 0 -0.28063852136870049 0.49356657832492562 0 -0.29092234379960469 0.47298192272523881 0 -0.2798907507987049 0.48286402398659151 0 -0.28063852136870049 0.49356657832492562 0 -0.29092234379960469 0.47298192272523881 0 -0.28186649269177161 0.46567885888970018 0 -0.28298297564177088 0.4743823417855309 0 -0.29092234379960469 0.47298192272523881 0 -0.2798907507987049 0.48286402398659151 0 -0.28298297564177088 0.4743823417855309 0 -0.29092234379960469 0.47298192272523881 0 -0.29018685806186229 0.50000000000000122 0 -0.30745775624609217 0.47728579204436761 0 -0.3640375775585698 0.5 0 -0.30745775624609217 0.47728579204436761 0 -0.33122457162539992 0.46023714195115112 0 -0.3640375775585698 0.5 0 -0.30745775624609217 0.47728579204436761 0 -0.33122457162539992 0.46023714195115112 0 -0.30745775624609217 0.47728579204436761 0 -0.31718999816658727 0.45065056632578487 0 -0.33122457162539992 0.46023714195115112 0 -0.33223168701086447 0.43660936806356893 0 -0.31148998866141242 0.43181261152586448 0 -0.31718999816658727 0.45065056632578487 0 -0.33223168701086447 0.43660936806356893 0 -0.31718999816658727 0.45065056632578487 0 -0.33122457162539992 0.46023714195115112 0 -0.33122457162539992 0.46023714195115112 0 -0.35499138700470761 0.44318849185793469 0 -0.33223168701086447 0.43660936806356893 0 -0.33122457162539992 0.46023714195115112 0 -0.35499138700470761 0.44318849185793469 0 -0.33122457162539992 0.46023714195115112 0 -0.35376164566254242 0.46494380824906301 0 -0.35499138700470761 0.44318849185793469 0 -0.38249991962136642 0.44345487931465249 0 -0.35499138700470761 0.44318849185793469 0 -0.37103467036260362 0.45695891695805302 0 -0.38249991962136642 0.44345487931465249 0 -0.37875820238401509 0.42613984176471847 0 -0.35499138700470761 0.44318849185793469 0 -0.35376164566254242 0.46494380824906301 0 -0.35499138700470761 0.44318849185793469 0 -0.37103467036260362 0.45695891695805302 0 -0.35376164566254242 0.46494380824906301 0 -0.37103467036260362 0.45695891695805302 0 -0.36943712044780219 0.47475959506207249 0 -0.33122457162539992 0.46023714195115112 0 -0.35376164566254242 0.46494380824906301 0 -0.3640375775585698 0.5 0 -0.38891458820749281 0.47713565504117422 0 -0.36943712044780219 0.47475959506207249 0 -0.3640375775585698 0.5 0 -0.35376164566254242 0.46494380824906301 0 -0.36943712044780219 0.47475959506207249 0 -0.3640375775585698 0.5 0 -0.1410608215807003 0.47118489318428192 0 -0.1506389915883973 0.47451242435581331 0 -0.15779819732271971 0.4695739402503486 0 -0.1410608215807003 0.47118489318428192 0 -0.15779819732271971 0.4695739402503486 0 -0.1455325599989582 0.47665965757352818 0 -0.14983465253105441 0.48099067897208148 0 -0.1405957742956809 0.47995063378193648 0 -0.14983465253105441 0.48099067897208148 0 -0.14427471349546869 0.48965289008050411 0 -0.1405957742956809 0.47995063378193648 0 -0.1455325599989582 0.47665965757352818 0 -0.1410608215807003 0.47118489318428192 0 -0.1506389915883973 0.47451242435581331 0 -0.1455325599989582 0.47665965757352818 0 -0.1410608215807003 0.47118489318428192 0 -0.1405957742956809 0.47995063378193648 0 -0.1506389915883973 0.47451242435581331 0 -0.15682389603308189 0.47748605108520858 0 -0.15779819732271971 0.4695739402503486 0 -0.1506389915883973 0.47451242435581331 0 -0.14983465253105441 0.48099067897208148 0 -0.15682389603308189 0.47748605108520858 0 -0.1455325599989582 0.47665965757352818 0 -0.1506389915883973 0.47451242435581331 0 -0.14983465253105441 0.48099067897208148 0 -0.14983465253105441 0.48099067897208148 0 -0.1558122254133027 0.48316327461493752 0 -0.15682389603308189 0.47748605108520858 0 -0.14983465253105441 0.48099067897208148 0 -0.1558122254133027 0.48316327461493752 0 -0.15140604362779489 0.486968875654338 0 -0.1558122254133027 0.48316327461493752 0 -0.15140604362779489 0.486968875654338 0 -0.15545271364459581 0.49281799385228547 0 -0.14983465253105441 0.48099067897208148 0 -0.15140604362779489 0.486968875654338 0 -0.14427471349546869 0.48965289008050411 0 -0.15140604362779489 0.486968875654338 0 -0.15545271364459581 0.49281799385228547 0 -0.14427471349546869 0.48965289008050411 0 -0.15453849507163009 0.5 0 -0.14427471349546869 0.48965289008050411 0 -0.12543772684428189 0.5 0 -0.15453849507163009 0.5 0 -0.15545271364459581 0.49281799385228547 0 -0.14427471349546869 0.48965289008050411 0 -0.14427471349546869 0.48965289008050411 0 -0.12543772684428189 0.5 0 -0.13178312884530541 0.48627570230508688 0 -0.14427471349546869 0.48965289008050411 0 -0.13178312884530541 0.48627570230508688 0 -0.1405957742956809 0.47995063378193648 0 -0.13178312884530541 0.48627570230508688 0 -0.1317912103042716 0.47600940211286807 0 -0.11642361318749669 0.48420448820259387 0 -0.1317912103042716 0.47600940211286807 0 -0.14083201439797821 0.46516349611765162 0 -0.12052644250191399 0.4682622397032008 0 -0.13178312884530541 0.48627570230508688 0 -0.1405957742956809 0.47995063378193648 0 -0.1317912103042716 0.47600940211286807 0 -0.1410608215807003 0.47118489318428192 0 -0.1405957742956809 0.47995063378193648 0 -0.1317912103042716 0.47600940211286807 0 -0.1410608215807003 0.47118489318428192 0 -0.1317912103042716 0.47600940211286807 0 -0.14083201439797821 0.46516349611765162 0 -0.12618187852634369 0.45882241462805679 0 -0.14083201439797821 0.46516349611765162 0 -0.12052644250191399 0.4682622397032008 0 -0.14083201439797821 0.46516349611765162 0 -0.12052644250191399 0.4682622397032008 0 -0.12618187852634369 0.45882241462805679 0 -0.13621980461969219 0.45775649261309698 0 -0.13482926781972801 0.45201676164804122 0 -0.13621980461969219 0.45775649261309698 0 -0.13482926781972801 0.45201676164804122 0 -0.1430360577347192 0.45502329805863873 0 -0.13621980461969219 0.45775649261309698 0 -0.14083201439797821 0.46516349611765162 0 -0.1430360577347192 0.45502329805863873 0 -0.12618187852634369 0.45882241462805679 0 -0.13621980461969219 0.45775649261309698 0 -0.14083201439797821 0.46516349611765162 0 -0.12618187852634369 0.45882241462805679 0 -0.13482926781972801 0.45201676164804122 0 -0.1248743097581413 0.44162978393037222 0 -0.13482926781972801 0.45201676164804122 0 -0.13973201497409549 0.44099892737807922 0 -0.1415241139788854 0.4488412036993919 0 -0.13482926781972801 0.45201676164804122 0 -0.1415241139788854 0.4488412036993919 0 -0.1430360577347192 0.45502329805863873 0 -0.13973201497409549 0.44099892737807922 0 -0.13491063247587859 0.43073185275000708 0 -0.1248743097581413 0.44162978393037222 0 -0.13482926781972801 0.45201676164804122 0 -0.13973201497409549 0.44099892737807922 0 -0.1248743097581413 0.44162978393037222 0 -0.13973201497409549 0.44099892737807922 0 -0.14849911538699881 0.44732582771280882 0 -0.14949031039727409 0.43903968606904947 0 -0.14849911538699881 0.44732582771280882 0 -0.1430360577347192 0.45502329805863873 0 -0.15230793746503779 0.45507497120342549 0 -0.13973201497409549 0.44099892737807922 0 -0.1415241139788854 0.4488412036993919 0 -0.14849911538699881 0.44732582771280882 0 -0.1415241139788854 0.4488412036993919 0 -0.14849911538699881 0.44732582771280882 0 -0.1430360577347192 0.45502329805863873 0 -0.14849911538699881 0.44732582771280882 0 -0.15230793746503779 0.45507497120342549 0 -0.15767924869329919 0.44641741059368378 0 -0.14949031039727409 0.43903968606904947 0 -0.15767924869329919 0.44641741059368378 0 -0.15912083936695831 0.4347249498771325 0 -0.14849911538699881 0.44732582771280882 0 -0.14949031039727409 0.43903968606904947 0 -0.15767924869329919 0.44641741059368378 0 -0.14083201439797821 0.46516349611765162 0 -0.16113758629404229 0.46206475253210239 0 -0.15779819732271971 0.4695739402503486 0 -0.1410608215807003 0.47118489318428192 0 -0.14083201439797821 0.46516349611765162 0 -0.15779819732271971 0.4695739402503486 0 -0.14083201439797821 0.46516349611765162 0 -0.16113758629404229 0.46206475253210239 0 -0.14083201439797821 0.46516349611765162 0 -0.15230793746503779 0.45507497120342549 0 -0.16113758629404229 0.46206475253210239 0 -0.14083201439797821 0.46516349611765162 0 -0.1430360577347192 0.45502329805863873 0 -0.15230793746503779 0.45507497120342549 0 -0.16113758629404229 0.46206475253210239 0 -0.16940388650370539 0.44815354093755089 0 -0.18144315819010631 0.45896600894655282 0 -0.16113758629404229 0.46206475253210239 0 -0.18144315819010631 0.45896600894655282 0 -0.16113758629404229 0.46206475253210239 0 -0.17453557306473899 0.46796298731641428 0 -0.15779819732271971 0.4695739402503486 0 -0.15230793746503779 0.45507497120342549 0 -0.16113758629404229 0.46206475253210239 0 -0.16013216473902109 0.45292766881669072 0 -0.16113758629404229 0.46206475253210239 0 -0.16013216473902109 0.45292766881669072 0 -0.16940388650370539 0.44815354093755089 0 -0.15767924869329919 0.44641741059368378 0 -0.16940388650370539 0.44815354093755089 0 -0.15912083936695831 0.4347249498771325 0 -0.15230793746503779 0.45507497120342549 0 -0.16013216473902109 0.45292766881669072 0 -0.15767924869329919 0.44641741059368378 0 -0.16013216473902109 0.45292766881669072 0 -0.15767924869329919 0.44641741059368378 0 -0.16940388650370539 0.44815354093755089 0 -0.1829590266345629 0.45699162349075462 0 -0.18255950863604661 0.43173185523385532 0 -0.1829590266345629 0.45699162349075462 0 -0.19557533522393281 0.44055915781337712 0 -0.18255950863604661 0.43173185523385532 0 -0.16940388650370539 0.44815354093755089 0 -0.1829590266345629 0.45699162349075462 0 -0.18255950863604661 0.43173185523385532 0 -0.16113758629404229 0.46206475253210239 0 -0.17453557306473899 0.46796298731641428 0 -0.18144315819010631 0.45896600894655282 0 -0.17453557306473899 0.46796298731641428 0 -0.18144315819010631 0.45896600894655282 0 -0.17453557306473899 0.46796298731641428 0 -0.18311948649431831 0.46713679563994498 0 -0.16940388650370539 0.44815354093755089 0 -0.18144315819010631 0.45896600894655282 0 -0.1829590266345629 0.45699162349075462 0 -0.18144315819010631 0.45896600894655282 0 -0.1829590266345629 0.45699162349075462 0 -0.18144315819010631 0.45896600894655282 0 -0.1829865290739871 0.45873048193697258 0 -0.1829590266345629 0.45699162349075462 0 -0.18144315819010631 0.45896600894655282 0 -0.1829865290739871 0.45873048193697258 0 -0.1829865290739871 0.45873048193697258 0 -0.1829590266345629 0.45699162349075462 0 -0.17453557306473899 0.46796298731641428 0 -0.18144315819010631 0.45896600894655282 0 -0.18311948649431831 0.46713679563994498 0 -0.1829865290739871 0.45873048193697258 0 -0.18311948649431831 0.46713679563994498 0 -0.18144315819010631 0.45896600894655282 0 -0.1829865290739871 0.45873048193697258 0 -0.18311948649431831 0.46713679563994498 0 -0.18311948649431831 0.46713679563994498 0 -0.18337937489664821 0.48356839781997168 0 -0.19511197543601369 0.47606725323690458 0 -0.18311948649431831 0.46713679563994498 0 -0.18337937489664821 0.48356839781997168 0 -0.18311948649431831 0.46713679563994498 0 -0.18337937489664821 0.48356839781997168 0 -0.17485937494801759 0.47808814193434568 0 -0.17453557306473899 0.46796298731641428 0 -0.18311948649431831 0.46713679563994498 0 -0.17485937494801759 0.47808814193434568 0 -0.17453557306473899 0.46796298731641428 0 -0.15779819732271971 0.4695739402503486 0 -0.17453557306473899 0.46796298731641428 0 -0.16499414335466689 0.48039049058434952 0 -0.17453557306473899 0.46796298731641428 0 -0.16499414335466689 0.48039049058434952 0 -0.15779819732271971 0.4695739402503486 0 -0.17453557306473899 0.46796298731641428 0 -0.17485937494801759 0.47808814193434568 0 -0.16499414335466689 0.48039049058434952 0 -0.17485937494801759 0.47808814193434568 0 -0.16499414335466689 0.48039049058434952 0 -0.1699453859209171 0.49288017845899518 0 -0.1558122254133027 0.48316327461493752 0 -0.16499414335466689 0.48039049058434952 0 -0.15682389603308189 0.47748605108520858 0 -0.16499414335466689 0.48039049058434952 0 -0.15682389603308189 0.47748605108520858 0 -0.15779819732271971 0.4695739402503486 0 -0.15453849507163009 0.5 0 -0.1699453859209171 0.49288017845899518 0 -0.18363926329897839 0.49999999999999828 0 -0.15453849507163009 0.5 0 -0.15545271364459581 0.49281799385228547 0 -0.1699453859209171 0.49288017845899518 0 -0.15545271364459581 0.49281799385228547 0 -0.16499414335466689 0.48039049058434952 0 -0.1699453859209171 0.49288017845899518 0 -0.15545271364459581 0.49281799385228547 0 -0.16499414335466689 0.48039049058434952 0 -0.1558122254133027 0.48316327461493752 0 -0.15545271364459581 0.49281799385228547 0 -0.16499414335466689 0.48039049058434952 0 -0.18337937489664821 0.48356839781997168 0 -0.18363926329897839 0.49999999999999828 0 -0.18337937489664821 0.48356839781997168 0 -0.1699453859209171 0.49288017845899518 0 -0.18363926329897839 0.49999999999999828 0 -0.18337937489664821 0.48356839781997168 0 -0.17485937494801759 0.47808814193434568 0 -0.1699453859209171 0.49288017845899518 0 -0.18337937489664821 0.48356839781997168 0 -0.18363926329897839 0.49999999999999828 0 -0.19848883175809501 0.48685236178056529 0 -0.18363926329897839 0.49999999999999828 0 -0.19848883175809501 0.48685236178056529 0 -0.20708556466301639 0.5 0 -0.18311948649431831 0.46713679563994498 0 -0.19511197543601369 0.47606725323690458 0 -0.20656524953558469 0.46488016823659339 0 -0.18337937489664821 0.48356839781997168 0 -0.19848883175809501 0.48685236178056529 0 -0.19511197543601369 0.47606725323690458 0 -0.19848883175809501 0.48685236178056529 0 -0.19511197543601369 0.47606725323690458 0 -0.206747867840962 0.47700509082497228 0 -0.19511197543601369 0.47606725323690458 0 -0.206747867840962 0.47700509082497228 0 -0.20656524953558469 0.46488016823659339 0 -0.19848883175809501 0.48685236178056529 0 -0.206747867840962 0.47700509082497228 0 -0.21585796601610141 0.48648558657266339 0 -0.206747867840962 0.47700509082497228 0 -0.21852396914967101 0.47285401242330122 0 -0.20656524953558469 0.46488016823659339 0 -0.206747867840962 0.47700509082497228 0 -0.21852396914967101 0.47285401242330122 0 -0.21585796601610141 0.48648558657266339 0 -0.20708556466301639 0.5 0 -0.21585796601610141 0.48648558657266339 0 -0.23053186602705439 0.5 0 -0.19848883175809501 0.48685236178056529 0 -0.20708556466301639 0.5 0 -0.21585796601610141 0.48648558657266339 0 -0.21585796601610141 0.48648558657266339 0 -0.23053186602705439 0.5 0 -0.2373192826940049 0.48342253064983348 0 -0.21852396914967101 0.47285401242330122 0 -0.2373192826940049 0.48342253064983348 0 -0.23001101257685119 0.46262354083324181 0 -0.21852396914967101 0.47285401242330122 0 -0.21585796601610141 0.48648558657266339 0 -0.2373192826940049 0.48342253064983348 0 -0.25474868654415728 0.48692894813519849 0 -0.25315469521642581 0.4750486889203015 0 -0.2373192826940049 0.48342253064983348 0 -0.25315469521642581 0.4750486889203015 0 -0.2373192826940049 0.48342253064983348 0 -0.23001101257685119 0.46262354083324181 0 -0.25397816739109252 0.5 0 -0.23053186602705439 0.5 0 -0.2373192826940049 0.48342253064983348 0 -0.25397816739109252 0.5 0 -0.25474868654415728 0.48692894813519849 0 -0.2373192826940049 0.48342253064983348 0 -0.26330490497154813 0.43976041958731371 0 -0.24129970279445639 0.44943490890582899 0 -0.24092688658692171 0.43286849171069308 0 -0.24129970279445639 0.44943490890582899 0 -0.2242493546558077 0.44235471361969553 0 -0.24092688658692171 0.43286849171069308 0 -0.25345677561811758 0.46036691342989022 0 -0.23001101257685119 0.46262354083324181 0 -0.25345677561811758 0.46036691342989022 0 -0.24129970279445639 0.44943490890582899 0 -0.23001101257685119 0.46262354083324181 0 -0.25345677561811758 0.46036691342989022 0 -0.25315469521642581 0.4750486889203015 0 -0.23001101257685119 0.46262354083324181 0 -0.24129970279445639 0.44943490890582899 0 -0.23001101257685119 0.46262354083324181 0 -0.2242493546558077 0.44235471361969553 0 -0.23001101257685119 0.46262354083324181 0 -0.2242493546558077 0.44235471361969553 0 -0.2144914677851314 0.45380351874251162 0 -0.2242493546558077 0.44235471361969553 0 -0.20880164963731279 0.443380440886459 0 -0.2144914677851314 0.45380351874251162 0 -0.20880164963731279 0.443380440886459 0 -0.2144914677851314 0.45380351874251162 0 -0.20415969833182021 0.45549933815243238 0 -0.23001101257685119 0.46262354083324181 0 -0.2144914677851314 0.45380351874251162 0 -0.20656524953558469 0.46488016823659339 0 -0.21852396914967101 0.47285401242330122 0 -0.23001101257685119 0.46262354083324181 0 -0.20656524953558469 0.46488016823659339 0 -0.23001101257685119 0.46262354083324181 0 -0.20656524953558469 0.46488016823659339 0 -0.2144914677851314 0.45380351874251162 0 -0.20415969833182021 0.45549933815243238 0 -0.20656524953558469 0.46488016823659339 0 -0.1829865290739871 0.45873048193697258 0 -0.1829590266345629 0.45699162349075462 0 -0.20415969833182021 0.45549933815243238 0 -0.1829865290739871 0.45873048193697258 0 -0.20415969833182021 0.45549933815243238 0 -0.18311948649431831 0.46713679563994498 0 -0.20415969833182021 0.45549933815243238 0 -0.20656524953558469 0.46488016823659339 0 -0.1829865290739871 0.45873048193697258 0 -0.18311948649431831 0.46713679563994498 0 -0.20415969833182021 0.45549933815243238 0 -0.18311948649431831 0.46713679563994498 0 -0.20656524953558469 0.46488016823659339 0 -0.1829590266345629 0.45699162349075462 0 -0.19557533522393281 0.44055915781337712 0 -0.1829590266345629 0.45699162349075462 0 -0.20415969833182021 0.45549933815243238 0 -0.19557533522393281 0.44055915781337712 0 -0.20880164963731279 0.443380440886459 0 -0.20415969833182021 0.45549933815243238 0 -0.19557533522393281 0.44055915781337712 0 -0.19557533522393281 0.44055915781337712 0 -0.20819164381331129 0.42412669213600601 0 -0.19557533522393281 0.44055915781337712 0 -0.19413142888046839 0.4217351031076268 0 -0.18255950863604661 0.43173185523385532 0 -0.19557533522393281 0.44055915781337712 0 -0.19413142888046839 0.4217351031076268 0 -0.20819164381331129 0.42412669213600601 0 -0.19413142888046839 0.4217351031076268 0 -0.20819164381331129 0.42412669213600601 0 -0.2021706660915297 0.40578572337793972 0 -0.19413142888046839 0.4217351031076268 0 -0.2021706660915297 0.40578572337793972 0 -0.18215999063752189 0.40647208697695608 0 -0.20819164381331129 0.42412669213600601 0 -0.22405449890785839 0.40643558214578251 0 -0.2021706660915297 0.40578572337793972 0 -0.20880164963731279 0.443380440886459 0 -0.19557533522393281 0.44055915781337712 0 -0.20819164381331129 0.42412669213600601 0 -0.2242493546558077 0.44235471361969553 0 -0.20880164963731279 0.443380440886459 0 -0.20819164381331129 0.42412669213600601 0 -0.2242493546558077 0.44235471361969553 0 -0.20819164381331129 0.42412669213600601 0 -0.22600929792909111 0.42518400498706249 0 -0.2242493546558077 0.44235471361969553 0 -0.22600929792909111 0.42518400498706249 0 -0.24092688658692171 0.43286849171069308 0 -0.20819164381331129 0.42412669213600601 0 -0.22600929792909111 0.42518400498706249 0 -0.22405449890785839 0.40643558214578251 0 -0.22600929792909111 0.42518400498706249 0 -0.22405449890785839 0.40643558214578251 0 -0.2382988550227183 0.41778448946306668 0 -0.2572482915111563 0.42152384209731297 0 -0.2382988550227183 0.41778448946306668 0 -0.2490618870264745 0.40647588616764979 0 -0.22405449890785839 0.40643558214578251 0 -0.2382988550227183 0.41778448946306668 0 -0.2490618870264745 0.40647588616764979 0 -0.2572482915111563 0.42152384209731297 0 -0.2382988550227183 0.41778448946306668 0 -0.24092688658692171 0.43286849171069308 0 -0.22600929792909111 0.42518400498706249 0 -0.2382988550227183 0.41778448946306668 0 -0.24092688658692171 0.43286849171069308 0 -0.24000210142933509 0.37809552861286783 0 -0.23801773827758249 0.39392053259368742 0 -0.22567210936962789 0.38582584627882549 0 -0.25152819264859128 0.38883491631829081 0 -0.24000210142933509 0.37809552861286783 0 -0.23801773827758249 0.39392053259368742 0 -0.25213085833087667 0.37355178257669552 0 -0.25152819264859128 0.38883491631829081 0 -0.24000210142933509 0.37809552861286783 0 -0.25152819264859128 0.38883491631829081 0 -0.2490618870264745 0.40647588616764979 0 -0.23801773827758249 0.39392053259368742 0 -0.22405449890785839 0.40643558214578251 0 -0.2490618870264745 0.40647588616764979 0 -0.23801773827758249 0.39392053259368742 0 -0.22405449890785839 0.40643558214578251 0 -0.22567210936962789 0.38582584627882549 0 -0.2099895612515065 0.38861519238670661 0 -0.22405449890785839 0.40643558214578251 0 -0.23801773827758249 0.39392053259368742 0 -0.22567210936962789 0.38582584627882549 0 -0.22567210936962789 0.38582584627882549 0 -0.21752164111765379 0.37637519474985792 0 -0.23054114355980421 0.3681661286558337 0 -0.24000210142933509 0.37809552861286783 0 -0.22567210936962789 0.38582584627882549 0 -0.23054114355980421 0.3681661286558337 0 -0.22567210936962789 0.38582584627882549 0 -0.21752164111765379 0.37637519474985792 0 -0.2099895612515065 0.38861519238670661 0 -0.21752164111765379 0.37637519474985792 0 -0.2099895612515065 0.38861519238670661 0 -0.20825127389149589 0.37038948781896619 0 -0.2099895612515065 0.38861519238670661 0 -0.1956253707180633 0.37355818799515828 0 -0.20825127389149589 0.37038948781896619 0 -0.22405449890785839 0.40643558214578251 0 -0.2099895612515065 0.38861519238670661 0 -0.2021706660915297 0.40578572337793972 0 -0.2021706660915297 0.40578572337793972 0 -0.19434121226752371 0.39112870189136351 0 -0.18215999063752189 0.40647208697695608 0 -0.2099895612515065 0.38861519238670661 0 -0.2021706660915297 0.40578572337793972 0 -0.19434121226752371 0.39112870189136351 0 -0.2099895612515065 0.38861519238670661 0 -0.19434121226752371 0.39112870189136351 0 -0.1956253707180633 0.37355818799515828 0 -0.19434121226752371 0.39112870189136351 0 -0.18176047263899719 0.38121231872005679 0 -0.1956253707180633 0.37355818799515828 0 -0.18176047263899719 0.38121231872005679 0 -0.16585623702428451 0.39107516703040651 0 -0.16689278400863089 0.37048631692620287 0 -0.16585623702428451 0.39107516703040651 0 -0.1532541744773912 0.375434017343177 0 -0.15169756500005979 0.38990146883471011 0 -0.16585623702428451 0.39107516703040651 0 -0.1532541744773912 0.375434017343177 0 -0.16689278400863089 0.37048631692620287 0 -0.16585623702428451 0.39107516703040651 0 -0.1665369108918931 0.40914444316194981 0 -0.1556916669008335 0.40278409093046019 0 -0.16585623702428451 0.39107516703040651 0 -0.18215999063752189 0.40647208697695608 0 -0.1665369108918931 0.40914444316194981 0 -0.16585623702428451 0.39107516703040651 0 -0.15169756500005979 0.38990146883471011 0 -0.1556916669008335 0.40278409093046019 0 -0.18176047263899719 0.38121231872005679 0 -0.16585623702428451 0.39107516703040651 0 -0.18215999063752189 0.40647208697695608 0 -0.18176047263899719 0.38121231872005679 0 -0.18215999063752189 0.40647208697695608 0 -0.19434121226752371 0.39112870189136351 0 -0.18176047263899719 0.38121231872005679 0 -0.18215999063752189 0.40647208697695608 0 -0.18215999063752189 0.40647208697695608 0 -0.18255950863604661 0.43173185523385532 0 -0.18215999063752189 0.40647208697695608 0 -0.16958367679162159 0.42493542776846188 0 -0.1665369108918931 0.40914444316194981 0 -0.19413142888046839 0.4217351031076268 0 -0.18215999063752189 0.40647208697695608 0 -0.18255950863604661 0.43173185523385532 0 -0.18215999063752189 0.40647208697695608 0 -0.18255950863604661 0.43173185523385532 0 -0.16958367679162159 0.42493542776846188 0 -0.16940388650370539 0.44815354093755089 0 -0.18255950863604661 0.43173185523385532 0 -0.16958367679162159 0.42493542776846188 0 -0.16940388650370539 0.44815354093755089 0 -0.16958367679162159 0.42493542776846188 0 -0.15912083936695831 0.4347249498771325 0 -0.16958367679162159 0.42493542776846188 0 -0.15912083936695831 0.4347249498771325 0 -0.15604886632200479 0.41831593774319042 0 -0.16958367679162159 0.42493542776846188 0 -0.1665369108918931 0.40914444316194981 0 -0.15604886632200479 0.41831593774319042 0 -0.1665369108918931 0.40914444316194981 0 -0.15604886632200479 0.41831593774319042 0 -0.1556916669008335 0.40278409093046019 0 -0.15604886632200479 0.41831593774319042 0 -0.14768726638806501 0.40958107086639878 0 -0.1556916669008335 0.40278409093046019 0 -0.15604886632200479 0.41831593774319042 0 -0.1455440964649429 0.41771164433310332 0 -0.14575226394851429 0.42876386523653243 0 -0.15604886632200479 0.41831593774319042 0 -0.1455440964649429 0.41771164433310332 0 -0.14768726638806501 0.40958107086639878 0 -0.1455440964649429 0.41771164433310332 0 -0.14768726638806501 0.40958107086639878 0 -0.13820848934052041 0.41088683445876423 0 -0.15912083936695831 0.4347249498771325 0 -0.15604886632200479 0.41831593774319042 0 -0.14575226394851429 0.42876386523653243 0 -0.14949031039727409 0.43903968606904947 0 -0.15912083936695831 0.4347249498771325 0 -0.14575226394851429 0.42876386523653243 0 -0.1455440964649429 0.41771164433310332 0 -0.14575226394851429 0.42876386523653243 0 -0.13557398954387551 0.42076075412316039 0 -0.13973201497409549 0.44099892737807922 0 -0.14949031039727409 0.43903968606904947 0 -0.14575226394851429 0.42876386523653243 0 -0.13491063247587859 0.43073185275000708 0 -0.1242188050129694 0.42501783294758849 0 -0.1248743097581413 0.44162978393037222 0 -0.13973201497409549 0.44099892737807922 0 -0.14575226394851429 0.42876386523653243 0 -0.13491063247587859 0.43073185275000708 0 -0.14575226394851429 0.42876386523653243 0 -0.13491063247587859 0.43073185275000708 0 -0.13557398954387551 0.42076075412316039 0 -0.13491063247587859 0.43073185275000708 0 -0.13557398954387551 0.42076075412316039 0 -0.1242188050129694 0.42501783294758849 0 -0.13820848934052041 0.41088683445876423 0 -0.13557398954387551 0.42076075412316039 0 -0.12623023605756489 0.41143854881348008 0 -0.1455440964649429 0.41771164433310332 0 -0.13820848934052041 0.41088683445876423 0 -0.13557398954387551 0.42076075412316039 0 -0.13557398954387551 0.42076075412316039 0 -0.12623023605756489 0.41143854881348008 0 -0.1242188050129694 0.42501783294758849 0 -0.13820848934052041 0.41088683445876423 0 -0.12623023605756489 0.41143854881348008 0 -0.13398515235888339 0.40371564514020769 0 -0.12997925716256209 0.39431640422262348 0 -0.14074253368576661 0.38200722200303072 0 -0.1429432129120235 0.39820684686647628 0 -0.12623023605756489 0.41143854881348008 0 -0.13398515235888339 0.40371564514020769 0 -0.12997925716256209 0.39431640422262348 0 -0.13398515235888339 0.40371564514020769 0 -0.12997925716256209 0.39431640422262348 0 -0.1429432129120235 0.39820684686647628 0 -0.13820848934052041 0.41088683445876423 0 -0.13398515235888339 0.40371564514020769 0 -0.1429432129120235 0.39820684686647628 0 -0.12997925716256209 0.39431640422262348 0 -0.14074253368576661 0.38200722200303072 0 -0.12523428666698541 0.37069662222368049 0 -0.12997925716256209 0.39431640422262348 0 -0.12523428666698541 0.37069662222368049 0 -0.12103247972044499 0.39311621374447298 0 -0.14074253368576661 0.38200722200303072 0 -0.15169756500005979 0.38990146883471011 0 -0.1429432129120235 0.39820684686647628 0 -0.14074253368576661 0.38200722200303072 0 -0.1532541744773912 0.375434017343177 0 -0.15169756500005979 0.38990146883471011 0 -0.15169756500005979 0.38990146883471011 0 -0.1556916669008335 0.40278409093046019 0 -0.1429432129120235 0.39820684686647628 0 -0.14768726638806501 0.40958107086639878 0 -0.1556916669008335 0.40278409093046019 0 -0.1429432129120235 0.39820684686647628 0 -0.14768726638806501 0.40958107086639878 0 -0.13820848934052041 0.41088683445876423 0 -0.1429432129120235 0.39820684686647628 0 -0.14407255521749979 0.34403263722221961 0 -0.15504053286571459 0.3545366000593369 0 -0.14129669608781389 0.36249735492572199 0 -0.14407255521749979 0.34403263722221961 0 -0.15504053286571459 0.3545366000593369 0 -0.1549481930100888 0.34056708499864929 0 -0.14074253368576661 0.38200722200303072 0 -0.1532541744773912 0.375434017343177 0 -0.14129669608781389 0.36249735492572199 0 -0.1532541744773912 0.375434017343177 0 -0.15504053286571459 0.3545366000593369 0 -0.14129669608781389 0.36249735492572199 0 -0.14129669608781389 0.36249735492572199 0 -0.12523428666698541 0.37069662222368049 0 -0.1294360936135257 0.3482770307028879 0 -0.12523428666698541 0.37069662222368049 0 -0.1294360936135257 0.3482770307028879 0 -0.14074253368576661 0.38200722200303072 0 -0.14129669608781389 0.36249735492572199 0 -0.12523428666698541 0.37069662222368049 0 -0.14407255521749979 0.34403263722221961 0 -0.14129669608781389 0.36249735492572199 0 -0.1294360936135257 0.3482770307028879 0 -0.1294360936135257 0.3482770307028879 0 -0.13363790056006589 0.32585743918209531 0 -0.14407255521749979 0.34403263722221961 0 -0.1294360936135257 0.3482770307028879 0 -0.13363790056006589 0.32585743918209531 0 -0.1294360936135257 0.3482770307028879 0 -0.13363790056006589 0.32585743918209531 0 -0.1154499742120704 0.34086754873962172 0 -0.12722248981549561 0.3181430308760943 0 -0.13363790056006589 0.32585743918209531 0 -0.1360408951285694 0.3130357752318072 0 -0.12722248981549561 0.3181430308760943 0 -0.1360408951285694 0.3130357752318072 0 -0.12136448477009221 0.30951812845445109 0 -0.12722248981549561 0.3181430308760943 0 -0.13363790056006589 0.32585743918209531 0 -0.12142985306419619 0.32461006626398298 0 -0.13363790056006589 0.32585743918209531 0 -0.12142985306419619 0.32461006626398298 0 -0.13363790056006589 0.32585743918209531 0 -0.1360408951285694 0.3130357752318072 0 -0.14290423209994971 0.32095809222069871 0 -0.13363790056006589 0.32585743918209531 0 -0.1360408951285694 0.3130357752318072 0 -0.14290423209994971 0.32095809222069871 0 -0.1532404752523272 0.32269894785805692 0 -0.1464174014568787 0.29836992735667278 0 -0.13363790056006589 0.32585743918209531 0 -0.14290423209994971 0.32095809222069871 0 -0.15729966860100811 0.32827511069417059 0 -0.13363790056006589 0.32585743918209531 0 -0.15729966860100811 0.32827511069417059 0 -0.14290423209994971 0.32095809222069871 0 -0.1532404752523272 0.32269894785805692 0 -0.15729966860100811 0.32827511069417059 0 -0.1532404752523272 0.32269894785805692 0 -0.15943794807189979 0.31595908059817063 0 -0.1547819877644892 0.3091453549012102 0 -0.14407255521749979 0.34403263722221961 0 -0.13363790056006589 0.32585743918209531 0 -0.14748957934716561 0.33468306802428371 0 -0.13363790056006589 0.32585743918209531 0 -0.14748957934716561 0.33468306802428371 0 -0.15729966860100811 0.32827511069417059 0 -0.14748957934716561 0.33468306802428371 0 -0.1549481930100888 0.34056708499864929 0 -0.15729966860100811 0.32827511069417059 0 -0.14407255521749979 0.34403263722221961 0 -0.14748957934716561 0.33468306802428371 0 -0.1549481930100888 0.34056708499864929 0 -0.15729966860100811 0.32827511069417059 0 -0.18096143664194889 0.33069278220625808 0 -0.1549481930100888 0.34056708499864929 0 -0.15729966860100811 0.32827511069417059 0 -0.16781010436956259 0.34240718275037813 0 -0.15729966860100811 0.32827511069417059 0 -0.16781010436956259 0.34240718275037813 0 -0.18096143664194889 0.33069278220625808 0 -0.15729966860100811 0.32827511069417059 0 -0.17028988351433311 0.32233995817617028 0 -0.18096143664194889 0.33069278220625808 0 -0.15943794807189979 0.31595908059817063 0 -0.16495134068588049 0.31685297469802859 0 -0.1638395481514221 0.30983277085387728 0 -0.1532404752523272 0.32269894785805692 0 -0.15943794807189979 0.31595908059817063 0 -0.16037638850537991 0.32126535467967993 0 -0.15943794807189979 0.31595908059817063 0 -0.16037638850537991 0.32126535467967993 0 -0.16495134068588049 0.31685297469802859 0 -0.15729966860100811 0.32827511069417059 0 -0.16037638850537991 0.32126535467967993 0 -0.17028988351433311 0.32233995817617028 0 -0.1532404752523272 0.32269894785805692 0 -0.15729966860100811 0.32827511069417059 0 -0.16037638850537991 0.32126535467967993 0 -0.16495134068588049 0.31685297469802859 0 -0.17285953122972289 0.31090601179704258 0 -0.1638395481514221 0.30983277085387728 0 -0.17028988351433311 0.32233995817617028 0 -0.16495134068588049 0.31685297469802859 0 -0.17285953122972289 0.31090601179704258 0 -0.16037638850537991 0.32126535467967993 0 -0.17028988351433311 0.32233995817617028 0 -0.16495134068588049 0.31685297469802859 0 -0.18077272512400111 0.31876138179813301 0 -0.17285953122972289 0.31090601179704258 0 -0.17028988351433311 0.32233995817617028 0 -0.18077272512400111 0.31876138179813301 0 -0.17285953122972289 0.31090601179704258 0 -0.17028988351433311 0.32233995817617028 0 -0.18077272512400111 0.31876138179813301 0 -0.18096143664194889 0.33069278220625808 0 -0.18077272512400111 0.31876138179813301 0 -0.19386790912735871 0.33176087567547108 0 -0.18077272512400111 0.31876138179813301 0 -0.18096143664194889 0.33069278220625808 0 -0.18077272512400111 0.31876138179813301 0 -0.18096143664194889 0.33069278220625808 0 -0.19386790912735871 0.33176087567547108 0 -0.18096143664194889 0.33069278220625808 0 -0.1813609546404725 0.35595255046315749 0 -0.18096143664194889 0.33069278220625808 0 -0.1813609546404725 0.35595255046315749 0 -0.19258948339875709 0.33633707034479371 0 -0.16781010436956259 0.34240718275037813 0 -0.18096143664194889 0.33069278220625808 0 -0.1813609546404725 0.35595255046315749 0 -0.18096143664194889 0.33069278220625808 0 -0.19386790912735871 0.33176087567547108 0 -0.15504053286571459 0.3545366000593369 0 -0.16781010436956259 0.34240718275037813 0 -0.1813609546404725 0.35595255046315749 0 -0.15504053286571459 0.3545366000593369 0 -0.1549481930100888 0.34056708499864929 0 -0.16781010436956259 0.34240718275037813 0 -0.1532541744773912 0.375434017343177 0 -0.15504053286571459 0.3545366000593369 0 -0.16689278400863089 0.37048631692620287 0 -0.15504053286571459 0.3545366000593369 0 -0.1813609546404725 0.35595255046315749 0 -0.16689278400863089 0.37048631692620287 0 -0.18176047263899719 0.38121231872005679 0 -0.1813609546404725 0.35595255046315749 0 -0.18176047263899719 0.38121231872005679 0 -0.1813609546404725 0.35595255046315749 0 -0.1956253707180633 0.37355818799515828 0 -0.18176047263899719 0.38121231872005679 0 -0.1813609546404725 0.35595255046315749 0 -0.16689278400863089 0.37048631692620287 0 -0.1813609546404725 0.35595255046315749 0 -0.1956253707180633 0.37355818799515828 0 -0.2000380028121157 0.35856944723279938 0 -0.1956253707180633 0.37355818799515828 0 -0.2000380028121157 0.35856944723279938 0 -0.20825127389149589 0.37038948781896619 0 -0.1813609546404725 0.35595255046315749 0 -0.1951678646333711 0.34883535218340811 0 -0.19258948339875709 0.33633707034479371 0 -0.1813609546404725 0.35595255046315749 0 -0.1951678646333711 0.34883535218340811 0 -0.2000380028121157 0.35856944723279938 0 -0.1951678646333711 0.34883535218340811 0 -0.2000380028121157 0.35856944723279938 0 -0.20668301768213909 0.34448234069288158 0 -0.20668301768213909 0.34448234069288158 0 -0.2120127789660084 0.36084248239747968 0 -0.21921666942493959 0.3569244055809645 0 -0.2000380028121157 0.35856944723279938 0 -0.20668301768213909 0.34448234069288158 0 -0.2120127789660084 0.36084248239747968 0 -0.2120127789660084 0.36084248239747968 0 -0.21921666942493959 0.3569244055809645 0 -0.20668301768213909 0.34448234069288158 0 -0.21921666942493959 0.3569244055809645 0 -0.22158808080033929 0.34557455345049992 0 -0.20668301768213909 0.34448234069288158 0 -0.21921666942493959 0.3569244055809645 0 -0.2000380028121157 0.35856944723279938 0 -0.20825127389149589 0.37038948781896619 0 -0.2120127789660084 0.36084248239747968 0 -0.2120127789660084 0.36084248239747968 0 -0.2199937556016836 0.36693485901855288 0 -0.21921666942493959 0.3569244055809645 0 -0.20825127389149589 0.37038948781896619 0 -0.2120127789660084 0.36084248239747968 0 -0.2199937556016836 0.36693485901855288 0 -0.21752164111765379 0.37637519474985792 0 -0.20825127389149589 0.37038948781896619 0 -0.2199937556016836 0.36693485901855288 0 -0.21752164111765379 0.37637519474985792 0 -0.23054114355980421 0.3681661286558337 0 -0.2199937556016836 0.36693485901855288 0 -0.23054114355980421 0.3681661286558337 0 -0.21921666942493959 0.3569244055809645 0 -0.23305195790672301 0.35812934693154008 0 -0.23054114355980421 0.3681661286558337 0 -0.2199937556016836 0.36693485901855288 0 -0.21921666942493959 0.3569244055809645 0 -0.23054114355980421 0.3681661286558337 0 -0.21921666942493959 0.3569244055809645 0 -0.21921666942493959 0.3569244055809645 0 -0.22158808080033929 0.34557455345049992 0 -0.23915963598069589 0.34607775607121571 0 -0.21921666942493959 0.3569244055809645 0 -0.23915963598069589 0.34607775607121571 0 -0.21921666942493959 0.3569244055809645 0 -0.23305195790672301 0.35812934693154008 0 -0.23915963598069589 0.34607775607121571 0 -0.23305195790672301 0.35812934693154008 0 -0.23915963598069589 0.34607775607121571 0 -0.24329038266145239 0.36134909741814653 0 -0.25407523553642281 0.3497448278934856 0 -0.23915963598069589 0.34607775607121571 0 -0.24329038266145239 0.36134909741814653 0 -0.25213085833087667 0.37355178257669552 0 -0.24000210142933509 0.37809552861286783 0 -0.24329038266145239 0.36134909741814653 0 -0.24000210142933509 0.37809552861286783 0 -0.23054114355980421 0.3681661286558337 0 -0.24329038266145239 0.36134909741814653 0 -0.23054114355980421 0.3681661286558337 0 -0.23305195790672301 0.35812934693154008 0 -0.24329038266145239 0.36134909741814653 0 -0.23582541811145999 0.32679902143390172 0 -0.24885494741763489 0.31718848033418301 0 -0.23189508169276829 0.30076725351495531 0 -0.23582541811145999 0.32679902143390172 0 -0.24885494741763489 0.31718848033418301 0 -0.24633099797708269 0.32737693631841108 0 -0.25451497659773847 0.32559442806853028 0 -0.24885494741763489 0.31718848033418301 0 -0.24633099797708269 0.32737693631841108 0 -0.24843663428782739 0.33758714710907461 0 -0.22129300011358269 0.33481371145693772 0 -0.25451497659773847 0.32559442806853028 0 -0.24633099797708269 0.32737693631841108 0 -0.24843663428782739 0.33758714710907461 0 -0.25910260253645218 0.33523110656146687 0 -0.23915963598069589 0.34607775607121571 0 -0.23582541811145999 0.32679902143390172 0 -0.24633099797708269 0.32737693631841108 0 -0.24843663428782739 0.33758714710907461 0 -0.25910260253645218 0.33523110656146687 0 -0.23915963598069589 0.34607775607121571 0 -0.24843663428782739 0.33758714710907461 0 -0.23582541811145999 0.32679902143390172 0 -0.24843663428782739 0.33758714710907461 0 -0.22129300011358269 0.33481371145693772 0 -0.23915963598069589 0.34607775607121571 0 -0.24843663428782739 0.33758714710907461 0 -0.22129300011358269 0.33481371145693772 0 -0.22158808080033929 0.34557455345049992 0 -0.23915963598069589 0.34607775607121571 0 -0.22129300011358269 0.33481371145693772 0 -0.23582541811145999 0.32679902143390172 0 -0.21954464392232159 0.31820766509236142 0 -0.23189508169276829 0.30076725351495531 0 -0.23582541811145999 0.32679902143390172 0 -0.22129300011358269 0.33481371145693772 0 -0.21954464392232159 0.31820766509236142 0 -0.21954464392232159 0.31820766509236142 0 -0.20492818889453221 0.32276220977772679 0 -0.20060783596013981 0.3076349397264902 0 -0.22129300011358269 0.33481371145693772 0 -0.21954464392232159 0.31820766509236142 0 -0.20492818889453221 0.32276220977772679 0 -0.22129300011358269 0.33481371145693772 0 -0.20492818889453221 0.32276220977772679 0 -0.19386790912735871 0.33176087567547108 0 -0.22129300011358269 0.33481371145693772 0 -0.19386790912735871 0.33176087567547108 0 -0.20668301768213909 0.34448234069288158 0 -0.22129300011358269 0.33481371145693772 0 -0.19386790912735871 0.33176087567547108 0 -0.20668301768213909 0.34448234069288158 0 -0.22158808080033929 0.34557455345049992 0 -0.22129300011358269 0.33481371145693772 0 -0.20668301768213909 0.34448234069288158 0 -0.19386790912735871 0.33176087567547108 0 -0.19258948339875709 0.33633707034479371 0 -0.20668301768213909 0.34448234069288158 0 -0.19386790912735871 0.33176087567547108 0 -0.1951678646333711 0.34883535218340811 0 -0.20668301768213909 0.34448234069288158 0 -0.19258948339875709 0.33633707034479371 0 -0.18096143664194889 0.33069278220625808 0 -0.19386790912735871 0.33176087567547108 0 -0.19258948339875709 0.33633707034479371 0 -0.19386790912735871 0.33176087567547108 0 -0.19258948339875709 0.33633707034479371 0 -0.18077272512400111 0.31876138179813301 0 -0.19386790912735871 0.33176087567547108 0 -0.20060783596013981 0.3076349397264902 0 -0.20492818889453221 0.32276220977772679 0 -0.19386790912735871 0.33176087567547108 0 -0.20060783596013981 0.3076349397264902 0 -0.19386790912735871 0.33176087567547108 0 -0.20060783596013981 0.3076349397264902 0 -0.20060783596013981 0.3076349397264902 0 -0.20734776279292019 0.28350900377750898 0 -0.23189508169276829 0.30076725351495531 0 -0.21954464392232159 0.31820766509236142 0 -0.20060783596013981 0.3076349397264902 0 -0.23189508169276829 0.30076725351495531 0 -0.20060783596013981 0.3076349397264902 0 -0.20734776279292019 0.28350900377750898 0 -0.18034630435624241 0.29180066960649809 0 -0.20734776279292019 0.28350900377750898 0 -0.19375927737912041 0.2730469699042487 0 -0.18034630435624241 0.29180066960649809 0 -0.20060783596013981 0.3076349397264902 0 -0.20734776279292019 0.28350900377750898 0 -0.20734776279292019 0.28350900377750898 0 -0.23189508169276829 0.30076725351495531 0 -0.22396762922540969 0.27514125130055722 0 -0.23189508169276829 0.30076725351495531 0 -0.2378434694439332 0.28391349183279069 0 -0.22396762922540969 0.27514125130055722 0 -0.25673188405007052 0.28646841290673969 0 -0.23189508169276829 0.30076725351495531 0 -0.2378434694439332 0.28391349183279069 0 -0.25673188405007052 0.28646841290673969 0 -0.23189508169276829 0.30076725351495531 0 -0.25505401324638421 0.30366623925853881 0 -0.25673188405007052 0.28646841290673969 0 -0.23189508169276829 0.30076725351495531 0 -0.25505401324638421 0.30366623925853881 0 -0.24885494741763489 0.31718848033418301 0 -0.23189508169276829 0.30076725351495531 0 -0.25265925142613249 0.26128234508680298 0 -0.23885305679183191 0.2684477152547543 0 -0.23951274761537589 0.2474853768326048 0 -0.23885305679183191 0.2684477152547543 0 -0.22811192938500721 0.25829645972706228 0 -0.23951274761537589 0.2474853768326048 0 -0.25621817608628389 0.2460965770837312 0 -0.25265925142613249 0.26128234508680298 0 -0.23951274761537589 0.2474853768326048 0 -0.25673188405007052 0.28646841290673969 0 -0.2378434694439332 0.28391349183279069 0 -0.23885305679183191 0.2684477152547543 0 -0.25265925142613249 0.26128234508680298 0 -0.25673188405007052 0.28646841290673969 0 -0.23885305679183191 0.2684477152547543 0 -0.23885305679183191 0.2684477152547543 0 -0.22396762922540969 0.27514125130055722 0 -0.22811192938500721 0.25829645972706228 0 -0.2378434694439332 0.28391349183279069 0 -0.23885305679183191 0.2684477152547543 0 -0.22396762922540969 0.27514125130055722 0 -0.22811192938500721 0.25829645972706228 0 -0.22371849106378741 0.2462845034026982 0 -0.23951274761537589 0.2474853768326048 0 -0.22396762922540969 0.27514125130055722 0 -0.22811192938500721 0.25829645972706228 0 -0.21408768962570049 0.25938306782852782 0 -0.22811192938500721 0.25829645972706228 0 -0.21408768962570049 0.25938306782852782 0 -0.22371849106378741 0.2462845034026982 0 -0.21408768962570049 0.25938306782852782 0 -0.19928355658839081 0.25766712263582692 0 -0.2066863838603582 0.24242880758937649 0 -0.21408768962570049 0.25938306782852782 0 -0.20163280817849061 0.26608937016207479 0 -0.19928355658839081 0.25766712263582692 0 -0.20734776279292019 0.28350900377750898 0 -0.21408768962570049 0.25938306782852782 0 -0.20734776279292019 0.28350900377750898 0 -0.22396762922540969 0.27514125130055722 0 -0.21408768962570049 0.25938306782852782 0 -0.20734776279292019 0.28350900377750898 0 -0.21408768962570049 0.25938306782852782 0 -0.20163280817849061 0.26608937016207479 0 -0.20734776279292019 0.28350900377750898 0 -0.20163280817849061 0.26608937016207479 0 -0.19375927737912041 0.2730469699042487 0 -0.20163280817849061 0.26608937016207479 0 -0.19375927737912041 0.2730469699042487 0 -0.19160269433399771 0.26436194023610149 0 -0.19375927737912041 0.2730469699042487 0 -0.19160269433399771 0.26436194023610149 0 -0.17991988358848049 0.26483995741486333 0 -0.19928355658839081 0.25766712263582692 0 -0.18259587964237009 0.2606558300825601 0 -0.2066863838603582 0.24242880758937649 0 -0.18259587964237009 0.2606558300825601 0 -0.19333963139412971 0.24385714112684301 0 -0.19928355658839081 0.25766712263582692 0 -0.19160269433399771 0.26436194023610149 0 -0.18259587964237009 0.2606558300825601 0 -0.18259587964237009 0.2606558300825601 0 -0.2066863838603582 0.24242880758937649 0 -0.20163280817849061 0.26608937016207479 0 -0.19928355658839081 0.25766712263582692 0 -0.19160269433399771 0.26436194023610149 0 -0.17991988358848049 0.26483995741486333 0 -0.17951502337729761 0.2392424245160312 0 -0.17991988358848049 0.26483995741486333 0 -0.17042143569771079 0.26099360542817968 0 -0.17951502337729761 0.2392424245160312 0 -0.18259587964237009 0.2606558300825601 0 -0.17991988358848049 0.26483995741486333 0 -0.17951502337729761 0.2392424245160312 0 -0.19160269433399771 0.26436194023610149 0 -0.18259587964237009 0.2606558300825601 0 -0.17991988358848049 0.26483995741486333 0 -0.18259587964237009 0.2606558300825601 0 -0.17991988358848049 0.26483995741486333 0 -0.17991988358848049 0.26483995741486333 0 -0.17042143569771079 0.26099360542817968 0 -0.17716480609589361 0.26914773470870201 0 -0.17042143569771079 0.26099360542817968 0 -0.1627301728603629 0.26968240911070368 0 -0.1532221513837192 0.25419418888983192 0 -0.17042143569771079 0.26099360542817968 0 -0.1532221513837192 0.25419418888983192 0 -0.17951502337729761 0.2392424245160312 0 -0.1627301728603629 0.26968240911070368 0 -0.1620479085915319 0.28265904931380531 0 -0.15271877240598841 0.27446820953958367 0 -0.17042143569771079 0.26099360542817968 0 -0.1627301728603629 0.26968240911070368 0 -0.1699765768805111 0.26885491792894611 0 -0.1627301728603629 0.26968240911070368 0 -0.1699765768805111 0.26885491792894611 0 -0.16860704672851359 0.27535934789532951 0 -0.1627301728603629 0.26968240911070368 0 -0.16860704672851359 0.27535934789532951 0 -0.1620479085915319 0.28265904931380531 0 -0.16860704672851359 0.27535934789532951 0 -0.17077339862397739 0.28423195702734899 0 -0.1620479085915319 0.28265904931380531 0 -0.17991988358848049 0.26483995741486333 0 -0.18034630435624241 0.29180066960649809 0 -0.17991988358848049 0.26483995741486333 0 -0.17716480609589361 0.26914773470870201 0 -0.18034630435624241 0.29180066960649809 0 -0.16860704672851359 0.27535934789532951 0 -0.17716480609589361 0.26914773470870201 0 -0.17077339862397739 0.28423195702734899 0 -0.19375927737912041 0.2730469699042487 0 -0.17991988358848049 0.26483995741486333 0 -0.18034630435624241 0.29180066960649809 0 -0.17042143569771079 0.26099360542817968 0 -0.1699765768805111 0.26885491792894611 0 -0.17716480609589361 0.26914773470870201 0 -0.1699765768805111 0.26885491792894611 0 -0.16860704672851359 0.27535934789532951 0 -0.17716480609589361 0.26914773470870201 0 -0.17991988358848049 0.26483995741486333 0 -0.17716480609589361 0.26914773470870201 0 -0.17716480609589361 0.26914773470870201 0 -0.18034630435624241 0.29180066960649809 0 -0.17077339862397739 0.28423195702734899 0 -0.18034630435624241 0.29180066960649809 0 -0.16501618616712291 0.29775164083812761 0 -0.17077339862397739 0.28423195702734899 0 -0.18077272512400111 0.31876138179813301 0 -0.18034630435624241 0.29180066960649809 0 -0.18077272512400111 0.31876138179813301 0 -0.18034630435624241 0.29180066960649809 0 -0.17285953122972289 0.31090601179704258 0 -0.18034630435624241 0.29180066960649809 0 -0.17285953122972289 0.31090601179704258 0 -0.16501618616712291 0.29775164083812761 0 -0.18077272512400111 0.31876138179813301 0 -0.20060783596013981 0.3076349397264902 0 -0.18034630435624241 0.29180066960649809 0 -0.16501618616712291 0.29775164083812761 0 -0.15329008091572741 0.28945008379417048 0 -0.1547819877644892 0.3091453549012102 0 -0.17285953122972289 0.31090601179704258 0 -0.16501618616712291 0.29775164083812761 0 -0.1638395481514221 0.30983277085387728 0 -0.16501618616712291 0.29775164083812761 0 -0.1638395481514221 0.30983277085387728 0 -0.1547819877644892 0.3091453549012102 0 -0.15943794807189979 0.31595908059817063 0 -0.1638395481514221 0.30983277085387728 0 -0.1547819877644892 0.3091453549012102 0 -0.16501618616712291 0.29775164083812761 0 -0.17077339862397739 0.28423195702734899 0 -0.1620479085915319 0.28265904931380531 0 -0.16501618616712291 0.29775164083812761 0 -0.1620479085915319 0.28265904931380531 0 -0.15329008091572741 0.28945008379417048 0 -0.1464174014568787 0.29836992735667278 0 -0.13959432766143021 0.2740409068552887 0 -0.1620479085915319 0.28265904931380531 0 -0.15329008091572741 0.28945008379417048 0 -0.15271877240598841 0.27446820953958367 0 -0.15329008091572741 0.28945008379417048 0 -0.1464174014568787 0.29836992735667278 0 -0.13959432766143021 0.2740409068552887 0 -0.15329008091572741 0.28945008379417048 0 -0.1464174014568787 0.29836992735667278 0 -0.1547819877644892 0.3091453549012102 0 -0.1532404752523272 0.32269894785805692 0 -0.1464174014568787 0.29836992735667278 0 -0.1360408951285694 0.3130357752318072 0 -0.14290423209994971 0.32095809222069871 0 -0.1464174014568787 0.29836992735667278 0 -0.1532404752523272 0.32269894785805692 0 -0.1464174014568787 0.29836992735667278 0 -0.1547819877644892 0.3091453549012102 0 -0.1360408951285694 0.3130357752318072 0 -0.1264253840414637 0.29528772621663357 0 -0.12136448477009221 0.30951812845445109 0 -0.1360408951285694 0.3130357752318072 0 -0.1464174014568787 0.29836992735667278 0 -0.1264253840414637 0.29528772621663357 0 -0.1464174014568787 0.29836992735667278 0 -0.1264253840414637 0.29528772621663357 0 -0.13959432766143021 0.2740409068552887 0 -0.1264253840414637 0.29528772621663357 0 -0.13959432766143021 0.2740409068552887 0 -0.1185373796182298 0.27837978510360878 0 -0.13959432766143021 0.2740409068552887 0 -0.1327712538659816 0.24971188635390451 0 -0.13959432766143021 0.2740409068552887 0 -0.116744543106582 0.25728181003509248 0 -0.1327712538659816 0.24971188635390451 0 -0.13959432766143021 0.2740409068552887 0 -0.1532221513837192 0.25419418888983192 0 -0.1327712538659816 0.24971188635390451 0 -0.1627301728603629 0.26968240911070368 0 -0.1532221513837192 0.25419418888983192 0 -0.15271877240598841 0.27446820953958367 0 -0.13959432766143021 0.2740409068552887 0 -0.1532221513837192 0.25419418888983192 0 -0.15271877240598841 0.27446820953958367 0 -0.15329008091572741 0.28945008379417048 0 -0.13959432766143021 0.2740409068552887 0 -0.15271877240598841 0.27446820953958367 0 -0.1061606963602142 0.26761343855331338 0 -0.1001789302111205 0.27974269320078388 0 -0.1185373796182298 0.27837978510360878 0 -0.1061606963602142 0.26761343855331338 0 -0.1001789302111205 0.27974269320078388 0 -0.092613028744971265 0.26767711662392979 0 -0.1061606963602142 0.26761343855331338 0 -0.10005120432924321 0.25626016583208688 0 -0.116744543106582 0.25728181003509248 0 -0.1061606963602142 0.26761343855331338 0 -0.10005120432924321 0.25626016583208688 0 -0.092613028744971265 0.26767711662392979 0 -0.10005120432924321 0.25626016583208688 0 -0.116744543106582 0.25728181003509248 0 -0.1045487088169635 0.24438495162540061 0 -0.13959432766143021 0.2740409068552887 0 -0.116744543106582 0.25728181003509248 0 -0.1185373796182298 0.27837978510360878 0 -0.1061606963602142 0.26761343855331338 0 -0.116744543106582 0.25728181003509248 0 -0.1185373796182298 0.27837978510360878 0 -0.1264253840414637 0.29528772621663357 0 -0.1127724140037699 0.30190213115774378 0 -0.1091517300735869 0.29135078386346752 0 -0.1264253840414637 0.29528772621663357 0 -0.1185373796182298 0.27837978510360878 0 -0.1091517300735869 0.29135078386346752 0 -0.1264253840414637 0.29528772621663357 0 -0.12136448477009221 0.30951812845445109 0 -0.1127724140037699 0.30190213115774378 0 -0.12136448477009221 0.30951812845445109 0 -0.1127724140037699 0.30190213115774378 0 -0.1061991548417472 0.31213959050036899 0 -0.1127724140037699 0.30190213115774378 0 -0.1061991548417472 0.31213959050036899 0 -0.1005146973405663 0.30141191014932889 0 -0.1127724140037699 0.30190213115774378 0 -0.1005146973405663 0.30141191014932889 0 -0.1091517300735869 0.29135078386346752 0 -0.1005146973405663 0.30141191014932889 0 -0.094430836728355921 0.29177030977787999 0 -0.089068024122243669 0.30112896568664949 0 -0.1061991548417472 0.31213959050036899 0 -0.1005146973405663 0.30141191014932889 0 -0.090928135519314904 0.31087631578889069 0 -0.1001789302111205 0.27974269320078388 0 -0.1185373796182298 0.27837978510360878 0 -0.1091517300735869 0.29135078386346752 0 -0.1005146973405663 0.30141191014932889 0 -0.1091517300735869 0.29135078386346752 0 -0.094430836728355921 0.29177030977787999 0 -0.1001789302111205 0.27974269320078388 0 -0.1091517300735869 0.29135078386346752 0 -0.094430836728355921 0.29177030977787999 0 -0.1001789302111205 0.27974269320078388 0 -0.094430836728355921 0.29177030977787999 0 -0.086145563619835275 0.2816538088019015 0 -0.094430836728355921 0.29177030977787999 0 -0.086145563619835275 0.2816538088019015 0 -0.081526075002782958 0.29533369696514911 0 -0.094430836728355921 0.29177030977787999 0 -0.081526075002782958 0.29533369696514911 0 -0.089068024122243669 0.30112896568664949 0 -0.086145563619835275 0.2816538088019015 0 -0.081526075002782958 0.29533369696514911 0 -0.070830210313899522 0.29195808219782299 0 -0.090928135519314904 0.31087631578889069 0 -0.079482369404140468 0.30560554845979909 0 -0.074915307566508993 0.31649039264194578 0 -0.090928135519314904 0.31087631578889069 0 -0.089068024122243669 0.30112896568664949 0 -0.079482369404140468 0.30560554845979909 0 -0.1005146973405663 0.30141191014932889 0 -0.090928135519314904 0.31087631578889069 0 -0.089068024122243669 0.30112896568664949 0 -0.081526075002782958 0.29533369696514911 0 -0.089068024122243669 0.30112896568664949 0 -0.079482369404140468 0.30560554845979909 0 -0.054647974243728172 0.30430181459310768 0 -0.074915307566508993 0.31649039264194578 0 -0.079482369404140468 0.30560554845979909 0 -0.068661557073843291 0.3005821027458685 0 -0.074915307566508993 0.31649039264194578 0 -0.068661557073843291 0.3005821027458685 0 -0.054647974243728172 0.30430181459310768 0 -0.074915307566508993 0.31649039264194578 0 -0.081526075002782958 0.29533369696514911 0 -0.079482369404140468 0.30560554845979909 0 -0.068661557073843291 0.3005821027458685 0 -0.070830210313899522 0.29195808219782299 0 -0.067453711470644842 0.27023673344429472 0 -0.052574645638654917 0.28480468584225688 0 -0.081526075002782958 0.29533369696514911 0 -0.068661557073843291 0.3005821027458685 0 -0.070830210313899522 0.29195808219782299 0 -0.068661557073843291 0.3005821027458685 0 -0.070830210313899522 0.29195808219782299 0 -0.068661557073843291 0.3005821027458685 0 -0.070830210313899522 0.29195808219782299 0 -0.059610011597539182 0.29372125904316332 0 -0.086145563619835275 0.2816538088019015 0 -0.070830210313899522 0.29195808219782299 0 -0.077256670317037021 0.26667642926106078 0 -0.070830210313899522 0.29195808219782299 0 -0.067453711470644842 0.27023673344429472 0 -0.070830210313899522 0.29195808219782299 0 -0.077256670317037021 0.26667642926106078 0 -0.070830210313899522 0.29195808219782299 0 -0.067453711470644842 0.27023673344429472 0 -0.077256670317037021 0.26667642926106078 0 -0.086145563619835275 0.2816538088019015 0 -0.077256670317037021 0.26667642926106078 0 -0.092613028744971265 0.26767711662392979 0 -0.1001789302111205 0.27974269320078388 0 -0.086145563619835275 0.2816538088019015 0 -0.092613028744971265 0.26767711662392979 0 -0.077256670317037021 0.26667642926106078 0 -0.086302411784292182 0.25447467192259482 0 -0.083666647235009842 0.24139059785004849 0 -0.077256670317037021 0.26667642926106078 0 -0.083666647235009842 0.24139059785004849 0 -0.10005120432924321 0.25626016583208688 0 -0.086302411784292182 0.25447467192259482 0 -0.094679029848152713 0.24609146959404629 0 -0.10005120432924321 0.25626016583208688 0 -0.092613028744971265 0.26767711662392979 0 -0.086302411784292182 0.25447467192259482 0 -0.077256670317037021 0.26667642926106078 0 -0.092613028744971265 0.26767711662392979 0 -0.086302411784292182 0.25447467192259482 0 -0.077256670317037021 0.26667642926106078 0 -0.064077212627390134 0.24851538469076631 0 -0.083666647235009842 0.24139059785004849 0 -0.067453711470644842 0.27023673344429472 0 -0.077256670317037021 0.26667642926106078 0 -0.064077212627390134 0.24851538469076631 0 -0.067453711470644842 0.27023673344429472 0 -0.064077212627390134 0.24851538469076631 0 -0.067453711470644842 0.27023673344429472 0 -0.04634179854296408 0.26632715615711849 0 -0.064077212627390134 0.24851538469076631 0 -0.04634179854296408 0.26632715615711849 0 -0.064077212627390134 0.24851538469076631 0 -0.046578861792199937 0.24361118962503389 0 -0.067453711470644842 0.27023673344429472 0 -0.04634179854296408 0.26632715615711849 0 -0.052574645638654917 0.28480468584225688 0 -0.04634179854296408 0.26632715615711849 0 -0.034380640920947357 0.29211323654426968 0 -0.052574645638654917 0.28480468584225688 0 -0.04634179854296408 0.26632715615711849 0 -0.022607631921228569 0.27169805167723737 0 -0.034380640920947357 0.29211323654426968 0 -0.04634179854296408 0.26632715615711849 0 -0.03068766995985707 0.25286978792993342 0 -0.022607631921228569 0.27169805167723737 0 -0.04634179854296408 0.26632715615711849 0 -0.03068766995985707 0.25286978792993342 0 -0.046578861792199937 0.24361118962503389 0 -0.03068766995985707 0.25286978792993342 0 -0.022607631921228569 0.27169805167723737 0 -0.0098044441781452579 0.25473951632571468 0 -0.022607631921228569 0.27169805167723737 0 -0.015153941911089409 0.29208252597919021 0 3.3590645499582607e-05 0.27236849017123349 0 -0.022607631921228569 0.27169805167723737 0 -0.0098044441781452579 0.25473951632571468 0 3.3590645499582607e-05 0.27236849017123349 0 -0.0098044441781452579 0.25473951632571468 0 0.0073806355134042019 0.25529449578482938 0 3.3590645499582607e-05 0.27236849017123349 0 -0.0088759444352828343 0.31092800175718183 0 -0.015153941911089409 0.29208252597919021 0 0.0083336089875100904 0.29343585490586271 0 -0.015153941911089409 0.29208252597919021 0 0.0083336089875100904 0.29343585490586271 0 3.3590645499582607e-05 0.27236849017123349 0 -0.022607631921228569 0.27169805167723737 0 -0.015153941911089409 0.29208252597919021 0 -0.034380640920947357 0.29211323654426968 0 -0.0088759444352828343 0.31092800175718183 0 -0.015153941911089409 0.29208252597919021 0 -0.03508050583840458 0.3127012881250415 0 -0.015153941911089409 0.29208252597919021 0 -0.034380640920947357 0.29211323654426968 0 -0.03508050583840458 0.3127012881250415 0 -0.034380640920947357 0.29211323654426968 0 -0.054647974243728172 0.30430181459310768 0 -0.034380640920947357 0.29211323654426968 0 -0.054647974243728172 0.30430181459310768 0 -0.03508050583840458 0.3127012881250415 0 -0.034380640920947357 0.29211323654426968 0 -0.052574645638654917 0.28480468584225688 0 -0.054647974243728172 0.30430181459310768 0 -0.052574645638654917 0.28480468584225688 0 -0.059610011597539182 0.29372125904316332 0 -0.054647974243728172 0.30430181459310768 0 -0.070830210313899522 0.29195808219782299 0 -0.052574645638654917 0.28480468584225688 0 -0.059610011597539182 0.29372125904316332 0 -0.068661557073843291 0.3005821027458685 0 -0.059610011597539182 0.29372125904316332 0 -0.054647974243728172 0.30430181459310768 0 -0.058679851530075752 0.32054224196392622 0 -0.045885169747561752 0.33132665820789581 0 -0.073191842414501496 0.33174208285196288 0 -0.054647974243728172 0.30430181459310768 0 -0.058679851530075752 0.32054224196392622 0 -0.03508050583840458 0.3127012881250415 0 -0.045885169747561752 0.33132665820789581 0 -0.067541502003893042 0.3482616942848048 0 -0.073191842414501496 0.33174208285196288 0 -0.045885169747561752 0.33132665820789581 0 -0.073191842414501496 0.33174208285196288 0 -0.045885169747561752 0.33132665820789581 0 -0.018578497080621779 0.33091123356382868 0 -0.045885169747561752 0.33132665820789581 0 -0.03508050583840458 0.3127012881250415 0 -0.018578497080621779 0.33091123356382868 0 -0.058679851530075752 0.32054224196392622 0 -0.045885169747561752 0.33132665820789581 0 -0.03508050583840458 0.3127012881250415 0 -0.0088759444352828343 0.31092800175718183 0 -0.03508050583840458 0.3127012881250415 0 -0.018578497080621779 0.33091123356382868 0 -0.018578497080621779 0.33091123356382868 0 -0.0050552824635438226 0.34569829691311771 0 -0.02749858990914332 0.35301881799134821 0 -0.045885169747561752 0.33132665820789581 0 -0.018578497080621779 0.33091123356382868 0 -0.02749858990914332 0.35301881799134821 0 -0.018578497080621779 0.33091123356382868 0 -0.0050552824635438226 0.34569829691311771 0 0.0064742168078369342 0.3347740657525386 0 -0.018578497080621779 0.33091123356382868 0 0.0087281755863181168 0.33049580891976171 0 -0.018578497080621779 0.33091123356382868 0 0.0064742168078369342 0.3347740657525386 0 0.0087281755863181168 0.33049580891976171 0 -0.018578497080621779 0.33091123356382868 0 -0.003280447873963227 0.32161399115684158 0 0.0087281755863181168 0.33049580891976171 0 -0.0088759444352828343 0.31092800175718183 0 -0.018578497080621779 0.33091123356382868 0 -0.003280447873963227 0.32161399115684158 0 -0.0088759444352828343 0.31092800175718183 0 -0.003280447873963227 0.32161399115684158 0 0.0056044744337335906 0.31412092038659428 0 -0.0052616759920083916 0.36132776784546622 0 -0.0045342830833226501 0.3863935686212247 0 -0.0052616759920083916 0.36132776784546622 0 -0.024169526760701381 0.37267007813580277 0 -0.0045342830833226501 0.3863935686212247 0 -0.0052616759920083916 0.36132776784546622 0 -0.0045342830833226501 0.3863935686212247 0 0.0079023355216259559 0.37348921158265391 0 -0.0052616759920083916 0.36132776784546622 0 -0.0050552824635438226 0.34569829691311771 0 0.0061318462344260851 0.35417601161121459 0 -0.0052616759920083916 0.36132776784546622 0 -0.0050552824635438226 0.34569829691311771 0 -0.02749858990914332 0.35301881799134821 0 -0.02749858990914332 0.35301881799134821 0 -0.024169526760701381 0.37267007813580277 0 -0.04149310004589906 0.37124785083274592 0 -0.0052616759920083916 0.36132776784546622 0 -0.02749858990914332 0.35301881799134821 0 -0.024169526760701381 0.37267007813580277 0 -0.02749858990914332 0.35301881799134821 0 -0.04149310004589906 0.37124785083274592 0 -0.051818441616049399 0.35735321764765782 0 -0.045885169747561752 0.33132665820789581 0 -0.02749858990914332 0.35301881799134821 0 -0.051818441616049399 0.35735321764765782 0 -0.045885169747561752 0.33132665820789581 0 -0.051818441616049399 0.35735321764765782 0 -0.067541502003893042 0.3482616942848048 0 -0.04149310004589906 0.37124785083274592 0 -0.051818441616049399 0.35735321764765782 0 -0.056875823715872062 0.37631267096962301 0 -0.051818441616049399 0.35735321764765782 0 -0.069616273344600341 0.3650636543096733 0 -0.056875823715872062 0.37631267096962301 0 -0.069616273344600341 0.3650636543096733 0 -0.085055645225370236 0.37193713089684588 0 -0.071788917171084016 0.3809272333041443 0 -0.069616273344600341 0.3650636543096733 0 -0.071788917171084016 0.3809272333041443 0 -0.056875823715872062 0.37631267096962301 0 -0.069616273344600341 0.3650636543096733 0 -0.085055645225370236 0.37193713089684588 0 -0.084100884505446297 0.3554636863979832 0 -0.085055645225370236 0.37193713089684588 0 -0.084100884505446297 0.3554636863979832 0 -0.1008292236537022 0.36036332390371462 0 -0.084100884505446297 0.3554636863979832 0 -0.067541502003893042 0.3482616942848048 0 -0.085709514220790303 0.34113927750747819 0 -0.084100884505446297 0.3554636863979832 0 -0.085709514220790303 0.34113927750747819 0 -0.099722393067727538 0.34687368244968458 0 -0.069616273344600341 0.3650636543096733 0 -0.084100884505446297 0.3554636863979832 0 -0.067541502003893042 0.3482616942848048 0 -0.051818441616049399 0.35735321764765782 0 -0.069616273344600341 0.3650636543096733 0 -0.067541502003893042 0.3482616942848048 0 -0.067541502003893042 0.3482616942848048 0 -0.073191842414501496 0.33174208285196288 0 -0.085709514220790303 0.34113927750747819 0 -0.058679851530075752 0.32054224196392622 0 -0.073191842414501496 0.33174208285196288 0 -0.074915307566508993 0.31649039264194578 0 -0.054647974243728172 0.30430181459310768 0 -0.058679851530075752 0.32054224196392622 0 -0.074915307566508993 0.31649039264194578 0 -0.073191842414501496 0.33174208285196288 0 -0.074915307566508993 0.31649039264194578 0 -0.095182640889289766 0.32867897069078372 0 -0.090928135519314904 0.31087631578889069 0 -0.074915307566508993 0.31649039264194578 0 -0.095182640889289766 0.32867897069078372 0 -0.074915307566508993 0.31649039264194578 0 -0.095182640889289766 0.32867897069078372 0 -0.073191842414501496 0.33174208285196288 0 -0.085709514220790303 0.34113927750747819 0 -0.095182640889289766 0.32867897069078372 0 -0.085709514220790303 0.34113927750747819 0 -0.095182640889289766 0.32867897069078372 0 -0.099722393067727538 0.34687368244968458 0 -0.095182640889289766 0.32867897069078372 0 -0.1154499742120704 0.34086754873962172 0 -0.095182640889289766 0.32867897069078372 0 -0.1098512680755149 0.32470257897991811 0 -0.1154499742120704 0.34086754873962172 0 -0.095182640889289766 0.32867897069078372 0 -0.1154499742120704 0.34086754873962172 0 -0.099722393067727538 0.34687368244968458 0 -0.1061991548417472 0.31213959050036899 0 -0.090928135519314904 0.31087631578889069 0 -0.095182640889289766 0.32867897069078372 0 -0.1061991548417472 0.31213959050036899 0 -0.095182640889289766 0.32867897069078372 0 -0.1098512680755149 0.32470257897991811 0 -0.1061991548417472 0.31213959050036899 0 -0.115330384384618 0.31728312261503783 0 -0.1098512680755149 0.32470257897991811 0 -0.12136448477009221 0.30951812845445109 0 -0.1061991548417472 0.31213959050036899 0 -0.115330384384618 0.31728312261503783 0 -0.115330384384618 0.31728312261503783 0 -0.1098512680755149 0.32470257897991811 0 -0.12142985306419619 0.32461006626398298 0 -0.12722248981549561 0.3181430308760943 0 -0.115330384384618 0.31728312261503783 0 -0.12142985306419619 0.32461006626398298 0 -0.12722248981549561 0.3181430308760943 0 -0.12136448477009221 0.30951812845445109 0 -0.115330384384618 0.31728312261503783 0 -0.1098512680755149 0.32470257897991811 0 -0.12142985306419619 0.32461006626398298 0 -0.1154499742120704 0.34086754873962172 0 -0.13363790056006589 0.32585743918209531 0 -0.12142985306419619 0.32461006626398298 0 -0.1154499742120704 0.34086754873962172 0 -0.12523428666698541 0.37069662222368049 0 -0.1294360936135257 0.3482770307028879 0 -0.1154159689866658 0.35521970897278921 0 -0.1154499742120704 0.34086754873962172 0 -0.1154159689866658 0.35521970897278921 0 -0.099722393067727538 0.34687368244968458 0 -0.1294360936135257 0.3482770307028879 0 -0.1154499742120704 0.34086754873962172 0 -0.1154159689866658 0.35521970897278921 0 -0.12523428666698541 0.37069662222368049 0 -0.1154159689866658 0.35521970897278921 0 -0.11117961403065831 0.36839673047223442 0 -0.12523428666698541 0.37069662222368049 0 -0.11117961403065831 0.36839673047223442 0 -0.1123930043347208 0.38073562172137532 0 -0.11117961403065831 0.36839673047223442 0 -0.1008292236537022 0.36036332390371462 0 -0.09970079949094271 0.37763208900548878 0 -0.1154159689866658 0.35521970897278921 0 -0.11117961403065831 0.36839673047223442 0 -0.1008292236537022 0.36036332390371462 0 -0.085055645225370236 0.37193713089684588 0 -0.1008292236537022 0.36036332390371462 0 -0.09970079949094271 0.37763208900548878 0 -0.084100884505446297 0.3554636863979832 0 -0.1008292236537022 0.36036332390371462 0 -0.099722393067727538 0.34687368244968458 0 -0.1154159689866658 0.35521970897278921 0 -0.1008292236537022 0.36036332390371462 0 -0.099722393067727538 0.34687368244968458 0 -0.1036554482544351 0.39516830989393792 0 -0.1102807352191843 0.41378788895710661 0 -0.09259379641793411 0.40948313349934218 0 -0.1036554482544351 0.39516830989393792 0 -0.09970079949094271 0.37763208900548878 0 -0.1123930043347208 0.38073562172137532 0 -0.1036554482544351 0.39516830989393792 0 -0.09970079949094271 0.37763208900548878 0 -0.084297773186445962 0.39217279846007119 0 -0.11117961403065831 0.36839673047223442 0 -0.09970079949094271 0.37763208900548878 0 -0.1123930043347208 0.38073562172137532 0 -0.12523428666698541 0.37069662222368049 0 -0.1123930043347208 0.38073562172137532 0 -0.12103247972044499 0.39311621374447298 0 -0.1036554482544351 0.39516830989393792 0 -0.1123930043347208 0.38073562172137532 0 -0.12103247972044499 0.39311621374447298 0 -0.12523428666698541 0.37069662222368049 0 -0.12103247972044499 0.39311621374447298 0 -0.1036554482544351 0.39516830989393792 0 -0.12103247972044499 0.39311621374447298 0 -0.1102807352191843 0.41378788895710661 0 -0.12997925716256209 0.39431640422262348 0 -0.1102807352191843 0.41378788895710661 0 -0.12997925716256209 0.39431640422262348 0 -0.12103247972044499 0.39311621374447298 0 -0.1102807352191843 0.41378788895710661 0 -0.12623023605756489 0.41143854881348008 0 -0.1102807352191843 0.41378788895710661 0 -0.1242188050129694 0.42501783294758849 0 -0.12623023605756489 0.41143854881348008 0 -0.12997925716256209 0.39431640422262348 0 -0.1102807352191843 0.41378788895710661 0 -0.1102807352191843 0.41378788895710661 0 -0.1104760497445479 0.43296770510105842 0 -0.1242188050129694 0.42501783294758849 0 -0.1104760497445479 0.43296770510105842 0 -0.1242188050129694 0.42501783294758849 0 -0.1248743097581413 0.44162978393037222 0 -0.1102807352191843 0.41378788895710661 0 -0.090582213275806372 0.43325937369158968 0 -0.1102807352191843 0.41378788895710661 0 -0.1104760497445479 0.43296770510105842 0 -0.090582213275806372 0.43325937369158968 0 -0.1102807352191843 0.41378788895710661 0 -0.09259379641793411 0.40948313349934218 0 -0.090582213275806372 0.43325937369158968 0 -0.09259379641793411 0.40948313349934218 0 -0.090582213275806372 0.43325937369158968 0 -0.074152812153798875 0.41302729649400538 0 -0.090582213275806372 0.43325937369158968 0 -0.066022972602334681 0.42956105407568013 0 -0.074152812153798875 0.41302729649400538 0 -0.066022972602334681 0.42956105407568013 0 -0.074152812153798875 0.41302729649400538 0 -0.049329429094603867 0.41198700835812702 0 -0.074152812153798875 0.41302729649400538 0 -0.063154715464804681 0.39516467689365731 0 -0.084297773186445962 0.39217279846007119 0 -0.09259379641793411 0.40948313349934218 0 -0.074152812153798875 0.41302729649400538 0 -0.084297773186445962 0.39217279846007119 0 -0.1036554482544351 0.39516830989393792 0 -0.09259379641793411 0.40948313349934218 0 -0.084297773186445962 0.39217279846007119 0 -0.085055645225370236 0.37193713089684588 0 -0.09970079949094271 0.37763208900548878 0 -0.084297773186445962 0.39217279846007119 0 -0.085055645225370236 0.37193713089684588 0 -0.084297773186445962 0.39217279846007119 0 -0.071788917171084016 0.3809272333041443 0 -0.063154715464804681 0.39516467689365731 0 -0.084297773186445962 0.39217279846007119 0 -0.071788917171084016 0.3809272333041443 0 -0.063154715464804681 0.39516467689365731 0 -0.071788917171084016 0.3809272333041443 0 -0.056875823715872062 0.37631267096962301 0 -0.04149310004589906 0.37124785083274592 0 -0.056875823715872062 0.37631267096962301 0 -0.04338349465279491 0.38811939282985902 0 -0.063154715464804681 0.39516467689365731 0 -0.056875823715872062 0.37631267096962301 0 -0.04338349465279491 0.38811939282985902 0 -0.063154715464804681 0.39516467689365731 0 -0.04338349465279491 0.38811939282985902 0 -0.049329429094603867 0.41198700835812702 0 -0.04338349465279491 0.38811939282985902 0 -0.024844401122877391 0.39948633252540261 0 -0.049329429094603867 0.41198700835812702 0 -0.024169526760701381 0.37267007813580277 0 -0.04149310004589906 0.37124785083274592 0 -0.04338349465279491 0.38811939282985902 0 -0.024169526760701381 0.37267007813580277 0 -0.04338349465279491 0.38811939282985902 0 -0.024844401122877391 0.39948633252540261 0 -0.024169526760701381 0.37267007813580277 0 -0.024844401122877391 0.39948633252540261 0 -0.0045342830833226501 0.3863935686212247 0 -0.024844401122877391 0.39948633252540261 0 -0.0045342830833226501 0.3863935686212247 0 -0.0038092142255275289 0.41137928311071797 0 -0.0045342830833226501 0.3863935686212247 0 -0.0038092142255275289 0.41137928311071797 0 -0.024169526760701381 0.37267007813580277 0 -0.0045342830833226501 0.3863935686212247 0 -0.0030841453677343121 0.43636499760021141 0 -0.0038092142255275289 0.41137928311071797 0 -0.026324668085478481 0.42779129271708288 0 -0.0030841453677343121 0.43636499760021141 0 -0.0038092142255275289 0.41137928311071797 0 -0.024844401122877391 0.39948633252540261 0 -0.0038092142255275289 0.41137928311071797 0 -0.026324668085478481 0.42779129271708288 0 -0.026324668085478481 0.42779129271708288 0 -0.049329429094603867 0.41198700835812702 0 -0.049413859365407042 0.43472239834070731 0 -0.024844401122877391 0.39948633252540261 0 -0.026324668085478481 0.42779129271708288 0 -0.049329429094603867 0.41198700835812702 0 -0.074152812153798875 0.41302729649400538 0 -0.063154715464804681 0.39516467689365731 0 -0.049329429094603867 0.41198700835812702 0 -0.066022972602334681 0.42956105407568013 0 -0.049329429094603867 0.41198700835812702 0 -0.049413859365407042 0.43472239834070731 0 -0.066022972602334681 0.42956105407568013 0 -0.049413859365407042 0.43472239834070731 0 -0.0708836913324285 0.45273085842607269 0 -0.0393713920190637 0.45112048084748302 0 -0.052402143273794041 0.47435943831340011 0 -0.0708836913324285 0.45273085842607269 0 -0.049413859365407042 0.43472239834070731 0 -0.0393713920190637 0.45112048084748302 0 -0.0708836913324285 0.45273085842607269 0 -0.0393713920190637 0.45112048084748302 0 -0.02876560419008364 0.47203163756026523 0 -0.052402143273794041 0.47435943831340011 0 -0.026324668085478481 0.42779129271708288 0 -0.049413859365407042 0.43472239834070731 0 -0.0393713920190637 0.45112048084748302 0 -0.0030841453677343121 0.43636499760021141 0 -0.026324668085478481 0.42779129271708288 0 -0.01888650882967766 0.45329231687868837 0 -0.026324668085478481 0.42779129271708288 0 -0.0393713920190637 0.45112048084748302 0 -0.01888650882967766 0.45329231687868837 0 -0.0393713920190637 0.45112048084748302 0 -0.01888650882967766 0.45329231687868837 0 -0.02876560419008364 0.47203163756026523 0 -0.01888650882967766 0.45329231687868837 0 -0.01341416680576474 0.47109478045738301 0 -0.02876560419008364 0.47203163756026523 0 -0.01888650882967766 0.45329231687868837 0 -0.002359076509941094 0.46135071208970457 0 -0.01341416680576474 0.47109478045738301 0 -0.0030841453677343121 0.43636499760021141 0 -0.01888650882967766 0.45329231687868837 0 -0.002359076509941094 0.46135071208970457 0 -0.0030841453677343121 0.43636499760021141 0 -0.002359076509941094 0.46135071208970457 0 -0.0090346539348886701 0.5 0 -0.0016340076521478781 0.48633642657919801 0 -0.017460482120078509 0.48648722646036041 0 -0.0016340076521478781 0.48633642657919801 0 -0.01341416680576474 0.47109478045738301 0 -0.017460482120078509 0.48648722646036041 0 -0.002359076509941094 0.46135071208970457 0 -0.0016340076521478781 0.48633642657919801 0 -0.01341416680576474 0.47109478045738301 0 -0.002359076509941094 0.46135071208970457 0 -0.0016340076521478781 0.48633642657919801 0 -0.002359076509941094 0.46135071208970457 0 -0.0016340076521478781 0.48633642657919801 0 0.0036787250480955699 0.47408322248379448 0 -0.01341416680576474 0.47109478045738301 0 -0.02876560419008364 0.47203163756026523 0 -0.017460482120078509 0.48648722646036041 0 -0.02876560419008364 0.47203163756026523 0 -0.017460482120078509 0.48648722646036041 0 -0.038135422162237087 0.5 0 -0.0090346539348886701 0.5 0 -0.017460482120078509 0.48648722646036041 0 -0.038135422162237087 0.5 0 -0.02876560419008364 0.47203163756026523 0 -0.038135422162237087 0.5 0 -0.052402143273794041 0.47435943831340011 0 -0.038135422162237087 0.5 0 -0.052402143273794041 0.47435943831340011 0 -0.067236190389585393 0.5 0 -0.052402143273794041 0.47435943831340011 0 -0.067236190389585393 0.5 0 -0.073349005429332273 0.47921852398434828 0 -0.067236190389585393 0.5 0 -0.073349005429332273 0.47921852398434828 0 -0.096336958616933588 0.5 0 -0.073349005429332273 0.47921852398434828 0 -0.096336958616933588 0.5 0 -0.093805091172543903 0.47224368257650851 0 -0.052402143273794041 0.47435943831340011 0 -0.073349005429332273 0.47921852398434828 0 -0.0708836913324285 0.45273085842607269 0 -0.0708836913324285 0.45273085842607269 0 -0.1043361340672995 0.45358667135048331 0 -0.093805091172543903 0.47224368257650851 0 -0.090582213275806372 0.43325937369158968 0 -0.0708836913324285 0.45273085842607269 0 -0.1043361340672995 0.45358667135048331 0 -0.090582213275806372 0.43325937369158968 0 -0.066022972602334681 0.42956105407568013 0 -0.0708836913324285 0.45273085842607269 0 -0.090582213275806372 0.43325937369158968 0 -0.0708836913324285 0.45273085842607269 0 -0.073349005429332273 0.47921852398434828 0 -0.0708836913324285 0.45273085842607269 0 -0.093805091172543903 0.47224368257650851 0 -0.1043361340672995 0.45358667135048331 0 -0.12052644250191399 0.4682622397032008 0 -0.093805091172543903 0.47224368257650851 0 -0.1104760497445479 0.43296770510105842 0 -0.090582213275806372 0.43325937369158968 0 -0.1043361340672995 0.45358667135048331 0 -0.12618187852634369 0.45882241462805679 0 -0.1043361340672995 0.45358667135048331 0 -0.1248743097581413 0.44162978393037222 0 -0.1104760497445479 0.43296770510105842 0 -0.1043361340672995 0.45358667135048331 0 -0.1248743097581413 0.44162978393037222 0 -0.12618187852634369 0.45882241462805679 0 -0.1043361340672995 0.45358667135048331 0 -0.12052644250191399 0.4682622397032008 0 -0.1317912103042716 0.47600940211286807 0 -0.12052644250191399 0.4682622397032008 0 -0.11642361318749669 0.48420448820259387 0 -0.12052644250191399 0.4682622397032008 0 -0.11642361318749669 0.48420448820259387 0 -0.093805091172543903 0.47224368257650851 0 -0.12543772684428189 0.5 0 -0.11642361318749669 0.48420448820259387 0 -0.096336958616933588 0.5 0 -0.12543772684428189 0.5 0 -0.13178312884530541 0.48627570230508688 0 -0.11642361318749669 0.48420448820259387 0 -0.11642361318749669 0.48420448820259387 0 -0.096336958616933588 0.5 0 -0.093805091172543903 0.47224368257650851 0 -0.1693268494853358 0.079538523923443544 0 -0.16945340910355561 0.089496265134995978 0 -0.1618062267740645 0.07958177760614682 0 -0.16945340910355561 0.089496265134995978 0 -0.1618062267740645 0.07958177760614682 0 -0.1616157516695074 0.095139316102685473 0 -0.1618062267740645 0.07958177760614682 0 -0.1616157516695074 0.095139316102685473 0 -0.14767322655010931 0.084806545451415583 0 -0.1618062267740645 0.07958177760614682 0 -0.16640070467345031 0.07104807823334372 0 -0.15517576509654349 0.068304766057398533 0 -0.16640070467345031 0.07104807823334372 0 -0.15517576509654349 0.068304766057398533 0 -0.16451238623864939 0.061110077383343737 0 -0.16640070467345031 0.07104807823334372 0 -0.17354141001077031 0.063798093567348918 0 -0.16451238623864939 0.061110077383343737 0 -0.17157411485926041 0.074087910936242465 0 -0.16640070467345031 0.07104807823334372 0 -0.17354141001077031 0.063798093567348918 0 -0.1693268494853358 0.079538523923443544 0 -0.17157411485926041 0.074087910936242465 0 -0.16640070467345031 0.07104807823334372 0 -0.1693268494853358 0.079538523923443544 0 -0.1618062267740645 0.07958177760614682 0 -0.16640070467345031 0.07104807823334372 0 -0.17354141001077031 0.063798093567348918 0 -0.17702749526748529 0.081966948020833708 0 -0.17656426821359539 0.052679136019797047 0 -0.18185637422210199 0.067243003367259677 0 -0.17702749526748529 0.081966948020833708 0 -0.17656426821359539 0.052679136019797047 0 -0.17702749526748529 0.081966948020833708 0 -0.17656426821359539 0.052679136019797047 0 -0.17157411485926041 0.074087910936242465 0 -0.17354141001077031 0.063798093567348918 0 -0.17702749526748529 0.081966948020833708 0 -0.18185637422210199 0.067243003367259677 0 -0.1853153676200878 0.058850167416455039 0 -0.18892740292417859 0.064703221589215376 0 -0.18185637422210199 0.067243003367259677 0 -0.19050021368002351 0.072419239531055349 0 -0.18892740292417859 0.064703221589215376 0 -0.18185637422210199 0.067243003367259677 0 -0.18141962227324601 0.075216957450553817 0 -0.17702749526748529 0.081966948020833708 0 -0.18185637422210199 0.067243003367259677 0 -0.18141962227324601 0.075216957450553817 0 -0.19050021368002351 0.072419239531055349 0 -0.18141962227324601 0.075216957450553817 0 -0.1867192510276118 0.077748512173410014 0 -0.19050021368002351 0.072419239531055349 0 -0.18141962227324601 0.075216957450553817 0 -0.1867192510276118 0.077748512173410014 0 -0.1819129998543452 0.079414551687582866 0 -0.18248563084903771 0.082725789105533951 0 -0.17702749526748529 0.081966948020833708 0 -0.17749072232138041 0.1112547600218704 0 -0.1867192510276118 0.077748512173410014 0 -0.18248563084903771 0.082725789105533951 0 -0.1819129998543452 0.079414551687582866 0 -0.18141962227324601 0.075216957450553817 0 -0.1819129998543452 0.079414551687582866 0 -0.17702749526748529 0.081966948020833708 0 -0.18248563084903771 0.082725789105533951 0 -0.1819129998543452 0.079414551687582866 0 -0.17702749526748529 0.081966948020833708 0 -0.1693268494853358 0.079538523923443544 0 -0.16945340910355561 0.089496265134995978 0 -0.17702749526748529 0.081966948020833708 0 -0.1693268494853358 0.079538523923443544 0 -0.17157411485926041 0.074087910936242465 0 -0.17702749526748529 0.081966948020833708 0 -0.17702749526748529 0.081966948020833708 0 -0.17749072232138041 0.1112547600218704 0 -0.16945340910355561 0.089496265134995978 0 -0.17702749526748529 0.081966948020833708 0 -0.17749072232138041 0.1112547600218704 0 -0.17749072232138041 0.1112547600218704 0 -0.1951643137470572 0.093770439387570487 0 -0.18248563084903771 0.082725789105533951 0 -0.17749072232138041 0.1112547600218704 0 -0.1951643137470572 0.093770439387570487 0 -0.17749072232138041 0.1112547600218704 0 -0.19150979458678249 0.1243728737611647 0 -0.17789558253256721 0.1368522929207025 0 -0.17749072232138041 0.1112547600218704 0 -0.17789558253256721 0.1368522929207025 0 -0.17749072232138041 0.1112547600218704 0 -0.16113979031376621 0.12743058591966341 0 -0.17749072232138041 0.1112547600218704 0 -0.15084139672814201 0.110160429760413 0 -0.16113979031376621 0.12743058591966341 0 -0.17749072232138041 0.1112547600218704 0 -0.1616157516695074 0.095139316102685473 0 -0.15084139672814201 0.110160429760413 0 -0.16945340910355561 0.089496265134995978 0 -0.17749072232138041 0.1112547600218704 0 -0.1616157516695074 0.095139316102685473 0 -0.1616157516695074 0.095139316102685473 0 -0.15084139672814201 0.110160429760413 0 -0.14767322655010931 0.084806545451415583 0 -0.15084139672814201 0.110160429760413 0 -0.1348328660863515 0.097215266237156234 0 -0.14767322655010931 0.084806545451415583 0 -0.15084139672814201 0.110160429760413 0 -0.13137241316615089 0.11357835761918721 0 -0.14300315410871919 0.1253406317882016 0 -0.15084139672814201 0.110160429760413 0 -0.16113979031376621 0.12743058591966341 0 -0.14300315410871919 0.1253406317882016 0 -0.13137241316615089 0.11357835761918721 0 -0.14300315410871919 0.1253406317882016 0 -0.12687331202938101 0.13192737382428379 0 -0.13137241316615089 0.11357835761918721 0 -0.1348328660863515 0.097215266237156234 0 -0.1198812247159142 0.095002477965890675 0 -0.15084139672814201 0.110160429760413 0 -0.13137241316615089 0.11357835761918721 0 -0.1348328660863515 0.097215266237156234 0 -0.1348328660863515 0.097215266237156234 0 -0.12533951967512769 0.078274991835817334 0 -0.1198812247159142 0.095002477965890675 0 -0.1348328660863515 0.097215266237156234 0 -0.12533951967512769 0.078274991835817334 0 -0.14767322655010931 0.084806545451415583 0 -0.1618062267740645 0.07958177760614682 0 -0.14767322655010931 0.084806545451415583 0 -0.15517576509654349 0.068304766057398533 0 -0.14767322655010931 0.084806545451415583 0 -0.15517576509654349 0.068304766057398533 0 -0.14001017723872511 0.063978020277280875 0 -0.12533951967512769 0.078274991835817334 0 -0.14767322655010931 0.084806545451415583 0 -0.14001017723872511 0.063978020277280875 0 -0.12533951967512769 0.078274991835817334 0 -0.14001017723872511 0.063978020277280875 0 -0.1248745965026067 0.059896082918310993 0 -0.14001017723872511 0.063978020277280875 0 -0.13626681081840961 0.042829268155062397 0 -0.1248745965026067 0.059896082918310993 0 -0.13626681081840961 0.042829268155062397 0 -0.1339340902388827 0.022300844741854581 0 -0.1180188049733784 0.030804183747700629 0 -0.13626681081840961 0.042829268155062397 0 -0.1339340902388827 0.022300844741854581 0 -0.15968783393996419 0.037567277286728401 0 -0.13626681081840961 0.042829268155062397 0 -0.15351002702878311 0.053877414325468623 0 -0.15968783393996419 0.037567277286728401 0 -0.13626681081840961 0.042829268155062397 0 -0.15968783393996419 0.037567277286728401 0 -0.14001017723872511 0.063978020277280875 0 -0.13626681081840961 0.042829268155062397 0 -0.15351002702878311 0.053877414325468623 0 -0.15517576509654349 0.068304766057398533 0 -0.14001017723872511 0.063978020277280875 0 -0.15351002702878311 0.053877414325468623 0 -0.12735709500343681 0.004015926865657337 0 -0.15177498865293759 0.016606981474429749 0 -0.12735709500343681 0.004015926865657337 0 -0.1339340902388827 0.022300844741854581 0 -0.15177498865293759 0.016606981474429749 0 -0.12735709500343681 0.004015926865657337 0 -0.1339340902388827 0.022300844741854581 0 -0.11835839359799651 0.016938700943610479 0 -0.1339340902388827 0.022300844741854581 0 -0.15177498865293759 0.016606981474429749 0 -0.15968783393996419 0.037567277286728401 0 -0.1339340902388827 0.022300844741854581 0 -0.15968783393996419 0.037567277286728401 0 -0.12735709500343681 0.004015926865657337 0 -0.15177498865293759 0.016606981474429749 0 -0.14801408494475049 0.0031182785745780331 0 -0.15177498865293759 0.016606981474429749 0 -0.14801408494475049 0.0031182785745780331 0 -0.1619193683370386 0.0066468078375689294 0 -0.15773416148281841 -0.0035868741371463562 0 -0.14801408494475049 0.0031182785745780331 0 -0.1619193683370386 0.0066468078375689294 0 -0.15177498865293759 0.016606981474429749 0 -0.1619193683370386 0.0066468078375689294 0 -0.16760309597538539 0.015861310899326669 0 -0.16716832075785379 -0.0032078365625175 0 -0.1619193683370386 0.0066468078375689294 0 -0.17584419881677341 0.0071523107965592754 0 -0.1619193683370386 0.0066468078375689294 0 -0.16760309597538539 0.015861310899326669 0 -0.17584419881677341 0.0071523107965592754 0 -0.15177498865293759 0.016606981474429749 0 -0.17619288230243149 0.029198036083215671 0 -0.15177498865293759 0.016606981474429749 0 -0.17619288230243149 0.029198036083215671 0 -0.15968783393996419 0.037567277286728401 0 -0.15177498865293759 0.016606981474429749 0 -0.16760309597538539 0.015861310899326669 0 -0.17619288230243149 0.029198036083215671 0 -0.17619288230243149 0.029198036083215671 0 -0.1852069371874478 0.015311100034367831 0 -0.17584419881677341 0.0071523107965592754 0 -0.17619288230243149 0.029198036083215671 0 -0.17584419881677341 0.0071523107965592754 0 -0.16760309597538539 0.015861310899326669 0 -0.17619288230243149 0.029198036083215671 0 -0.17584419881677341 0.0071523107965592754 0 -0.17619288230243149 0.029198036083215671 0 -0.19572946351785711 0.039272048382664133 0 -0.19029700863621521 0.024089069561314659 0 -0.17619288230243149 0.029198036083215671 0 -0.1852069371874478 0.015311100034367831 0 -0.19029700863621521 0.024089069561314659 0 -0.1852069371874478 0.015311100034367831 0 -0.18717715497560061 0.0062623078557712403 0 -0.17584419881677341 0.0071523107965592754 0 -0.18154179604087481 -0.0036104187285780349 0 -0.18717715497560061 0.0062623078557712403 0 -0.17584419881677341 0.0071523107965592754 0 -0.15351002702878311 0.053877414325468623 0 -0.1659033968134131 0.050269055427132232 0 -0.15968783393996419 0.037567277286728401 0 -0.1659033968134131 0.050269055427132232 0 -0.16451238623864939 0.061110077383343737 0 -0.17656426821359539 0.052679136019797047 0 -0.17354141001077031 0.063798093567348918 0 -0.16451238623864939 0.061110077383343737 0 -0.17656426821359539 0.052679136019797047 0 -0.16451238623864939 0.061110077383343737 0 -0.17656426821359539 0.052679136019797047 0 -0.15351002702878311 0.053877414325468623 0 -0.1659033968134131 0.050269055427132232 0 -0.16451238623864939 0.061110077383343737 0 -0.15517576509654349 0.068304766057398533 0 -0.15351002702878311 0.053877414325468623 0 -0.16451238623864939 0.061110077383343737 0 -0.15968783393996419 0.037567277286728401 0 -0.1762663423330757 0.033842591165095401 0 -0.1659033968134131 0.050269055427132232 0 -0.15968783393996419 0.037567277286728401 0 -0.1764827173319595 0.047523031967639129 0 -0.17619288230243149 0.029198036083215671 0 -0.15968783393996419 0.037567277286728401 0 -0.1762663423330757 0.033842591165095401 0 -0.15968783393996419 0.037567277286728401 0 -0.1764827173319595 0.047523031967639129 0 -0.15968783393996419 0.037567277286728401 0 -0.1762663423330757 0.033842591165095401 0 -0.1764827173319595 0.047523031967639129 0 -0.17619288230243149 0.029198036083215671 0 -0.19572946351785711 0.039272048382664133 0 -0.181281627628781 0.040827380692469641 0 -0.18051660755046151 0.049914261515807259 0 -0.1764827173319595 0.047523031967639129 0 -0.17619288230243149 0.029198036083215671 0 -0.1762663423330757 0.033842591165095401 0 -0.19572946351785711 0.039272048382664133 0 -0.1762663423330757 0.033842591165095401 0 -0.181281627628781 0.040827380692469641 0 -0.19572946351785711 0.039272048382664133 0 -0.1762663423330757 0.033842591165095401 0 -0.181281627628781 0.040827380692469641 0 -0.1764827173319595 0.047523031967639129 0 -0.1762663423330757 0.033842591165095401 0 -0.1764827173319595 0.047523031967639129 0 -0.17619288230243149 0.029198036083215671 0 -0.1762663423330757 0.033842591165095401 0 -0.181281627628781 0.040827380692469641 0 -0.18051660755046151 0.049914261515807259 0 -0.19572946351785711 0.039272048382664133 0 -0.18051660755046151 0.049914261515807259 0 -0.17656426821359539 0.052679136019797047 0 -0.1853153676200878 0.058850167416455039 0 -0.18051660755046151 0.049914261515807259 0 -0.1764827173319595 0.047523031967639129 0 -0.1764827173319595 0.047523031967639129 0 -0.17656426821359539 0.052679136019797047 0 -0.1659033968134131 0.050269055427132232 0 -0.1764827173319595 0.047523031967639129 0 -0.17656426821359539 0.052679136019797047 0 -0.18051660755046151 0.049914261515807259 0 -0.1764827173319595 0.047523031967639129 0 -0.17656426821359539 0.052679136019797047 0 -0.18051660755046151 0.049914261515807259 0 -0.17656426821359539 0.052679136019797047 0 -0.18185637422210199 0.067243003367259677 0 -0.17656426821359539 0.052679136019797047 0 -0.1853153676200878 0.058850167416455039 0 -0.1853153676200878 0.058850167416455039 0 -0.19803765617450109 0.060300476042091433 0 -0.18892740292417859 0.064703221589215376 0 -0.18051660755046151 0.049914261515807259 0 -0.19803765617450109 0.060300476042091433 0 -0.1977866825790292 0.05007637869738242 0 -0.18051660755046151 0.049914261515807259 0 -0.1853153676200878 0.058850167416455039 0 -0.19803765617450109 0.060300476042091433 0 -0.18051660755046151 0.049914261515807259 0 -0.19803765617450109 0.060300476042091433 0 -0.19803765617450109 0.060300476042091433 0 -0.1977866825790292 0.05007637869738242 0 -0.2066297839190599 0.054855205218219752 0 -0.18051660755046151 0.049914261515807259 0 -0.1977866825790292 0.05007637869738242 0 -0.19572946351785711 0.039272048382664133 0 -0.18051660755046151 0.049914261515807259 0 -0.19572946351785711 0.039272048382664133 0 -0.19572946351785711 0.039272048382664133 0 -0.2098237389609823 0.029412342647955388 0 -0.1977866825790292 0.05007637869738242 0 -0.19572946351785711 0.039272048382664133 0 -0.2073344650466164 0.045256152092875389 0 -0.19572946351785711 0.039272048382664133 0 -0.2073344650466164 0.045256152092875389 0 -0.2073344650466164 0.045256152092875389 0 -0.21702036639386221 0.038769314305699548 0 -0.2098237389609823 0.029412342647955388 0 -0.19572946351785711 0.039272048382664133 0 -0.2073344650466164 0.045256152092875389 0 -0.2098237389609823 0.029412342647955388 0 -0.21702036639386221 0.038769314305699548 0 -0.2098237389609823 0.029412342647955388 0 -0.2284051488343061 0.035137669629428533 0 -0.2073344650466164 0.045256152092875389 0 -0.21702036639386221 0.038769314305699548 0 -0.22251811273354419 0.045271092852538893 0 -0.2073344650466164 0.045256152092875389 0 -0.21769334509658461 0.055951218203848879 0 -0.22251811273354419 0.045271092852538893 0 -0.21769334509658461 0.055951218203848879 0 -0.20947987249717179 0.060448397508133619 0 -0.2066297839190599 0.054855205218219752 0 -0.21769334509658461 0.055951218203848879 0 -0.20947987249717179 0.060448397508133619 0 -0.2155587047985415 0.070686690568374386 0 -0.19803765617450109 0.060300476042091433 0 -0.20947987249717179 0.060448397508133619 0 -0.2066297839190599 0.054855205218219752 0 -0.1977866825790292 0.05007637869738242 0 -0.2073344650466164 0.045256152092875389 0 -0.2066297839190599 0.054855205218219752 0 -0.2073344650466164 0.045256152092875389 0 -0.21769334509658461 0.055951218203848879 0 -0.2066297839190599 0.054855205218219752 0 -0.1989264366345522 -0.0080023544535597537 0 -0.1965234412062255 0.0098537758749781944 0 -0.20713549204565579 6.5395444916274768e-05 0 -0.19066530249761049 -0.0041303576494283751 0 -0.18717715497560061 0.0062623078557712403 0 -0.1965234412062255 0.0098537758749781944 0 -0.1852069371874478 0.015311100034367831 0 -0.18717715497560061 0.0062623078557712403 0 -0.1965234412062255 0.0098537758749781944 0 -0.1965234412062255 0.0098537758749781944 0 -0.20113962024173071 0.02227838771243261 0 -0.2107847094499361 0.011405203725301251 0 -0.19572946351785711 0.039272048382664133 0 -0.20113962024173071 0.02227838771243261 0 -0.2098237389609823 0.029412342647955388 0 -0.19572946351785711 0.039272048382664133 0 -0.20113962024173071 0.02227838771243261 0 -0.19029700863621521 0.024089069561314659 0 -0.1965234412062255 0.0098537758749781944 0 -0.20113962024173071 0.02227838771243261 0 -0.19029700863621521 0.024089069561314659 0 -0.1852069371874478 0.015311100034367831 0 -0.1965234412062255 0.0098537758749781944 0 -0.19029700863621521 0.024089069561314659 0 -0.2098237389609823 0.029412342647955388 0 -0.2107847094499361 0.011405203725301251 0 -0.22391801440410891 0.019552636913248388 0 -0.20113962024173071 0.02227838771243261 0 -0.2098237389609823 0.029412342647955388 0 -0.2107847094499361 0.011405203725301251 0 -0.2098237389609823 0.029412342647955388 0 -0.22391801440410891 0.019552636913248388 0 -0.21702438745170211 -0.0043907958627755336 0 -0.2107847094499361 0.011405203725301251 0 -0.20713549204565579 6.5395444916274768e-05 0 -0.21702438745170211 -0.0043907958627755336 0 -0.2107847094499361 0.011405203725301251 0 -0.22391801440410891 0.019552636913248388 0 -0.1965234412062255 0.0098537758749781944 0 -0.2107847094499361 0.011405203725301251 0 -0.20713549204565579 6.5395444916274768e-05 0 -0.22867745033346079 0.0038692188645070222 0 -0.22391801440410891 0.019552636913248388 0 -0.2344599051246074 0.012178015861532989 0 -0.21702438745170211 -0.0043907958627755336 0 -0.22391801440410891 0.019552636913248388 0 -0.21702438745170211 -0.0043907958627755336 0 -0.22867745033346079 0.0038692188645070222 0 -0.22391801440410891 0.019552636913248388 0 -0.22391801440410891 0.019552636913248388 0 -0.2403792472176362 0.02548084658656756 0 -0.2344599051246074 0.012178015861532989 0 -0.2098237389609823 0.029412342647955388 0 -0.22391801440410891 0.019552636913248388 0 -0.2284051488343061 0.035137669629428533 0 -0.22391801440410891 0.019552636913248388 0 -0.2403792472176362 0.02548084658656756 0 -0.2284051488343061 0.035137669629428533 0 -0.22391801440410891 0.019552636913248388 0 -0.2344599051246074 0.012178015861532989 0 -0.22391801440410891 0.019552636913248388 0 -0.2284051488343061 0.035137669629428533 0 -0.2522816967992324 0.037264740289820159 0 -0.25157722050270093 0.012682655753942951 0 -0.2403792472176362 0.02548084658656756 0 -0.25157722050270093 0.012682655753942951 0 -0.2403792472176362 0.02548084658656756 0 -0.2344599051246074 0.012178015861532989 0 -0.25267499080189931 -0.0034516002120552492 0 -0.25157722050270093 0.012682655753942951 0 -0.2401015516947359 0.00075261550232862703 0 -0.25157722050270093 0.012682655753942951 0 -0.2344599051246074 0.012178015861532989 0 -0.2401015516947359 0.00075261550232862703 0 -0.22867745033346079 0.0038692188645070222 0 -0.2344599051246074 0.012178015861532989 0 -0.2401015516947359 0.00075261550232862703 0 -0.21769334509658461 0.055951218203848879 0 -0.23255980098598539 0.056775429521547523 0 -0.2155587047985415 0.070686690568374386 0 -0.23289228326450309 0.050722702345608793 0 -0.22641588552015429 0.052180110730886013 0 -0.22251811273354419 0.045271092852538893 0 -0.23289228326450309 0.050722702345608793 0 -0.23255980098598539 0.056775429521547523 0 -0.22641588552015429 0.052180110730886013 0 -0.21769334509658461 0.055951218203848879 0 -0.23255980098598539 0.056775429521547523 0 -0.22641588552015429 0.052180110730886013 0 -0.21769334509658461 0.055951218203848879 0 -0.22641588552015429 0.052180110730886013 0 -0.22251811273354419 0.045271092852538893 0 -0.21702036639386221 0.038769314305699548 0 -0.22251811273354419 0.045271092852538893 0 -0.2284051488343061 0.035137669629428533 0 -0.23289228326450309 0.050722702345608793 0 -0.22251811273354419 0.045271092852538893 0 -0.2284051488343061 0.035137669629428533 0 -0.23289228326450309 0.050722702345608793 0 -0.2284051488343061 0.035137669629428533 0 -0.2522816967992324 0.037264740289820159 0 -0.2403792472176362 0.02548084658656756 0 -0.2284051488343061 0.035137669629428533 0 -0.2522816967992324 0.037264740289820159 0 -0.23289228326450309 0.050722702345608793 0 -0.2284051488343061 0.035137669629428533 0 -0.2522816967992324 0.037264740289820159 0 -0.23289228326450309 0.050722702345608793 0 -0.23255980098598539 0.056775429521547523 0 -0.2522816967992324 0.037264740289820159 0 -0.23255980098598539 0.056775429521547523 0 -0.2522816967992324 0.037264740289820159 0 -0.23255980098598539 0.056775429521547523 0 -0.24906194248509719 0.058488871325365822 0 -0.23255980098598539 0.056775429521547523 0 -0.24906194248509719 0.058488871325365822 0 -0.23770452364983391 0.071010308971772351 0 -0.26257114212692878 0.06573449919026883 0 -0.24906194248509719 0.058488871325365822 0 -0.23770452364983391 0.071010308971772351 0 -0.25261226255175379 0.080423606239198905 0 -0.23770452364983391 0.071010308971772351 0 -0.23158356521460469 0.085326977986282804 0 -0.25261226255175379 0.080423606239198905 0 -0.23158356521460469 0.085326977986282804 0 -0.24377998071086901 0.096378574065869249 0 -0.23158356521460469 0.085326977986282804 0 -0.21283790517273879 0.076286118753275345 0 -0.22135706029896429 0.097751395037259853 0 -0.23158356521460469 0.085326977986282804 0 -0.22135706029896429 0.097751395037259853 0 -0.24377998071086901 0.096378574065869249 0 -0.23255980098598539 0.056775429521547523 0 -0.21283790517273879 0.076286118753275345 0 -0.23770452364983391 0.071010308971772351 0 -0.23158356521460469 0.085326977986282804 0 -0.21283790517273879 0.076286118753275345 0 -0.23255980098598539 0.056775429521547523 0 -0.23770452364983391 0.071010308971772351 0 -0.21283790517273879 0.076286118753275345 0 -0.23255980098598539 0.056775429521547523 0 -0.21283790517273879 0.076286118753275345 0 -0.2155587047985415 0.070686690568374386 0 -0.23770452364983391 0.071010308971772351 0 -0.21283790517273879 0.076286118753275345 0 -0.19803765617450109 0.060300476042091433 0 -0.20947987249717179 0.060448397508133619 0 -0.2155587047985415 0.070686690568374386 0 -0.19803765617450109 0.060300476042091433 0 -0.20333782300263301 0.070680183335342567 0 -0.2155587047985415 0.070686690568374386 0 -0.19803765617450109 0.060300476042091433 0 -0.2155587047985415 0.070686690568374386 0 -0.21283790517273879 0.076286118753275345 0 -0.19766176801088831 0.079505953929404904 0 -0.20333782300263301 0.070680183335342567 0 -0.21283790517273879 0.076286118753275345 0 -0.19766176801088831 0.079505953929404904 0 -0.20333782300263301 0.070680183335342567 0 -0.21283790517273879 0.076286118753275345 0 -0.2155587047985415 0.070686690568374386 0 -0.21283790517273879 0.076286118753275345 0 -0.1951643137470572 0.093770439387570487 0 -0.22135706029896429 0.097751395037259853 0 -0.21283790517273879 0.076286118753275345 0 -0.1951643137470572 0.093770439387570487 0 -0.21283790517273879 0.076286118753275345 0 -0.19766176801088831 0.079505953929404904 0 -0.1951643137470572 0.093770439387570487 0 -0.18248563084903771 0.082725789105533951 0 -0.19766176801088831 0.079505953929404904 0 -0.1951643137470572 0.093770439387570487 0 -0.1867192510276118 0.077748512173410014 0 -0.18248563084903771 0.082725789105533951 0 -0.19766176801088831 0.079505953929404904 0 -0.18248563084903771 0.082725789105533951 0 -0.19766176801088831 0.079505953929404904 0 -0.1867192510276118 0.077748512173410014 0 -0.19766176801088831 0.079505953929404904 0 -0.19050021368002351 0.072419239531055349 0 -0.19803765617450109 0.060300476042091433 0 -0.19050021368002351 0.072419239531055349 0 -0.18892740292417859 0.064703221589215376 0 -0.19803765617450109 0.060300476042091433 0 -0.20333782300263301 0.070680183335342567 0 -0.19050021368002351 0.072419239531055349 0 -0.20333782300263301 0.070680183335342567 0 -0.19766176801088831 0.079505953929404904 0 -0.19050021368002351 0.072419239531055349 0 -0.17749072232138041 0.1112547600218704 0 -0.19150979458678249 0.1243728737611647 0 -0.1951643137470572 0.093770439387570487 0 -0.19150979458678249 0.1243728737611647 0 -0.1951643137470572 0.093770439387570487 0 -0.20994497012605751 0.11823125198409511 0 -0.1951643137470572 0.093770439387570487 0 -0.20994497012605751 0.11823125198409511 0 -0.22135706029896429 0.097751395037259853 0 -0.20994497012605751 0.11823125198409511 0 -0.2348316268224595 0.11651500804646669 0 -0.2235388627286797 0.12965651036182041 0 -0.20994497012605751 0.11823125198409511 0 -0.22135706029896429 0.097751395037259853 0 -0.2348316268224595 0.11651500804646669 0 -0.22135706029896429 0.097751395037259853 0 -0.24377998071086901 0.096378574065869249 0 -0.2348316268224595 0.11651500804646669 0 -0.25136603029008331 0.1103208693098497 0 -0.24377998071086901 0.096378574065869249 0 -0.2348316268224595 0.11651500804646669 0 -0.25922316449870308 0.12628093809151891 0 -0.25136603029008331 0.1103208693098497 0 -0.2348316268224595 0.11651500804646669 0 -0.25922316449870308 0.12628093809151891 0 -0.2348316268224595 0.11651500804646669 0 -0.2369615480924761 0.1404602413506009 0 -0.2369615480924761 0.1404602413506009 0 -0.2235388627286797 0.12965651036182041 0 -0.2124173058737257 0.14341954006611901 0 -0.2348316268224595 0.11651500804646669 0 -0.2369615480924761 0.1404602413506009 0 -0.2235388627286797 0.12965651036182041 0 -0.2369615480924761 0.1404602413506009 0 -0.22679867445049531 0.16064067306310431 0 -0.2124173058737257 0.14341954006611901 0 -0.2369615480924761 0.1404602413506009 0 -0.247018622616726 0.15992587597476091 0 -0.22679867445049531 0.16064067306310431 0 -0.25846103874104392 0.14702121199507179 0 -0.2369615480924761 0.1404602413506009 0 -0.247018622616726 0.15992587597476091 0 -0.247018622616726 0.15992587597476091 0 -0.23359887481107691 0.1809086922627815 0 -0.247018622616726 0.15992587597476091 0 -0.23359887481107691 0.1809086922627815 0 -0.22679867445049531 0.16064067306310431 0 -0.26439180367967152 0.18225540552070321 0 -0.247018622616726 0.15992587597476091 0 -0.23359887481107691 0.1809086922627815 0 -0.23359887481107691 0.1809086922627815 0 -0.20517995294037331 0.17379218369948349 0 -0.2201791270054278 0.2018915085508021 0 -0.23359887481107691 0.1809086922627815 0 -0.22679867445049531 0.16064067306310431 0 -0.20517995294037331 0.17379218369948349 0 -0.22679867445049531 0.16064067306310431 0 -0.20517995294037331 0.17379218369948349 0 -0.2124173058737257 0.14341954006611901 0 -0.20517995294037331 0.17379218369948349 0 -0.19274338499996449 0.14807478539393409 0 -0.17830044274374979 0.16244982581953471 0 -0.19150979458678249 0.1243728737611647 0 -0.19274338499996449 0.14807478539393409 0 -0.2124173058737257 0.14341954006611901 0 -0.20994497012605751 0.11823125198409511 0 -0.2235388627286797 0.12965651036182041 0 -0.2124173058737257 0.14341954006611901 0 -0.19150979458678249 0.1243728737611647 0 -0.20994497012605751 0.11823125198409511 0 -0.2124173058737257 0.14341954006611901 0 -0.20517995294037331 0.17379218369948349 0 -0.19274338499996449 0.14807478539393409 0 -0.2124173058737257 0.14341954006611901 0 -0.22371849106378741 0.2462845034026982 0 -0.23019370483249479 0.22382880503591951 0 -0.2066863838603582 0.24242880758937649 0 -0.22371849106378741 0.2462845034026982 0 -0.23951274761537589 0.2474853768326048 0 -0.23019370483249479 0.22382880503591951 0 -0.25272375818517617 0.22994970808158929 0 -0.25621817608628389 0.2460965770837312 0 -0.23951274761537589 0.2474853768326048 0 -0.25370102580463139 0.2052288024824625 0 -0.25272375818517617 0.22994970808158929 0 -0.23019370483249479 0.22382880503591951 0 -0.25272375818517617 0.22994970808158929 0 -0.23951274761537589 0.2474853768326048 0 -0.23019370483249479 0.22382880503591951 0 -0.25370102580463139 0.2052288024824625 0 -0.23359887481107691 0.1809086922627815 0 -0.2201791270054278 0.2018915085508021 0 -0.25370102580463139 0.2052288024824625 0 -0.23019370483249479 0.22382880503591951 0 -0.2201791270054278 0.2018915085508021 0 -0.23019370483249479 0.22382880503591951 0 -0.2201791270054278 0.2018915085508021 0 -0.20675937919977869 0.22287432483882261 0 -0.25370102580463139 0.2052288024824625 0 -0.23019370483249479 0.22382880503591951 0 -0.23359887481107691 0.1809086922627815 0 -0.2201791270054278 0.2018915085508021 0 -0.20517995294037331 0.17379218369948349 0 -0.2201791270054278 0.2018915085508021 0 -0.19686056424972551 0.20437535499954981 0 -0.20517995294037331 0.17379218369948349 0 -0.19686056424972551 0.20437535499954981 0 -0.17870530295493239 0.18804735871836689 0 -0.19686056424972551 0.20437535499954981 0 -0.20675937919977869 0.22287432483882261 0 -0.19122946023172571 0.22600186257262461 0 -0.19686056424972551 0.20437535499954981 0 -0.19122946023172571 0.22600186257262461 0 -0.179110163166115 0.21364489161719899 0 -0.2201791270054278 0.2018915085508021 0 -0.19686056424972551 0.20437535499954981 0 -0.20675937919977869 0.22287432483882261 0 -0.2201791270054278 0.2018915085508021 0 -0.20675937919977869 0.22287432483882261 0 -0.23019370483249479 0.22382880503591951 0 -0.2066863838603582 0.24242880758937649 0 -0.23019370483249479 0.22382880503591951 0 -0.20675937919977869 0.22287432483882261 0 -0.2066863838603582 0.24242880758937649 0 -0.20675937919977869 0.22287432483882261 0 -0.19333963139412971 0.24385714112684301 0 -0.20675937919977869 0.22287432483882261 0 -0.19122946023172571 0.22600186257262461 0 -0.19333963139412971 0.24385714112684301 0 -0.19122946023172571 0.22600186257262461 0 -0.19333963139412971 0.24385714112684301 0 -0.17951502337729761 0.2392424245160312 0 -0.20675937919977869 0.22287432483882261 0 -0.19333963139412971 0.24385714112684301 0 -0.2066863838603582 0.24242880758937649 0 -0.18259587964237009 0.2606558300825601 0 -0.19333963139412971 0.24385714112684301 0 -0.2066863838603582 0.24242880758937649 0 -0.21408768962570049 0.25938306782852782 0 -0.22371849106378741 0.2462845034026982 0 -0.2066863838603582 0.24242880758937649 0 -0.1532221513837192 0.25419418888983192 0 -0.17951502337729761 0.2392424245160312 0 -0.15110003921584569 0.22881829817408891 0 -0.18259587964237009 0.2606558300825601 0 -0.19333963139412971 0.24385714112684301 0 -0.17951502337729761 0.2392424245160312 0 -0.17951502337729761 0.2392424245160312 0 -0.1619547442009632 0.2162214427956837 0 -0.179110163166115 0.21364489161719899 0 -0.19122946023172571 0.22600186257262461 0 -0.17951502337729761 0.2392424245160312 0 -0.179110163166115 0.21364489161719899 0 -0.17951502337729761 0.2392424245160312 0 -0.179110163166115 0.21364489161719899 0 -0.17951502337729761 0.2392424245160312 0 -0.1619547442009632 0.2162214427956837 0 -0.15110003921584569 0.22881829817408891 0 -0.1619547442009632 0.2162214427956837 0 -0.179110163166115 0.21364489161719899 0 -0.17870530295493239 0.18804735871836689 0 -0.19686056424972551 0.20437535499954981 0 -0.179110163166115 0.21364489161719899 0 -0.17870530295493239 0.18804735871836689 0 -0.179110163166115 0.21364489161719899 0 -0.17870530295493239 0.18804735871836689 0 -0.1619547442009632 0.2162214427956837 0 -0.17870530295493239 0.18804735871836689 0 -0.15775407484820861 0.18727827749961631 0 -0.14804225966403101 0.20585853828705919 0 -0.15775407484820861 0.18727827749961631 0 -0.13876353146598761 0.18223131465273959 0 -0.1619547442009632 0.2162214427956837 0 -0.14804225966403101 0.20585853828705919 0 -0.15775407484820861 0.18727827749961631 0 -0.13876353146598761 0.18223131465273959 0 -0.1245765098090509 0.17966052017845999 0 -0.1190175871807343 0.20067046473278771 0 -0.14804225966403101 0.20585853828705919 0 -0.13876353146598761 0.18223131465273959 0 -0.1190175871807343 0.20067046473278771 0 -0.14804225966403101 0.20585853828705919 0 -0.13479108425045189 0.2189379304695287 0 -0.1190175871807343 0.20067046473278771 0 -0.13479108425045189 0.2189379304695287 0 -0.12594818007053379 0.2253828658525201 0 -0.1190175871807343 0.20067046473278771 0 -0.1619547442009632 0.2162214427956837 0 -0.14804225966403101 0.20585853828705919 0 -0.15110003921584569 0.22881829817408891 0 -0.14804225966403101 0.20585853828705919 0 -0.15110003921584569 0.22881829817408891 0 -0.13479108425045189 0.2189379304695287 0 -0.15110003921584569 0.22881829817408891 0 -0.13479108425045189 0.2189379304695287 0 -0.1378537507735782 0.22769286600650679 0 -0.15110003921584569 0.22881829817408891 0 -0.1378537507735782 0.22769286600650679 0 -0.13827307027013019 0.2362506378269415 0 -0.13479108425045189 0.2189379304695287 0 -0.12594818007053379 0.2253828658525201 0 -0.1378537507735782 0.22769286600650679 0 -0.12594818007053379 0.2253828658525201 0 -0.1378537507735782 0.22769286600650679 0 -0.13827307027013019 0.2362506378269415 0 -0.12594818007053379 0.2253828658525201 0 -0.13827307027013019 0.2362506378269415 0 -0.1327712538659816 0.24971188635390451 0 -0.12594818007053379 0.2253828658525201 0 -0.1327712538659816 0.24971188635390451 0 -0.1532221513837192 0.25419418888983192 0 -0.15110003921584569 0.22881829817408891 0 -0.13827307027013019 0.2362506378269415 0 -0.1532221513837192 0.25419418888983192 0 -0.13827307027013019 0.2362506378269415 0 -0.1327712538659816 0.24971188635390451 0 -0.16317411874061041 0.14897554401654969 0 -0.16113979031376621 0.12743058591966341 0 -0.1447888583061562 0.1436064118174607 0 -0.16317411874061041 0.14897554401654969 0 -0.16113979031376621 0.12743058591966341 0 -0.17789558253256721 0.1368522929207025 0 -0.17749072232138041 0.1112547600218704 0 -0.16113979031376621 0.12743058591966341 0 -0.17789558253256721 0.1368522929207025 0 -0.19150979458678249 0.1243728737611647 0 -0.19274338499996449 0.14807478539393409 0 -0.17789558253256721 0.1368522929207025 0 -0.16317411874061041 0.14897554401654969 0 -0.17789558253256721 0.1368522929207025 0 -0.17830044274374979 0.16244982581953471 0 -0.17789558253256721 0.1368522929207025 0 -0.17830044274374979 0.16244982581953471 0 -0.19274338499996449 0.14807478539393409 0 -0.17789558253256721 0.1368522929207025 0 -0.17830044274374979 0.16244982581953471 0 -0.20517995294037331 0.17379218369948349 0 -0.17870530295493239 0.18804735871836689 0 -0.17830044274374979 0.16244982581953471 0 -0.17870530295493239 0.18804735871836689 0 -0.17830044274374979 0.16244982581953471 0 -0.17870530295493239 0.18804735871836689 0 -0.17830044274374979 0.16244982581953471 0 -0.15775407484820861 0.18727827749961631 0 -0.17830044274374979 0.16244982581953471 0 -0.15775407484820861 0.18727827749961631 0 -0.15245232938168229 0.1648839185887534 0 -0.16317411874061041 0.14897554401654969 0 -0.17830044274374979 0.16244982581953471 0 -0.15245232938168229 0.1648839185887534 0 -0.15775407484820861 0.18727827749961631 0 -0.15245232938168229 0.1648839185887534 0 -0.13876353146598761 0.18223131465273959 0 -0.13876353146598761 0.18223131465273959 0 -0.12843792629854631 0.15978223771525801 0 -0.1245765098090509 0.17966052017845999 0 -0.15245232938168229 0.1648839185887534 0 -0.13876353146598761 0.18223131465273959 0 -0.12843792629854631 0.15978223771525801 0 -0.12843792629854631 0.15978223771525801 0 -0.1447888583061562 0.1436064118174607 0 -0.12843792629854631 0.15978223771525801 0 -0.1447888583061562 0.1436064118174607 0 -0.1204435081575875 0.14623213693654391 0 -0.16317411874061041 0.14897554401654969 0 -0.15245232938168229 0.1648839185887534 0 -0.1447888583061562 0.1436064118174607 0 -0.15245232938168229 0.1648839185887534 0 -0.12843792629854631 0.15978223771525801 0 -0.1447888583061562 0.1436064118174607 0 -0.16113979031376621 0.12743058591966341 0 -0.1447888583061562 0.1436064118174607 0 -0.14300315410871919 0.1253406317882016 0 -0.16113979031376621 0.12743058591966341 0 -0.1447888583061562 0.1436064118174607 0 -0.1447888583061562 0.1436064118174607 0 -0.12687331202938101 0.13192737382428379 0 -0.1204435081575875 0.14623213693654391 0 -0.1447888583061562 0.1436064118174607 0 -0.14300315410871919 0.1253406317882016 0 -0.12687331202938101 0.13192737382428379 0 -0.12687331202938101 0.13192737382428379 0 -0.1130049083687871 0.13722853083192951 0 -0.10667563132183119 0.1260080396076822 0 -0.12687331202938101 0.13192737382428379 0 -0.1130049083687871 0.13722853083192951 0 -0.1204435081575875 0.14623213693654391 0 -0.10667563132183119 0.1260080396076822 0 -0.081978849477511453 0.1384377215961772 0 -0.096577670607123245 0.1239972751083621 0 -0.10667563132183119 0.1260080396076822 0 -0.1008242758955458 0.1385116675773613 0 -0.081978849477511453 0.1384377215961772 0 -0.10667563132183119 0.1260080396076822 0 -0.081978849477511453 0.1384377215961772 0 -0.1130049083687871 0.13722853083192951 0 -0.10667563132183119 0.1260080396076822 0 -0.1008242758955458 0.1385116675773613 0 -0.1130049083687871 0.13722853083192951 0 -0.1008242758955458 0.1385116675773613 0 -0.1078791741402548 0.14587794917826699 0 -0.094422293866394627 0.1556947047027778 0 -0.094582816169344081 0.14500609667275041 0 -0.1078791741402548 0.14587794917826699 0 -0.1008242758955458 0.1385116675773613 0 -0.094582816169344081 0.14500609667275041 0 -0.1078791741402548 0.14587794917826699 0 -0.12843792629854631 0.15978223771525801 0 -0.1204435081575875 0.14623213693654391 0 -0.1073217141416921 0.15896651377475199 0 -0.1078791741402548 0.14587794917826699 0 -0.1204435081575875 0.14623213693654391 0 -0.1073217141416921 0.15896651377475199 0 -0.1130049083687871 0.13722853083192951 0 -0.1078791741402548 0.14587794917826699 0 -0.1204435081575875 0.14623213693654391 0 -0.12843792629854631 0.15978223771525801 0 -0.1245765098090509 0.17966052017845999 0 -0.1120869942909358 0.17595806361305491 0 -0.1120869942909358 0.17595806361305491 0 -0.1073217141416921 0.15896651377475199 0 -0.12843792629854631 0.15978223771525801 0 -0.1120869942909358 0.17595806361305491 0 -0.12843792629854631 0.15978223771525801 0 -0.1120869942909358 0.17595806361305491 0 -0.1073217141416921 0.15896651377475199 0 -0.1245765098090509 0.17966052017845999 0 -0.1120869942909358 0.17595806361305491 0 -0.1190175871807343 0.20067046473278771 0 -0.1120869942909358 0.17595806361305491 0 -0.1020860412129876 0.1687304780430319 0 -0.095149617161195271 0.19271405424946009 0 -0.1020860412129876 0.1687304780430319 0 -0.095149617161195271 0.19271405424946009 0 -0.1120869942909358 0.17595806361305491 0 -0.095149617161195271 0.19271405424946009 0 -0.1020860412129876 0.1687304780430319 0 -0.093279947424905002 0.17994671451597891 0 -0.095149617161195271 0.19271405424946009 0 -0.1020860412129876 0.1687304780430319 0 -0.089956478385260899 0.16811851343374709 0 -0.093279947424905002 0.17994671451597891 0 -0.094422293866394627 0.1556947047027778 0 -0.1078791741402548 0.14587794917826699 0 -0.1020860412129876 0.1687304780430319 0 -0.1078791741402548 0.14587794917826699 0 -0.1073217141416921 0.15896651377475199 0 -0.1020860412129876 0.1687304780430319 0 -0.1120869942909358 0.17595806361305491 0 -0.1073217141416921 0.15896651377475199 0 -0.1020860412129876 0.1687304780430319 0 -0.1078791741402548 0.14587794917826699 0 -0.1020860412129876 0.1687304780430319 0 -0.094422293866394627 0.1556947047027778 0 -0.1020860412129876 0.1687304780430319 0 -0.089956478385260899 0.16811851343374709 0 -0.094422293866394627 0.1556947047027778 0 -0.089956478385260899 0.16811851343374709 0 -0.084742563178951485 0.15922574422532609 0 -0.089956478385260899 0.16811851343374709 0 -0.080023232193096983 0.1657260639694961 0 -0.084742563178951485 0.15922574422532609 0 -0.089956478385260899 0.16811851343374709 0 -0.080023232193096983 0.1657260639694961 0 -0.081293191825158789 0.17801619480298669 0 -0.080023232193096983 0.1657260639694961 0 -0.084742563178951485 0.15922574422532609 0 -0.074930767296401246 0.15918989644816289 0 -0.081293191825158789 0.17801619480298669 0 -0.095149617161195271 0.19271405424946009 0 -0.073474196407973841 0.19079473501472519 0 -0.081293191825158789 0.17801619480298669 0 -0.095149617161195271 0.19271405424946009 0 -0.093279947424905002 0.17994671451597891 0 -0.081293191825158789 0.17801619480298669 0 -0.095149617161195271 0.19271405424946009 0 -0.089956478385260899 0.16811851343374709 0 -0.093279947424905002 0.17994671451597891 0 -0.081293191825158789 0.17801619480298669 0 -0.064604308801312821 0.18244611143699499 0 -0.069549912031587807 0.17131438064227461 0 -0.073474196407973841 0.19079473501472519 0 -0.081293191825158789 0.17801619480298669 0 -0.069549912031587807 0.17131438064227461 0 -0.073474196407973841 0.19079473501472519 0 -0.069549912031587807 0.17131438064227461 0 -0.073474196407973841 0.19079473501472519 0 -0.064604308801312821 0.18244611143699499 0 -0.069549912031587807 0.17131438064227461 0 -0.062041409668937363 0.1723934095439342 0 -0.084742563178951485 0.15922574422532609 0 -0.074930767296401246 0.15918989644816289 0 -0.074588176879671189 0.15080810715310269 0 -0.080023232193096983 0.1657260639694961 0 -0.074930767296401246 0.15918989644816289 0 -0.06743676648912228 0.16331833535651319 0 -0.081293191825158789 0.17801619480298669 0 -0.069549912031587807 0.17131438064227461 0 -0.06743676648912228 0.16331833535651319 0 -0.080023232193096983 0.1657260639694961 0 -0.081293191825158789 0.17801619480298669 0 -0.06743676648912228 0.16331833535651319 0 -0.081293191825158789 0.17801619480298669 0 -0.06743676648912228 0.16331833535651319 0 -0.069549912031587807 0.17131438064227461 0 -0.062031688412593149 0.16441565219234799 0 -0.062041409668937363 0.1723934095439342 0 -0.069549912031587807 0.17131438064227461 0 -0.06743676648912228 0.16331833535651319 0 -0.062031688412593149 0.16441565219234799 0 -0.06743676648912228 0.16331833535651319 0 -0.06725389334219653 0.15771987894696021 0 -0.062031688412593149 0.16441565219234799 0 -0.074930767296401246 0.15918989644816289 0 -0.06743676648912228 0.16331833535651319 0 -0.06725389334219653 0.15771987894696021 0 -0.081978849477511453 0.1384377215961772 0 -0.05728206763319247 0.1508674035846734 0 -0.06725389334219653 0.15771987894696021 0 -0.074588176879671189 0.15080810715310269 0 -0.05728206763319247 0.1508674035846734 0 -0.074588176879671189 0.15080810715310269 0 -0.081978849477511453 0.1384377215961772 0 -0.05728206763319247 0.1508674035846734 0 -0.081978849477511453 0.1384377215961772 0 -0.06070043620975589 0.134524720015781 0 -0.05728206763319247 0.1508674035846734 0 -0.074930767296401246 0.15918989644816289 0 -0.06725389334219653 0.15771987894696021 0 -0.074588176879671189 0.15080810715310269 0 -0.071786582042575819 0.1280585334591178 0 -0.081978849477511453 0.1384377215961772 0 -0.08034823769671974 0.121089655777625 0 -0.071786582042575819 0.1280585334591178 0 -0.081978849477511453 0.1384377215961772 0 -0.06070043620975589 0.134524720015781 0 -0.071786582042575819 0.1280585334591178 0 -0.06070043620975589 0.134524720015781 0 -0.06411880478631618 0.11818203644688791 0 -0.081978849477511453 0.1384377215961772 0 -0.08034823769671974 0.121089655777625 0 -0.096577670607123245 0.1239972751083621 0 -0.1008242758955458 0.1385116675773613 0 -0.094582816169344081 0.14500609667275041 0 -0.081978849477511453 0.1384377215961772 0 -0.094582816169344081 0.14500609667275041 0 -0.081978849477511453 0.1384377215961772 0 -0.0854808471676783 0.14892295327365951 0 -0.094422293866394627 0.1556947047027778 0 -0.084742563178951485 0.15922574422532609 0 -0.0854808471676783 0.14892295327365951 0 -0.094422293866394627 0.1556947047027778 0 -0.094582816169344081 0.14500609667275041 0 -0.0854808471676783 0.14892295327365951 0 -0.084742563178951485 0.15922574422532609 0 -0.074588176879671189 0.15080810715310269 0 -0.0854808471676783 0.14892295327365951 0 -0.074588176879671189 0.15080810715310269 0 -0.081978849477511453 0.1384377215961772 0 -0.0854808471676783 0.14892295327365951 0 -0.1045487088169635 0.24438495162540061 0 -0.11455994162881621 0.23631135170566109 0 -0.098826177075254387 0.23394696074010041 0 -0.10005120432924321 0.25626016583208688 0 -0.094679029848152713 0.24609146959404629 0 -0.1045487088169635 0.24438495162540061 0 -0.094679029848152713 0.24609146959404629 0 -0.1045487088169635 0.24438495162540061 0 -0.098826177075254387 0.23394696074010041 0 -0.116744543106582 0.25728181003509248 0 -0.1045487088169635 0.24438495162540061 0 -0.11455994162881621 0.23631135170566109 0 -0.116744543106582 0.25728181003509248 0 -0.1327712538659816 0.24971188635390451 0 -0.11455994162881621 0.23631135170566109 0 -0.12594818007053379 0.2253828658525201 0 -0.1327712538659816 0.24971188635390451 0 -0.11455994162881621 0.23631135170566109 0 -0.11455994162881621 0.23631135170566109 0 -0.1144435087069731 0.2232582902708152 0 -0.1063794885369051 0.22193246116811141 0 -0.12594818007053379 0.2253828658525201 0 -0.1144435087069731 0.2232582902708152 0 -0.1108864245916369 0.20940648235696879 0 -0.12594818007053379 0.2253828658525201 0 -0.11455994162881621 0.23631135170566109 0 -0.1144435087069731 0.2232582902708152 0 -0.11455994162881621 0.23631135170566109 0 -0.1063794885369051 0.22193246116811141 0 -0.098826177075254387 0.23394696074010041 0 -0.1063794885369051 0.22193246116811141 0 -0.098826177075254387 0.23394696074010041 0 -0.089950704149474564 0.21660149084549701 0 -0.1063794885369051 0.22193246116811141 0 -0.089950704149474564 0.21660149084549701 0 -0.10053720550511509 0.21148400771379949 0 -0.095149617161195271 0.19271405424946009 0 -0.089950704149474564 0.21660149084549701 0 -0.1063794885369051 0.22193246116811141 0 -0.10053720550511509 0.21148400771379949 0 -0.089950704149474564 0.21660149084549701 0 -0.10053720550511509 0.21148400771379949 0 -0.1108864245916369 0.20940648235696879 0 -0.095149617161195271 0.19271405424946009 0 -0.1063794885369051 0.22193246116811141 0 -0.10053720550511509 0.21148400771379949 0 -0.1108864245916369 0.20940648235696879 0 -0.12594818007053379 0.2253828658525201 0 -0.1190175871807343 0.20067046473278771 0 -0.12594818007053379 0.2253828658525201 0 -0.1108864245916369 0.20940648235696879 0 -0.1190175871807343 0.20067046473278771 0 -0.12594818007053379 0.2253828658525201 0 -0.1108864245916369 0.20940648235696879 0 -0.1144435087069731 0.2232582902708152 0 -0.1063794885369051 0.22193246116811141 0 -0.1108864245916369 0.20940648235696879 0 -0.1120869942909358 0.17595806361305491 0 -0.1190175871807343 0.20067046473278771 0 -0.1108864245916369 0.20940648235696879 0 -0.1190175871807343 0.20067046473278771 0 -0.10682171669235439 0.1942096232944058 0 -0.1120869942909358 0.17595806361305491 0 -0.1190175871807343 0.20067046473278771 0 -0.10682171669235439 0.1942096232944058 0 -0.1108864245916369 0.20940648235696879 0 -0.095149617161195271 0.19271405424946009 0 -0.1108864245916369 0.20940648235696879 0 -0.10682171669235439 0.1942096232944058 0 -0.095149617161195271 0.19271405424946009 0 -0.1120869942909358 0.17595806361305491 0 -0.10682171669235439 0.1942096232944058 0 -0.095149617161195271 0.19271405424946009 0 -0.095149617161195271 0.19271405424946009 0 -0.077398480784349299 0.2102750893871779 0 -0.095149617161195271 0.19271405424946009 0 -0.073474196407973841 0.19079473501472519 0 -0.077398480784349299 0.2102750893871779 0 -0.095149617161195271 0.19271405424946009 0 -0.077398480784349299 0.2102750893871779 0 -0.087241526055590657 0.20514135106535239 0 -0.073474196407973841 0.19079473501472519 0 -0.077398480784349299 0.2102750893871779 0 -0.073474196407973841 0.19079473501472519 0 -0.077398480784349299 0.2102750893871779 0 -0.068984895145132993 0.20348567813270921 0 -0.064604308801312821 0.18244611143699499 0 -0.073474196407973841 0.19079473501472519 0 -0.062951628171730722 0.19451437844324071 0 -0.073474196407973841 0.19079473501472519 0 -0.062951628171730722 0.19451437844324071 0 -0.068984895145132993 0.20348567813270921 0 -0.062951628171730722 0.19451437844324071 0 -0.068984895145132993 0.20348567813270921 0 -0.057478398324341332 0.20606456403591589 0 -0.068984895145132993 0.20348567813270921 0 -0.075683327299925024 0.21197187487555791 0 -0.057478398324341332 0.20606456403591589 0 -0.075683327299925024 0.21197187487555791 0 -0.060700713784132942 0.2267940359372384 0 -0.057478398324341332 0.20606456403591589 0 -0.075683327299925024 0.21197187487555791 0 -0.057478398324341332 0.20606456403591589 0 -0.077398480784349299 0.2102750893871779 0 -0.068984895145132993 0.20348567813270921 0 -0.075683327299925024 0.21197187487555791 0 -0.075683327299925024 0.21197187487555791 0 -0.077884159070199604 0.2126860219832131 0 -0.060700713784132942 0.2267940359372384 0 -0.075683327299925024 0.21197187487555791 0 -0.077884159070199604 0.2126860219832131 0 -0.077398480784349299 0.2102750893871779 0 -0.075683327299925024 0.21197187487555791 0 -0.077884159070199604 0.2126860219832131 0 -0.077398480784349299 0.2102750893871779 0 -0.077884159070199604 0.2126860219832131 0 -0.077398480784349299 0.2102750893871779 0 -0.075683327299925024 0.21197187487555791 0 -0.077884159070199604 0.2126860219832131 0 -0.089950704149474564 0.21660149084549701 0 -0.077884159070199604 0.2126860219832131 0 -0.087241526055590657 0.20514135106535239 0 -0.089950704149474564 0.21660149084549701 0 -0.095149617161195271 0.19271405424946009 0 -0.087241526055590657 0.20514135106535239 0 -0.089950704149474564 0.21660149084549701 0 -0.095149617161195271 0.19271405424946009 0 -0.089950704149474564 0.21660149084549701 0 -0.077398480784349299 0.2102750893871779 0 -0.077884159070199604 0.2126860219832131 0 -0.087241526055590657 0.20514135106535239 0 -0.077884159070199604 0.2126860219832131 0 -0.083666647235009842 0.24139059785004849 0 -0.089950704149474564 0.21660149084549701 0 -0.083666647235009842 0.24139059785004849 0 -0.077884159070199604 0.2126860219832131 0 -0.089950704149474564 0.21660149084549701 0 -0.083666647235009842 0.24139059785004849 0 -0.098826177075254387 0.23394696074010041 0 -0.089950704149474564 0.21660149084549701 0 -0.083666647235009842 0.24139059785004849 0 -0.077884159070199604 0.2126860219832131 0 -0.083666647235009842 0.24139059785004849 0 -0.060700713784132942 0.2267940359372384 0 -0.075683327299925024 0.21197187487555791 0 -0.060700713784132942 0.2267940359372384 0 -0.064077212627390134 0.24851538469076631 0 -0.083666647235009842 0.24139059785004849 0 -0.060700713784132942 0.2267940359372384 0 -0.086302411784292182 0.25447467192259482 0 -0.083666647235009842 0.24139059785004849 0 -0.094679029848152713 0.24609146959404629 0 -0.098826177075254387 0.23394696074010041 0 -0.083666647235009842 0.24139059785004849 0 -0.086302411784292182 0.25447467192259482 0 -0.094679029848152713 0.24609146959404629 0 -0.083666647235009842 0.24139059785004849 0 -0.03068766995985707 0.25286978792993342 0 -0.034335222642673788 0.23481172099035691 0 -0.046578861792199937 0.24361118962503389 0 -0.034335222642673788 0.23481172099035691 0 -0.046578861792199937 0.24361118962503389 0 -0.045510089746351297 0.2289623102588538 0 -0.064077212627390134 0.24851538469076631 0 -0.046578861792199937 0.24361118962503389 0 -0.055802081643016588 0.23164020743468811 0 -0.064077212627390134 0.24851538469076631 0 -0.055802081643016588 0.23164020743468811 0 -0.060700713784132942 0.2267940359372384 0 -0.064077212627390134 0.24851538469076631 0 -0.060700713784132942 0.2267940359372384 0 -0.046578861792199937 0.24361118962503389 0 -0.055802081643016588 0.23164020743468811 0 -0.045510089746351297 0.2289623102588538 0 -0.055802081643016588 0.23164020743468811 0 -0.053252725762674542 0.2222055350902031 0 -0.045510089746351297 0.2289623102588538 0 -0.055802081643016588 0.23164020743468811 0 -0.060700713784132942 0.2267940359372384 0 -0.053252725762674542 0.2222055350902031 0 -0.055802081643016588 0.23164020743468811 0 -0.060700713784132942 0.2267940359372384 0 -0.053252725762674542 0.2222055350902031 0 -0.045510089746351297 0.2289623102588538 0 -0.046772345315528908 0.21756655778431969 0 -0.045510089746351297 0.2289623102588538 0 -0.036443083940353373 0.22210497005765251 0 -0.046772345315528908 0.21756655778431969 0 -0.034335222642673788 0.23481172099035691 0 -0.045510089746351297 0.2289623102588538 0 -0.036443083940353373 0.22210497005765251 0 -0.034335222642673788 0.23481172099035691 0 -0.036443083940353373 0.22210497005765251 0 -0.024866254401544021 0.22078734426404351 0 -0.036443083940353373 0.22210497005765251 0 -0.046772345315528908 0.21756655778431969 0 -0.031637039445344017 0.19767931081015269 0 -0.046772345315528908 0.21756655778431969 0 -0.057478398324341332 0.20606456403591589 0 -0.031637039445344017 0.19767931081015269 0 -0.060700713784132942 0.2267940359372384 0 -0.053252725762674542 0.2222055350902031 0 -0.057478398324341332 0.20606456403591589 0 -0.060700713784132942 0.2267940359372384 0 -0.057478398324341332 0.20606456403591589 0 -0.053252725762674542 0.2222055350902031 0 -0.046772345315528908 0.21756655778431969 0 -0.057478398324341332 0.20606456403591589 0 -0.062951628171730722 0.19451437844324071 0 -0.057478398324341332 0.20606456403591589 0 -0.054948738746262903 0.1897910154656581 0 -0.057478398324341332 0.20606456403591589 0 -0.054948738746262903 0.1897910154656581 0 -0.031637039445344017 0.19767931081015269 0 -0.057478398324341332 0.20606456403591589 0 -0.054948738746262903 0.1897910154656581 0 -0.054948738746262903 0.1897910154656581 0 -0.031637039445344017 0.19767931081015269 0 -0.039999697082172873 0.18418677263352329 0 -0.057478398324341332 0.20606456403591589 0 -0.031637039445344017 0.19767931081015269 0 -0.031637039445344017 0.19767931081015269 0 -0.0057956805663459468 0.1892940575843915 0 -0.031637039445344017 0.19767931081015269 0 -0.0057956805663459468 0.1892940575843915 0 -0.024775833668462071 0.17590936267321361 0 -0.031637039445344017 0.19767931081015269 0 -0.0057956805663459468 0.1892940575843915 0 -0.01019634689217482 0.20814994011246479 0 -0.0057956805663459468 0.1892940575843915 0 -0.01019634689217482 0.20814994011246479 0 0.0090806704795409685 0.20996839310177981 0 -0.01019634689217482 0.20814994011246479 0 0.00014186162909880781 0.2338185852574263 0 0.0090806704795409685 0.20996839310177981 0 -0.036443083940353373 0.22210497005765251 0 -0.031637039445344017 0.19767931081015269 0 -0.024866254401544021 0.22078734426404351 0 -0.031637039445344017 0.19767931081015269 0 -0.01019634689217482 0.20814994011246479 0 -0.024866254401544021 0.22078734426404351 0 -0.034335222642673788 0.23481172099035691 0 -0.024866254401544021 0.22078734426404351 0 -0.01991034591062427 0.239405390953495 0 -0.024866254401544021 0.22078734426404351 0 0.00014186162909880781 0.2338185852574263 0 -0.024866254401544021 0.22078734426404351 0 -0.01991034591062427 0.239405390953495 0 0.00014186162909880781 0.2338185852574263 0 -0.01019634689217482 0.20814994011246479 0 -0.024866254401544021 0.22078734426404351 0 0.00014186162909880781 0.2338185852574263 0 -0.0098044441781452579 0.25473951632571468 0 0.00014186162909880781 0.2338185852574263 0 0.0073806355134042019 0.25529449578482938 0 -0.0098044441781452579 0.25473951632571468 0 -0.01991034591062427 0.239405390953495 0 0.00014186162909880781 0.2338185852574263 0 -0.03068766995985707 0.25286978792993342 0 -0.034335222642673788 0.23481172099035691 0 -0.01991034591062427 0.239405390953495 0 -0.03068766995985707 0.25286978792993342 0 -0.0098044441781452579 0.25473951632571468 0 -0.01991034591062427 0.239405390953495 0 -0.045513089216113363 0.1481501368583191 0 -0.039963318838929777 0.1583549670989208 0 -0.028048700007850699 0.14601834090005769 0 -0.045513089216113363 0.1481501368583191 0 -0.037584816749385713 0.12707105787504261 0 -0.028048700007850699 0.14601834090005769 0 -0.037584816749385713 0.12707105787504261 0 -0.028048700007850699 0.14601834090005769 0 -0.045513089216113363 0.1481501368583191 0 -0.037584816749385713 0.12707105787504261 0 -0.045513089216113363 0.1481501368583191 0 -0.037584816749385713 0.12707105787504261 0 -0.049753839012929922 0.13582205838018921 0 -0.037584816749385713 0.12707105787504261 0 -0.049753839012929922 0.13582205838018921 0 -0.051208231868337763 0.1260313133231428 0 -0.049753839012929922 0.13582205838018921 0 -0.06070043620975589 0.134524720015781 0 -0.052276118599972977 0.1457036522838337 0 -0.051208231868337763 0.1260313133231428 0 -0.06070043620975589 0.134524720015781 0 -0.06411880478631618 0.11818203644688791 0 -0.06070043620975589 0.134524720015781 0 -0.06411880478631618 0.11818203644688791 0 -0.049753839012929922 0.13582205838018921 0 -0.051208231868337763 0.1260313133231428 0 -0.06070043620975589 0.134524720015781 0 -0.06070043620975589 0.134524720015781 0 -0.052276118599972977 0.1457036522838337 0 -0.05728206763319247 0.1508674035846734 0 -0.06070043620975589 0.134524720015781 0 -0.05728206763319247 0.1508674035846734 0 -0.045513089216113363 0.1481501368583191 0 -0.049753839012929922 0.13582205838018921 0 -0.052276118599972977 0.1457036522838337 0 -0.045513089216113363 0.1481501368583191 0 -0.052276118599972977 0.1457036522838337 0 -0.053440893212920608 0.15280063427064891 0 -0.052276118599972977 0.1457036522838337 0 -0.053440893212920608 0.15280063427064891 0 -0.05728206763319247 0.1508674035846734 0 -0.053440893212920608 0.15280063427064891 0 -0.05728206763319247 0.1508674035846734 0 -0.05728206763319247 0.1508674035846734 0 -0.062031688412593149 0.16441565219234799 0 -0.053441361682841117 0.16922921584159559 0 -0.053440893212920608 0.15280063427064891 0 -0.05728206763319247 0.1508674035846734 0 -0.053441361682841117 0.16922921584159559 0 -0.045513089216113363 0.1481501368583191 0 -0.053440893212920608 0.15280063427064891 0 -0.053441361682841117 0.16922921584159559 0 -0.045513089216113363 0.1481501368583191 0 -0.053441361682841117 0.16922921584159559 0 -0.05728206763319247 0.1508674035846734 0 -0.053441361682841117 0.16922921584159559 0 -0.06725389334219653 0.15771987894696021 0 -0.05728206763319247 0.1508674035846734 0 -0.062031688412593149 0.16441565219234799 0 -0.062031688412593149 0.16441565219234799 0 -0.053441361682841117 0.16922921584159559 0 -0.062041409668937363 0.1723934095439342 0 -0.053441361682841117 0.16922921584159559 0 -0.047633738945979477 0.17108968717192211 0 -0.039963318838929777 0.1583549670989208 0 -0.052991971448818453 0.17137768000779441 0 -0.053441361682841117 0.16922921584159559 0 -0.047633738945979477 0.17108968717192211 0 -0.052991971448818453 0.17137768000779441 0 -0.053441361682841117 0.16922921584159559 0 -0.054948738746262903 0.1897910154656581 0 -0.052419079168185397 0.17351746689540021 0 -0.046888846475854867 0.17837904804597579 0 -0.062951628171730722 0.19451437844324071 0 -0.054948738746262903 0.1897910154656581 0 -0.052419079168185397 0.17351746689540021 0 -0.062951628171730722 0.19451437844324071 0 -0.052991971448818453 0.17137768000779441 0 -0.052419079168185397 0.17351746689540021 0 -0.064604308801312821 0.18244611143699499 0 -0.062951628171730722 0.19451437844324071 0 -0.053441361682841117 0.16922921584159559 0 -0.062951628171730722 0.19451437844324071 0 -0.052991971448818453 0.17137768000779441 0 -0.053441361682841117 0.16922921584159559 0 -0.054948738746262903 0.1897910154656581 0 -0.052419079168185397 0.17351746689540021 0 -0.062951628171730722 0.19451437844324071 0 -0.053441361682841117 0.16922921584159559 0 -0.064604308801312821 0.18244611143699499 0 -0.053441361682841117 0.16922921584159559 0 -0.062041409668937363 0.1723934095439342 0 -0.052991971448818453 0.17137768000779441 0 -0.047633738945979477 0.17108968717192211 0 -0.052419079168185397 0.17351746689540021 0 -0.047633738945979477 0.17108968717192211 0 -0.052419079168185397 0.17351746689540021 0 -0.046888846475854867 0.17837904804597579 0 -0.054948738746262903 0.1897910154656581 0 -0.046888846475854867 0.17837904804597579 0 -0.039999697082172873 0.18418677263352329 0 -0.031637039445344017 0.19767931081015269 0 -0.039999697082172873 0.18418677263352329 0 -0.024775833668462071 0.17590936267321361 0 -0.046888846475854867 0.17837904804597579 0 -0.039999697082172873 0.18418677263352329 0 -0.039442978436673673 0.17331029806337539 0 -0.047633738945979477 0.17108968717192211 0 -0.046888846475854867 0.17837904804597579 0 -0.039442978436673673 0.17331029806337539 0 -0.039442978436673673 0.17331029806337539 0 -0.032139483942643897 0.16694135859911591 0 -0.024775833668462071 0.17590936267321361 0 -0.039999697082172873 0.18418677263352329 0 -0.039442978436673673 0.17331029806337539 0 -0.024775833668462071 0.17590936267321361 0 -0.045513089216113363 0.1481501368583191 0 -0.053441361682841117 0.16922921584159559 0 -0.039963318838929777 0.1583549670989208 0 -0.039963318838929777 0.1583549670989208 0 -0.032139483942643897 0.16694135859911591 0 -0.02343924065842673 0.15869802647678349 0 -0.047633738945979477 0.17108968717192211 0 -0.039442978436673673 0.17331029806337539 0 -0.039963318838929777 0.1583549670989208 0 -0.039442978436673673 0.17331029806337539 0 -0.039963318838929777 0.1583549670989208 0 -0.032139483942643897 0.16694135859911591 0 -0.032139483942643897 0.16694135859911591 0 -0.02343924065842673 0.15869802647678349 0 -0.024775833668462071 0.17590936267321361 0 -0.02343924065842673 0.15869802647678349 0 -0.024775833668462071 0.17590936267321361 0 -0.0048034666842798916 0.1614245706846468 0 -0.0057956805663459468 0.1892940575843915 0 -0.024775833668462071 0.17590936267321361 0 -0.0048034666842798916 0.1614245706846468 0 -0.0048034666842798916 0.1614245706846468 0 -0.01090464080839405 0.14353955890474629 0 0.011098566836083609 0.13484946890849181 0 -0.02343924065842673 0.15869802647678349 0 -0.0048034666842798916 0.1614245706846468 0 -0.01090464080839405 0.14353955890474629 0 -0.039963318838929777 0.1583549670989208 0 -0.02343924065842673 0.15869802647678349 0 -0.028048700007850699 0.14601834090005769 0 -0.02343924065842673 0.15869802647678349 0 -0.01090464080839405 0.14353955890474629 0 -0.028048700007850699 0.14601834090005769 0 -0.037584816749385713 0.12707105787504261 0 -0.0187932077553963 0.1304023687453105 0 -0.02482114599867602 0.1199028763409456 0 -0.01090464080839405 0.14353955890474629 0 -0.028048700007850699 0.14601834090005769 0 -0.0187932077553963 0.1304023687453105 0 -0.037584816749385713 0.12707105787504261 0 -0.028048700007850699 0.14601834090005769 0 -0.0187932077553963 0.1304023687453105 0 -0.0064436606074630637 0.13109611639504981 0 -0.007175360702145514 0.1155930690216506 0 0.011098566836083609 0.13484946890849181 0 -0.01090464080839405 0.14353955890474629 0 -0.0064436606074630637 0.13109611639504981 0 0.011098566836083609 0.13484946890849181 0 -0.0187932077553963 0.1304023687453105 0 -0.0064436606074630637 0.13109611639504981 0 -0.007175360702145514 0.1155930690216506 0 -0.01090464080839405 0.14353955890474629 0 -0.0187932077553963 0.1304023687453105 0 -0.0064436606074630637 0.13109611639504981 0 -0.007175360702145514 0.1155930690216506 0 -0.0040088977147468936 0.097024336429998151 0 -0.013655752966245171 0.094180689311720855 0 -0.007175360702145514 0.1155930690216506 0 -0.0040088977147468936 0.097024336429998151 0 0.0025937760044158291 0.1064596481343341 0 -0.007175360702145514 0.1155930690216506 0 -0.013655752966245171 0.094180689311720855 0 -0.02544928824037461 0.096336669134809427 0 -0.029459919491476121 0.1011230655410132 0 -0.021580178673492881 0.1105609364200745 0 -0.037915498494119543 0.10215930426450601 0 -0.007175360702145514 0.1155930690216506 0 -0.02544928824037461 0.096336669134809427 0 -0.007175360702145514 0.1155930690216506 0 -0.02544928824037461 0.096336669134809427 0 -0.0241566231860777 0.1021061234229471 0 -0.02544928824037461 0.096336669134809427 0 -0.029459919491476121 0.1011230655410132 0 -0.035034026511796899 0.0954599165668297 0 -0.02544928824037461 0.096336669134809427 0 -0.029459919491476121 0.1011230655410132 0 -0.0241566231860777 0.1021061234229471 0 -0.02544928824037461 0.096336669134809427 0 -0.0241566231860777 0.1021061234229471 0 -0.029459919491476121 0.1011230655410132 0 -0.0241566231860777 0.1021061234229471 0 -0.021580178673492881 0.1105609364200745 0 -0.02482114599867602 0.1199028763409456 0 -0.021580178673492881 0.1105609364200745 0 -0.032585978911933711 0.11378053360982859 0 -0.007175360702145514 0.1155930690216506 0 -0.0241566231860777 0.1021061234229471 0 -0.021580178673492881 0.1105609364200745 0 -0.0187932077553963 0.1304023687453105 0 -0.007175360702145514 0.1155930690216506 0 -0.02482114599867602 0.1199028763409456 0 -0.007175360702145514 0.1155930690216506 0 -0.02482114599867602 0.1199028763409456 0 -0.021580178673492881 0.1105609364200745 0 -0.01109578586274463 0.07592966442077155 0 -0.01963881101933795 0.057650575484614511 0 -0.0089029190745683329 0.062319161291970238 0 -0.0031702267477386531 0.067180855403790804 0 -0.01109578586274463 0.07592966442077155 0 0.0065236609159091173 0.071671444604676282 0 -0.0031702267477386531 0.067180855403790804 0 -0.0089029190745683329 0.062319161291970238 0 0.00079413703044923156 0.058803151297745167 0 -0.0031702267477386531 0.067180855403790804 0 -0.01109578586274463 0.07592966442077155 0 -0.0089029190745683329 0.062319161291970238 0 -0.0040088977147468936 0.097024336429998151 0 -0.01109578586274463 0.07592966442077155 0 0.011643404763696401 0.092949868607662828 0 -0.0040088977147468936 0.097024336429998151 0 -0.013655752966245171 0.094180689311720855 0 -0.01109578586274463 0.07592966442077155 0 -0.013655752966245171 0.094180689311720855 0 -0.01109578586274463 0.07592966442077155 0 -0.02054943231121421 0.086019707551374502 0 -0.02544928824037461 0.096336669134809427 0 -0.02054943231121421 0.086019707551374502 0 -0.029642132364781061 0.077623064684345475 0 -0.02544928824037461 0.096336669134809427 0 -0.029642132364781061 0.077623064684345475 0 -0.036673455980692451 0.084509049595857907 0 -0.01109578586274463 0.07592966442077155 0 -0.02054943231121421 0.086019707551374502 0 -0.029642132364781061 0.077623064684345475 0 -0.02544928824037461 0.096336669134809427 0 -0.029642132364781061 0.077623064684345475 0 -0.013655752966245171 0.094180689311720855 0 -0.02544928824037461 0.096336669134809427 0 -0.02054943231121421 0.086019707551374502 0 -0.02544928824037461 0.096336669134809427 0 -0.036673455980692451 0.084509049595857907 0 -0.01109578586274463 0.07592966442077155 0 -0.033834976489186493 0.058909460233881362 0 -0.01109578586274463 0.07592966442077155 0 -0.029642132364781061 0.077623064684345475 0 -0.033834976489186493 0.058909460233881362 0 -0.01109578586274463 0.07592966442077155 0 -0.033834976489186493 0.058909460233881362 0 -0.01963881101933795 0.057650575484614511 0 -0.029642132364781061 0.077623064684345475 0 -0.033834976489186493 0.058909460233881362 0 -0.029642132364781061 0.077623064684345475 0 -0.036732086871232597 0.066761861307427367 0 -0.033834976489186493 0.058909460233881362 0 -0.042969512877196837 0.063698159366550891 0 -0.036732086871232597 0.066761861307427367 0 -0.038306240480512441 0.072768089837317376 0 -0.042969512877196837 0.063698159366550891 0 -0.038306240480512441 0.072768089837317376 0 -0.046136221960229658 0.070392563092827029 0 -0.042969512877196837 0.063698159366550891 0 -0.036732086871232597 0.066761861307427367 0 -0.038907572144486188 0.060810532415041758 0 -0.029642132364781061 0.077623064684345475 0 -0.036732086871232597 0.066761861307427367 0 -0.038306240480512441 0.072768089837317376 0 -0.038306240480512441 0.072768089837317376 0 -0.046136221960229658 0.070392563092827029 0 -0.043586306971417507 0.077534071189344175 0 -0.038306240480512441 0.072768089837317376 0 -0.043586306971417507 0.077534071189344175 0 -0.036673455980692451 0.084509049595857907 0 -0.043586306971417507 0.077534071189344175 0 -0.036673455980692451 0.084509049595857907 0 -0.046978765451358998 0.084182386091036676 0 -0.029642132364781061 0.077623064684345475 0 -0.038306240480512441 0.072768089837317376 0 -0.036673455980692451 0.084509049595857907 0 -0.02544928824037461 0.096336669134809427 0 -0.036673455980692451 0.084509049595857907 0 -0.035034026511796899 0.0954599165668297 0 -0.036673455980692451 0.084509049595857907 0 -0.044089979176562301 0.093675305350012283 0 -0.035034026511796899 0.0954599165668297 0 -0.036673455980692451 0.084509049595857907 0 -0.044089979176562301 0.093675305350012283 0 -0.046978765451358998 0.084182386091036676 0 -0.044089979176562301 0.093675305350012283 0 -0.057144835734191893 0.088207312209507505 0 -0.046978765451358998 0.084182386091036676 0 -0.057144835734191893 0.088207312209507505 0 -0.046978765451358998 0.084182386091036676 0 -0.053399249393930842 0.076986192110461482 0 -0.043586306971417507 0.077534071189344175 0 -0.046978765451358998 0.084182386091036676 0 -0.053399249393930842 0.076986192110461482 0 -0.053399249393930842 0.076986192110461482 0 -0.070406408885084593 0.061857930521202607 0 -0.059815066152941319 0.061788281472960463 0 -0.057144835734191893 0.088207312209507505 0 -0.053399249393930842 0.076986192110461482 0 -0.070406408885084593 0.061857930521202607 0 -0.046136221960229658 0.070392563092827029 0 -0.043586306971417507 0.077534071189344175 0 -0.053399249393930842 0.076986192110461482 0 -0.046136221960229658 0.070392563092827029 0 -0.053399249393930842 0.076986192110461482 0 -0.05257832837313995 0.068950164376806455 0 -0.053399249393930842 0.076986192110461482 0 -0.05257832837313995 0.068950164376806455 0 -0.059815066152941319 0.061788281472960463 0 -0.05257832837313995 0.068950164376806455 0 -0.052166049838275927 0.062310195238599278 0 -0.059815066152941319 0.061788281472960463 0 -0.046136221960229658 0.070392563092827029 0 -0.05257832837313995 0.068950164376806455 0 -0.052166049838275927 0.062310195238599278 0 -0.042969512877196837 0.063698159366550891 0 -0.046136221960229658 0.070392563092827029 0 -0.052166049838275927 0.062310195238599278 0 -0.021580178673492881 0.1105609364200745 0 -0.043883262583300407 0.11455669389781301 0 -0.021580178673492881 0.1105609364200745 0 -0.043883262583300407 0.11455669389781301 0 -0.032585978911933711 0.11378053360982859 0 -0.037584816749385713 0.12707105787504261 0 -0.051208231868337763 0.1260313133231428 0 -0.043883262583300407 0.11455669389781301 0 -0.037584816749385713 0.12707105787504261 0 -0.043883262583300407 0.11455669389781301 0 -0.037584816749385713 0.12707105787504261 0 -0.032585978911933711 0.11378053360982859 0 -0.037584816749385713 0.12707105787504261 0 -0.043883262583300407 0.11455669389781301 0 -0.032585978911933711 0.11378053360982859 0 -0.037584816749385713 0.12707105787504261 0 -0.02482114599867602 0.1199028763409456 0 -0.032585978911933711 0.11378053360982859 0 -0.021580178673492881 0.1105609364200745 0 -0.043883262583300407 0.11455669389781301 0 -0.037915498494119543 0.10215930426450601 0 -0.044089979176562301 0.093675305350012283 0 -0.043883262583300407 0.11455669389781301 0 -0.037915498494119543 0.10215930426450601 0 -0.044089979176562301 0.093675305350012283 0 -0.037915498494119543 0.10215930426450601 0 -0.035034026511796899 0.0954599165668297 0 -0.029459919491476121 0.1011230655410132 0 -0.037915498494119543 0.10215930426450601 0 -0.035034026511796899 0.0954599165668297 0 -0.044089979176562301 0.093675305350012283 0 -0.057144835734191893 0.088207312209507505 0 -0.043883262583300407 0.11455669389781301 0 -0.057144835734191893 0.088207312209507505 0 -0.043883262583300407 0.11455669389781301 0 -0.057144835734191893 0.088207312209507505 0 -0.043883262583300407 0.11455669389781301 0 -0.056175626513735713 0.104231459755559 0 -0.056175626513735713 0.104231459755559 0 -0.061770267295803899 0.1005995653590098 0 -0.06411880478631618 0.11818203644688791 0 -0.057144835734191893 0.088207312209507505 0 -0.056175626513735713 0.104231459755559 0 -0.061770267295803899 0.1005995653590098 0 -0.043883262583300407 0.11455669389781301 0 -0.06411880478631618 0.11818203644688791 0 -0.051208231868337763 0.1260313133231428 0 -0.043883262583300407 0.11455669389781301 0 -0.06411880478631618 0.11818203644688791 0 -0.043883262583300407 0.11455669389781301 0 -0.056175626513735713 0.104231459755559 0 -0.06411880478631618 0.11818203644688791 0 -0.071786582042575819 0.1280585334591178 0 -0.06411880478631618 0.11818203644688791 0 -0.08034823769671974 0.121089655777625 0 -0.06411880478631618 0.11818203644688791 0 -0.08034823769671974 0.121089655777625 0 -0.075381325115152609 0.106019298300689 0 -0.06411880478631618 0.11818203644688791 0 -0.08034823769671974 0.121089655777625 0 -0.08034823769671974 0.121089655777625 0 -0.096577670607123245 0.1239972751083621 0 -0.08034823769671974 0.121089655777625 0 -0.092569001324263961 0.1124699312803344 0 -0.096577670607123245 0.1239972751083621 0 -0.08034823769671974 0.121089655777625 0 -0.083967771981719092 0.1102844810624737 0 -0.092569001324263961 0.1124699312803344 0 -0.08034823769671974 0.121089655777625 0 -0.083967771981719092 0.1102844810624737 0 -0.075381325115152609 0.106019298300689 0 -0.087572523790740042 0.10155903889124659 0 -0.082071947835387321 0.094412947715560025 0 -0.09233625647768956 0.091651488650119919 0 -0.083967771981719092 0.1102844810624737 0 -0.092569001324263961 0.1124699312803344 0 -0.087572523790740042 0.10155903889124659 0 -0.083967771981719092 0.1102844810624737 0 -0.087572523790740042 0.10155903889124659 0 -0.075381325115152609 0.106019298300689 0 -0.087572523790740042 0.10155903889124659 0 -0.082071947835387321 0.094412947715560025 0 -0.075381325115152609 0.106019298300689 0 -0.06411880478631618 0.11818203644688791 0 -0.06964180214897181 0.091777453024084701 0 -0.082071947835387321 0.094412947715560025 0 -0.075381325115152609 0.106019298300689 0 -0.06964180214897181 0.091777453024084701 0 -0.06411880478631618 0.11818203644688791 0 -0.075381325115152609 0.106019298300689 0 -0.06964180214897181 0.091777453024084701 0 -0.061770267295803899 0.1005995653590098 0 -0.06411880478631618 0.11818203644688791 0 -0.06964180214897181 0.091777453024084701 0 -0.057144835734191893 0.088207312209507505 0 -0.061770267295803899 0.1005995653590098 0 -0.06964180214897181 0.091777453024084701 0 -0.06964180214897181 0.091777453024084701 0 -0.075164799511626648 0.065372869601281192 0 -0.057144835734191893 0.088207312209507505 0 -0.06964180214897181 0.091777453024084701 0 -0.068089461569968729 0.076803891339018993 0 -0.06964180214897181 0.091777453024084701 0 -0.068089461569968729 0.076803891339018993 0 -0.075164799511626648 0.065372869601281192 0 -0.057144835734191893 0.088207312209507505 0 -0.068089461569968729 0.076803891339018993 0 -0.070406408885084593 0.061857930521202607 0 -0.06964180214897181 0.091777453024084701 0 -0.075164799511626648 0.065372869601281192 0 -0.08073347634316104 0.073575546631144614 0 -0.057144835734191893 0.088207312209507505 0 -0.070406408885084593 0.061857930521202607 0 -0.068089461569968729 0.076803891339018993 0 -0.075164799511626648 0.065372869601281192 0 -0.070406408885084593 0.061857930521202607 0 -0.089923560922876636 0.068178037636278263 0 -0.08578586832533959 0.082170087930996366 0 -0.103675070998617 0.083967309240415983 0 -0.08073347634316104 0.073575546631144614 0 -0.089923560922876636 0.068178037636278263 0 -0.083186879645449088 0.059889597987781727 0 -0.075164799511626648 0.065372869601281192 0 -0.08073347634316104 0.073575546631144614 0 -0.083186879645449088 0.059889597987781727 0 -0.08073347634316104 0.073575546631144614 0 -0.089923560922876636 0.068178037636278263 0 -0.08578586832533959 0.082170087930996366 0 -0.06964180214897181 0.091777453024084701 0 -0.08073347634316104 0.073575546631144614 0 -0.08578586832533959 0.082170087930996366 0 -0.082071947835387321 0.094412947715560025 0 -0.06964180214897181 0.091777453024084701 0 -0.08578586832533959 0.082170087930996366 0 -0.082071947835387321 0.094412947715560025 0 -0.08578586832533959 0.082170087930996366 0 -0.09233625647768956 0.091651488650119919 0 -0.09233625647768956 0.091651488650119919 0 -0.103675070998617 0.083967309240415983 0 -0.10429444750695741 0.1014886749251958 0 -0.08578586832533959 0.082170087930996366 0 -0.09233625647768956 0.091651488650119919 0 -0.103675070998617 0.083967309240415983 0 -0.103675070998617 0.083967309240415983 0 -0.1198812247159142 0.095002477965890675 0 -0.10429444750695741 0.1014886749251958 0 -0.089923560922876636 0.068178037636278263 0 -0.103675070998617 0.083967309240415983 0 -0.10785209906359081 0.065371441260914459 0 -0.12533951967512769 0.078274991835817334 0 -0.103675070998617 0.083967309240415983 0 -0.10785209906359081 0.065371441260914459 0 -0.12533951967512769 0.078274991835817334 0 -0.10785209906359081 0.065371441260914459 0 -0.1248745965026067 0.059896082918310993 0 -0.12533951967512769 0.078274991835817334 0 -0.103675070998617 0.083967309240415983 0 -0.1198812247159142 0.095002477965890675 0 -0.13137241316615089 0.11357835761918721 0 -0.1198812247159142 0.095002477965890675 0 -0.10429444750695741 0.1014886749251958 0 -0.13137241316615089 0.11357835761918721 0 -0.12687331202938101 0.13192737382428379 0 -0.10667563132183119 0.1260080396076822 0 -0.13137241316615089 0.11357835761918721 0 -0.10667563132183119 0.1260080396076822 0 -0.1062978327852654 0.11550845570815239 0 -0.13137241316615089 0.11357835761918721 0 -0.1062978327852654 0.11550845570815239 0 -0.10429444750695741 0.1014886749251958 0 -0.13137241316615089 0.11357835761918721 0 -0.10667563132183119 0.1260080396076822 0 -0.10667563132183119 0.1260080396076822 0 -0.1062978327852654 0.11550845570815239 0 -0.096577670607123245 0.1239972751083621 0 -0.092569001324263961 0.1124699312803344 0 -0.1062978327852654 0.11550845570815239 0 -0.096577670607123245 0.1239972751083621 0 -0.092569001324263961 0.1124699312803344 0 -0.1062978327852654 0.11550845570815239 0 -0.10429444750695741 0.1014886749251958 0 -0.092569001324263961 0.1124699312803344 0 -0.087572523790740042 0.10155903889124659 0 -0.10429444750695741 0.1014886749251958 0 -0.087572523790740042 0.10155903889124659 0 -0.09233625647768956 0.091651488650119919 0 -0.10429444750695741 0.1014886749251958 0 -0.10370969952600501 0.019997694726909911 0 -0.098524362227562057 0.035744340183224317 0 -0.08645931971955316 0.02325136753113614 0 -0.10370969952600501 0.019997694726909911 0 -0.08645931971955316 0.02325136753113614 0 -0.091682611010439896 0.0063963380850077774 0 -0.10370969952600501 0.019997694726909911 0 -0.1180188049733784 0.030804183747700629 0 -0.098524362227562057 0.035744340183224317 0 -0.10370969952600501 0.019997694726909911 0 -0.10877227824827949 0.0075748546359299482 0 -0.091682611010439896 0.0063963380850077774 0 -0.1029392013539359 -0.0085751277431150782 0 -0.10877227824827949 0.0075748546359299482 0 -0.091682611010439896 0.0063963380850077774 0 -0.10370969952600501 0.019997694726909911 0 -0.10877227824827949 0.0075748546359299482 0 -0.11835839359799651 0.016938700943610479 0 -0.1029392013539359 -0.0085751277431150782 0 -0.12735709500343681 0.004015926865657337 0 -0.10877227824827949 0.0075748546359299482 0 -0.12735709500343681 0.004015926865657337 0 -0.10877227824827949 0.0075748546359299482 0 -0.11835839359799651 0.016938700943610479 0 -0.1339340902388827 0.022300844741854581 0 -0.11835839359799651 0.016938700943610479 0 -0.1180188049733784 0.030804183747700629 0 -0.10370969952600501 0.019997694726909911 0 -0.11835839359799651 0.016938700943610479 0 -0.1180188049733784 0.030804183747700629 0 -0.1180188049733784 0.030804183747700629 0 -0.1128457876968547 0.048091259023394652 0 -0.098524362227562057 0.035744340183224317 0 -0.13626681081840961 0.042829268155062397 0 -0.1128457876968547 0.048091259023394652 0 -0.13626681081840961 0.042829268155062397 0 -0.1180188049733784 0.030804183747700629 0 -0.1128457876968547 0.048091259023394652 0 -0.13626681081840961 0.042829268155062397 0 -0.1128457876968547 0.048091259023394652 0 -0.1248745965026067 0.059896082918310993 0 -0.10785209906359081 0.065371441260914459 0 -0.1128457876968547 0.048091259023394652 0 -0.1248745965026067 0.059896082918310993 0 -0.1128457876968547 0.048091259023394652 0 -0.089424764575299687 0.053353249891726941 0 -0.089923560922876636 0.068178037636278263 0 -0.10785209906359081 0.065371441260914459 0 -0.089424764575299687 0.053353249891726941 0 -0.10785209906359081 0.065371441260914459 0 -0.1128457876968547 0.048091259023394652 0 -0.089424764575299687 0.053353249891726941 0 -0.1128457876968547 0.048091259023394652 0 -0.098524362227562057 0.035744340183224317 0 -0.089424764575299687 0.053353249891726941 0 -0.098524362227562057 0.035744340183224317 0 -0.080687796874281473 0.038968286178477703 0 -0.08645931971955316 0.02325136753113614 0 -0.098524362227562057 0.035744340183224317 0 -0.080687796874281473 0.038968286178477703 0 -0.089424764575299687 0.053353249891726941 0 -0.080687796874281473 0.038968286178477703 0 -0.089424764575299687 0.053353249891726941 0 -0.083186879645449088 0.059889597987781727 0 -0.075164799511626648 0.065372869601281192 0 -0.080687796874281473 0.038968286178477703 0 -0.083186879645449088 0.059889597987781727 0 -0.089923560922876636 0.068178037636278263 0 -0.089424764575299687 0.053353249891726941 0 -0.083186879645449088 0.059889597987781727 0 -0.075164799511626648 0.065372869601281192 0 -0.080687796874281473 0.038968286178477703 0 -0.071303082845968715 0.053347503409362687 0 -0.075164799511626648 0.065372869601281192 0 -0.080687796874281473 0.038968286178477703 0 -0.075164799511626648 0.065372869601281192 0 -0.070406408885084593 0.061857930521202607 0 -0.071303082845968715 0.053347503409362687 0 -0.071303082845968715 0.053347503409362687 0 -0.064856269609628314 0.055117702274744398 0 -0.065400139349222536 0.045420728471107522 0 -0.070406408885084593 0.061857930521202607 0 -0.071303082845968715 0.053347503409362687 0 -0.064856269609628314 0.055117702274744398 0 -0.070406408885084593 0.061857930521202607 0 -0.064856269609628314 0.055117702274744398 0 -0.059815066152941319 0.061788281472960463 0 -0.080687796874281473 0.038968286178477703 0 -0.065400139349222536 0.045420728471107522 0 -0.063264057366842208 0.031259222641012697 0 -0.080687796874281473 0.038968286178477703 0 -0.063264057366842208 0.031259222641012697 0 -0.073460039823911166 0.024685388153665749 0 -0.080687796874281473 0.038968286178477703 0 -0.071303082845968715 0.053347503409362687 0 -0.065400139349222536 0.045420728471107522 0 -0.063264057366842208 0.031259222641012697 0 -0.073460039823911166 0.024685388153665749 0 -0.061440697951084179 0.017621877449499421 0 -0.073460039823911166 0.024685388153665749 0 -0.076769634387976737 0.01135693610240161 0 -0.061440697951084179 0.017621877449499421 0 -0.080687796874281473 0.038968286178477703 0 -0.073460039823911166 0.024685388153665749 0 -0.08645931971955316 0.02325136753113614 0 -0.073460039823911166 0.024685388153665749 0 -0.08645931971955316 0.02325136753113614 0 -0.076769634387976737 0.01135693610240161 0 -0.08645931971955316 0.02325136753113614 0 -0.091682611010439896 0.0063963380850077774 0 -0.076769634387976737 0.01135693610240161 0 -0.091682611010439896 0.0063963380850077774 0 -0.078933949510919491 0.00072378658541613432 0 -0.076769634387976737 0.01135693610240161 0 -0.086097875964997059 -0.0058870606910941042 0 -0.091682611010439896 0.0063963380850077774 0 -0.078933949510919491 0.00072378658541613432 0 -0.078933949510919491 0.00072378658541613432 0 -0.076769634387976737 0.01135693610240161 0 -0.068462160169621672 0.0025537029525893409 0 -0.068462160169621672 0.0025537029525893409 0 -0.057836245250817257 0.0062936453779614283 0 -0.061440697951084179 0.017621877449499421 0 -0.076769634387976737 0.01135693610240161 0 -0.068462160169621672 0.0025537029525893409 0 -0.061440697951084179 0.017621877449499421 0 -0.057836245250817257 0.0062936453779614283 0 -0.061440697951084179 0.017621877449499421 0 -0.042678209040760022 0.019440128409622049 0 -0.057836245250817257 0.0062936453779614283 0 -0.042678209040760022 0.019440128409622049 0 -0.044352522143416888 0.0050416822031405977 0 -0.063264057366842208 0.031259222641012697 0 -0.042678209040760022 0.019440128409622049 0 -0.05195897498334151 0.039592758420259042 0 -0.063264057366842208 0.031259222641012697 0 -0.061440697951084179 0.017621877449499421 0 -0.042678209040760022 0.019440128409622049 0 -0.042678209040760022 0.019440128409622049 0 -0.038256592764973757 0.039174794321751791 0 -0.042678209040760022 0.019440128409622049 0 -0.038256592764973757 0.039174794321751791 0 -0.027511467414372541 0.03001296694831072 0 -0.042678209040760022 0.019440128409622049 0 -0.028180513839983729 0.018098474401369 0 -0.027511467414372541 0.03001296694831072 0 -0.042678209040760022 0.019440128409622049 0 -0.032770024037711037 0.0084985419153508525 0 -0.028180513839983729 0.018098474401369 0 -0.032770024037711037 0.0084985419153508525 0 -0.03614709390981162 0.0015378833132510439 0 -0.044352522143416888 0.0050416822031405977 0 -0.029539197120254941 -0.00051038393964639519 0 -0.032770024037711037 0.0084985419153508525 0 -0.03614709390981162 0.0015378833132510439 0 -0.042678209040760022 0.019440128409622049 0 -0.032770024037711037 0.0084985419153508525 0 -0.044352522143416888 0.0050416822031405977 0 -0.042969512877196837 0.063698159366550891 0 -0.047980875447113908 0.056604040506729722 0 -0.052166049838275927 0.062310195238599278 0 -0.047980875447113908 0.056604040506729722 0 -0.052166049838275927 0.062310195238599278 0 -0.055804220694704088 0.051985500715961808 0 -0.064856269609628314 0.055117702274744398 0 -0.059815066152941319 0.061788281472960463 0 -0.055804220694704088 0.051985500715961808 0 -0.052166049838275927 0.062310195238599278 0 -0.059815066152941319 0.061788281472960463 0 -0.055804220694704088 0.051985500715961808 0 -0.064856269609628314 0.055117702274744398 0 -0.065400139349222536 0.045420728471107522 0 -0.055804220694704088 0.051985500715961808 0 -0.047980875447113908 0.056604040506729722 0 -0.055804220694704088 0.051985500715961808 0 -0.046350630683546529 0.050276175962098407 0 -0.055804220694704088 0.051985500715961808 0 -0.05195897498334151 0.039592758420259042 0 -0.046350630683546529 0.050276175962098407 0 -0.065400139349222536 0.045420728471107522 0 -0.055804220694704088 0.051985500715961808 0 -0.05195897498334151 0.039592758420259042 0 -0.065400139349222536 0.045420728471107522 0 -0.063264057366842208 0.031259222641012697 0 -0.05195897498334151 0.039592758420259042 0 -0.042678209040760022 0.019440128409622049 0 -0.05195897498334151 0.039592758420259042 0 -0.038256592764973757 0.039174794321751791 0 -0.05195897498334151 0.039592758420259042 0 -0.038256592764973757 0.039174794321751791 0 -0.046350630683546529 0.050276175962098407 0 -0.038256592764973757 0.039174794321751791 0 -0.033834976489186493 0.058909460233881362 0 -0.038256592764973757 0.039174794321751791 0 -0.038513274033404883 0.055407770980391423 0 -0.033834976489186493 0.058909460233881362 0 -0.038256592764973757 0.039174794321751791 0 -0.046350630683546529 0.050276175962098407 0 -0.038513274033404883 0.055407770980391423 0 -0.038256592764973757 0.039174794321751791 0 -0.033834976489186493 0.058909460233881362 0 -0.02879531395286377 0.050132256585483953 0 -0.046350630683546529 0.050276175962098407 0 -0.038513274033404883 0.055407770980391423 0 -0.042914570065583427 0.057802329486214707 0 -0.036732086871232597 0.066761861307427367 0 -0.033834976489186493 0.058909460233881362 0 -0.038907572144486188 0.060810532415041758 0 -0.038513274033404883 0.055407770980391423 0 -0.033834976489186493 0.058909460233881362 0 -0.038513274033404883 0.055407770980391423 0 -0.033834976489186493 0.058909460233881362 0 -0.038907572144486188 0.060810532415041758 0 -0.042969512877196837 0.063698159366550891 0 -0.038907572144486188 0.060810532415041758 0 -0.042914570065583427 0.057802329486214707 0 -0.038513274033404883 0.055407770980391423 0 -0.038907572144486188 0.060810532415041758 0 -0.042914570065583427 0.057802329486214707 0 -0.047980875447113908 0.056604040506729722 0 -0.046350630683546529 0.050276175962098407 0 -0.042914570065583427 0.057802329486214707 0 -0.042969512877196837 0.063698159366550891 0 -0.047980875447113908 0.056604040506729722 0 -0.042914570065583427 0.057802329486214707 0 -0.033834976489186493 0.058909460233881362 0 -0.01963881101933795 0.057650575484614511 0 -0.02879531395286377 0.050132256585483953 0 -0.01963881101933795 0.057650575484614511 0 -0.02879531395286377 0.050132256585483953 0 -0.02345087553795689 0.044794196301688183 0 -0.01963881101933795 0.057650575484614511 0 -0.02345087553795689 0.044794196301688183 0 -0.012175026131353321 0.050402421608982242 0 -0.02345087553795689 0.044794196301688183 0 -0.014695186475719159 0.0359408453649432 0 -0.012175026131353321 0.050402421608982242 0 -0.038256592764973757 0.039174794321751791 0 -0.02879531395286377 0.050132256585483953 0 -0.02345087553795689 0.044794196301688183 0 -0.038256592764973757 0.039174794321751791 0 -0.02345087553795689 0.044794196301688183 0 -0.027511467414372541 0.03001296694831072 0 -0.02345087553795689 0.044794196301688183 0 -0.014695186475719159 0.0359408453649432 0 -0.027511467414372541 0.03001296694831072 0 -0.014695186475719159 0.0359408453649432 0 -0.0023331541944977092 0.045311556235899067 0 0.00074240361007229996 0.028778475488121531 0 -0.014695186475719159 0.0359408453649432 0 -0.0023331541944977092 0.045311556235899067 0 -0.012175026131353321 0.050402421608982242 0 -0.0023331541944977092 0.045311556235899067 0 -0.012175026131353321 0.050402421608982242 0 0.00079413703044923156 0.058803151297745167 0 -0.012175026131353321 0.050402421608982242 0 -0.0089029190745683329 0.062319161291970238 0 0.00079413703044923156 0.058803151297745167 0 -0.01963881101933795 0.057650575484614511 0 -0.012175026131353321 0.050402421608982242 0 -0.0089029190745683329 0.062319161291970238 0 -0.021996997598287969 0.010981086364913869 0 -0.02112675760807068 0.0030512678310729521 0 -0.0083058662928979787 0.012079608812324741 0 -0.021996997598287969 0.010981086364913869 0 -0.01661374249992489 0.02103319015209278 0 -0.0083058662928979787 0.012079608812324741 0 -0.021996997598287969 0.010981086364913869 0 -0.02112675760807068 0.0030512678310729521 0 -0.02631380729169577 0.0053104208567875946 0 -0.029539197120254941 -0.00051038393964639519 0 -0.02112675760807068 0.0030512678310729521 0 -0.02631380729169577 0.0053104208567875946 0 -0.029539197120254941 -0.00051038393964639519 0 -0.032770024037711037 0.0084985419153508525 0 -0.02631380729169577 0.0053104208567875946 0 -0.032770024037711037 0.0084985419153508525 0 -0.021996997598287969 0.010981086364913869 0 -0.02631380729169577 0.0053104208567875946 0 -0.032770024037711037 0.0084985419153508525 0 -0.021996997598287969 0.010981086364913869 0 -0.028180513839983729 0.018098474401369 0 -0.028180513839983729 0.018098474401369 0 -0.027511467414372541 0.03001296694831072 0 -0.01661374249992489 0.02103319015209278 0 -0.014695186475719159 0.0359408453649432 0 -0.027511467414372541 0.03001296694831072 0 -0.01661374249992489 0.02103319015209278 0 -0.021996997598287969 0.010981086364913869 0 -0.028180513839983729 0.018098474401369 0 -0.01661374249992489 0.02103319015209278 0 -0.01661374249992489 0.02103319015209278 0 0.00074240361007229996 0.028778475488121531 0 -0.0083058662928979787 0.012079608812324741 0 0.0060294939382754481 0.01286563290641534 0 0.00074240361007229996 0.028778475488121531 0 -0.014695186475719159 0.0359408453649432 0 -0.01661374249992489 0.02103319015209278 0 0.00074240361007229996 0.028778475488121531 0 -0.0083058662928979787 0.012079608812324741 0 0.00074240361007229996 0.028778475488121531 0 -0.01661374249992489 0.02103319015209278 0 -0.0083058662928979787 0.012079608812324741 0 0.00074240361007229996 0.028778475488121531 0 -0.0072764121498596901 -0.0036325873431357339 0 -0.0083058662928979787 0.012079608812324741 0 0.0012074066645448821 -0.00065723147797176382 0 -0.0072764121498596901 -0.0036325873431357339 0 -0.013607688627124061 -0.00178224205395049 0 -0.0083058662928979787 0.012079608812324741 0 -0.017354136195868258 -0.0046192578634720229 0 -0.0083058662928979787 0.012079608812324741 0 -0.017354136195868258 -0.0046192578634720229 0 -0.013607688627124061 -0.00178224205395049 0 -0.0083058662928979787 0.012079608812324741 0 -0.0083058662928979787 0.012079608812324741 0 0.0060294939382754481 0.01286563290641534 0 0.0012074066645448821 -0.00065723147797176382 0 -0.017354136195868258 -0.0046192578634720229 0 -0.02112675760807068 0.0030512678310729521 0 -0.0083058662928979787 0.012079608812324741 0 0.0060294939382754481 0.01286563290641534 0 0.0012074066645448821 -0.00065723147797176382 0 0.01265631079038235 -0.01012693536007268 0 0.0060294939382754481 0.01286563290641534 0 0.020311547060899309 0.014329649790385431 0 0.01265631079038235 -0.01012693536007268 0 0.00074240361007229996 0.028778475488121531 0 0.015746539320639769 0.024046632949657649 0 0.022626785018342459 0.038544513255683338 0 0.0060294939382754481 0.01286563290641534 0 0.00074240361007229996 0.028778475488121531 0 0.015746539320639769 0.024046632949657649 0 0.0060294939382754481 0.01286563290641534 0 0.015746539320639769 0.024046632949657649 0 0.020311547060899309 0.014329649790385431 0 0.015746539320639769 0.024046632949657649 0 0.029022466975609298 0.02571489330768258 0 0.020311547060899309 0.014329649790385431 0 0.015746539320639769 0.024046632949657649 0 0.029022466975609298 0.02571489330768258 0 0.022626785018342459 0.038544513255683338 0 0.020311547060899309 0.014329649790385431 0 0.034885408484197772 0.0062912350017927032 0 0.01265631079038235 -0.01012693536007268 0 0.029022466975609298 0.02571489330768258 0 0.020311547060899309 0.014329649790385431 0 0.034885408484197772 0.0062912350017927032 0 0.00079413703044923156 0.058803151297745167 0 0.01366790099406239 0.052632887419703241 0 0.0065236609159091173 0.071671444604676282 0 -0.0023331541944977092 0.045311556235899067 0 0.00079413703044923156 0.058803151297745167 0 0.01366790099406239 0.052632887419703241 0 0.00074240361007229996 0.028778475488121531 0 0.01366790099406239 0.052632887419703241 0 0.022626785018342459 0.038544513255683338 0 0.00074240361007229996 0.028778475488121531 0 0.022626785018342459 0.038544513255683338 0 -0.0023331541944977092 0.045311556235899067 0 0.00074240361007229996 0.028778475488121531 0 0.01366790099406239 0.052632887419703241 0 0.00074240361007229996 0.028778475488121531 0 0.01366790099406239 0.052632887419703241 0 0.029022466975609298 0.02571489330768258 0 0.022626785018342459 0.038544513255683338 0 0.037630953216902623 0.033668105561091018 0 0.01366790099406239 0.052632887419703241 0 0.022626785018342459 0.038544513255683338 0 0.025434983742737761 0.055249644843112657 0 0.022626785018342459 0.038544513255683338 0 0.025434983742737761 0.055249644843112657 0 0.034616451435572633 0.051242168749322393 0 0.025434983742737761 0.055249644843112657 0 0.034062632092931817 0.061255223706808547 0 0.02703491536905472 0.067401080742933134 0 0.01366790099406239 0.052632887419703241 0 0.025434983742737761 0.055249644843112657 0 0.02703491536905472 0.067401080742933134 0 0.034616451435572633 0.051242168749322393 0 0.044511166426612833 0.04831055102324476 0 0.060132464308973767 0.062986029428160187 0 0.034616451435572633 0.051242168749322393 0 0.060132464308973767 0.062986029428160187 0 0.044258496001147778 0.063884183083345675 0 0.034062632092931817 0.061255223706808547 0 0.034616451435572633 0.051242168749322393 0 0.044258496001147778 0.063884183083345675 0 0.025434983742737761 0.055249644843112657 0 0.034062632092931817 0.061255223706808547 0 0.034616451435572633 0.051242168749322393 0 0.022626785018342459 0.038544513255683338 0 0.044511166426612833 0.04831055102324476 0 0.022626785018342459 0.038544513255683338 0 0.034616451435572633 0.051242168749322393 0 0.044511166426612833 0.04831055102324476 0 0.022626785018342459 0.038544513255683338 0 0.044511166426612833 0.04831055102324476 0 0.037630953216902623 0.033668105561091018 0 0.044511166426612833 0.04831055102324476 0 0.037630953216902623 0.033668105561091018 0 0.0484135161167236 0.034205204957136963 0 0.0484135161167236 0.034205204957136963 0 0.060669767880595721 0.038134724015348051 0 0.0518117103670514 0.042737821036878322 0 0.0484135161167236 0.034205204957136963 0 0.060669767880595721 0.038134724015348051 0 0.057623658326613529 0.02352368721002385 0 0.060669767880595721 0.038134724015348051 0 0.0518117103670514 0.042737821036878322 0 0.059559274975242667 0.047504887075434543 0 0.044511166426612833 0.04831055102324476 0 0.0518117103670514 0.042737821036878322 0 0.059559274975242667 0.047504887075434543 0 0.044511166426612833 0.04831055102324476 0 0.0484135161167236 0.034205204957136963 0 0.0518117103670514 0.042737821036878322 0 0.044511166426612833 0.04831055102324476 0 0.066395547834883203 0.05807658879080619 0 0.060132464308973767 0.062986029428160187 0 0.034616451435572633 0.051242168749322393 0 0.060132464308973767 0.062986029428160187 0 0.044511166426612833 0.04831055102324476 0 0.066395547834883203 0.05807658879080619 0 0.044511166426612833 0.04831055102324476 0 0.059559274975242667 0.047504887075434543 0 0.066395547834883203 0.05807658879080619 0 0.034885408484197772 0.0062912350017927032 0 0.052968053050369737 0.0090809173488315582 0 0.042517259973231587 -0.011683923625132649 0 0.034885408484197772 0.0062912350017927032 0 0.043580831547224863 0.021565365261707499 0 0.052968053050369737 0.0090809173488315582 0 0.029022466975609298 0.02571489330768258 0 0.034885408484197772 0.0062912350017927032 0 0.043580831547224863 0.021565365261707499 0 0.029022466975609298 0.02571489330768258 0 0.037630953216902623 0.033668105561091018 0 0.043580831547224863 0.021565365261707499 0 0.037630953216902623 0.033668105561091018 0 0.0484135161167236 0.034205204957136963 0 0.043580831547224863 0.021565365261707499 0 0.057623658326613529 0.02352368721002385 0 0.052968053050369737 0.0090809173488315582 0 0.071708216805815503 0.016768608491387289 0 0.043580831547224863 0.021565365261707499 0 0.057623658326613529 0.02352368721002385 0 0.052968053050369737 0.0090809173488315582 0 0.0484135161167236 0.034205204957136963 0 0.043580831547224863 0.021565365261707499 0 0.057623658326613529 0.02352368721002385 0 0.052968053050369737 0.0090809173488315582 0 0.071708216805815503 0.016768608491387289 0 0.067492943165135169 -0.0019794682467893379 0 0.083930998993742512 0.0059737405228527038 0 0.071708216805815503 0.016768608491387289 0 0.067492943165135169 -0.0019794682467893379 0 0.083930998993742512 0.0059737405228527038 0 0.098495163759696414 0.0029673617968291321 0 0.094917995650245529 0.021722354499223519 0 0.083930998993742512 0.0059737405228527038 0 0.071708216805815503 0.016768608491387289 0 0.094917995650245529 0.021722354499223519 0 0.071708216805815503 0.016768608491387289 0 0.07449934060461412 0.03258063005354956 0 0.094917995650245529 0.021722354499223519 0 0.07449934060461412 0.03258063005354956 0 0.087237150257314613 0.037926204838731957 0 0.094917995650245529 0.021722354499223519 0 0.057623658326613529 0.02352368721002385 0 0.071708216805815503 0.016768608491387289 0 0.07449934060461412 0.03258063005354956 0 0.060669767880595721 0.038134724015348051 0 0.057623658326613529 0.02352368721002385 0 0.07449934060461412 0.03258063005354956 0 0.060669767880595721 0.038134724015348051 0 0.069155187538762042 0.045022305850501279 0 0.07449934060461412 0.03258063005354956 0 0.060669767880595721 0.038134724015348051 0 0.059559274975242667 0.047504887075434543 0 0.069155187538762042 0.045022305850501279 0 0.069155187538762042 0.045022305850501279 0 0.07449934060461412 0.03258063005354956 0 0.079692196512252927 0.044953406994506007 0 0.059559274975242667 0.047504887075434543 0 0.069155187538762042 0.045022305850501279 0 0.067326156772233525 0.050603546620565112 0 0.059559274975242667 0.047504887075434543 0 0.066395547834883203 0.05807658879080619 0 0.067326156772233525 0.050603546620565112 0 0.066395547834883203 0.05807658879080619 0 0.067326156772233525 0.050603546620565112 0 0.074194616740046182 0.051810404765518438 0 0.069155187538762042 0.045022305850501279 0 0.067326156772233525 0.050603546620565112 0 0.074194616740046182 0.051810404765518438 0 0.069155187538762042 0.045022305850501279 0 0.074194616740046182 0.051810404765518438 0 0.079692196512252927 0.044953406994506007 0 0.066395547834883203 0.05807658879080619 0 0.074194616740046182 0.051810404765518438 0 0.080343143758095259 0.058335218209008277 0 0.066395547834883203 0.05807658879080619 0 0.080343143758095259 0.058335218209008277 0 0.08827992924315356 0.067842626558367619 0 0.080343143758095259 0.058335218209008277 0 0.083306510346727383 0.05351440315152866 0 0.090416084875221875 0.058235299142909973 0 0.074194616740046182 0.051810404765518438 0 0.083306510346727383 0.05351440315152866 0 0.079692196512252927 0.044953406994506007 0 0.083306510346727383 0.05351440315152866 0 0.089760373586053266 0.048866493307206167 0 0.079692196512252927 0.044953406994506007 0 0.074194616740046182 0.051810404765518438 0 0.080343143758095259 0.058335218209008277 0 0.083306510346727383 0.05351440315152866 0 0.083306510346727383 0.05351440315152866 0 0.089760373586053266 0.048866493307206167 0 0.090416084875221875 0.058235299142909973 0 0.089760373586053266 0.048866493307206167 0 0.090416084875221875 0.058235299142909973 0 0.099395501669828634 0.055681054702382278 0 0.080343143758095259 0.058335218209008277 0 0.090416084875221875 0.058235299142909973 0 0.08827992924315356 0.067842626558367619 0 0.087237150257314613 0.037926204838731957 0 0.098930039005792711 0.04227996871225087 0 0.094917995650245529 0.021722354499223519 0 0.07449934060461412 0.03258063005354956 0 0.079692196512252927 0.044953406994506007 0 0.087237150257314613 0.037926204838731957 0 0.089760373586053266 0.048866493307206167 0 0.079692196512252927 0.044953406994506007 0 0.087237150257314613 0.037926204838731957 0 0.089760373586053266 0.048866493307206167 0 0.087237150257314613 0.037926204838731957 0 0.098930039005792711 0.04227996871225087 0 0.10894092886672049 0.033503019923715648 0 0.098930039005792711 0.04227996871225087 0 0.11550376979223601 0.054551475820320147 0 0.10894092886672049 0.033503019923715648 0 0.098930039005792711 0.04227996871225087 0 0.094917995650245529 0.021722354499223519 0 0.098930039005792711 0.04227996871225087 0 0.099395501669828634 0.055681054702382278 0 0.11550376979223601 0.054551475820320147 0 0.099395501669828634 0.055681054702382278 0 0.11550376979223601 0.054551475820320147 0 0.10561354398445311 0.069921878226714862 0 0.090416084875221875 0.058235299142909973 0 0.099395501669828634 0.055681054702382278 0 0.095618088847860577 0.065038419849084594 0 0.089760373586053266 0.048866493307206167 0 0.098930039005792711 0.04227996871225087 0 0.099395501669828634 0.055681054702382278 0 0.10894092886672049 0.033503019923715648 0 0.11961069471150609 0.02296590295220987 0 0.12977361784467401 0.039215218793308727 0 0.10894092886672049 0.033503019923715648 0 0.11550376979223601 0.054551475820320147 0 0.12977361784467401 0.039215218793308727 0 0.11961069471150609 0.02296590295220987 0 0.1158546052028349 0.0064685721448778594 0 0.094917995650245529 0.021722354499223519 0 0.11961069471150609 0.02296590295220987 0 0.1158546052028349 0.0064685721448778594 0 0.13894824890776639 0.02136224913872127 0 0.1158546052028349 0.0064685721448778594 0 0.098495163759696414 0.0029673617968291321 0 0.094917995650245529 0.021722354499223519 0 0.10894092886672049 0.033503019923715648 0 0.11961069471150609 0.02296590295220987 0 0.094917995650245529 0.021722354499223519 0 0.097728221435088053 0.099184528615223033 0 0.110275064223293 0.10236359857942121 0 0.11116449005577619 0.086473750785835857 0 0.099894961061174667 0.1104201015940532 0 0.11150799601301251 0.1117412241471519 0 0.110275064223293 0.10236359857942121 0 0.097728221435088053 0.099184528615223033 0 0.099894961061174667 0.1104201015940532 0 0.110275064223293 0.10236359857942121 0 0.097728221435088053 0.099184528615223033 0 0.099894961061174667 0.1104201015940532 0 0.084925795867796111 0.1103515185161017 0 0.099894961061174667 0.1104201015940532 0 0.096984900528893664 0.1212489081817222 0 0.084925795867796111 0.1103515185161017 0 0.099894961061174667 0.1104201015940532 0 0.096984900528893664 0.1212489081817222 0 0.10712684862241641 0.1210429748963526 0 0.096984900528893664 0.1212489081817222 0 0.10712684862241641 0.1210429748963526 0 0.10589272808503949 0.13156516273042271 0 0.099894961061174667 0.1104201015940532 0 0.10712684862241641 0.1210429748963526 0 0.11150799601301251 0.1117412241471519 0 0.10712684862241641 0.1210429748963526 0 0.11150799601301251 0.1117412241471519 0 0.1187293914863337 0.1182846474287873 0 0.11150799601301251 0.1117412241471519 0 0.1187293914863337 0.1182846474287873 0 0.1197878353292403 0.1092484053650479 0 0.10712684862241641 0.1210429748963526 0 0.1187293914863337 0.1182846474287873 0 0.114987521205969 0.1268010028982309 0 0.1187293914863337 0.1182846474287873 0 0.12813823657366311 0.12049833089676459 0 0.12624189261331301 0.1140678077034443 0 0.1187293914863337 0.1182846474287873 0 0.12212988809696081 0.1249307776834532 0 0.12813823657366311 0.12049833089676459 0 0.1187293914863337 0.1182846474287873 0 0.12212988809696081 0.1249307776834532 0 0.114987521205969 0.1268010028982309 0 0.1187293914863337 0.1182846474287873 0 0.1197878353292403 0.1092484053650479 0 0.12624189261331301 0.1140678077034443 0 0.1216961693062274 0.1020981758197984 0 0.110275064223293 0.10236359857942121 0 0.11116449005577619 0.086473750785835857 0 0.1197878353292403 0.1092484053650479 0 0.1216961693062274 0.1020981758197984 0 0.1302764983332621 0.10693497851168419 0 0.1216961693062274 0.1020981758197984 0 0.11116449005577619 0.086473750785835857 0 0.13668050292917741 0.098217611464673699 0 0.1197878353292403 0.1092484053650479 0 0.1216961693062274 0.1020981758197984 0 0.110275064223293 0.10236359857942121 0 0.11150799601301251 0.1117412241471519 0 0.1197878353292403 0.1092484053650479 0 0.110275064223293 0.10236359857942121 0 0.11116449005577619 0.086473750785835857 0 0.1207366242219714 0.074251990558816788 0 0.1300820653953097 0.084166932106396392 0 0.11116449005577619 0.086473750785835857 0 0.13668050292917741 0.098217611464673699 0 0.11116449005577619 0.086473750785835857 0 0.1207366242219714 0.074251990558816788 0 0.10561354398445311 0.069921878226714862 0 0.11550376979223601 0.054551475820320147 0 0.1207366242219714 0.074251990558816788 0 0.13255022158949201 0.068763676371196639 0 0.11550376979223601 0.054551475820320147 0 0.1207366242219714 0.074251990558816788 0 0.10561354398445311 0.069921878226714862 0 0.11116449005577619 0.086473750785835857 0 0.10561354398445311 0.069921878226714862 0 0.085648477182374977 0.074729890106998029 0 0.10561354398445311 0.069921878226714862 0 0.095618088847860577 0.065038419849084594 0 0.085648477182374977 0.074729890106998029 0 0.099395501669828634 0.055681054702382278 0 0.10561354398445311 0.069921878226714862 0 0.095618088847860577 0.065038419849084594 0 0.11116449005577619 0.086473750785835857 0 0.085648477182374977 0.074729890106998029 0 0.11116449005577619 0.086473750785835857 0 0.090808031879269946 0.087622927320568048 0 0.085648477182374977 0.074729890106998029 0 0.097728221435088053 0.099184528615223033 0 0.11116449005577619 0.086473750785835857 0 0.090808031879269946 0.087622927320568048 0 0.097728221435088053 0.099184528615223033 0 0.090808031879269946 0.087622927320568048 0 0.080235742217082393 0.093435287859391092 0 0.090808031879269946 0.087622927320568048 0 0.078675001300488379 0.083882301042573534 0 0.085648477182374977 0.074729890106998029 0 0.090808031879269946 0.087622927320568048 0 0.078675001300488379 0.083882301042573534 0 0.080235742217082393 0.093435287859391092 0 0.066395547834883203 0.05807658879080619 0 0.08827992924315356 0.067842626558367619 0 0.085648477182374977 0.074729890106998029 0 0.095618088847860577 0.065038419849084594 0 0.08827992924315356 0.067842626558367619 0 0.085648477182374977 0.074729890106998029 0 0.090416084875221875 0.058235299142909973 0 0.095618088847860577 0.065038419849084594 0 0.08827992924315356 0.067842626558367619 0 0.066395547834883203 0.05807658879080619 0 0.085648477182374977 0.074729890106998029 0 0.060132464308973767 0.062986029428160187 0 0.066395547834883203 0.05807658879080619 0 0.08827992924315356 0.067842626558367619 0 0.085648477182374977 0.074729890106998029 0 0.068637102026180674 0.07792917868559901 0 0.060132464308973767 0.062986029428160187 0 0.085648477182374977 0.074729890106998029 0 0.060132464308973767 0.062986029428160187 0 0.078675001300488379 0.083882301042573534 0 0.085648477182374977 0.074729890106998029 0 0.068637102026180674 0.07792917868559901 0 0.080235742217082393 0.093435287859391092 0 0.069503799956795384 0.087722797055870286 0 0.068523875558259784 0.095111972458496966 0 0.078675001300488379 0.083882301042573534 0 0.080235742217082393 0.093435287859391092 0 0.069503799956795384 0.087722797055870286 0 0.078675001300488379 0.083882301042573534 0 0.068637102026180674 0.07792917868559901 0 0.069503799956795384 0.087722797055870286 0 0.068637102026180674 0.07792917868559901 0 0.069503799956795384 0.087722797055870286 0 0.060111091978902922 0.083782113849914977 0 0.069503799956795384 0.087722797055870286 0 0.06135777996986308 0.093915161513068182 0 0.060111091978902922 0.083782113849914977 0 0.069503799956795384 0.087722797055870286 0 0.068523875558259784 0.095111972458496966 0 0.06135777996986308 0.093915161513068182 0 0.068523875558259784 0.095111972458496966 0 0.071520258741129425 0.10189571548122769 0 0.062413973273008162 0.1018934272394761 0 0.068523875558259784 0.095111972458496966 0 0.062413973273008162 0.1018934272394761 0 0.06135777996986308 0.093915161513068182 0 0.071520258741129425 0.10189571548122769 0 0.072821304814728441 0.1108529925529516 0 0.063718101814298073 0.11016590081819259 0 0.071520258741129425 0.10189571548122769 0 0.063718101814298073 0.11016590081819259 0 0.062413973273008162 0.1018934272394761 0 0.071520258741129425 0.10189571548122769 0 0.084925795867796111 0.1103515185161017 0 0.072821304814728441 0.1108529925529516 0 0.080235742217082393 0.093435287859391092 0 0.068523875558259784 0.095111972458496966 0 0.071520258741129425 0.10189571548122769 0 0.097728221435088053 0.099184528615223033 0 0.080235742217082393 0.093435287859391092 0 0.084925795867796111 0.1103515185161017 0 0.080235742217082393 0.093435287859391092 0 0.071520258741129425 0.10189571548122769 0 0.084925795867796111 0.1103515185161017 0 0.084925795867796111 0.1103515185161017 0 0.074154959480044275 0.1204842858357125 0 0.087075880893963842 0.12621803440601359 0 0.096984900528893664 0.1212489081817222 0 0.084925795867796111 0.1103515185161017 0 0.087075880893963842 0.12621803440601359 0 0.084925795867796111 0.1103515185161017 0 0.074154959480044275 0.1204842858357125 0 0.072821304814728441 0.1108529925529516 0 0.074154959480044275 0.1204842858357125 0 0.072821304814728441 0.1108529925529516 0 0.063718101814298073 0.11016590081819259 0 0.074154959480044275 0.1204842858357125 0 0.063718101814298073 0.11016590081819259 0 0.060124536552058239 0.11864948812996751 0 0.074154959480044275 0.1204842858357125 0 0.060124536552058239 0.11864948812996751 0 0.061109117960118017 0.12720913792676911 0 0.060124536552058239 0.11864948812996751 0 0.052595679859244633 0.1236025024456274 0 0.054913207086597561 0.11271600588853189 0 0.060124536552058239 0.11864948812996751 0 0.052595679859244633 0.1236025024456274 0 0.061109117960118017 0.12720913792676911 0 0.052595679859244633 0.1236025024456274 0 0.054913207086597561 0.11271600588853189 0 0.046771683079868627 0.1089772416004138 0 0.063718101814298073 0.11016590081819259 0 0.060124536552058239 0.11864948812996751 0 0.054913207086597561 0.11271600588853189 0 0.063718101814298073 0.11016590081819259 0 0.062413973273008162 0.1018934272394761 0 0.053620768430252298 0.1031656988462608 0 0.063718101814298073 0.11016590081819259 0 0.054913207086597561 0.11271600588853189 0 0.053620768430252298 0.1031656988462608 0 0.06135777996986308 0.093915161513068182 0 0.053620768430252298 0.1031656988462608 0 0.051535176025136201 0.090416251810209708 0 0.062413973273008162 0.1018934272394761 0 0.06135777996986308 0.093915161513068182 0 0.053620768430252298 0.1031656988462608 0 0.053620768430252298 0.1031656988462608 0 0.042875633238578528 0.09739353282270094 0 0.051535176025136201 0.090416251810209708 0 0.053620768430252298 0.1031656988462608 0 0.046771683079868627 0.1089772416004138 0 0.042875633238578528 0.09739353282270094 0 0.054913207086597561 0.11271600588853189 0 0.053620768430252298 0.1031656988462608 0 0.046771683079868627 0.1089772416004138 0 0.046771683079868627 0.1089772416004138 0 0.042875633238578528 0.09739353282270094 0 0.034382595390138257 0.1099700727945534 0 0.042875633238578528 0.09739353282270094 0 0.034382595390138257 0.1099700727945534 0 0.030708755379597181 0.088685576768743155 0 0.034382595390138257 0.1099700727945534 0 0.030708755379597181 0.088685576768743155 0 0.052595679859244633 0.1236025024456274 0 0.046771683079868627 0.1089772416004138 0 0.034382595390138257 0.1099700727945534 0 0.034382595390138257 0.1099700727945534 0 0.02520709702204247 0.1232263280856261 0 0.037354296692750887 0.12718670835402709 0 0.052595679859244633 0.1236025024456274 0 0.034382595390138257 0.1099700727945534 0 0.037354296692750887 0.12718670835402709 0 0.034382595390138257 0.1099700727945534 0 0.037354296692750887 0.12718670835402709 0 0.052595679859244633 0.1236025024456274 0 0.034382595390138257 0.1099700727945534 0 0.060132464308973767 0.062986029428160187 0 0.051537231586459821 0.0703604747810012 0 0.044258496001147778 0.063884183083345675 0 0.051537231586459821 0.0703604747810012 0 0.045053238281461433 0.071665999821029613 0 0.044258496001147778 0.063884183083345675 0 0.060132464308973767 0.062986029428160187 0 0.058160070023191839 0.074213970699792686 0 0.051537231586459821 0.0703604747810012 0 0.068637102026180674 0.07792917868559901 0 0.060132464308973767 0.062986029428160187 0 0.058160070023191839 0.074213970699792686 0 0.051537231586459821 0.0703604747810012 0 0.049495561811348857 0.078896267932753172 0 0.045053238281461433 0.071665999821029613 0 0.058160070023191839 0.074213970699792686 0 0.051537231586459821 0.0703604747810012 0 0.049495561811348857 0.078896267932753172 0 0.049495561811348857 0.078896267932753172 0 0.051535176025136201 0.090416251810209708 0 0.041750220721871581 0.085344735896560275 0 0.049495561811348857 0.078896267932753172 0 0.060111091978902922 0.083782113849914977 0 0.051535176025136201 0.090416251810209708 0 0.068637102026180674 0.07792917868559901 0 0.058160070023191839 0.074213970699792686 0 0.060111091978902922 0.083782113849914977 0 0.058160070023191839 0.074213970699792686 0 0.049495561811348857 0.078896267932753172 0 0.060111091978902922 0.083782113849914977 0 0.06135777996986308 0.093915161513068182 0 0.060111091978902922 0.083782113849914977 0 0.051535176025136201 0.090416251810209708 0 0.042875633238578528 0.09739353282270094 0 0.051535176025136201 0.090416251810209708 0 0.041750220721871581 0.085344735896560275 0 0.042875633238578528 0.09739353282270094 0 0.041750220721871581 0.085344735896560275 0 0.030708755379597181 0.088685576768743155 0 0.041750220721871581 0.085344735896560275 0 0.037489048909448763 0.07466528487264068 0 0.030708755379597181 0.088685576768743155 0 0.049495561811348857 0.078896267932753172 0 0.041750220721871581 0.085344735896560275 0 0.037489048909448763 0.07466528487264068 0 0.037489048909448763 0.07466528487264068 0 0.02703491536905472 0.067401080742933134 0 0.030708755379597181 0.088685576768743155 0 0.049495561811348857 0.078896267932753172 0 0.045053238281461433 0.071665999821029613 0 0.037489048909448763 0.07466528487264068 0 0.045053238281461433 0.071665999821029613 0 0.037489048909448763 0.07466528487264068 0 0.037579666130808903 0.067774354445351542 0 0.034062632092931817 0.061255223706808547 0 0.037579666130808903 0.067774354445351542 0 0.02703491536905472 0.067401080742933134 0 0.037489048909448763 0.07466528487264068 0 0.037579666130808903 0.067774354445351542 0 0.02703491536905472 0.067401080742933134 0 0.034062632092931817 0.061255223706808547 0 0.037579666130808903 0.067774354445351542 0 0.044258496001147778 0.063884183083345675 0 0.045053238281461433 0.071665999821029613 0 0.037579666130808903 0.067774354445351542 0 0.044258496001147778 0.063884183083345675 0 0.02703491536905472 0.067401080742933134 0 0.030708755379597181 0.088685576768743155 0 0.01366790099406239 0.052632887419703241 0 0.026593398378051959 0.076487299351285121 0 0.01366790099406239 0.052632887419703241 0 0.02703491536905472 0.067401080742933134 0 0.026593398378051959 0.076487299351285121 0 0.02703491536905472 0.067401080742933134 0 0.026593398378051959 0.076487299351285121 0 0.030708755379597181 0.088685576768743155 0 0.01366790099406239 0.052632887419703241 0 0.026593398378051959 0.076487299351285121 0 0.01611389888654503 0.070322973248010373 0 0.026593398378051959 0.076487299351285121 0 0.01611389888654503 0.070322973248010373 0 0.01767063525815666 0.080500261616376856 0 0.01767063525815666 0.080500261616376856 0 0.030708755379597181 0.088685576768743155 0 0.011643404763696401 0.092949868607662828 0 0.026593398378051959 0.076487299351285121 0 0.01767063525815666 0.080500261616376856 0 0.030708755379597181 0.088685576768743155 0 0.01767063525815666 0.080500261616376856 0 0.011643404763696401 0.092949868607662828 0 0.0065236609159091173 0.071671444604676282 0 -0.01109578586274463 0.07592966442077155 0 0.011643404763696401 0.092949868607662828 0 0.0065236609159091173 0.071671444604676282 0 -0.01109578586274463 0.07592966442077155 0 0.011643404763696401 0.092949868607662828 0 0.01366790099406239 0.052632887419703241 0 0.01611389888654503 0.070322973248010373 0 0.0065236609159091173 0.071671444604676282 0 0.01611389888654503 0.070322973248010373 0 0.01767063525815666 0.080500261616376856 0 0.0065236609159091173 0.071671444604676282 0 -0.0031702267477386531 0.067180855403790804 0 0.00079413703044923156 0.058803151297745167 0 0.0065236609159091173 0.071671444604676282 0 0.034382595390138257 0.1099700727945534 0 0.02520709702204247 0.1232263280856261 0 0.01356063639681436 0.11371506303709419 0 0.02520709702204247 0.1232263280856261 0 0.01356063639681436 0.11371506303709419 0 0.011098566836083609 0.13484946890849181 0 0.034382595390138257 0.1099700727945534 0 0.011643404763696401 0.092949868607662828 0 0.01356063639681436 0.11371506303709419 0 0.034382595390138257 0.1099700727945534 0 0.011643404763696401 0.092949868607662828 0 0.034382595390138257 0.1099700727945534 0 0.030708755379597181 0.088685576768743155 0 0.011643404763696401 0.092949868607662828 0 -0.0040088977147468936 0.097024336429998151 0 0.011643404763696401 0.092949868607662828 0 0.0025937760044158291 0.1064596481343341 0 0.011643404763696401 0.092949868607662828 0 0.0025937760044158291 0.1064596481343341 0 0.01356063639681436 0.11371506303709419 0 -0.007175360702145514 0.1155930690216506 0 0.0025937760044158291 0.1064596481343341 0 0.01356063639681436 0.11371506303709419 0 -0.007175360702145514 0.1155930690216506 0 0.01356063639681436 0.11371506303709419 0 0.011098566836083609 0.13484946890849181 0 -0.007175360702145514 0.1155930690216506 0 0.011098566836083609 0.13484946890849181 0 0.02520709702204247 0.1232263280856261 0 0.011098566836083609 0.13484946890849181 0 0.028759663239593541 0.13617761485890201 0 0.02520709702204247 0.1232263280856261 0 0.028759663239593541 0.13617761485890201 0 0.037354296692750887 0.12718670835402709 0 0.011098566836083609 0.13484946890849181 0 0.029372494374312729 0.15410586879533311 0 0.013538337341477229 0.1636201682865295 0 0.011098566836083609 0.13484946890849181 0 0.028759663239593541 0.13617761485890201 0 0.029372494374312729 0.15410586879533311 0 0.011098566836083609 0.13484946890849181 0 0.029372494374312729 0.15410586879533311 0 -0.0048034666842798916 0.1614245706846468 0 0.011098566836083609 0.13484946890849181 0 0.013538337341477229 0.1636201682865295 0 -0.0057956805663459468 0.1892940575843915 0 -0.0048034666842798916 0.1614245706846468 0 0.013538337341477229 0.1636201682865295 0 -0.0057956805663459468 0.1892940575843915 0 0.013538337341477229 0.1636201682865295 0 0.020045678312652242 0.18090880435863019 0 -0.0057956805663459468 0.1892940575843915 0 0.020045678312652242 0.18090880435863019 0 0.029372494374312729 0.15410586879533311 0 0.013538337341477229 0.1636201682865295 0 0.020045678312652242 0.18090880435863019 0 0.029372494374312729 0.15410586879533311 0 0.045887037191650451 0.17252355113286891 0 0.04813315871709322 0.1541455757588851 0 0.029372494374312729 0.15410586879533311 0 0.020045678312652242 0.18090880435863019 0 0.045887037191650451 0.17252355113286891 0 0.020045678312652242 0.18090880435863019 0 0.045887037191650451 0.17252355113286891 0 0.020045678312652242 0.18090880435863019 0 0.045887037191650451 0.17252355113286891 0 0.041991232206495782 0.1919910870650737 0 0.045887037191650451 0.17252355113286891 0 0.060802696405823108 0.1787365445376432 0 0.041991232206495782 0.1919910870650737 0 0.045887037191650451 0.17252355113286891 0 0.071728396070648653 0.1641382979071076 0 0.045887037191650451 0.17252355113286891 0 0.060802696405823108 0.1787365445376432 0 0.071728396070648653 0.1641382979071076 0 0.045887037191650451 0.17252355113286891 0 0.059657673584757237 0.15824269734654939 0 0.04813315871709322 0.1541455757588851 0 0.045887037191650451 0.17252355113286891 0 0.059657673584757237 0.15824269734654939 0 0.071728396070648653 0.1641382979071076 0 0.059657673584757237 0.15824269734654939 0 0.04813315871709322 0.1541455757588851 0 0.060329678829100349 0.1474246815113264 0 0.04813315871709322 0.1541455757588851 0 0.050215372913412007 0.1458935282758238 0 0.060329678829100349 0.1474246815113264 0 0.050215372913412007 0.1458935282758238 0 0.060329678829100349 0.1474246815113264 0 0.052072656112092337 0.13760051191958289 0 0.050215372913412007 0.1458935282758238 0 0.052072656112092337 0.13760051191958289 0 0.040325997995362128 0.14440334391350099 0 0.060329678829100349 0.1474246815113264 0 0.062159468211553673 0.13737243366585769 0 0.052072656112092337 0.13760051191958289 0 0.062159468211553673 0.13737243366585769 0 0.054733357378362921 0.13083888414419281 0 0.052072656112092337 0.13760051191958289 0 0.052595679859244633 0.1236025024456274 0 0.054733357378362921 0.13083888414419281 0 0.061109117960118017 0.12720913792676911 0 0.062159468211553673 0.13737243366585769 0 0.054733357378362921 0.13083888414419281 0 0.061109117960118017 0.12720913792676911 0 0.052595679859244633 0.1236025024456274 0 0.054733357378362921 0.13083888414419281 0 0.046346625143134958 0.1312929959830558 0 0.054733357378362921 0.13083888414419281 0 0.052072656112092337 0.13760051191958289 0 0.046346625143134958 0.1312929959830558 0 0.037354296692750887 0.12718670835402709 0 0.040325997995362128 0.14440334391350099 0 0.046346625143134958 0.1312929959830558 0 0.037354296692750887 0.12718670835402709 0 0.040325997995362128 0.14440334391350099 0 0.028759663239593541 0.13617761485890201 0 0.037354296692750887 0.12718670835402709 0 0.040325997995362128 0.14440334391350099 0 0.052072656112092337 0.13760051191958289 0 0.046346625143134958 0.1312929959830558 0 0.040325997995362128 0.14440334391350099 0 0.052595679859244633 0.1236025024456274 0 0.046346625143134958 0.1312929959830558 0 0.037354296692750887 0.12718670835402709 0 0.028759663239593541 0.13617761485890201 0 0.029372494374312729 0.15410586879533311 0 0.040325997995362128 0.14440334391350099 0 0.029372494374312729 0.15410586879533311 0 0.04813315871709322 0.1541455757588851 0 0.040325997995362128 0.14440334391350099 0 0.04813315871709322 0.1541455757588851 0 0.050215372913412007 0.1458935282758238 0 0.040325997995362128 0.14440334391350099 0 0.025149977659741599 0.24684982625080901 0 0.00014186162909880781 0.2338185852574263 0 0.02177620002751179 0.22559840920251981 0 0.025149977659741599 0.24684982625080901 0 0.00014186162909880781 0.2338185852574263 0 0.025149977659741599 0.24684982625080901 0 0.00014186162909880781 0.2338185852574263 0 0.0073806355134042019 0.25529449578482938 0 0.00014186162909880781 0.2338185852574263 0 0.02177620002751179 0.22559840920251981 0 0.0090806704795409685 0.20996839310177981 0 0.025149977659741599 0.24684982625080901 0 0.02177620002751179 0.22559840920251981 0 0.039960986899899173 0.22780444499479169 0 0.02177620002751179 0.22559840920251981 0 0.0090806704795409685 0.20996839310177981 0 0.034547503469278373 0.20955079640779209 0 0.0090806704795409685 0.20996839310177981 0 0.02162293693503077 0.1981024475624624 0 0.034547503469278373 0.20955079640779209 0 -0.0057956805663459468 0.1892940575843915 0 0.0090806704795409685 0.20996839310177981 0 0.02162293693503077 0.1981024475624624 0 -0.0057956805663459468 0.1892940575843915 0 0.020045678312652242 0.18090880435863019 0 0.02162293693503077 0.1981024475624624 0 0.020045678312652242 0.18090880435863019 0 0.02162293693503077 0.1981024475624624 0 0.041991232206495782 0.1919910870650737 0 0.02162293693503077 0.1981024475624624 0 0.041991232206495782 0.1919910870650737 0 0.034547503469278373 0.20955079640779209 0 0.041991232206495782 0.1919910870650737 0 0.05849467095877426 0.1965416733816682 0 0.050764695011206777 0.20916964222725651 0 0.060802696405823108 0.1787365445376432 0 0.041991232206495782 0.1919910870650737 0 0.05849467095877426 0.1965416733816682 0 0.050764695011206777 0.20916964222725651 0 0.066981886553135278 0.20878848804672309 0 0.05849467095877426 0.1965416733816682 0 0.050764695011206777 0.20916964222725651 0 0.066981886553135278 0.20878848804672309 0 0.050764695011206777 0.20916964222725651 0 0.061514006406540499 0.23071042489022231 0 0.066981886553135278 0.20878848804672309 0 0.050764695011206777 0.20916964222725651 0 0.034547503469278373 0.20955079640779209 0 0.039960986899899173 0.22780444499479169 0 0.050764695011206777 0.20916964222725651 0 0.034547503469278373 0.20955079640779209 0 0.041991232206495782 0.1919910870650737 0 0.050764695011206777 0.20916964222725651 0 0.034547503469278373 0.20955079640779209 0 0.02177620002751179 0.22559840920251981 0 0.034547503469278373 0.20955079640779209 0 0.039960986899899173 0.22780444499479169 0 0.039960986899899173 0.22780444499479169 0 0.061514006406540499 0.23071042489022231 0 0.045472231705318063 0.24424317023843681 0 0.050764695011206777 0.20916964222725651 0 0.039960986899899173 0.22780444499479169 0 0.061514006406540499 0.23071042489022231 0 0.061514006406540499 0.23071042489022231 0 0.056046126259945157 0.25263236173372139 0 0.061514006406540499 0.23071042489022231 0 0.056046126259945157 0.25263236173372139 0 0.067905867336300579 0.25358800162702 0 0.061514006406540499 0.23071042489022231 0 0.045472231705318063 0.24424317023843681 0 0.056046126259945157 0.25263236173372139 0 0.025149977659741599 0.24684982625080901 0 0.039960986899899173 0.22780444499479169 0 0.045472231705318063 0.24424317023843681 0 0.092857250133516089 0.24175825718487831 0 0.078525547080241467 0.2465942846531784 0 0.093798877441032588 0.2579700649065903 0 0.092857250133516089 0.24175825718487831 0 0.078525547080241467 0.2465942846531784 0 0.081986142109724491 0.22560265144644431 0 0.061514006406540499 0.23071042489022231 0 0.078525547080241467 0.2465942846531784 0 0.067905867336300579 0.25358800162702 0 0.061514006406540499 0.23071042489022231 0 0.078525547080241467 0.2465942846531784 0 0.081986142109724491 0.22560265144644431 0 0.061514006406540499 0.23071042489022231 0 0.081986142109724491 0.22560265144644431 0 0.066981886553135278 0.20878848804672309 0 0.061514006406540499 0.23071042489022231 0 0.066981886553135278 0.20878848804672309 0 0.081986142109724491 0.22560265144644431 0 0.09236794217301933 0.20819183719001669 0 0.066981886553135278 0.20878848804672309 0 0.09236794217301933 0.20819183719001669 0 0.066981886553135278 0.20878848804672309 0 0.09236794217301933 0.20819183719001669 0 0.066981886553135278 0.20878848804672309 0 0.071445073857882777 0.19089458628000441 0 0.060802696405823108 0.1787365445376432 0 0.05849467095877426 0.1965416733816682 0 0.071445073857882777 0.19089458628000441 0 0.066981886553135278 0.20878848804672309 0 0.071445073857882777 0.19089458628000441 0 0.05849467095877426 0.1965416733816682 0 0.066981886553135278 0.20878848804672309 0 0.071445073857882777 0.19089458628000441 0 0.09236794217301933 0.20819183719001669 0 0.071445073857882777 0.19089458628000441 0 0.086464584236575506 0.1862285865309723 0 0.09236794217301933 0.20819183719001669 0 0.086464584236575506 0.1862285865309723 0 0.1023855527362314 0.18749689463882899 0 0.09236794217301933 0.20819183719001669 0 0.11775399779290339 0.20759518633331239 0 0.1023855527362314 0.18749689463882899 0 0.11775399779290339 0.20759518633331239 0 0.1023855527362314 0.18749689463882899 0 0.12550986450034471 0.186594373040398 0 0.09236794217301933 0.20819183719001669 0 0.11775399779290339 0.20759518633331239 0 0.09236794217301933 0.20819183719001669 0 0.11775399779290339 0.20759518633331239 0 0.10906069526472741 0.22998953009969161 0 0.092857250133516089 0.24175825718487831 0 0.081986142109724491 0.22560265144644431 0 0.10906069526472741 0.22998953009969161 0 0.081986142109724491 0.22560265144644431 0 0.09236794217301933 0.20819183719001669 0 0.10906069526472741 0.22998953009969161 0 0.11775399779290339 0.20759518633331239 0 0.10906069526472741 0.22998953009969161 0 0.1382648444377183 0.22719855966067881 0 0.10906069526472741 0.22998953009969161 0 0.12787711237058769 0.24521089126939841 0 0.1100607559553454 0.25396994184181759 0 0.092857250133516089 0.24175825718487831 0 0.10906069526472741 0.22998953009969161 0 0.1100607559553454 0.25396994184181759 0 0.081151633673542972 0.15313158297098389 0 0.083920606388658545 0.14050817004821939 0 0.0975697549496468 0.15575304468134629 0 0.081151633673542972 0.15313158297098389 0 0.083920606388658545 0.14050817004821939 0 0.071387777285217918 0.15212681924726251 0 0.074154959480044275 0.1204842858357125 0 0.087075880893963842 0.12621803440601359 0 0.083920606388658545 0.14050817004821939 0 0.087075880893963842 0.12621803440601359 0 0.083920606388658545 0.14050817004821939 0 0.097906888154765004 0.1362305538396491 0 0.062159468211553673 0.13737243366585769 0 0.061109117960118017 0.12720913792676911 0 0.083920606388658545 0.14050817004821939 0 0.074154959480044275 0.1204842858357125 0 0.061109117960118017 0.12720913792676911 0 0.083920606388658545 0.14050817004821939 0 0.061109117960118017 0.12720913792676911 0 0.083920606388658545 0.14050817004821939 0 0.062159468211553673 0.13737243366585769 0 0.083920606388658545 0.14050817004821939 0 0.069449382678632612 0.1443580261181665 0 0.060329678829100349 0.1474246815113264 0 0.062159468211553673 0.13737243366585769 0 0.069449382678632612 0.1443580261181665 0 0.060329678829100349 0.1474246815113264 0 0.069449382678632612 0.1443580261181665 0 0.071387777285217918 0.15212681924726251 0 0.083920606388658545 0.14050817004821939 0 0.069449382678632612 0.1443580261181665 0 0.071387777285217918 0.15212681924726251 0 0.059657673584757237 0.15824269734654939 0 0.060329678829100349 0.1474246815113264 0 0.071387777285217918 0.15212681924726251 0 0.059657673584757237 0.15824269734654939 0 0.071387777285217918 0.15212681924726251 0 0.071728396070648653 0.1641382979071076 0 0.081151633673542972 0.15313158297098389 0 0.071387777285217918 0.15212681924726251 0 0.071728396070648653 0.1641382979071076 0 0.071445073857882777 0.19089458628000441 0 0.075908261162629706 0.17300068451328551 0 0.086464584236575506 0.1862285865309723 0 0.060802696405823108 0.1787365445376432 0 0.071445073857882777 0.19089458628000441 0 0.075908261162629706 0.17300068451328551 0 0.071445073857882777 0.19089458628000441 0 0.075908261162629706 0.17300068451328551 0 0.060802696405823108 0.1787365445376432 0 0.071728396070648653 0.1641382979071076 0 0.075908261162629706 0.17300068451328551 0 0.086464584236575506 0.1862285865309723 0 0.090216091253114361 0.17155893003272579 0 0.1023855527362314 0.18749689463882899 0 0.075908261162629706 0.17300068451328551 0 0.086464584236575506 0.1862285865309723 0 0.090216091253114361 0.17155893003272579 0 0.081151633673542972 0.15313158297098389 0 0.071728396070648653 0.1641382979071076 0 0.0975697549496468 0.15575304468134629 0 0.071728396070648653 0.1641382979071076 0 0.090216091253114361 0.17155893003272579 0 0.0975697549496468 0.15575304468134629 0 0.071728396070648653 0.1641382979071076 0 0.075908261162629706 0.17300068451328551 0 0.090216091253114361 0.17155893003272579 0 0.071728396070648653 0.1641382979071076 0 0.0975697549496468 0.15575304468134629 0 0.090216091253114361 0.17155893003272579 0 0.1064810698159025 0.16893633516972181 0 0.0975697549496468 0.15575304468134629 0 0.1064810698159025 0.16893633516972181 0 0.1067320948171991 0.1538072021696697 0 0.0975697549496468 0.15575304468134629 0 0.090216091253114361 0.17155893003272579 0 0.1064810698159025 0.16893633516972181 0 0.1023855527362314 0.18749689463882899 0 0.1064810698159025 0.16893633516972181 0 0.12954358324573961 0.16710623429112001 0 0.12550986450034471 0.186594373040398 0 0.1064810698159025 0.16893633516972181 0 0.1023855527362314 0.18749689463882899 0 0.12550986450034471 0.186594373040398 0 0.1064810698159025 0.16893633516972181 0 0.1067320948171991 0.1538072021696697 0 0.12954358324573961 0.16710623429112001 0 0.1067320948171991 0.1538072021696697 0 0.1262856736452258 0.1537478882528979 0 0.12954358324573961 0.16710623429112001 0 0.1067320948171991 0.1538072021696697 0 0.12954358324573961 0.16710623429112001 0 0.1148569119608701 0.14824987142416859 0 0.1067320948171991 0.1538072021696697 0 0.1262856736452258 0.1537478882528979 0 0.118317888191051 0.14254191757659121 0 0.1148569119608701 0.14824987142416859 0 0.1262856736452258 0.1537478882528979 0 0.118317888191051 0.14254191757659121 0 0.12756241452120801 0.13893694775055651 0 0.1262856736452258 0.1537478882528979 0 0.1148569119608701 0.14824987142416859 0 0.1067320948171991 0.1538072021696697 0 0.1080919911900045 0.14290247769751591 0 0.118317888191051 0.14254191757659121 0 0.1148569119608701 0.14824987142416859 0 0.1080919911900045 0.14290247769751591 0 0.083920606388658545 0.14050817004821939 0 0.1067320948171991 0.1538072021696697 0 0.1067320948171991 0.1538072021696697 0 0.1080919911900045 0.14290247769751591 0 0.097906888154765004 0.1362305538396491 0 0.083920606388658545 0.14050817004821939 0 0.1067320948171991 0.1538072021696697 0 0.097906888154765004 0.1362305538396491 0 0.083920606388658545 0.14050817004821939 0 0.1067320948171991 0.1538072021696697 0 0.0975697549496468 0.15575304468134629 0 0.096984900528893664 0.1212489081817222 0 0.097906888154765004 0.1362305538396491 0 0.10589272808503949 0.13156516273042271 0 0.096984900528893664 0.1212489081817222 0 0.087075880893963842 0.12621803440601359 0 0.097906888154765004 0.1362305538396491 0 0.1080919911900045 0.14290247769751591 0 0.097906888154765004 0.1362305538396491 0 0.10589272808503949 0.13156516273042271 0 0.1080919911900045 0.14290247769751591 0 0.10589272808503949 0.13156516273042271 0 0.11327312463209829 0.13597294690712769 0 0.10712684862241641 0.1210429748963526 0 0.10589272808503949 0.13156516273042271 0 0.114987521205969 0.1268010028982309 0 0.10589272808503949 0.13156516273042271 0 0.114987521205969 0.1268010028982309 0 0.11327312463209829 0.13597294690712769 0 0.114987521205969 0.1268010028982309 0 0.11327312463209829 0.13597294690712769 0 0.1203000125167645 0.13336293759413789 0 0.118317888191051 0.14254191757659121 0 0.1080919911900045 0.14290247769751591 0 0.11327312463209829 0.13597294690712769 0 0.118317888191051 0.14254191757659121 0 0.1203000125167645 0.13336293759413789 0 0.12756241452120801 0.13893694775055651 0 0.118317888191051 0.14254191757659121 0 0.11327312463209829 0.13597294690712769 0 0.1203000125167645 0.13336293759413789 0 0.12212988809696081 0.1249307776834532 0 0.114987521205969 0.1268010028982309 0 0.1203000125167645 0.13336293759413789 0 0.12212988809696081 0.1249307776834532 0 0.1203000125167645 0.13336293759413789 0 0.12788127083107459 0.1291064789800366 0 0.12788127083107459 0.1291064789800366 0 0.13409394305489639 0.1257339851238449 0 0.12813823657366311 0.12049833089676459 0 0.12788127083107459 0.1291064789800366 0 0.13410827310584911 0.13282331674432049 0 0.13409394305489639 0.1257339851238449 0 0.12788127083107459 0.1291064789800366 0 0.12756241452120801 0.13893694775055651 0 0.13410827310584911 0.13282331674432049 0 0.1203000125167645 0.13336293759413789 0 0.12788127083107459 0.1291064789800366 0 0.12756241452120801 0.13893694775055651 0 0.13410827310584911 0.13282331674432049 0 0.14295710802469111 0.12768772724150559 0 0.13848136883728299 0.14203914735535511 0 0.12756241452120801 0.13893694775055651 0 0.13410827310584911 0.13282331674432049 0 0.13848136883728299 0.14203914735535511 0 0.13410827310584911 0.13282331674432049 0 0.13409394305489639 0.1257339851238449 0 0.14295710802469111 0.12768772724150559 0 0.14295710802469111 0.12768772724150559 0 0.15698787762036359 0.14007723406829989 0 0.15364605026385231 0.1227496740475859 0 0.14295710802469111 0.12768772724150559 0 0.13848136883728299 0.14203914735535511 0 0.15698787762036359 0.14007723406829989 0 0.13848136883728299 0.14203914735535511 0 0.1441447949138806 0.1573716891147208 0 0.15698787762036359 0.14007723406829989 0 0.1441447949138806 0.1573716891147208 0 0.1598153361361678 0.15982657838785511 0 0.15698787762036359 0.14007723406829989 0 0.13848136883728299 0.14203914735535511 0 0.1262856736452258 0.1537478882528979 0 0.1441447949138806 0.1573716891147208 0 0.12756241452120801 0.13893694775055651 0 0.13848136883728299 0.14203914735535511 0 0.1262856736452258 0.1537478882528979 0 0.1262856736452258 0.1537478882528979 0 0.12954358324573961 0.16710623429112001 0 0.1441447949138806 0.1573716891147208 0 0.12954358324573961 0.16710623429112001 0 0.12550986450034471 0.186594373040398 0 0.15375492999850379 0.1814330523327968 0 0.12954358324573961 0.16710623429112001 0 0.15375492999850379 0.1814330523327968 0 0.1441447949138806 0.1573716891147208 0 0.15375492999850379 0.1814330523327968 0 0.1441447949138806 0.1573716891147208 0 0.1598153361361678 0.15982657838785511 0 0.1598153361361678 0.15982657838785511 0 0.17205847002769489 0.1711246398383999 0 0.17247097746626519 0.1464629757798975 0 0.15375492999850379 0.1814330523327968 0 0.1598153361361678 0.15982657838785511 0 0.17205847002769489 0.1711246398383999 0 0.15375492999850379 0.1814330523327968 0 0.17205847002769489 0.1711246398383999 0 0.18411838942066619 0.18828130780555291 0 0.17205847002769489 0.1711246398383999 0 0.18411838942066619 0.18828130780555291 0 0.19050902449260759 0.164433536692701 0 0.17205847002769489 0.1711246398383999 0 0.17247097746626519 0.1464629757798975 0 0.19050902449260759 0.164433536692701 0 0.17247097746626519 0.1464629757798975 0 0.1903693880120208 0.14015559280000461 0 0.19050902449260759 0.164433536692701 0 0.17247097746626519 0.1464629757798975 0 0.18002451345814399 0.12716596121819479 0 0.1903693880120208 0.14015559280000461 0 0.17247097746626519 0.1464629757798975 0 0.18002451345814399 0.12716596121819479 0 0.16417220099380411 0.12505127510387981 0 0.15698787762036359 0.14007723406829989 0 0.16417220099380411 0.12505127510387981 0 0.15364605026385231 0.1227496740475859 0 0.17247097746626519 0.1464629757798975 0 0.15698787762036359 0.14007723406829989 0 0.16417220099380411 0.12505127510387981 0 0.1598153361361678 0.15982657838785511 0 0.17247097746626519 0.1464629757798975 0 0.15698787762036359 0.14007723406829989 0 0.14702044576598061 0.2478904659134552 0 0.1382648444377183 0.22719855966067881 0 0.15828943790025421 0.22969507774947781 0 0.14702044576598061 0.2478904659134552 0 0.12787711237058769 0.24521089126939841 0 0.1382648444377183 0.22719855966067881 0 0.10906069526472741 0.22998953009969161 0 0.12787711237058769 0.24521089126939841 0 0.1382648444377183 0.22719855966067881 0 0.1382648444377183 0.22719855966067881 0 0.14314005341278749 0.20699853547660821 0 0.15828943790025421 0.22969507774947781 0 0.14314005341278749 0.20699853547660821 0 0.16852610903267151 0.206401884619904 0 0.11775399779290339 0.20759518633331239 0 0.1382648444377183 0.22719855966067881 0 0.14314005341278749 0.20699853547660821 0 0.11775399779290339 0.20759518633331239 0 0.14314005341278749 0.20699853547660821 0 0.11775399779290339 0.20759518633331239 0 0.12550986450034471 0.186594373040398 0 0.14314005341278749 0.20699853547660821 0 0.15375492999850379 0.1814330523327968 0 0.14314005341278749 0.20699853547660821 0 0.16852610903267151 0.206401884619904 0 0.12550986450034471 0.186594373040398 0 0.15375492999850379 0.1814330523327968 0 0.14314005341278749 0.20699853547660821 0 0.15375492999850379 0.1814330523327968 0 0.18411838942066619 0.18828130780555291 0 0.16852610903267151 0.206401884619904 0 0.18411838942066619 0.18828130780555291 0 0.16852610903267151 0.206401884619904 0 0.1878214256448299 0.20672411698152671 0 0.16852610903267151 0.206401884619904 0 0.17766068788986381 0.23020170431202469 0 0.1878214256448299 0.20672411698152671 0 0.14314005341278749 0.20699853547660821 0 0.16852610903267151 0.206401884619904 0 0.15828943790025421 0.22969507774947781 0 0.16852610903267151 0.206401884619904 0 0.15828943790025421 0.22969507774947781 0 0.17766068788986381 0.23020170431202469 0 0.17766068788986381 0.23020170431202469 0 0.19353513124668931 0.22246748781277501 0 0.1878214256448299 0.20672411698152671 0 0.17766068788986381 0.23020170431202469 0 0.18692125413578081 0.24552837502103991 0 0.19379669244916639 0.23440003217329089 0 0.17766068788986381 0.23020170431202469 0 0.18692125413578081 0.24552837502103991 0 0.16774616909827719 0.2460930353984315 0 0.15828943790025421 0.22969507774947781 0 0.17766068788986381 0.23020170431202469 0 0.16774616909827719 0.2460930353984315 0 0.14702044576598061 0.2478904659134552 0 0.15828943790025421 0.22969507774947781 0 0.16774616909827719 0.2460930353984315 0 0.21557305570370441 0.24515722135805329 0 0.2029257889591993 0.24295866219667439 0 0.23007231546290949 0.2334513308517342 0 0.2029257889591993 0.24295866219667439 0 0.23007231546290949 0.2334513308517342 0 0.21557305570370441 0.24515722135805329 0 0.2029257889591993 0.24295866219667439 0 0.20107379594449931 0.25686311186437227 0 0.18692125413578081 0.24552837502103991 0 0.2029257889591993 0.24295866219667439 0 0.20107379594449931 0.25686311186437227 0 0.18692125413578081 0.24552837502103991 0 0.19379669244916639 0.23440003217329089 0 0.2029257889591993 0.24295866219667439 0 0.17766068788986381 0.23020170431202469 0 0.19379669244916639 0.23440003217329089 0 0.19353513124668931 0.22246748781277501 0 0.19379669244916639 0.23440003217329089 0 0.2029257889591993 0.24295866219667439 0 0.20920449219815451 0.22515354045629349 0 0.19379669244916639 0.23440003217329089 0 0.19353513124668931 0.22246748781277501 0 0.20920449219815451 0.22515354045629349 0 0.2029257889591993 0.24295866219667439 0 0.20920449219815451 0.22515354045629349 0 0.23007231546290949 0.2334513308517342 0 0.19353513124668931 0.22246748781277501 0 0.20920449219815451 0.22515354045629349 0 0.20732414099141369 0.20672295990195361 0 0.20920449219815451 0.22515354045629349 0 0.20732414099141369 0.20672295990195361 0 0.22783619495118521 0.20973527166224001 0 0.19353513124668931 0.22246748781277501 0 0.20732414099141369 0.20672295990195361 0 0.1878214256448299 0.20672411698152671 0 0.18411838942066619 0.18828130780555291 0 0.1878214256448299 0.20672411698152671 0 0.20343121377691101 0.18825927067945539 0 0.20732414099141369 0.20672295990195361 0 0.1878214256448299 0.20672411698152671 0 0.20343121377691101 0.18825927067945539 0 0.20732414099141369 0.20672295990195361 0 0.20343121377691101 0.18825927067945539 0 0.2219787971027708 0.18678942035429349 0 0.20732414099141369 0.20672295990195361 0 0.22783619495118521 0.20973527166224001 0 0.2219787971027708 0.18678942035429349 0 0.24528107816237801 0.1907036486386274 0 0.22783619495118521 0.20973527166224001 0 0.2219787971027708 0.18678942035429349 0 0.24528107816237801 0.1907036486386274 0 0.25242827713160498 0.21540237912569379 0 0.24528107816237801 0.1907036486386274 0 0.22783619495118521 0.20973527166224001 0 0.25242827713160498 0.21540237912569379 0 0.20920449219815451 0.22515354045629349 0 0.22783619495118521 0.20973527166224001 0 0.23007231546290949 0.2334513308517342 0 0.23007231546290949 0.2334513308517342 0 0.25242827713160498 0.21540237912569379 0 0.23007231546290949 0.2334513308517342 0 0.25511338863332461 0.22468137717712711 0 0.25242827713160498 0.21540237912569379 0 0.23007231546290949 0.2334513308517342 0 0.25511338863332461 0.22468137717712711 0 0.23007231546290949 0.2334513308517342 0 0.2457442494512444 0.24022391879071339 0 0.25511338863332461 0.22468137717712711 0 0.22783619495118521 0.20973527166224001 0 0.23007231546290949 0.2334513308517342 0 0.25242827713160498 0.21540237912569379 0 0.2457442494512444 0.24022391879071339 0 0.23628031136540401 0.25597328662156199 0 0.26221447651104962 0.2479993693513689 0 0.23007231546290949 0.2334513308517342 0 0.2457442494512444 0.24022391879071339 0 0.23628031136540401 0.25597328662156199 0 0.21557305570370441 0.24515722135805329 0 0.23007231546290949 0.2334513308517342 0 0.23628031136540401 0.25597328662156199 0 0.21557305570370441 0.24515722135805329 0 0.23007231546290949 0.2334513308517342 0 0.21023583046185859 0.14706018503428281 0 0.22521494488481819 0.12557893006429149 0 0.2001236667938262 0.1180422718546187 0 0.18002451345814399 0.12716596121819479 0 0.1903693880120208 0.14015559280000461 0 0.2001236667938262 0.1180422718546187 0 0.21023583046185859 0.14706018503428281 0 0.1903693880120208 0.14015559280000461 0 0.2001236667938262 0.1180422718546187 0 0.21023583046185859 0.14706018503428281 0 0.1903693880120208 0.14015559280000461 0 0.19050902449260759 0.164433536692701 0 0.18411838942066619 0.18828130780555291 0 0.20343121377691101 0.18825927067945539 0 0.19050902449260759 0.164433536692701 0 0.20343121377691101 0.18825927067945539 0 0.19050902449260759 0.164433536692701 0 0.20962662881846919 0.1707346457134423 0 0.20343121377691101 0.18825927067945539 0 0.20962662881846919 0.1707346457134423 0 0.2219787971027708 0.18678942035429349 0 0.21023583046185859 0.14706018503428281 0 0.20962662881846919 0.1707346457134423 0 0.2254160648188453 0.164078398330023 0 0.21023583046185859 0.14706018503428281 0 0.19050902449260759 0.164433536692701 0 0.20962662881846919 0.1707346457134423 0 0.20962662881846919 0.1707346457134423 0 0.2254160648188453 0.164078398330023 0 0.2219787971027708 0.18678942035429349 0 0.2254160648188453 0.164078398330023 0 0.2219787971027708 0.18678942035429349 0 0.23714843650665229 0.1758398884969993 0 0.24528107816237801 0.1907036486386274 0 0.2219787971027708 0.18678942035429349 0 0.23714843650665229 0.1758398884969993 0 0.24528107816237801 0.1907036486386274 0 0.23714843650665229 0.1758398884969993 0 0.25292738168467233 0.17649485219682931 0 0.2254160648188453 0.164078398330023 0 0.24653130607993951 0.16237692388552691 0 0.23688534306575301 0.1458043597726891 0 0.23714843650665229 0.1758398884969993 0 0.24653130607993951 0.16237692388552691 0 0.25292738168467233 0.17649485219682931 0 0.2254160648188453 0.164078398330023 0 0.23714843650665229 0.1758398884969993 0 0.24653130607993951 0.16237692388552691 0 0.24653130607993951 0.16237692388552691 0 0.2496536413094039 0.15044712256699261 0 0.23688534306575301 0.1458043597726891 0 0.2496536413094039 0.15044712256699261 0 0.23688534306575301 0.1458043597726891 0 0.25004344172447263 0.14019424959050239 0 0.21023583046185859 0.14706018503428281 0 0.2254160648188453 0.164078398330023 0 0.23688534306575301 0.1458043597726891 0 0.21023583046185859 0.14706018503428281 0 0.23688534306575301 0.1458043597726891 0 0.22521494488481819 0.12557893006429149 0 0.22521494488481819 0.12557893006429149 0 0.25030622297580962 0.13311558827396619 0 0.23688534306575301 0.1458043597726891 0 0.22521494488481819 0.12557893006429149 0 0.25030622297580962 0.13311558827396619 0 0.23688534306575301 0.1458043597726891 0 0.25004344172447263 0.14019424959050239 0 0.25030622297580962 0.13311558827396619 0 0.22521494488481819 0.12557893006429149 0 0.2369469616243938 0.1144798656387125 0 0.25030622297580962 0.13311558827396619 0 0.2369469616243938 0.1144798656387125 0 0.25094552198087999 0.11589449234768209 0 0.25030622297580962 0.13311558827396619 0 0.2369469616243938 0.1144798656387125 0 0.25158482098595109 0.098673396421397969 0 0.25094552198087999 0.11589449234768209 0 0.2369469616243938 0.1144798656387125 0 0.2308580048349978 0.09939168424622695 0 0.25158482098595109 0.098673396421397969 0 0.2308580048349978 0.09939168424622695 0 0.2177667053289645 0.10879872465146249 0 0.21723881235993189 0.092441087960636145 0 0.2369469616243938 0.1144798656387125 0 0.2308580048349978 0.09939168424622695 0 0.2177667053289645 0.10879872465146249 0 0.22521494488481819 0.12557893006429149 0 0.2369469616243938 0.1144798656387125 0 0.2177667053289645 0.10879872465146249 0 0.2177667053289645 0.10879872465146249 0 0.1970849337058638 0.1019164286603922 0 0.2001236667938262 0.1180422718546187 0 0.22521494488481819 0.12557893006429149 0 0.2177667053289645 0.10879872465146249 0 0.2001236667938262 0.1180422718546187 0 0.22521494488481819 0.12557893006429149 0 0.2001236667938262 0.1180422718546187 0 0.1970849337058638 0.1019164286603922 0 0.20420713705815571 0.090978010823124941 0 0.21723881235993189 0.092441087960636145 0 0.1970849337058638 0.1019164286603922 0 0.21723881235993189 0.092441087960636145 0 0.2177667053289645 0.10879872465146249 0 0.1970849337058638 0.1019164286603922 0 0.21723881235993189 0.092441087960636145 0 0.1970849337058638 0.1019164286603922 0 0.1916307843626972 0.08827444688259839 0 0.17503238870283441 0.11050561364494491 0 0.2001236667938262 0.1180422718546187 0 0.17503238870283441 0.11050561364494491 0 0.1970849337058638 0.1019164286603922 0 0.2001236667938262 0.1180422718546187 0 0.17503238870283441 0.11050561364494491 0 0.1916307843626972 0.08827444688259839 0 0.2082291800225603 0.066043280120252124 0 0.19067723801237901 0.065525043857756982 0 0.1916307843626972 0.08827444688259839 0 0.2082291800225603 0.066043280120252124 0 0.1916307843626972 0.08827444688259839 0 0.21087401780412959 0.081280079788873041 0 0.20420713705815571 0.090978010823124941 0 0.1970849337058638 0.1019164286603922 0 0.1916307843626972 0.08827444688259839 0 0.20420713705815571 0.090978010823124941 0 0.1916307843626972 0.08827444688259839 0 0.21087401780412959 0.081280079788873041 0 0.2082291800225603 0.066043280120252124 0 0.21087401780412959 0.081280079788873041 0 0.20420713705815571 0.090978010823124941 0 0.21723881235993189 0.092441087960636145 0 0.21087401780412959 0.081280079788873041 0 0.21723881235993189 0.092441087960636145 0 0.22613356481757629 0.0775902723280468 0 0.21087401780412959 0.081280079788873041 0 0.2082291800225603 0.066043280120252124 0 0.22613356481757629 0.0775902723280468 0 0.2082291800225603 0.066043280120252124 0 0.22613356481757629 0.0775902723280468 0 0.2082291800225603 0.066043280120252124 0 0.2259496113806885 0.070300708218039992 0 0.21450653174737461 0.057635669175196122 0 0.2259496113806885 0.070300708218039992 0 0.21450653174737461 0.057635669175196122 0 0.2082291800225603 0.066043280120252124 0 0.2259496113806885 0.070300708218039992 0 0.22613356481757629 0.0775902723280468 0 0.2259496113806885 0.070300708218039992 0 0.2248665156508784 0.061611733455129589 0 0.21450653174737461 0.057635669175196122 0 0.2259496113806885 0.070300708218039992 0 0.22613356481757629 0.0775902723280468 0 0.23739269101400209 0.082965747260884265 0 0.2259496113806885 0.070300708218039992 0 0.23739269101400209 0.082965747260884265 0 0.237967452106535 0.070105640596903412 0 0.2259496113806885 0.070300708218039992 0 0.23739269101400209 0.082965747260884265 0 0.2259496113806885 0.070300708218039992 0 0.2330718446673557 0.064441819436705627 0 0.2248665156508784 0.061611733455129589 0 0.2259496113806885 0.070300708218039992 0 0.2330718446673557 0.064441819436705627 0 0.237967452106535 0.070105640596903412 0 0.2308580048349978 0.09939168424622695 0 0.21723881235993189 0.092441087960636145 0 0.23739269101400209 0.082965747260884265 0 0.21723881235993189 0.092441087960636145 0 0.22613356481757629 0.0775902723280468 0 0.23739269101400209 0.082965747260884265 0 0.21723881235993189 0.092441087960636145 0 0.23739269101400209 0.082965747260884265 0 0.23739269101400209 0.082965747260884265 0 0.25158482098595109 0.098673396421397969 0 0.23739269101400209 0.082965747260884265 0 0.25243039498113262 0.075895774732197205 0 0.25158482098595109 0.098673396421397969 0 0.2308580048349978 0.09939168424622695 0 0.23739269101400209 0.082965747260884265 0 0.25158482098595109 0.098673396421397969 0 0.23739269101400209 0.082965747260884265 0 0.25243039498113262 0.075895774732197205 0 0.23934469018649959 0.064583282500140851 0 0.237967452106535 0.070105640596903412 0 0.24496427956833819 0.066036472520138348 0 0.2330718446673557 0.064441819436705627 0 0.23934469018649959 0.064583282500140851 0 0.2376257901407148 0.059976102198904507 0 0.2330718446673557 0.064441819436705627 0 0.23934469018649959 0.064583282500140851 0 0.237967452106535 0.070105640596903412 0 0.23739269101400209 0.082965747260884265 0 0.237967452106535 0.070105640596903412 0 0.24429048066179679 0.072622021298478806 0 0.24429048066179679 0.072622021298478806 0 0.24842415088314279 0.069033451464499671 0 0.25243039498113262 0.075895774732197205 0 0.23739269101400209 0.082965747260884265 0 0.24429048066179679 0.072622021298478806 0 0.25243039498113262 0.075895774732197205 0 0.24842415088314279 0.069033451464499671 0 0.24853219730195361 0.063845178725116872 0 0.25274476311700622 0.067427493409812952 0 0.237967452106535 0.070105640596903412 0 0.24429048066179679 0.072622021298478806 0 0.24496427956833819 0.066036472520138348 0 0.24429048066179679 0.072622021298478806 0 0.24842415088314279 0.069033451464499671 0 0.24496427956833819 0.066036472520138348 0 0.23934469018649959 0.064583282500140851 0 0.24496427956833819 0.066036472520138348 0 0.24309408444955441 0.062356377748052388 0 0.24496427956833819 0.066036472520138348 0 0.24602681454492631 0.062964227281045088 0 0.24309408444955441 0.062356377748052388 0 0.24496427956833819 0.066036472520138348 0 0.24602681454492631 0.062964227281045088 0 0.24853219730195361 0.063845178725116872 0 0.24842415088314279 0.069033451464499671 0 0.24496427956833819 0.066036472520138348 0 0.24853219730195361 0.063845178725116872 0 0.24751669685985911 0.059618880130872708 0 0.24309408444955441 0.062356377748052388 0 0.2376257901407148 0.059976102198904507 0 0.24751669685985911 0.059618880130872708 0 0.24426241142214139 0.049994713685017962 0 0.2310385276818335 0.053106641608170198 0 0.24751669685985911 0.059618880130872708 0 0.2376257901407148 0.059976102198904507 0 0.2310385276818335 0.053106641608170198 0 0.24751669685985911 0.059618880130872708 0 0.2310385276818335 0.053106641608170198 0 0.24853219730195361 0.063845178725116872 0 0.24751669685985911 0.059618880130872708 0 0.2530174900015254 0.0600809219264858 0 0.24602681454492631 0.062964227281045088 0 0.24853219730195361 0.063845178725116872 0 0.24751669685985911 0.059618880130872708 0 0.24602681454492631 0.062964227281045088 0 0.24751669685985911 0.059618880130872708 0 0.24309408444955441 0.062356377748052388 0 0.23934469018649959 0.064583282500140851 0 0.24309408444955441 0.062356377748052388 0 0.2376257901407148 0.059976102198904507 0 0.24426241142214139 0.049994713685017962 0 0.23928634064401511 0.040096757013566242 0 0.2310385276818335 0.053106641608170198 0 0.24751669685985911 0.059618880130872708 0 0.24426241142214139 0.049994713685017962 0 0.25102243244437311 0.053297338652025752 0 0.24426241142214139 0.049994713685017962 0 0.25174039047255609 0.044464402284776217 0 0.25102243244437311 0.053297338652025752 0 0.23928634064401511 0.040096757013566242 0 0.2320502206633881 0.021165953515508481 0 0.25044211127373811 0.032849993626191502 0 0.23928634064401511 0.040096757013566242 0 0.25044211127373811 0.032849993626191502 0 0.25174039047255609 0.044464402284776217 0 0.24426241142214139 0.049994713685017962 0 0.23928634064401511 0.040096757013566242 0 0.25174039047255609 0.044464402284776217 0 0.22618438235043381 0.038998837361733103 0 0.2320502206633881 0.021165953515508481 0 0.20963369093729961 0.03941564640516447 0 0.23928634064401511 0.040096757013566242 0 0.22618438235043381 0.038998837361733103 0 0.2320502206633881 0.021165953515508481 0 0.22618438235043381 0.038998837361733103 0 0.2310385276818335 0.053106641608170198 0 0.21456035850380811 0.046594403085467223 0 0.23928634064401511 0.040096757013566242 0 0.22618438235043381 0.038998837361733103 0 0.2310385276818335 0.053106641608170198 0 0.2310385276818335 0.053106641608170198 0 0.21456035850380811 0.046594403085467223 0 0.2248665156508784 0.061611733455129589 0 0.2310385276818335 0.053106641608170198 0 0.21456035850380811 0.046594403085467223 0 0.2248665156508784 0.061611733455129589 0 0.21456035850380811 0.046594403085467223 0 0.2330718446673557 0.064441819436705627 0 0.2248665156508784 0.061611733455129589 0 0.23150027442910881 0.059501590197602497 0 0.2248665156508784 0.061611733455129589 0 0.23150027442910881 0.059501590197602497 0 0.2310385276818335 0.053106641608170198 0 0.2330718446673557 0.064441819436705627 0 0.2376257901407148 0.059976102198904507 0 0.23150027442910881 0.059501590197602497 0 0.2376257901407148 0.059976102198904507 0 0.23150027442910881 0.059501590197602497 0 0.2310385276818335 0.053106641608170198 0 0.2320502206633881 0.021165953515508481 0 0.22999165343287109 0.0038227322559807589 0 0.25446675038947358 0.0029162606258486688 0 0.2320502206633881 0.021165953515508481 0 0.2600935707136679 0.019574361616358959 0 0.25446675038947358 0.0029162606258486688 0 0.22999165343287109 0.0038227322559807589 0 0.25446675038947358 0.0029162606258486688 0 0.24138147174972829 -0.0061427828714447699 0 0.2320502206633881 0.021165953515508481 0 0.25446675038947358 0.0029162606258486688 0 0.2320502206633881 0.021165953515508481 0 0.2600935707136679 0.019574361616358959 0 0.25044211127373811 0.032849993626191502 0 0.2320502206633881 0.021165953515508481 0 0.20963369093729961 0.03941564640516447 0 0.22999165343287109 0.0038227322559807589 0 0.21340461703840111 0.0096506044731711187 0 0.21351355446813719 -0.0021103410187178909 0 0.2320502206633881 0.021165953515508481 0 0.22999165343287109 0.0038227322559807589 0 0.21340461703840111 0.0096506044731711187 0 0.21340461703840111 0.0096506044731711187 0 0.1998105265397013 0.00335350757378736 0 0.21351355446813719 -0.0021103410187178909 0 0.21340461703840111 0.0096506044731711187 0 0.20371525389429951 0.01279949030761077 0 0.2082588668535221 0.02245160931237615 0 0.21340461703840111 0.0096506044731711187 0 0.20371525389429951 0.01279949030761077 0 0.1998105265397013 0.00335350757378736 0 0.2320502206633881 0.021165953515508481 0 0.2082588668535221 0.02245160931237615 0 0.20963369093729961 0.03941564640516447 0 0.2320502206633881 0.021165953515508481 0 0.21340461703840111 0.0096506044731711187 0 0.2082588668535221 0.02245160931237615 0 0.2082588668535221 0.02245160931237615 0 0.19338700514557339 0.015742239871108451 0 0.20963369093729961 0.03941564640516447 0 0.19338700514557339 0.015742239871108451 0 0.1989601287501698 0.040429129743079398 0 0.18048502430789731 0.01998114488410483 0 0.1989601287501698 0.040429129743079398 0 0.18048502430789731 0.01998114488410483 0 0.19338700514557339 0.015742239871108451 0 0.20963369093729961 0.03941564640516447 0 0.20371525389429951 0.01279949030761077 0 0.2082588668535221 0.02245160931237615 0 0.19338700514557339 0.015742239871108451 0 0.19338700514557339 0.015742239871108451 0 0.1998105265397013 0.00335350757378736 0 0.17714031935384769 -0.0079311666629475405 0 0.20371525389429951 0.01279949030761077 0 0.19338700514557339 0.015742239871108451 0 0.1998105265397013 0.00335350757378736 0 0.21450653174737461 0.057635669175196122 0 0.2029561920580818 0.044851916216142339 0 0.21450653174737461 0.057635669175196122 0 0.2029561920580818 0.044851916216142339 0 0.2021088015620611 0.053433964061651712 0 0.21450653174737461 0.057635669175196122 0 0.21456035850380811 0.046594403085467223 0 0.2029561920580818 0.044851916216142339 0 0.2082291800225603 0.066043280120252124 0 0.21450653174737461 0.057635669175196122 0 0.2021088015620611 0.053433964061651712 0 0.2248665156508784 0.061611733455129589 0 0.21450653174737461 0.057635669175196122 0 0.21456035850380811 0.046594403085467223 0 0.2082291800225603 0.066043280120252124 0 0.21450653174737461 0.057635669175196122 0 0.22618438235043381 0.038998837361733103 0 0.21456035850380811 0.046594403085467223 0 0.20963369093729961 0.03941564640516447 0 0.21456035850380811 0.046594403085467223 0 0.20963369093729961 0.03941564640516447 0 0.21456035850380811 0.046594403085467223 0 0.20530753189452691 0.042937648913457381 0 0.2029561920580818 0.044851916216142339 0 0.20963369093729961 0.03941564640516447 0 0.20530753189452691 0.042937648913457381 0 0.1989601287501698 0.040429129743079398 0 0.21456035850380811 0.046594403085467223 0 0.20530753189452691 0.042937648913457381 0 0.21456035850380811 0.046594403085467223 0 0.20963369093729961 0.03941564640516447 0 0.20530753189452691 0.042937648913457381 0 0.20963369093729961 0.03941564640516447 0 0.20530753189452691 0.042937648913457381 0 0.20530753189452691 0.042937648913457381 0 0.2029561920580818 0.044851916216142339 0 0.1989601287501698 0.040429129743079398 0 0.1774654858828027 0.031934360706524292 0 0.2029561920580818 0.044851916216142339 0 0.1989601287501698 0.040429129743079398 0 0.19971656766465989 0.047489351670260083 0 0.1989601287501698 0.040429129743079398 0 0.19133087755196571 0.045131483978966998 0 0.19971656766465989 0.047489351670260083 0 0.2029561920580818 0.044851916216142339 0 0.19971656766465989 0.047489351670260083 0 0.19338700514557339 0.015742239871108451 0 0.20963369093729961 0.03941564640516447 0 0.1989601287501698 0.040429129743079398 0 0.1989601287501698 0.040429129743079398 0 0.19133087755196571 0.045131483978966998 0 0.18298678422305309 0.040980100737508622 0 0.20530753189452691 0.042937648913457381 0 0.2029561920580818 0.044851916216142339 0 0.1989601287501698 0.040429129743079398 0 0.20530753189452691 0.042937648913457381 0 0.1989601287501698 0.040429129743079398 0 0.2029561920580818 0.044851916216142339 0 0.1989601287501698 0.040429129743079398 0 0.2082291800225603 0.066043280120252124 0 0.18513553631762919 0.051149603126408108 0 0.2021088015620611 0.053433964061651712 0 0.19971656766465989 0.047489351670260083 0 0.18513553631762919 0.051149603126408108 0 0.2082291800225603 0.066043280120252124 0 0.2021088015620611 0.053433964061651712 0 0.18513553631762919 0.051149603126408108 0 0.19067723801237901 0.065525043857756982 0 0.2082291800225603 0.066043280120252124 0 0.18513553631762919 0.051149603126408108 0 0.19133087755196571 0.045131483978966998 0 0.19971656766465989 0.047489351670260083 0 0.18513553631762919 0.051149603126408108 0 0.2029561920580818 0.044851916216142339 0 0.2021088015620611 0.053433964061651712 0 0.19971656766465989 0.047489351670260083 0 0.17734631865053521 0.060730067185729229 0 0.18513553631762919 0.051149603126408108 0 0.16725106424272049 0.052894846580172288 0 0.19067723801237901 0.065525043857756982 0 0.17734631865053521 0.060730067185729229 0 0.18513553631762919 0.051149603126408108 0 0.18298678422305309 0.040980100737508622 0 0.1774654858828027 0.031934360706524292 0 0.1620418926126978 0.036255926132564682 0 0.19133087755196571 0.045131483978966998 0 0.18513553631762919 0.051149603126408108 0 0.18298678422305309 0.040980100737508622 0 0.18513553631762919 0.051149603126408108 0 0.18298678422305309 0.040980100737508622 0 0.1620418926126978 0.036255926132564682 0 0.1989601287501698 0.040429129743079398 0 0.18298678422305309 0.040980100737508622 0 0.1774654858828027 0.031934360706524292 0 0.18513553631762919 0.051149603126408108 0 0.1620418926126978 0.036255926132564682 0 0.1620418926126978 0.036255926132564682 0 0.16725106424272049 0.052894846580172288 0 0.15541952745182569 0.04677658384696623 0 0.18513553631762919 0.051149603126408108 0 0.1620418926126978 0.036255926132564682 0 0.16725106424272049 0.052894846580172288 0 0.16725106424272049 0.052894846580172288 0 0.15507694825043991 0.057889849327421902 0 0.15541952745182569 0.04677658384696623 0 0.16725106424272049 0.052894846580172288 0 0.15507694825043991 0.057889849327421902 0 0.1653937448538241 0.067538194789913991 0 0.17734631865053521 0.060730067185729229 0 0.16725106424272049 0.052894846580172288 0 0.1653937448538241 0.067538194789913991 0 0.18048502430789731 0.01998114488410483 0 0.1657030786406338 0.0084270166623369204 0 0.17714031935384769 -0.0079311666629475405 0 0.19338700514557339 0.015742239871108451 0 0.17714031935384769 -0.0079311666629475405 0 0.19338700514557339 0.015742239871108451 0 0.18048502430789731 0.01998114488410483 0 0.17714031935384769 -0.0079311666629475405 0 0.1989601287501698 0.040429129743079398 0 0.1774654858828027 0.031934360706524292 0 0.18048502430789731 0.01998114488410483 0 0.1774654858828027 0.031934360706524292 0 0.18048502430789731 0.01998114488410483 0 0.16935520337559401 0.020657770454092759 0 0.1774654858828027 0.031934360706524292 0 0.15597084301543529 0.02343959166996953 0 0.1774654858828027 0.031934360706524292 0 0.1620418926126978 0.036255926132564682 0 0.15597084301543529 0.02343959166996953 0 0.1774654858828027 0.031934360706524292 0 0.16935520337559401 0.020657770454092759 0 0.15597084301543529 0.02343959166996953 0 0.16935520337559401 0.020657770454092759 0 0.1657030786406338 0.0084270166623369204 0 0.15597084301543529 0.02343959166996953 0 0.18048502430789731 0.01998114488410483 0 0.16935520337559401 0.020657770454092759 0 0.1657030786406338 0.0084270166623369204 0 0.1657030786406338 0.0084270166623369204 0 0.14883794818754281 0.01110572894874149 0 0.15480995508657039 -0.001084596553268768 0 0.1657030786406338 0.0084270166623369204 0 0.14883794818754281 0.01110572894874149 0 0.15597084301543529 0.02343959166996953 0 0.14883794818754281 0.01110572894874149 0 0.13464870039648349 0.00080453217212592717 0 0.15480995508657039 -0.001084596553268768 0 0.14883794818754281 0.01110572894874149 0 0.13894824890776639 0.02136224913872127 0 0.13464870039648349 0.00080453217212592717 0 0.1620418926126978 0.036255926132564682 0 0.13894824890776639 0.02136224913872127 0 0.14883794818754281 0.01110572894874149 0 0.15597084301543529 0.02343959166996953 0 0.13894824890776639 0.02136224913872127 0 0.1620418926126978 0.036255926132564682 0 0.15597084301543529 0.02343959166996953 0 0.13894824890776639 0.02136224913872127 0 0.11961069471150609 0.02296590295220987 0 0.13894824890776639 0.02136224913872127 0 0.12977361784467401 0.039215218793308727 0 0.1158546052028349 0.0064685721448778594 0 0.13894824890776639 0.02136224913872127 0 0.1158546052028349 0.0064685721448778594 0 0.13894824890776639 0.02136224913872127 0 0.13464870039648349 0.00080453217212592717 0 0.14278372382386809 0.048416123664777412 0 0.1428601767931531 0.062084067640591357 0 0.15507694825043991 0.057889849327421902 0 0.14278372382386809 0.048416123664777412 0 0.15507694825043991 0.057889849327421902 0 0.15541952745182569 0.04677658384696623 0 0.1620418926126978 0.036255926132564682 0 0.13894824890776639 0.02136224913872127 0 0.14579340212816641 0.038405220315267663 0 0.1620418926126978 0.036255926132564682 0 0.15541952745182569 0.04677658384696623 0 0.14579340212816641 0.038405220315267663 0 0.14278372382386809 0.048416123664777412 0 0.15541952745182569 0.04677658384696623 0 0.14579340212816641 0.038405220315267663 0 0.14278372382386809 0.048416123664777412 0 0.14579340212816641 0.038405220315267663 0 0.12977361784467401 0.039215218793308727 0 0.13894824890776639 0.02136224913872127 0 0.14579340212816641 0.038405220315267663 0 0.12977361784467401 0.039215218793308727 0 0.11550376979223601 0.054551475820320147 0 0.12977361784467401 0.039215218793308727 0 0.1326943019686847 0.054606112458038862 0 0.11550376979223601 0.054551475820320147 0 0.1326943019686847 0.054606112458038862 0 0.13255022158949201 0.068763676371196639 0 0.14278372382386809 0.048416123664777412 0 0.12977361784467401 0.039215218793308727 0 0.1326943019686847 0.054606112458038862 0 0.14278372382386809 0.048416123664777412 0 0.1428601767931531 0.062084067640591357 0 0.1326943019686847 0.054606112458038862 0 0.1428601767931531 0.062084067640591357 0 0.1326943019686847 0.054606112458038862 0 0.13255022158949201 0.068763676371196639 0 0.1207366242219714 0.074251990558816788 0 0.13255022158949201 0.068763676371196639 0 0.13578085374332971 0.077614708003019631 0 0.13255022158949201 0.068763676371196639 0 0.13578085374332971 0.077614708003019631 0 0.1430759120552613 0.073085192731263071 0 0.1428601767931531 0.062084067640591357 0 0.13255022158949201 0.068763676371196639 0 0.1430759120552613 0.073085192731263071 0 0.1428601767931531 0.062084067640591357 0 0.1430759120552613 0.073085192731263071 0 0.15260580868734391 0.069203578475014266 0 0.1430759120552613 0.073085192731263071 0 0.14969883640752091 0.076610515579137797 0 0.14563192422462459 0.083183778073064013 0 0.13578085374332971 0.077614708003019631 0 0.1430759120552613 0.073085192731263071 0 0.14563192422462459 0.083183778073064013 0 0.1430759120552613 0.073085192731263071 0 0.14969883640752091 0.076610515579137797 0 0.15260580868734391 0.069203578475014266 0 0.14969883640752091 0.076610515579137797 0 0.15260580868734391 0.069203578475014266 0 0.15677919641446331 0.080277826610221981 0 0.1428601767931531 0.062084067640591357 0 0.15507694825043991 0.057889849327421902 0 0.15260580868734391 0.069203578475014266 0 0.1506819444987289 0.088437751930635633 0 0.14868901735932749 0.09586058707093438 0 0.157853861938485 0.092527754269896317 0 0.1506819444987289 0.088437751930635633 0 0.15677919641446331 0.080277826610221981 0 0.157853861938485 0.092527754269896317 0 0.14969883640752091 0.076610515579137797 0 0.14563192422462459 0.083183778073064013 0 0.15677919641446331 0.080277826610221981 0 0.1506819444987289 0.088437751930635633 0 0.14563192422462459 0.083183778073064013 0 0.15677919641446331 0.080277826610221981 0 0.14563192422462459 0.083183778073064013 0 0.1444557225567443 0.090338813629061501 0 0.13888671887288589 0.088270852986767859 0 0.1506819444987289 0.088437751930635633 0 0.14563192422462459 0.083183778073064013 0 0.1444557225567443 0.090338813629061501 0 0.1444557225567443 0.090338813629061501 0 0.14209274384079601 0.094639397504520467 0 0.14868901735932749 0.09586058707093438 0 0.1506819444987289 0.088437751930635633 0 0.1444557225567443 0.090338813629061501 0 0.14868901735932749 0.09586058707093438 0 0.1444557225567443 0.090338813629061501 0 0.13888671887288589 0.088270852986767859 0 0.14209274384079601 0.094639397504520467 0 0.13888671887288589 0.088270852986767859 0 0.13668050292917741 0.098217611464673699 0 0.14209274384079601 0.094639397504520467 0 0.13888671887288589 0.088270852986767859 0 0.1300820653953097 0.084166932106396392 0 0.13668050292917741 0.098217611464673699 0 0.11116449005577619 0.086473750785835857 0 0.1300820653953097 0.084166932106396392 0 0.13668050292917741 0.098217611464673699 0 0.13578085374332971 0.077614708003019631 0 0.13888671887288589 0.088270852986767859 0 0.1300820653953097 0.084166932106396392 0 0.13578085374332971 0.077614708003019631 0 0.14563192422462459 0.083183778073064013 0 0.13888671887288589 0.088270852986767859 0 0.1207366242219714 0.074251990558816788 0 0.13578085374332971 0.077614708003019631 0 0.1300820653953097 0.084166932106396392 0 0.1216961693062274 0.1020981758197984 0 0.1302764983332621 0.10693497851168419 0 0.13668050292917741 0.098217611464673699 0 0.1302764983332621 0.10693497851168419 0 0.13758713408363871 0.1043360441680015 0 0.13668050292917741 0.098217611464673699 0 0.1302764983332621 0.10693497851168419 0 0.1360833458267342 0.1084620534226548 0 0.13758713408363871 0.1043360441680015 0 0.1360833458267342 0.1084620534226548 0 0.13758713408363871 0.1043360441680015 0 0.14314356584317489 0.10755645506983 0 0.13758713408363871 0.1043360441680015 0 0.13668050292917741 0.098217611464673699 0 0.14175175748584509 0.1005091223711649 0 0.13668050292917741 0.098217611464673699 0 0.14209274384079601 0.094639397504520467 0 0.14175175748584509 0.1005091223711649 0 0.12813823657366311 0.12049833089676459 0 0.13246275659848361 0.1130811342378658 0 0.13708322035591489 0.118794437000363 0 0.12212988809696081 0.1249307776834532 0 0.12788127083107459 0.1291064789800366 0 0.12813823657366311 0.12049833089676459 0 0.1197878353292403 0.1092484053650479 0 0.1302764983332621 0.10693497851168419 0 0.12624189261331301 0.1140678077034443 0 0.12813823657366311 0.12049833089676459 0 0.12624189261331301 0.1140678077034443 0 0.13246275659848361 0.1130811342378658 0 0.1302764983332621 0.10693497851168419 0 0.12624189261331301 0.1140678077034443 0 0.13246275659848361 0.1130811342378658 0 0.138866780176991 0.11235807520418389 0 0.13708322035591489 0.118794437000363 0 0.14572099158606311 0.1154247658161887 0 0.1360833458267342 0.1084620534226548 0 0.13246275659848361 0.1130811342378658 0 0.138866780176991 0.11235807520418389 0 0.1302764983332621 0.10693497851168419 0 0.1360833458267342 0.1084620534226548 0 0.13246275659848361 0.1130811342378658 0 0.1360833458267342 0.1084620534226548 0 0.138866780176991 0.11235807520418389 0 0.14314356584317489 0.10755645506983 0 0.13246275659848361 0.1130811342378658 0 0.138866780176991 0.11235807520418389 0 0.13708322035591489 0.118794437000363 0 0.13409394305489639 0.1257339851238449 0 0.14295710802469111 0.12768772724150559 0 0.13708322035591489 0.118794437000363 0 0.13409394305489639 0.1257339851238449 0 0.12813823657366311 0.12049833089676459 0 0.13708322035591489 0.118794437000363 0 0.14572099158606311 0.1154247658161887 0 0.15364605026385231 0.1227496740475859 0 0.15839207309433961 0.10550736800805539 0 0.14295710802469111 0.12768772724150559 0 0.13708322035591489 0.118794437000363 0 0.14572099158606311 0.1154247658161887 0 0.14295710802469111 0.12768772724150559 0 0.14572099158606311 0.1154247658161887 0 0.15364605026385231 0.1227496740475859 0 0.138866780176991 0.11235807520418389 0 0.14572099158606311 0.1154247658161887 0 0.14314356584317489 0.10755645506983 0 0.14572099158606311 0.1154247658161887 0 0.14314356584317489 0.10755645506983 0 0.15839207309433961 0.10550736800805539 0 0.14175175748584509 0.1005091223711649 0 0.15839207309433961 0.10550736800805539 0 0.14175175748584509 0.1005091223711649 0 0.14314356584317489 0.10755645506983 0 0.15839207309433961 0.10550736800805539 0 0.14175175748584509 0.1005091223711649 0 0.14868901735932749 0.09586058707093438 0 0.15839207309433961 0.10550736800805539 0 0.14209274384079601 0.094639397504520467 0 0.14175175748584509 0.1005091223711649 0 0.14868901735932749 0.09586058707093438 0 0.13758713408363871 0.1043360441680015 0 0.14175175748584509 0.1005091223711649 0 0.14314356584317489 0.10755645506983 0 0.14868901735932749 0.09586058707093438 0 0.15839207309433961 0.10550736800805539 0 0.157853861938485 0.092527754269896317 0 0.15839207309433961 0.10550736800805539 0 0.17503238870283441 0.11050561364494491 0 0.15839207309433961 0.10550736800805539 0 0.1705578526620479 0.095927182961129481 0 0.157853861938485 0.092527754269896317 0 0.15839207309433961 0.10550736800805539 0 0.1705578526620479 0.095927182961129481 0 0.17503238870283441 0.11050561364494491 0 0.16417220099380411 0.12505127510387981 0 0.15839207309433961 0.10550736800805539 0 0.17503238870283441 0.11050561364494491 0 0.16417220099380411 0.12505127510387981 0 0.15364605026385231 0.1227496740475859 0 0.15839207309433961 0.10550736800805539 0 0.16417220099380411 0.12505127510387981 0 0.17503238870283441 0.11050561364494491 0 0.18002451345814399 0.12716596121819479 0 0.16417220099380411 0.12505127510387981 0 0.17503238870283441 0.11050561364494491 0 0.18002451345814399 0.12716596121819479 0 0.2001236667938262 0.1180422718546187 0 0.17503238870283441 0.11050561364494491 0 0.1916307843626972 0.08827444688259839 0 0.1705578526620479 0.095927182961129481 0 0.17503238870283441 0.11050561364494491 0 0.1916307843626972 0.08827444688259839 0 0.17503238870283441 0.11050561364494491 0 0.1916307843626972 0.08827444688259839 0 0.17935943521264269 0.07135827912697662 0 0.16988015521188329 0.08282073200015258 0 0.1916307843626972 0.08827444688259839 0 0.1705578526620479 0.095927182961129481 0 0.16988015521188329 0.08282073200015258 0 0.19067723801237901 0.065525043857756982 0 0.1916307843626972 0.08827444688259839 0 0.17935943521264269 0.07135827912697662 0 0.19067723801237901 0.065525043857756982 0 0.17734631865053521 0.060730067185729229 0 0.17935943521264269 0.07135827912697662 0 0.17734631865053521 0.060730067185729229 0 0.17935943521264269 0.07135827912697662 0 0.1653937448538241 0.067538194789913991 0 0.17935943521264269 0.07135827912697662 0 0.1653937448538241 0.067538194789913991 0 0.16988015521188329 0.08282073200015258 0 0.15507694825043991 0.057889849327421902 0 0.15260580868734391 0.069203578475014266 0 0.1653937448538241 0.067538194789913991 0 0.15260580868734391 0.069203578475014266 0 0.1653937448538241 0.067538194789913991 0 0.15677919641446331 0.080277826610221981 0 0.1653937448538241 0.067538194789913991 0 0.15677919641446331 0.080277826610221981 0 0.16988015521188329 0.08282073200015258 0 0.15677919641446331 0.080277826610221981 0 0.157853861938485 0.092527754269896317 0 0.16988015521188329 0.08282073200015258 0 0.1705578526620479 0.095927182961129481 0 0.157853861938485 0.092527754269896317 0 0.16988015521188329 0.08282073200015258 0 0.099456207782380623 0.4822659283708195 0 0.1141892196830592 0.48396198267476093 0 0.11304725129434449 0.46767028325629811 0 0.099456207782380623 0.4822659283708195 0 0.11304725129434449 0.46767028325629811 0 0.096803680563272876 0.46646214520586099 0 0.099456207782380623 0.4822659283708195 0 0.10782601469385079 0.5 0 0.078267650747156567 0.50000000000000133 0 0.099456207782380623 0.4822659283708195 0 0.10782601469385079 0.5 0 0.1141892196830592 0.48396198267476093 0 0.10782601469385079 0.5 0 0.1249193769550877 0.49369376296818718 0 0.1141892196830592 0.48396198267476093 0 0.1249193769550877 0.49369376296818718 0 0.1141892196830592 0.48396198267476093 0 0.12569724768963239 0.47617993877849962 0 0.10782601469385079 0.5 0 0.1249193769550877 0.49369376296818718 0 0.13738437864054501 0.5 0 0.1141892196830592 0.48396198267476093 0 0.11304725129434449 0.46767028325629811 0 0.12569724768963239 0.47617993877849962 0 0.11304725129434449 0.46767028325629811 0 0.1267882431275838 0.46370707134437261 0 0.12569724768963239 0.47617993877849962 0 0.11304725129434449 0.46767028325629811 0 0.1221607865463437 0.4507156547582637 0 0.1004821270038239 0.44949914822431608 0 0.11304725129434449 0.46767028325629811 0 0.1221607865463437 0.4507156547582637 0 0.1267882431275838 0.46370707134437261 0 0.1221607865463437 0.4507156547582637 0 0.1004821270038239 0.44949914822431608 0 0.12259086230274099 0.42947812748907283 0 0.1004821270038239 0.44949914822431608 0 0.096803680563272876 0.46646214520586099 0 0.084307548883437972 0.45862843933572522 0 0.11304725129434449 0.46767028325629811 0 0.1004821270038239 0.44949914822431608 0 0.096803680563272876 0.46646214520586099 0 0.084307548883437972 0.45862843933572522 0 0.070120974899159305 0.46867166915081548 0 0.08254081050968877 0.47642281665818748 0 0.096803680563272876 0.46646214520586099 0 0.084307548883437972 0.45862843933572522 0 0.08254081050968877 0.47642281665818748 0 0.084307548883437972 0.45862843933572522 0 0.083205653112744402 0.44008551456546158 0 0.070599818540594342 0.45171728711773013 0 0.1004821270038239 0.44949914822431608 0 0.084307548883437972 0.45862843933572522 0 0.083205653112744402 0.44008551456546158 0 0.1004821270038239 0.44949914822431608 0 0.083205653112744402 0.44008551456546158 0 0.095892719888732866 0.42453745382262881 0 0.070599818540594342 0.45171728711773013 0 0.057347956450285731 0.44480695268810438 0 0.068330088192809502 0.43602814955066621 0 0.083205653112744402 0.44008551456546158 0 0.070599818540594342 0.45171728711773013 0 0.068330088192809502 0.43602814955066621 0 0.070599818540594342 0.45171728711773013 0 0.070120974899159305 0.46867166915081548 0 0.05832870883015126 0.45973880463956351 0 0.084307548883437972 0.45862843933572522 0 0.070599818540594342 0.45171728711773013 0 0.070120974899159305 0.46867166915081548 0 0.070120974899159305 0.46867166915081548 0 0.08254081050968877 0.47642281665818748 0 0.061557047466102868 0.48310025102256282 0 0.070120974899159305 0.46867166915081548 0 0.061557047466102868 0.48310025102256282 0 0.05832870883015126 0.45973880463956351 0 0.099456207782380623 0.4822659283708195 0 0.096803680563272876 0.46646214520586099 0 0.08254081050968877 0.47642281665818748 0 0.099456207782380623 0.4822659283708195 0 0.08254081050968877 0.47642281665818748 0 0.078267650747156567 0.50000000000000133 0 0.078267650747156567 0.50000000000000133 0 0.049166882519808157 0.5 0 0.061557047466102868 0.48310025102256282 0 0.08254081050968877 0.47642281665818748 0 0.078267650747156567 0.50000000000000133 0 0.061557047466102868 0.48310025102256282 0 0.078267650747156567 0.50000000000000133 0 0.061557047466102868 0.48310025102256282 0 0.049166882519808157 0.5 0 0.061557047466102868 0.48310025102256282 0 0.038208171894904559 0.48286056860770488 0 0.061557047466102868 0.48310025102256282 0 0.044846444185049857 0.46620050204512359 0 0.05832870883015126 0.45973880463956351 0 0.061557047466102868 0.48310025102256282 0 0.044846444185049857 0.46620050204512359 0 0.061557047466102868 0.48310025102256282 0 0.038208171894904559 0.48286056860770488 0 0.044846444185049857 0.46620050204512359 0 0.038208171894904559 0.48286056860770488 0 0.029572045059576241 0.469060477695939 0 0.044846444185049857 0.46620050204512359 0 0.049166882519808157 0.5 0 0.038208171894904559 0.48286056860770488 0 0.020066114292459799 0.5 0 0.038208171894904559 0.48286056860770488 0 0.020066114292459799 0.5 0 0.021055159894441029 0.48095839664786189 0 0.038208171894904559 0.48286056860770488 0 0.029572045059576241 0.469060477695939 0 0.021055159894441029 0.48095839664786189 0 0.029572045059576241 0.469060477695939 0 0.021055159894441029 0.48095839664786189 0 0.01561460841948897 0.46598216811131982 0 0.021055159894441029 0.48095839664786189 0 0.0030933759349822849 0.48266358315495572 0 0.01561460841948897 0.46598216811131982 0 0.0030933759349822849 0.48266358315495572 0 0.01561460841948897 0.46598216811131982 0 0.0036787250480955699 0.47408322248379448 0 0.0030933759349822849 0.48266358315495572 0 0.01561460841948897 0.46598216811131982 0 -0.0016340076521478781 0.48633642657919801 0 0.0036787250480955699 0.47408322248379448 0 0.0030933759349822849 0.48266358315495572 0 0.020066114292459799 0.5 0 0.021055159894441029 0.48095839664786189 0 0.0030933759349822849 0.48266358315495572 0 -0.0090346539348886701 0.5 0 -0.0016340076521478781 0.48633642657919801 0 0.020066114292459799 0.5 0 -0.0016340076521478781 0.48633642657919801 0 0.020066114292459799 0.5 0 0.0030933759349822849 0.48266358315495572 0 -0.0030841453677343121 0.43636499760021141 0 -0.002359076509941094 0.46135071208970457 0 0.010470448459028871 0.45111158928184719 0 -0.0030841453677343121 0.43636499760021141 0 0.010470448459028871 0.45111158928184719 0 0.017893296784651399 0.43894227458572882 0 -0.002359076509941094 0.46135071208970457 0 0.010470448459028871 0.45111158928184719 0 0.01561460841948897 0.46598216811131982 0 -0.002359076509941094 0.46135071208970457 0 0.0036787250480955699 0.47408322248379448 0 0.01561460841948897 0.46598216811131982 0 0.010470448459028871 0.45111158928184719 0 0.01561460841948897 0.46598216811131982 0 0.0281358409039968 0.44930075306768458 0 0.029572045059576241 0.469060477695939 0 0.01561460841948897 0.46598216811131982 0 0.0281358409039968 0.44930075306768458 0 0.01561460841948897 0.46598216811131982 0 0.0281358409039968 0.44930075306768458 0 0.010470448459028871 0.45111158928184719 0 0.0281358409039968 0.44930075306768458 0 0.017893296784651399 0.43894227458572882 0 0.0281358409039968 0.44930075306768458 0 0.017893296784651399 0.43894227458572882 0 0.03800042812263172 0.43615865433005307 0 0.0281358409039968 0.44930075306768458 0 0.017893296784651399 0.43894227458572882 0 0.0281358409039968 0.44930075306768458 0 0.04587361322417214 0.448769157871174 0 0.03800042812263172 0.43615865433005307 0 0.0281358409039968 0.44930075306768458 0 0.03800042812263172 0.43615865433005307 0 0.04587361322417214 0.448769157871174 0 0.049411209704934803 0.43621283219101809 0 0.03800042812263172 0.43615865433005307 0 0.029572045059576241 0.469060477695939 0 0.0281358409039968 0.44930075306768458 0 0.044846444185049857 0.46620050204512359 0 0.0281358409039968 0.44930075306768458 0 0.04587361322417214 0.448769157871174 0 0.044846444185049857 0.46620050204512359 0 0.0281358409039968 0.44930075306768458 0 0.044846444185049857 0.46620050204512359 0 0.04587361322417214 0.448769157871174 0 0.044846444185049857 0.46620050204512359 0 0.05832870883015126 0.45973880463956351 0 0.04587361322417214 0.448769157871174 0 0.057347956450285731 0.44480695268810438 0 0.049411209704934803 0.43621283219101809 0 0.04587361322417214 0.448769157871174 0 0.05832870883015126 0.45973880463956351 0 0.057347956450285731 0.44480695268810438 0 0.070599818540594342 0.45171728711773013 0 0.05832870883015126 0.45973880463956351 0 0.057347956450285731 0.44480695268810438 0 0.057347956450285731 0.44480695268810438 0 0.058238482531349368 0.43512174465279091 0 0.068330088192809502 0.43602814955066621 0 0.057347956450285731 0.44480695268810438 0 0.058238482531349368 0.43512174465279091 0 0.049411209704934803 0.43621283219101809 0 0.058238482531349368 0.43512174465279091 0 0.05412352915042095 0.42739076434297479 0 0.063786863135573219 0.4234822836218442 0 0.05412352915042095 0.42739076434297479 0 0.047865015341267358 0.42301655559242213 0 0.049411209704934803 0.43621283219101809 0 0.05412352915042095 0.42739076434297479 0 0.047865015341267358 0.42301655559242213 0 0.058238482531349368 0.43512174465279091 0 0.05412352915042095 0.42739076434297479 0 0.049411209704934803 0.43621283219101809 0 0.047865015341267358 0.42301655559242213 0 0.055388731832649349 0.41299308245440008 0 0.044385004541519633 0.40583709082877739 0 0.055388731832649349 0.41299308245440008 0 0.057103340742871267 0.4006394318358022 0 0.0691327228978319 0.40699071288372829 0 0.05412352915042095 0.42739076434297479 0 0.055388731832649349 0.41299308245440008 0 0.063786863135573219 0.4234822836218442 0 0.047865015341267358 0.42301655559242213 0 0.055388731832649349 0.41299308245440008 0 0.05412352915042095 0.42739076434297479 0 0.047865015341267358 0.42301655559242213 0 0.055388731832649349 0.41299308245440008 0 0.055388731832649349 0.41299308245440008 0 0.044385004541519633 0.40583709082877739 0 0.057103340742871267 0.4006394318358022 0 0.047865015341267358 0.42301655559242213 0 0.030398582533070099 0.41080889326869052 0 0.044385004541519633 0.40583709082877739 0 0.047865015341267358 0.42301655559242213 0 0.035686717363660143 0.42423985257235269 0 0.030398582533070099 0.41080889326869052 0 0.047865015341267358 0.42301655559242213 0 0.030398582533070099 0.41080889326869052 0 0.047865015341267358 0.42301655559242213 0 0.049411209704934803 0.43621283219101809 0 0.03800042812263172 0.43615865433005307 0 0.047865015341267358 0.42301655559242213 0 0.03800042812263172 0.43615865433005307 0 0.047865015341267358 0.42301655559242213 0 0.035686717363660143 0.42423985257235269 0 0.03800042812263172 0.43615865433005307 0 0.035686717363660143 0.42423985257235269 0 0.03800042812263172 0.43615865433005307 0 0.0264828434576714 0.42697530709824522 0 0.017893296784651399 0.43894227458572882 0 0.0264828434576714 0.42697530709824522 0 0.013451351612083251 0.42022136891186163 0 0.017893296784651399 0.43894227458572882 0 0.03800042812263172 0.43615865433005307 0 0.0264828434576714 0.42697530709824522 0 0.030398582533070099 0.41080889326869052 0 0.013451351612083251 0.42022136891186163 0 0.012932149724872831 0.39860123094495892 0 0.0264828434576714 0.42697530709824522 0 0.030398582533070099 0.41080889326869052 0 0.013451351612083251 0.42022136891186163 0 0.035686717363660143 0.42423985257235269 0 0.0264828434576714 0.42697530709824522 0 0.030398582533070099 0.41080889326869052 0 -0.0038092142255275289 0.41137928311071797 0 0.013451351612083251 0.42022136891186163 0 0.012932149724872831 0.39860123094495892 0 -0.0030841453677343121 0.43636499760021141 0 0.017893296784651399 0.43894227458572882 0 0.013451351612083251 0.42022136891186163 0 -0.0030841453677343121 0.43636499760021141 0 -0.0038092142255275289 0.41137928311071797 0 0.013451351612083251 0.42022136891186163 0 -0.0045342830833226501 0.3863935686212247 0 0.012932149724872831 0.39860123094495892 0 0.0079023355216259559 0.37348921158265391 0 0.012932149724872831 0.39860123094495892 0 0.025375843575522711 0.38021681034322929 0 0.0079023355216259559 0.37348921158265391 0 -0.0045342830833226501 0.3863935686212247 0 0.012932149724872831 0.39860123094495892 0 -0.0045342830833226501 0.3863935686212247 0 -0.0038092142255275289 0.41137928311071797 0 0.012932149724872831 0.39860123094495892 0 0.030398582533070099 0.41080889326869052 0 0.012932149724872831 0.39860123094495892 0 0.030398582533070099 0.41080889326869052 0 0.012932149724872831 0.39860123094495892 0 0.030218872497922818 0.39559608178221078 0 0.012932149724872831 0.39860123094495892 0 0.030218872497922818 0.39559608178221078 0 0.025375843575522711 0.38021681034322929 0 0.025375843575522711 0.38021681034322929 0 0.045236422390978262 0.39339421550307069 0 0.045418656597819553 0.37354288132317159 0 0.030218872497922818 0.39559608178221078 0 0.025375843575522711 0.38021681034322929 0 0.045236422390978262 0.39339421550307069 0 0.030398582533070099 0.41080889326869052 0 0.030218872497922818 0.39559608178221078 0 0.044385004541519633 0.40583709082877739 0 0.030218872497922818 0.39559608178221078 0 0.045236422390978262 0.39339421550307069 0 0.044385004541519633 0.40583709082877739 0 0.045236422390978262 0.39339421550307069 0 0.057103340742871267 0.4006394318358022 0 0.06607043693335328 0.38973814947632979 0 0.045236422390978262 0.39339421550307069 0 0.044385004541519633 0.40583709082877739 0 0.057103340742871267 0.4006394318358022 0 0.045236422390978262 0.39339421550307069 0 0.06607043693335328 0.38973814947632979 0 0.045418656597819553 0.37354288132317159 0 0.06607043693335328 0.38973814947632979 0 0.066778362586220691 0.36264744131756171 0 0.045418656597819553 0.37354288132317159 0 0.06607043693335328 0.38973814947632979 0 0.086713905658550791 0.37461406501925459 0 0.066778362586220691 0.36264744131756171 0 0.091303312773641829 0.3995757594209417 0 0.1025776524751303 0.38486691706586951 0 0.086713905658550791 0.37461406501925459 0 0.06607043693335328 0.38973814947632979 0 0.091303312773641829 0.3995757594209417 0 0.086713905658550791 0.37461406501925459 0 0.091303312773641829 0.3995757594209417 0 0.086713905658550791 0.37461406501925459 0 0.06607043693335328 0.38973814947632979 0 0.091303312773641829 0.3995757594209417 0 0.0691327228978319 0.40699071288372829 0 0.057103340742871267 0.4006394318358022 0 0.06607043693335328 0.38973814947632979 0 0.0691327228978319 0.40699071288372829 0 0.055388731832649349 0.41299308245440008 0 0.0691327228978319 0.40699071288372829 0 0.063786863135573219 0.4234822836218442 0 0.0691327228978319 0.40699071288372829 0 0.077714875811277062 0.4214876261871765 0 0.063786863135573219 0.4234822836218442 0 0.083205653112744402 0.44008551456546158 0 0.077714875811277062 0.4214876261871765 0 0.068330088192809502 0.43602814955066621 0 0.058238482531349368 0.43512174465279091 0 0.068330088192809502 0.43602814955066621 0 0.063786863135573219 0.4234822836218442 0 0.077714875811277062 0.4214876261871765 0 0.068330088192809502 0.43602814955066621 0 0.063786863135573219 0.4234822836218442 0 0.083205653112744402 0.44008551456546158 0 0.077714875811277062 0.4214876261871765 0 0.095892719888732866 0.42453745382262881 0 0.091303312773641829 0.3995757594209417 0 0.0691327228978319 0.40699071288372829 0 0.077714875811277062 0.4214876261871765 0 0.091303312773641829 0.3995757594209417 0 0.095892719888732866 0.42453745382262881 0 0.091303312773641829 0.3995757594209417 0 0.077714875811277062 0.4214876261871765 0 0.095892719888732866 0.42453745382262881 0 0.091303312773641829 0.3995757594209417 0 0.095892719888732866 0.42453745382262881 0 0.115428724103706 0.40267530492779557 0 0.1004821270038239 0.44949914822431608 0 0.095892719888732866 0.42453745382262881 0 0.12259086230274099 0.42947812748907283 0 0.1004821270038239 0.44949914822431608 0 0.095892719888732866 0.42453745382262881 0 0.095892719888732866 0.42453745382262881 0 0.12259086230274099 0.42947812748907283 0 0.115428724103706 0.40267530492779557 0 0.115428724103706 0.40267530492779557 0 0.119448870245615 0.38256434187866972 0 0.13692284990477191 0.38930777957628943 0 0.119448870245615 0.38256434187866972 0 0.1025776524751303 0.38486691706586951 0 0.1087205780393706 0.3656269003386084 0 0.115428724103706 0.40267530492779557 0 0.119448870245615 0.38256434187866972 0 0.1025776524751303 0.38486691706586951 0 0.1025776524751303 0.38486691706586951 0 0.1087205780393706 0.3656269003386084 0 0.086713905658550791 0.37461406501925459 0 0.091303312773641829 0.3995757594209417 0 0.115428724103706 0.40267530492779557 0 0.1025776524751303 0.38486691706586951 0 0.1087205780393706 0.3656269003386084 0 0.1202868522871179 0.34060046584014031 0 0.0915497208986496 0.34709204532757532 0 0.1087205780393706 0.3656269003386084 0 0.0915497208986496 0.34709204532757532 0 0.086713905658550791 0.37461406501925459 0 0.119448870245615 0.38256434187866972 0 0.1087205780393706 0.3656269003386084 0 0.13274728415341139 0.36410634055334368 0 0.1087205780393706 0.3656269003386084 0 0.1202868522871179 0.34060046584014031 0 0.13274728415341139 0.36410634055334368 0 0.1202868522871179 0.34060046584014031 0 0.1104734498024164 0.31171603628350752 0 0.14183880654046921 0.32250528078568202 0 0.1202868522871179 0.34060046584014031 0 0.1016552612267161 0.33013161519950079 0 0.1104734498024164 0.31171603628350752 0 0.1016552612267161 0.33013161519950079 0 0.081254576285268804 0.3210829637434266 0 0.1104734498024164 0.31171603628350752 0 0.1202868522871179 0.34060046584014031 0 0.1016552612267161 0.33013161519950079 0 0.0915497208986496 0.34709204532757532 0 0.081254576285268804 0.3210829637434266 0 0.072654821413094289 0.33942743407960763 0 0.0915497208986496 0.34709204532757532 0 0.1016552612267161 0.33013161519950079 0 0.081254576285268804 0.3210829637434266 0 0.0915497208986496 0.34709204532757532 0 0.081254576285268804 0.3210829637434266 0 0.06358813508901956 0.32234581427363851 0 0.071244474661197085 0.3036312559279935 0 0.081254576285268804 0.3210829637434266 0 0.06358813508901956 0.32234581427363851 0 0.072654821413094289 0.33942743407960763 0 0.06358813508901956 0.32234581427363851 0 0.072654821413094289 0.33942743407960763 0 0.055199983679349987 0.34246375673151652 0 0.072654821413094289 0.33942743407960763 0 0.066778362586220691 0.36264744131756171 0 0.055199983679349987 0.34246375673151652 0 0.072654821413094289 0.33942743407960763 0 0.0915497208986496 0.34709204532757532 0 0.066778362586220691 0.36264744131756171 0 0.0915497208986496 0.34709204532757532 0 0.086713905658550791 0.37461406501925459 0 0.066778362586220691 0.36264744131756171 0 0.066778362586220691 0.36264744131756171 0 0.044951457965310811 0.3555124197003488 0 0.045418656597819553 0.37354288132317159 0 0.066778362586220691 0.36264744131756171 0 0.044951457965310811 0.3555124197003488 0 0.055199983679349987 0.34246375673151652 0 0.044951457965310811 0.3555124197003488 0 0.021903196078839001 0.35746348141110651 0 0.035457090884324839 0.34144453771838768 0 0.044951457965310811 0.3555124197003488 0 0.035457090884324839 0.34144453771838768 0 0.055199983679349987 0.34246375673151652 0 0.044951457965310811 0.3555124197003488 0 0.045418656597819553 0.37354288132317159 0 0.021903196078839001 0.35746348141110651 0 0.025375843575522711 0.38021681034322929 0 0.021903196078839001 0.35746348141110651 0 0.0079023355216259559 0.37348921158265391 0 0.025375843575522711 0.38021681034322929 0 0.045418656597819553 0.37354288132317159 0 0.021903196078839001 0.35746348141110651 0 0.021903196078839001 0.35746348141110651 0 0.017151683724365509 0.3376665205351736 0 0.035457090884324839 0.34144453771838768 0 0.021903196078839001 0.35746348141110651 0 0.0095650341834115256 0.34490192427506011 0 0.017151683724365509 0.3376665205351736 0 0.021903196078839001 0.35746348141110651 0 0.0095650341834115256 0.34490192427506011 0 0.0061318462344260851 0.35417601161121459 0 -0.0050552824635438226 0.34569829691311771 0 0.0095650341834115256 0.34490192427506011 0 0.0061318462344260851 0.35417601161121459 0 0.021903196078839001 0.35746348141110651 0 0.0061318462344260851 0.35417601161121459 0 0.0079023355216259559 0.37348921158265391 0 -0.0052616759920083916 0.36132776784546622 0 0.0061318462344260851 0.35417601161121459 0 0.0079023355216259559 0.37348921158265391 0 0.0087281755863181168 0.33049580891976171 0 0.020410497070949891 0.30832150289807031 0 0.0056044744337335906 0.31412092038659428 0 0.0087281755863181168 0.33049580891976171 0 0.020410497070949891 0.30832150289807031 0 -0.003280447873963227 0.32161399115684158 0 0.0056044744337335906 0.31412092038659428 0 0.0087281755863181168 0.33049580891976171 0 0.0064742168078369342 0.3347740657525386 0 0.0087281755863181168 0.33049580891976171 0 -0.0050552824635438226 0.34569829691311771 0 0.0095650341834115256 0.34490192427506011 0 0.0064742168078369342 0.3347740657525386 0 0.0095650341834115256 0.34490192427506011 0 0.0064742168078369342 0.3347740657525386 0 0.017151683724365509 0.3376665205351736 0 0.0064742168078369342 0.3347740657525386 0 0.0087281755863181168 0.33049580891976171 0 0.017151683724365509 0.3376665205351736 0 0.0087281755863181168 0.33049580891976171 0 0.025353163704189718 0.33024288796319817 0 0.017151683724365509 0.3376665205351736 0 0.0087281755863181168 0.33049580891976171 0 0.025353163704189718 0.33024288796319817 0 0.025353163704189718 0.33024288796319817 0 0.017151683724365509 0.3376665205351736 0 0.035457090884324839 0.34144453771838768 0 0.0087281755863181168 0.33049580891976171 0 0.025353163704189718 0.33024288796319817 0 0.020410497070949891 0.30832150289807031 0 0.025353163704189718 0.33024288796319817 0 0.038017806832533571 0.30672300381527179 0 0.020410497070949891 0.30832150289807031 0 0.025353163704189718 0.33024288796319817 0 0.045812945845809312 0.32351293560108041 0 0.038017806832533571 0.30672300381527179 0 0.025353163704189718 0.33024288796319817 0 0.045812945845809312 0.32351293560108041 0 0.035457090884324839 0.34144453771838768 0 0.045812945845809312 0.32351293560108041 0 0.035457090884324839 0.34144453771838768 0 0.055199983679349987 0.34246375673151652 0 0.06358813508901956 0.32234581427363851 0 0.045812945845809312 0.32351293560108041 0 0.055199983679349987 0.34246375673151652 0 0.06358813508901956 0.32234581427363851 0 0.045812945845809312 0.32351293560108041 0 0.055148108477292443 0.3057593846019967 0 0.055148108477292443 0.3057593846019967 0 0.047586914097201803 0.29032131063477928 0 0.038017806832533571 0.30672300381527179 0 0.055148108477292443 0.3057593846019967 0 0.047586914097201803 0.29032131063477928 0 0.066935962560195753 0.28615893812798288 0 0.047586914097201803 0.29032131063477928 0 0.050578246113349837 0.27455429857722041 0 0.066935962560195753 0.28615893812798288 0 0.047586914097201803 0.29032131063477928 0 0.032092818555581597 0.28614719687637868 0 0.038017806832533571 0.30672300381527179 0 0.047586914097201803 0.29032131063477928 0 0.032092818555581597 0.28614719687637868 0 0.050578246113349837 0.27455429857722041 0 0.045812945845809312 0.32351293560108041 0 0.055148108477292443 0.3057593846019967 0 0.038017806832533571 0.30672300381527179 0 0.032092818555581597 0.28614719687637868 0 0.038017806832533571 0.30672300381527179 0 0.020410497070949891 0.30832150289807031 0 0.032092818555581597 0.28614719687637868 0 0.020410497070949891 0.30832150289807031 0 0.032092818555581597 0.28614719687637868 0 0.020410497070949891 0.30832150289807031 0 0.0083336089875100904 0.29343585490586271 0 0.032092818555581597 0.28614719687637868 0 0.0083336089875100904 0.29343585490586271 0 0.021382191810826279 0.2686960609189637 0 -0.0088759444352828343 0.31092800175718183 0 0.0056044744337335906 0.31412092038659428 0 0.0083336089875100904 0.29343585490586271 0 0.0056044744337335906 0.31412092038659428 0 0.020410497070949891 0.30832150289807031 0 0.0083336089875100904 0.29343585490586271 0 0.0073806355134042019 0.25529449578482938 0 3.3590645499582607e-05 0.27236849017123349 0 0.021382191810826279 0.2686960609189637 0 0.0083336089875100904 0.29343585490586271 0 3.3590645499582607e-05 0.27236849017123349 0 0.021382191810826279 0.2686960609189637 0 0.025149977659741599 0.24684982625080901 0 0.0073806355134042019 0.25529449578482938 0 0.021382191810826279 0.2686960609189637 0 0.025149977659741599 0.24684982625080901 0 0.021382191810826279 0.2686960609189637 0 0.043775140040213267 0.26397289085468728 0 0.025149977659741599 0.24684982625080901 0 0.045472231705318063 0.24424317023843681 0 0.050158093690384618 0.2598810672441918 0 0.025149977659741599 0.24684982625080901 0 0.050158093690384618 0.2598810672441918 0 0.025149977659741599 0.24684982625080901 0 0.043775140040213267 0.26397289085468728 0 0.050158093690384618 0.2598810672441918 0 0.032092818555581597 0.28614719687637868 0 0.043775140040213267 0.26397289085468728 0 0.032092818555581597 0.28614719687637868 0 0.021382191810826279 0.2686960609189637 0 0.043775140040213267 0.26397289085468728 0 0.032092818555581597 0.28614719687637868 0 0.043775140040213267 0.26397289085468728 0 0.050578246113349837 0.27455429857722041 0 0.050578246113349837 0.27455429857722041 0 0.063875668081316214 0.2678607518654692 0 0.066935962560195753 0.28615893812798288 0 0.043775140040213267 0.26397289085468728 0 0.050578246113349837 0.27455429857722041 0 0.050158093690384618 0.2598810672441918 0 0.050578246113349837 0.27455429857722041 0 0.056046126259945157 0.25263236173372139 0 0.063875668081316214 0.2678607518654692 0 0.050578246113349837 0.27455429857722041 0 0.050158093690384618 0.2598810672441918 0 0.056046126259945157 0.25263236173372139 0 0.045472231705318063 0.24424317023843681 0 0.050158093690384618 0.2598810672441918 0 0.056046126259945157 0.25263236173372139 0 0.050578246113349837 0.27455429857722041 0 0.056046126259945157 0.25263236173372139 0 0.078525547080241467 0.2465942846531784 0 0.067905867336300579 0.25358800162702 0 0.079567988853459573 0.27014218499250892 0 0.067905867336300579 0.25358800162702 0 0.079567988853459573 0.27014218499250892 0 0.063875668081316214 0.2678607518654692 0 0.056046126259945157 0.25263236173372139 0 0.067905867336300579 0.25358800162702 0 0.063875668081316214 0.2678607518654692 0 0.078525547080241467 0.2465942846531784 0 0.079567988853459573 0.27014218499250892 0 0.093798877441032588 0.2579700649065903 0 0.079567988853459573 0.27014218499250892 0 0.063875668081316214 0.2678607518654692 0 0.066935962560195753 0.28615893812798288 0 0.079567988853459573 0.27014218499250892 0 0.066935962560195753 0.28615893812798288 0 0.087430381393448858 0.29852998767476718 0 0.066935962560195753 0.28615893812798288 0 0.071244474661197085 0.3036312559279935 0 0.087430381393448858 0.29852998767476718 0 0.055148108477292443 0.3057593846019967 0 0.066935962560195753 0.28615893812798288 0 0.071244474661197085 0.3036312559279935 0 0.06358813508901956 0.32234581427363851 0 0.055148108477292443 0.3057593846019967 0 0.071244474661197085 0.3036312559279935 0 0.081254576285268804 0.3210829637434266 0 0.087430381393448858 0.29852998767476718 0 0.1104734498024164 0.31171603628350752 0 0.081254576285268804 0.3210829637434266 0 0.071244474661197085 0.3036312559279935 0 0.087430381393448858 0.29852998767476718 0 0.079567988853459573 0.27014218499250892 0 0.087430381393448858 0.29852998767476718 0 0.1079828451826004 0.27738565586056829 0 0.087430381393448858 0.29852998767476718 0 0.1104734498024164 0.31171603628350752 0 0.1079828451826004 0.27738565586056829 0 0.1104734498024164 0.31171603628350752 0 0.1079828451826004 0.27738565586056829 0 0.13401849175413849 0.29214957311260448 0 0.1079828451826004 0.27738565586056829 0 0.13401849175413849 0.29214957311260448 0 0.1100607559553454 0.25396994184181759 0 0.1079828451826004 0.27738565586056829 0 0.13366986361514199 0.26692500362740812 0 0.12787711237058769 0.24521089126939841 0 0.1100607559553454 0.25396994184181759 0 0.13366986361514199 0.26692500362740812 0 0.092857250133516089 0.24175825718487831 0 0.1100607559553454 0.25396994184181759 0 0.093798877441032588 0.2579700649065903 0 0.1100607559553454 0.25396994184181759 0 0.093798877441032588 0.2579700649065903 0 0.1079828451826004 0.27738565586056829 0 0.079567988853459573 0.27014218499250892 0 0.093798877441032588 0.2579700649065903 0 0.1079828451826004 0.27738565586056829 0 0.13366986361514199 0.26692500362740812 0 0.1558685034792309 0.28595093384994291 0 0.15959452244756481 0.26367036214955358 0 0.14702044576598061 0.2478904659134552 0 0.13366986361514199 0.26692500362740812 0 0.15959452244756481 0.26367036214955358 0 0.14702044576598061 0.2478904659134552 0 0.12787711237058769 0.24521089126939841 0 0.13366986361514199 0.26692500362740812 0 0.1079828451826004 0.27738565586056829 0 0.13366986361514199 0.26692500362740812 0 0.13401849175413849 0.29214957311260448 0 0.1104734498024164 0.31171603628350752 0 0.13401849175413849 0.29214957311260448 0 0.14183880654046921 0.32250528078568202 0 0.13401849175413849 0.29214957311260448 0 0.16005413832567669 0.30691349036464077 0 0.14183880654046921 0.32250528078568202 0 0.13401849175413849 0.29214957311260448 0 0.16005413832567669 0.30691349036464077 0 0.13401849175413849 0.29214957311260448 0 0.1558685034792309 0.28595093384994291 0 0.16005413832567669 0.30691349036464077 0 0.13366986361514199 0.26692500362740812 0 0.13401849175413849 0.29214957311260448 0 0.1558685034792309 0.28595093384994291 0 0.1558685034792309 0.28595093384994291 0 0.1700220001876428 0.28782965529906401 0 0.16005413832567669 0.30691349036464077 0 0.1558685034792309 0.28595093384994291 0 0.1700220001876428 0.28782965529906401 0 0.17370236977615991 0.27502287964280692 0 0.1700220001876428 0.28782965529906401 0 0.16005413832567669 0.30691349036464077 0 0.1764196225356903 0.29880027385689728 0 0.16005413832567669 0.30691349036464077 0 0.1764196225356903 0.29880027385689728 0 0.18686192329242929 0.31378732528256248 0 0.1764196225356903 0.29880027385689728 0 0.18674031124236579 0.30201460306836742 0 0.19086383386244751 0.2907864273273883 0 0.1764196225356903 0.29880027385689728 0 0.18674031124236579 0.30201460306836742 0 0.18686192329242929 0.31378732528256248 0 0.1700220001876428 0.28782965529906401 0 0.18013512871176271 0.28566990799825959 0 0.17370236977615991 0.27502287964280692 0 0.1700220001876428 0.28782965529906401 0 0.1764196225356903 0.29880027385689728 0 0.18013512871176271 0.28566990799825959 0 0.1764196225356903 0.29880027385689728 0 0.18013512871176271 0.28566990799825959 0 0.19086383386244751 0.2907864273273883 0 0.18013512871176271 0.28566990799825959 0 0.1896678171968729 0.27591030386514148 0 0.19086383386244751 0.2907864273273883 0 0.18251379545819379 0.26835647973838378 0 0.17370236977615991 0.27502287964280692 0 0.1896678171968729 0.27591030386514148 0 0.18013512871176271 0.28566990799825959 0 0.17370236977615991 0.27502287964280692 0 0.1896678171968729 0.27591030386514148 0 0.18251379545819379 0.26835647973838378 0 0.17370236977615991 0.27502287964280692 0 0.17699066645021869 0.2595722272450377 0 0.17370236977615991 0.27502287964280692 0 0.15959452244756481 0.26367036214955358 0 0.17699066645021869 0.2595722272450377 0 0.1558685034792309 0.28595093384994291 0 0.17370236977615991 0.27502287964280692 0 0.15959452244756481 0.26367036214955358 0 0.16774616909827719 0.2460930353984315 0 0.15959452244756481 0.26367036214955358 0 0.17699066645021869 0.2595722272450377 0 0.14702044576598061 0.2478904659134552 0 0.16774616909827719 0.2460930353984315 0 0.15959452244756481 0.26367036214955358 0 0.18692125413578081 0.24552837502103991 0 0.16774616909827719 0.2460930353984315 0 0.17699066645021869 0.2595722272450377 0 0.18692125413578081 0.24552837502103991 0 0.17699066645021869 0.2595722272450377 0 0.19242781921148469 0.26384338938458129 0 0.18251379545819379 0.26835647973838378 0 0.17699066645021869 0.2595722272450377 0 0.19242781921148469 0.26384338938458129 0 0.18692125413578081 0.24552837502103991 0 0.19242781921148469 0.26384338938458129 0 0.20107379594449931 0.25686311186437227 0 0.18692125413578081 0.24552837502103991 0 0.20107379594449931 0.25686311186437227 0 0.19242781921148469 0.26384338938458129 0 0.20107379594449931 0.25686311186437227 0 0.2008998280478862 0.26959186196165702 0 0.19242781921148469 0.26384338938458129 0 0.20107379594449931 0.25686311186437227 0 0.19242781921148469 0.26384338938458129 0 0.1896678171968729 0.27591030386514148 0 0.2008998280478862 0.26959186196165702 0 0.18251379545819379 0.26835647973838378 0 0.19242781921148469 0.26384338938458129 0 0.1896678171968729 0.27591030386514148 0 0.1896678171968729 0.27591030386514148 0 0.2008998280478862 0.26959186196165702 0 0.20354188417430641 0.281093168015905 0 0.2008998280478862 0.26959186196165702 0 0.2177878237122676 0.27024933667828532 0 0.20354188417430641 0.281093168015905 0 0.2177878237122676 0.27024933667828532 0 0.20354188417430641 0.281093168015905 0 0.2166033006779626 0.28924568688104418 0 0.21557305570370441 0.24515722135805329 0 0.20107379594449931 0.25686311186437227 0 0.2177878237122676 0.27024933667828532 0 0.20107379594449931 0.25686311186437227 0 0.2177878237122676 0.27024933667828532 0 0.20107379594449931 0.25686311186437227 0 0.2008998280478862 0.26959186196165702 0 0.2177878237122676 0.27024933667828532 0 0.21557305570370441 0.24515722135805329 0 0.20107379594449931 0.25686311186437227 0 0.21557305570370441 0.24515722135805329 0 0.2177878237122676 0.27024933667828532 0 0.23628031136540401 0.25597328662156199 0 0.2177878237122676 0.27024933667828532 0 0.23628031136540401 0.25597328662156199 0 0.23450185148003599 0.28363556149219821 0 0.2177878237122676 0.27024933667828532 0 0.23450185148003599 0.28363556149219821 0 0.2166033006779626 0.28924568688104418 0 0.2177878237122676 0.27024933667828532 0 0.23450185148003599 0.28363556149219821 0 0.23628031136540401 0.25597328662156199 0 0.23450185148003599 0.28363556149219821 0 0.25102838231212438 0.26850893423506528 0 0.23450185148003599 0.28363556149219821 0 0.25953152444998728 0.28294166139542631 0 0.25102838231212438 0.26850893423506528 0 0.23628031136540401 0.25597328662156199 0 0.25102838231212438 0.26850893423506528 0 0.26221447651104962 0.2479993693513689 0 0.2297645605960125 0.30261029929826411 0 0.25121587924780342 0.29702178630611242 0 0.2484846271056145 0.31037308609574782 0 0.2297645605960125 0.30261029929826411 0 0.23798581837376781 0.31938142953188831 0 0.2484846271056145 0.31037308609574782 0 0.2297645605960125 0.30261029929826411 0 0.25121587924780342 0.29702178630611242 0 0.23450185148003599 0.28363556149219821 0 0.2297645605960125 0.30261029929826411 0 0.25121587924780342 0.29702178630611242 0 0.23450185148003599 0.28363556149219821 0 0.25121587924780342 0.29702178630611242 0 0.23450185148003599 0.28363556149219821 0 0.25953152444998728 0.28294166139542631 0 0.25121587924780342 0.29702178630611242 0 0.23450185148003599 0.28363556149219821 0 0.2297645605960125 0.30261029929826411 0 0.2166033006779626 0.28924568688104418 0 0.2297645605960125 0.30261029929826411 0 0.20831324194422091 0.30819881229041318 0 0.2297645605960125 0.30261029929826411 0 0.20831324194422091 0.30819881229041318 0 0.21977364325038071 0.31928170538083578 0 0.20831324194422091 0.30819881229041318 0 0.2166033006779626 0.28924568688104418 0 0.20288664267638859 0.29424953150154581 0 0.2297645605960125 0.30261029929826411 0 0.20831324194422091 0.30819881229041318 0 0.2166033006779626 0.28924568688104418 0 0.20354188417430641 0.281093168015905 0 0.2166033006779626 0.28924568688104418 0 0.20288664267638859 0.29424953150154581 0 0.20354188417430641 0.281093168015905 0 0.20288664267638859 0.29424953150154581 0 0.19086383386244751 0.2907864273273883 0 0.20288664267638859 0.29424953150154581 0 0.19086383386244751 0.2907864273273883 0 0.19511095272300569 0.3019235629929784 0 0.1896678171968729 0.27591030386514148 0 0.20354188417430641 0.281093168015905 0 0.19086383386244751 0.2907864273273883 0 0.20831324194422091 0.30819881229041318 0 0.18686192329242929 0.31378732528256248 0 0.20831324194422091 0.30819881229041318 0 0.19511095272300569 0.3019235629929784 0 0.18686192329242929 0.31378732528256248 0 0.20831324194422091 0.30819881229041318 0 0.20288664267638859 0.29424953150154581 0 0.19511095272300569 0.3019235629929784 0 0.18674031124236579 0.30201460306836742 0 0.19086383386244751 0.2907864273273883 0 0.19511095272300569 0.3019235629929784 0 0.18674031124236579 0.30201460306836742 0 0.19511095272300569 0.3019235629929784 0 0.18686192329242929 0.31378732528256248 0 0.20141288137377081 0.31920030670374799 0 0.18686192329242929 0.31378732528256248 0 0.18608978489721489 0.32167740761667712 0 0.20831324194422091 0.30819881229041318 0 0.20141288137377081 0.31920030670374799 0 0.18686192329242929 0.31378732528256248 0 0.20141288137377081 0.31920030670374799 0 0.21212543146875301 0.33644132486871342 0 0.18608978489721489 0.32167740761667712 0 0.21212543146875301 0.33644132486871342 0 0.18608978489721489 0.32167740761667712 0 0.19231113454718349 0.34165597013868199 0 0.21212543146875301 0.33644132486871342 0 0.18608978489721489 0.32167740761667712 0 0.20831324194422091 0.30819881229041318 0 0.20141288137377081 0.31920030670374799 0 0.21977364325038071 0.31928170538083578 0 0.20141288137377081 0.31920030670374799 0 0.21212543146875301 0.33644132486871342 0 0.21977364325038071 0.31928170538083578 0 0.21977364325038071 0.31928170538083578 0 0.2290399257457596 0.32985805959198788 0 0.23798581837376781 0.31938142953188831 0 0.2297645605960125 0.30261029929826411 0 0.21977364325038071 0.31928170538083578 0 0.23798581837376781 0.31938142953188831 0 0.21212543146875301 0.33644132486871342 0 0.21977364325038071 0.31928170538083578 0 0.2290399257457596 0.32985805959198788 0 0.21212543146875301 0.33644132486871342 0 0.23060518033342339 0.33807106122714048 0 0.2290399257457596 0.32985805959198788 0 0.21212543146875301 0.33644132486871342 0 0.23060518033342339 0.33807106122714048 0 0.23816107804029091 0.35120524212074949 0 0.23060518033342339 0.33807106122714048 0 0.2290399257457596 0.32985805959198788 0 0.2430942860788903 0.33477961832711151 0 0.23060518033342339 0.33807106122714048 0 0.2430942860788903 0.33477961832711151 0 0.23816107804029091 0.35120524212074949 0 0.2484846271056145 0.31037308609574782 0 0.23798581837376781 0.31938142953188831 0 0.25508783524565293 0.32209220201309929 0 0.2430942860788903 0.33477961832711151 0 0.23798581837376781 0.31938142953188831 0 0.25508783524565293 0.32209220201309929 0 0.2290399257457596 0.32985805959198788 0 0.2430942860788903 0.33477961832711151 0 0.23798581837376781 0.31938142953188831 0 0.23439037865920059 0.35560025357312369 0 0.2386764282036242 0.37725286527910618 0 0.24311907173897271 0.36013203008567057 0 0.23439037865920059 0.35560025357312369 0 0.2386764282036242 0.37725286527910618 0 0.2492643002430574 0.365916522193315 0 0.24311907173897271 0.36013203008567057 0 0.2386764282036242 0.37725286527910618 0 0.2492643002430574 0.365916522193315 0 0.2386764282036242 0.37725286527910618 0 0.25383912625151372 0.37755129754335942 0 0.24311907173897271 0.36013203008567057 0 0.23816107804029091 0.35120524212074949 0 0.2641967246118288 0.36596915937278562 0 0.2430942860788903 0.33477961832711151 0 0.23816107804029091 0.35120524212074949 0 0.26173146881309822 0.35734024057335978 0 0.24311907173897271 0.36013203008567057 0 0.23816107804029091 0.35120524212074949 0 0.23439037865920059 0.35560025357312369 0 0.21212543146875301 0.33644132486871342 0 0.23816107804029091 0.35120524212074949 0 0.21848510057545151 0.35453686872473111 0 0.23816107804029091 0.35120524212074949 0 0.23439037865920059 0.35560025357312369 0 0.21848510057545151 0.35453686872473111 0 0.21212543146875301 0.33644132486871342 0 0.23816107804029091 0.35120524212074949 0 0.23439037865920059 0.35560025357312369 0 0.22513916990612379 0.36868200325308897 0 0.2386764282036242 0.37725286527910618 0 0.23439037865920059 0.35560025357312369 0 0.22513916990612379 0.36868200325308897 0 0.21848510057545151 0.35453686872473111 0 0.22513916990612379 0.36868200325308897 0 0.20931495008602691 0.36890180222237801 0 0.21961872799640589 0.38146559318592133 0 0.22513916990612379 0.36868200325308897 0 0.20931495008602691 0.36890180222237801 0 0.21848510057545151 0.35453686872473111 0 0.20931495008602691 0.36890180222237801 0 0.21848510057545151 0.35453686872473111 0 0.2018014651714847 0.35413555731190122 0 0.21212543146875301 0.33644132486871342 0 0.21848510057545151 0.35453686872473111 0 0.2018014651714847 0.35413555731190122 0 0.19231113454718349 0.34165597013868199 0 0.2018014651714847 0.35413555731190122 0 0.1832131523033072 0.3569188224833833 0 0.19231113454718349 0.34165597013868199 0 0.21212543146875301 0.33644132486871342 0 0.2018014651714847 0.35413555731190122 0 0.20931495008602691 0.36890180222237801 0 0.2018014651714847 0.35413555731190122 0 0.19217836357317111 0.36996972767433872 0 0.20931495008602691 0.36890180222237801 0 0.19217836357317111 0.36996972767433872 0 0.20289108470775991 0.38370682355227331 0 0.2018014651714847 0.35413555731190122 0 0.19217836357317111 0.36996972767433872 0 0.1832131523033072 0.3569188224833833 0 0.19217836357317111 0.36996972767433872 0 0.17197644233242751 0.37002706837148541 0 0.1832131523033072 0.3569188224833833 0 0.17197644233242751 0.37002706837148541 0 0.16866852787741549 0.35230522619665788 0 0.1832131523033072 0.3569188224833833 0 0.17197644233242751 0.37002706837148541 0 0.16866852787741549 0.35230522619665788 0 0.15186920095361911 0.35620033980905319 0 0.17197644233242751 0.37002706837148541 0 0.15186920095361911 0.35620033980905319 0 0.15185568245476189 0.37707061606136422 0 0.16866852787741549 0.35230522619665788 0 0.1579580049025659 0.33927316190663209 0 0.15186920095361911 0.35620033980905319 0 0.16866852787741549 0.35230522619665788 0 0.1832131523033072 0.3569188224833833 0 0.17832583889515771 0.33910673841273542 0 0.19231113454718349 0.34165597013868199 0 0.1832131523033072 0.3569188224833833 0 0.17832583889515771 0.33910673841273542 0 0.17832583889515771 0.33910673841273542 0 0.18608978489721489 0.32167740761667712 0 0.16647560889869609 0.32578562508456149 0 0.19231113454718349 0.34165597013868199 0 0.17832583889515771 0.33910673841273542 0 0.18608978489721489 0.32167740761667712 0 0.16005413832567669 0.30691349036464077 0 0.18608978489721489 0.32167740761667712 0 0.16005413832567669 0.30691349036464077 0 0.18686192329242929 0.31378732528256248 0 0.18608978489721489 0.32167740761667712 0 0.16005413832567669 0.30691349036464077 0 0.18608978489721489 0.32167740761667712 0 0.16647560889869609 0.32578562508456149 0 0.17832583889515771 0.33910673841273542 0 0.16647560889869609 0.32578562508456149 0 0.1579580049025659 0.33927316190663209 0 0.16866852787741549 0.35230522619665788 0 0.17832583889515771 0.33910673841273542 0 0.1579580049025659 0.33927316190663209 0 0.16647560889869609 0.32578562508456149 0 0.1579580049025659 0.33927316190663209 0 0.14183880654046921 0.32250528078568202 0 0.1579580049025659 0.33927316190663209 0 0.14183880654046921 0.32250528078568202 0 0.14054269679001921 0.34363296691054102 0 0.16005413832567669 0.30691349036464077 0 0.16647560889869609 0.32578562508456149 0 0.14183880654046921 0.32250528078568202 0 0.1202868522871179 0.34060046584014031 0 0.14183880654046921 0.32250528078568202 0 0.14054269679001921 0.34363296691054102 0 0.1202868522871179 0.34060046584014031 0 0.14054269679001921 0.34363296691054102 0 0.13274728415341139 0.36410634055334368 0 0.13274728415341139 0.36410634055334368 0 0.15186920095361911 0.35620033980905319 0 0.15185568245476189 0.37707061606136422 0 0.14054269679001921 0.34363296691054102 0 0.13274728415341139 0.36410634055334368 0 0.15186920095361911 0.35620033980905319 0 0.1579580049025659 0.33927316190663209 0 0.14054269679001921 0.34363296691054102 0 0.15186920095361911 0.35620033980905319 0 0.15352992747694119 0.40026604784697911 0 0.13692284990477191 0.38930777957628943 0 0.1397509022148696 0.40843688002483958 0 0.15352992747694119 0.40026604784697911 0 0.15185568245476189 0.37707061606136422 0 0.13692284990477191 0.38930777957628943 0 0.13274728415341139 0.36410634055334368 0 0.15185568245476189 0.37707061606136422 0 0.13692284990477191 0.38930777957628943 0 0.119448870245615 0.38256434187866972 0 0.13274728415341139 0.36410634055334368 0 0.13692284990477191 0.38930777957628943 0 0.115428724103706 0.40267530492779557 0 0.13692284990477191 0.38930777957628943 0 0.1397509022148696 0.40843688002483958 0 0.12259086230274099 0.42947812748907283 0 0.1397509022148696 0.40843688002483958 0 0.14363603346764281 0.42707530835579988 0 0.12259086230274099 0.42947812748907283 0 0.115428724103706 0.40267530492779557 0 0.1397509022148696 0.40843688002483958 0 0.12259086230274099 0.42947812748907283 0 0.14363603346764281 0.42707530835579988 0 0.13510526379757609 0.44116740875256688 0 0.14363603346764281 0.42707530835579988 0 0.16526304614212209 0.42908608809292892 0 0.1507341445198021 0.44370602134863157 0 0.14363603346764281 0.42707530835579988 0 0.15527295380072001 0.4153931176925994 0 0.16526304614212209 0.42908608809292892 0 0.14363603346764281 0.42707530835579988 0 0.1507341445198021 0.44370602134863157 0 0.13510526379757609 0.44116740875256688 0 0.1397509022148696 0.40843688002483958 0 0.14363603346764281 0.42707530835579988 0 0.15527295380072001 0.4153931176925994 0 0.15352992747694119 0.40026604784697911 0 0.1397509022148696 0.40843688002483958 0 0.15527295380072001 0.4153931176925994 0 0.15527295380072001 0.4153931176925994 0 0.1711416470664554 0.41062619466687539 0 0.16526304614212209 0.42908608809292892 0 0.15352992747694119 0.40026604784697911 0 0.15527295380072001 0.4153931176925994 0 0.1711416470664554 0.41062619466687539 0 0.16526304614212209 0.42908608809292892 0 0.1809560021812836 0.43814832633623357 0 0.16598328874466911 0.44273574664910909 0 0.16526304614212209 0.42908608809292892 0 0.18469425222239219 0.42125941149134333 0 0.1809560021812836 0.43814832633623357 0 0.1711416470664554 0.41062619466687539 0 0.16526304614212209 0.42908608809292892 0 0.18469425222239219 0.42125941149134333 0 0.1711416470664554 0.41062619466687539 0 0.18469425222239219 0.42125941149134333 0 0.1843100454414533 0.40126956181167389 0 0.1711416470664554 0.41062619466687539 0 0.1843100454414533 0.40126956181167389 0 0.16952276405911931 0.3912061138884545 0 0.1843100454414533 0.40126956181167389 0 0.16952276405911931 0.3912061138884545 0 0.18589276442329861 0.38606835492789338 0 0.15352992747694119 0.40026604784697911 0 0.1711416470664554 0.41062619466687539 0 0.16952276405911931 0.3912061138884545 0 0.15352992747694119 0.40026604784697911 0 0.15185568245476189 0.37707061606136422 0 0.16952276405911931 0.3912061138884545 0 0.17197644233242751 0.37002706837148541 0 0.15185568245476189 0.37707061606136422 0 0.16952276405911931 0.3912061138884545 0 0.17197644233242751 0.37002706837148541 0 0.16952276405911931 0.3912061138884545 0 0.18589276442329861 0.38606835492789338 0 0.19217836357317111 0.36996972767433872 0 0.17197644233242751 0.37002706837148541 0 0.18589276442329861 0.38606835492789338 0 0.18589276442329861 0.38606835492789338 0 0.20289108470775991 0.38370682355227331 0 0.19700705340585539 0.39579078134538831 0 0.19217836357317111 0.36996972767433872 0 0.18589276442329861 0.38606835492789338 0 0.20289108470775991 0.38370682355227331 0 0.19700705340585539 0.39579078134538831 0 0.21316338490038089 0.39704202397260657 0 0.19877798755638451 0.41086714246249401 0 0.1843100454414533 0.40126956181167389 0 0.19700705340585539 0.39579078134538831 0 0.19877798755638451 0.41086714246249401 0 0.1843100454414533 0.40126956181167389 0 0.18589276442329861 0.38606835492789338 0 0.19700705340585539 0.39579078134538831 0 0.20289108470775991 0.38370682355227331 0 0.19700705340585539 0.39579078134538831 0 0.21316338490038089 0.39704202397260657 0 0.20931495008602691 0.36890180222237801 0 0.20289108470775991 0.38370682355227331 0 0.21961872799640589 0.38146559318592133 0 0.20289108470775991 0.38370682355227331 0 0.21316338490038089 0.39704202397260657 0 0.21961872799640589 0.38146559318592133 0 0.22513916990612379 0.36868200325308897 0 0.21961872799640589 0.38146559318592133 0 0.2386764282036242 0.37725286527910618 0 0.21961872799640589 0.38146559318592133 0 0.22852735017452019 0.39320804083607441 0 0.2386764282036242 0.37725286527910618 0 0.21316338490038089 0.39704202397260657 0 0.21961872799640589 0.38146559318592133 0 0.22852735017452019 0.39320804083607441 0 0.21316338490038089 0.39704202397260657 0 0.22852735017452019 0.39320804083607441 0 0.22983145469658259 0.40925978250573319 0 0.21316338490038089 0.39704202397260657 0 0.22983145469658259 0.40925978250573319 0 0.22852735017452019 0.39320804083607441 0 0.2429624777480478 0.39890547698508871 0 0.22983145469658259 0.40925978250573319 0 0.2429624777480478 0.39890547698508871 0 0.2386764282036242 0.37725286527910618 0 0.22852735017452019 0.39320804083607441 0 0.2429624777480478 0.39890547698508871 0 0.2386764282036242 0.37725286527910618 0 0.2429624777480478 0.39890547698508871 0 0.2386764282036242 0.37725286527910618 0 0.25341304662754638 0.38974012394171498 0 0.2386764282036242 0.37725286527910618 0 0.25383912625151372 0.37755129754335942 0 0.25341304662754638 0.38974012394171498 0 0.24649952449278431 0.42147754103885982 0 0.22996656543308741 0.44177288309861867 0 0.24946733303660301 0.43176723098649622 0 0.24649952449278431 0.42147754103885982 0 0.22996656543308741 0.44177288309861867 0 0.24649952449278431 0.42147754103885982 0 0.22738899126970491 0.42458926785457718 0 0.22996656543308741 0.44177288309861867 0 0.24946733303660301 0.43176723098649622 0 0.24649952449278431 0.42147754103885982 0 0.2429624777480478 0.39890547698508871 0 0.24649952449278431 0.42147754103885982 0 0.24649952449278431 0.42147754103885982 0 0.22983145469658259 0.40925978250573319 0 0.22738899126970491 0.42458926785457718 0 0.24649952449278431 0.42147754103885982 0 0.22983145469658259 0.40925978250573319 0 0.2429624777480478 0.39890547698508871 0 0.24649952449278431 0.42147754103885982 0 0.22983145469658259 0.40925978250573319 0 0.21316338490038089 0.39704202397260657 0 0.22983145469658259 0.40925978250573319 0 0.21370806227123909 0.41789950377956148 0 0.22983145469658259 0.40925978250573319 0 0.22738899126970491 0.42458926785457718 0 0.21370806227123909 0.41789950377956148 0 0.22738899126970491 0.42458926785457718 0 0.21739304288862979 0.43200563017257382 0 0.22996656543308741 0.44177288309861867 0 0.22738899126970491 0.42458926785457718 0 0.21739304288862979 0.43200563017257382 0 0.21370806227123909 0.41789950377956148 0 0.21739304288862979 0.43200563017257382 0 0.1999317510848099 0.43097584272053618 0 0.2111195299095035 0.44359306409302351 0 0.21739304288862979 0.43200563017257382 0 0.21370806227123909 0.41789950377956148 0 0.1999317510848099 0.43097584272053618 0 0.21370806227123909 0.41789950377956148 0 0.19877798755638451 0.41086714246249401 0 0.1999317510848099 0.43097584272053618 0 0.21316338490038089 0.39704202397260657 0 0.21370806227123909 0.41789950377956148 0 0.19877798755638451 0.41086714246249401 0 0.18469425222239219 0.42125941149134333 0 0.19877798755638451 0.41086714246249401 0 0.1999317510848099 0.43097584272053618 0 0.18469425222239219 0.42125941149134333 0 0.1843100454414533 0.40126956181167389 0 0.19877798755638451 0.41086714246249401 0 0.18469425222239219 0.42125941149134333 0 0.1999317510848099 0.43097584272053618 0 0.1809560021812836 0.43814832633623357 0 0.1999317510848099 0.43097584272053618 0 0.19479511809318301 0.4526549487178691 0 0.2111195299095035 0.44359306409302351 0 0.1999317510848099 0.43097584272053618 0 0.19479511809318301 0.4526549487178691 0 0.1809560021812836 0.43814832633623357 0 0.19479511809318301 0.4526549487178691 0 0.213169792932182 0.46047172596691099 0 0.19211155850092579 0.47790980627879082 0 0.19479511809318301 0.4526549487178691 0 0.19211155850092579 0.47790980627879082 0 0.18348770279874721 0.46143911161818069 0 0.213169792932182 0.46047172596691099 0 0.2111195299095035 0.44359306409302351 0 0.22996656543308741 0.44177288309861867 0 0.19479511809318301 0.4526549487178691 0 0.213169792932182 0.46047172596691099 0 0.2111195299095035 0.44359306409302351 0 0.21739304288862979 0.43200563017257382 0 0.2111195299095035 0.44359306409302351 0 0.22996656543308741 0.44177288309861867 0 0.22996656543308741 0.44177288309861867 0 0.22854105436186559 0.46372788353366717 0 0.24141841662185301 0.45603819576859073 0 0.213169792932182 0.46047172596691099 0 0.22854105436186559 0.46372788353366717 0 0.221321310837439 0.47674074212904899 0 0.213169792932182 0.46047172596691099 0 0.22996656543308741 0.44177288309861867 0 0.22854105436186559 0.46372788353366717 0 0.24141841662185301 0.45603819576859073 0 0.23645949407781469 0.47608243786178739 0 0.25047151807745072 0.47036873115219768 0 0.22854105436186559 0.46372788353366717 0 0.24141841662185301 0.45603819576859073 0 0.23645949407781469 0.47608243786178739 0 0.24141841662185301 0.45603819576859073 0 0.25047151807745072 0.47036873115219768 0 0.25477099823403621 0.45804476415031298 0 0.24141841662185301 0.45603819576859073 0 0.25282491994113748 0.44831200937164878 0 0.25477099823403621 0.45804476415031298 0 0.22996656543308741 0.44177288309861867 0 0.24141841662185301 0.45603819576859073 0 0.24583280085865111 0.44361242472787987 0 0.24946733303660301 0.43176723098649622 0 0.22996656543308741 0.44177288309861867 0 0.24583280085865111 0.44361242472787987 0 0.24141841662185301 0.45603819576859073 0 0.24583280085865111 0.44361242472787987 0 0.25282491994113748 0.44831200937164878 0 0.24904418528453851 0.48634810883828161 0 0.23645949407781469 0.47608243786178739 0 0.23352830384551029 0.49999999999999978 0 0.24904418528453851 0.48634810883828161 0 0.23352830384551029 0.49999999999999978 0 0.25181722630913472 0.5 0 0.24904418528453851 0.48634810883828161 0 0.23645949407781469 0.47608243786178739 0 0.25047151807745072 0.47036873115219768 0 0.23645949407781469 0.47608243786178739 0 0.221321310837439 0.47674074212904899 0 0.23352830384551029 0.49999999999999978 0 0.22854105436186559 0.46372788353366717 0 0.23645949407781469 0.47608243786178739 0 0.221321310837439 0.47674074212904899 0 0.23352830384551029 0.49999999999999978 0 0.2128199311732181 0.48895490313939532 0 0.21702906166474581 0.5 0 0.23352830384551029 0.49999999999999978 0 0.2128199311732181 0.48895490313939532 0 0.221321310837439 0.47674074212904899 0 0.23352830384551029 0.49999999999999978 0 0.2128199311732181 0.48895490313939532 0 0.2128199311732181 0.48895490313939532 0 0.21702906166474581 0.5 0 0.20052981948398141 0.49999999999999989 0 0.213169792932182 0.46047172596691099 0 0.221321310837439 0.47674074212904899 0 0.19211155850092579 0.47790980627879082 0 0.221321310837439 0.47674074212904899 0 0.2128199311732181 0.48895490313939532 0 0.19211155850092579 0.47790980627879082 0 0.2128199311732181 0.48895490313939532 0 0.19211155850092579 0.47790980627879082 0 0.2128199311732181 0.48895490313939532 0 0.20052981948398141 0.49999999999999989 0 0.19295831529489699 0.4905304616351287 0 0.2128199311732181 0.48895490313939532 0 0.19211155850092579 0.47790980627879082 0 0.19295831529489699 0.4905304616351287 0 0.20052981948398141 0.49999999999999989 0 0.1839227339461352 0.49861489743603538 0 0.20052981948398141 0.49999999999999989 0 0.19295831529489699 0.4905304616351287 0 0.1839227339461352 0.49861489743603538 0 0.19211155850092579 0.47790980627879082 0 0.19295831529489699 0.4905304616351287 0 0.1809625144841838 0.48570342190566712 0 0.1839227339461352 0.49861489743603538 0 0.1809625144841838 0.48570342190566712 0 0.16731564840828889 0.49722979487207219 0 0.1839227339461352 0.49861489743603538 0 0.16731564840828889 0.49722979487207219 0 0.1839227339461352 0.49861489743603538 0 0.1669427425872391 0.49999999999999922 0 0.16731564840828889 0.49722979487207219 0 0.19295831529489699 0.4905304616351287 0 0.1839227339461352 0.49861489743603538 0 0.1809625144841838 0.48570342190566712 0 0.1809625144841838 0.48570342190566712 0 0.16731564840828889 0.49722979487207219 0 0.16935941711846161 0.48204725214512889 0 0.16731564840828889 0.49722979487207219 0 0.157708884996551 0.48584061526662409 0 0.14611751268168829 0.49546177892012921 0 0.16731564840828889 0.49722979487207219 0 0.14611751268168829 0.49546177892012921 0 0.1669427425872391 0.49999999999999922 0 0.16731564840828889 0.49722979487207219 0 0.14611751268168829 0.49546177892012921 0 0.1669427425872391 0.49999999999999922 0 0.16731564840828889 0.49722979487207219 0 0.16731564840828889 0.49722979487207219 0 0.16935941711846161 0.48204725214512889 0 0.16731564840828889 0.49722979487207219 0 0.157708884996551 0.48584061526662409 0 0.16935941711846161 0.48204725214512889 0 0.16382575626869561 0.4735735187060508 0 0.15802571703479451 0.46684670821381258 0 0.1531189490294651 0.47544631339495541 0 0.157708884996551 0.48584061526662409 0 0.16382575626869561 0.4735735187060508 0 0.1531189490294651 0.47544631339495541 0 0.157708884996551 0.48584061526662409 0 0.16382575626869561 0.4735735187060508 0 0.16935941711846161 0.48204725214512889 0 0.16935941711846161 0.48204725214512889 0 0.17140318582863401 0.46686470941818559 0 0.16382575626869561 0.4735735187060508 0 0.16935941711846161 0.48204725214512889 0 0.17140318582863401 0.46686470941818559 0 0.1809625144841838 0.48570342190566712 0 0.16935941711846161 0.48204725214512889 0 0.17140318582863401 0.46686470941818559 0 0.19211155850092579 0.47790980627879082 0 0.1809625144841838 0.48570342190566712 0 0.17140318582863401 0.46686470941818559 0 0.19211155850092579 0.47790980627879082 0 0.17140318582863401 0.46686470941818559 0 0.19479511809318301 0.4526549487178691 0 0.18348770279874721 0.46143911161818069 0 0.17341546959919829 0.45191605883299152 0 0.19211155850092579 0.47790980627879082 0 0.18348770279874721 0.46143911161818069 0 0.17140318582863401 0.46686470941818559 0 0.18348770279874721 0.46143911161818069 0 0.17341546959919829 0.45191605883299152 0 0.17140318582863401 0.46686470941818559 0 0.17341546959919829 0.45191605883299152 0 0.17140318582863401 0.46686470941818559 0 0.19479511809318301 0.4526549487178691 0 0.1809560021812836 0.43814832633623357 0 0.17341546959919829 0.45191605883299152 0 0.1809560021812836 0.43814832633623357 0 0.17341546959919829 0.45191605883299152 0 0.16598328874466911 0.44273574664910909 0 0.17341546959919829 0.45191605883299152 0 0.16598328874466911 0.44273574664910909 0 0.15954778128093949 0.4508222386347599 0 0.16598328874466911 0.44273574664910909 0 0.15954778128093949 0.4508222386347599 0 0.1507341445198021 0.44370602134863157 0 0.16526304614212209 0.42908608809292892 0 0.16598328874466911 0.44273574664910909 0 0.1507341445198021 0.44370602134863157 0 0.16382575626869561 0.4735735187060508 0 0.1651762257979181 0.46354347419730452 0 0.17140318582863401 0.46686470941818559 0 0.1651762257979181 0.46354347419730452 0 0.17140318582863401 0.46686470941818559 0 0.17341546959919829 0.45191605883299152 0 0.1651762257979181 0.46354347419730452 0 0.17140318582863401 0.46686470941818559 0 0.17341546959919829 0.45191605883299152 0 0.15954778128093949 0.4508222386347599 0 0.1651762257979181 0.46354347419730452 0 0.15954778128093949 0.4508222386347599 0 0.1651762257979181 0.46354347419730452 0 0.1582471669695637 0.45974252444074731 0 0.16382575626869561 0.4735735187060508 0 0.1651762257979181 0.46354347419730452 0 0.15802571703479451 0.46684670821381258 0 0.1651762257979181 0.46354347419730452 0 0.1582471669695637 0.45974252444074731 0 0.15802571703479451 0.46684670821381258 0 0.14976048710833001 0.46192771033000529 0 0.1507341445198021 0.44370602134863157 0 0.136404492151351 0.45486193181106682 0 0.1582471669695637 0.45974252444074731 0 0.15802571703479451 0.46684670821381258 0 0.14976048710833001 0.46192771033000529 0 0.15802571703479451 0.46684670821381258 0 0.14976048710833001 0.46192771033000529 0 0.1531189490294651 0.47544631339495541 0 0.15954778128093949 0.4508222386347599 0 0.1582471669695637 0.45974252444074731 0 0.14976048710833001 0.46192771033000529 0 0.14976048710833001 0.46192771033000529 0 0.136404492151351 0.45486193181106682 0 0.13663143795624749 0.46910754811773492 0 0.15954778128093949 0.4508222386347599 0 0.14976048710833001 0.46192771033000529 0 0.1507341445198021 0.44370602134863157 0 0.1507341445198021 0.44370602134863157 0 0.13510526379757609 0.44116740875256688 0 0.136404492151351 0.45486193181106682 0 0.1221607865463437 0.4507156547582637 0 0.12259086230274099 0.42947812748907283 0 0.13510526379757609 0.44116740875256688 0 0.1221607865463437 0.4507156547582637 0 0.13510526379757609 0.44116740875256688 0 0.136404492151351 0.45486193181106682 0 0.136404492151351 0.45486193181106682 0 0.1267882431275838 0.46370707134437261 0 0.13663143795624749 0.46910754811773492 0 0.1221607865463437 0.4507156547582637 0 0.136404492151351 0.45486193181106682 0 0.1267882431275838 0.46370707134437261 0 0.1267882431275838 0.46370707134437261 0 0.12569724768963239 0.47617993877849962 0 0.13663143795624749 0.46910754811773492 0 0.12569724768963239 0.47617993877849962 0 0.13663143795624749 0.46910754811773492 0 0.1364132019148096 0.48384982340983701 0 0.13663143795624749 0.46910754811773492 0 0.1364132019148096 0.48384982340983701 0 0.14361111091913481 0.47574478002545789 0 0.1249193769550877 0.49369376296818718 0 0.1364132019148096 0.48384982340983701 0 0.14611751268168829 0.49546177892012921 0 0.1249193769550877 0.49369376296818718 0 0.14611751268168829 0.49546177892012921 0 0.1249193769550877 0.49369376296818718 0 0.12569724768963239 0.47617993877849962 0 0.1364132019148096 0.48384982340983701 0 0.1249193769550877 0.49369376296818718 0 0.13738437864054501 0.5 0 0.14611751268168829 0.49546177892012921 0 0.1364132019148096 0.48384982340983701 0 0.14611751268168829 0.49546177892012921 0 0.14718343377546941 0.48347361591025501 0 0.1669427425872391 0.49999999999999922 0 0.13738437864054501 0.5 0 0.14611751268168829 0.49546177892012921 0 0.157708884996551 0.48584061526662409 0 0.14611751268168829 0.49546177892012921 0 0.14718343377546941 0.48347361591025501 0 0.157708884996551 0.48584061526662409 0 0.1531189490294651 0.47544631339495541 0 0.14718343377546941 0.48347361591025501 0 0.14976048710833001 0.46192771033000529 0 0.1531189490294651 0.47544631339495541 0 0.14361111091913481 0.47574478002545789 0 0.14976048710833001 0.46192771033000529 0 0.13663143795624749 0.46910754811773492 0 0.14361111091913481 0.47574478002545789 0 0.1364132019148096 0.48384982340983701 0 0.14361111091913481 0.47574478002545789 0 0.14718343377546941 0.48347361591025501 0 0.1531189490294651 0.47544631339495541 0 0.14361111091913481 0.47574478002545789 0 0.14718343377546941 0.48347361591025501 0 0.35832214194920592 0.47929915408112939 0 0.34611268429232461 0.46591887339206078 0 0.3375369348076922 0.4829399206954248 0 0.35832214194920592 0.47929915408112939 0 0.35850557312216419 0.5 0 0.3375369348076922 0.4829399206954248 0 0.35850557312216419 0.5 0 0.37801407526051067 0.48065415083330842 0 0.38797204790529932 0.5 0 0.35832214194920592 0.47929915408112939 0 0.35850557312216419 0.5 0 0.37801407526051067 0.48065415083330842 0 0.35832214194920592 0.47929915408112939 0 0.36980735363827261 0.46050290225189661 0 0.37801407526051067 0.48065415083330842 0 0.36980735363827261 0.46050290225189661 0 0.34502769605759259 0.44546544446971242 0 0.36959298495063608 0.43610817863788948 0 0.35832214194920592 0.47929915408112939 0 0.36980735363827261 0.46050290225189661 0 0.34611268429232461 0.46591887339206078 0 0.36980735363827261 0.46050290225189661 0 0.34502769605759259 0.44546544446971242 0 0.34611268429232461 0.46591887339206078 0 0.36980735363827261 0.46050290225189661 0 0.34611268429232461 0.46591887339206078 0 0.34611268429232461 0.46591887339206078 0 0.3317687487832644 0.45597005559148451 0 0.32241801494637662 0.47133484453222518 0 0.34502769605759259 0.44546544446971242 0 0.34611268429232461 0.46591887339206078 0 0.3317687487832644 0.45597005559148451 0 0.34611268429232461 0.46591887339206078 0 0.32241801494637662 0.47133484453222518 0 0.34502769605759259 0.44546544446971242 0 0.3317687487832644 0.45597005559148451 0 0.32480939915707069 0.44218818576869201 0 0.34502769605759259 0.44546544446971242 0 0.32480939915707069 0.44218818576869201 0 0.33523501366627878 0.43221560569608392 0 0.3107318966111981 0.4514989769174147 0 0.3227404476219688 0.42624713816244092 0 0.3317687487832644 0.45597005559148451 0 0.32480939915707069 0.44218818576869201 0 0.3107318966111981 0.4514989769174147 0 0.32480939915707069 0.44218818576869201 0 0.3107318966111981 0.4514989769174147 0 0.3227404476219688 0.42624713816244092 0 0.3317687487832644 0.45597005559148451 0 0.32241801494637662 0.47133484453222518 0 0.3107318966111981 0.4514989769174147 0 0.32241801494637662 0.47133484453222518 0 0.3375369348076922 0.4829399206954248 0 0.31372501333874958 0.48784291822244708 0 0.34611268429232461 0.46591887339206078 0 0.32241801494637662 0.47133484453222518 0 0.3375369348076922 0.4829399206954248 0 0.35850557312216419 0.5 0 0.3375369348076922 0.4829399206954248 0 0.32903909833902928 0.5 0 0.32903909833902928 0.5 0 0.31372501333874958 0.48784291822244708 0 0.29957262355589431 0.5 0 0.3375369348076922 0.4829399206954248 0 0.32903909833902928 0.5 0 0.31372501333874958 0.48784291822244708 0 0.31372501333874958 0.48784291822244708 0 0.30130976803097798 0.48891801032572652 0 0.29957262355589431 0.5 0 0.31372501333874958 0.48784291822244708 0 0.30130976803097798 0.48891801032572652 0 0.29872334560042851 0.47675081567238892 0 0.30130976803097798 0.48891801032572652 0 0.29957262355589431 0.5 0 0.28978827390519868 0.49553967616935518 0 0.32241801494637662 0.47133484453222518 0 0.29872334560042851 0.47675081567238892 0 0.32241801494637662 0.47133484453222518 0 0.31372501333874958 0.48784291822244708 0 0.29872334560042851 0.47675081567238892 0 0.29872334560042851 0.47675081567238892 0 0.28397488520641462 0.48012192141307769 0 0.28978827390519868 0.49553967616935518 0 0.29872334560042851 0.47675081567238892 0 0.28929399795500932 0.47058792179259418 0 0.29703527816799058 0.46117092995693892 0 0.29872334560042851 0.47675081567238892 0 0.28929399795500932 0.47058792179259418 0 0.28397488520641462 0.48012192141307769 0 0.29872334560042851 0.47675081567238892 0 0.28397488520641462 0.48012192141307769 0 0.28929399795500932 0.47058792179259418 0 0.28397488520641462 0.48012192141307769 0 0.27920072977811172 0.47805830749059319 0 0.28397488520641462 0.48012192141307769 0 0.28978827390519868 0.49553967616935518 0 0.27010614877275918 0.50000000000000067 0 0.29957262355589431 0.5 0 0.28978827390519868 0.49553967616935518 0 0.27010614877275918 0.50000000000000067 0 0.30130976803097798 0.48891801032572652 0 0.29872334560042851 0.47675081567238892 0 0.28978827390519868 0.49553967616935518 0 0.29872334560042851 0.47675081567238892 0 0.28978827390519868 0.49553967616935518 0 0.28397488520641462 0.48012192141307769 0 0.27010614877275918 0.50000000000000067 0 0.27920072977811172 0.47805830749059319 0 0.27010614877275918 0.50000000000000067 0 0.26909437115437917 0.48384867389528768 0 0.26130641782501518 0.49139676135406141 0 0.27010614877275918 0.50000000000000067 0 0.27920072977811172 0.47805830749059319 0 0.26909437115437917 0.48384867389528768 0 0.27010614877275918 0.50000000000000067 0 0.27920072977811172 0.47805830749059319 0 0.27920072977811172 0.47805830749059319 0 0.27306774476234302 0.47644699960251641 0 0.26909437115437917 0.48384867389528768 0 0.27920072977811172 0.47805830749059319 0 0.27306774476234302 0.47644699960251641 0 0.27643472525740193 0.46726539210963169 0 0.26824582816420722 0.47348896141386071 0 0.27306774476234302 0.47644699960251641 0 0.27643472525740193 0.46726539210963169 0 0.26824582816420722 0.47348896141386071 0 0.26909437115437917 0.48384867389528768 0 0.25993240985832161 0.47939275616227872 0 0.26824582816420722 0.47348896141386071 0 0.27306774476234302 0.47644699960251641 0 0.26909437115437917 0.48384867389528768 0 0.24904418528453851 0.48634810883828161 0 0.25993240985832161 0.47939275616227872 0 0.25047151807745072 0.47036873115219768 0 0.26824582816420722 0.47348896141386071 0 0.25993240985832161 0.47939275616227872 0 0.26165523792153211 0.46576309323832682 0 0.25993240985832161 0.47939275616227872 0 0.25047151807745072 0.47036873115219768 0 0.26165523792153211 0.46576309323832682 0 0.27010614877275918 0.50000000000000067 0 0.25181722630913472 0.5 0 0.26130641782501518 0.49139676135406141 0 0.24904418528453851 0.48634810883828161 0 0.25993240985832161 0.47939275616227872 0 0.26130641782501518 0.49139676135406141 0 0.24904418528453851 0.48634810883828161 0 0.25181722630913472 0.5 0 0.26130641782501518 0.49139676135406141 0 0.26909437115437917 0.48384867389528768 0 0.25993240985832161 0.47939275616227872 0 0.26130641782501518 0.49139676135406141 0 0.26490489917960358 0.45079530358348557 0 0.25548676926057468 0.44017180441404491 0 0.26331147225899149 0.43380076267102891 0 0.24946733303660301 0.43176723098649622 0 0.24583280085865111 0.44361242472787987 0 0.25548676926057468 0.44017180441404491 0 0.24583280085865111 0.44361242472787987 0 0.25548676926057468 0.44017180441404491 0 0.25282491994113748 0.44831200937164878 0 0.26490489917960358 0.45079530358348557 0 0.25548676926057468 0.44017180441404491 0 0.25282491994113748 0.44831200937164878 0 0.26490489917960358 0.45079530358348557 0 0.25282491994113748 0.44831200937164878 0 0.25477099823403621 0.45804476415031298 0 0.25047151807745072 0.47036873115219768 0 0.25477099823403621 0.45804476415031298 0 0.26165523792153211 0.46576309323832682 0 0.26490489917960358 0.45079530358348557 0 0.25477099823403621 0.45804476415031298 0 0.26165523792153211 0.46576309323832682 0 0.26490489917960358 0.45079530358348557 0 0.27160577401557351 0.46248804296782559 0 0.27679169795675967 0.45600994403837303 0 0.26490489917960358 0.45079530358348557 0 0.26165523792153211 0.46576309323832682 0 0.27160577401557351 0.46248804296782559 0 0.26824582816420722 0.47348896141386071 0 0.27160577401557351 0.46248804296782559 0 0.27643472525740193 0.46726539210963169 0 0.26824582816420722 0.47348896141386071 0 0.26165523792153211 0.46576309323832682 0 0.27160577401557351 0.46248804296782559 0 0.27160577401557351 0.46248804296782559 0 0.27643472525740193 0.46726539210963169 0 0.27679169795675967 0.45600994403837303 0 0.27643472525740193 0.46726539210963169 0 0.27679169795675967 0.45600994403837303 0 0.28829531078346382 0.45611661498118572 0 0.27903440424894049 0.4453257315987294 0 0.26331147225899149 0.43380076267102891 0 0.26490489917960358 0.45079530358348557 0 0.27903440424894049 0.4453257315987294 0 0.26331147225899149 0.43380076267102891 0 0.26490489917960358 0.45079530358348557 0 0.27679169795675967 0.45600994403837303 0 0.27903440424894049 0.4453257315987294 0 0.27903440424894049 0.4453257315987294 0 0.2917470315179379 0.44281751567604499 0 0.28179675760275558 0.42932557237874241 0 0.27679169795675967 0.45600994403837303 0 0.27903440424894049 0.4453257315987294 0 0.28829531078346382 0.45611661498118572 0 0.27903440424894049 0.4453257315987294 0 0.2917470315179379 0.44281751567604499 0 0.28829531078346382 0.45611661498118572 0 0.2917470315179379 0.44281751567604499 0 0.28829531078346382 0.45611661498118572 0 0.29813183988985342 0.45090032042111128 0 0.27920072977811172 0.47805830749059319 0 0.27643472525740193 0.46726539210963169 0 0.28829531078346382 0.45611661498118572 0 0.28929399795500932 0.47058792179259418 0 0.27920072977811172 0.47805830749059319 0 0.28829531078346382 0.45611661498118572 0 0.27920072977811172 0.47805830749059319 0 0.28829531078346382 0.45611661498118572 0 0.28829531078346382 0.45611661498118572 0 0.29703527816799058 0.46117092995693892 0 0.29813183988985342 0.45090032042111128 0 0.28929399795500932 0.47058792179259418 0 0.28829531078346382 0.45611661498118572 0 0.29703527816799058 0.46117092995693892 0 0.29872334560042851 0.47675081567238892 0 0.29703527816799058 0.46117092995693892 0 0.3107318966111981 0.4514989769174147 0 0.29872334560042851 0.47675081567238892 0 0.3107318966111981 0.4514989769174147 0 0.32241801494637662 0.47133484453222518 0 0.29872334560042851 0.47675081567238892 0 0.3107318966111981 0.4514989769174147 0 0.29703527816799058 0.46117092995693892 0 0.29813183988985342 0.45090032042111128 0 0.3107318966111981 0.4514989769174147 0 0.30159082278473881 0.44219288247638061 0 0.3107318966111981 0.4514989769174147 0 0.30884109342504262 0.43428586920116352 0 0.2917470315179379 0.44281751567604499 0 0.30159082278473881 0.44219288247638061 0 0.29850225247966211 0.43146173016616862 0 0.2917470315179379 0.44281751567604499 0 0.30159082278473881 0.44219288247638061 0 0.29813183988985342 0.45090032042111128 0 0.30159082278473881 0.44219288247638061 0 0.29813183988985342 0.45090032042111128 0 0.3107318966111981 0.4514989769174147 0 0.30884109342504262 0.43428586920116352 0 0.29850225247966211 0.43146173016616862 0 0.30862162828234507 0.42004495563460759 0 0.29850225247966211 0.43146173016616862 0 0.30862162828234507 0.42004495563460759 0 0.29547148538100448 0.41817397575591742 0 0.30159082278473881 0.44219288247638061 0 0.30884109342504262 0.43428586920116352 0 0.29850225247966211 0.43146173016616862 0 0.30862162828234507 0.42004495563460759 0 0.30304430461131138 0.40735012112542651 0 0.3196782615082488 0.40265332564926309 0 0.30862162828234507 0.42004495563460759 0 0.30304430461131138 0.40735012112542651 0 0.29547148538100448 0.41817397575591742 0 0.30304430461131138 0.40735012112542651 0 0.29062365375375682 0.40708788978866228 0 0.29547148538100448 0.41817397575591742 0 0.29062365375375682 0.40708788978866228 0 0.29547148538100448 0.41817397575591742 0 0.28288479604298378 0.41446876034122271 0 0.29547148538100448 0.41817397575591742 0 0.28288479604298378 0.41446876034122271 0 0.28179675760275558 0.42932557237874241 0 0.29062365375375682 0.40708788978866228 0 0.28288479604298378 0.41446876034122271 0 0.28001120465417539 0.40182109974822727 0 0.29850225247966211 0.43146173016616862 0 0.29547148538100448 0.41817397575591742 0 0.28179675760275558 0.42932557237874241 0 0.2917470315179379 0.44281751567604499 0 0.29850225247966211 0.43146173016616862 0 0.28179675760275558 0.42932557237874241 0 0.28179675760275558 0.42932557237874241 0 0.27042562322166658 0.41684269204638819 0 0.26331147225899149 0.43380076267102891 0 0.27903440424894049 0.4453257315987294 0 0.28179675760275558 0.42932557237874241 0 0.26331147225899149 0.43380076267102891 0 0.27042562322166658 0.41684269204638819 0 0.26380858941988822 0.4002294757553399 0 0.28001120465417539 0.40182109974822727 0 0.28288479604298378 0.41446876034122271 0 0.28179675760275558 0.42932557237874241 0 0.27042562322166658 0.41684269204638819 0 0.28288479604298378 0.41446876034122271 0 0.27042562322166658 0.41684269204638819 0 0.28001120465417539 0.40182109974822727 0 0.24649952449278431 0.42147754103885982 0 0.25492995388566009 0.41993008507457552 0 0.26380858941988822 0.4002294757553399 0 0.27042562322166658 0.41684269204638819 0 0.25492995388566009 0.41993008507457552 0 0.26380858941988822 0.4002294757553399 0 0.24649952449278431 0.42147754103885982 0 0.26380858941988822 0.4002294757553399 0 0.2429624777480478 0.39890547698508871 0 0.24649952449278431 0.42147754103885982 0 0.26380858941988822 0.4002294757553399 0 0.24946733303660301 0.43176723098649622 0 0.24649952449278431 0.42147754103885982 0 0.26331147225899149 0.43380076267102891 0 0.24649952449278431 0.42147754103885982 0 0.25492995388566009 0.41993008507457552 0 0.26331147225899149 0.43380076267102891 0 0.24649952449278431 0.42147754103885982 0 0.26331147225899149 0.43380076267102891 0 0.27042562322166658 0.41684269204638819 0 0.25492995388566009 0.41993008507457552 0 0.26331147225899149 0.43380076267102891 0 0.24946733303660301 0.43176723098649622 0 0.25548676926057468 0.44017180441404491 0 0.26331147225899149 0.43380076267102891 0 0.26350653962281989 0.38010735630523079 0 0.25341304662754638 0.38974012394171498 0 0.26380858941988822 0.4002294757553399 0 0.26350653962281989 0.38010735630523079 0 0.25383912625151372 0.37755129754335942 0 0.25710864090743918 0.37145542319719338 0 0.26350653962281989 0.38010735630523079 0 0.25383912625151372 0.37755129754335942 0 0.25341304662754638 0.38974012394171498 0 0.2429624777480478 0.39890547698508871 0 0.25341304662754638 0.38974012394171498 0 0.26380858941988822 0.4002294757553399 0 0.26380858941988822 0.4002294757553399 0 0.28001120465417539 0.40182109974822727 0 0.28036865154730628 0.37990086281960789 0 0.26350653962281989 0.38010735630523079 0 0.28036865154730628 0.37990086281960789 0 0.2641967246118288 0.36596915937278562 0 0.26380858941988822 0.4002294757553399 0 0.28036865154730628 0.37990086281960789 0 0.26350653962281989 0.38010735630523079 0 0.26380858941988822 0.4002294757553399 0 0.28036865154730628 0.37990086281960789 0 0.28036865154730628 0.37990086281960789 0 0.29170647807930872 0.39362549197251728 0 0.2987730087010142 0.37934426936791982 0 0.28036865154730628 0.37990086281960789 0 0.29170647807930872 0.39362549197251728 0 0.28001120465417539 0.40182109974822727 0 0.28036865154730628 0.37990086281960789 0 0.29170647807930872 0.39362549197251728 0 0.29062365375375682 0.40708788978866228 0 0.28001120465417539 0.40182109974822727 0 0.29170647807930872 0.39362549197251728 0 0.30304430461131138 0.40735012112542651 0 0.29062365375375682 0.40708788978866228 0 0.29170647807930872 0.39362549197251728 0 0.30304430461131138 0.40735012112542651 0 0.30637452063024528 0.39219955594670219 0 0.3196782615082488 0.40265332564926309 0 0.30304430461131138 0.40735012112542651 0 0.29170647807930872 0.39362549197251728 0 0.30304430461131138 0.40735012112542651 0 0.29170647807930872 0.39362549197251728 0 0.30637452063024528 0.39219955594670219 0 0.30637452063024528 0.39219955594670219 0 0.2987730087010142 0.37934426936791982 0 0.31661607539452802 0.37905951313608538 0 0.29170647807930872 0.39362549197251728 0 0.30637452063024528 0.39219955594670219 0 0.2987730087010142 0.37934426936791982 0 0.31661607539452802 0.37905951313608538 0 0.32905198958534931 0.38831461949406398 0 0.3196782615082488 0.40265332564926309 0 0.31661607539452802 0.37905951313608538 0 0.32905198958534931 0.38831461949406398 0 0.33389487655237682 0.3658352592629312 0 0.32905198958534931 0.38831461949406398 0 0.34270248502322931 0.38427053755298168 0 0.33389487655237682 0.3658352592629312 0 0.32905198958534931 0.38831461949406398 0 0.34270248502322931 0.38427053755298168 0 0.33272146632259869 0.40525883785771122 0 0.34270248502322931 0.38427053755298168 0 0.33272146632259869 0.40525883785771122 0 0.34270248502322931 0.38427053755298168 0 0.33272146632259869 0.40525883785771122 0 0.34670895149724801 0.40816004440777182 0 0.31661607539452802 0.37905951313608538 0 0.3196782615082488 0.40265332564926309 0 0.32905198958534931 0.38831461949406398 0 0.33272146632259869 0.40525883785771122 0 0.3196782615082488 0.40265332564926309 0 0.30637452063024528 0.39219955594670219 0 0.31661607539452802 0.37905951313608538 0 0.3196782615082488 0.40265332564926309 0 0.3196782615082488 0.40265332564926309 0 0.3227404476219688 0.42624713816244092 0 0.30862162828234507 0.42004495563460759 0 0.3196782615082488 0.40265332564926309 0 0.3227404476219688 0.42624713816244092 0 0.33272146632259869 0.40525883785771122 0 0.3196782615082488 0.40265332564926309 0 0.3227404476219688 0.42624713816244092 0 0.33272146632259869 0.40525883785771122 0 0.3227404476219688 0.42624713816244092 0 0.32480939915707069 0.44218818576869201 0 0.3227404476219688 0.42624713816244092 0 0.3107318966111981 0.4514989769174147 0 0.30884109342504262 0.43428586920116352 0 0.3227404476219688 0.42624713816244092 0 0.32480939915707069 0.44218818576869201 0 0.3227404476219688 0.42624713816244092 0 0.33523501366627878 0.43221560569608392 0 0.30884109342504262 0.43428586920116352 0 0.30862162828234507 0.42004495563460759 0 0.3227404476219688 0.42624713816244092 0 0.34502769605759259 0.44546544446971242 0 0.33523501366627878 0.43221560569608392 0 0.34795858503051302 0.425881111768525 0 0.3227404476219688 0.42624713816244092 0 0.33523501366627878 0.43221560569608392 0 0.33659904832278342 0.4201421825902541 0 0.33523501366627878 0.43221560569608392 0 0.33659904832278342 0.4201421825902541 0 0.34795858503051302 0.425881111768525 0 0.33272146632259869 0.40525883785771122 0 0.3227404476219688 0.42624713816244092 0 0.33659904832278342 0.4201421825902541 0 0.33272146632259869 0.40525883785771122 0 0.33659904832278342 0.4201421825902541 0 0.34670895149724801 0.40816004440777182 0 0.33659904832278342 0.4201421825902541 0 0.34670895149724801 0.40816004440777182 0 0.34795858503051302 0.425881111768525 0 0.34670895149724801 0.40816004440777182 0 0.34795858503051302 0.425881111768525 0 0.36336601300371613 0.41450991002864218 0 0.34670895149724801 0.40816004440777182 0 0.36336601300371613 0.41450991002864218 0 0.35690611128064731 0.3988976866485166 0 0.34502769605759259 0.44546544446971242 0 0.34795858503051302 0.425881111768525 0 0.36959298495063608 0.43610817863788948 0 0.34795858503051302 0.425881111768525 0 0.36959298495063608 0.43610817863788948 0 0.36336601300371613 0.41450991002864218 0 0.36959298495063608 0.43610817863788948 0 0.36336601300371613 0.41450991002864218 0 0.38530342098431941 0.41064856824057122 0 0.36336601300371613 0.41450991002864218 0 0.3736470799201031 0.39378130610698531 0 0.38530342098431941 0.41064856824057122 0 0.3736470799201031 0.39378130610698531 0 0.3601059063978746 0.38125551426405008 0 0.35690611128064731 0.3988976866485166 0 0.36336601300371613 0.41450991002864218 0 0.3736470799201031 0.39378130610698531 0 0.35690611128064731 0.3988976866485166 0 0.3736470799201031 0.39378130610698531 0 0.3601059063978746 0.38125551426405008 0 0.37414389550204002 0.36898578533419818 0 0.34270248502322931 0.38427053755298168 0 0.3601059063978746 0.38125551426405008 0 0.35690611128064731 0.3988976866485166 0 0.34270248502322931 0.38427053755298168 0 0.3601059063978746 0.38125551426405008 0 0.35268350372385993 0.36328223724825232 0 0.34270248502322931 0.38427053755298168 0 0.34670895149724801 0.40816004440777182 0 0.35690611128064731 0.3988976866485166 0 0.35268350372385993 0.36328223724825232 0 0.36266452242448938 0.34229393694352239 0 0.35030182712711511 0.35130594720886232 0 0.35268350372385993 0.36328223724825232 0 0.36266452242448938 0.34229393694352239 0 0.35030182712711511 0.35130594720886232 0 0.35146565257524442 0.34420791440797271 0 0.36266452242448938 0.34229393694352239 0 0.35030182712711511 0.35130594720886232 0 0.35146565257524442 0.34420791440797271 0 0.34269927497721508 0.34493512072036142 0 0.35030182712711511 0.35130594720886232 0 0.35268350372385993 0.36328223724825232 0 0.33389487655237682 0.3658352592629312 0 0.34270248502322931 0.38427053755298168 0 0.35268350372385993 0.36328223724825232 0 0.3601059063978746 0.38125551426405008 0 0.35268350372385993 0.36328223724825232 0 0.37414389550204002 0.36898578533419818 0 0.35268350372385993 0.36328223724825232 0 0.37414389550204002 0.36898578533419818 0 0.36300645299402812 0.35604351837507042 0 0.37414389550204002 0.36898578533419818 0 0.37228166628853332 0.35471301169251829 0 0.36300645299402812 0.35604351837507042 0 0.35268350372385993 0.36328223724825232 0 0.36300645299402812 0.35604351837507042 0 0.36266452242448938 0.34229393694352239 0 0.37228166628853332 0.35471301169251829 0 0.36300645299402812 0.35604351837507042 0 0.36840829020790361 0.34668560051738673 0 0.36300645299402812 0.35604351837507042 0 0.36840829020790361 0.34668560051738673 0 0.36266452242448938 0.34229393694352239 0 0.36840829020790361 0.34668560051738673 0 0.36266452242448938 0.34229393694352239 0 0.36587418437400321 0.34278907974668538 0 0.37228166628853332 0.35471301169251829 0 0.36840829020790361 0.34668560051738673 0 0.37486749369974542 0.34694596905823039 0 0.37486749369974542 0.34694596905823039 0 0.37256750073976291 0.34304532959464751 0 0.37670219357667811 0.34177383067972761 0 0.36840829020790361 0.34668560051738673 0 0.37486749369974542 0.34694596905823039 0 0.37256750073976291 0.34304532959464751 0 0.36124897776362869 0.33531944770056321 0 0.36266452242448938 0.34229393694352239 0 0.36411885078159001 0.32644375487552563 0 0.37256750073976291 0.34304532959464751 0 0.36916640720496519 0.34145859007673351 0 0.37369311900952262 0.33836265764115908 0 0.37256750073976291 0.34304532959464751 0 0.37369311900952262 0.33836265764115908 0 0.37670219357667811 0.34177383067972761 0 0.36266452242448938 0.34229393694352239 0 0.37014896644917339 0.316543878568457 0 0.36770298492566261 0.33637877995368609 0 0.36266452242448938 0.34229393694352239 0 0.37368960646642962 0.31911015363466272 0 0.36770298492566261 0.33637877995368609 0 0.36985494237623989 0.33311962493185521 0 0.37368960646642962 0.31911015363466272 0 0.36266452242448938 0.34229393694352239 0 0.37368960646642962 0.31911015363466272 0 0.36266452242448938 0.34229393694352239 0 0.37014896644917339 0.316543878568457 0 0.36411885078159001 0.32644375487552563 0 0.36840829020790361 0.34668560051738673 0 0.36916640720496519 0.34145859007673351 0 0.36587418437400321 0.34278907974668538 0 0.36840829020790361 0.34668560051738673 0 0.37256750073976291 0.34304532959464751 0 0.36916640720496519 0.34145859007673351 0 0.36916640720496519 0.34145859007673351 0 0.36587418437400321 0.34278907974668538 0 0.36708394454210669 0.33994961910346172 0 0.36916640720496519 0.34145859007673351 0 0.37010024416019238 0.33739894816112592 0 0.36708394454210669 0.33994961910346172 0 0.36916640720496519 0.34145859007673351 0 0.37010024416019238 0.33739894816112592 0 0.37369311900952262 0.33836265764115908 0 0.36770298492566261 0.33637877995368609 0 0.37010024416019238 0.33739894816112592 0 0.36708394454210669 0.33994961910346172 0 0.37010024416019238 0.33739894816112592 0 0.37369311900952262 0.33836265764115908 0 0.3722735272100694 0.33425106354392481 0 0.3722735272100694 0.33425106354392481 0 0.37245621682226088 0.32924087979990557 0 0.375263113682131 0.33313320718557798 0 0.37369311900952262 0.33836265764115908 0 0.3722735272100694 0.33425106354392481 0 0.375263113682131 0.33313320718557798 0 0.3722735272100694 0.33425106354392481 0 0.37245621682226088 0.32924087979990557 0 0.36985494237623989 0.33311962493185521 0 0.37245621682226088 0.32924087979990557 0 0.37577016905582622 0.32787937856968757 0 0.375263113682131 0.33313320718557798 0 0.37010024416019238 0.33739894816112592 0 0.3722735272100694 0.33425106354392481 0 0.36985494237623989 0.33311962493185521 0 0.36770298492566261 0.33637877995368609 0 0.37010024416019238 0.33739894816112592 0 0.36985494237623989 0.33311962493185521 0 0.36128237795215928 0.33126347269122047 0 0.36124897776362869 0.33531944770056321 0 0.36411885078159001 0.32644375487552563 0 0.36150631125237548 0.32912422255951068 0 0.36128237795215928 0.33126347269122047 0 0.36411885078159001 0.32644375487552563 0 0.36150631125237548 0.32912422255951068 0 0.35994194411877378 0.32646204206530971 0 0.35835984371964152 0.33045614064968309 0 0.36128237795215928 0.33126347269122047 0 0.35899626180536931 0.33430086833413269 0 0.35835984371964152 0.33045614064968309 0 0.36150631125237548 0.32912422255951068 0 0.36128237795215928 0.33126347269122047 0 0.35835984371964152 0.33045614064968309 0 0.36128237795215928 0.33126347269122047 0 0.36124897776362869 0.33531944770056321 0 0.35899626180536931 0.33430086833413269 0 0.36124897776362869 0.33531944770056321 0 0.36001134864139028 0.33778823672905661 0 0.35899626180536931 0.33430086833413269 0 0.36124897776362869 0.33531944770056321 0 0.36001134864139028 0.33778823672905661 0 0.36266452242448938 0.34229393694352239 0 0.36001134864139028 0.33778823672905661 0 0.36266452242448938 0.34229393694352239 0 0.3582225103283424 0.33883319475427592 0 0.36266452242448938 0.34229393694352239 0 0.36587418437400321 0.34278907974668538 0 0.36708394454210669 0.33994961910346172 0 0.36770298492566261 0.33637877995368609 0 0.36266452242448938 0.34229393694352239 0 0.36708394454210669 0.33994961910346172 0 0.36266452242448938 0.34229393694352239 0 0.37368960646642962 0.31911015363466272 0 0.37014896644917339 0.316543878568457 0 0.37014896644917339 0.316543878568457 0 0.36604953812300478 0.31497278055865852 0 0.36630954626425261 0.31087512405144152 0 0.37499251130121058 0.31593455150060828 0 0.37014896644917339 0.316543878568457 0 0.37695808612291098 0.31120865645681561 0 0.37499251130121058 0.31593455150060828 0 0.37368960646642962 0.31911015363466272 0 0.37014896644917339 0.316543878568457 0 0.37014896644917339 0.316543878568457 0 0.36646072203027302 0.32009490443849897 0 0.3659238024377004 0.31770243144255911 0 0.37014896644917339 0.316543878568457 0 0.3659238024377004 0.31770243144255911 0 0.36604953812300478 0.31497278055865852 0 0.37245621682226088 0.32924087979990557 0 0.36985494237623989 0.33311962493185521 0 0.37368960646642962 0.31911015363466272 0 0.37245621682226088 0.32924087979990557 0 0.37368960646642962 0.31911015363466272 0 0.37506056064123422 0.32471797871916308 0 0.37245621682226088 0.32924087979990557 0 0.37577016905582622 0.32787937856968757 0 0.37506056064123422 0.32471797871916308 0 0.37014896644917339 0.316543878568457 0 0.36411885078159001 0.32644375487552563 0 0.36646072203027302 0.32009490443849897 0 0.36411885078159001 0.32644375487552563 0 0.35994194411877378 0.32646204206530971 0 0.36132202517978662 0.32303080634539388 0 0.36150631125237548 0.32912422255951068 0 0.36411885078159001 0.32644375487552563 0 0.35994194411877378 0.32646204206530971 0 0.36132202517978662 0.32303080634539388 0 0.36348301458407639 0.32047903077872458 0 0.35962675317161102 0.31893041505789499 0 0.36411885078159001 0.32644375487552563 0 0.36132202517978662 0.32303080634539388 0 0.36348301458407639 0.32047903077872458 0 0.36411885078159001 0.32644375487552563 0 0.36348301458407639 0.32047903077872458 0 0.36646072203027302 0.32009490443849897 0 0.36348301458407639 0.32047903077872458 0 0.36646072203027302 0.32009490443849897 0 0.3659238024377004 0.31770243144255911 0 0.3659238024377004 0.31770243144255911 0 0.36344593390349789 0.31667187251247519 0 0.36604953812300478 0.31497278055865852 0 0.36348301458407639 0.32047903077872458 0 0.3659238024377004 0.31770243144255911 0 0.36344593390349789 0.31667187251247519 0 0.36348301458407639 0.32047903077872458 0 0.36344593390349789 0.31667187251247519 0 0.35962675317161102 0.31893041505789499 0 0.36344593390349789 0.31667187251247519 0 0.35962675317161102 0.31893041505789499 0 0.35878641637012221 0.31305233625990619 0 0.36344593390349789 0.31667187251247519 0 0.36331333565659901 0.31283202127524651 0 0.35878641637012221 0.31305233625990619 0 0.36331333565659901 0.31283202127524651 0 0.36604953812300478 0.31497278055865852 0 0.36630954626425261 0.31087512405144152 0 0.36344593390349789 0.31667187251247519 0 0.36331333565659901 0.31283202127524651 0 0.36604953812300478 0.31497278055865852 0 0.35878641637012221 0.31305233625990619 0 0.35512602374864599 0.31718053618965047 0 0.35090510471213721 0.31152713165908658 0 0.35512602374864599 0.31718053618965047 0 0.34983435518440159 0.31943204998396652 0 0.35090510471213721 0.31152713165908658 0 0.35962675317161102 0.31893041505789499 0 0.35878641637012221 0.31305233625990619 0 0.35512602374864599 0.31718053618965047 0 0.35962675317161102 0.31893041505789499 0 0.35512602374864599 0.31718053618965047 0 0.35673455485560862 0.32229528426682241 0 0.35512602374864599 0.31718053618965047 0 0.35673455485560862 0.32229528426682241 0 0.34983435518440159 0.31943204998396652 0 0.35673455485560862 0.32229528426682241 0 0.35060422568955008 0.32587015674736058 0 0.34983435518440159 0.31943204998396652 0 0.35994194411877378 0.32646204206530971 0 0.36132202517978662 0.32303080634539388 0 0.35673455485560862 0.32229528426682241 0 0.36132202517978662 0.32303080634539388 0 0.35962675317161102 0.31893041505789499 0 0.35673455485560862 0.32229528426682241 0 0.35994194411877378 0.32646204206530971 0 0.35673455485560862 0.32229528426682241 0 0.35627338036128769 0.32705738058013539 0 0.35994194411877378 0.32646204206530971 0 0.35627338036128769 0.32705738058013539 0 0.35835984371964152 0.33045614064968309 0 0.35627338036128769 0.32705738058013539 0 0.35060422568955008 0.32587015674736058 0 0.35398721241228231 0.33095327650953749 0 0.35673455485560862 0.32229528426682241 0 0.35627338036128769 0.32705738058013539 0 0.35060422568955008 0.32587015674736058 0 0.35060422568955008 0.32587015674736058 0 0.34514221143703899 0.32919058107390442 0 0.34284551192874652 0.32364904383841531 0 0.35060422568955008 0.32587015674736058 0 0.34983435518440159 0.31943204998396652 0 0.34284551192874652 0.32364904383841531 0 0.34983435518440159 0.31943204998396652 0 0.34480088275632298 0.31606258733578418 0 0.35090510471213721 0.31152713165908658 0 0.34983435518440159 0.31943204998396652 0 0.34480088275632298 0.31606258733578418 0 0.34284551192874652 0.32364904383841531 0 0.35146565257524442 0.34420791440797271 0 0.36266452242448938 0.34229393694352239 0 0.35562031764263757 0.34031424282986023 0 0.35302683950207769 0.33602013814058929 0 0.35562031764263757 0.34031424282986023 0 0.35672120529774148 0.33684362974708199 0 0.35202203774268331 0.33965573310897551 0 0.35302683950207769 0.33602013814058929 0 0.35562031764263757 0.34031424282986023 0 0.35146565257524442 0.34420791440797271 0 0.35202203774268331 0.33965573310897551 0 0.35562031764263757 0.34031424282986023 0 0.36266452242448938 0.34229393694352239 0 0.35562031764263757 0.34031424282986023 0 0.3582225103283424 0.33883319475427592 0 0.35562031764263757 0.34031424282986023 0 0.3582225103283424 0.33883319475427592 0 0.35672120529774148 0.33684362974708199 0 0.36001134864139028 0.33778823672905661 0 0.3582225103283424 0.33883319475427592 0 0.35672120529774148 0.33684362974708199 0 0.36001134864139028 0.33778823672905661 0 0.35672120529774148 0.33684362974708199 0 0.35899626180536931 0.33430086833413269 0 0.35899626180536931 0.33430086833413269 0 0.35641212776078268 0.33381706902087938 0 0.35835984371964152 0.33045614064968309 0 0.35672120529774148 0.33684362974708199 0 0.35899626180536931 0.33430086833413269 0 0.35641212776078268 0.33381706902087938 0 0.35627338036128769 0.32705738058013539 0 0.35835984371964152 0.33045614064968309 0 0.35398721241228231 0.33095327650953749 0 0.35641212776078268 0.33381706902087938 0 0.35835984371964152 0.33045614064968309 0 0.35398721241228231 0.33095327650953749 0 0.35302683950207769 0.33602013814058929 0 0.35641212776078268 0.33381706902087938 0 0.35398721241228231 0.33095327650953749 0 0.35302683950207769 0.33602013814058929 0 0.35398721241228231 0.33095327650953749 0 0.34924685744035389 0.33249877391857741 0 0.35302683950207769 0.33602013814058929 0 0.35672120529774148 0.33684362974708199 0 0.35641212776078268 0.33381706902087938 0 0.35302683950207769 0.33602013814058929 0 0.34924685744035389 0.33249877391857741 0 0.34788509595764172 0.33882226599831611 0 0.35060422568955008 0.32587015674736058 0 0.34924685744035389 0.33249877391857741 0 0.34514221143703899 0.32919058107390442 0 0.35060422568955008 0.32587015674736058 0 0.35398721241228231 0.33095327650953749 0 0.34924685744035389 0.33249877391857741 0 0.34924685744035389 0.33249877391857741 0 0.34514221143703899 0.32919058107390442 0 0.34474234507332802 0.33433591834825649 0 0.34924685744035389 0.33249877391857741 0 0.34474234507332802 0.33433591834825649 0 0.34788509595764172 0.33882226599831611 0 0.34474234507332802 0.33433591834825649 0 0.34788509595764172 0.33882226599831611 0 0.34057592936449049 0.33809639891542392 0 0.35146565257524442 0.34420791440797271 0 0.34788509595764172 0.33882226599831611 0 0.34269927497721508 0.34493512072036142 0 0.35202203774268331 0.33965573310897551 0 0.35302683950207769 0.33602013814058929 0 0.34788509595764172 0.33882226599831611 0 0.35146565257524442 0.34420791440797271 0 0.35202203774268331 0.33965573310897551 0 0.34788509595764172 0.33882226599831611 0 0.34057592936449049 0.33809639891542392 0 0.33318390910610529 0.34358855052096038 0 0.34269927497721508 0.34493512072036142 0 0.34788509595764172 0.33882226599831611 0 0.34057592936449049 0.33809639891542392 0 0.34269927497721508 0.34493512072036142 0 0.34474234507332802 0.33433591834825649 0 0.34057592936449049 0.33809639891542392 0 0.33946855119551672 0.33096103471374028 0 0.34514221143703899 0.32919058107390442 0 0.34474234507332802 0.33433591834825649 0 0.33946855119551672 0.33096103471374028 0 0.34057592936449049 0.33809639891542392 0 0.33946855119551672 0.33096103471374028 0 0.33283637980140879 0.33469331179832718 0 0.33946855119551672 0.33096103471374028 0 0.33283637980140879 0.33469331179832718 0 0.33464693517381472 0.32630086361949601 0 0.33283637980140879 0.33469331179832718 0 0.33464693517381472 0.32630086361949601 0 0.3250964778074269 0.32978689602061512 0 0.34057592936449049 0.33809639891542392 0 0.33283637980140879 0.33469331179832718 0 0.33318390910610529 0.34358855052096038 0 0.33283637980140879 0.33469331179832718 0 0.33318390910610529 0.34358855052096038 0 0.32611481079287369 0.33974729713420021 0 0.34480088275632298 0.31606258733578418 0 0.33769186663180051 0.31814262317354819 0 0.34192449374142192 0.30753297203612773 0 0.34480088275632298 0.31606258733578418 0 0.33769186663180051 0.31814262317354819 0 0.34284551192874652 0.32364904383841531 0 0.33946855119551672 0.33096103471374028 0 0.34284551192874652 0.32364904383841531 0 0.33464693517381472 0.32630086361949601 0 0.33769186663180051 0.31814262317354819 0 0.34284551192874652 0.32364904383841531 0 0.33464693517381472 0.32630086361949601 0 0.34514221143703899 0.32919058107390442 0 0.33946855119551672 0.33096103471374028 0 0.34284551192874652 0.32364904383841531 0 0.33769186663180051 0.31814262317354819 0 0.33464693517381472 0.32630086361949601 0 0.32994282367798861 0.32057227217232959 0 0.33464693517381472 0.32630086361949601 0 0.32994282367798861 0.32057227217232959 0 0.3250964778074269 0.32978689602061512 0 0.33769186663180051 0.31814262317354819 0 0.32994282367798861 0.32057227217232959 0 0.32867162081685902 0.31028670060733149 0 0.32176892132522322 0.32006025561378759 0 0.31440941436971798 0.31242774502049953 0 0.32867162081685902 0.31028670060733149 0 0.32994282367798861 0.32057227217232959 0 0.32176892132522322 0.32006025561378759 0 0.32867162081685902 0.31028670060733149 0 0.32176892132522322 0.32006025561378759 0 0.31484893044661 0.32778579360563193 0 0.3250964778074269 0.32978689602061512 0 0.32994282367798861 0.32057227217232959 0 0.32176892132522322 0.32006025561378759 0 0.3250964778074269 0.32978689602061512 0 0.32176892132522322 0.32006025561378759 0 0.31484893044661 0.32778579360563193 0 0.31440941436971798 0.31242774502049953 0 0.32611481079287369 0.33974729713420021 0 0.3250964778074269 0.32978689602061512 0 0.31767498628904178 0.33862919533695518 0 0.32611481079287369 0.33974729713420021 0 0.31767498628904178 0.33862919533695518 0 0.32336406622478242 0.34852958887145069 0 0.33283637980140879 0.33469331179832718 0 0.32611481079287369 0.33974729713420021 0 0.3250964778074269 0.32978689602061512 0 0.31484893044661 0.32778579360563193 0 0.31767498628904178 0.33862919533695518 0 0.30654896287530792 0.34033791233229299 0 0.31484893044661 0.32778579360563193 0 0.3250964778074269 0.32978689602061512 0 0.31767498628904178 0.33862919533695518 0 0.31767498628904178 0.33862919533695518 0 0.31315570067328902 0.3464643712977632 0 0.32336406622478242 0.34852958887145069 0 0.31315570067328902 0.3464643712977632 0 0.31355388928080707 0.35546570062290778 0 0.32336406622478242 0.34852958887145069 0 0.32336406622478242 0.34852958887145069 0 0.33442175170730049 0.35218858713626039 0 0.32437013183195901 0.3602157298059272 0 0.31355388928080707 0.35546570062290778 0 0.32336406622478242 0.34852958887145069 0 0.32437013183195901 0.3602157298059272 0 0.33318390910610529 0.34358855052096038 0 0.32611481079287369 0.33974729713420021 0 0.32336406622478242 0.34852958887145069 0 0.35030182712711511 0.35130594720886232 0 0.33442175170730049 0.35218858713626039 0 0.33389487655237682 0.3658352592629312 0 0.33318390910610529 0.34358855052096038 0 0.32336406622478242 0.34852958887145069 0 0.33442175170730049 0.35218858713626039 0 0.35030182712711511 0.35130594720886232 0 0.33442175170730049 0.35218858713626039 0 0.34269927497721508 0.34493512072036142 0 0.33318390910610529 0.34358855052096038 0 0.33442175170730049 0.35218858713626039 0 0.34269927497721508 0.34493512072036142 0 0.34270248502322931 0.38427053755298168 0 0.35268350372385993 0.36328223724825232 0 0.33389487655237682 0.3658352592629312 0 0.33442175170730049 0.35218858713626039 0 0.33389487655237682 0.3658352592629312 0 0.32437013183195901 0.3602157298059272 0 0.31661607539452802 0.37905951313608538 0 0.33389487655237682 0.3658352592629312 0 0.32437013183195901 0.3602157298059272 0 0.31661607539452802 0.37905951313608538 0 0.31355388928080707 0.35546570062290778 0 0.32437013183195901 0.3602157298059272 0 0.31661607539452802 0.37905951313608538 0 0.31355388928080707 0.35546570062290778 0 0.31661607539452802 0.37905951313608538 0 0.31355388928080707 0.35546570062290778 0 0.30541822204374358 0.36584678197342768 0 0.2987730087010142 0.37934426936791982 0 0.31661607539452802 0.37905951313608538 0 0.30541822204374358 0.36584678197342768 0 0.30541822204374358 0.36584678197342768 0 0.30393955747459928 0.35096595789874813 0 0.29215410451095353 0.36543341035917859 0 0.2987730087010142 0.37934426936791982 0 0.30541822204374358 0.36584678197342768 0 0.29215410451095353 0.36543341035917859 0 0.31315570067328902 0.3464643712977632 0 0.30393955747459928 0.35096595789874813 0 0.30654896287530792 0.34033791233229299 0 0.31315570067328902 0.3464643712977632 0 0.31355388928080707 0.35546570062290778 0 0.30393955747459928 0.35096595789874813 0 0.31355388928080707 0.35546570062290778 0 0.30541822204374358 0.36584678197342768 0 0.30393955747459928 0.35096595789874813 0 0.30393955747459928 0.35096595789874813 0 0.29215410451095353 0.36543341035917859 0 0.30393955747459928 0.35096595789874813 0 0.29720735802849829 0.34424744790442102 0 0.29027641861796738 0.35164951467646482 0 0.30393955747459928 0.35096595789874813 0 0.29720735802849829 0.34424744790442102 0 0.30654896287530792 0.34033791233229299 0 0.29720735802849829 0.34424744790442102 0 0.29027641861796738 0.35164951467646482 0 0.28998304713239348 0.34105976447064218 0 0.30393955747459928 0.35096595789874813 0 0.29027641861796738 0.35164951467646482 0 0.29215410451095353 0.36543341035917859 0 0.29027641861796738 0.35164951467646482 0 0.29215410451095353 0.36543341035917859 0 0.27920137084664282 0.3573603676334649 0 0.29027641861796738 0.35164951467646482 0 0.27920137084664282 0.3573603676334649 0 0.28068773357058369 0.34198453751068081 0 0.29027641861796738 0.35164951467646482 0 0.28068773357058369 0.34198453751068081 0 0.28998304713239348 0.34105976447064218 0 0.28036865154730628 0.37990086281960789 0 0.29215410451095353 0.36543341035917859 0 0.27920137084664282 0.3573603676334649 0 0.28036865154730628 0.37990086281960789 0 0.2987730087010142 0.37934426936791982 0 0.29215410451095353 0.36543341035917859 0 0.28036865154730628 0.37990086281960789 0 0.29215410451095353 0.36543341035917859 0 0.28036865154730628 0.37990086281960789 0 0.27920137084664282 0.3573603676334649 0 0.26173146881309822 0.35734024057335978 0 0.28036865154730628 0.37990086281960789 0 0.26173146881309822 0.35734024057335978 0 0.28036865154730628 0.37990086281960789 0 0.26173146881309822 0.35734024057335978 0 0.2641967246118288 0.36596915937278562 0 0.27920137084664282 0.3573603676334649 0 0.27030047393074008 0.3474963096498429 0 0.26173146881309822 0.35734024057335978 0 0.27920137084664282 0.3573603676334649 0 0.27030047393074008 0.3474963096498429 0 0.28068773357058369 0.34198453751068081 0 0.2430942860788903 0.33477961832711151 0 0.26173146881309822 0.35734024057335978 0 0.27030047393074008 0.3474963096498429 0 0.26173146881309822 0.35734024057335978 0 0.26240083601839698 0.33727672217147331 0 0.23816107804029091 0.35120524212074949 0 0.26173146881309822 0.35734024057335978 0 0.2641967246118288 0.36596915937278562 0 0.23816107804029091 0.35120524212074949 0 0.2641967246118288 0.36596915937278562 0 0.2492643002430574 0.365916522193315 0 0.24311907173897271 0.36013203008567057 0 0.2641967246118288 0.36596915937278562 0 0.2492643002430574 0.365916522193315 0 0.25710864090743918 0.37145542319719338 0 0.2641967246118288 0.36596915937278562 0 0.2492643002430574 0.365916522193315 0 0.25383912625151372 0.37755129754335942 0 0.25710864090743918 0.37145542319719338 0 0.26350653962281989 0.38010735630523079 0 0.25710864090743918 0.37145542319719338 0 0.2641967246118288 0.36596915937278562 0 0.2484846271056145 0.31037308609574782 0 0.25508783524565293 0.32209220201309929 0 0.26836904206483531 0.31075971332937607 0 0.25508783524565293 0.32209220201309929 0 0.26240083601839698 0.33727672217147331 0 0.26677092012209491 0.32204036282613252 0 0.25508783524565293 0.32209220201309929 0 0.26677092012209491 0.32204036282613252 0 0.26836904206483531 0.31075971332937607 0 0.2430942860788903 0.33477961832711151 0 0.25508783524565293 0.32209220201309929 0 0.26240083601839698 0.33727672217147331 0 0.2430942860788903 0.33477961832711151 0 0.26173146881309822 0.35734024057335978 0 0.26240083601839698 0.33727672217147331 0 0.26240083601839698 0.33727672217147331 0 0.27184092000699639 0.33891315949469752 0 0.27388917516664008 0.32964775149744319 0 0.26240083601839698 0.33727672217147331 0 0.27388917516664008 0.32964775149744319 0 0.26677092012209491 0.32204036282613252 0 0.27030047393074008 0.3474963096498429 0 0.26240083601839698 0.33727672217147331 0 0.27184092000699639 0.33891315949469752 0 0.27030047393074008 0.3474963096498429 0 0.27184092000699639 0.33891315949469752 0 0.28068773357058369 0.34198453751068081 0 0.27184092000699639 0.33891315949469752 0 0.28068773357058369 0.34198453751068081 0 0.27388917516664008 0.32964775149744319 0 0.28068773357058369 0.34198453751068081 0 0.27388917516664008 0.32964775149744319 0 0.28570907475377572 0.33188311037056872 0 0.27388917516664008 0.32964775149744319 0 0.26677092012209491 0.32204036282613252 0 0.28178409254690689 0.31684790712797722 0 0.27388917516664008 0.32964775149744319 0 0.28178409254690689 0.31684790712797722 0 0.28570907475377572 0.33188311037056872 0 0.26677092012209491 0.32204036282613252 0 0.28178409254690689 0.31684790712797722 0 0.26836904206483531 0.31075971332937607 0 0.28178409254690689 0.31684790712797722 0 0.29262159606390598 0.32453461147271162 0 0.29660332646403359 0.30785121346786842 0 0.28178409254690689 0.31684790712797722 0 0.29262159606390598 0.32453461147271162 0 0.28570907475377572 0.33188311037056872 0 0.28068773357058369 0.34198453751068081 0 0.28570907475377572 0.33188311037056872 0 0.28998304713239348 0.34105976447064218 0 0.29262159606390598 0.32453461147271162 0 0.28570907475377572 0.33188311037056872 0 0.29603465069114282 0.33553421189107618 0 0.29720735802849829 0.34424744790442102 0 0.29603465069114282 0.33553421189107618 0 0.28998304713239348 0.34105976447064218 0 0.28570907475377572 0.33188311037056872 0 0.29603465069114282 0.33553421189107618 0 0.28998304713239348 0.34105976447064218 0 0.29720735802849829 0.34424744790442102 0 0.29603465069114282 0.33553421189107618 0 0.30654896287530792 0.34033791233229299 0 0.29603465069114282 0.33553421189107618 0 0.30654896287530792 0.34033791233229299 0 0.30445412428221041 0.32558903425911379 0 0.29262159606390598 0.32453461147271162 0 0.29603465069114282 0.33553421189107618 0 0.30445412428221041 0.32558903425911379 0 0.31484893044661 0.32778579360563193 0 0.30654896287530792 0.34033791233229299 0 0.30445412428221041 0.32558903425911379 0 0.31767498628904178 0.33862919533695518 0 0.31315570067328902 0.3464643712977632 0 0.30654896287530792 0.34033791233229299 0 0.30445412428221041 0.32558903425911379 0 0.29660332646403359 0.30785121346786842 0 0.31440941436971798 0.31242774502049953 0 0.29262159606390598 0.32453461147271162 0 0.30445412428221041 0.32558903425911379 0 0.29660332646403359 0.30785121346786842 0 0.31484893044661 0.32778579360563193 0 0.30445412428221041 0.32558903425911379 0 0.31440941436971798 0.31242774502049953 0 0.30822946874662033 0.29998271616579031 0 0.29660332646403359 0.30785121346786842 0 0.31440941436971798 0.31242774502049953 0 0.30822946874662033 0.29998271616579031 0 0.30055108247350393 0.28416894361273021 0 0.29660332646403359 0.30785121346786842 0 0.30822946874662033 0.29998271616579031 0 0.30055108247350393 0.28416894361273021 0 0.32109763140443309 0.29547610107375327 0 0.30055108247350393 0.28416894361273021 0 0.29660332646403359 0.30785121346786842 0 0.27430616976337108 0.29100628718303567 0 0.30055108247350393 0.28416894361273021 0 0.27430616976337108 0.29100628718303567 0 0.28443506245096839 0.27205148705280008 0 0.30055108247350393 0.28416894361273021 0 0.27430616976337108 0.29100628718303567 0 0.28178409254690689 0.31684790712797722 0 0.29660332646403359 0.30785121346786842 0 0.27430616976337108 0.29100628718303567 0 0.28178409254690689 0.31684790712797722 0 0.26836904206483531 0.31075971332937607 0 0.27430616976337108 0.29100628718303567 0 0.28178409254690689 0.31684790712797722 0 0.27430616976337108 0.29100628718303567 0 0.27430616976337108 0.29100628718303567 0 0.25121587924780342 0.29702178630611242 0 0.27430616976337108 0.29100628718303567 0 0.25953152444998728 0.28294166139542631 0 0.25121587924780342 0.29702178630611242 0 0.26836904206483531 0.31075971332937607 0 0.27430616976337108 0.29100628718303567 0 0.25121587924780342 0.29702178630611242 0 0.26836904206483531 0.31075971332937607 0 0.25121587924780342 0.29702178630611242 0 0.2484846271056145 0.31037308609574782 0 0.26836904206483531 0.31075971332937607 0 0.25121587924780342 0.29702178630611242 0 0.25102838231212438 0.26850893423506528 0 0.26790857605335527 0.26889798384773289 0 0.26221447651104962 0.2479993693513689 0 0.26790857605335527 0.26889798384773289 0 0.26221447651104962 0.2479993693513689 0 0.25953152444998728 0.28294166139542631 0 0.25102838231212438 0.26850893423506528 0 0.26790857605335527 0.26889798384773289 0 0.27430616976337108 0.29100628718303567 0 0.26790857605335527 0.26889798384773289 0 0.28443506245096839 0.27205148705280008 0 0.27430616976337108 0.29100628718303567 0 0.25953152444998728 0.28294166139542631 0 0.26790857605335527 0.26889798384773289 0 0.27430616976337108 0.29100628718303567 0 0.26790857605335527 0.26889798384773289 0 0.26790857605335527 0.26889798384773289 0 0.28119448123381058 0.25405304303149878 0 0.26221447651104962 0.2479993693513689 0 0.26790857605335527 0.26889798384773289 0 0.28119448123381058 0.25405304303149878 0 0.28443506245096839 0.27205148705280008 0 0.28119448123381058 0.25405304303149878 0 0.28443506245096839 0.27205148705280008 0 0.2982150027308012 0.26213117758900317 0 0.28119448123381058 0.25405304303149878 0 0.2982150027308012 0.26213117758900317 0 0.30328699804120918 0.24394477185791469 0 0.30055108247350393 0.28416894361273021 0 0.28443506245096839 0.27205148705280008 0 0.2982150027308012 0.26213117758900317 0 0.30055108247350393 0.28416894361273021 0 0.2982150027308012 0.26213117758900317 0 0.31879452400631653 0.25919465198291952 0 0.2982150027308012 0.26213117758900317 0 0.31879452400631653 0.25919465198291952 0 0.30328699804120918 0.24394477185791469 0 0.31879452400631653 0.25919465198291952 0 0.33092809789354199 0.24744869965648561 0 0.31845456220733243 0.24449663650262579 0 0.31879452400631653 0.25919465198291952 0 0.33565265393095528 0.25675142138279861 0 0.33982225619875311 0.26765994074234428 0 0.31879452400631653 0.25919465198291952 0 0.33982225619875311 0.26765994074234428 0 0.31879452400631653 0.25919465198291952 0 0.33565265393095528 0.25675142138279861 0 0.33092809789354199 0.24744869965648561 0 0.33565265393095528 0.25675142138279861 0 0.33982225619875311 0.26765994074234428 0 0.34536281311255052 0.25941060478944128 0 0.33565265393095528 0.25675142138279861 0 0.3433555784436142 0.25004320974280247 0 0.33092809789354199 0.24744869965648561 0 0.33565265393095528 0.25675142138279861 0 0.3433555784436142 0.25004320974280247 0 0.34536281311255052 0.25941060478944128 0 0.31879452400631653 0.25919465198291952 0 0.33982225619875311 0.26765994074234428 0 0.32679599518363661 0.27733160004242491 0 0.33982225619875311 0.26765994074234428 0 0.32679599518363661 0.27733160004242491 0 0.34056182851336592 0.28206143899133118 0 0.30055108247350393 0.28416894361273021 0 0.32679599518363661 0.27733160004242491 0 0.30055108247350393 0.28416894361273021 0 0.31879452400631653 0.25919465198291952 0 0.32679599518363661 0.27733160004242491 0 0.32679599518363661 0.27733160004242491 0 0.32109763140443309 0.29547610107375327 0 0.33248404658197278 0.28876668272462419 0 0.30055108247350393 0.28416894361273021 0 0.32679599518363661 0.27733160004242491 0 0.32109763140443309 0.29547610107375327 0 0.32109763140443309 0.29547610107375327 0 0.31440941436971798 0.31242774502049953 0 0.32867162081685902 0.31028670060733149 0 0.30822946874662033 0.29998271616579031 0 0.32109763140443309 0.29547610107375327 0 0.31440941436971798 0.31242774502049953 0 0.32867162081685902 0.31028670060733149 0 0.33472549883669622 0.29791121211074773 0 0.34192449374142192 0.30753297203612773 0 0.32109763140443309 0.29547610107375327 0 0.32867162081685902 0.31028670060733149 0 0.33472549883669622 0.29791121211074773 0 0.33472549883669622 0.29791121211074773 0 0.34281583705185747 0.29966479619329672 0 0.34192449374142192 0.30753297203612773 0 0.33769186663180051 0.31814262317354819 0 0.32867162081685902 0.31028670060733149 0 0.34192449374142192 0.30753297203612773 0 0.32679599518363661 0.27733160004242491 0 0.33248404658197278 0.28876668272462419 0 0.34056182851336592 0.28206143899133118 0 0.32109763140443309 0.29547610107375327 0 0.33472549883669622 0.29791121211074773 0 0.33248404658197278 0.28876668272462419 0 0.33472549883669622 0.29791121211074773 0 0.33248404658197278 0.28876668272462419 0 0.34417327957572558 0.29277050597204329 0 0.33472549883669622 0.29791121211074773 0 0.34281583705185747 0.29966479619329672 0 0.34417327957572558 0.29277050597204329 0 0.33248404658197278 0.28876668272462419 0 0.34056182851336592 0.28206143899133118 0 0.34417327957572558 0.29277050597204329 0 0.34056182851336592 0.28206143899133118 0 0.34979868535227071 0.28728326233729501 0 0.34417327957572558 0.29277050597204329 0 0.34056182851336592 0.28206143899133118 0 0.34979868535227071 0.28728326233729501 0 0.35183199075491411 0.27966461044832719 0 0.34417327957572558 0.29277050597204329 0 0.35334053836337709 0.29410458558147129 0 0.34972900846361488 0.30172704795696642 0 0.34979868535227071 0.28728326233729501 0 0.34417327957572558 0.29277050597204329 0 0.35334053836337709 0.29410458558147129 0 0.34979868535227071 0.28728326233729501 0 0.35334053836337709 0.29410458558147129 0 0.35722235408413222 0.28831366276426512 0 0.35334053836337709 0.29410458558147129 0 0.35826071325737319 0.3003277240158499 0 0.36091512844171192 0.29433704443458902 0 0.35334053836337709 0.29410458558147129 0 0.35722235408413222 0.28831366276426512 0 0.36091512844171192 0.29433704443458902 0 0.34979868535227071 0.28728326233729501 0 0.35722235408413222 0.28831366276426512 0 0.35183199075491411 0.27966461044832719 0 0.35722235408413222 0.28831366276426512 0 0.36152496379752869 0.28359539021876212 0 0.35183199075491411 0.27966461044832719 0 0.34480088275632298 0.31606258733578418 0 0.34192449374142192 0.30753297203612773 0 0.35090510471213721 0.31152713165908658 0 0.34192449374142192 0.30753297203612773 0 0.35090510471213721 0.31152713165908658 0 0.34972900846361488 0.30172704795696642 0 0.34281583705185747 0.29966479619329672 0 0.34417327957572558 0.29277050597204329 0 0.34972900846361488 0.30172704795696642 0 0.34281583705185747 0.29966479619329672 0 0.34192449374142192 0.30753297203612773 0 0.34972900846361488 0.30172704795696642 0 0.34972900846361488 0.30172704795696642 0 0.35826071325737319 0.3003277240158499 0 0.35721607615581658 0.30656573559573969 0 0.35334053836337709 0.29410458558147129 0 0.34972900846361488 0.30172704795696642 0 0.35826071325737319 0.3003277240158499 0 0.35090510471213721 0.31152713165908658 0 0.34972900846361488 0.30172704795696642 0 0.35721607615581658 0.30656573559573969 0 0.35878641637012221 0.31305233625990619 0 0.35090510471213721 0.31152713165908658 0 0.35721607615581658 0.30656573559573969 0 0.37014896644917339 0.316543878568457 0 0.37763341047385651 0.29079382019339128 0 0.37014896644917339 0.316543878568457 0 0.37108481648816682 0.30013899891886681 0 0.36845835323010317 0.30596496181531441 0 0.37014896644917339 0.316543878568457 0 0.37763341047385651 0.29079382019339128 0 0.37695808612291098 0.31120865645681561 0 0.37014896644917339 0.316543878568457 0 0.37108481648816682 0.30013899891886681 0 0.37763341047385651 0.29079382019339128 0 0.36630954626425261 0.31087512405144152 0 0.36228941999803421 0.30896529616435242 0 0.36543096483439103 0.3064802843427199 0 0.36331333565659901 0.31283202127524651 0 0.36630954626425261 0.31087512405144152 0 0.36228941999803421 0.30896529616435242 0 0.36331333565659901 0.31283202127524651 0 0.35878641637012221 0.31305233625990619 0 0.36228941999803421 0.30896529616435242 0 0.35878641637012221 0.31305233625990619 0 0.35721607615581658 0.30656573559573969 0 0.36228941999803421 0.30896529616435242 0 0.35721607615581658 0.30656573559573969 0 0.36228941999803421 0.30896529616435242 0 0.36268018070702418 0.30398627546106088 0 0.36630954626425261 0.31087512405144152 0 0.36543096483439103 0.3064802843427199 0 0.36845835323010317 0.30596496181531441 0 0.36228941999803421 0.30896529616435242 0 0.36543096483439103 0.3064802843427199 0 0.36268018070702418 0.30398627546106088 0 0.36543096483439103 0.3064802843427199 0 0.36607900901995372 0.30349396637540749 0 0.36845835323010317 0.30596496181531441 0 0.36607900901995372 0.30349396637540749 0 0.36268018070702418 0.30398627546106088 0 0.36558719123160882 0.29969948119116269 0 0.36607900901995372 0.30349396637540749 0 0.36558719123160882 0.29969948119116269 0 0.36823835509664099 0.30133882906677939 0 0.36543096483439103 0.3064802843427199 0 0.36607900901995372 0.30349396637540749 0 0.36268018070702418 0.30398627546106088 0 0.35826071325737319 0.3003277240158499 0 0.35721607615581658 0.30656573559573969 0 0.36268018070702418 0.30398627546106088 0 0.35826071325737319 0.3003277240158499 0 0.36268018070702418 0.30398627546106088 0 0.36558719123160882 0.29969948119116269 0 0.35826071325737319 0.3003277240158499 0 0.36558719123160882 0.29969948119116269 0 0.36091512844171192 0.29433704443458902 0 0.36871223371641282 0.29817542324200702 0 0.37108481648816682 0.30013899891886681 0 0.37014933742706652 0.29575476169949788 0 0.36558719123160882 0.29969948119116269 0 0.36871223371641282 0.29817542324200702 0 0.36734652779664789 0.29411680932906442 0 0.36558719123160882 0.29969948119116269 0 0.36871223371641282 0.29817542324200702 0 0.36823835509664099 0.30133882906677939 0 0.36871223371641282 0.29817542324200702 0 0.37108481648816682 0.30013899891886681 0 0.36823835509664099 0.30133882906677939 0 0.37108481648816682 0.30013899891886681 0 0.36823835509664099 0.30133882906677939 0 0.36845835323010317 0.30596496181531441 0 0.36607900901995372 0.30349396637540749 0 0.36823835509664099 0.30133882906677939 0 0.36845835323010317 0.30596496181531441 0 0.37014896644917339 0.316543878568457 0 0.36630954626425261 0.31087512405144152 0 0.36845835323010317 0.30596496181531441 0 0.36812955944888692 0.28419813691800921 0 0.36084998839118931 0.2761252295017701 0 0.37969218042614078 0.28371066929036243 0 0.36152496379752869 0.28359539021876212 0 0.36812955944888692 0.28419813691800921 0 0.36084998839118931 0.2761252295017701 0 0.36414496955441777 0.28941104037434479 0 0.36911771796651938 0.28986917351547109 0 0.36812955944888692 0.28419813691800921 0 0.36152496379752869 0.28359539021876212 0 0.36414496955441777 0.28941104037434479 0 0.36812955944888692 0.28419813691800921 0 0.35722235408413222 0.28831366276426512 0 0.36152496379752869 0.28359539021876212 0 0.36414496955441777 0.28941104037434479 0 0.35722235408413222 0.28831366276426512 0 0.36091512844171192 0.29433704443458902 0 0.36414496955441777 0.28941104037434479 0 0.36558719123160882 0.29969948119116269 0 0.36091512844171192 0.29433704443458902 0 0.36734652779664789 0.29411680932906442 0 0.36091512844171192 0.29433704443458902 0 0.36414496955441777 0.28941104037434479 0 0.36734652779664789 0.29411680932906442 0 0.36414496955441777 0.28941104037434479 0 0.36911771796651938 0.28986917351547109 0 0.36734652779664789 0.29411680932906442 0 0.36911771796651938 0.28986917351547109 0 0.37026464520563152 0.29279186409727531 0 0.36734652779664789 0.29411680932906442 0 0.37108481648816682 0.30013899891886681 0 0.37306860395079622 0.29341917559567809 0 0.37763341047385651 0.29079382019339128 0 0.36911771796651938 0.28986917351547109 0 0.37026464520563152 0.29279186409727531 0 0.37237913536365119 0.29056320862162688 0 0.36871223371641282 0.29817542324200702 0 0.36734652779664789 0.29411680932906442 0 0.37014933742706652 0.29575476169949788 0 0.37026464520563152 0.29279186409727531 0 0.36734652779664789 0.29411680932906442 0 0.37014933742706652 0.29575476169949788 0 0.37108481648816682 0.30013899891886681 0 0.37014933742706652 0.29575476169949788 0 0.37306860395079622 0.29341917559567809 0 0.37026464520563152 0.29279186409727531 0 0.37014933742706652 0.29575476169949788 0 0.37306860395079622 0.29341917559567809 0 0.36911771796651938 0.28986917351547109 0 0.37237913536365119 0.29056320862162688 0 0.37333201972158658 0.2878654242033048 0 0.37306860395079622 0.29341917559567809 0 0.37237913536365119 0.29056320862162688 0 0.37763341047385651 0.29079382019339128 0 0.37237913536365119 0.29056320862162688 0 0.37333201972158658 0.2878654242033048 0 0.37763341047385651 0.29079382019339128 0 0.37026464520563152 0.29279186409727531 0 0.37306860395079622 0.29341917559567809 0 0.37237913536365119 0.29056320862162688 0 0.37333201972158658 0.2878654242033048 0 0.36812955944888692 0.28419813691800921 0 0.37969218042614078 0.28371066929036243 0 0.36911771796651938 0.28986917351547109 0 0.37333201972158658 0.2878654242033048 0 0.36812955944888692 0.28419813691800921 0 0.36084998839118931 0.2761252295017701 0 0.37969218042614078 0.28371066929036243 0 0.36084998839118931 0.2761252295017701 0 0.37017340450925651 0.266060206293324 0 0.3539366042426153 0.26554047293381039 0 0.36084998839118931 0.2761252295017701 0 0.38460708535355081 0.26680105137204091 0 0.36084998839118931 0.2761252295017701 0 0.37017340450925651 0.266060206293324 0 0.38460708535355081 0.26680105137204091 0 0.3539366042426153 0.26554047293381039 0 0.38129994004966872 0.25577407136566988 0 0.37169426656027921 0.24972740256563611 0 0.37017340450925651 0.266060206293324 0 0.3539366042426153 0.26554047293381039 0 0.38129994004966872 0.25577407136566988 0 0.3539366042426153 0.26554047293381039 0 0.37169426656027921 0.24972740256563611 0 0.36205361842742478 0.24882498742118489 0 0.3539366042426153 0.26554047293381039 0 0.38129994004966872 0.25577407136566988 0 0.3539366042426153 0.26554047293381039 0 0.35175757775775729 0.2532797976346674 0 0.36205361842742478 0.24882498742118489 0 0.3433555784436142 0.25004320974280247 0 0.35175757775775729 0.2532797976346674 0 0.34536281311255052 0.25941060478944128 0 0.33982225619875311 0.26765994074234428 0 0.3539366042426153 0.26554047293381039 0 0.34536281311255052 0.25941060478944128 0 0.3539366042426153 0.26554047293381039 0 0.35175757775775729 0.2532797976346674 0 0.34536281311255052 0.25941060478944128 0 0.33982225619875311 0.26765994074234428 0 0.36084998839118931 0.2761252295017701 0 0.33982225619875311 0.26765994074234428 0 0.36084998839118931 0.2761252295017701 0 0.3539366042426153 0.26554047293381039 0 0.33982225619875311 0.26765994074234428 0 0.36084998839118931 0.2761252295017701 0 0.35183199075491411 0.27966461044832719 0 0.33982225619875311 0.26765994074234428 0 0.34056182851336592 0.28206143899133118 0 0.35183199075491411 0.27966461044832719 0 0.36152496379752869 0.28359539021876212 0 0.36084998839118931 0.2761252295017701 0 0.35183199075491411 0.27966461044832719 0 0.36084998839118931 0.2761252295017701 0 0.35183199075491411 0.27966461044832719 0 0.39945440726228237 0.27350419034528239 0 0.38460708535355081 0.26680105137204091 0 0.40768566828284042 0.25774317622192677 0 0.39945440726228237 0.27350419034528239 0 0.4092682188351508 0.26816031590002881 0 0.40768566828284042 0.25774317622192677 0 0.39945440726228237 0.27350419034528239 0 0.38460708535355081 0.26680105137204091 0 0.3904751567012596 0.27530993325585928 0 0.39945440726228237 0.27350419034528239 0 0.3904751567012596 0.27530993325585928 0 0.39488150240831521 0.28173053148540511 0 0.39945440726228237 0.27350419034528239 0 0.40366985246608472 0.28285995447659418 0 0.40929088926209078 0.279020096056181 0 0.39945440726228237 0.27350419034528239 0 0.4092682188351508 0.26816031590002881 0 0.40929088926209078 0.279020096056181 0 0.39945440726228237 0.27350419034528239 0 0.39488150240831521 0.28173053148540511 0 0.40366985246608472 0.28285995447659418 0 0.38783836144724232 0.2556839199238965 0 0.38129994004966872 0.25577407136566988 0 0.40866327585672191 0.24600766979752939 0 0.38460708535355081 0.26680105137204091 0 0.40768566828284042 0.25774317622192677 0 0.38783836144724232 0.2556839199238965 0 0.40768566828284042 0.25774317622192677 0 0.40866327585672191 0.24600766979752939 0 0.38783836144724232 0.2556839199238965 0 0.38460708535355081 0.26680105137204091 0 0.40768566828284042 0.25774317622192677 0 0.38129994004966872 0.25577407136566988 0 0.40866327585672191 0.24600766979752939 0 0.38783836144724232 0.2556839199238965 0 0.38129994004966872 0.25577407136566988 0 0.38460708535355081 0.26680105137204091 0 0.38783836144724232 0.2556839199238965 0 0.38460708535355081 0.26680105137204091 0 0.38129994004966872 0.25577407136566988 0 0.37169426656027921 0.24972740256563611 0 0.38106847269238292 0.24536179082341181 0 0.37017340450925651 0.266060206293324 0 0.38129994004966872 0.25577407136566988 0 0.38460708535355081 0.26680105137204091 0 0.36084998839118931 0.2761252295017701 0 0.38460708535355081 0.26680105137204091 0 0.37969218042614078 0.28371066929036243 0 0.38460708535355081 0.26680105137204091 0 0.3904751567012596 0.27530993325585928 0 0.37969218042614078 0.28371066929036243 0 0.38460708535355081 0.26680105137204091 0 0.37969218042614078 0.28371066929036243 0 0.3904751567012596 0.27530993325585928 0 0.37969218042614078 0.28371066929036243 0 0.39488150240831521 0.28173053148540511 0 0.37969218042614078 0.28371066929036243 0 0.37763341047385651 0.29079382019339128 0 0.40259214502479168 0.29292967641552992 0 0.37763341047385651 0.29079382019339128 0 0.4027243230010164 0.30147339632314252 0 0.37969218042614078 0.28371066929036243 0 0.37763341047385651 0.29079382019339128 0 0.37333201972158658 0.2878654242033048 0 0.37969218042614078 0.28371066929036243 0 0.37763341047385651 0.29079382019339128 0 0.37763341047385651 0.29079382019339128 0 0.37695808612291098 0.31120865645681561 0 0.38599374742651271 0.30414296713942529 0 0.37763341047385651 0.29079382019339128 0 0.38599374742651271 0.30414296713942529 0 0.4027243230010164 0.30147339632314252 0 0.37695808612291098 0.31120865645681561 0 0.38599374742651271 0.30414296713942529 0 0.38754735899376969 0.31282171123814728 0 0.38599374742651271 0.30414296713942529 0 0.4027243230010164 0.30147339632314252 0 0.38754735899376969 0.31282171123814728 0 0.4027243230010164 0.30147339632314252 0 0.3956366020903157 0.32248231082130752 0 0.38754735899376969 0.31282171123814728 0 0.37969218042614078 0.28371066929036243 0 0.40259214502479168 0.29292967641552992 0 0.37969218042614078 0.28371066929036243 0 0.39488150240831521 0.28173053148540511 0 0.40259214502479168 0.29292967641552992 0 0.37763341047385651 0.29079382019339128 0 0.4027243230010164 0.30147339632314252 0 0.40259214502479168 0.29292967641552992 0 0.4027243230010164 0.30147339632314252 0 0.40259214502479168 0.29292967641552992 0 0.41139710839419091 0.29189735433941028 0 0.40259214502479168 0.29292967641552992 0 0.40366985246608472 0.28285995447659418 0 0.41139710839419091 0.29189735433941028 0 0.39488150240831521 0.28173053148540511 0 0.40259214502479168 0.29292967641552992 0 0.40366985246608472 0.28285995447659418 0 0.40366985246608472 0.28285995447659418 0 0.41139710839419091 0.29189735433941028 0 0.40929088926209078 0.279020096056181 0 0.41139710839419091 0.29189735433941028 0 0.42781523552817591 0.31215297245289481 0 0.42226183937510081 0.28327127115801121 0 0.41139710839419091 0.29189735433941028 0 0.42226183937510081 0.28327127115801121 0 0.40929088926209078 0.279020096056181 0 0.4027243230010164 0.30147339632314252 0 0.41139710839419091 0.29189735433941028 0 0.42781523552817591 0.31215297245289481 0 0.4027243230010164 0.30147339632314252 0 0.42781523552817591 0.31215297245289481 0 0.41357021602424721 0.32279281759874212 0 0.4027243230010164 0.30147339632314252 0 0.42781523552817591 0.31215297245289481 0 0.42781523552817591 0.31215297245289481 0 0.42226183937510081 0.28327127115801121 0 0.42781523552817591 0.31215297245289481 0 0.42226183937510081 0.28327127115801121 0 0.44120727567718632 0.28746005308771089 0 0.42226183937510081 0.28327127115801121 0 0.43023391716603732 0.27040224467912161 0 0.44120727567718632 0.28746005308771089 0 0.42226183937510081 0.28327127115801121 0 0.43023391716603732 0.27040224467912161 0 0.41664462513020523 0.25422696758609492 0 0.43023391716603732 0.27040224467912161 0 0.43692075095235122 0.26433370861442979 0 0.44373838257505849 0.27050131303512348 0 0.42226183937510081 0.28327127115801121 0 0.4092682188351508 0.26816031590002881 0 0.41664462513020523 0.25422696758609492 0 0.42226183937510081 0.28327127115801121 0 0.41664462513020523 0.25422696758609492 0 0.42226183937510081 0.28327127115801121 0 0.4092682188351508 0.26816031590002881 0 0.40929088926209078 0.279020096056181 0 0.40768566828284042 0.25774317622192677 0 0.41664462513020523 0.25422696758609492 0 0.40866327585672191 0.24600766979752939 0 0.40768566828284042 0.25774317622192677 0 0.41664462513020523 0.25422696758609492 0 0.4092682188351508 0.26816031590002881 0 0.40768566828284042 0.25774317622192677 0 0.41664462513020523 0.25422696758609492 0 0.42749544465446981 0.25699566217507153 0 0.45166362976964691 0.25106894999712381 0 0.43076425121212841 0.2486853010718087 0 0.41664462513020523 0.25422696758609492 0 0.42749544465446981 0.25699566217507153 0 0.43076425121212841 0.2486853010718087 0 0.43023391716603732 0.27040224467912161 0 0.41664462513020523 0.25422696758609492 0 0.42749544465446981 0.25699566217507153 0 0.41664462513020523 0.25422696758609492 0 0.43076425121212841 0.2486853010718087 0 0.42749544465446981 0.25699566217507153 0 0.43692075095235122 0.26433370861442979 0 0.44456450099631911 0.26043047377218492 0 0.43023391716603732 0.27040224467912161 0 0.42749544465446981 0.25699566217507153 0 0.43692075095235122 0.26433370861442979 0 0.42749544465446981 0.25699566217507153 0 0.45166362976964691 0.25106894999712381 0 0.42749544465446981 0.25699566217507153 0 0.44456450099631911 0.26043047377218492 0 0.45166362976964691 0.25106894999712381 0 0.43692075095235122 0.26433370861442979 0 0.44456450099631911 0.26043047377218492 0 0.44373838257505849 0.27050131303512348 0 0.44456450099631911 0.26043047377218492 0 0.44373838257505849 0.27050131303512348 0 0.45508065662597141 0.26402805921732958 0 0.44456450099631911 0.26043047377218492 0 0.45166362976964691 0.25106894999712381 0 0.45508065662597141 0.26402805921732958 0 0.44373838257505849 0.27050131303512348 0 0.45472874274978531 0.27586911806656422 0 0.44120727567718632 0.28746005308771089 0 0.43023391716603732 0.27040224467912161 0 0.44373838257505849 0.27050131303512348 0 0.44120727567718632 0.28746005308771089 0 0.44373838257505849 0.27050131303512348 0 0.45472874274978531 0.27586911806656422 0 0.45508065662597141 0.26402805921732958 0 0.45472874274978531 0.27586911806656422 0 0.46665275363318931 0.27127710252775639 0 0.46192346945889701 0.28817835066990299 0 0.45472874274978531 0.27586911806656422 0 0.46665275363318931 0.27127710252775639 0 0.45508065662597141 0.26402805921732958 0 0.45166362976964691 0.25106894999712381 0 0.46652816171208539 0.25830808769848879 0 0.47583181488482379 0.2451422378191761 0 0.45166362976964691 0.25106894999712381 0 0.45508065662597141 0.26402805921732958 0 0.46652816171208539 0.25830808769848879 0 0.46665275363318931 0.27127710252775639 0 0.45508065662597141 0.26402805921732958 0 0.46652816171208539 0.25830808769848879 0 0.46665275363318931 0.27127710252775639 0 0.46652816171208539 0.25830808769848879 0 0.48341195364679568 0.26002408893105827 0 0.46652816171208539 0.25830808769848879 0 0.48341195364679568 0.26002408893105827 0 0.47583181488482379 0.2451422378191761 0 0.46665275363318931 0.27127710252775639 0 0.48341195364679568 0.26002408893105827 0 0.48138518434246891 0.28130646820503019 0 0.46665275363318931 0.27127710252775639 0 0.48138518434246891 0.28130646820503019 0 0.46192346945889701 0.28817835066990299 0 0.5 0.26671351767664991 0 0.5 0.29421150971207138 0 0.48138518434246891 0.28130646820503019 0 0.48341195364679568 0.26002408893105827 0 0.5 0.26671351767664991 0 0.48138518434246891 0.28130646820503019 0 0.48341195364679568 0.26002408893105827 0 0.5 0.26671351767664991 0 0.50000000000000067 0.2392155256412283 0 0.5 0.29421150971207138 0 0.47556093647901088 0.30733800586058863 0 0.5 0.32170950174749302 0 0.5 0.29421150971207138 0 0.48138518434246891 0.28130646820503019 0 0.47556093647901088 0.30733800586058863 0 0.48138518434246891 0.28130646820503019 0 0.47556093647901088 0.30733800586058863 0 0.46192346945889701 0.28817835066990299 0 0.47556093647901088 0.30733800586058863 0 0.45214514511688908 0.30370412902975941 0 0.45421880844117613 0.32339126307769928 0 0.47556093647901088 0.30733800586058863 0 0.46192346945889701 0.28817835066990299 0 0.45214514511688908 0.30370412902975941 0 0.46192346945889701 0.28817835066990299 0 0.44120727567718632 0.28746005308771089 0 0.45214514511688908 0.30370412902975941 0 0.45472874274978531 0.27586911806656422 0 0.46192346945889701 0.28817835066990299 0 0.44120727567718632 0.28746005308771089 0 0.42781523552817591 0.31215297245289481 0 0.44120727567718632 0.28746005308771089 0 0.45214514511688908 0.30370412902975941 0 0.42781523552817591 0.31215297245289481 0 0.45421880844117613 0.32339126307769928 0 0.43298436918619881 0.33903622913929549 0 0.42781523552817591 0.31215297245289481 0 0.45214514511688908 0.30370412902975941 0 0.45421880844117613 0.32339126307769928 0 0.42781523552817591 0.31215297245289481 0 0.45421880844117613 0.32339126307769928 0 0.45421880844117613 0.32339126307769928 0 0.45970761232660212 0.34692044601787542 0 0.43298436918619881 0.33903622913929549 0 0.45421880844117613 0.32339126307769928 0 0.48062238135417568 0.33462955370250519 0 0.45421880844117613 0.32339126307769928 0 0.48062238135417568 0.33462955370250519 0 0.45970761232660212 0.34692044601787542 0 0.47556093647901088 0.30733800586058863 0 0.45421880844117613 0.32339126307769928 0 0.48062238135417568 0.33462955370250519 0 0.48062238135417568 0.33462955370250519 0 0.5 0.32170950174749302 0 0.5 0.34920749378291471 0 0.47556093647901088 0.30733800586058863 0 0.48062238135417568 0.33462955370250519 0 0.5 0.32170950174749302 0 0.5 0.34920749378291471 0 0.48254603458521478 0.3522402998402685 0 0.5 0.37670548581833618 0 0.48062238135417568 0.33462955370250519 0 0.5 0.34920749378291471 0 0.48254603458521478 0.3522402998402685 0 0.48254603458521478 0.3522402998402685 0 0.46972057754862501 0.36630584452178799 0 0.45970761232660212 0.34692044601787542 0 0.48062238135417568 0.33462955370250519 0 0.48254603458521478 0.3522402998402685 0 0.45970761232660212 0.34692044601787542 0 0.48254603458521478 0.3522402998402685 0 0.46972057754862501 0.36630584452178799 0 0.5 0.37670548581833618 0 0.46972057754862501 0.36630584452178799 0 0.43815350284422228 0.36591948582569622 0 0.45848938469160699 0.38276388730883248 0 0.46972057754862501 0.36630584452178799 0 0.45970761232660212 0.34692044601787542 0 0.43815350284422228 0.36591948582569622 0 0.45970761232660212 0.34692044601787542 0 0.43815350284422228 0.36591948582569622 0 0.43298436918619881 0.33903622913929549 0 0.43815350284422228 0.36591948582569622 0 0.4167242930516859 0.35972934744593471 0 0.42344095457037051 0.38268701701273461 0 0.4167242930516859 0.35972934744593471 0 0.40101385701800268 0.38518895784325291 0 0.4167242930516859 0.35972934744593471 0 0.40181680918128981 0.35947395412181382 0 0.40101385701800268 0.38518895784325291 0 0.4167242930516859 0.35972934744593471 0 0.40869055031553031 0.33881917925707022 0 0.40181680918128981 0.35947395412181382 0 0.4167242930516859 0.35972934744593471 0 0.43298436918619881 0.33903622913929549 0 0.40869055031553031 0.33881917925707022 0 0.43815350284422228 0.36591948582569622 0 0.4167242930516859 0.35972934744593471 0 0.43298436918619881 0.33903622913929549 0 0.43815350284422228 0.36591948582569622 0 0.43298436918619881 0.33903622913929549 0 0.42781523552817591 0.31215297245289481 0 0.43298436918619881 0.33903622913929549 0 0.42781523552817591 0.31215297245289481 0 0.43298436918619881 0.33903622913929549 0 0.41357021602424721 0.32279281759874212 0 0.43298436918619881 0.33903622913929549 0 0.41357021602424721 0.32279281759874212 0 0.40869055031553031 0.33881917925707022 0 0.40869055031553031 0.33881917925707022 0 0.39369601167170543 0.33564153172070438 0 0.39209274976778918 0.34814598654190299 0 0.40869055031553031 0.33881917925707022 0 0.39369601167170543 0.33564153172070438 0 0.3956366020903157 0.32248231082130752 0 0.39369601167170543 0.33564153172070438 0 0.3956366020903157 0.32248231082130752 0 0.38362385659697051 0.32926172455430031 0 0.39369601167170543 0.33564153172070438 0 0.38635485741833753 0.33883185827426582 0 0.39209274976778918 0.34814598654190299 0 0.41357021602424721 0.32279281759874212 0 0.40869055031553031 0.33881917925707022 0 0.3956366020903157 0.32248231082130752 0 0.4027243230010164 0.30147339632314252 0 0.41357021602424721 0.32279281759874212 0 0.3956366020903157 0.32248231082130752 0 0.3956366020903157 0.32248231082130752 0 0.38754735899376969 0.31282171123814728 0 0.38479800915553353 0.32074741934569512 0 0.38754735899376969 0.31282171123814728 0 0.38479800915553353 0.32074741934569512 0 0.37917338616632867 0.3168755173424983 0 0.3956366020903157 0.32248231082130752 0 0.38479800915553353 0.32074741934569512 0 0.38362385659697051 0.32926172455430031 0 0.38479800915553353 0.32074741934569512 0 0.37832625022041982 0.32264150287239662 0 0.38362385659697051 0.32926172455430031 0 0.37577016905582622 0.32787937856968757 0 0.37832625022041982 0.32264150287239662 0 0.38362385659697051 0.32926172455430031 0 0.37577016905582622 0.32787937856968757 0 0.37506056064123422 0.32471797871916308 0 0.37832625022041982 0.32264150287239662 0 0.37368960646642962 0.31911015363466272 0 0.37506056064123422 0.32471797871916308 0 0.37832625022041982 0.32264150287239662 0 0.37695808612291098 0.31120865645681561 0 0.38754735899376969 0.31282171123814728 0 0.37917338616632867 0.3168755173424983 0 0.38479800915553353 0.32074741934569512 0 0.37832625022041982 0.32264150287239662 0 0.37917338616632867 0.3168755173424983 0 0.37368960646642962 0.31911015363466272 0 0.37832625022041982 0.32264150287239662 0 0.37917338616632867 0.3168755173424983 0 0.37499251130121058 0.31593455150060828 0 0.37368960646642962 0.31911015363466272 0 0.37917338616632867 0.3168755173424983 0 0.37499251130121058 0.31593455150060828 0 0.37695808612291098 0.31120865645681561 0 0.37917338616632867 0.3168755173424983 0 0.38635485741833753 0.33883185827426582 0 0.3795813787571668 0.3363772241379393 0 0.38278029029805521 0.34473282441648212 0 0.39369601167170543 0.33564153172070438 0 0.38635485741833753 0.33883185827426582 0 0.38362385659697051 0.32926172455430031 0 0.38635485741833753 0.33883185827426582 0 0.38362385659697051 0.32926172455430031 0 0.3795813787571668 0.3363772241379393 0 0.37577016905582622 0.32787937856968757 0 0.38362385659697051 0.32926172455430031 0 0.37868435463470768 0.3315773541462857 0 0.38362385659697051 0.32926172455430031 0 0.37868435463470768 0.3315773541462857 0 0.3795813787571668 0.3363772241379393 0 0.37577016905582622 0.32787937856968757 0 0.37868435463470768 0.3315773541462857 0 0.375263113682131 0.33313320718557798 0 0.37868435463470768 0.3315773541462857 0 0.375263113682131 0.33313320718557798 0 0.3795813787571668 0.3363772241379393 0 0.37369311900952262 0.33836265764115908 0 0.3795813787571668 0.3363772241379393 0 0.37670219357667811 0.34177383067972761 0 0.3795813787571668 0.3363772241379393 0 0.37670219357667811 0.34177383067972761 0 0.38278029029805521 0.34473282441648212 0 0.37369311900952262 0.33836265764115908 0 0.375263113682131 0.33313320718557798 0 0.3795813787571668 0.3363772241379393 0 0.3809821990389497 0.35490418517770578 0 0.39056259575344082 0.36548629952090861 0 0.39209274976778918 0.34814598654190299 0 0.37486749369974542 0.34694596905823039 0 0.37670219357667811 0.34177383067972761 0 0.38278029029805521 0.34473282441648212 0 0.37486749369974542 0.34694596905823039 0 0.38278029029805521 0.34473282441648212 0 0.3809821990389497 0.35490418517770578 0 0.38278029029805521 0.34473282441648212 0 0.3809821990389497 0.35490418517770578 0 0.39209274976778918 0.34814598654190299 0 0.38635485741833753 0.33883185827426582 0 0.38278029029805521 0.34473282441648212 0 0.39209274976778918 0.34814598654190299 0 0.37228166628853332 0.35471301169251829 0 0.37486749369974542 0.34694596905823039 0 0.3809821990389497 0.35490418517770578 0 0.37414389550204002 0.36898578533419818 0 0.3809821990389497 0.35490418517770578 0 0.39056259575344082 0.36548629952090861 0 0.37414389550204002 0.36898578533419818 0 0.39056259575344082 0.36548629952090861 0 0.40101385701800268 0.38518895784325291 0 0.37414389550204002 0.36898578533419818 0 0.37228166628853332 0.35471301169251829 0 0.3809821990389497 0.35490418517770578 0 0.39056259575344082 0.36548629952090861 0 0.40181680918128981 0.35947395412181382 0 0.40101385701800268 0.38518895784325291 0 0.39056259575344082 0.36548629952090861 0 0.40181680918128981 0.35947395412181382 0 0.39209274976778918 0.34814598654190299 0 0.40869055031553031 0.33881917925707022 0 0.40181680918128981 0.35947395412181382 0 0.39209274976778918 0.34814598654190299 0 0.40101385701800268 0.38518895784325291 0 0.38530342098431941 0.41064856824057122 0 0.40101385701800268 0.38518895784325291 0 0.38530342098431941 0.41064856824057122 0 0.41521715527738928 0.40390661881175682 0 0.3736470799201031 0.39378130610698531 0 0.37414389550204002 0.36898578533419818 0 0.40101385701800268 0.38518895784325291 0 0.3736470799201031 0.39378130610698531 0 0.40101385701800268 0.38518895784325291 0 0.38530342098431941 0.41064856824057122 0 0.36959298495063608 0.43610817863788948 0 0.38530342098431941 0.41064856824057122 0 0.36959298495063608 0.43610817863788948 0 0.38530342098431941 0.41064856824057122 0 0.3889231515195431 0.43141286456833011 0 0.3889231515195431 0.43141286456833011 0 0.40362265567455102 0.42304679086704539 0 0.39942544658573009 0.43872588670818857 0 0.40362265567455102 0.42304679086704539 0 0.41248490446316177 0.43293377153942381 0 0.39942544658573009 0.43872588670818857 0 0.38530342098431941 0.41064856824057122 0 0.3889231515195431 0.43141286456833011 0 0.40362265567455102 0.42304679086704539 0 0.38530342098431941 0.41064856824057122 0 0.40362265567455102 0.42304679086704539 0 0.41521715527738928 0.40390661881175682 0 0.40362265567455102 0.42304679086704539 0 0.42233359500988371 0.42307221464191669 0 0.41521715527738928 0.40390661881175682 0 0.40362265567455102 0.42304679086704539 0 0.41248490446316177 0.43293377153942381 0 0.42233359500988371 0.42307221464191669 0 0.41248490446316177 0.43293377153942381 0 0.42233359500988371 0.42307221464191669 0 0.42326813014219627 0.43909650749986368 0 0.42233359500988371 0.42307221464191669 0 0.43681876433844857 0.43497208046478802 0 0.42326813014219627 0.43909650749986368 0 0.42233359500988371 0.42307221464191669 0 0.43681876433844857 0.43497208046478802 0 0.43655617137350622 0.42038510460191503 0 0.42233359500988371 0.42307221464191669 0 0.42830887421762198 0.41018013153495869 0 0.41521715527738928 0.40390661881175682 0 0.42233359500988371 0.42307221464191669 0 0.42830887421762198 0.41018013153495869 0 0.43655617137350622 0.42038510460191503 0 0.42830887421762198 0.41018013153495869 0 0.43655617137350622 0.42038510460191503 0 0.439625884597032 0.40642404903869822 0 0.42978568865087441 0.39901034440009059 0 0.42344095457037051 0.38268701701273461 0 0.4433226365022459 0.39280274251209668 0 0.42978568865087441 0.39901034440009059 0 0.41521715527738928 0.40390661881175682 0 0.42344095457037051 0.38268701701273461 0 0.42830887421762198 0.41018013153495869 0 0.42978568865087441 0.39901034440009059 0 0.439625884597032 0.40642404903869822 0 0.42830887421762198 0.41018013153495869 0 0.42978568865087441 0.39901034440009059 0 0.41521715527738928 0.40390661881175682 0 0.4167242930516859 0.35972934744593471 0 0.40101385701800268 0.38518895784325291 0 0.42344095457037051 0.38268701701273461 0 0.40101385701800268 0.38518895784325291 0 0.41521715527738928 0.40390661881175682 0 0.42344095457037051 0.38268701701273461 0 0.43815350284422228 0.36591948582569622 0 0.42344095457037051 0.38268701701273461 0 0.4433226365022459 0.39280274251209668 0 0.43815350284422228 0.36591948582569622 0 0.4433226365022459 0.39280274251209668 0 0.43815350284422228 0.36591948582569622 0 0.4433226365022459 0.39280274251209668 0 0.45848938469160699 0.38276388730883248 0 0.4433226365022459 0.39280274251209668 0 0.4587292321942566 0.40377894109977869 0 0.44849177016026981 0.41968599919849731 0 0.4433226365022459 0.39280274251209668 0 0.44849177016026981 0.41968599919849731 0 0.42978568865087441 0.39901034440009059 0 0.4433226365022459 0.39280274251209668 0 0.439625884597032 0.40642404903869822 0 0.4433226365022459 0.39280274251209668 0 0.4587292321942566 0.40377894109977869 0 0.45848938469160699 0.38276388730883248 0 0.4587292321942566 0.40377894109977869 0 0.45848938469160699 0.38276388730883248 0 0.47720201034463561 0.39055994944820821 0 0.46972057754862501 0.36630584452178799 0 0.45848938469160699 0.38276388730883248 0 0.47720201034463561 0.39055994944820821 0 0.46972057754862501 0.36630584452178799 0 0.47720201034463561 0.39055994944820821 0 0.5 0.37670548581833618 0 0.47720201034463561 0.39055994944820821 0 0.5 0.40420347785375749 0 0.47329291580914951 0.41490179660840648 0 0.4587292321942566 0.40377894109977869 0 0.47720201034463561 0.39055994944820821 0 0.47329291580914951 0.41490179660840648 0 0.47720201034463561 0.39055994944820821 0 0.5 0.40420347785375749 0 0.5 0.37670548581833618 0 0.48546521128148462 0.42572005307568972 0 0.49999999999999828 0.43170146988917901 0 0.48502495584706629 0.44181750450007778 0 0.49999999999999828 0.43170146988917901 0 0.48502495584706629 0.44181750450007778 0 0.5 0.40420347785375749 0 0.48546521128148462 0.42572005307568972 0 0.47329291580914951 0.41490179660840648 0 0.5 0.40420347785375749 0 0.48546521128148462 0.42572005307568972 0 0.49999999999999828 0.43170146988917901 0 0.48546521128148462 0.42572005307568972 0 0.47462076711180717 0.43403653248997731 0 0.48502495584706629 0.44181750450007778 0 0.47329291580914951 0.41490179660840648 0 0.47462076711180717 0.43403653248997731 0 0.45927084092720188 0.43580976915473651 0 0.48546521128148462 0.42572005307568972 0 0.47329291580914951 0.41490179660840648 0 0.47462076711180717 0.43403653248997731 0 0.45927084092720188 0.43580976915473651 0 0.44849177016026981 0.41968599919849731 0 0.47329291580914951 0.41490179660840648 0 0.45927084092720188 0.43580976915473651 0 0.44849177016026981 0.41968599919849731 0 0.45927084092720188 0.43580976915473651 0 0.44849177016026981 0.41968599919849731 0 0.45165089640657707 0.43611575462809582 0 0.4587292321942566 0.40377894109977869 0 0.47329291580914951 0.41490179660840648 0 0.44849177016026981 0.41968599919849731 0 0.4433226365022459 0.39280274251209668 0 0.44849177016026981 0.41968599919849731 0 0.439625884597032 0.40642404903869822 0 0.43655617137350622 0.42038510460191503 0 0.44849177016026981 0.41968599919849731 0 0.439625884597032 0.40642404903869822 0 0.44849177016026981 0.41968599919849731 0 0.439625884597032 0.40642404903869822 0 0.44849177016026981 0.41968599919849731 0 0.45165089640657707 0.43611575462809582 0 0.44386952542921521 0.4295111469185629 0 0.44849177016026981 0.41968599919849731 0 0.45165089640657707 0.43611575462809582 0 0.45165089640657707 0.43611575462809582 0 0.44386952542921521 0.4295111469185629 0 0.44519082659473158 0.43782150968735878 0 0.43655617137350622 0.42038510460191503 0 0.44849177016026981 0.41968599919849731 0 0.44386952542921521 0.4295111469185629 0 0.43681876433844857 0.43497208046478802 0 0.43655617137350622 0.42038510460191503 0 0.44386952542921521 0.4295111469185629 0 0.43681876433844857 0.43497208046478802 0 0.44386952542921521 0.4295111469185629 0 0.44519082659473158 0.43782150968735878 0 0.43681876433844857 0.43497208046478802 0 0.44519082659473158 0.43782150968735878 0 0.44362096681603608 0.44566090358066651 0 0.43681876433844857 0.43497208046478802 0 0.44362096681603608 0.44566090358066651 0 0.43343701099378978 0.44857281610427868 0 0.44362096681603608 0.44566090358066651 0 0.44110505044236059 0.45564825146568327 0 0.43343701099378978 0.44857281610427868 0 0.44362096681603608 0.44566090358066651 0 0.45255374853073171 0.45216262504332899 0 0.45221828903371142 0.44335246171580328 0 0.44362096681603608 0.44566090358066651 0 0.45255374853073171 0.45216262504332899 0 0.44110505044236059 0.45564825146568327 0 0.44519082659473158 0.43782150968735878 0 0.44362096681603608 0.44566090358066651 0 0.45221828903371142 0.44335246171580328 0 0.45165089640657707 0.43611575462809582 0 0.44519082659473158 0.43782150968735878 0 0.45221828903371142 0.44335246171580328 0 0.45255374853073171 0.45216262504332899 0 0.44518446721829791 0.46873079822848901 0 0.44110505044236059 0.45564825146568327 0 0.44518446721829791 0.46873079822848901 0 0.44110505044236059 0.45564825146568327 0 0.43072905865294731 0.46311411437165317 0 0.47284597636140308 0.45611600571247141 0 0.46302896313844299 0.47272331085799019 0 0.45255374853073171 0.45216262504332899 0 0.44518446721829791 0.46873079822848901 0 0.47004991169413368 0.45193353911097589 0 0.47004991169413368 0.45193353911097589 0 0.47284597636140308 0.45611600571247141 0 0.46302896313844299 0.47272331085799019 0 0.44518446721829791 0.46873079822848901 0 0.47004991169413368 0.45193353911097589 0 0.46302896313844299 0.47272331085799019 0 0.44518446721829791 0.46873079822848901 0 0.47004991169413368 0.45193353911097589 0 0.45927084092720188 0.43580976915473651 0 0.47004991169413368 0.45193353911097589 0 0.45927084092720188 0.43580976915473651 0 0.45930684530103161 0.44617181272829648 0 0.47004991169413368 0.45193353911097589 0 0.47462076711180717 0.43403653248997731 0 0.45927084092720188 0.43580976915473651 0 0.47004991169413368 0.45193353911097589 0 0.45255374853073171 0.45216262504332899 0 0.45930684530103161 0.44617181272829648 0 0.47004991169413368 0.45193353911097589 0 0.45927084092720188 0.43580976915473651 0 0.45221828903371142 0.44335246171580328 0 0.45930684530103161 0.44617181272829648 0 0.45927084092720188 0.43580976915473651 0 0.45165089640657707 0.43611575462809582 0 0.45221828903371142 0.44335246171580328 0 0.45255374853073171 0.45216262504332899 0 0.45221828903371142 0.44335246171580328 0 0.45930684530103161 0.44617181272829648 0 0.47462076711180717 0.43403653248997731 0 0.47004991169413368 0.45193353911097589 0 0.48502495584706629 0.44181750450007778 0 0.48189680466807888 0.45106209462173341 0 0.47450081081676521 0.45331654521044668 0 0.48502495584706629 0.44181750450007778 0 0.47004991169413368 0.45193353911097589 0 0.48502495584706629 0.44181750450007778 0 0.47004991169413368 0.45193353911097589 0 0.47450081081676521 0.45331654521044668 0 0.48502495584706629 0.44181750450007778 0 0.47284597636140308 0.45611600571247141 0 0.48050552008400071 0.46757346096286262 0 0.46302896313844299 0.47272331085799019 0 0.47004991169413368 0.45193353911097589 0 0.47284597636140308 0.45611600571247141 0 0.47004991169413368 0.45193353911097589 0 0.47450081081676521 0.45331654521044668 0 0.47284597636140308 0.45611600571247141 0 0.47450081081676521 0.45331654521044668 0 0.47284597636140308 0.45611600571247141 0 0.47951191807974908 0.45654698881850991 0 0.47450081081676521 0.45331654521044668 0 0.47284597636140308 0.45611600571247141 0 0.47284597636140308 0.45611600571247141 0 0.48050552008400071 0.46757346096286262 0 0.47284597636140308 0.45611600571247141 0 0.48050552008400071 0.46757346096286262 0 0.47951191807974908 0.45654698881850991 0 0.48189680466807888 0.45106209462173341 0 0.47951191807974908 0.45654698881850991 0 0.4878104784684959 0.4546668375850359 0 0.48050552008400071 0.46757346096286262 0 0.47951191807974908 0.45654698881850991 0 0.4878104784684959 0.4546668375850359 0 0.48189680466807888 0.45106209462173341 0 0.47450081081676521 0.45331654521044668 0 0.47951191807974908 0.45654698881850991 0 0.48050552008400071 0.46757346096286262 0 0.4878104784684959 0.4546668375850359 0 0.49999999999999928 0.46182898591187349 0 0.48050552008400071 0.46757346096286262 0 0.49999999999999928 0.46182898591187349 0 0.49999999999999828 0.43170146988917901 0 0.4878104784684959 0.4546668375850359 0 0.49999999999999928 0.46182898591187349 0 0.49999999999999828 0.43170146988917901 0 0.4878104784684959 0.4546668375850359 0 0.48502495584706629 0.44181750450007778 0 0.48189680466807888 0.45106209462173341 0 0.4878104784684959 0.4546668375850359 0 0.48502495584706629 0.44181750450007778 0 0.49999999999999928 0.46182898591187349 0 0.5 0.5 0 0.49753071700976492 0.4930404390193398 0 0.5 0.5 0 0.47501141284236448 0.48698608464618232 0 0.44690499747156931 0.4999999999999995 0 0.5 0.5 0 0.49753071700976492 0.4930404390193398 0 0.47501141284236448 0.48698608464618232 0 0.49753071700976492 0.4930404390193398 0 0.48901811854688337 0.4803069499911008 0 0.47501141284236448 0.48698608464618232 0 0.49753071700976492 0.4930404390193398 0 0.48901811854688337 0.4803069499911008 0 0.48050552008400071 0.46757346096286262 0 0.49999999999999928 0.46182898591187349 0 0.48901811854688337 0.4803069499911008 0 0.49999999999999928 0.46182898591187349 0 0.49753071700976492 0.4930404390193398 0 0.48901811854688337 0.4803069499911008 0 0.48050552008400071 0.46757346096286262 0 0.48901811854688337 0.4803069499911008 0 0.48050552008400071 0.46757346096286262 0 0.46302896313844299 0.47272331085799019 0 0.48901811854688337 0.4803069499911008 0 0.47689100365292297 0.47689745161453417 0 0.47501141284236448 0.48698608464618232 0 0.48050552008400071 0.46757346096286262 0 0.47689100365292297 0.47689745161453417 0 0.46302896313844299 0.47272331085799019 0 0.48050552008400071 0.46757346096286262 0 0.48901811854688337 0.4803069499911008 0 0.47689100365292297 0.47689745161453417 0 0.47689100365292297 0.47689745161453417 0 0.47501141284236448 0.48698608464618232 0 0.46302896313844299 0.47272331085799019 0 0.47501141284236448 0.48698608464618232 0 0.45496698030500621 0.48636165542899479 0 0.44690499747156931 0.4999999999999995 0 0.47501141284236448 0.48698608464618232 0 0.45496698030500621 0.48636165542899479 0 0.46302896313844299 0.47272331085799019 0 0.45496698030500621 0.48636165542899479 0 0.46302896313844299 0.47272331085799019 0 0.46302896313844299 0.47272331085799019 0 0.43620850627812668 0.48062654530969717 0 0.44518446721829791 0.46873079822848901 0 0.46302896313844299 0.47272331085799019 0 0.43620850627812668 0.48062654530969717 0 0.45496698030500621 0.48636165542899479 0 0.46302896313844299 0.47272331085799019 0 0.43620850627812668 0.48062654530969717 0 0.45496698030500621 0.48636165542899479 0 0.44690499747156931 0.4999999999999995 0 0.43620850627812668 0.48062654530969717 0 0.45496698030500621 0.48636165542899479 0 0.44690499747156931 0.4999999999999995 0 0.42031902274246069 0.48552805734600057 0 0.41743852268843429 0.5 0 0.43620850627812668 0.48062654530969717 0 0.44690499747156931 0.4999999999999995 0 0.41743852268843429 0.5 0 0.43620850627812668 0.48062654530969717 0 0.42031902274246069 0.48552805734600057 0 0.41743852268843429 0.5 0 0.40134209412993838 0.48520307466421098 0 0.42031902274246069 0.48552805734600057 0 0.40973563488985532 0.47579104778557152 0 0.40134209412993838 0.48520307466421098 0 0.42031902274246069 0.48552805734600057 0 0.40973563488985532 0.47579104778557152 0 0.41789473538963601 0.46705380048502582 0 0.44518446721829791 0.46873079822848901 0 0.42031902274246069 0.48552805734600057 0 0.43072905865294731 0.46311411437165317 0 0.44518446721829791 0.46873079822848901 0 0.42031902274246069 0.48552805734600057 0 0.43620850627812668 0.48062654530969717 0 0.44518446721829791 0.46873079822848901 0 0.42031902274246069 0.48552805734600057 0 0.42031902274246069 0.48552805734600057 0 0.43072905865294731 0.46311411437165317 0 0.41789473538963601 0.46705380048502582 0 0.44110505044236059 0.45564825146568327 0 0.43072905865294731 0.46311411437165317 0 0.43343701099378978 0.44857281610427868 0 0.43072905865294731 0.46311411437165317 0 0.43343701099378978 0.44857281610427868 0 0.42053980660522761 0.45341513910658388 0 0.43072905865294731 0.46311411437165317 0 0.41789473538963601 0.46705380048502582 0 0.42053980660522761 0.45341513910658388 0 0.43681876433844857 0.43497208046478802 0 0.43343701099378978 0.44857281610427868 0 0.42326813014219627 0.43909650749986368 0 0.43343701099378978 0.44857281610427868 0 0.42326813014219627 0.43909650749986368 0 0.42053980660522761 0.45341513910658388 0 0.41248490446316177 0.43293377153942381 0 0.42326813014219627 0.43909650749986368 0 0.41215324011006321 0.44426916471351768 0 0.42326813014219627 0.43909650749986368 0 0.41215324011006321 0.44426916471351768 0 0.42053980660522761 0.45341513910658388 0 0.41215324011006321 0.44426916471351768 0 0.42053980660522761 0.45341513910658388 0 0.40575666434273311 0.45838443146516472 0 0.41248490446316177 0.43293377153942381 0 0.41215324011006321 0.44426916471351768 0 0.39942544658573009 0.43872588670818857 0 0.40973563488985532 0.47579104778557152 0 0.41789473538963601 0.46705380048502582 0 0.40575666434273311 0.45838443146516472 0 0.41789473538963601 0.46705380048502582 0 0.42053980660522761 0.45341513910658388 0 0.40575666434273311 0.45838443146516472 0 0.40973563488985532 0.47579104778557152 0 0.40575666434273311 0.45838443146516472 0 0.39457326129307041 0.46924519202038539 0 0.40575666434273311 0.45838443146516472 0 0.38748492612950952 0.44892285829301931 0 0.39457326129307041 0.46924519202038539 0 0.40575666434273311 0.45838443146516472 0 0.39942544658573009 0.43872588670818857 0 0.38748492612950952 0.44892285829301931 0 0.3889231515195431 0.43141286456833011 0 0.39942544658573009 0.43872588670818857 0 0.38748492612950952 0.44892285829301931 0 0.41215324011006321 0.44426916471351768 0 0.40575666434273311 0.45838443146516472 0 0.39942544658573009 0.43872588670818857 0 0.36980735363827261 0.46050290225189661 0 0.36959298495063608 0.43610817863788948 0 0.38748492612950952 0.44892285829301931 0 0.36959298495063608 0.43610817863788948 0 0.3889231515195431 0.43141286456833011 0 0.38748492612950952 0.44892285829301931 0 0.36980735363827261 0.46050290225189661 0 0.38748492612950952 0.44892285829301931 0 0.39457326129307041 0.46924519202038539 0 0.36980735363827261 0.46050290225189661 0 0.37801407526051067 0.48065415083330842 0 0.39457326129307041 0.46924519202038539 0 0.37801407526051067 0.48065415083330842 0 0.38797204790529932 0.5 0 0.40134209412993838 0.48520307466421098 0 0.41743852268843429 0.5 0 0.38797204790529932 0.5 0 0.40134209412993838 0.48520307466421098 0 0.40973563488985532 0.47579104778557152 0 0.40134209412993838 0.48520307466421098 0 0.39457326129307041 0.46924519202038539 0 0.37801407526051067 0.48065415083330842 0 0.40134209412993838 0.48520307466421098 0 0.39457326129307041 0.46924519202038539 0 0.33471388977496319 0.083869725553476451 0 0.32003772732572838 0.080925826065863432 0 0.34163206045391592 0.099703108374672819 0 0.32003772732572838 0.080925826065863432 0 0.34163206045391592 0.099703108374672819 0 0.33471388977496319 0.083869725553476451 0 0.34163206045391592 0.099703108374672819 0 0.35085433501378249 0.086695181415402722 0 0.33471388977496319 0.083869725553476451 0 0.34209731100959018 0.06531632876058778 0 0.3490795063897344 0.076610282135673974 0 0.33471388977496319 0.083869725553476451 0 0.34209731100959018 0.06531632876058778 0 0.32721969837032222 0.069259436753723466 0 0.33471388977496319 0.083869725553476451 0 0.32721969837032222 0.069259436753723466 0 0.32003772732572838 0.080925826065863432 0 0.31518448171420999 0.065085558788002928 0 0.32721969837032222 0.069259436753723466 0 0.32003772732572838 0.080925826065863432 0 0.32003772732572838 0.080925826065863432 0 0.31657863646219547 0.093324099257994786 0 0.34163206045391592 0.099703108374672819 0 0.32003772732572838 0.080925826065863432 0 0.31657863646219547 0.093324099257994786 0 0.30227411453462139 0.089652133027170247 0 0.33471388977496319 0.083869725553476451 0 0.32003772732572838 0.080925826065863432 0 0.31657863646219547 0.093324099257994786 0 0.32025759602694659 0.1047776340902011 0 0.34163206045391592 0.099703108374672819 0 0.31657863646219547 0.093324099257994786 0 0.32025759602694659 0.1047776340902011 0 0.30640852481201453 0.1024735992044304 0 0.32025759602694659 0.1047776340902011 0 0.31114536757858358 0.11742006929579971 0 0.30640852481201453 0.1024735992044304 0 0.32606950933900308 0.1158177097477945 0 0.31114536757858358 0.11742006929579971 0 0.3195478300457561 0.1332621056988223 0 0.32025759602694659 0.1047776340902011 0 0.32606950933900308 0.1158177097477945 0 0.31114536757858358 0.11742006929579971 0 0.33761965874988609 0.1186889285033586 0 0.34163206045391592 0.099703108374672819 0 0.34956654336434939 0.1234914401014125 0 0.32606950933900308 0.1158177097477945 0 0.33761965874988609 0.1186889285033586 0 0.34163206045391592 0.099703108374672819 0 0.32606950933900308 0.1158177097477945 0 0.33761965874988609 0.1186889285033586 0 0.33436770153514289 0.13112975471366969 0 0.33761965874988609 0.1186889285033586 0 0.34956654336434939 0.1234914401014125 0 0.33436770153514289 0.13112975471366969 0 0.32025759602694659 0.1047776340902011 0 0.32606950933900308 0.1158177097477945 0 0.34163206045391592 0.099703108374672819 0 0.34163206045391592 0.099703108374672819 0 0.35755874922647762 0.098360434014750309 0 0.36322639358210312 0.11848039068348271 0 0.34163206045391592 0.099703108374672819 0 0.36322639358210312 0.11848039068348271 0 0.34163206045391592 0.099703108374672819 0 0.35755874922647762 0.098360434014750309 0 0.35085433501378249 0.086695181415402722 0 0.34163206045391592 0.099703108374672819 0 0.34956654336434939 0.1234914401014125 0 0.36322639358210312 0.11848039068348271 0 0.36322639358210312 0.11848039068348271 0 0.37045299287494049 0.09679375479102828 0 0.38005682511468147 0.12140739343396729 0 0.35755874922647762 0.098360434014750309 0 0.36322639358210312 0.11848039068348271 0 0.37045299287494049 0.09679375479102828 0 0.35755874922647762 0.098360434014750309 0 0.37045299287494049 0.09679375479102828 0 0.35979627253246887 0.087956112087811941 0 0.37045299287494049 0.09679375479102828 0 0.36986657419494789 0.075759843690150083 0 0.37682589963749002 0.081332762740894418 0 0.37045299287494049 0.09679375479102828 0 0.35979627253246887 0.087956112087811941 0 0.36084916063519962 0.072180116148089279 0 0.37045299287494049 0.09679375479102828 0 0.36084916063519962 0.072180116148089279 0 0.36986657419494789 0.075759843690150083 0 0.37045299287494049 0.09679375479102828 0 0.36084916063519962 0.072180116148089279 0 0.35755874922647762 0.098360434014750309 0 0.35979627253246887 0.087956112087811941 0 0.35085433501378249 0.086695181415402722 0 0.35979627253246887 0.087956112087811941 0 0.35560274156159061 0.081403828627082772 0 0.36084916063519962 0.072180116148089279 0 0.33471388977496319 0.083869725553476451 0 0.35085433501378249 0.086695181415402722 0 0.3490795063897344 0.076610282135673974 0 0.35979627253246887 0.087956112087811941 0 0.35560274156159061 0.081403828627082772 0 0.35085433501378249 0.086695181415402722 0 0.35560274156159061 0.081403828627082772 0 0.35085433501378249 0.086695181415402722 0 0.3490795063897344 0.076610282135673974 0 0.34209731100959018 0.06531632876058778 0 0.3490795063897344 0.076610282135673974 0 0.36084916063519962 0.072180116148089279 0 0.36448270712015302 0.068442951443566186 0 0.36084916063519962 0.072180116148089279 0 0.35124532839545858 0.047566477505150237 0 0.35560274156159061 0.081403828627082772 0 0.3490795063897344 0.076610282135673974 0 0.36084916063519962 0.072180116148089279 0 0.36448270712015302 0.068442951443566186 0 0.36084916063519962 0.072180116148089279 0 0.36986657419494789 0.075759843690150083 0 0.36986657419494789 0.075759843690150083 0 0.37596532967213542 0.069868995675824025 0 0.37682589963749002 0.081332762740894418 0 0.36448270712015302 0.068442951443566186 0 0.36986657419494789 0.075759843690150083 0 0.37084641292541748 0.06878424193773866 0 0.36986657419494789 0.075759843690150083 0 0.37084641292541748 0.06878424193773866 0 0.37596532967213542 0.069868995675824025 0 0.36448270712015302 0.068442951443566186 0 0.37084641292541748 0.06878424193773866 0 0.37307104071443398 0.061065176941414383 0 0.37084641292541748 0.06878424193773866 0 0.37307104071443398 0.061065176941414383 0 0.37596532967213542 0.069868995675824025 0 0.36448270712015302 0.068442951443566186 0 0.37307104071443398 0.061065176941414383 0 0.37146335928247548 0.04052602251159599 0 0.36448270712015302 0.068442951443566186 0 0.37146335928247548 0.04052602251159599 0 0.35124532839545858 0.047566477505150237 0 0.36448270712015302 0.068442951443566186 0 0.37146335928247548 0.04052602251159599 0 0.37146335928247548 0.04052602251159599 0 0.35572529983931911 0.032753521421585163 0 0.36312657459820519 0.022962182453169309 0 0.37146335928247548 0.04052602251159599 0 0.35572529983931911 0.032753521421585163 0 0.35124532839545858 0.047566477505150237 0 0.35572529983931911 0.032753521421585163 0 0.35124532839545858 0.047566477505150237 0 0.3321968515854315 0.028027004478648001 0 0.36084916063519962 0.072180116148089279 0 0.35124532839545858 0.047566477505150237 0 0.34209731100959018 0.06531632876058778 0 0.36084916063519962 0.072180116148089279 0 0.35124532839545858 0.047566477505150237 0 0.36312657459820519 0.022962182453169309 0 0.35936362748920009 0.0091271431172253586 0 0.37844401144479839 0.012609093579625891 0 0.35936362748920009 0.0091271431172253586 0 0.37844401144479839 0.012609093579625891 0 0.36665723294200347 -0.001883505129568449 0 0.35936362748920009 0.0091271431172253586 0 0.36665723294200347 -0.001883505129568449 0 0.35531676971978082 -0.0033532784323768001 0 0.37146335928247548 0.04052602251159599 0 0.36312657459820519 0.022962182453169309 0 0.37844401144479839 0.012609093579625891 0 0.37146335928247548 0.04052602251159599 0 0.37844401144479839 0.012609093579625891 0 0.35572529983931911 0.032753521421585163 0 0.35063657493523293 0.0197951316358141 0 0.3321968515854315 0.028027004478648001 0 0.35572529983931911 0.032753521421585163 0 0.36312657459820519 0.022962182453169309 0 0.35063657493523293 0.0197951316358141 0 0.36312657459820519 0.022962182453169309 0 0.35063657493523293 0.0197951316358141 0 0.35936362748920009 0.0091271431172253586 0 0.35936362748920009 0.0091271431172253586 0 0.33689267375143878 0.0039255003288513873 0 0.35531676971978082 -0.0033532784323768001 0 0.35063657493523293 0.0197951316358141 0 0.35936362748920009 0.0091271431172253586 0 0.33689267375143878 0.0039255003288513873 0 0.33689267375143878 0.0039255003288513873 0 0.3321968515854315 0.028027004478648001 0 0.30352242257352219 0.0039185454548519476 0 0.35063657493523293 0.0197951316358141 0 0.33689267375143878 0.0039255003288513873 0 0.3321968515854315 0.028027004478648001 0 0.3321968515854315 0.028027004478648001 0 0.32406508202711942 0.05109974460068676 0 0.30086563814790429 0.035038583275740692 0 0.34209731100959018 0.06531632876058778 0 0.32721969837032222 0.069259436753723466 0 0.32406508202711942 0.05109974460068676 0 0.34209731100959018 0.06531632876058778 0 0.35124532839545858 0.047566477505150237 0 0.32406508202711942 0.05109974460068676 0 0.35124532839545858 0.047566477505150237 0 0.3321968515854315 0.028027004478648001 0 0.32406508202711942 0.05109974460068676 0 0.31518448171420999 0.065085558788002928 0 0.32721969837032222 0.069259436753723466 0 0.32406508202711942 0.05109974460068676 0 0.31518448171420999 0.065085558788002928 0 0.32406508202711942 0.05109974460068676 0 0.29882370077581188 0.062479238108283437 0 0.32406508202711942 0.05109974460068676 0 0.29882370077581188 0.062479238108283437 0 0.30086563814790429 0.035038583275740692 0 0.32406508202711942 0.05109974460068676 0 0.30086563814790429 0.035038583275740692 0 0.30086563814790429 0.035038583275740692 0 0.28350496565293731 0.043820562147367653 0 0.27766619426868899 0.018977421950794569 0 0.29882370077581188 0.062479238108283437 0 0.30086563814790429 0.035038583275740692 0 0.28350496565293731 0.043820562147367653 0 0.29882370077581188 0.062479238108283437 0 0.28350496565293731 0.043820562147367653 0 0.28339325744793759 0.061338593161917712 0 0.3321968515854315 0.028027004478648001 0 0.30086563814790429 0.035038583275740692 0 0.30352242257352219 0.0039185454548519476 0 0.30086563814790429 0.035038583275740692 0 0.27766619426868899 0.018977421950794569 0 0.30086563814790429 0.035038583275740692 0 0.30352242257352219 0.0039185454548519476 0 0.27766619426868899 0.018977421950794569 0 0.30352242257352219 0.0039185454548519476 0 0.27766619426868899 0.018977421950794569 0 0.27708695819087842 -0.0025378708656911609 0 0.27766619426868899 0.018977421950794569 0 0.25446675038947358 0.0029162606258486688 0 0.27766619426868899 0.018977421950794569 0 0.26047117107291767 -0.0019720443344692288 0 0.27708695819087842 -0.0025378708656911609 0 0.27766619426868899 0.018977421950794569 0 0.2600935707136679 0.019574361616358959 0 0.26464981823601458 0.038183209123269009 0 0.2600935707136679 0.019574361616358959 0 0.26464981823601458 0.038183209123269009 0 0.25044211127373811 0.032849993626191502 0 0.27766619426868899 0.018977421950794569 0 0.2600935707136679 0.019574361616358959 0 0.25446675038947358 0.0029162606258486688 0 0.27766619426868899 0.018977421950794569 0 0.25446675038947358 0.0029162606258486688 0 0.26047117107291767 -0.0019720443344692288 0 0.25446675038947358 0.0029162606258486688 0 0.26047117107291767 -0.0019720443344692288 0 0.28339325744793759 0.061338593161917712 0 0.2699795556074106 0.054659435659755229 0 0.26514968559830832 0.069915803624621298 0 0.28350496565293731 0.043820562147367653 0 0.28339325744793759 0.061338593161917712 0 0.2699795556074106 0.054659435659755229 0 0.28350496565293731 0.043820562147367653 0 0.27766619426868899 0.018977421950794569 0 0.26464981823601458 0.038183209123269009 0 0.28350496565293731 0.043820562147367653 0 0.2699795556074106 0.054659435659755229 0 0.26464981823601458 0.038183209123269009 0 0.26464981823601458 0.038183209123269009 0 0.25174039047255609 0.044464402284776217 0 0.2585751734657834 0.052327775232976027 0 0.26464981823601458 0.038183209123269009 0 0.25044211127373811 0.032849993626191502 0 0.25174039047255609 0.044464402284776217 0 0.25174039047255609 0.044464402284776217 0 0.25102243244437311 0.053297338652025752 0 0.2585751734657834 0.052327775232976027 0 0.2699795556074106 0.054659435659755229 0 0.26464981823601458 0.038183209123269009 0 0.2585751734657834 0.052327775232976027 0 0.2699795556074106 0.054659435659755229 0 0.2585751734657834 0.052327775232976027 0 0.26000268679747079 0.061003988239662958 0 0.2699795556074106 0.054659435659755229 0 0.26000268679747079 0.061003988239662958 0 0.26514968559830832 0.069915803624621298 0 0.2585751734657834 0.052327775232976027 0 0.26000268679747079 0.061003988239662958 0 0.2530174900015254 0.0600809219264858 0 0.25102243244437311 0.053297338652025752 0 0.2585751734657834 0.052327775232976027 0 0.2530174900015254 0.0600809219264858 0 0.24751669685985911 0.059618880130872708 0 0.25102243244437311 0.053297338652025752 0 0.2530174900015254 0.0600809219264858 0 0.24853219730195361 0.063845178725116872 0 0.2530174900015254 0.0600809219264858 0 0.25274476311700622 0.067427493409812952 0 0.2530174900015254 0.0600809219264858 0 0.25274476311700622 0.067427493409812952 0 0.26000268679747079 0.061003988239662958 0 0.2530174900015254 0.0600809219264858 0 0.25274476311700622 0.067427493409812952 0 0.25274476311700622 0.067427493409812952 0 0.25243039498113262 0.075895774732197205 0 0.24842415088314279 0.069033451464499671 0 0.25274476311700622 0.067427493409812952 0 0.25243039498113262 0.075895774732197205 0 0.25274476311700622 0.067427493409812952 0 0.25243039498113262 0.075895774732197205 0 0.26514968559830832 0.069915803624621298 0 0.25243039498113262 0.075895774732197205 0 0.26514968559830832 0.069915803624621298 0 0.26417250328098718 0.085299079350852347 0 0.25243039498113262 0.075895774732197205 0 0.26514968559830832 0.069915803624621298 0 0.26000268679747079 0.061003988239662958 0 0.25274476311700622 0.067427493409812952 0 0.26514968559830832 0.069915803624621298 0 0.25274476311700622 0.067427493409812952 0 0.26514968559830832 0.069915803624621298 0 0.25243039498113262 0.075895774732197205 0 0.26417250328098718 0.085299079350852347 0 0.25158482098595109 0.098673396421397969 0 0.25243039498113262 0.075895774732197205 0 0.25158482098595109 0.098673396421397969 0 0.26417250328098718 0.085299079350852347 0 0.27563544099652842 0.091217529053328833 0 0.26597619666038957 0.098681263799979324 0 0.26417250328098718 0.085299079350852347 0 0.27658940398852799 0.081360569412953818 0 0.27563544099652842 0.091217529053328833 0 0.26514968559830832 0.069915803624621298 0 0.26417250328098718 0.085299079350852347 0 0.27658940398852799 0.081360569412953818 0 0.27658940398852799 0.081360569412953818 0 0.27563544099652842 0.091217529053328833 0 0.28742128170162778 0.087331448045782731 0 0.28339325744793759 0.061338593161917712 0 0.26514968559830832 0.069915803624621298 0 0.29259370646201821 0.075420814845242989 0 0.26514968559830832 0.069915803624621298 0 0.27658940398852799 0.081360569412953818 0 0.29259370646201821 0.075420814845242989 0 0.28339325744793759 0.061338593161917712 0 0.26514968559830832 0.069915803624621298 0 0.26514968559830832 0.069915803624621298 0 0.29259370646201821 0.075420814845242989 0 0.29882370077581188 0.062479238108283437 0 0.28339325744793759 0.061338593161917712 0 0.29259370646201821 0.075420814845242989 0 0.27658940398852799 0.081360569412953818 0 0.29259370646201821 0.075420814845242989 0 0.28742128170162778 0.087331448045782731 0 0.27563544099652842 0.091217529053328833 0 0.28742128170162778 0.087331448045782731 0 0.29001374252644291 0.099006193890217781 0 0.28742128170162778 0.087331448045782731 0 0.30227411453462139 0.089652133027170247 0 0.29001374252644291 0.099006193890217781 0 0.29259370646201821 0.075420814845242989 0 0.28742128170162778 0.087331448045782731 0 0.30227411453462139 0.089652133027170247 0 0.32003772732572838 0.080925826065863432 0 0.29259370646201821 0.075420814845242989 0 0.30227411453462139 0.089652133027170247 0 0.32003772732572838 0.080925826065863432 0 0.29259370646201821 0.075420814845242989 0 0.32003772732572838 0.080925826065863432 0 0.29882370077581188 0.062479238108283437 0 0.29259370646201821 0.075420814845242989 0 0.32003772732572838 0.080925826065863432 0 0.29882370077581188 0.062479238108283437 0 0.31518448171420999 0.065085558788002928 0 0.32003772732572838 0.080925826065863432 0 0.29882370077581188 0.062479238108283437 0 0.29818169174329712 0.11066146566519899 0 0.31114536757858358 0.11742006929579971 0 0.294250496481684 0.12267566802032639 0 0.31114536757858358 0.11742006929579971 0 0.294250496481684 0.12267566802032639 0 0.30313841955192899 0.13260249050964579 0 0.29818169174329712 0.11066146566519899 0 0.31114536757858358 0.11742006929579971 0 0.30640852481201453 0.1024735992044304 0 0.30227411453462139 0.089652133027170247 0 0.30640852481201453 0.1024735992044304 0 0.29001374252644291 0.099006193890217781 0 0.29818169174329712 0.11066146566519899 0 0.30640852481201453 0.1024735992044304 0 0.29001374252644291 0.099006193890217781 0 0.31657863646219547 0.093324099257994786 0 0.30227411453462139 0.089652133027170247 0 0.30640852481201453 0.1024735992044304 0 0.29818169174329712 0.11066146566519899 0 0.29001374252644291 0.099006193890217781 0 0.28729541733308872 0.1128284558108848 0 0.29001374252644291 0.099006193890217781 0 0.28729541733308872 0.1128284558108848 0 0.27577858748266387 0.1072301355245756 0 0.29818169174329712 0.11066146566519899 0 0.28729541733308872 0.1128284558108848 0 0.294250496481684 0.12267566802032639 0 0.28729541733308872 0.1128284558108848 0 0.294250496481684 0.12267566802032639 0 0.28067449336876182 0.1220521091494646 0 0.28067449336876182 0.1220521091494646 0 0.26956705708048567 0.1198361090660386 0 0.27577858748266387 0.1072301355245756 0 0.28729541733308872 0.1128284558108848 0 0.28067449336876182 0.1220521091494646 0 0.27577858748266387 0.1072301355245756 0 0.26956705708048567 0.1198361090660386 0 0.27577858748266387 0.1072301355245756 0 0.26270963055581759 0.11098617864974181 0 0.27563544099652842 0.091217529053328833 0 0.27577858748266387 0.1072301355245756 0 0.26597619666038957 0.098681263799979324 0 0.27563544099652842 0.091217529053328833 0 0.29001374252644291 0.099006193890217781 0 0.27577858748266387 0.1072301355245756 0 0.27577858748266387 0.1072301355245756 0 0.26597619666038957 0.098681263799979324 0 0.26270963055581759 0.11098617864974181 0 0.25158482098595109 0.098673396421397969 0 0.25094552198087999 0.11589449234768209 0 0.25158482098595109 0.098673396421397969 0 0.26270963055581759 0.11098617864974181 0 0.25094552198087999 0.11589449234768209 0 0.26417250328098718 0.085299079350852347 0 0.26597619666038957 0.098681263799979324 0 0.25158482098595109 0.098673396421397969 0 0.26597619666038957 0.098681263799979324 0 0.25158482098595109 0.098673396421397969 0 0.26270963055581759 0.11098617864974181 0 0.25158482098595109 0.098673396421397969 0 0.26270963055581759 0.11098617864974181 0 0.25094552198087999 0.11589449234768209 0 0.25030622297580962 0.13311558827396619 0 0.26022612795132161 0.12333036834530881 0 0.25094552198087999 0.11589449234768209 0 0.25030622297580962 0.13311558827396619 0 0.26956705708048567 0.1198361090660386 0 0.26022612795132161 0.12333036834530881 0 0.26270963055581759 0.11098617864974181 0 0.26022612795132161 0.12333036834530881 0 0.26270963055581759 0.11098617864974181 0 0.25094552198087999 0.11589449234768209 0 0.26956705708048567 0.1198361090660386 0 0.26022612795132161 0.12333036834530881 0 0.26675796828336718 0.1380571931171293 0 0.26022612795132161 0.12333036834530881 0 0.25030622297580962 0.13311558827396619 0 0.26675796828336718 0.1380571931171293 0 0.25030622297580962 0.13311558827396619 0 0.26675796828336718 0.1380571931171293 0 0.25030622297580962 0.13311558827396619 0 0.26675796828336718 0.1380571931171293 0 0.25638724149227848 0.14295410589973731 0 0.25004344172447263 0.14019424959050239 0 0.25030622297580962 0.13311558827396619 0 0.25638724149227848 0.14295410589973731 0 0.25004344172447263 0.14019424959050239 0 0.25030622297580962 0.13311558827396619 0 0.26675796828336718 0.1380571931171293 0 0.28320971359092417 0.1429987979602943 0 0.26675796828336718 0.1380571931171293 0 0.28666270206708028 0.1324408374186071 0 0.28320971359092417 0.1429987979602943 0 0.28067449336876182 0.1220521091494646 0 0.26956705708048567 0.1198361090660386 0 0.26675796828336718 0.1380571931171293 0 0.28067449336876182 0.1220521091494646 0 0.26675796828336718 0.1380571931171293 0 0.28666270206708028 0.1324408374186071 0 0.26675796828336718 0.1380571931171293 0 0.27436529468354132 0.15433220537778311 0 0.26010861073109098 0.15248373785575309 0 0.26675796828336718 0.1380571931171293 0 0.27436529468354132 0.15433220537778311 0 0.28320971359092417 0.1429987979602943 0 0.26675796828336718 0.1380571931171293 0 0.26010861073109098 0.15248373785575309 0 0.25638724149227848 0.14295410589973731 0 0.2496536413094039 0.15044712256699261 0 0.25004344172447263 0.14019424959050239 0 0.25638724149227848 0.14295410589973731 0 0.24653130607993951 0.16237692388552691 0 0.2496536413094039 0.15044712256699261 0 0.26010861073109098 0.15248373785575309 0 0.2496536413094039 0.15044712256699261 0 0.26010861073109098 0.15248373785575309 0 0.25638724149227848 0.14295410589973731 0 0.24653130607993951 0.16237692388552691 0 0.25292738168467233 0.17649485219682931 0 0.26638423851283249 0.16867758561061549 0 0.24653130607993951 0.16237692388552691 0 0.26010861073109098 0.15248373785575309 0 0.26638423851283249 0.16867758561061549 0 0.24528107816237801 0.1907036486386274 0 0.25292738168467233 0.17649485219682931 0 0.26633433714882182 0.18577592949096661 0 0.25292738168467233 0.17649485219682931 0 0.26633433714882182 0.18577592949096661 0 0.26638423851283249 0.16867758561061549 0 0.27723266788850742 0.181048228772968 0 0.26638423851283249 0.16867758561061549 0 0.28391425324491287 0.17071999404263091 0 0.26633433714882182 0.18577592949096661 0 0.27723266788850742 0.181048228772968 0 0.26638423851283249 0.16867758561061549 0 0.27436529468354132 0.15433220537778311 0 0.26010861073109098 0.15248373785575309 0 0.26638423851283249 0.16867758561061549 0 0.27436529468354132 0.15433220537778311 0 0.26638423851283249 0.16867758561061549 0 0.28391425324491287 0.17071999404263091 0 0.27436529468354132 0.15433220537778311 0 0.28391425324491287 0.17071999404263091 0 0.29097703849613438 0.15773848939083679 0 0.28391425324491287 0.17071999404263091 0 0.2931647794093819 0.16879209887591959 0 0.29097703849613438 0.15773848939083679 0 0.2931647794093819 0.16879209887591959 0 0.29097703849613438 0.15773848939083679 0 0.30040947706207388 0.16512632217721829 0 0.28391425324491287 0.17071999404263091 0 0.28743664533084129 0.187357279865842 0 0.29743995151898561 0.17866098634217961 0 0.27723266788850742 0.181048228772968 0 0.28391425324491287 0.17071999404263091 0 0.28743664533084129 0.187357279865842 0 0.28391425324491287 0.17071999404263091 0 0.2931647794093819 0.16879209887591959 0 0.29743995151898561 0.17866098634217961 0 0.28743664533084129 0.187357279865842 0 0.29743995151898561 0.17866098634217961 0 0.29971043857951379 0.19298806906372529 0 0.29743995151898561 0.17866098634217961 0 0.30929675685570829 0.1858318568065235 0 0.29971043857951379 0.19298806906372529 0 0.29743995151898561 0.17866098634217961 0 0.3101655001798202 0.17563615506282959 0 0.30040947706207388 0.16512632217721829 0 0.29743995151898561 0.17866098634217961 0 0.3101655001798202 0.17563615506282959 0 0.30929675685570829 0.1858318568065235 0 0.30040947706207388 0.16512632217721829 0 0.30453528129870422 0.15487579661148021 0 0.32848741365188411 0.1727716232507491 0 0.29097703849613438 0.15773848939083679 0 0.30040947706207388 0.16512632217721829 0 0.30453528129870422 0.15487579661148021 0 0.2931647794093819 0.16879209887591959 0 0.29743995151898561 0.17866098634217961 0 0.30040947706207388 0.16512632217721829 0 0.29097703849613438 0.15773848939083679 0 0.30453528129870422 0.15487579661148021 0 0.29618567382365713 0.14404403195872001 0 0.30453528129870422 0.15487579661148021 0 0.30873747279203018 0.14281046260302349 0 0.29618567382365713 0.14404403195872001 0 0.30453528129870422 0.15487579661148021 0 0.30873747279203018 0.14281046260302349 0 0.32007589174333823 0.14676000458717811 0 0.30873747279203018 0.14281046260302349 0 0.30313841955192899 0.13260249050964579 0 0.3195478300457561 0.1332621056988223 0 0.31114536757858358 0.11742006929579971 0 0.30313841955192899 0.13260249050964579 0 0.3195478300457561 0.1332621056988223 0 0.30873747279203018 0.14281046260302349 0 0.30313841955192899 0.13260249050964579 0 0.29618567382365713 0.14404403195872001 0 0.294250496481684 0.12267566802032639 0 0.30313841955192899 0.13260249050964579 0 0.28666270206708028 0.1324408374186071 0 0.30313841955192899 0.13260249050964579 0 0.28666270206708028 0.1324408374186071 0 0.29618567382365713 0.14404403195872001 0 0.294250496481684 0.12267566802032639 0 0.28067449336876182 0.1220521091494646 0 0.28666270206708028 0.1324408374186071 0 0.28666270206708028 0.1324408374186071 0 0.28320971359092417 0.1429987979602943 0 0.29618567382365713 0.14404403195872001 0 0.27436529468354132 0.15433220537778311 0 0.29097703849613438 0.15773848939083679 0 0.28320971359092417 0.1429987979602943 0 0.29097703849613438 0.15773848939083679 0 0.28320971359092417 0.1429987979602943 0 0.29618567382365713 0.14404403195872001 0 0.28119448123381058 0.25405304303149878 0 0.26221447651104962 0.2479993693513689 0 0.28440499104296979 0.23439140090611099 0 0.26221447651104962 0.2479993693513689 0 0.26853130556434218 0.23400660741274959 0 0.28440499104296979 0.23439140090611099 0 0.26221447651104962 0.2479993693513689 0 0.28440499104296979 0.23439140090611099 0 0.2457442494512444 0.24022391879071339 0 0.26221447651104962 0.2479993693513689 0 0.25511338863332461 0.22468137717712711 0 0.26221447651104962 0.2479993693513689 0 0.25511338863332461 0.22468137717712711 0 0.26853130556434218 0.23400660741274959 0 0.26221447651104962 0.2479993693513689 0 0.25511338863332461 0.22468137717712711 0 0.25511338863332461 0.22468137717712711 0 0.25242827713160498 0.21540237912569379 0 0.25511338863332461 0.22468137717712711 0 0.2794126892910288 0.21617120911671081 0 0.25511338863332461 0.22468137717712711 0 0.26853130556434218 0.23400660741274959 0 0.2794126892910288 0.21617120911671081 0 0.26853130556434218 0.23400660741274959 0 0.2794126892910288 0.21617120911671081 0 0.28440499104296979 0.23439140090611099 0 0.25511338863332461 0.22468137717712711 0 0.2794126892910288 0.21617120911671081 0 0.26644318031571418 0.20408753099865831 0 0.2794126892910288 0.21617120911671081 0 0.26644318031571418 0.20408753099865831 0 0.27722953884408802 0.19656269719262509 0 0.24528107816237801 0.1907036486386274 0 0.26644318031571418 0.20408753099865831 0 0.25242827713160498 0.21540237912569379 0 0.25511338863332461 0.22468137717712711 0 0.26644318031571418 0.20408753099865831 0 0.25242827713160498 0.21540237912569379 0 0.26644318031571418 0.20408753099865831 0 0.25242827713160498 0.21540237912569379 0 0.24528107816237801 0.1907036486386274 0 0.26633433714882182 0.18577592949096661 0 0.26644318031571418 0.20408753099865831 0 0.26633433714882182 0.18577592949096661 0 0.26644318031571418 0.20408753099865831 0 0.27722953884408802 0.19656269719262509 0 0.27723266788850742 0.181048228772968 0 0.28743664533084129 0.187357279865842 0 0.27722953884408802 0.19656269719262509 0 0.26633433714882182 0.18577592949096661 0 0.27723266788850742 0.181048228772968 0 0.27722953884408802 0.19656269719262509 0 0.28743664533084129 0.187357279865842 0 0.27722953884408802 0.19656269719262509 0 0.28939512316467059 0.2005252056429343 0 0.28743664533084129 0.187357279865842 0 0.28939512316467059 0.2005252056429343 0 0.29971043857951379 0.19298806906372529 0 0.30929675685570829 0.1858318568065235 0 0.29971043857951379 0.19298806906372529 0 0.31162694501442678 0.19735313208654229 0 0.29971043857951379 0.19298806906372529 0 0.31162694501442678 0.19735313208654229 0 0.30371198994873311 0.20766104105629449 0 0.28939512316467059 0.2005252056429343 0 0.29971043857951379 0.19298806906372529 0 0.30371198994873311 0.20766104105629449 0 0.2794126892910288 0.21617120911671081 0 0.30371198994873311 0.20766104105629449 0 0.2794126892910288 0.21617120911671081 0 0.30371198994873311 0.20766104105629449 0 0.30659550557489001 0.220783432460853 0 0.2794126892910288 0.21617120911671081 0 0.27722953884408802 0.19656269719262509 0 0.28939512316467059 0.2005252056429343 0 0.2794126892910288 0.21617120911671081 0 0.28939512316467059 0.2005252056429343 0 0.30371198994873311 0.20766104105629449 0 0.30659550557489001 0.220783432460853 0 0.28440499104296979 0.23439140090611099 0 0.2794126892910288 0.21617120911671081 0 0.30659550557489001 0.220783432460853 0 0.28440499104296979 0.23439140090611099 0 0.30659550557489001 0.220783432460853 0 0.30328699804120918 0.24394477185791469 0 0.28440499104296979 0.23439140090611099 0 0.30659550557489001 0.220783432460853 0 0.30328699804120918 0.24394477185791469 0 0.31607427666693672 0.2331905299380852 0 0.28119448123381058 0.25405304303149878 0 0.30328699804120918 0.24394477185791469 0 0.28440499104296979 0.23439140090611099 0 0.3433555784436142 0.25004320974280247 0 0.34183468199228573 0.23727684870966961 0 0.33092809789354199 0.24744869965648561 0 0.34183468199228573 0.23727684870966961 0 0.3288410404878227 0.2348757256337824 0 0.33092809789354199 0.24744869965648561 0 0.3288410404878227 0.2348757256337824 0 0.33092809789354199 0.24744869965648561 0 0.31845456220733243 0.24449663650262579 0 0.31879452400631653 0.25919465198291952 0 0.30328699804120918 0.24394477185791469 0 0.31845456220733243 0.24449663650262579 0 0.30328699804120918 0.24394477185791469 0 0.31845456220733243 0.24449663650262579 0 0.31607427666693672 0.2331905299380852 0 0.3288410404878227 0.2348757256337824 0 0.31845456220733243 0.24449663650262579 0 0.31607427666693672 0.2331905299380852 0 0.3288410404878227 0.2348757256337824 0 0.31607427666693672 0.2331905299380852 0 0.32372534117020862 0.22390137225637691 0 0.30659550557489001 0.220783432460853 0 0.31607427666693672 0.2331905299380852 0 0.32372534117020862 0.22390137225637691 0 0.3288410404878227 0.2348757256337824 0 0.32372534117020862 0.22390137225637691 0 0.33832986301458301 0.22348170923356889 0 0.34183468199228573 0.23727684870966961 0 0.3288410404878227 0.2348757256337824 0 0.33832986301458301 0.22348170923356889 0 0.32372534117020862 0.22390137225637691 0 0.33832986301458301 0.22348170923356889 0 0.32878602010681029 0.20717546401559489 0 0.33832986301458301 0.22348170923356889 0 0.32878602010681029 0.20717546401559489 0 0.35089693608391498 0.21212819010674691 0 0.32878602010681029 0.20717546401559489 0 0.35097653463873058 0.19356749557033681 0 0.35089693608391498 0.21212819010674691 0 0.30659550557489001 0.220783432460853 0 0.32372534117020862 0.22390137225637691 0 0.32878602010681029 0.20717546401559489 0 0.31162694501442678 0.19735313208654229 0 0.30371198994873311 0.20766104105629449 0 0.32878602010681029 0.20717546401559489 0 0.30371198994873311 0.20766104105629449 0 0.30659550557489001 0.220783432460853 0 0.32878602010681029 0.20717546401559489 0 0.30659550557489001 0.220783432460853 0 0.32878602010681029 0.20717546401559489 0 0.32878602010681029 0.20717546401559489 0 0.31972446529152482 0.19052244909679969 0 0.3336272658304279 0.18895925974375941 0 0.31162694501442678 0.19735313208654229 0 0.32878602010681029 0.20717546401559489 0 0.31972446529152482 0.19052244909679969 0 0.30929675685570829 0.1858318568065235 0 0.31162694501442678 0.19735313208654229 0 0.31972446529152482 0.19052244909679969 0 0.32878602010681029 0.20717546401559489 0 0.3336272658304279 0.18895925974375941 0 0.35097653463873058 0.19356749557033681 0 0.32878602010681029 0.20717546401559489 0 0.35097653463873058 0.19356749557033681 0 0.3336272658304279 0.18895925974375941 0 0.35097653463873058 0.19356749557033681 0 0.35656535024169428 0.1804169243242798 0 0.35097653463873058 0.19356749557033681 0 0.35896651107905142 0.20360726904620211 0 0.35089693608391498 0.21212819010674691 0 0.35097653463873058 0.19356749557033681 0 0.36405518175537521 0.19484170215684679 0 0.35896651107905142 0.20360726904620211 0 0.35097653463873058 0.19356749557033681 0 0.36405518175537521 0.19484170215684679 0 0.35656535024169428 0.1804169243242798 0 0.36405518175537521 0.19484170215684679 0 0.35656535024169428 0.1804169243242798 0 0.38464328683150451 0.18806222539781059 0 0.36405518175537521 0.19484170215684679 0 0.36923798170140371 0.20928007436804161 0 0.38464328683150451 0.18806222539781059 0 0.36405518175537521 0.19484170215684679 0 0.36923798170140371 0.20928007436804161 0 0.35896651107905142 0.20360726904620211 0 0.36923798170140371 0.20928007436804161 0 0.36132702422268731 0.21787493872225441 0 0.35896651107905142 0.20360726904620211 0 0.36923798170140371 0.20928007436804161 0 0.36132702422268731 0.21787493872225441 0 0.37292139258550783 0.22672254500020811 0 0.36132702422268731 0.21787493872225441 0 0.35896651107905142 0.20360726904620211 0 0.35089693608391498 0.21212819010674691 0 0.34183468199228573 0.23727684870966961 0 0.33832986301458301 0.22348170923356889 0 0.35524969613090918 0.22837961108452459 0 0.36132702422268731 0.21787493872225441 0 0.35089693608391498 0.21212819010674691 0 0.35524969613090918 0.22837961108452459 0 0.33832986301458301 0.22348170923356889 0 0.35089693608391498 0.21212819010674691 0 0.35524969613090918 0.22837961108452459 0 0.36132702422268731 0.21787493872225441 0 0.35524969613090918 0.22837961108452459 0 0.37292139258550783 0.22672254500020811 0 0.35524969613090918 0.22837961108452459 0 0.37292139258550783 0.22672254500020811 0 0.36587213359177301 0.2378375665458646 0 0.37292139258550783 0.22672254500020811 0 0.36587213359177301 0.2378375665458646 0 0.3757768555661396 0.240133652284411 0 0.36587213359177301 0.2378375665458646 0 0.37169426656027921 0.24972740256563611 0 0.3757768555661396 0.240133652284411 0 0.36587213359177301 0.2378375665458646 0 0.37169426656027921 0.24972740256563611 0 0.36205361842742478 0.24882498742118489 0 0.36587213359177301 0.2378375665458646 0 0.36205361842742478 0.24882498742118489 0 0.35356337405553911 0.24205426642971811 0 0.35175757775775729 0.2532797976346674 0 0.36205361842742478 0.24882498742118489 0 0.35356337405553911 0.24205426642971811 0 0.35524969613090918 0.22837961108452459 0 0.36587213359177301 0.2378375665458646 0 0.35356337405553911 0.24205426642971811 0 0.34183468199228573 0.23727684870966961 0 0.35524969613090918 0.22837961108452459 0 0.35356337405553911 0.24205426642971811 0 0.3433555784436142 0.25004320974280247 0 0.34183468199228573 0.23727684870966961 0 0.35356337405553911 0.24205426642971811 0 0.3433555784436142 0.25004320974280247 0 0.35175757775775729 0.2532797976346674 0 0.35356337405553911 0.24205426642971811 0 0.33379856680907583 0.1437068241164389 0 0.32007589174333823 0.14676000458717811 0 0.33365817402274128 0.15789089208148979 0 0.33379856680907583 0.1437068241164389 0 0.33365817402274128 0.15789089208148979 0 0.34780073530519279 0.14835628742565241 0 0.33379856680907583 0.1437068241164389 0 0.34780073530519279 0.14835628742565241 0 0.34586764947947463 0.1362539899128139 0 0.33379856680907583 0.1437068241164389 0 0.33436770153514289 0.13112975471366969 0 0.34586764947947463 0.1362539899128139 0 0.34956654336434939 0.1234914401014125 0 0.33436770153514289 0.13112975471366969 0 0.34586764947947463 0.1362539899128139 0 0.33379856680907583 0.1437068241164389 0 0.33436770153514289 0.13112975471366969 0 0.3195478300457561 0.1332621056988223 0 0.32606950933900308 0.1158177097477945 0 0.33436770153514289 0.13112975471366969 0 0.3195478300457561 0.1332621056988223 0 0.30873747279203018 0.14281046260302349 0 0.3195478300457561 0.1332621056988223 0 0.32007589174333823 0.14676000458717811 0 0.30453528129870422 0.15487579661148021 0 0.32007589174333823 0.14676000458717811 0 0.33365817402274128 0.15789089208148979 0 0.33379856680907583 0.1437068241164389 0 0.3195478300457561 0.1332621056988223 0 0.32007589174333823 0.14676000458717811 0 0.30453528129870422 0.15487579661148021 0 0.33365817402274128 0.15789089208148979 0 0.30453528129870422 0.15487579661148021 0 0.32848741365188411 0.1727716232507491 0 0.33365817402274128 0.15789089208148979 0 0.30040947706207388 0.16512632217721829 0 0.32848741365188411 0.1727716232507491 0 0.3101655001798202 0.17563615506282959 0 0.30040947706207388 0.16512632217721829 0 0.32848741365188411 0.1727716232507491 0 0.3101655001798202 0.17563615506282959 0 0.31983557186529732 0.18171103000860481 0 0.32848741365188411 0.1727716232507491 0 0.3336272658304279 0.18895925974375941 0 0.31983557186529732 0.18171103000860481 0 0.32848741365188411 0.1727716232507491 0 0.3101655001798202 0.17563615506282959 0 0.30929675685570829 0.1858318568065235 0 0.31983557186529732 0.18171103000860481 0 0.30929675685570829 0.1858318568065235 0 0.31972446529152482 0.19052244909679969 0 0.31983557186529732 0.18171103000860481 0 0.31972446529152482 0.19052244909679969 0 0.3336272658304279 0.18895925974375941 0 0.31983557186529732 0.18171103000860481 0 0.32848741365188411 0.1727716232507491 0 0.34507730906385942 0.16855187839241309 0 0.35656535024169428 0.1804169243242798 0 0.3336272658304279 0.18895925974375941 0 0.32848741365188411 0.1727716232507491 0 0.35656535024169428 0.1804169243242798 0 0.32848741365188411 0.1727716232507491 0 0.35656535024169428 0.1804169243242798 0 0.32848741365188411 0.1727716232507491 0 0.33365817402274128 0.15789089208148979 0 0.34507730906385942 0.16855187839241309 0 0.33365817402274128 0.15789089208148979 0 0.34507730906385942 0.16855187839241309 0 0.36278106674677829 0.1609059875514994 0 0.34507730906385942 0.16855187839241309 0 0.35656535024169428 0.1804169243242798 0 0.36278106674677829 0.1609059875514994 0 0.33365817402274128 0.15789089208148979 0 0.36278106674677829 0.1609059875514994 0 0.35656535024169428 0.1804169243242798 0 0.37356219856206202 0.1741215612114578 0 0.38464328683150451 0.18806222539781059 0 0.35656535024169428 0.1804169243242798 0 0.38464328683150451 0.18806222539781059 0 0.35656535024169428 0.1804169243242798 0 0.37356219856206202 0.1741215612114578 0 0.36278106674677829 0.1609059875514994 0 0.36278106674677829 0.1609059875514994 0 0.36531512046589693 0.1378839500987098 0 0.37680076681991098 0.15092733218095339 0 0.36278106674677829 0.1609059875514994 0 0.34780073530519279 0.14835628742565241 0 0.36531512046589693 0.1378839500987098 0 0.34780073530519279 0.14835628742565241 0 0.34586764947947463 0.1362539899128139 0 0.36531512046589693 0.1378839500987098 0 0.33365817402274128 0.15789089208148979 0 0.36278106674677829 0.1609059875514994 0 0.34780073530519279 0.14835628742565241 0 0.34956654336434939 0.1234914401014125 0 0.34586764947947463 0.1362539899128139 0 0.36531512046589693 0.1378839500987098 0 0.34956654336434939 0.1234914401014125 0 0.36322639358210312 0.11848039068348271 0 0.36531512046589693 0.1378839500987098 0 0.36322639358210312 0.11848039068348271 0 0.36531512046589693 0.1378839500987098 0 0.38482072671029011 0.13725767299229241 0 0.36322639358210312 0.11848039068348271 0 0.38482072671029011 0.13725767299229241 0 0.36322639358210312 0.11848039068348271 0 0.38482072671029011 0.13725767299229241 0 0.38005682511468147 0.12140739343396729 0 0.38482072671029011 0.13725767299229241 0 0.39398634319161102 0.12556361147638159 0 0.38005682511468147 0.12140739343396729 0 0.38482072671029011 0.13725767299229241 0 0.39398634319161102 0.12556361147638159 0 0.40386822996399702 0.1370092008917044 0 0.39398634319161102 0.12556361147638159 0 0.40386822996399702 0.1370092008917044 0 0.40630256149234217 0.12337914253670321 0 0.38482072671029011 0.13725767299229241 0 0.40641505983847698 0.15603495530110209 0 0.38482072671029011 0.13725767299229241 0 0.40386822996399702 0.1370092008917044 0 0.40641505983847698 0.15603495530110209 0 0.38482072671029011 0.13725767299229241 0 0.39190395947081519 0.16392108302150901 0 0.40641505983847698 0.15603495530110209 0 0.36531512046589693 0.1378839500987098 0 0.38482072671029011 0.13725767299229241 0 0.37680076681991098 0.15092733218095339 0 0.38482072671029011 0.13725767299229241 0 0.37680076681991098 0.15092733218095339 0 0.39190395947081519 0.16392108302150901 0 0.36278106674677829 0.1609059875514994 0 0.39190395947081519 0.16392108302150901 0 0.36278106674677829 0.1609059875514994 0 0.37680076681991098 0.15092733218095339 0 0.39190395947081519 0.16392108302150901 0 0.37356219856206202 0.1741215612114578 0 0.36278106674677829 0.1609059875514994 0 0.39190395947081519 0.16392108302150901 0 0.37356219856206202 0.1741215612114578 0 0.39190395947081519 0.16392108302150901 0 0.38464328683150451 0.18806222539781059 0 0.4059128807594603 0.17981630131623391 0 0.39190395947081519 0.16392108302150901 0 0.38464328683150451 0.18806222539781059 0 0.39190395947081519 0.16392108302150901 0 0.42102685219485209 0.16693617849151851 0 0.40641505983847698 0.15603495530110209 0 0.4059128807594603 0.17981630131623391 0 0.39190395947081519 0.16392108302150901 0 0.42102685219485209 0.16693617849151851 0 0.42102685219485209 0.16693617849151851 0 0.40641505983847698 0.15603495530110209 0 0.41490094777653419 0.14712571815411829 0 0.39190395947081519 0.16392108302150901 0 0.42102685219485209 0.16693617849151851 0 0.4059128807594603 0.17981630131623391 0 0.42102685219485209 0.16693617849151851 0 0.42759287120751482 0.1799189573059411 0 0.4059128807594603 0.17981630131623391 0 0.42759287120751482 0.1799189573059411 0 0.42045703890892938 0.19185412915784311 0 0.42102685219485209 0.16693617849151851 0 0.42759287120751482 0.1799189573059411 0 0.45014974491888898 0.16995127396152809 0 0.42759287120751482 0.1799189573059411 0 0.42045703890892938 0.19185412915784311 0 0.43799329450951457 0.1898848624547933 0 0.42102685219485209 0.16693617849151851 0 0.45014974491888898 0.16995127396152809 0 0.42102685219485209 0.16693617849151851 0 0.43641214087317609 0.15776157540708571 0 0.42820809332857229 0.14540676379554701 0 0.42102685219485209 0.16693617849151851 0 0.43641214087317609 0.15776157540708571 0 0.45014974491888898 0.16995127396152809 0 0.43641214087317609 0.15776157540708571 0 0.42820809332857229 0.14540676379554701 0 0.44305345270963392 0.14224085277467549 0 0.42820809332857229 0.14540676379554701 0 0.43267139290449452 0.12562392175117529 0 0.41815906511665779 0.13368892679480551 0 0.42820809332857229 0.14540676379554701 0 0.43267139290449452 0.12562392175117529 0 0.44305345270963392 0.14224085277467549 0 0.43267139290449452 0.12562392175117529 0 0.41815906511665779 0.13368892679480551 0 0.41840244549433692 0.1204435227777134 0 0.41815906511665779 0.13368892679480551 0 0.41840244549433692 0.1204435227777134 0 0.40630256149234217 0.12337914253670321 0 0.40386822996399702 0.1370092008917044 0 0.41815906511665779 0.13368892679480551 0 0.40630256149234217 0.12337914253670321 0 0.40386822996399702 0.1370092008917044 0 0.41815906511665779 0.13368892679480551 0 0.41490094777653419 0.14712571815411829 0 0.42102685219485209 0.16693617849151851 0 0.42820809332857229 0.14540676379554701 0 0.41490094777653419 0.14712571815411829 0 0.40386822996399702 0.1370092008917044 0 0.40641505983847698 0.15603495530110209 0 0.41490094777653419 0.14712571815411829 0 0.42820809332857229 0.14540676379554701 0 0.41815906511665779 0.13368892679480551 0 0.41490094777653419 0.14712571815411829 0 0.39196586341458151 0.242441409442547 0 0.40329821407583749 0.23025496453590971 0 0.40866327585672191 0.24600766979752939 0 0.38129994004966872 0.25577407136566988 0 0.39196586341458151 0.242441409442547 0 0.40866327585672191 0.24600766979752939 0 0.38129994004966872 0.25577407136566988 0 0.39196586341458151 0.242441409442547 0 0.38106847269238292 0.24536179082341181 0 0.37169426656027921 0.24972740256563611 0 0.38106847269238292 0.24536179082341181 0 0.3757768555661396 0.240133652284411 0 0.37292139258550783 0.22672254500020811 0 0.3757768555661396 0.240133652284411 0 0.38460543787124563 0.238732418458795 0 0.38106847269238292 0.24536179082341181 0 0.3757768555661396 0.240133652284411 0 0.38460543787124563 0.238732418458795 0 0.39196586341458151 0.242441409442547 0 0.38106847269238292 0.24536179082341181 0 0.38460543787124563 0.238732418458795 0 0.39196586341458151 0.242441409442547 0 0.38460543787124563 0.238732418458795 0 0.38844350160088592 0.2284985707660753 0 0.37292139258550783 0.22672254500020811 0 0.38460543787124563 0.238732418458795 0 0.38844350160088592 0.2284985707660753 0 0.37292139258550783 0.22672254500020811 0 0.38844350160088592 0.2284985707660753 0 0.38369130631537601 0.21297307403445409 0 0.38844350160088592 0.2284985707660753 0 0.39679964264504158 0.21937630878092959 0 0.38369130631537601 0.21297307403445409 0 0.38844350160088592 0.2284985707660753 0 0.39679964264504158 0.21937630878092959 0 0.40329821407583749 0.23025496453590971 0 0.39196586341458151 0.242441409442547 0 0.38844350160088592 0.2284985707660753 0 0.40329821407583749 0.23025496453590971 0 0.39679964264504158 0.21937630878092959 0 0.40329821407583749 0.23025496453590971 0 0.41066806580544729 0.2160617609406458 0 0.39598296716959969 0.20626700748070109 0 0.40513352984814438 0.19492560706685999 0 0.41066806580544729 0.2160617609406458 0 0.39679964264504158 0.21937630878092959 0 0.39598296716959969 0.20626700748070109 0 0.41066806580544729 0.2160617609406458 0 0.39679964264504158 0.21937630878092959 0 0.39598296716959969 0.20626700748070109 0 0.38369130631537601 0.21297307403445409 0 0.36923798170140371 0.20928007436804161 0 0.37292139258550783 0.22672254500020811 0 0.38369130631537601 0.21297307403445409 0 0.36923798170140371 0.20928007436804161 0 0.38369130631537601 0.21297307403445409 0 0.38464328683150451 0.18806222539781059 0 0.39598296716959969 0.20626700748070109 0 0.38369130631537601 0.21297307403445409 0 0.38464328683150451 0.18806222539781059 0 0.39598296716959969 0.20626700748070109 0 0.38464328683150451 0.18806222539781059 0 0.40513352984814438 0.19492560706685999 0 0.4059128807594603 0.17981630131623391 0 0.38464328683150451 0.18806222539781059 0 0.40513352984814438 0.19492560706685999 0 0.40513352984814438 0.19492560706685999 0 0.42045703890892938 0.19185412915784311 0 0.42444067869502011 0.20693424997503959 0 0.4059128807594603 0.17981630131623391 0 0.40513352984814438 0.19492560706685999 0 0.42045703890892938 0.19185412915784311 0 0.42045703890892938 0.19185412915784311 0 0.42444067869502011 0.20693424997503959 0 0.43799329450951457 0.1898848624547933 0 0.42444067869502011 0.20693424997503959 0 0.44184419378540352 0.2076794424592901 0 0.43799329450951457 0.1898848624547933 0 0.42444067869502011 0.20693424997503959 0 0.4302098735549707 0.2206458244329694 0 0.44184419378540352 0.2076794424592901 0 0.42444067869502011 0.20693424997503959 0 0.41066806580544729 0.2160617609406458 0 0.4302098735549707 0.2206458244329694 0 0.40513352984814438 0.19492560706685999 0 0.42444067869502011 0.20693424997503959 0 0.41066806580544729 0.2160617609406458 0 0.41066806580544729 0.2160617609406458 0 0.41777320819135039 0.22984229758728861 0 0.4302098735549707 0.2206458244329694 0 0.40329821407583749 0.23025496453590971 0 0.41066806580544729 0.2160617609406458 0 0.41777320819135039 0.22984229758728861 0 0.4302098735549707 0.2206458244329694 0 0.43602661166377499 0.2362412682293889 0 0.44584438813649652 0.2203436080528294 0 0.41777320819135039 0.22984229758728861 0 0.4302098735549707 0.2206458244329694 0 0.43602661166377499 0.2362412682293889 0 0.43602661166377499 0.2362412682293889 0 0.43076425121212841 0.2486853010718087 0 0.40866327585672191 0.24600766979752939 0 0.43602661166377499 0.2362412682293889 0 0.40866327585672191 0.24600766979752939 0 0.41777320819135039 0.22984229758728861 0 0.43602661166377499 0.2362412682293889 0 0.40866327585672191 0.24600766979752939 0 0.41664462513020523 0.25422696758609492 0 0.43076425121212841 0.2486853010718087 0 0.40866327585672191 0.24600766979752939 0 0.40329821407583749 0.23025496453590971 0 0.41777320819135039 0.22984229758728861 0 0.40866327585672191 0.24600766979752939 0 0.45166362976964691 0.25106894999712381 0 0.45384283414141641 0.23962742592169059 0 0.47583181488482379 0.2451422378191761 0 0.45166362976964691 0.25106894999712381 0 0.47583181488482379 0.2451422378191761 0 0.45384283414141641 0.23962742592169059 0 0.47692141707070451 0.23056955077157251 0 0.45166362976964691 0.25106894999712381 0 0.43076425121212841 0.2486853010718087 0 0.45384283414141641 0.23962742592169059 0 0.43602661166377499 0.2362412682293889 0 0.43076425121212841 0.2486853010718087 0 0.45384283414141641 0.23962742592169059 0 0.43076425121212841 0.2486853010718087 0 0.45384283414141641 0.23962742592169059 0 0.43602661166377499 0.2362412682293889 0 0.46338994747082818 0.22647486666124839 0 0.43602661166377499 0.2362412682293889 0 0.44584438813649652 0.2203436080528294 0 0.46338994747082818 0.22647486666124839 0 0.43602661166377499 0.2362412682293889 0 0.45384283414141641 0.23962742592169059 0 0.46338994747082818 0.22647486666124839 0 0.44584438813649652 0.2203436080528294 0 0.46338994747082818 0.22647486666124839 0 0.4574246187180494 0.20998202225832771 0 0.45384283414141641 0.23962742592169059 0 0.46338994747082818 0.22647486666124839 0 0.47692141707070451 0.23056955077157251 0 0.46338994747082818 0.22647486666124839 0 0.4574246187180494 0.20998202225832771 0 0.47311107537994651 0.21060674662752529 0 0.4574246187180494 0.20998202225832771 0 0.46861366351278472 0.19789432193598561 0 0.47311107537994651 0.21060674662752529 0 0.44584438813649652 0.2203436080528294 0 0.4574246187180494 0.20998202225832771 0 0.44184419378540352 0.2076794424592901 0 0.4302098735549707 0.2206458244329694 0 0.44584438813649652 0.2203436080528294 0 0.44184419378540352 0.2076794424592901 0 0.4574246187180494 0.20998202225832771 0 0.44184419378540352 0.2076794424592901 0 0.45120510308892831 0.19507838461398491 0 0.44184419378540352 0.2076794424592901 0 0.43799329450951457 0.1898848624547933 0 0.45120510308892831 0.19507838461398491 0 0.4574246187180494 0.20998202225832771 0 0.45120510308892831 0.19507838461398491 0 0.46861366351278472 0.19789432193598561 0 0.45120510308892831 0.19507838461398491 0 0.46861366351278472 0.19789432193598561 0 0.45014974491888898 0.16995127396152809 0 0.46861366351278472 0.19789432193598561 0 0.48377650321145821 0.20030440734603891 0 0.47890777313388699 0.17818810929941131 0 0.46861366351278472 0.19789432193598561 0 0.48377650321145821 0.20030440734603891 0 0.47311107537994651 0.21060674662752529 0 0.48377650321145821 0.20030440734603891 0 0.5 0.19442179120654851 0 0.47890777313388699 0.17818810929941131 0 0.48377650321145821 0.20030440734603891 0 0.5 0.19442179120654851 0 0.49075328327788142 0.2167084650931079 0 0.5 0.19442179120654851 0 0.49075328327788142 0.2167084650931079 0 0.49999999999999339 0.2215116756214566 0 0.48377650321145821 0.20030440734603891 0 0.49075328327788142 0.2167084650931079 0 0.47311107537994651 0.21060674662752529 0 0.46338994747082818 0.22647486666124839 0 0.49075328327788142 0.2167084650931079 0 0.47311107537994651 0.21060674662752529 0 0.46338994747082818 0.22647486666124839 0 0.49075328327788142 0.2167084650931079 0 0.46338994747082818 0.22647486666124839 0 0.49075328327788142 0.2167084650931079 0 0.47692141707070451 0.23056955077157251 0 0.47692141707070451 0.23056955077157251 0 0.49999999999999339 0.2215116756214566 0 0.50000000000000067 0.2392155256412283 0 0.49075328327788142 0.2167084650931079 0 0.47692141707070451 0.23056955077157251 0 0.49999999999999339 0.2215116756214566 0 0.47692141707070451 0.23056955077157251 0 0.49999999999999339 0.2215116756214566 0 0.50000000000000067 0.2392155256412283 0 0.47583181488482379 0.2451422378191761 0 0.48341195364679568 0.26002408893105827 0 0.50000000000000067 0.2392155256412283 0 0.47583181488482379 0.2451422378191761 0 0.47692141707070451 0.23056955077157251 0 0.50000000000000067 0.2392155256412283 0 0.47583181488482379 0.2451422378191761 0 0.45384283414141641 0.23962742592169059 0 0.47692141707070451 0.23056955077157251 0 0.47583181488482379 0.2451422378191761 0 0.46053260521531592 0.14091734283165991 0 0.45014974491888898 0.16995127396152809 0 0.47759274938693741 0.15337993901402261 0 0.46053260521531592 0.14091734283165991 0 0.47596637305353268 0.1236489788231635 0 0.45094723062946279 0.12208098845927939 0 0.46053260521531592 0.14091734283165991 0 0.44305345270963392 0.14224085277467549 0 0.45094723062946279 0.12208098845927939 0 0.43267139290449452 0.12562392175117529 0 0.44305345270963392 0.14224085277467549 0 0.45094723062946279 0.12208098845927939 0 0.46053260521531592 0.14091734283165991 0 0.44305345270963392 0.14224085277467549 0 0.45014974491888898 0.16995127396152809 0 0.43641214087317609 0.15776157540708571 0 0.44305345270963392 0.14224085277467549 0 0.45014974491888898 0.16995127396152809 0 0.42759287120751482 0.1799189573059411 0 0.43799329450951457 0.1898848624547933 0 0.45014974491888898 0.16995127396152809 0 0.43799329450951457 0.1898848624547933 0 0.45120510308892831 0.19507838461398491 0 0.45014974491888898 0.16995127396152809 0 0.46861366351278472 0.19789432193598561 0 0.45014974491888898 0.16995127396152809 0 0.47890777313388699 0.17818810929941131 0 0.45014974491888898 0.16995127396152809 0 0.47890777313388699 0.17818810929941131 0 0.47759274938693741 0.15337993901402261 0 0.5 0.19442179120654851 0 0.47890777313388699 0.17818810929941131 0 0.5 0.16733190679164031 0 0.47890777313388699 0.17818810929941131 0 0.5 0.16733190679164031 0 0.47759274938693741 0.15337993901402261 0 0.5 0.16733190679164031 0 0.47759274938693741 0.15337993901402261 0 0.5 0.14024202237673219 0 0.46053260521531592 0.14091734283165991 0 0.47759274938693741 0.15337993901402261 0 0.47596637305353268 0.1236489788231635 0 0.5 0.14024202237673219 0 0.5 0.11315213796182411 0 0.47596637305353268 0.1236489788231635 0 0.47759274938693741 0.15337993901402261 0 0.5 0.14024202237673219 0 0.47596637305353268 0.1236489788231635 0 0.5 0.11315213796182411 0 0.48146508414057748 0.097867616362435003 0 0.47596637305353268 0.1236489788231635 0 0.5 0.11315213796182411 0 0.48146508414057748 0.097867616362435003 0 0.5 0.08606225354691599 0 0.48146508414057748 0.097867616362435003 0 0.46684480345772023 0.083704774648097419 0 0.46085076100455152 0.1051260388446932 0 0.48146508414057748 0.097867616362435003 0 0.47596637305353268 0.1236489788231635 0 0.46085076100455152 0.1051260388446932 0 0.5 0.08606225354691599 0 0.48297411160829701 0.071419164250366693 0 0.5 0.058972369132007867 0 0.48146508414057748 0.097867616362435003 0 0.5 0.08606225354691599 0 0.48297411160829701 0.071419164250366693 0 0.48146508414057748 0.097867616362435003 0 0.48297411160829701 0.071419164250366693 0 0.46684480345772023 0.083704774648097419 0 0.48297411160829701 0.071419164250366693 0 0.46368779630991369 0.062884433647911922 0 0.46684480345772023 0.083704774648097419 0 0.46368779630991369 0.062884433647911922 0 0.4455316944648699 0.078385408113317706 0 0.46368779630991369 0.062884433647911922 0 0.46684480345772023 0.083704774648097419 0 0.4455316944648699 0.078385408113317706 0 0.46684480345772023 0.083704774648097419 0 0.4455316944648699 0.078385408113317706 0 0.46085076100455152 0.1051260388446932 0 0.4455316944648699 0.078385408113317706 0 0.46085076100455152 0.1051260388446932 0 0.43655847815144871 0.087567909291679069 0 0.4455316944648699 0.078385408113317706 0 0.43655847815144871 0.087567909291679069 0 0.43300293116684879 0.070359854062556224 0 0.4455316944648699 0.078385408113317706 0 0.43300293116684879 0.070359854062556224 0 0.44432728466234178 0.059795406129610977 0 0.46368779630991369 0.062884433647911922 0 0.4455316944648699 0.078385408113317706 0 0.44432728466234178 0.059795406129610977 0 0.47596637305353268 0.1236489788231635 0 0.46085076100455152 0.1051260388446932 0 0.45094723062946279 0.12208098845927939 0 0.46085076100455152 0.1051260388446932 0 0.43655847815144871 0.087567909291679069 0 0.46085076100455152 0.1051260388446932 0 0.43845481143497073 0.110031162788742 0 0.43302597451412722 0.09911942802672713 0 0.46085076100455152 0.1051260388446932 0 0.43302597451412722 0.09911942802672713 0 0.43655847815144871 0.087567909291679069 0 0.43267139290449452 0.12562392175117529 0 0.45094723062946279 0.12208098845927939 0 0.43845481143497073 0.110031162788742 0 0.46085076100455152 0.1051260388446932 0 0.45094723062946279 0.12208098845927939 0 0.43845481143497073 0.110031162788742 0 0.43267139290449452 0.12562392175117529 0 0.43845481143497073 0.110031162788742 0 0.42512360996164289 0.1101942667169049 0 0.43267139290449452 0.12562392175117529 0 0.42512360996164289 0.1101942667169049 0 0.41840244549433692 0.1204435227777134 0 0.42512360996164289 0.1101942667169049 0 0.41840244549433692 0.1204435227777134 0 0.41145911669595331 0.1096997076075869 0 0.41840244549433692 0.1204435227777134 0 0.41145911669595331 0.1096997076075869 0 0.40630256149234217 0.12337914253670321 0 0.41145911669595331 0.1096997076075869 0 0.41782870111656589 0.098086010242617663 0 0.40188519574572068 0.098349840232826835 0 0.41782870111656589 0.098086010242617663 0 0.41132824907511162 0.087668761689670915 0 0.40188519574572068 0.098349840232826835 0 0.42512360996164289 0.1101942667169049 0 0.41145911669595331 0.1096997076075869 0 0.41782870111656589 0.098086010242617663 0 0.41782870111656589 0.098086010242617663 0 0.43302597451412722 0.09911942802672713 0 0.42198136315300161 0.08812274721924529 0 0.42512360996164289 0.1101942667169049 0 0.41782870111656589 0.098086010242617663 0 0.43302597451412722 0.09911942802672713 0 0.43845481143497073 0.110031162788742 0 0.42512360996164289 0.1101942667169049 0 0.43302597451412722 0.09911942802672713 0 0.43655847815144871 0.087567909291679069 0 0.42198136315300161 0.08812274721924529 0 0.41226619529834591 0.070009779738664735 0 0.43655847815144871 0.087567909291679069 0 0.41226619529834591 0.070009779738664735 0 0.43302597451412722 0.09911942802672713 0 0.43655847815144871 0.087567909291679069 0 0.42198136315300161 0.08812274721924529 0 0.43300293116684879 0.070359854062556224 0 0.41226619529834591 0.070009779738664735 0 0.42739758089851382 0.054541393999090262 0 0.43655847815144871 0.087567909291679069 0 0.43300293116684879 0.070359854062556224 0 0.41226619529834591 0.070009779738664735 0 0.42198136315300161 0.08812274721924529 0 0.41226619529834591 0.070009779738664735 0 0.41132824907511162 0.087668761689670915 0 0.41226619529834591 0.070009779738664735 0 0.41132824907511162 0.087668761689670915 0 0.39992923875424519 0.082621500021195282 0 0.41782870111656589 0.098086010242617663 0 0.42198136315300161 0.08812274721924529 0 0.41132824907511162 0.087668761689670915 0 0.41132824907511162 0.087668761689670915 0 0.39992923875424519 0.082621500021195282 0 0.40188519574572068 0.098349840232826835 0 0.39992923875424519 0.082621500021195282 0 0.38759228221014619 0.095233220303727467 0 0.40188519574572068 0.098349840232826835 0 0.39992923875424519 0.082621500021195282 0 0.38759228221014619 0.095233220303727467 0 0.41226619529834591 0.070009779738664735 0 0.39707386889515511 0.070908779594843374 0 0.39683376059791597 0.058855427163935138 0 0.41226619529834591 0.070009779738664735 0 0.39683376059791597 0.058855427163935138 0 0.41226619529834591 0.070009779738664735 0 0.39992923875424519 0.082621500021195282 0 0.41226619529834591 0.070009779738664735 0 0.39992923875424519 0.082621500021195282 0 0.39707386889515511 0.070908779594843374 0 0.39992923875424519 0.082621500021195282 0 0.39707386889515511 0.070908779594843374 0 0.38583977896057609 0.075316135258006081 0 0.39707386889515511 0.070908779594843374 0 0.38282045226763678 0.060547433734587333 0 0.39683376059791597 0.058855427163935138 0 0.39707386889515511 0.070908779594843374 0 0.38583977896057609 0.075316135258006081 0 0.38282045226763678 0.060547433734587333 0 0.38583977896057609 0.075316135258006081 0 0.37596532967213542 0.069868995675824025 0 0.37682589963749002 0.081332762740894418 0 0.37307104071443398 0.061065176941414383 0 0.37596532967213542 0.069868995675824025 0 0.38282045226763678 0.060547433734587333 0 0.38583977896057609 0.075316135258006081 0 0.37596532967213542 0.069868995675824025 0 0.38282045226763678 0.060547433734587333 0 0.39992923875424519 0.082621500021195282 0 0.38412803848747967 0.086259474622970303 0 0.38759228221014619 0.095233220303727467 0 0.39992923875424519 0.082621500021195282 0 0.38583977896057609 0.075316135258006081 0 0.38412803848747967 0.086259474622970303 0 0.37045299287494049 0.09679375479102828 0 0.38412803848747967 0.086259474622970303 0 0.38759228221014619 0.095233220303727467 0 0.38583977896057609 0.075316135258006081 0 0.38412803848747967 0.086259474622970303 0 0.37682589963749002 0.081332762740894418 0 0.37045299287494049 0.09679375479102828 0 0.38412803848747967 0.086259474622970303 0 0.37682589963749002 0.081332762740894418 0 0.37045299287494049 0.09679375479102828 0 0.38005682511468147 0.12140739343396729 0 0.37045299287494049 0.09679375479102828 0 0.38759228221014619 0.095233220303727467 0 0.38890959528695412 0.1083938038889192 0 0.37045299287494049 0.09679375479102828 0 0.38890959528695412 0.1083938038889192 0 0.38005682511468147 0.12140739343396729 0 0.39398634319161102 0.12556361147638159 0 0.38890959528695412 0.1083938038889192 0 0.38005682511468147 0.12140739343396729 0 0.39398634319161102 0.12556361147638159 0 0.38890959528695412 0.1083938038889192 0 0.39948393258462489 0.11301500309558379 0 0.39398634319161102 0.12556361147638159 0 0.40630256149234217 0.12337914253670321 0 0.39948393258462489 0.11301500309558379 0 0.41145911669595331 0.1096997076075869 0 0.40630256149234217 0.12337914253670321 0 0.39948393258462489 0.11301500309558379 0 0.41145911669595331 0.1096997076075869 0 0.39948393258462489 0.11301500309558379 0 0.40188519574572068 0.098349840232826835 0 0.38759228221014619 0.095233220303727467 0 0.38890959528695412 0.1083938038889192 0 0.40188519574572068 0.098349840232826835 0 0.38890959528695412 0.1083938038889192 0 0.39948393258462489 0.11301500309558379 0 0.40188519574572068 0.098349840232826835 0 0.3912475249538237 0.025882868266216091 0 0.40325323122183843 0.024352223252143548 0 0.39536881189699241 0.01378873843063998 0 0.3912475249538237 0.025882868266216091 0 0.40325323122183843 0.024352223252143548 0 0.39805180056669343 0.032772735105760037 0 0.40325323122183843 0.024352223252143548 0 0.39805180056669343 0.032772735105760037 0 0.40655765028286611 0.035582104639029083 0 0.40325323122183843 0.024352223252143548 0 0.39536881189699241 0.01378873843063998 0 0.40720094273855439 0.01372602960598159 0 0.40060323373222451 0.0042547197705496897 0 0.39536881189699241 0.01378873843063998 0 0.40720094273855439 0.01372602960598159 0 0.40060323373222451 0.0042547197705496897 0 0.41081432206005303 0.0037114498956348132 0 0.4046584776842293 -0.0050702490882302163 0 0.40060323373222451 0.0042547197705496897 0 0.41081432206005303 0.0037114498956348132 0 0.40720094273855439 0.01372602960598159 0 0.40060323373222451 0.0042547197705496897 0 0.39025836247721268 0.0036292771787240202 0 0.39531848553630572 -0.0042569273994520467 0 0.40060323373222451 0.0042547197705496897 0 0.39536881189699241 0.01378873843063998 0 0.39025836247721268 0.0036292771787240202 0 0.37844401144479839 0.012609093579625891 0 0.38356146703633898 -0.0078565650350033434 0 0.37844401144479839 0.012609093579625891 0 0.39025836247721268 0.0036292771787240202 0 0.38356146703633898 -0.0078565650350033434 0 0.39536881189699241 0.01378873843063998 0 0.37844401144479839 0.012609093579625891 0 0.39025836247721268 0.0036292771787240202 0 0.3912475249538237 0.025882868266216091 0 0.37844401144479839 0.012609093579625891 0 0.38063223185621792 0.036578263657106522 0 0.37844401144479839 0.012609093579625891 0 0.38063223185621792 0.036578263657106522 0 0.37146335928247548 0.04052602251159599 0 0.37844401144479839 0.012609093579625891 0 0.38063223185621792 0.036578263657106522 0 0.3912475249538237 0.025882868266216091 0 0.39536881189699241 0.01378873843063998 0 0.37844401144479839 0.012609093579625891 0 0.37146335928247548 0.04052602251159599 0 0.38063223185621792 0.036578263657106522 0 0.38282045226763678 0.060547433734587333 0 0.3912475249538237 0.025882868266216091 0 0.38063223185621792 0.036578263657106522 0 0.3908528121234538 0.035995570554822158 0 0.38063223185621792 0.036578263657106522 0 0.38791705742610771 0.044539104287684539 0 0.3908528121234538 0.035995570554822158 0 0.38791705742610771 0.044539104287684539 0 0.38282045226763678 0.060547433734587333 0 0.39079668350586277 0.051215399393808793 0 0.37307104071443398 0.061065176941414383 0 0.37146335928247548 0.04052602251159599 0 0.38282045226763678 0.060547433734587333 0 0.38063223185621792 0.036578263657106522 0 0.38791705742610771 0.044539104287684539 0 0.38282045226763678 0.060547433734587333 0 0.38063223185621792 0.036578263657106522 0 0.38282045226763678 0.060547433734587333 0 0.38282045226763678 0.060547433734587333 0 0.39683376059791597 0.058855427163935138 0 0.39079668350586277 0.051215399393808793 0 0.41226619529834591 0.070009779738664735 0 0.39683376059791597 0.058855427163935138 0 0.40948896714378957 0.05055434744181983 0 0.39683376059791597 0.058855427163935138 0 0.39079668350586277 0.051215399393808793 0 0.39674782008621368 0.04348041067995833 0 0.39683376059791597 0.058855427163935138 0 0.39674782008621368 0.04348041067995833 0 0.40948896714378957 0.05055434744181983 0 0.3908528121234538 0.035995570554822158 0 0.39805180056669343 0.032772735105760037 0 0.39674782008621368 0.04348041067995833 0 0.3912475249538237 0.025882868266216091 0 0.3908528121234538 0.035995570554822158 0 0.39805180056669343 0.032772735105760037 0 0.38791705742610771 0.044539104287684539 0 0.3908528121234538 0.035995570554822158 0 0.39674782008621368 0.04348041067995833 0 0.38791705742610771 0.044539104287684539 0 0.39079668350586277 0.051215399393808793 0 0.39674782008621368 0.04348041067995833 0 0.39674782008621368 0.04348041067995833 0 0.40655765028286611 0.035582104639029083 0 0.40948896714378957 0.05055434744181983 0 0.39805180056669343 0.032772735105760037 0 0.39674782008621368 0.04348041067995833 0 0.40655765028286611 0.035582104639029083 0 0.40655765028286611 0.035582104639029083 0 0.41713079569888262 0.040856968430241461 0 0.41557099838193923 0.024039796491718179 0 0.41713079569888262 0.040856968430241461 0 0.42755741698364552 0.032815777208855347 0 0.41557099838193923 0.024039796491718179 0 0.40655765028286611 0.035582104639029083 0 0.41713079569888262 0.040856968430241461 0 0.40948896714378957 0.05055434744181983 0 0.41226619529834591 0.070009779738664735 0 0.40948896714378957 0.05055434744181983 0 0.42739758089851382 0.054541393999090262 0 0.41713079569888262 0.040856968430241461 0 0.40948896714378957 0.05055434744181983 0 0.42739758089851382 0.054541393999090262 0 0.41226619529834591 0.070009779738664735 0 0.42739758089851382 0.054541393999090262 0 0.43300293116684879 0.070359854062556224 0 0.42739758089851382 0.054541393999090262 0 0.44432728466234178 0.059795406129610977 0 0.41713079569888262 0.040856968430241461 0 0.42739758089851382 0.054541393999090262 0 0.42755741698364552 0.032815777208855347 0 0.42739758089851382 0.054541393999090262 0 0.42755741698364552 0.032815777208855347 0 0.44252896649868317 0.039073008259517338 0 0.42739758089851382 0.054541393999090262 0 0.44252896649868317 0.039073008259517338 0 0.42755741698364552 0.032815777208855347 0 0.4358194844604939 0.024219735287320941 0 0.44252896649868317 0.039073008259517338 0 0.42755741698364552 0.032815777208855347 0 0.41557099838193923 0.024039796491718179 0 0.4265644217351573 0.014684511896395219 0 0.4358194844604939 0.024219735287320941 0 0.4265644217351573 0.014684511896395219 0 0.44548351627008242 0.01642882659412407 0 0.42755741698364552 0.032815777208855347 0 0.4358194844604939 0.024219735287320941 0 0.4265644217351573 0.014684511896395219 0 0.41557099838193923 0.024039796491718179 0 0.4165272652869268 0.01155925859927168 0 0.4265644217351573 0.014684511896395219 0 0.41557099838193923 0.024039796491718179 0 0.40720094273855439 0.01372602960598159 0 0.4165272652869268 0.01155925859927168 0 0.40325323122183843 0.024352223252143548 0 0.41557099838193923 0.024039796491718179 0 0.40720094273855439 0.01372602960598159 0 0.40325323122183843 0.024352223252143548 0 0.40655765028286611 0.035582104639029083 0 0.41557099838193923 0.024039796491718179 0 0.41081432206005303 0.0037114498956348132 0 0.40720094273855439 0.01372602960598159 0 0.4165272652869268 0.01155925859927168 0 0.4165272652869268 0.01155925859927168 0 0.42248564151892998 0.0016345051066286029 0 0.4265644217351573 0.014684511896395219 0 0.41081432206005303 0.0037114498956348132 0 0.4165272652869268 0.01155925859927168 0 0.42248564151892998 0.0016345051066286029 0 0.42248564151892998 0.0016345051066286029 0 0.4265644217351573 0.014684511896395219 0 0.4382820622288856 -0.0014159552958160841 0 0.4265644217351573 0.014684511896395219 0 0.44548351627008242 0.01642882659412407 0 0.4382820622288856 -0.0014159552958160841 0 0.45100246047295739 0.0046664116742636159 0 0.44548351627008242 0.01642882659412407 0 0.4382820622288856 -0.0014159552958160841 0 0.45100246047295739 0.0046664116742636159 0 0.44548351627008242 0.01642882659412407 0 0.4580470330794123 0.0188547641718908 0 0.4358194844604939 0.024219735287320941 0 0.4514029071021442 0.02821869916314456 0 0.44548351627008242 0.01642882659412407 0 0.4358194844604939 0.024219735287320941 0 0.4514029071021442 0.02821869916314456 0 0.44252896649868317 0.039073008259517338 0 0.4514029071021442 0.02821869916314456 0 0.44548351627008242 0.01642882659412407 0 0.4580470330794123 0.0188547641718908 0 0.4514029071021442 0.02821869916314456 0 0.4580470330794123 0.0188547641718908 0 0.46553563141862692 0.027383902935855992 0 0.4580470330794123 0.0188547641718908 0 0.46553563141862692 0.027383902935855992 0 0.471035018561343 0.01684384088441979 0 0.4580470330794123 0.0188547641718908 0 0.4620271672997433 0.0081957990277541914 0 0.471035018561343 0.01684384088441979 0 0.4620271672997433 0.0081957990277541914 0 0.47207727543944228 0.0077163925679632076 0 0.45540766643685782 -0.0078732224449345398 0 0.4620271672997433 0.0081957990277541914 0 0.47207727543944228 0.0077163925679632076 0 0.471035018561343 0.01684384088441979 0 0.45100246047295739 0.0046664116742636159 0 0.4620271672997433 0.0081957990277541914 0 0.45540766643685782 -0.0078732224449345398 0 0.45100246047295739 0.0046664116742636159 0 0.4580470330794123 0.0188547641718908 0 0.4620271672997433 0.0081957990277541914 0 0.42739758089851382 0.054541393999090262 0 0.44432728466234178 0.059795406129610977 0 0.44252896649868317 0.039073008259517338 0 0.44432728466234178 0.059795406129610977 0 0.44252896649868317 0.039073008259517338 0 0.46100281088556699 0.043351957730158222 0 0.4514029071021442 0.02821869916314456 0 0.44252896649868317 0.039073008259517338 0 0.46100281088556699 0.043351957730158222 0 0.4514029071021442 0.02821869916314456 0 0.46553563141862692 0.027383902935855992 0 0.46100281088556699 0.043351957730158222 0 0.46553563141862692 0.027383902935855992 0 0.46100281088556699 0.043351957730158222 0 0.4764725540003833 0.035303178421407518 0 0.46368779630991369 0.062884433647911922 0 0.44432728466234178 0.059795406129610977 0 0.46100281088556699 0.043351957730158222 0 0.48297411160829701 0.071419164250366693 0 0.46368779630991369 0.062884433647911922 0 0.48184389815495748 0.047383459182506117 0 0.46368779630991369 0.062884433647911922 0 0.46100281088556699 0.043351957730158222 0 0.48184389815495748 0.047383459182506117 0 0.46368779630991369 0.062884433647911922 0 0.48184389815495748 0.047383459182506117 0 0.46100281088556699 0.043351957730158222 0 0.48184389815495748 0.047383459182506117 0 0.4764725540003833 0.035303178421407518 0 0.48184389815495748 0.047383459182506117 0 0.50000000000000089 0.031882484717099757 0 0.48184389815495748 0.047383459182506117 0 0.50000000000000089 0.031882484717099757 0 0.5 0.058972369132007867 0 0.48184389815495748 0.047383459182506117 0 0.4764725540003833 0.035303178421407518 0 0.50000000000000089 0.031882484717099757 0 0.48297411160829701 0.071419164250366693 0 0.48184389815495748 0.047383459182506117 0 0.5 0.058972369132007867 0 0.48173822001607031 0.002441982684480838 0 0.47207727543944228 0.0077163925679632076 0 0.45540766643685782 -0.0078732224449345398 0 0.48073089036299149 0.01447516008145705 0 0.48088876464914698 0.0066420825236524483 0 0.47207727543944228 0.0077163925679632076 0 0.48088876464914698 0.0066420825236524483 0 0.48173822001607031 0.002441982684480838 0 0.48944624590280772 0.014576472087587141 0 0.48073089036299149 0.01447516008145705 0 0.48088876464914698 0.0066420825236524483 0 0.48944624590280772 0.014576472087587141 0 0.48088876464914698 0.0066420825236524483 0 0.48173822001607031 0.002441982684480838 0 0.47207727543944228 0.0077163925679632076 0 0.48088876464914698 0.0066420825236524483 0 0.48173822001607031 0.002441982684480838 0 0.48073089036299149 0.01447516008145705 0 0.47207727543944228 0.0077163925679632076 0 0.471035018561343 0.01684384088441979 0 0.46553563141862692 0.027383902935855992 0 0.471035018561343 0.01684384088441979 0 0.48098968552297122 0.023479159592672289 0 0.46553563141862692 0.027383902935855992 0 0.4764725540003833 0.035303178421407518 0 0.48098968552297122 0.023479159592672289 0 0.48073089036299149 0.01447516008145705 0 0.471035018561343 0.01684384088441979 0 0.48098968552297122 0.023479159592672289 0 0.48073089036299149 0.01447516008145705 0 0.48098968552297122 0.023479159592672289 0 0.48944624590280772 0.014576472087587141 0 0.50000000000000089 0.031882484717099757 0 0.50000000000000044 0.0095961811708810997 0 0.48944624590280772 0.014576472087587141 0 0.4764725540003833 0.035303178421407518 0 0.50000000000000089 0.031882484717099757 0 0.48098968552297122 0.023479159592672289 0 0.50000000000000089 0.031882484717099757 0 0.48098968552297122 0.023479159592672289 0 0.48944624590280772 0.014576472087587141 0 0.48173822001607031 0.002441982684480838 0 0.50000000000000044 0.0095961811708810997 0 0.48944624590280772 0.014576472087587141 0 0.48173822001607031 0.002441982684480838 0 0.50000000000000044 0.0095961811708810997 0 0.48173822001607031 0.002441982684480838 0 0.50000000000000044 0.0095961811708810997 0 0.5 -0.01553848795347695 0 0.48173822001607031 0.002441982684480838 0 0.5 -0.01553848795347695 0 0.48723509010938909 -0.024737082977995831 0 0.48173822001607031 0.002441982684480838 0 0.48723509010938909 -0.024737082977995831 0 0.48173822001607031 0.002441982684480838 0 0.46944239540012012 -0.021901386132034111 0 0.45540766643685782 -0.0078732224449345398 0 0.48173822001607031 0.002441982684480838 0 0.46944239540012012 -0.021901386132034111 0 0.48723509010938909 -0.024737082977995831 0 0.46944239540012012 -0.021901386132034111 0 0.48723509010938909 -0.024737082977995831 0 0.47311684284700922 -0.039980301183512167 0 0.5 -0.01553848795347695 0 0.48723509010938909 -0.024737082977995831 0 0.5 -0.040673157077835087 0 0.48723509010938909 -0.024737082977995831 0 0.49273196020270971 -0.051916148640471983 0 0.48034048547664182 -0.050194577481915269 0 0.48723509010938909 -0.024737082977995831 0 0.49273196020270971 -0.051916148640471983 0 0.48723509010938909 -0.024737082977995831 0 0.5 -0.040673157077835087 0 0.49273196020270971 -0.051916148640471983 0 0.5 -0.040673157077835087 0 0.49273196020270971 -0.051916148640471983 0 0.5 -0.065807826202193331 0 0.49273196020270971 -0.051916148640471983 0 0.48384360039889979 -0.062204599920787272 0 0.48034048547664182 -0.050194577481915269 0 0.48034048547664182 -0.050194577481915269 0 0.47035120232490191 -0.060528185902064997 0 0.47311684284700922 -0.039980301183512167 0 0.47035120232490191 -0.060528185902064997 0 0.47311684284700922 -0.039980301183512167 0 0.48384360039889979 -0.062204599920787272 0 0.48034048547664182 -0.050194577481915269 0 0.47035120232490191 -0.060528185902064997 0 0.48723509010938909 -0.024737082977995831 0 0.48034048547664182 -0.050194577481915269 0 0.47311684284700922 -0.039980301183512167 0 0.46944239540012012 -0.021901386132034111 0 0.47311684284700922 -0.039980301183512167 0 0.44971415759127392 -0.039358306738208573 0 0.47035120232490191 -0.060528185902064997 0 0.47311684284700922 -0.039980301183512167 0 0.44971415759127392 -0.039358306738208573 0 0.47035120232490191 -0.060528185902064997 0 0.44971415759127392 -0.039358306738208573 0 0.47035120232490191 -0.060528185902064997 0 0.43963483674523918 -0.055334607978488382 0 0.44971415759127392 -0.039358306738208573 0 0.43963483674523918 -0.055334607978488382 0 0.44971415759127392 -0.039358306738208573 0 0.42419530264354072 -0.042652000491910397 0 0.46944239540012012 -0.021901386132034111 0 0.44971415759127392 -0.039358306738208573 0 0.45540766643685782 -0.0078732224449345398 0 0.44971415759127392 -0.039358306738208573 0 0.42907711285764621 -0.01818842757435184 0 0.44971415759127392 -0.039358306738208573 0 0.45540766643685782 -0.0078732224449345398 0 0.42907711285764621 -0.01818842757435184 0 0.45540766643685782 -0.0078732224449345398 0 0.42907711285764621 -0.01818842757435184 0 0.45100246047295739 0.0046664116742636159 0 0.4382820622288856 -0.0014159552958160841 0 0.45540766643685782 -0.0078732224449345398 0 0.4382820622288856 -0.0014159552958160841 0 0.45540766643685782 -0.0078732224449345398 0 0.42907711285764621 -0.01818842757435184 0 0.48173822001607031 0.002441982684480838 0 0.45540766643685782 -0.0078732224449345398 0 0.47129126618897188 -0.1223351355815797 0 0.47148248434309947 -0.114916285604633 0 0.48087269318342413 -0.1216818802472065 0 0.47148248434309947 -0.114916285604633 0 0.48087269318342413 -0.1216818802472065 0 0.47838814501791832 -0.1066654575105275 0 0.48087269318342413 -0.1216818802472065 0 0.48924328608656842 -0.1141618265083332 0 0.47838814501791832 -0.1066654575105275 0 0.5 -0.1122204549214597 0 0.48924328608656842 -0.1141618265083332 0 0.5 -0.13349841451636779 0 0.48087269318342413 -0.1216818802472065 0 0.48924328608656842 -0.1141618265083332 0 0.5 -0.13349841451636779 0 0.5 -0.1122204549214597 0 0.48924328608656842 -0.1141618265083332 0 0.48827073793524339 -0.097774102912636218 0 0.48924328608656842 -0.1141618265083332 0 0.48827073793524339 -0.097774102912636218 0 0.47838814501791832 -0.1066654575105275 0 0.5 -0.1122204549214597 0 0.48827073793524339 -0.097774102912636218 0 0.50000000000000266 -0.090942495326551576 0 0.47652975213937199 -0.091635549067057065 0 0.46683976751390588 -0.086617099886465918 0 0.46456669494636288 -0.10350535152343909 0 0.48827073793524339 -0.097774102912636218 0 0.47838814501791832 -0.1066654575105275 0 0.47652975213937199 -0.091635549067057065 0 0.47148248434309947 -0.114916285604633 0 0.47838814501791832 -0.1066654575105275 0 0.46456669494636288 -0.10350535152343909 0 0.47838814501791832 -0.1066654575105275 0 0.47652975213937199 -0.091635549067057065 0 0.46456669494636288 -0.10350535152343909 0 0.48827073793524339 -0.097774102912636218 0 0.47652975213937199 -0.091635549067057065 0 0.48517560116245317 -0.075735340614307423 0 0.47652975213937199 -0.091635549067057065 0 0.48517560116245317 -0.075735340614307423 0 0.46683976751390588 -0.086617099886465918 0 0.47652975213937199 -0.091635549067057065 0 0.46683976751390588 -0.086617099886465918 0 0.50000000000000266 -0.090942495326551576 0 0.49822883029603021 -0.079095214302948247 0 0.5 -0.065807826202193331 0 0.48827073793524339 -0.097774102912636218 0 0.50000000000000266 -0.090942495326551576 0 0.48517560116245317 -0.075735340614307423 0 0.50000000000000266 -0.090942495326551576 0 0.48517560116245317 -0.075735340614307423 0 0.50000000000000266 -0.090942495326551576 0 0.49822883029603021 -0.079095214302948247 0 0.48517560116245317 -0.075735340614307423 0 0.49273196020270971 -0.051916148640471983 0 0.49822883029603021 -0.079095214302948247 0 0.48384360039889979 -0.062204599920787272 0 0.49822883029603021 -0.079095214302948247 0 0.48517560116245317 -0.075735340614307423 0 0.49273196020270971 -0.051916148640471983 0 0.48384360039889979 -0.062204599920787272 0 0.49822883029603021 -0.079095214302948247 0 0.49273196020270971 -0.051916148640471983 0 0.49822883029603021 -0.079095214302948247 0 0.5 -0.065807826202193331 0 0.47035120232490191 -0.060528185902064997 0 0.48517560116245317 -0.075735340614307423 0 0.47035120232490191 -0.060528185902064997 0 0.48517560116245317 -0.075735340614307423 0 0.46683976751390588 -0.086617099886465918 0 0.48384360039889979 -0.062204599920787272 0 0.47035120232490191 -0.060528185902064997 0 0.48517560116245317 -0.075735340614307423 0 0.47035120232490191 -0.060528185902064997 0 0.46683976751390588 -0.086617099886465918 0 0.47035120232490191 -0.060528185902064997 0 0.44249197108241189 -0.074007360679063244 0 0.46683976751390588 -0.086617099886465918 0 0.47035120232490191 -0.060528185902064997 0 0.43963483674523918 -0.055334607978488382 0 0.44249197108241189 -0.074007360679063244 0 0.44249197108241189 -0.074007360679063244 0 0.46683976751390588 -0.086617099886465918 0 0.4490662803509099 -0.094083529251462475 0 0.44249197108241189 -0.074007360679063244 0 0.4490662803509099 -0.094083529251462475 0 0.42834270349958448 -0.099226311759436261 0 0.44249197108241189 -0.074007360679063244 0 0.46683976751390588 -0.086617099886465918 0 0.46683976751390588 -0.086617099886465918 0 0.46456669494636288 -0.10350535152343909 0 0.4490662803509099 -0.094083529251462475 0 0.46683976751390588 -0.086617099886465918 0 0.46456669494636288 -0.10350535152343909 0 0.46456669494636288 -0.10350535152343909 0 0.4490662803509099 -0.094083529251462475 0 0.44386094964032902 -0.11054798122052439 0 0.4490662803509099 -0.094083529251462475 0 0.44386094964032902 -0.11054798122052439 0 0.42834270349958448 -0.099226311759436261 0 0.44386094964032902 -0.11054798122052439 0 0.46257396642688631 -0.12529077885077469 0 0.45239247298790419 -0.125419693033265 0 0.44386094964032902 -0.11054798122052439 0 0.42916935431308728 -0.1205456085246996 0 0.4435038969132965 -0.12540022695152131 0 0.44386094964032902 -0.11054798122052439 0 0.45239247298790419 -0.125419693033265 0 0.4435038969132965 -0.12540022695152131 0 0.44386094964032902 -0.11054798122052439 0 0.46229362237882032 -0.1203936031604123 0 0.46257396642688631 -0.12529077885077469 0 0.46456669494636288 -0.10350535152343909 0 0.46229362237882032 -0.1203936031604123 0 0.46456669494636288 -0.10350535152343909 0 0.44386094964032902 -0.11054798122052439 0 0.46229362237882032 -0.1203936031604123 0 0.44386094964032902 -0.11054798122052439 0 0.46257396642688631 -0.12529077885077469 0 0.47148248434309947 -0.114916285604633 0 0.46456669494636288 -0.10350535152343909 0 0.46229362237882032 -0.1203936031604123 0 0.47129126618897188 -0.1223351355815797 0 0.46229362237882032 -0.1203936031604123 0 0.46257396642688631 -0.12529077885077469 0 0.47129126618897188 -0.1223351355815797 0 0.47148248434309947 -0.114916285604633 0 0.46229362237882032 -0.1203936031604123 0 0.44386094964032902 -0.11054798122052439 0 0.42916935431308728 -0.1205456085246996 0 0.42834270349958448 -0.099226311759436261 0 0.41143930547928681 -0.11934523636421419 0 0.42916935431308728 -0.1205456085246996 0 0.42834270349958448 -0.099226311759436261 0 0.41143930547928681 -0.11934523636421419 0 0.40555832972599831 -0.095826118330896617 0 0.41143930547928681 -0.11934523636421419 0 0.42834270349958448 -0.099226311759436261 0 0.40555832972599831 -0.095826118330896617 0 0.42834270349958448 -0.099226311759436261 0 0.41884290658632428 -0.080552882507727325 0 0.40555832972599831 -0.095826118330896617 0 0.41884290658632428 -0.080552882507727325 0 0.39967735397270959 -0.072307000297579083 0 0.40555832972599831 -0.095826118330896617 0 0.44249197108241189 -0.074007360679063244 0 0.42834270349958448 -0.099226311759436261 0 0.41884290658632428 -0.080552882507727325 0 0.44249197108241189 -0.074007360679063244 0 0.41814417465091752 -0.061397621471661459 0 0.43963483674523918 -0.055334607978488382 0 0.44249197108241189 -0.074007360679063244 0 0.41814417465091752 -0.061397621471661459 0 0.44249197108241189 -0.074007360679063244 0 0.41884290658632428 -0.080552882507727325 0 0.41814417465091752 -0.061397621471661459 0 0.41884290658632428 -0.080552882507727325 0 0.39967735397270959 -0.072307000297579083 0 0.41814417465091752 -0.061397621471661459 0 0.39967735397270959 -0.072307000297579083 0 0.38669795957132042 -0.057310603286660967 0 0.37240766699872252 -0.068318548019290964 0 0.39967735397270959 -0.072307000297579083 0 0.37781097748786241 -0.089314889372882261 0 0.37240766699872252 -0.068318548019290964 0 0.39967735397270959 -0.072307000297579083 0 0.37781097748786241 -0.089314889372882261 0 0.40555832972599831 -0.095826118330896617 0 0.39967735397270959 -0.072307000297579083 0 0.40555832972599831 -0.095826118330896617 0 0.40555832972599831 -0.095826118330896617 0 0.38953803654933628 -0.10754997095337659 0 0.39823574772599779 -0.11763079726210079 0 0.37781097748786241 -0.089314889372882261 0 0.40555832972599831 -0.095826118330896617 0 0.38953803654933628 -0.10754997095337659 0 0.37781097748786241 -0.089314889372882261 0 0.38953803654933628 -0.10754997095337659 0 0.37644505785585192 -0.1058120404938334 0 0.38953803654933628 -0.10754997095337659 0 0.37644505785585192 -0.1058120404938334 0 0.37720890243704291 -0.12310924361699779 0 0.38953803654933628 -0.10754997095337659 0 0.37720890243704291 -0.12310924361699779 0 0.38918813321375051 -0.12739880168557821 0 0.38953803654933628 -0.10754997095337659 0 0.39823574772599779 -0.11763079726210079 0 0.38918813321375051 -0.12739880168557821 0 0.41143930547928681 -0.11934523636421419 0 0.39823574772599779 -0.11763079726210079 0 0.40257569972698831 -0.13396225485532559 0 0.41143930547928681 -0.11934523636421419 0 0.40555832972599831 -0.095826118330896617 0 0.39823574772599779 -0.11763079726210079 0 0.42011428296152808 -0.02169968792975261 0 0.41401194260749391 -0.028450411104576211 0 0.41343304557213612 -0.018371446868227208 0 0.42011428296152808 -0.02169968792975261 0 0.41343304557213612 -0.018371446868227208 0 0.41928481904255338 -0.01548900553927589 0 0.42011428296152808 -0.02169968792975261 0 0.41928481904255338 -0.01548900553927589 0 0.42542521438275183 -0.0144422395697206 0 0.42011428296152808 -0.02169968792975261 0 0.41401194260749391 -0.028450411104576211 0 0.42742255973229643 -0.030069766767760062 0 0.41401194260749391 -0.028450411104576211 0 0.40522076275047969 -0.019933987949522329 0 0.40044964155059998 -0.029094842751199331 0 0.41401194260749391 -0.028450411104576211 0 0.41343304557213612 -0.018371446868227208 0 0.40522076275047969 -0.019933987949522329 0 0.41343304557213612 -0.018371446868227208 0 0.40806592415966281 -0.01253819616599721 0 0.40522076275047969 -0.019933987949522329 0 0.40806592415966281 -0.01253819616599721 0 0.4135204533098043 -0.0054466611181140526 0 0.41498054603746559 -0.011947546426581419 0 0.41343304557213612 -0.018371446868227208 0 0.40806592415966281 -0.01253819616599721 0 0.41498054603746559 -0.011947546426581419 0 0.41081432206005303 0.0037114498956348132 0 0.4135204533098043 -0.0054466611181140526 0 0.4046584776842293 -0.0050702490882302163 0 0.40806592415966281 -0.01253819616599721 0 0.4135204533098043 -0.0054466611181140526 0 0.4046584776842293 -0.0050702490882302163 0 0.41081432206005303 0.0037114498956348132 0 0.42248564151892998 0.0016345051066286029 0 0.4135204533098043 -0.0054466611181140526 0 0.42248564151892998 0.0016345051066286029 0 0.4135204533098043 -0.0054466611181140526 0 0.42119781252485211 -0.0083000839364812864 0 0.41343304557213612 -0.018371446868227208 0 0.41498054603746559 -0.011947546426581419 0 0.41928481904255338 -0.01548900553927589 0 0.4135204533098043 -0.0054466611181140526 0 0.41498054603746559 -0.011947546426581419 0 0.42119781252485211 -0.0083000839364812864 0 0.41498054603746559 -0.011947546426581419 0 0.42119781252485211 -0.0083000839364812864 0 0.41928481904255338 -0.01548900553927589 0 0.42542521438275183 -0.0144422395697206 0 0.42820760236351979 -0.0076976995852137747 0 0.42907711285764621 -0.01818842757435184 0 0.4382820622288856 -0.0014159552958160841 0 0.42820760236351979 -0.0076976995852137747 0 0.42907711285764621 -0.01818842757435184 0 0.42119781252485211 -0.0083000839364812864 0 0.41928481904255338 -0.01548900553927589 0 0.42542521438275183 -0.0144422395697206 0 0.42248564151892998 0.0016345051066286029 0 0.4382820622288856 -0.0014159552958160841 0 0.42820760236351979 -0.0076976995852137747 0 0.42119781252485211 -0.0083000839364812864 0 0.42542521438275183 -0.0144422395697206 0 0.42820760236351979 -0.0076976995852137747 0 0.42248564151892998 0.0016345051066286029 0 0.42119781252485211 -0.0083000839364812864 0 0.42820760236351979 -0.0076976995852137747 0 0.44971415759127392 -0.039358306738208573 0 0.42907711285764621 -0.01818842757435184 0 0.42742255973229643 -0.030069766767760062 0 0.42011428296152808 -0.02169968792975261 0 0.42907711285764621 -0.01818842757435184 0 0.42742255973229643 -0.030069766767760062 0 0.42011428296152808 -0.02169968792975261 0 0.42542521438275183 -0.0144422395697206 0 0.42907711285764621 -0.01818842757435184 0 0.42011428296152808 -0.02169968792975261 0 0.42907711285764621 -0.01818842757435184 0 0.42542521438275183 -0.0144422395697206 0 0.42907711285764621 -0.01818842757435184 0 0.44971415759127392 -0.039358306738208573 0 0.42742255973229643 -0.030069766767760062 0 0.42419530264354072 -0.042652000491910397 0 0.41401194260749391 -0.028450411104576211 0 0.42742255973229643 -0.030069766767760062 0 0.42419530264354072 -0.042652000491910397 0 0.43963483674523918 -0.055334607978488382 0 0.42419530264354072 -0.042652000491910397 0 0.41814417465091752 -0.061397621471661459 0 0.41814417465091752 -0.061397621471661459 0 0.41107184061272262 -0.047596707948501772 0 0.39379637821942232 -0.04878788226426127 0 0.42419530264354072 -0.042652000491910397 0 0.41814417465091752 -0.061397621471661459 0 0.41107184061272262 -0.047596707948501772 0 0.41401194260749391 -0.028450411104576211 0 0.42419530264354072 -0.042652000491910397 0 0.40815150693701141 -0.037549327566173699 0 0.42419530264354072 -0.042652000491910397 0 0.41107184061272262 -0.047596707948501772 0 0.40815150693701141 -0.037549327566173699 0 0.41401194260749391 -0.028450411104576211 0 0.40815150693701141 -0.037549327566173699 0 0.40044964155059998 -0.029094842751199331 0 0.41107184061272262 -0.047596707948501772 0 0.40815150693701141 -0.037549327566173699 0 0.39379637821942232 -0.04878788226426127 0 0.40815150693701141 -0.037549327566173699 0 0.39379637821942232 -0.04878788226426127 0 0.40044964155059998 -0.029094842751199331 0 0.39379637821942232 -0.04878788226426127 0 0.38867892262788012 -0.028322223649632432 0 0.39379637821942232 -0.04878788226426127 0 0.38867892262788012 -0.028322223649632432 0 0.40044964155059998 -0.029094842751199331 0 0.39967735397270959 -0.072307000297579083 0 0.39379637821942232 -0.04878788226426127 0 0.38669795957132042 -0.057310603286660967 0 0.41814417465091752 -0.061397621471661459 0 0.39379637821942232 -0.04878788226426127 0 0.39967735397270959 -0.072307000297579083 0 0.39379637821942232 -0.04878788226426127 0 0.39967735397270959 -0.072307000297579083 0 0.41814417465091752 -0.061397621471661459 0 0.39379637821942232 -0.04878788226426127 0 0.39379637821942232 -0.04878788226426127 0 0.38896036142985008 -0.046283306103098283 0 0.38669795957132042 -0.057310603286660967 0 0.37839056082150663 -0.050608978831784571 0 0.37240766699872252 -0.068318548019290964 0 0.38669795957132042 -0.057310603286660967 0 0.37839056082150663 -0.050608978831784571 0 0.38896036142985008 -0.046283306103098283 0 0.39379637821942232 -0.04878788226426127 0 0.38669795957132042 -0.057310603286660967 0 0.38896036142985008 -0.046283306103098283 0 0.39379637821942232 -0.04878788226426127 0 0.38896036142985008 -0.046283306103098283 0 0.38867892262788012 -0.028322223649632432 0 0.3834615598562825 -0.037386722635115492 0 0.38896036142985008 -0.046283306103098283 0 0.38867892262788012 -0.028322223649632432 0 0.37839056082150663 -0.050608978831784571 0 0.3834615598562825 -0.037386722635115492 0 0.38896036142985008 -0.046283306103098283 0 0.37839056082150663 -0.050608978831784571 0 0.3834615598562825 -0.037386722635115492 0 0.37356965880113402 -0.040783236975350308 0 0.38867892262788012 -0.028322223649632432 0 0.38356146703633898 -0.0078565650350033434 0 0.3834615598562825 -0.037386722635115492 0 0.37600683512296651 -0.014087071697862221 0 0.37356965880113402 -0.040783236975350308 0 0.3834615598562825 -0.037386722635115492 0 0.38867892262788012 -0.028322223649632432 0 0.37600683512296651 -0.014087071697862221 0 0.38867892262788012 -0.028322223649632432 0 0.37600683512296651 -0.014087071697862221 0 0.38356146703633898 -0.0078565650350033434 0 0.38867892262788012 -0.028322223649632432 0 0.39658225960386179 -0.014459285545308009 0 0.38356146703633898 -0.0078565650350033434 0 0.38867892262788012 -0.028322223649632432 0 0.40044964155059998 -0.029094842751199331 0 0.39658225960386179 -0.014459285545308009 0 0.40522076275047969 -0.019933987949522329 0 0.40044964155059998 -0.029094842751199331 0 0.39658225960386179 -0.014459285545308009 0 0.40806592415966281 -0.01253819616599721 0 0.40522076275047969 -0.019933987949522329 0 0.39658225960386179 -0.014459285545308009 0 0.40060323373222451 0.0042547197705496897 0 0.4046584776842293 -0.0050702490882302163 0 0.39531848553630572 -0.0042569273994520467 0 0.40806592415966281 -0.01253819616599721 0 0.4046584776842293 -0.0050702490882302163 0 0.39658225960386179 -0.014459285545308009 0 0.4046584776842293 -0.0050702490882302163 0 0.39658225960386179 -0.014459285545308009 0 0.39531848553630572 -0.0042569273994520467 0 0.39658225960386179 -0.014459285545308009 0 0.39531848553630572 -0.0042569273994520467 0 0.38356146703633898 -0.0078565650350033434 0 0.39025836247721268 0.0036292771787240202 0 0.39531848553630572 -0.0042569273994520467 0 0.38356146703633898 -0.0078565650350033434 0 0.37844401144479839 0.012609093579625891 0 0.37600683512296651 -0.014087071697862221 0 0.37844401144479839 0.012609093579625891 0 0.37600683512296651 -0.014087071697862221 0 0.38356146703633898 -0.0078565650350033434 0 0.37600683512296651 -0.014087071697862221 0 0.36665723294200347 -0.001883505129568449 0 0.35850646790810559 -0.01395473468271459 0 0.37844401144479839 0.012609093579625891 0 0.37600683512296651 -0.014087071697862221 0 0.36665723294200347 -0.001883505129568449 0 0.36665723294200347 -0.001883505129568449 0 0.35531676971978082 -0.0033532784323768001 0 0.35850646790810559 -0.01395473468271459 0 0.37600683512296651 -0.014087071697862221 0 0.37356965880113402 -0.040783236975350308 0 0.37600683512296651 -0.014087071697862221 0 0.36404947753274258 -0.026706798856440471 0 0.35850646790810559 -0.01395473468271459 0 0.37600683512296651 -0.014087071697862221 0 0.36404947753274258 -0.026706798856440471 0 0.37356965880113402 -0.040783236975350308 0 0.34748556133762742 -0.02738266599094942 0 0.35850646790810559 -0.01395473468271459 0 0.34370628527030811 -0.0115647124322744 0 0.36404947753274258 -0.026706798856440471 0 0.34748556133762742 -0.02738266599094942 0 0.35850646790810559 -0.01395473468271459 0 0.36404947753274258 -0.026706798856440471 0 0.34748556133762742 -0.02738266599094942 0 0.36012817770438982 -0.039413746555128387 0 0.33689267375143878 0.0039255003288513873 0 0.35531676971978082 -0.0033532784323768001 0 0.34370628527030811 -0.0115647124322744 0 0.35531676971978082 -0.0033532784323768001 0 0.35850646790810559 -0.01395473468271459 0 0.34370628527030811 -0.0115647124322744 0 0.33689267375143878 0.0039255003288513873 0 0.34370628527030811 -0.0115647124322744 0 0.32469666258817742 -0.019557632270551 0 0.33689267375143878 0.0039255003288513873 0 0.30352242257352219 0.0039185454548519476 0 0.32469666258817742 -0.019557632270551 0 0.34748556133762742 -0.02738266599094942 0 0.34370628527030811 -0.0115647124322744 0 0.32469666258817742 -0.019557632270551 0 0.34748556133762742 -0.02738266599094942 0 0.32469666258817742 -0.019557632270551 0 0.33457477032001748 -0.043965109755099818 0 0.31326255248553708 -0.043768501277314603 0 0.32924913997341337 -0.063603686862235317 0 0.31014365419524398 -0.06072536978512106 0 0.31326255248553708 -0.043768501277314603 0 0.32924913997341337 -0.063603686862235317 0 0.31326255248553708 -0.043768501277314603 0 0.33457477032001748 -0.043965109755099818 0 0.32924913997341337 -0.063603686862235317 0 0.32469666258817742 -0.019557632270551 0 0.31326255248553708 -0.043768501277314603 0 0.33457477032001748 -0.043965109755099818 0 0.33457477032001748 -0.043965109755099818 0 0.34313363496153881 -0.061193084728204693 0 0.35029003257871461 -0.048624574981710279 0 0.33457477032001748 -0.043965109755099818 0 0.34313363496153881 -0.061193084728204693 0 0.32924913997341337 -0.063603686862235317 0 0.35029003257871461 -0.048624574981710279 0 0.36524615827173029 -0.053571455971191423 0 0.35631850447425872 -0.066333179594821989 0 0.34313363496153881 -0.061193084728204693 0 0.35029003257871461 -0.048624574981710279 0 0.35631850447425872 -0.066333179594821989 0 0.35029003257871461 -0.048624574981710279 0 0.36012817770438982 -0.039413746555128387 0 0.36524615827173029 -0.053571455971191423 0 0.34748556133762742 -0.02738266599094942 0 0.33457477032001748 -0.043965109755099818 0 0.35029003257871461 -0.048624574981710279 0 0.34748556133762742 -0.02738266599094942 0 0.35029003257871461 -0.048624574981710279 0 0.36012817770438982 -0.039413746555128387 0 0.36404947753274258 -0.026706798856440471 0 0.36012817770438982 -0.039413746555128387 0 0.37356965880113402 -0.040783236975350308 0 0.36012817770438982 -0.039413746555128387 0 0.37356965880113402 -0.040783236975350308 0 0.36524615827173029 -0.053571455971191423 0 0.37839056082150663 -0.050608978831784571 0 0.36524615827173029 -0.053571455971191423 0 0.37240766699872252 -0.068318548019290964 0 0.37839056082150663 -0.050608978831784571 0 0.37356965880113402 -0.040783236975350308 0 0.36524615827173029 -0.053571455971191423 0 0.36524615827173029 -0.053571455971191423 0 0.37240766699872252 -0.068318548019290964 0 0.35631850447425872 -0.066333179594821989 0 0.37240766699872252 -0.068318548019290964 0 0.36259903827425999 -0.08213590949324566 0 0.35631850447425872 -0.066333179594821989 0 0.37781097748786241 -0.089314889372882261 0 0.37240766699872252 -0.068318548019290964 0 0.36259903827425999 -0.08213590949324566 0 0.37781097748786241 -0.089314889372882261 0 0.36259903827425999 -0.08213590949324566 0 0.3612223149491664 -0.1032740580320769 0 0.34523572746128989 -0.083438872447156087 0 0.3612223149491664 -0.1032740580320769 0 0.36259903827425999 -0.08213590949324566 0 0.34523572746128989 -0.083438872447156087 0 0.3612223149491664 -0.1032740580320769 0 0.34313363496153881 -0.061193084728204693 0 0.34523572746128989 -0.083438872447156087 0 0.35631850447425872 -0.066333179594821989 0 0.36259903827425999 -0.08213590949324566 0 0.34523572746128989 -0.083438872447156087 0 0.35631850447425872 -0.066333179594821989 0 0.37720890243704291 -0.12310924361699779 0 0.36253108037134668 -0.1248744885805331 0 0.3612223149491664 -0.1032740580320769 0 0.37644505785585192 -0.1058120404938334 0 0.37720890243704291 -0.12310924361699779 0 0.3612223149491664 -0.1032740580320769 0 0.37720890243704291 -0.12310924361699779 0 0.3612223149491664 -0.1032740580320769 0 0.37781097748786241 -0.089314889372882261 0 0.37644505785585192 -0.1058120404938334 0 0.3612223149491664 -0.1032740580320769 0 0.34523572746128989 -0.083438872447156087 0 0.3612223149491664 -0.1032740580320769 0 0.33932087337301742 -0.1007066993955318 0 0.3612223149491664 -0.1032740580320769 0 0.34941185211170689 -0.1127717253903176 0 0.33932087337301742 -0.1007066993955318 0 0.36253108037134668 -0.1248744885805331 0 0.33587402752894302 -0.122350175475488 0 0.36253108037134668 -0.1248744885805331 0 0.34941185211170689 -0.1127717253903176 0 0.33587402752894302 -0.122350175475488 0 0.36253108037134668 -0.1248744885805331 0 0.3612223149491664 -0.1032740580320769 0 0.34941185211170689 -0.1127717253903176 0 0.34941185211170689 -0.1127717253903176 0 0.33587402752894302 -0.122350175475488 0 0.33932087337301742 -0.1007066993955318 0 0.33587402752894302 -0.122350175475488 0 0.33932087337301742 -0.1007066993955318 0 0.31943204723016899 -0.10139701157958859 0 0.33932087337301742 -0.1007066993955318 0 0.31943204723016899 -0.10139701157958859 0 0.32474927095682959 -0.081008353448563344 0 0.33587402752894302 -0.122350175475488 0 0.31943204723016899 -0.10139701157958859 0 0.3092169746865393 -0.1198258623704429 0 0.33587402752894302 -0.122350175475488 0 0.3092169746865393 -0.1198258623704429 0 0.34523572746128989 -0.083438872447156087 0 0.32924913997341337 -0.063603686862235317 0 0.32474927095682959 -0.081008353448563344 0 0.34523572746128989 -0.083438872447156087 0 0.32924913997341337 -0.063603686862235317 0 0.34313363496153881 -0.061193084728204693 0 0.34523572746128989 -0.083438872447156087 0 0.32924913997341337 -0.063603686862235317 0 0.34523572746128989 -0.083438872447156087 0 0.33932087337301742 -0.1007066993955318 0 0.32474927095682959 -0.081008353448563344 0 0.31943204723016899 -0.10139701157958859 0 0.32474927095682959 -0.081008353448563344 0 0.31117343018006932 -0.08835554327446378 0 0.32474927095682959 -0.081008353448563344 0 0.30201438303726968 -0.075929904193525521 0 0.32474927095682959 -0.081008353448563344 0 0.30201438303726968 -0.075929904193525521 0 0.31117343018006932 -0.08835554327446378 0 0.32924913997341337 -0.063603686862235317 0 0.32474927095682959 -0.081008353448563344 0 0.31014365419524398 -0.06072536978512106 0 0.32474927095682959 -0.081008353448563344 0 0.30201438303726968 -0.075929904193525521 0 0.31014365419524398 -0.06072536978512106 0 0.30201438303726968 -0.075929904193525521 0 0.31014365419524398 -0.06072536978512106 0 0.29222542489931519 -0.060978945333093171 0 0.31117343018006932 -0.08835554327446378 0 0.29442961060618023 -0.089764156713605506 0 0.30306705175182019 -0.101009202806625 0 0.30201438303726968 -0.075929904193525521 0 0.31117343018006932 -0.08835554327446378 0 0.29442961060618023 -0.089764156713605506 0 0.29442961060618023 -0.089764156713605506 0 0.28691460331806928 -0.079185378374353493 0 0.27734124638624891 -0.089737863242296378 0 0.30201438303726968 -0.075929904193525521 0 0.29442961060618023 -0.089764156713605506 0 0.28691460331806928 -0.079185378374353493 0 0.30201438303726968 -0.075929904193525521 0 0.27927949511770961 -0.070851454938488739 0 0.29222542489931519 -0.060978945333093171 0 0.30201438303726968 -0.075929904193525521 0 0.27927949511770961 -0.070851454938488739 0 0.30201438303726968 -0.075929904193525521 0 0.28691460331806928 -0.079185378374353493 0 0.27927949511770961 -0.070851454938488739 0 0.28691460331806928 -0.079185378374353493 0 0.27927949511770961 -0.070851454938488739 0 0.27809334201771629 -0.079209584513290715 0 0.28691460331806928 -0.079185378374353493 0 0.27927949511770961 -0.070851454938488739 0 0.27927949511770961 -0.070851454938488739 0 0.27868582307562201 -0.055886184139343542 0 0.29222542489931519 -0.060978945333093171 0 0.31943204723016899 -0.10139701157958859 0 0.3092169746865393 -0.1198258623704429 0 0.30306705175182019 -0.101009202806625 0 0.3092169746865393 -0.1198258623704429 0 0.30306705175182019 -0.101009202806625 0 0.28879183359809052 -0.10393054527906551 0 0.31943204723016899 -0.10139701157958859 0 0.31117343018006932 -0.08835554327446378 0 0.30306705175182019 -0.101009202806625 0 0.28879183359809052 -0.10393054527906551 0 0.28255992184413548 -0.11730154926539781 0 0.27267591943638608 -0.1048970298088977 0 0.29442961060618023 -0.089764156713605506 0 0.28879183359809052 -0.10393054527906551 0 0.27734124638624891 -0.089737863242296378 0 0.29442961060618023 -0.089764156713605506 0 0.30306705175182019 -0.101009202806625 0 0.28879183359809052 -0.10393054527906551 0 0.3092169746865393 -0.1198258623704429 0 0.28255992184413548 -0.11730154926539781 0 0.3092169746865393 -0.1198258623704429 0 0.28879183359809052 -0.10393054527906551 0 0.28255992184413548 -0.11730154926539781 0 0.3092169746865393 -0.1198258623704429 0 0.28255992184413548 -0.11730154926539781 0 0.28721398294742878 -0.13035474923543569 0 0.28255992184413548 -0.11730154926539781 0 0.26776517015272971 -0.1222840496799191 0 0.28721398294742878 -0.13035474923543569 0 0.28255992184413548 -0.11730154926539781 0 0.26776517015272971 -0.1222840496799191 0 0.27267591943638608 -0.1048970298088977 0 0.26776517015272971 -0.1222840496799191 0 0.27267591943638608 -0.1048970298088977 0 0.26047800574605201 -0.11084537767631369 0 0.28879183359809052 -0.10393054527906551 0 0.27267591943638608 -0.1048970298088977 0 0.27734124638624891 -0.089737863242296378 0 0.27267591943638608 -0.1048970298088977 0 0.27734124638624891 -0.089737863242296378 0 0.26256105175446781 -0.092679464148907056 0 0.25771864553297669 -0.099620140202181948 0 0.26047800574605201 -0.11084537767631369 0 0.24375228786211539 -0.116580291014256 0 0.27267591943638608 -0.1048970298088977 0 0.25771864553297669 -0.099620140202181948 0 0.26256105175446781 -0.092679464148907056 0 0.25771864553297669 -0.099620140202181948 0 0.25304747237378489 -0.090741332181114118 0 0.24292322406264641 -0.096552741650977186 0 0.25771864553297669 -0.099620140202181948 0 0.26256105175446781 -0.092679464148907056 0 0.25304747237378489 -0.090741332181114118 0 0.27267591943638608 -0.1048970298088977 0 0.25771864553297669 -0.099620140202181948 0 0.26047800574605201 -0.11084537767631369 0 0.26776517015272971 -0.1222840496799191 0 0.26153006621115998 -0.13421007507225571 0 0.24375228786211539 -0.116580291014256 0 0.26776517015272971 -0.1222840496799191 0 0.24375228786211539 -0.116580291014256 0 0.26776517015272971 -0.1222840496799191 0 0.26047800574605201 -0.11084537767631369 0 0.24375228786211539 -0.116580291014256 0 0.27927949511770961 -0.070851454938488739 0 0.25811154610651499 -0.066123023671663908 0 0.26329678137076351 -0.053405898285071182 0 0.27927949511770961 -0.070851454938488739 0 0.25811154610651499 -0.066123023671663908 0 0.26883802324883782 -0.077063641498024305 0 0.27927949511770961 -0.070851454938488739 0 0.25811154610651499 -0.066123023671663908 0 0.26883802324883782 -0.077063641498024305 0 0.27927949511770961 -0.070851454938488739 0 0.27809334201771629 -0.079209584513290715 0 0.26883802324883782 -0.077063641498024305 0 0.27809334201771629 -0.079209584513290715 0 0.27734124638624891 -0.089737863242296378 0 0.26883802324883782 -0.077063641498024305 0 0.27734124638624891 -0.089737863242296378 0 0.25202197504294188 -0.078400955310045109 0 0.28691460331806928 -0.079185378374353493 0 0.27809334201771629 -0.079209584513290715 0 0.27734124638624891 -0.089737863242296378 0 0.27734124638624891 -0.089737863242296378 0 0.26256105175446781 -0.092679464148907056 0 0.25202197504294188 -0.078400955310045109 0 0.27734124638624891 -0.089737863242296378 0 0.25202197504294188 -0.078400955310045109 0 0.26256105175446781 -0.092679464148907056 0 0.25304747237378489 -0.090741332181114118 0 0.25202197504294188 -0.078400955310045109 0 0.25304747237378489 -0.090741332181114118 0 0.25202197504294188 -0.078400955310045109 0 0.24624903761231479 -0.086847438891893419 0 0.26883802324883782 -0.077063641498024305 0 0.25202197504294188 -0.078400955310045109 0 0.25811154610651499 -0.066123023671663908 0 0.25811154610651499 -0.066123023671663908 0 0.26329678137076351 -0.053405898285071182 0 0.24870160087168189 -0.052882304334001928 0 0.26329678137076351 -0.053405898285071182 0 0.24870160087168189 -0.052882304334001928 0 0.24731406762381819 -0.035960341631652723 0 0.27927949511770961 -0.070851454938488739 0 0.26329678137076351 -0.053405898285071182 0 0.27868582307562201 -0.055886184139343542 0 0.27927949511770961 -0.070851454938488739 0 0.26329678137076351 -0.053405898285071182 0 0.26329678137076351 -0.053405898285071182 0 0.27868582307562201 -0.055886184139343542 0 0.27337213238318842 -0.044040078526876879 0 0.27868582307562201 -0.055886184139343542 0 0.27337213238318842 -0.044040078526876879 0 0.28525528160713332 -0.050154543613187753 0 0.26329678137076351 -0.053405898285071182 0 0.27337213238318842 -0.044040078526876879 0 0.26311483972878968 -0.036713614733010089 0 0.27337213238318842 -0.044040078526876879 0 0.27217486102646721 -0.027861542379398439 0 0.28494473946257981 -0.034556038004921102 0 0.27337213238318842 -0.044040078526876879 0 0.26311483972878968 -0.036713614733010089 0 0.27217486102646721 -0.027861542379398439 0 0.27337213238318842 -0.044040078526876879 0 0.28525528160713332 -0.050154543613187753 0 0.28494473946257981 -0.034556038004921102 0 0.26311483972878968 -0.036713614733010089 0 0.25941635623971138 -0.02230021284205122 0 0.24731406762381819 -0.035960341631652723 0 0.26329678137076351 -0.053405898285071182 0 0.24731406762381819 -0.035960341631652723 0 0.26329678137076351 -0.053405898285071182 0 0.26311483972878968 -0.036713614733010089 0 0.24731406762381819 -0.035960341631652723 0 0.25941635623971138 -0.02230021284205122 0 0.24731406762381819 -0.035960341631652723 0 0.2482857443068576 -0.021714794414400052 0 0.25941635623971138 -0.02230021284205122 0 0.25508119948702751 -0.010083838205662381 0 0.2482857443068576 -0.021714794414400052 0 0.26311483972878968 -0.036713614733010089 0 0.25941635623971138 -0.02230021284205122 0 0.27217486102646721 -0.027861542379398439 0 0.2541426920980116 -0.0036136263454906951 0 0.25508119948702751 -0.010083838205662381 0 0.24138147174972829 -0.0061427828714447699 0 0.2541426920980116 -0.0036136263454906951 0 0.25508119948702751 -0.010083838205662381 0 0.26047117107291767 -0.0019720443344692288 0 0.25446675038947358 0.0029162606258486688 0 0.2541426920980116 -0.0036136263454906951 0 0.26047117107291767 -0.0019720443344692288 0 0.25941635623971138 -0.02230021284205122 0 0.25508119948702751 -0.010083838205662381 0 0.26474460583379889 -0.01023883548432745 0 0.25941635623971138 -0.02230021284205122 0 0.26474460583379889 -0.01023883548432745 0 0.27166734417845928 -0.01430021117376327 0 0.25508119948702751 -0.010083838205662381 0 0.26474460583379889 -0.01023883548432745 0 0.26047117107291767 -0.0019720443344692288 0 0.26474460583379889 -0.01023883548432745 0 0.26047117107291767 -0.0019720443344692288 0 0.27708695819087842 -0.0025378708656911609 0 0.26474460583379889 -0.01023883548432745 0 0.27166734417845928 -0.01430021117376327 0 0.27708695819087842 -0.0025378708656911609 0 0.27166734417845928 -0.01430021117376327 0 0.27708695819087842 -0.0025378708656911609 0 0.28469269166600031 -0.01545933141113482 0 0.27217486102646721 -0.027861542379398439 0 0.28469269166600031 -0.01545933141113482 0 0.28494473946257981 -0.034556038004921102 0 0.25941635623971138 -0.02230021284205122 0 0.27166734417845928 -0.01430021117376327 0 0.27217486102646721 -0.027861542379398439 0 0.27166734417845928 -0.01430021117376327 0 0.27217486102646721 -0.027861542379398439 0 0.28469269166600031 -0.01545933141113482 0 0.28469269166600031 -0.01545933141113482 0 0.29727596499766062 -0.023933315692393788 0 0.28494473946257981 -0.034556038004921102 0 0.30352242257352219 0.0039185454548519476 0 0.28469269166600031 -0.01545933141113482 0 0.29727596499766062 -0.023933315692393788 0 0.30352242257352219 0.0039185454548519476 0 0.27708695819087842 -0.0025378708656911609 0 0.28469269166600031 -0.01545933141113482 0 0.30352242257352219 0.0039185454548519476 0 0.32469666258817742 -0.019557632270551 0 0.29727596499766062 -0.023933315692393788 0 0.32469666258817742 -0.019557632270551 0 0.31326255248553708 -0.043768501277314603 0 0.29727596499766062 -0.023933315692393788 0 0.31326255248553708 -0.043768501277314603 0 0.29727596499766062 -0.023933315692393788 0 0.2968975050950291 -0.045887416406534938 0 0.31326255248553708 -0.043768501277314603 0 0.29727596499766062 -0.023933315692393788 0 0.31326255248553708 -0.043768501277314603 0 0.2968975050950291 -0.045887416406534938 0 0.31014365419524398 -0.06072536978512106 0 0.2968975050950291 -0.045887416406534938 0 0.31014365419524398 -0.06072536978512106 0 0.29222542489931519 -0.060978945333093171 0 0.2968975050950291 -0.045887416406534938 0 0.29222542489931519 -0.060978945333093171 0 0.28525528160713332 -0.050154543613187753 0 0.27868582307562201 -0.055886184139343542 0 0.29222542489931519 -0.060978945333093171 0 0.28525528160713332 -0.050154543613187753 0 0.2968975050950291 -0.045887416406534938 0 0.28525528160713332 -0.050154543613187753 0 0.28494473946257981 -0.034556038004921102 0 0.29727596499766062 -0.023933315692393788 0 0.2968975050950291 -0.045887416406534938 0 0.28494473946257981 -0.034556038004921102 0 0.29579617193404978 -0.19432558104056491 0 0.30588539897632072 -0.22256652654210629 0 0.2776594049058328 -0.2175861504380624 0 0.29579617193404978 -0.19432558104056491 0 0.2776594049058328 -0.2175861504380624 0 0.2764107852420567 -0.19644220614923899 0 0.29579617193404978 -0.19432558104056491 0 0.2764107852420567 -0.19644220614923899 0 0.2792899687438003 -0.18116405860585089 0 0.29579617193404978 -0.19432558104056491 0 0.31045946319455608 -0.20263901644370941 0 0.31057073564158039 -0.17760626025882659 0 0.29579617193404978 -0.19432558104056491 0 0.30588539897632072 -0.22256652654210629 0 0.31045946319455608 -0.20263901644370941 0 0.30588539897632072 -0.22256652654210629 0 0.32020032842118662 -0.2136972324735969 0 0.29579617193404978 -0.19432558104056491 0 0.31045946319455608 -0.20263901644370941 0 0.30588539897632072 -0.22256652654210629 0 0.29681701546221179 -0.23419681124085551 0 0.31597462601859122 -0.25080747204364812 0 0.30111904597271899 -0.2536098058489899 0 0.30588539897632072 -0.22256652654210629 0 0.29681701546221179 -0.23419681124085551 0 0.31597462601859122 -0.25080747204364812 0 0.30588539897632072 -0.22256652654210629 0 0.31597462601859122 -0.25080747204364812 0 0.29681701546221179 -0.23419681124085551 0 0.31597462601859122 -0.25080747204364812 0 0.29681701546221179 -0.23419681124085551 0 0.30111904597271899 -0.2536098058489899 0 0.28456511698073272 -0.25518130134833977 0 0.29681701546221179 -0.23419681124085551 0 0.27830026498091959 -0.23745462562099759 0 0.28456511698073272 -0.25518130134833977 0 0.30588539897632072 -0.22256652654210629 0 0.29681701546221179 -0.23419681124085551 0 0.2776594049058328 -0.2175861504380624 0 0.29681701546221179 -0.23419681124085551 0 0.27830026498091959 -0.23745462562099759 0 0.2776594049058328 -0.2175861504380624 0 0.29681701546221179 -0.23419681124085551 0 0.2776594049058328 -0.2175861504380624 0 0.26584409390649738 -0.23415831621220631 0 0.27830026498091959 -0.23745462562099759 0 0.2776594049058328 -0.2175861504380624 0 0.26584409390649738 -0.23415831621220631 0 0.25658827463044448 -0.2222138965281123 0 0.2776594049058328 -0.2175861504380624 0 0.27830026498091959 -0.23745462562099759 0 0.28456511698073272 -0.25518130134833977 0 0.26629969424128969 -0.25192769388052821 0 0.26584409390649738 -0.23415831621220631 0 0.27830026498091959 -0.23745462562099759 0 0.26629969424128969 -0.25192769388052821 0 0.26584409390649738 -0.23415831621220631 0 0.25037283077400019 -0.2416092145933311 0 0.26629969424128969 -0.25192769388052821 0 0.25037283077400019 -0.2416092145933311 0 0.25658827463044448 -0.2222138965281123 0 0.2446094219978813 -0.2276121794933563 0 0.26584409390649738 -0.23415831621220631 0 0.25037283077400019 -0.2416092145933311 0 0.25658827463044448 -0.2222138965281123 0 0.25658827463044448 -0.2222138965281123 0 0.2776594049058328 -0.2175861504380624 0 0.25850179434945381 -0.20097548963526929 0 0.25658827463044448 -0.2222138965281123 0 0.25850179434945381 -0.20097548963526929 0 0.23907695871134879 -0.21289681242661959 0 0.2776594049058328 -0.2175861504380624 0 0.25850179434945381 -0.20097548963526929 0 0.2776594049058328 -0.2175861504380624 0 0.2764107852420567 -0.19644220614923899 0 0.25850179434945381 -0.20097548963526929 0 0.2764107852420567 -0.19644220614923899 0 0.25850179434945381 -0.20097548963526929 0 0.26539786460737957 -0.18100391429238191 0 0.25850179434945381 -0.20097548963526929 0 0.26539786460737957 -0.18100391429238191 0 0.23934418379307471 -0.18436482883247621 0 0.26539786460737957 -0.18100391429238191 0 0.25449645062408999 -0.16331052089379791 0 0.23934418379307471 -0.18436482883247621 0 0.26539786460737957 -0.18100391429238191 0 0.25449645062408999 -0.16331052089379791 0 0.27043371620885309 -0.16438603764101259 0 0.25449645062408999 -0.16331052089379791 0 0.27043371620885309 -0.16438603764101259 0 0.2633734196266177 -0.15149826902969399 0 0.27043371620885309 -0.16438603764101259 0 0.2792899687438003 -0.18116405860585089 0 0.28570694489177878 -0.1660846355390232 0 0.27043371620885309 -0.16438603764101259 0 0.27930784456020519 -0.15183985913025491 0 0.28570694489177878 -0.1660846355390232 0 0.26539786460737957 -0.18100391429238191 0 0.27043371620885309 -0.16438603764101259 0 0.2792899687438003 -0.18116405860585089 0 0.2764107852420567 -0.19644220614923899 0 0.26539786460737957 -0.18100391429238191 0 0.2792899687438003 -0.18116405860585089 0 0.26153006621115998 -0.13421007507225571 0 0.24375228786211539 -0.116580291014256 0 0.24955680073527009 -0.143898101237383 0 0.26153006621115998 -0.13421007507225571 0 0.24375228786211539 -0.116580291014256 0 0.25449645062408999 -0.16331052089379791 0 0.2633734196266177 -0.15149826902969399 0 0.24955680073527009 -0.143898101237383 0 0.26153006621115998 -0.13421007507225571 0 0.2633734196266177 -0.15149826902969399 0 0.24955680073527009 -0.143898101237383 0 0.27043371620885309 -0.16438603764101259 0 0.2633734196266177 -0.15149826902969399 0 0.27930784456020519 -0.15183985913025491 0 0.27561771784950778 -0.13784369003748159 0 0.28570694489177878 -0.1660846355390232 0 0.26153006621115998 -0.13421007507225571 0 0.27930784456020519 -0.15183985913025491 0 0.27561771784950778 -0.13784369003748159 0 0.27930784456020519 -0.15183985913025491 0 0.27561771784950778 -0.13784369003748159 0 0.28570694489177878 -0.1660846355390232 0 0.26153006621115998 -0.13421007507225571 0 0.2633734196266177 -0.15149826902969399 0 0.27930784456020519 -0.15183985913025491 0 0.26153006621115998 -0.13421007507225571 0 0.27930784456020519 -0.15183985913025491 0 0.26776517015272971 -0.1222840496799191 0 0.27561771784950778 -0.13784369003748159 0 0.28721398294742878 -0.13035474923543569 0 0.26776517015272971 -0.1222840496799191 0 0.26153006621115998 -0.13421007507225571 0 0.27561771784950778 -0.13784369003748159 0 0.27561771784950778 -0.13784369003748159 0 0.28721398294742878 -0.13035474923543569 0 0.28891568690104508 -0.14625428249578579 0 0.28721398294742878 -0.13035474923543569 0 0.28891568690104508 -0.14625428249578579 0 0.29920842625061578 -0.1386190615635868 0 0.28891568690104508 -0.14625428249578579 0 0.29920842625061578 -0.1386190615635868 0 0.29789574789403661 -0.15876522012859751 0 0.27561771784950778 -0.13784369003748159 0 0.28891568690104508 -0.14625428249578579 0 0.28570694489177878 -0.1660846355390232 0 0.30985117626407932 -0.1486491484402036 0 0.29920842625061578 -0.1386190615635868 0 0.29789574789403661 -0.15876522012859751 0 0.30985117626407932 -0.1486491484402036 0 0.29789574789403661 -0.15876522012859751 0 0.3134799250960158 -0.16133035304856411 0 0.30985117626407932 -0.1486491484402036 0 0.29920842625061578 -0.1386190615635868 0 0.31980994510895661 -0.13408045692276491 0 0.3092169746865393 -0.1198258623704429 0 0.28721398294742878 -0.13035474923543569 0 0.29920842625061578 -0.1386190615635868 0 0.3092169746865393 -0.1198258623704429 0 0.29920842625061578 -0.1386190615635868 0 0.31980994510895661 -0.13408045692276491 0 0.29579617193404978 -0.19432558104056491 0 0.2792899687438003 -0.18116405860585089 0 0.28570694489177878 -0.1660846355390232 0 0.29579617193404978 -0.19432558104056491 0 0.28570694489177878 -0.1660846355390232 0 0.29579617193404978 -0.19432558104056491 0 0.28570694489177878 -0.1660846355390232 0 0.29784246694311001 -0.17248502473641619 0 0.28891568690104508 -0.14625428249578579 0 0.28570694489177878 -0.1660846355390232 0 0.29789574789403661 -0.15876522012859751 0 0.28570694489177878 -0.1660846355390232 0 0.29789574789403661 -0.15876522012859751 0 0.29784246694311001 -0.17248502473641619 0 0.29789574789403661 -0.15876522012859751 0 0.31057073564158039 -0.17760626025882659 0 0.3134799250960158 -0.16133035304856411 0 0.29789574789403661 -0.15876522012859751 0 0.31057073564158039 -0.17760626025882659 0 0.29784246694311001 -0.17248502473641619 0 0.29789574789403661 -0.15876522012859751 0 0.31057073564158039 -0.17760626025882659 0 0.29579617193404978 -0.19432558104056491 0 0.31057073564158039 -0.17760626025882659 0 0.29784246694311001 -0.17248502473641619 0 0.31057073564158039 -0.17760626025882659 0 0.33117051957001492 -0.16690810347740409 0 0.33960500058918919 -0.18923554211963439 0 0.31057073564158039 -0.17760626025882659 0 0.32324572338912438 -0.19644730038905581 0 0.3134799250960158 -0.16133035304856411 0 0.33117051957001492 -0.16690810347740409 0 0.32297156368297691 -0.15191279281852399 0 0.31057073564158039 -0.17760626025882659 0 0.3134799250960158 -0.16133035304856411 0 0.33117051957001492 -0.16690810347740409 0 0.33117051957001492 -0.16690810347740409 0 0.34312821131240068 -0.1490342399984359 0 0.35150112372442083 -0.17432517416681301 0 0.33117051957001492 -0.16690810347740409 0 0.35150112372442083 -0.17432517416681301 0 0.33960500058918919 -0.18923554211963439 0 0.33587402752894302 -0.122350175475488 0 0.3092169746865393 -0.1198258623704429 0 0.31980994510895661 -0.13408045692276491 0 0.30985117626407932 -0.1486491484402036 0 0.31980994510895661 -0.13408045692276491 0 0.32297156368297691 -0.15191279281852399 0 0.30985117626407932 -0.1486491484402036 0 0.3134799250960158 -0.16133035304856411 0 0.32297156368297691 -0.15191279281852399 0 0.33117051957001492 -0.16690810347740409 0 0.32297156368297691 -0.15191279281852399 0 0.34312821131240068 -0.1490342399984359 0 0.31980994510895661 -0.13408045692276491 0 0.32297156368297691 -0.15191279281852399 0 0.34312821131240068 -0.1490342399984359 0 0.33587402752894302 -0.122350175475488 0 0.31980994510895661 -0.13408045692276491 0 0.34312821131240068 -0.1490342399984359 0 0.36253108037134668 -0.1248744885805331 0 0.33587402752894302 -0.122350175475488 0 0.3555623608711499 -0.1359942506039106 0 0.33587402752894302 -0.122350175475488 0 0.34312821131240068 -0.1490342399984359 0 0.3555623608711499 -0.1359942506039106 0 0.34312821131240068 -0.1490342399984359 0 0.3555623608711499 -0.1359942506039106 0 0.36858459771950869 -0.15733985743645959 0 0.3555623608711499 -0.1359942506039106 0 0.36652086356581781 -0.12946943863695781 0 0.36858459771950869 -0.15733985743645959 0 0.36652086356581781 -0.12946943863695781 0 0.36858459771950869 -0.15733985743645959 0 0.36652086356581781 -0.12946943863695781 0 0.36858459771950869 -0.15733985743645959 0 0.3787995421462832 -0.1425544525875144 0 0.36652086356581781 -0.12946943863695781 0 0.37808333446084269 -0.1309391893982525 0 0.3787995421462832 -0.1425544525875144 0 0.36253108037134668 -0.1248744885805331 0 0.36652086356581781 -0.12946943863695781 0 0.37808333446084269 -0.1309391893982525 0 0.36253108037134668 -0.1248744885805331 0 0.3555623608711499 -0.1359942506039106 0 0.36652086356581781 -0.12946943863695781 0 0.35150112372442083 -0.17432517416681301 0 0.37064833187319962 -0.1852102762359614 0 0.35587008128221181 -0.19822302573298239 0 0.35150112372442083 -0.17432517416681301 0 0.35587008128221181 -0.19822302573298239 0 0.33960500058918919 -0.18923554211963439 0 0.34312821131240068 -0.1490342399984359 0 0.35150112372442083 -0.17432517416681301 0 0.36858459771950869 -0.15733985743645959 0 0.36858459771950869 -0.15733985743645959 0 0.37064833187319962 -0.1852102762359614 0 0.35150112372442083 -0.17432517416681301 0 0.36858459771950869 -0.15733985743645959 0 0.37064833187319962 -0.1852102762359614 0 0.36858459771950869 -0.15733985743645959 0 0.37064833187319962 -0.1852102762359614 0 0.3834788620725188 -0.17954848884060079 0 0.37064833187319962 -0.1852102762359614 0 0.37271206602689039 -0.21308069503546309 0 0.38139900114097952 -0.20469292352659629 0 0.37064833187319962 -0.1852102762359614 0 0.37271206602689039 -0.21308069503546309 0 0.37064833187319962 -0.1852102762359614 0 0.37271206602689039 -0.21308069503546309 0 0.35587008128221181 -0.19822302573298239 0 0.37271206602689039 -0.21308069503546309 0 0.35603419272415182 -0.2169366224123114 0 0.35587008128221181 -0.19822302573298239 0 0.35603419272415182 -0.2169366224123114 0 0.35587008128221181 -0.19822302573298239 0 0.33592071113666833 -0.21528834051928489 0 0.35587008128221181 -0.19822302573298239 0 0.33960500058918919 -0.18923554211963439 0 0.33592071113666833 -0.21528834051928489 0 0.33960500058918919 -0.18923554211963439 0 0.33592071113666833 -0.21528834051928489 0 0.32324572338912438 -0.19644730038905581 0 0.33592071113666833 -0.21528834051928489 0 0.32324572338912438 -0.19644730038905581 0 0.33592071113666833 -0.21528834051928489 0 0.32020032842118662 -0.2136972324735969 0 0.32324572338912438 -0.19644730038905581 0 0.31045946319455608 -0.20263901644370941 0 0.32020032842118662 -0.2136972324735969 0 0.32324572338912438 -0.19644730038905581 0 0.31057073564158039 -0.17760626025882659 0 0.33960500058918919 -0.18923554211963439 0 0.32324572338912438 -0.19644730038905581 0 0.31045946319455608 -0.20263901644370941 0 0.31057073564158039 -0.17760626025882659 0 0.32324572338912438 -0.19644730038905581 0 0.32549034540926353 -0.23154497847382799 0 0.33517615116993849 -0.24743488902137309 0 0.31597462601859122 -0.25080747204364812 0 0.30588539897632072 -0.22256652654210629 0 0.32549034540926353 -0.23154497847382799 0 0.31597462601859122 -0.25080747204364812 0 0.30588539897632072 -0.22256652654210629 0 0.32020032842118662 -0.2136972324735969 0 0.32549034540926353 -0.23154497847382799 0 0.33592071113666833 -0.21528834051928489 0 0.32020032842118662 -0.2136972324735969 0 0.32549034540926353 -0.23154497847382799 0 0.33592071113666833 -0.21528834051928489 0 0.32549034540926353 -0.23154497847382799 0 0.34859569888421221 -0.23412938064951411 0 0.33592071113666833 -0.21528834051928489 0 0.34859569888421221 -0.23412938064951411 0 0.32549034540926353 -0.23154497847382799 0 0.33517615116993849 -0.24743488902137309 0 0.34859569888421221 -0.23412938064951411 0 0.33517615116993849 -0.24743488902137309 0 0.34859569888421221 -0.23412938064951411 0 0.35185333732921159 -0.25428502110151557 0 0.34859569888421221 -0.23412938064951411 0 0.36075586336603621 -0.2426037127049111 0 0.35185333732921159 -0.25428502110151557 0 0.34859569888421221 -0.23412938064951411 0 0.36291464790978972 -0.22902601310760301 0 0.36075586336603621 -0.2426037127049111 0 0.35603419272415182 -0.2169366224123114 0 0.34859569888421221 -0.23412938064951411 0 0.36291464790978972 -0.22902601310760301 0 0.35603419272415182 -0.2169366224123114 0 0.33592071113666833 -0.21528834051928489 0 0.34859569888421221 -0.23412938064951411 0 0.37271206602689039 -0.21308069503546309 0 0.35603419272415182 -0.2169366224123114 0 0.36291464790978972 -0.22902601310760301 0 0.37271206602689039 -0.21308069503546309 0 0.37477580018058132 -0.24095111383496479 0 0.37555308153547928 -0.22286467051027881 0 0.37271206602689039 -0.21308069503546309 0 0.37477580018058132 -0.24095111383496479 0 0.37271206602689039 -0.21308069503546309 0 0.36291464790978972 -0.22902601310760301 0 0.37477580018058132 -0.24095111383496479 0 0.36075586336603621 -0.2426037127049111 0 0.37477580018058132 -0.24095111383496479 0 0.36563983252638571 -0.25462703483095822 0 0.36291464790978972 -0.22902601310760301 0 0.36075586336603621 -0.2426037127049111 0 0.37477580018058132 -0.24095111383496479 0 0.37477580018058132 -0.24095111383496479 0 0.39321551516580561 -0.23618023300957031 0 0.38725375881062551 -0.25185160038302579 0 0.39321551516580561 -0.23618023300957031 0 0.41087794879613182 -0.2494957955088617 0 0.40741230325918792 -0.23450562481703699 0 0.39321551516580561 -0.23618023300957031 0 0.41087794879613182 -0.2494957955088617 0 0.39321551516580561 -0.23618023300957031 0 0.38725375881062551 -0.25185160038302579 0 0.39640803358832022 -0.25154779433757402 0 0.39321551516580561 -0.23618023300957031 0 0.41087794879613182 -0.2494957955088617 0 0.39640803358832022 -0.25154779433757402 0 0.4055308246994358 -0.22407667781788709 0 0.39424069285124719 -0.22310079746779379 0 0.40434357831770951 -0.21487406561090469 0 0.4055308246994358 -0.22407667781788709 0 0.39424069285124719 -0.22310079746779379 0 0.40741230325918792 -0.23450562481703699 0 0.39321551516580561 -0.23618023300957031 0 0.39424069285124719 -0.22310079746779379 0 0.40741230325918792 -0.23450562481703699 0 0.37477580018058132 -0.24095111383496479 0 0.39321551516580561 -0.23618023300957031 0 0.37555308153547928 -0.22286467051027881 0 0.39424069285124719 -0.22310079746779379 0 0.37555308153547928 -0.22286467051027881 0 0.38300691860546521 -0.21527996176244341 0 0.39321551516580561 -0.23618023300957031 0 0.37555308153547928 -0.22286467051027881 0 0.39321551516580561 -0.23618023300957031 0 0.39424069285124719 -0.22310079746779379 0 0.37555308153547928 -0.22286467051027881 0 0.37271206602689039 -0.21308069503546309 0 0.37555308153547928 -0.22286467051027881 0 0.38300691860546521 -0.21527996176244341 0 0.37271206602689039 -0.21308069503546309 0 0.38139900114097952 -0.20469292352659629 0 0.38300691860546521 -0.21527996176244341 0 0.38139900114097952 -0.20469292352659629 0 0.39078770323730427 -0.19674260859680251 0 0.39112975147272949 -0.2126607222720846 0 0.38139900114097952 -0.20469292352659629 0 0.38300691860546521 -0.21527996176244341 0 0.39112975147272949 -0.2126607222720846 0 0.39424069285124719 -0.22310079746779379 0 0.38300691860546521 -0.21527996176244341 0 0.39112975147272949 -0.2126607222720846 0 0.37064833187319962 -0.1852102762359614 0 0.38139900114097952 -0.20469292352659629 0 0.39078770323730427 -0.19674260859680251 0 0.39078770323730427 -0.19674260859680251 0 0.40475141021500721 -0.1910589369573561 0 0.39510197637232292 -0.1839605883432579 0 0.39078770323730427 -0.19674260859680251 0 0.40426546228868082 -0.20108352786525729 0 0.397631623829106 -0.20634023108626229 0 0.39078770323730427 -0.19674260859680251 0 0.40426546228868082 -0.20108352786525729 0 0.40475141021500721 -0.1910589369573561 0 0.39078770323730427 -0.19674260859680251 0 0.39112975147272949 -0.2126607222720846 0 0.397631623829106 -0.20634023108626229 0 0.39112975147272949 -0.2126607222720846 0 0.397631623829106 -0.20634023108626229 0 0.40434357831770951 -0.21487406561090469 0 0.39424069285124719 -0.22310079746779379 0 0.39112975147272949 -0.2126607222720846 0 0.40434357831770951 -0.21487406561090469 0 0.40426546228868082 -0.20108352786525729 0 0.397631623829106 -0.20634023108626229 0 0.40434357831770951 -0.21487406561090469 0 0.40434357831770951 -0.21487406561090469 0 0.41713092845542321 -0.20900944133272009 0 0.41612672436959858 -0.22382622337581301 0 0.40426546228868082 -0.20108352786525729 0 0.40434357831770951 -0.21487406561090469 0 0.41713092845542321 -0.20900944133272009 0 0.41713092845542321 -0.20900944133272009 0 0.42330136258736267 -0.2174116668913772 0 0.41612672436959858 -0.22382622337581301 0 0.40475141021500721 -0.1910589369573561 0 0.41487892771890261 -0.19826025474908979 0 0.4146572714410397 -0.186958864794112 0 0.40426546228868082 -0.20108352786525729 0 0.41713092845542321 -0.20900944133272009 0 0.41487892771890261 -0.19826025474908979 0 0.40426546228868082 -0.20108352786525729 0 0.40475141021500721 -0.1910589369573561 0 0.41487892771890261 -0.19826025474908979 0 0.41713092845542321 -0.20900944133272009 0 0.41487892771890261 -0.19826025474908979 0 0.42701217502226602 -0.19751647228806199 0 0.41487892771890261 -0.19826025474908979 0 0.42053294087941678 -0.1923617771039739 0 0.42701217502226602 -0.19751647228806199 0 0.42053294087941678 -0.1923617771039739 0 0.4146572714410397 -0.186958864794112 0 0.42558338933545942 -0.1867115165846317 0 0.41487892771890261 -0.19826025474908979 0 0.42053294087941678 -0.1923617771039739 0 0.4146572714410397 -0.186958864794112 0 0.42701217502226602 -0.19751647228806199 0 0.43844209377108118 -0.18689286854296691 0 0.44355474576021348 -0.2050869029196882 0 0.42053294087941678 -0.1923617771039739 0 0.42701217502226602 -0.19751647228806199 0 0.42558338933545942 -0.1867115165846317 0 0.42701217502226602 -0.19751647228806199 0 0.42558338933545942 -0.1867115165846317 0 0.43844209377108118 -0.18689286854296691 0 0.42701217502226602 -0.19751647228806199 0 0.43006687167525981 -0.21185300334864521 0 0.44355474576021348 -0.2050869029196882 0 0.41713092845542321 -0.20900944133272009 0 0.42330136258736267 -0.2174116668913772 0 0.43006687167525981 -0.21185300334864521 0 0.42330136258736267 -0.2174116668913772 0 0.43006687167525981 -0.21185300334864521 0 0.42988092584916948 -0.2249579995083304 0 0.41713092845542321 -0.20900944133272009 0 0.42701217502226602 -0.19751647228806199 0 0.43006687167525981 -0.21185300334864521 0 0.43006687167525981 -0.21185300334864521 0 0.42988092584916948 -0.2249579995083304 0 0.44009267276725389 -0.2176624614444449 0 0.42330136258736267 -0.2174116668913772 0 0.42988092584916948 -0.2249579995083304 0 0.41612672436959858 -0.22382622337581301 0 0.42988092584916948 -0.2249579995083304 0 0.43458399188612801 -0.2397076170126072 0 0.42159465327244361 -0.23640953485310751 0 0.42988092584916948 -0.2249579995083304 0 0.42159465327244361 -0.23640953485310751 0 0.41612672436959858 -0.22382622337581301 0 0.42988092584916948 -0.2249579995083304 0 0.43458399188612801 -0.2397076170126072 0 0.44416109061426973 -0.22983272991065171 0 0.43458399188612801 -0.2397076170126072 0 0.42656562700980838 -0.24831468624349931 0 0.4372088962240912 -0.25169219704383999 0 0.43458399188612801 -0.2397076170126072 0 0.42656562700980838 -0.24831468624349931 0 0.42159465327244361 -0.23640953485310751 0 0.42656562700980838 -0.24831468624349931 0 0.42159465327244361 -0.23640953485310751 0 0.41087794879613182 -0.2494957955088617 0 0.42159465327244361 -0.23640953485310751 0 0.41087794879613182 -0.2494957955088617 0 0.40741230325918792 -0.23450562481703699 0 0.4055308246994358 -0.22407667781788709 0 0.40741230325918792 -0.23450562481703699 0 0.41612672436959858 -0.22382622337581301 0 0.4055308246994358 -0.22407667781788709 0 0.40434357831770951 -0.21487406561090469 0 0.41612672436959858 -0.22382622337581301 0 0.42159465327244361 -0.23640953485310751 0 0.40741230325918792 -0.23450562481703699 0 0.41612672436959858 -0.22382622337581301 0 0.39823574772599779 -0.11763079726210079 0 0.40257569972698831 -0.13396225485532559 0 0.38918813321375051 -0.12739880168557821 0 0.40257569972698831 -0.13396225485532559 0 0.38918813321375051 -0.12739880168557821 0 0.39017348084279901 -0.13955387731924049 0 0.38918813321375051 -0.12739880168557821 0 0.37808333446084269 -0.1309391893982525 0 0.39017348084279901 -0.13955387731924049 0 0.37720890243704291 -0.12310924361699779 0 0.36253108037134668 -0.1248744885805331 0 0.38918813321375051 -0.12739880168557821 0 0.36253108037134668 -0.1248744885805331 0 0.38918813321375051 -0.12739880168557821 0 0.37808333446084269 -0.1309391893982525 0 0.36253108037134668 -0.1248744885805331 0 0.38918813321375051 -0.12739880168557821 0 0.37808333446084269 -0.1309391893982525 0 0.39017348084279901 -0.13955387731924049 0 0.3787995421462832 -0.1425544525875144 0 0.36858459771950869 -0.15733985743645959 0 0.3787995421462832 -0.1425544525875144 0 0.38535727780346091 -0.1527557998392445 0 0.39017348084279901 -0.13955387731924049 0 0.3787995421462832 -0.1425544525875144 0 0.38535727780346091 -0.1527557998392445 0 0.40257569972698831 -0.13396225485532559 0 0.39822107621443897 -0.1501202070538992 0 0.41732028123257531 -0.14286435439753159 0 0.40257569972698831 -0.13396225485532559 0 0.39017348084279901 -0.13955387731924049 0 0.39822107621443897 -0.1501202070538992 0 0.39017348084279901 -0.13955387731924049 0 0.38535727780346091 -0.1527557998392445 0 0.39822107621443897 -0.1501202070538992 0 0.39822107621443897 -0.1501202070538992 0 0.39107178753907162 -0.16851380255406381 0 0.40713652226246821 -0.16744863749245631 0 0.39107178753907162 -0.16851380255406381 0 0.40713652226246821 -0.16744863749245631 0 0.38535727780346091 -0.1527557998392445 0 0.39822107621443897 -0.1501202070538992 0 0.39107178753907162 -0.16851380255406381 0 0.39107178753907162 -0.16851380255406381 0 0.40460499843718001 -0.17902112385493851 0 0.40713652226246821 -0.16744863749245631 0 0.36858459771950869 -0.15733985743645959 0 0.38535727780346091 -0.1527557998392445 0 0.39107178753907162 -0.16851380255406381 0 0.36858459771950869 -0.15733985743645959 0 0.39107178753907162 -0.16851380255406381 0 0.3834788620725188 -0.17954848884060079 0 0.39107178753907162 -0.16851380255406381 0 0.3834788620725188 -0.17954848884060079 0 0.39510197637232292 -0.1839605883432579 0 0.39078770323730427 -0.19674260859680251 0 0.3834788620725188 -0.17954848884060079 0 0.39510197637232292 -0.1839605883432579 0 0.37064833187319962 -0.1852102762359614 0 0.39078770323730427 -0.19674260859680251 0 0.3834788620725188 -0.17954848884060079 0 0.39107178753907162 -0.16851380255406381 0 0.39510197637232292 -0.1839605883432579 0 0.40460499843718001 -0.17902112385493851 0 0.40475141021500721 -0.1910589369573561 0 0.39510197637232292 -0.1839605883432579 0 0.40460499843718001 -0.17902112385493851 0 0.40475141021500721 -0.1910589369573561 0 0.40460499843718001 -0.17902112385493851 0 0.4146572714410397 -0.186958864794112 0 0.40460499843718001 -0.17902112385493851 0 0.41491102279317088 -0.17618591298838529 0 0.4146572714410397 -0.186958864794112 0 0.40460499843718001 -0.17902112385493851 0 0.41491102279317088 -0.17618591298838529 0 0.40713652226246821 -0.16744863749245631 0 0.41491102279317088 -0.17618591298838529 0 0.42527009306055918 -0.1746571334479238 0 0.4232012569858648 -0.16638347243084889 0 0.41491102279317088 -0.17618591298838529 0 0.42095079563492938 -0.18072636251124541 0 0.42527009306055918 -0.1746571334479238 0 0.41491102279317088 -0.17618591298838529 0 0.42095079563492938 -0.18072636251124541 0 0.4146572714410397 -0.186958864794112 0 0.42095079563492938 -0.18072636251124541 0 0.4146572714410397 -0.186958864794112 0 0.42558338933545942 -0.1867115165846317 0 0.43180268423531071 -0.1802632517690351 0 0.42527009306055918 -0.1746571334479238 0 0.44880083799057491 -0.164686103644653 0 0.42095079563492938 -0.18072636251124541 0 0.42558338933545942 -0.1867115165846317 0 0.43180268423531071 -0.1802632517690351 0 0.42558338933545942 -0.1867115165846317 0 0.43180268423531071 -0.1802632517690351 0 0.43844209377108118 -0.18689286854296691 0 0.42095079563492938 -0.18072636251124541 0 0.43180268423531071 -0.1802632517690351 0 0.42527009306055918 -0.1746571334479238 0 0.42527009306055918 -0.1746571334479238 0 0.4232012569858648 -0.16638347243084889 0 0.44880083799057491 -0.164686103644653 0 0.4232012569858648 -0.16638347243084889 0 0.43334283997313311 -0.15135273030925811 0 0.44880083799057491 -0.164686103644653 0 0.4232012569858648 -0.16638347243084889 0 0.44880083799057491 -0.164686103644653 0 0.42527009306055918 -0.1746571334479238 0 0.4232012569858648 -0.16638347243084889 0 0.4232012569858648 -0.16638347243084889 0 0.40713652226246821 -0.16744863749245631 0 0.41732028123257531 -0.14286435439753159 0 0.41491102279317088 -0.17618591298838529 0 0.4232012569858648 -0.16638347243084889 0 0.40713652226246821 -0.16744863749245631 0 0.4232012569858648 -0.16638347243084889 0 0.40713652226246821 -0.16744863749245631 0 0.4232012569858648 -0.16638347243084889 0 0.41732028123257531 -0.14286435439753159 0 0.39822107621443897 -0.1501202070538992 0 0.40713652226246821 -0.16744863749245631 0 0.41732028123257531 -0.14286435439753159 0 0.41732028123257531 -0.14286435439753159 0 0.43334283997313311 -0.15135273030925811 0 0.43763345530417341 -0.13584027725706749 0 0.4232012569858648 -0.16638347243084889 0 0.41732028123257531 -0.14286435439753159 0 0.43334283997313311 -0.15135273030925811 0 0.42916935431308728 -0.1205456085246996 0 0.41732028123257531 -0.14286435439753159 0 0.43763345530417341 -0.13584027725706749 0 0.42916935431308728 -0.1205456085246996 0 0.4435038969132965 -0.12540022695152131 0 0.43763345530417341 -0.13584027725706749 0 0.41143930547928681 -0.11934523636421419 0 0.42916935431308728 -0.1205456085246996 0 0.41732028123257531 -0.14286435439753159 0 0.41143930547928681 -0.11934523636421419 0 0.40257569972698831 -0.13396225485532559 0 0.41732028123257531 -0.14286435439753159 0 0.41143930547928681 -0.11934523636421419 0 0.41732028123257531 -0.14286435439753159 0 0.46257396642688631 -0.12529077885077469 0 0.46381730130484328 -0.1363472541609663 0 0.4585659370706795 -0.1308283620105129 0 0.46381730130484328 -0.1363472541609663 0 0.4585659370706795 -0.1308283620105129 0 0.45274550479158487 -0.1345999168850856 0 0.46381730130484328 -0.1363472541609663 0 0.45274550479158487 -0.1345999168850856 0 0.46138481906560302 -0.14686228775601681 0 0.46257396642688631 -0.12529077885077469 0 0.4585659370706795 -0.1308283620105129 0 0.45239247298790419 -0.125419693033265 0 0.4585659370706795 -0.1308283620105129 0 0.45239247298790419 -0.125419693033265 0 0.45274550479158487 -0.1345999168850856 0 0.45239247298790419 -0.125419693033265 0 0.4435038969132965 -0.12540022695152131 0 0.45274550479158487 -0.1345999168850856 0 0.4435038969132965 -0.12540022695152131 0 0.43763345530417341 -0.13584027725706749 0 0.45274550479158487 -0.1345999168850856 0 0.43763345530417341 -0.13584027725706749 0 0.45274550479158487 -0.1345999168850856 0 0.44678149142501389 -0.1466682631704162 0 0.43334283997313311 -0.15135273030925811 0 0.44678149142501389 -0.1466682631704162 0 0.44880083799057491 -0.164686103644653 0 0.44678149142501389 -0.1466682631704162 0 0.46138481906560302 -0.14686228775601681 0 0.44880083799057491 -0.164686103644653 0 0.43334283997313311 -0.15135273030925811 0 0.43763345530417341 -0.13584027725706749 0 0.44678149142501389 -0.1466682631704162 0 0.45274550479158487 -0.1345999168850856 0 0.44678149142501389 -0.1466682631704162 0 0.46138481906560302 -0.14686228775601681 0 0.46138481906560302 -0.14686228775601681 0 0.44880083799057491 -0.164686103644653 0 0.47440041899528501 -0.16298873485845719 0 0.44880083799057491 -0.164686103644653 0 0.46834799031954211 -0.17915452781490099 0 0.47440041899528501 -0.16298873485845719 0 0.44880083799057491 -0.164686103644653 0 0.47440041899528501 -0.16298873485845719 0 0.43180268423531071 -0.1802632517690351 0 0.44880083799057491 -0.164686103644653 0 0.43844209377108118 -0.18689286854296691 0 0.44880083799057491 -0.164686103644653 0 0.43844209377108118 -0.18689286854296691 0 0.45508032593701309 -0.1914137801830845 0 0.44880083799057491 -0.164686103644653 0 0.46834799031954211 -0.17915452781490099 0 0.45508032593701309 -0.1914137801830845 0 0.46834799031954211 -0.17915452781490099 0 0.48419704391512092 -0.17843144908975531 0 0.47440041899528501 -0.16298873485845719 0 0.46834799031954211 -0.17915452781490099 0 0.48419704391512092 -0.17843144908975531 0 0.47823681026078202 -0.19812675643970101 0 0.48419704391512092 -0.17843144908975531 0 0.49999999999999523 -0.16129136607226169 0 0.5 -0.1905958602634561 0 0.49999999999999523 -0.16129136607226169 0 0.47440041899528501 -0.16298873485845719 0 0.50000000000000067 -0.1547763741112759 0 0.48419704391512092 -0.17843144908975531 0 0.49999999999999523 -0.16129136607226169 0 0.47440041899528501 -0.16298873485845719 0 0.49999999999999523 -0.16129136607226169 0 0.47440041899528501 -0.16298873485845719 0 0.46138481906560302 -0.14686228775601681 0 0.47440041899528501 -0.16298873485845719 0 0.48128698321344371 -0.14003357648102521 0 0.46381730130484328 -0.1363472541609663 0 0.46138481906560302 -0.14686228775601681 0 0.48128698321344371 -0.14003357648102521 0 0.50000000000000067 -0.1547763741112759 0 0.48128698321344371 -0.14003357648102521 0 0.50000000000000067 -0.1547763741112759 0 0.5 -0.13349841451636779 0 0.48128698321344371 -0.14003357648102521 0 0.47440041899528501 -0.16298873485845719 0 0.50000000000000067 -0.1547763741112759 0 0.48128698321344371 -0.14003357648102521 0 0.48087269318342413 -0.1216818802472065 0 0.5 -0.13349841451636779 0 0.48128698321344371 -0.14003357648102521 0 0.46257396642688631 -0.12529077885077469 0 0.48128698321344371 -0.14003357648102521 0 0.46257396642688631 -0.12529077885077469 0 0.46381730130484328 -0.1363472541609663 0 0.48128698321344371 -0.14003357648102521 0 0.47129126618897188 -0.1223351355815797 0 0.48087269318342413 -0.1216818802472065 0 0.48128698321344371 -0.14003357648102521 0 0.47129126618897188 -0.1223351355815797 0 0.46257396642688631 -0.12529077885077469 0 0.48128698321344371 -0.14003357648102521 0 0.46029750420545162 -0.23134667767863379 0 0.45079963313025367 -0.219495204315066 0 0.46126535540865482 -0.21094244298034759 0 0.46029750420545162 -0.23134667767863379 0 0.46126535540865482 -0.21094244298034759 0 0.47937109712497578 -0.22608105856418539 0 0.46029750420545162 -0.23134667767863379 0 0.44856132313442931 -0.24393079079591279 0 0.47387431588802909 -0.25499376211151131 0 0.46029750420545162 -0.23134667767863379 0 0.44856132313442931 -0.24393079079591279 0 0.44416109061426973 -0.22983272991065171 0 0.43458399188612801 -0.2397076170126072 0 0.44856132313442931 -0.24393079079591279 0 0.4372088962240912 -0.25169219704383999 0 0.43458399188612801 -0.2397076170126072 0 0.44856132313442931 -0.24393079079591279 0 0.44416109061426973 -0.22983272991065171 0 0.46029750420545162 -0.23134667767863379 0 0.44416109061426973 -0.22983272991065171 0 0.45079963313025367 -0.219495204315066 0 0.44416109061426973 -0.22983272991065171 0 0.45079963313025367 -0.219495204315066 0 0.44009267276725389 -0.2176624614444449 0 0.42988092584916948 -0.2249579995083304 0 0.44416109061426973 -0.22983272991065171 0 0.44009267276725389 -0.2176624614444449 0 0.45079963313025367 -0.219495204315066 0 0.44355474576021348 -0.2050869029196882 0 0.46126535540865482 -0.21094244298034759 0 0.43006687167525981 -0.21185300334864521 0 0.44009267276725389 -0.2176624614444449 0 0.44355474576021348 -0.2050869029196882 0 0.45079963313025367 -0.219495204315066 0 0.44009267276725389 -0.2176624614444449 0 0.44355474576021348 -0.2050869029196882 0 0.43844209377108118 -0.18689286854296691 0 0.44355474576021348 -0.2050869029196882 0 0.45508032593701309 -0.1914137801830845 0 0.46834799031954211 -0.17915452781490099 0 0.45508032593701309 -0.1914137801830845 0 0.47823681026078202 -0.19812675643970101 0 0.44355474576021348 -0.2050869029196882 0 0.45508032593701309 -0.1914137801830845 0 0.46126535540865482 -0.21094244298034759 0 0.45508032593701309 -0.1914137801830845 0 0.46126535540865482 -0.21094244298034759 0 0.47823681026078202 -0.19812675643970101 0 0.46126535540865482 -0.21094244298034759 0 0.47823681026078202 -0.19812675643970101 0 0.47937109712497578 -0.22608105856418539 0 0.48419704391512092 -0.17843144908975531 0 0.47823681026078202 -0.19812675643970101 0 0.5 -0.1905958602634561 0 0.47823681026078202 -0.19812675643970101 0 0.5 -0.1905958602634561 0 0.5 -0.21990035445465039 0 0.47823681026078202 -0.19812675643970101 0 0.5 -0.21990035445465039 0 0.47937109712497578 -0.22608105856418539 0 0.5 -0.21990035445465039 0 0.47937109712497578 -0.22608105856418539 0 0.50000000000000444 -0.24920484864584491 0 0.46029750420545162 -0.23134667767863379 0 0.47937109712497578 -0.22608105856418539 0 0.47387431588802909 -0.25499376211151131 0 0.47937109712497578 -0.22608105856418539 0 0.50000000000000444 -0.24920484864584491 0 0.47387431588802909 -0.25499376211151131 0 0.50000000000000444 -0.24920484864584491 0 0.4915669900217115 -0.25615479242606781 0 0.5 -0.27170772691138367 0 0.50000000000000444 -0.24920484864584491 0 0.4915669900217115 -0.25615479242606781 0 0.47387431588802909 -0.25499376211151131 0 0.50000000000000444 -0.24920484864584491 0 0.47387431588802909 -0.25499376211151131 0 0.4915669900217115 -0.25615479242606781 0 0.48280749151585822 -0.27129304150170008 0 0.47954864786353962 -0.26301133191085868 0 0.4915669900217115 -0.25615479242606781 0 0.5 -0.27170772691138367 0 0.48280749151585822 -0.27129304150170008 0 0.5 -0.27170772691138367 0 0.48280749151585822 -0.27129304150170008 0 0.48951500520952212 -0.28458010338455908 0 0.48280749151585822 -0.27129304150170008 0 0.47474596181800061 -0.28621450290334632 0 0.48951500520952212 -0.28458010338455908 0 0.48280749151585822 -0.27129304150170008 0 0.47416229901770612 -0.26612875971404459 0 0.47954864786353962 -0.26301133191085868 0 0.48280749151585822 -0.27129304150170008 0 0.47416229901770612 -0.26612875971404459 0 0.47052118473631321 -0.27447720361836658 0 0.47416229901770612 -0.26612875971404459 0 0.47052118473631321 -0.27447720361836658 0 0.46319689217890331 -0.26835660325056299 0 0.48280749151585822 -0.27129304150170008 0 0.47052118473631321 -0.27447720361836658 0 0.47474596181800061 -0.28621450290334632 0 0.4915669900217115 -0.25615479242606781 0 0.46965781089888248 -0.25846873400162218 0 0.4915669900217115 -0.25615479242606781 0 0.47387431588802909 -0.25499376211151131 0 0.46965781089888248 -0.25846873400162218 0 0.4915669900217115 -0.25615479242606781 0 0.47954864786353962 -0.26301133191085868 0 0.46965781089888248 -0.25846873400162218 0 0.47416229901770612 -0.26612875971404459 0 0.47954864786353962 -0.26301133191085868 0 0.46965781089888248 -0.25846873400162218 0 0.47416229901770612 -0.26612875971404459 0 0.46965781089888248 -0.25846873400162218 0 0.46319689217890331 -0.26835660325056299 0 0.46965781089888248 -0.25846873400162218 0 0.46319689217890331 -0.26835660325056299 0 0.4477486317760534 -0.26078267557717671 0 0.44856132313442931 -0.24393079079591279 0 0.47387431588802909 -0.25499376211151131 0 0.4477486317760534 -0.26078267557717671 0 0.47387431588802909 -0.25499376211151131 0 0.4477486317760534 -0.26078267557717671 0 0.46965781089888248 -0.25846873400162218 0 0.4477486317760534 -0.26078267557717671 0 0.47387431588802909 -0.25499376211151131 0 0.46965781089888248 -0.25846873400162218 0 0.4477486317760534 -0.26078267557717671 0 0.47052118473631321 -0.27447720361836658 0 0.45389453446556111 -0.28192564334160541 0 0.47474596181800061 -0.28621450290334632 0 0.47052118473631321 -0.27447720361836658 0 0.46319689217890331 -0.26835660325056299 0 0.45389453446556111 -0.28192564334160541 0 0.46319689217890331 -0.26835660325056299 0 0.4477486317760534 -0.26078267557717671 0 0.45389453446556111 -0.28192564334160541 0 0.45389453446556111 -0.28192564334160541 0 0.430823863629894 -0.26453285558412298 0 0.45389453446556111 -0.28192564334160541 0 0.430823863629894 -0.26453285558412298 0 0.43570592202634773 -0.28205449164250063 0 0.4477486317760534 -0.26078267557717671 0 0.45389453446556111 -0.28192564334160541 0 0.430823863629894 -0.26453285558412298 0 0.4477486317760534 -0.26078267557717671 0 0.42854038242645709 -0.26281135800815408 0 0.44856132313442931 -0.24393079079591279 0 0.4477486317760534 -0.26078267557717671 0 0.4372088962240912 -0.25169219704383999 0 0.4477486317760534 -0.26078267557717671 0 0.42854038242645709 -0.26281135800815408 0 0.4372088962240912 -0.25169219704383999 0 0.4477486317760534 -0.26078267557717671 0 0.430823863629894 -0.26453285558412298 0 0.44815314542162782 -0.30273998798419938 0 0.44271266904340639 -0.31513600928105973 0 0.43092107089682352 -0.30573631325696571 0 0.44815314542162782 -0.30273998798419938 0 0.43874415768382158 -0.29310671547163403 0 0.43092107089682352 -0.30573631325696571 0 0.43874415768382158 -0.29310671547163403 0 0.45389453446556111 -0.28192564334160541 0 0.43570592202634773 -0.28205449164250063 0 0.44815314542162782 -0.30273998798419938 0 0.43874415768382158 -0.29310671547163403 0 0.45389453446556111 -0.28192564334160541 0 0.45389453446556111 -0.28192564334160541 0 0.46668010371271101 -0.29937682325086112 0 0.47474596181800061 -0.28621450290334632 0 0.44815314542162782 -0.30273998798419938 0 0.45389453446556111 -0.28192564334160541 0 0.46668010371271101 -0.29937682325086112 0 0.46668010371271101 -0.29937682325086112 0 0.45907432653114449 -0.32014896664993769 0 0.44815314542162782 -0.30273998798419938 0 0.46668010371271101 -0.29937682325086112 0 0.45907432653114449 -0.32014896664993769 0 0.46668010371271101 -0.29937682325086112 0 0.48375110351916628 -0.30725513966339157 0 0.45907432653114449 -0.32014896664993769 0 0.46668010371271101 -0.29937682325086112 0 0.48375110351916628 -0.30725513966339157 0 0.47474596181800061 -0.28621450290334632 0 0.48375110351916628 -0.30725513966339157 0 0.47474596181800061 -0.28621450290334632 0 0.48951500520952212 -0.28458010338455908 0 0.48375110351916628 -0.30725513966339157 0 0.5 -0.29421060517692271 0 0.48951500520952212 -0.28458010338455908 0 0.5 -0.27170772691138367 0 0.5 -0.29421060517692271 0 0.48951500520952212 -0.28458010338455908 0 0.48375110351916628 -0.30725513966339157 0 0.5 -0.29421060517692271 0 0.49999999999999972 -0.31671348344246159 0 0.48375110351916628 -0.30725513966339157 0 0.49999999999999972 -0.31671348344246159 0 0.48658745812515303 -0.32591538654610069 0 0.49999999999999972 -0.31671348344246159 0 0.49107839048707969 -0.33844651150006611 0 0.49999999999999972 -0.31671348344246159 0 0.48658745812515303 -0.32591538654610069 0 0.49107839048707969 -0.33844651150006611 0 0.49999999999999972 -0.31671348344246159 0 0.5 -0.34354646621870782 0 0.49107839048707969 -0.33844651150006611 0 0.48658745812515303 -0.32591538654610069 0 0.49107839048707969 -0.33844651150006611 0 0.48013111160135669 -0.33592777501669763 0 0.48658745812515303 -0.32591538654610069 0 0.48013111160135669 -0.33592777501669763 0 0.47588582758327369 -0.32632043512378739 0 0.48013111160135669 -0.33592777501669763 0 0.46883970942210401 -0.33989811375075968 0 0.47588582758327369 -0.32632043512378739 0 0.48375110351916628 -0.30725513966339157 0 0.48658745812515303 -0.32591538654610069 0 0.47588582758327369 -0.32632043512378739 0 0.48375110351916628 -0.30725513966339157 0 0.47588582758327369 -0.32632043512378739 0 0.45907432653114449 -0.32014896664993769 0 0.5 -0.37037944899495368 0 0.48466784746851571 -0.3739080713738358 0 0.48215678097416009 -0.36017953955767068 0 0.5 -0.34354646621870782 0 0.49107839048707969 -0.33844651150006611 0 0.48215678097416009 -0.36017953955767068 0 0.49107839048707969 -0.33844651150006611 0 0.48013111160135669 -0.33592777501669763 0 0.48215678097416009 -0.36017953955767068 0 0.5 -0.34354646621870782 0 0.5 -0.37037944899495368 0 0.48215678097416009 -0.36017953955767068 0 0.49107839048707969 -0.33844651150006611 0 0.48215678097416009 -0.36017953955767068 0 0.48013111160135669 -0.33592777501669763 0 0.46883970942210401 -0.33989811375075968 0 0.48215678097416009 -0.36017953955767068 0 0.46883970942210401 -0.33989811375075968 0 0.48215678097416009 -0.36017953955767068 0 0.46166172922915721 -0.35810144835948332 0 0.48215678097416009 -0.36017953955767068 0 0.47323517146124039 -0.38191256761527542 0 0.48215678097416009 -0.36017953955767068 0 0.4671179630262795 -0.37324494563770522 0 0.47323517146124039 -0.38191256761527542 0 0.48466784746851571 -0.3739080713738358 0 0.48215678097416009 -0.36017953955767068 0 0.47323517146124039 -0.38191256761527542 0 0.48215678097416009 -0.36017953955767068 0 0.4671179630262795 -0.37324494563770522 0 0.46166172922915721 -0.35810144835948332 0 0.45652460043480969 -0.37267172771365881 0 0.46166172922915721 -0.35810144835948332 0 0.44386277216801179 -0.36169325344809122 0 0.45652460043480969 -0.37267172771365881 0 0.4671179630262795 -0.37324494563770522 0 0.46166172922915721 -0.35810144835948332 0 0.46883970942210401 -0.33989811375075968 0 0.46166172922915721 -0.35810144835948332 0 0.45146854934957792 -0.34092111004901438 0 0.43963091224731599 -0.34751792105314822 0 0.44386277216801179 -0.36169325344809122 0 0.45146854934957792 -0.34092111004901438 0 0.44386277216801179 -0.36169325344809122 0 0.45146854934957792 -0.34092111004901438 0 0.46166172922915721 -0.35810144835948332 0 0.44386277216801179 -0.36169325344809122 0 0.45146854934957792 -0.34092111004901438 0 0.44386277216801179 -0.36169325344809122 0 0.43376943787959182 -0.36708850497004442 0 0.43808065797110041 -0.37748478958974491 0 0.45652460043480969 -0.37267172771365881 0 0.44386277216801179 -0.36169325344809122 0 0.44783900322824399 -0.38008781189722518 0 0.44386277216801179 -0.36169325344809122 0 0.43808065797110041 -0.37748478958974491 0 0.44386277216801179 -0.36169325344809122 0 0.43808065797110041 -0.37748478958974491 0 0.44783900322824399 -0.38008781189722518 0 0.45652460043480969 -0.37267172771365881 0 0.44386277216801179 -0.36169325344809122 0 0.46883970942210401 -0.33989811375075968 0 0.45907432653114449 -0.32014896664993769 0 0.45146854934957792 -0.34092111004901438 0 0.45907432653114449 -0.32014896664993769 0 0.45146854934957792 -0.34092111004901438 0 0.46883970942210401 -0.33989811375075968 0 0.47588582758327369 -0.32632043512378739 0 0.45907432653114449 -0.32014896664993769 0 0.43963091224731599 -0.34751792105314822 0 0.45146854934957792 -0.34092111004901438 0 0.43565299676263758 -0.3352386806192425 0 0.45146854934957792 -0.34092111004901438 0 0.44493724809618768 -0.32603283426431229 0 0.43565299676263758 -0.3352386806192425 0 0.45907432653114449 -0.32014896664993769 0 0.45146854934957792 -0.34092111004901438 0 0.44493724809618768 -0.32603283426431229 0 0.45907432653114449 -0.32014896664993769 0 0.44493724809618768 -0.32603283426431229 0 0.44271266904340639 -0.31513600928105973 0 0.44493724809618768 -0.32603283426431229 0 0.44271266904340639 -0.31513600928105973 0 0.43047755427124879 -0.32102194424988317 0 0.44815314542162782 -0.30273998798419938 0 0.45907432653114449 -0.32014896664993769 0 0.44271266904340639 -0.31513600928105973 0 0.44271266904340639 -0.31513600928105973 0 0.43047755427124879 -0.32102194424988317 0 0.43092107089682352 -0.30573631325696571 0 0.43047755427124879 -0.32102194424988317 0 0.41919911313656122 -0.31385112706466711 0 0.41739686236043672 -0.32199345155319897 0 0.43047755427124879 -0.32102194424988317 0 0.41919911313656122 -0.31385112706466711 0 0.43092107089682352 -0.30573631325696571 0 0.43047755427124879 -0.32102194424988317 0 0.42053718701310799 -0.32957674384091618 0 0.41739686236043672 -0.32199345155319897 0 0.44493724809618768 -0.32603283426431229 0 0.43047755427124879 -0.32102194424988317 0 0.43565299676263758 -0.3352386806192425 0 0.43565299676263758 -0.3352386806192425 0 0.42053718701310799 -0.32957674384091618 0 0.4250793590774925 -0.34540704162396091 0 0.43963091224731599 -0.34751792105314822 0 0.43565299676263758 -0.3352386806192425 0 0.4250793590774925 -0.34540704162396091 0 0.43047755427124879 -0.32102194424988317 0 0.43565299676263758 -0.3352386806192425 0 0.42053718701310799 -0.32957674384091618 0 0.4062959459869725 -0.32912082979983148 0 0.4250793590774925 -0.34540704162396091 0 0.41055923831377589 -0.34398547157316572 0 0.42053718701310799 -0.32957674384091618 0 0.4062959459869725 -0.32912082979983148 0 0.4250793590774925 -0.34540704162396091 0 0.4062959459869725 -0.32912082979983148 0 0.4250793590774925 -0.34540704162396091 0 0.42053718701310799 -0.32957674384091618 0 0.4062959459869725 -0.32912082979983148 0 0.40802480504278882 -0.32457497099322458 0 0.4062959459869725 -0.32912082979983148 0 0.40802480504278882 -0.32457497099322458 0 0.4062959459869725 -0.32912082979983148 0 0.40802480504278882 -0.32457497099322458 0 0.40572459905769331 -0.31910551143285631 0 0.40802480504278882 -0.32457497099322458 0 0.4119015194344513 -0.31818912214386269 0 0.41739686236043672 -0.32199345155319897 0 0.40802480504278882 -0.32457497099322458 0 0.4119015194344513 -0.31818912214386269 0 0.40572459905769331 -0.31910551143285631 0 0.4119015194344513 -0.31818912214386269 0 0.41919911313656122 -0.31385112706466711 0 0.40916221757477672 -0.31142054967536659 0 0.4119015194344513 -0.31818912214386269 0 0.40572459905769331 -0.31910551143285631 0 0.40916221757477672 -0.31142054967536659 0 0.4119015194344513 -0.31818912214386269 0 0.41919911313656122 -0.31385112706466711 0 0.41739686236043672 -0.32199345155319897 0 0.42053718701310799 -0.32957674384091618 0 0.40802480504278882 -0.32457497099322458 0 0.41739686236043672 -0.32199345155319897 0 0.44386277216801179 -0.36169325344809122 0 0.43376943787959182 -0.36708850497004442 0 0.42728564025893462 -0.35958684797927032 0 0.42489657602010461 -0.37065940299189432 0 0.43376943787959182 -0.36708850497004442 0 0.43808065797110041 -0.37748478958974491 0 0.42489657602010461 -0.37065940299189432 0 0.43376943787959182 -0.36708850497004442 0 0.42728564025893462 -0.35958684797927032 0 0.44386277216801179 -0.36169325344809122 0 0.4250793590774925 -0.34540704162396091 0 0.43963091224731599 -0.34751792105314822 0 0.44386277216801179 -0.36169325344809122 0 0.4250793590774925 -0.34540704162396091 0 0.44386277216801179 -0.36169325344809122 0 0.42728564025893462 -0.35958684797927032 0 0.4250793590774925 -0.34540704162396091 0 0.42728564025893462 -0.35958684797927032 0 0.4250793590774925 -0.34540704162396091 0 0.41069622259092692 -0.35617360609135817 0 0.4250793590774925 -0.34540704162396091 0 0.41055923831377589 -0.34398547157316572 0 0.41069622259092692 -0.35617360609135817 0 0.41055923831377589 -0.34398547157316572 0 0.41069622259092692 -0.35617360609135817 0 0.40016542559971202 -0.34524040877751239 0 0.42489657602010461 -0.37065940299189432 0 0.42728564025893462 -0.35958684797927032 0 0.41069622259092692 -0.35617360609135817 0 0.42489657602010461 -0.37065940299189432 0 0.41069622259092692 -0.35617360609135817 0 0.4070765621089808 -0.37107032214525337 0 0.42489657602010461 -0.37065940299189432 0 0.41069622259092692 -0.35617360609135817 0 0.39585190457779329 -0.37201308858561799 0 0.3940349052124521 -0.36135998775519362 0 0.38601585554704992 -0.38244526212700758 0 0.41069622259092692 -0.35617360609135817 0 0.4070765621089808 -0.37107032214525337 0 0.3940349052124521 -0.36135998775519362 0 0.4070765621089808 -0.37107032214525337 0 0.39585190457779329 -0.37201308858561799 0 0.3940349052124521 -0.36135998775519362 0 0.39585190457779329 -0.37201308858561799 0 0.3940349052124521 -0.36135998775519362 0 0.3940349052124521 -0.36135998775519362 0 0.40016542559971202 -0.34524040877751239 0 0.38974443050024338 -0.33620485529262373 0 0.3940349052124521 -0.36135998775519362 0 0.38974443050024338 -0.33620485529262373 0 0.3940349052124521 -0.36135998775519362 0 0.40016542559971202 -0.34524040877751239 0 0.41069622259092692 -0.35617360609135817 0 0.3940349052124521 -0.36135998775519362 0 0.40016542559971202 -0.34524040877751239 0 0.3940349052124521 -0.36135998775519362 0 0.38974443050024338 -0.33620485529262373 0 0.37368731816096312 -0.34897020548070451 0 0.3940349052124521 -0.36135998775519362 0 0.38601585554704992 -0.38244526212700758 0 0.3940349052124521 -0.36135998775519362 0 0.38601585554704992 -0.38244526212700758 0 0.3689120952668708 -0.37284951495870189 0 0.3940349052124521 -0.36135998775519362 0 0.3689120952668708 -0.37284951495870189 0 0.37368731816096312 -0.34897020548070451 0 0.4062959459869725 -0.32912082979983148 0 0.40572459905769331 -0.31910551143285631 0 0.39816778062817881 -0.31191488097197773 0 0.4062959459869725 -0.32912082979983148 0 0.38974443050024338 -0.33620485529262373 0 0.38545395578803499 -0.31104972283005378 0 0.4062959459869725 -0.32912082979983148 0 0.38545395578803499 -0.31104972283005378 0 0.4062959459869725 -0.32912082979983148 0 0.38545395578803499 -0.31104972283005378 0 0.39816778062817881 -0.31191488097197773 0 0.40572459905769331 -0.31910551143285631 0 0.39816778062817881 -0.31191488097197773 0 0.40916221757477672 -0.31142054967536659 0 0.4062959459869725 -0.32912082979983148 0 0.40016542559971202 -0.34524040877751239 0 0.38974443050024338 -0.33620485529262373 0 0.4062959459869725 -0.32912082979983148 0 0.40016542559971202 -0.34524040877751239 0 0.4062959459869725 -0.32912082979983148 0 0.41055923831377589 -0.34398547157316572 0 0.40016542559971202 -0.34524040877751239 0 0.38974443050024338 -0.33620485529262373 0 0.36945761595668469 -0.32738841673247931 0 0.37368731816096312 -0.34897020548070451 0 0.38974443050024338 -0.33620485529262373 0 0.38545395578803499 -0.31104972283005378 0 0.36945761595668469 -0.32738841673247931 0 0.38974443050024338 -0.33620485529262373 0 0.38545395578803499 -0.31104972283005378 0 0.38545395578803499 -0.31104972283005378 0 0.38245755150739558 -0.29348174920317632 0 0.37101427446782781 -0.29852975601036341 0 0.38545395578803499 -0.31104972283005378 0 0.38245755150739558 -0.29348174920317632 0 0.38545395578803499 -0.31104972283005378 0 0.37101427446782781 -0.29852975601036341 0 0.38545395578803499 -0.31104972283005378 0 0.39567659353887108 -0.29306988619604551 0 0.38245755150739558 -0.29348174920317632 0 0.39816778062817881 -0.31191488097197773 0 0.40563314249086863 -0.30155395497769039 0 0.39567659353887108 -0.29306988619604551 0 0.38545395578803499 -0.31104972283005378 0 0.39816778062817881 -0.31191488097197773 0 0.39567659353887108 -0.29306988619604551 0 0.39816778062817881 -0.31191488097197773 0 0.40563314249086863 -0.30155395497769039 0 0.40916221757477672 -0.31142054967536659 0 0.39567659353887108 -0.29306988619604551 0 0.40514250542832608 -0.27022331558021301 0 0.41160024963212011 -0.28933460066763711 0 0.40563314249086863 -0.30155395497769039 0 0.39567659353887108 -0.29306988619604551 0 0.41160024963212011 -0.28933460066763711 0 0.38245755150739558 -0.29348174920317632 0 0.37946114722675722 -0.27591377557629859 0 0.39567659353887108 -0.29306988619604551 0 0.38245755150739558 -0.29348174920317632 0 0.37946114722675722 -0.27591377557629859 0 0.38245755150739558 -0.29348174920317632 0 0.37795999762798671 -0.28395322059410122 0 0.37946114722675722 -0.27591377557629859 0 0.37519981906117678 -0.29055939022370142 0 0.38245755150739558 -0.29348174920317632 0 0.37101427446782781 -0.29852975601036341 0 0.37519981906117678 -0.29055939022370142 0 0.38245755150739558 -0.29348174920317632 0 0.37795999762798671 -0.28395322059410122 0 0.37795999762798671 -0.28395322059410122 0 0.37946114722675722 -0.27591377557629859 0 0.37739853904771847 -0.27637080706343392 0 0.37739853904771847 -0.27637080706343392 0 0.37683953433427181 -0.26882153263446662 0 0.37273728942595791 -0.27740364396778311 0 0.37795999762798671 -0.28395322059410122 0 0.37739853904771847 -0.27637080706343392 0 0.37273728942595791 -0.27740364396778311 0 0.37946114722675722 -0.27591377557629859 0 0.38774772661347989 -0.26664574742688191 0 0.3964002279028962 -0.26984905957103239 0 0.37946114722675722 -0.27591377557629859 0 0.3964002279028962 -0.26984905957103239 0 0.37795999762798671 -0.28395322059410122 0 0.37739853904771847 -0.27637080706343392 0 0.37739853904771847 -0.27637080706343392 0 0.37273728942595791 -0.27740364396778311 0 0.37946114722675722 -0.27591377557629859 0 0.37739853904771847 -0.27637080706343392 0 0.37683953433427181 -0.26882153263446662 0 0.37946114722675722 -0.27591377557629859 0 0.37739853904771847 -0.27637080706343392 0 0.37946114722675722 -0.27591377557629859 0 0.37843581040967561 -0.26746760801825881 0 0.38284686623937531 -0.26497045393317709 0 0.37946114722675722 -0.27591377557629859 0 0.37683953433427181 -0.26882153263446662 0 0.37843581040967561 -0.26746760801825881 0 0.37739853904771847 -0.27637080706343392 0 0.37683953433427181 -0.26882153263446662 0 0.37683953433427181 -0.26882153263446662 0 0.37843581040967561 -0.26746760801825881 0 0.37946114722675722 -0.27591377557629859 0 0.38774772661347989 -0.26664574742688191 0 0.38284686623937531 -0.26497045393317709 0 0.37477580018058132 -0.24095111383496479 0 0.37683953433427181 -0.26882153263446662 0 0.38107906364546162 -0.25934379353391329 0 0.37477580018058132 -0.24095111383496479 0 0.37683953433427181 -0.26882153263446662 0 0.37477580018058132 -0.24095111383496479 0 0.38107906364546162 -0.25934379353391329 0 0.38725375881062551 -0.25185160038302579 0 0.37843581040967561 -0.26746760801825881 0 0.38107906364546162 -0.25934379353391329 0 0.38284686623937531 -0.26497045393317709 0 0.37683953433427181 -0.26882153263446662 0 0.37843581040967561 -0.26746760801825881 0 0.38107906364546162 -0.25934379353391329 0 0.38107906364546162 -0.25934379353391329 0 0.38632261189823958 -0.26200045239958702 0 0.38284686623937531 -0.26497045393317709 0 0.38774772661347989 -0.26664574742688191 0 0.38632261189823958 -0.26200045239958702 0 0.38284686623937531 -0.26497045393317709 0 0.38774772661347989 -0.26664574742688191 0 0.38955528694719099 -0.2630172622662057 0 0.39295554709344072 -0.26445586107842978 0 0.38774772661347989 -0.26664574742688191 0 0.38632261189823958 -0.26200045239958702 0 0.38955528694719099 -0.2630172622662057 0 0.38632261189823958 -0.26200045239958702 0 0.38955528694719099 -0.2630172622662057 0 0.39119526218360401 -0.25896698815992442 0 0.38632261189823958 -0.26200045239958702 0 0.38725375881062551 -0.25185160038302579 0 0.39119526218360401 -0.25896698815992442 0 0.38107906364546162 -0.25934379353391329 0 0.38632261189823958 -0.26200045239958702 0 0.38725375881062551 -0.25185160038302579 0 0.40314688718896508 -0.2619981766022052 0 0.39707581272688741 -0.26613449373937459 0 0.41345304600685079 -0.26440480953867462 0 0.39707581272688741 -0.26613449373937459 0 0.41345304600685079 -0.26440480953867462 0 0.38725375881062551 -0.25185160038302579 0 0.39640803358832022 -0.25154779433757402 0 0.39119526218360401 -0.25896698815992442 0 0.39640803358832022 -0.25154779433757402 0 0.39702034872720737 -0.26014738253762237 0 0.39119526218360401 -0.25896698815992442 0 0.39702034872720737 -0.26014738253762237 0 0.39119526218360401 -0.25896698815992442 0 0.39295554709344072 -0.26445586107842978 0 0.38955528694719099 -0.2630172622662057 0 0.39119526218360401 -0.25896698815992442 0 0.39295554709344072 -0.26445586107842978 0 0.39702034872720737 -0.26014738253762237 0 0.39295554709344072 -0.26445586107842978 0 0.39707581272688741 -0.26613449373937459 0 0.39702034872720737 -0.26014738253762237 0 0.40314688718896508 -0.2619981766022052 0 0.39707581272688741 -0.26613449373937459 0 0.40314688718896508 -0.2619981766022052 0 0.40257909468765629 -0.25704117102420471 0 0.40998094690083942 -0.2590606397541646 0 0.39702034872720737 -0.26014738253762237 0 0.40314688718896508 -0.2619981766022052 0 0.40257909468765629 -0.25704117102420471 0 0.39640803358832022 -0.25154779433757402 0 0.39702034872720737 -0.26014738253762237 0 0.40257909468765629 -0.25704117102420471 0 0.41087794879613182 -0.2494957955088617 0 0.39640803358832022 -0.25154779433757402 0 0.40257909468765629 -0.25704117102420471 0 0.40514250542832608 -0.27022331558021301 0 0.3964002279028962 -0.26984905957103239 0 0.41345304600685079 -0.26440480953867462 0 0.37946114722675722 -0.27591377557629859 0 0.40514250542832608 -0.27022331558021301 0 0.3964002279028962 -0.26984905957103239 0 0.39707581272688741 -0.26613449373937459 0 0.3964002279028962 -0.26984905957103239 0 0.41345304600685079 -0.26440480953867462 0 0.37946114722675722 -0.27591377557629859 0 0.40514250542832608 -0.27022331558021301 0 0.3964002279028962 -0.26984905957103239 0 0.41345304600685079 -0.26440480953867462 0 0.39567659353887108 -0.29306988619604551 0 0.37946114722675722 -0.27591377557629859 0 0.40514250542832608 -0.27022331558021301 0 0.38774772661347989 -0.26664574742688191 0 0.39295554709344072 -0.26445586107842978 0 0.3964002279028962 -0.26984905957103239 0 0.39295554709344072 -0.26445586107842978 0 0.39707581272688741 -0.26613449373937459 0 0.3964002279028962 -0.26984905957103239 0 0.40514250542832608 -0.27022331558021301 0 0.41345304600685079 -0.26440480953867462 0 0.430823863629894 -0.26453285558412298 0 0.40514250542832608 -0.27022331558021301 0 0.430823863629894 -0.26453285558412298 0 0.40514250542832608 -0.27022331558021301 0 0.42166373126508722 -0.27984448092147479 0 0.41160024963212011 -0.28933460066763711 0 0.40514250542832608 -0.27022331558021301 0 0.42166373126508722 -0.27984448092147479 0 0.430823863629894 -0.26453285558412298 0 0.41087794879613182 -0.2494957955088617 0 0.41984775782459283 -0.2623632460968765 0 0.42854038242645709 -0.26281135800815408 0 0.41087794879613182 -0.2494957955088617 0 0.42854038242645709 -0.26281135800815408 0 0.41087794879613182 -0.2494957955088617 0 0.40257909468765629 -0.25704117102420471 0 0.40998094690083942 -0.2590606397541646 0 0.41087794879613182 -0.2494957955088617 0 0.40998094690083942 -0.2590606397541646 0 0.41984775782459283 -0.2623632460968765 0 0.40314688718896508 -0.2619981766022052 0 0.40998094690083942 -0.2590606397541646 0 0.41345304600685079 -0.26440480953867462 0 0.41345304600685079 -0.26440480953867462 0 0.41984775782459283 -0.2623632460968765 0 0.42854038242645709 -0.26281135800815408 0 0.40998094690083942 -0.2590606397541646 0 0.41345304600685079 -0.26440480953867462 0 0.41984775782459283 -0.2623632460968765 0 0.41345304600685079 -0.26440480953867462 0 0.42854038242645709 -0.26281135800815408 0 0.41345304600685079 -0.26440480953867462 0 0.41984775782459283 -0.2623632460968765 0 0.42656562700980838 -0.24831468624349931 0 0.41087794879613182 -0.2494957955088617 0 0.42854038242645709 -0.26281135800815408 0 0.4477486317760534 -0.26078267557717671 0 0.42854038242645709 -0.26281135800815408 0 0.430823863629894 -0.26453285558412298 0 0.41345304600685079 -0.26440480953867462 0 0.42854038242645709 -0.26281135800815408 0 0.430823863629894 -0.26453285558412298 0 0.42854038242645709 -0.26281135800815408 0 0.430823863629894 -0.26453285558412298 0 0.42656562700980838 -0.24831468624349931 0 0.42854038242645709 -0.26281135800815408 0 0.4372088962240912 -0.25169219704383999 0 0.42166373126508722 -0.27984448092147479 0 0.430823863629894 -0.26453285558412298 0 0.43570592202634773 -0.28205449164250063 0 0.42166373126508722 -0.27984448092147479 0 0.43570592202634773 -0.28205449164250063 0 0.42504611560874761 -0.29307714113289868 0 0.43874415768382158 -0.29310671547163403 0 0.43570592202634773 -0.28205449164250063 0 0.42504611560874761 -0.29307714113289868 0 0.43874415768382158 -0.29310671547163403 0 0.42504611560874761 -0.29307714113289868 0 0.43092107089682352 -0.30573631325696571 0 0.41919911313656122 -0.31385112706466711 0 0.43092107089682352 -0.30573631325696571 0 0.41692698488998292 -0.30249561446253759 0 0.42504611560874761 -0.29307714113289868 0 0.43092107089682352 -0.30573631325696571 0 0.41692698488998292 -0.30249561446253759 0 0.41919911313656122 -0.31385112706466711 0 0.41692698488998292 -0.30249561446253759 0 0.40916221757477672 -0.31142054967536659 0 0.40563314249086863 -0.30155395497769039 0 0.41692698488998292 -0.30249561446253759 0 0.40916221757477672 -0.31142054967536659 0 0.40563314249086863 -0.30155395497769039 0 0.41692698488998292 -0.30249561446253759 0 0.41160024963212011 -0.28933460066763711 0 0.42166373126508722 -0.27984448092147479 0 0.42504611560874761 -0.29307714113289868 0 0.41160024963212011 -0.28933460066763711 0 0.42504611560874761 -0.29307714113289868 0 0.41692698488998292 -0.30249561446253759 0 0.41160024963212011 -0.28933460066763711 0 0.5 -0.5 0 0.47532784176218862 -0.47257481327436679 0 0.43264288253940292 -0.48275234633568048 0 0.5 -0.5 0 0.41749257905485199 -0.50000000000000033 0 0.43264288253940292 -0.48275234633568048 0 0.47532784176218862 -0.47257481327436679 0 0.44779318602395363 -0.46550469267136052 0 0.43264288253940292 -0.48275234633568048 0 0.44779318602395363 -0.46550469267136052 0 0.43264288253940292 -0.48275234633568048 0 0.5 -0.5 0 0.47532784176218862 -0.47257481327436679 0 0.49999999999999828 -0.44642064777577001 0 0.47532784176218862 -0.47257481327436679 0 0.47918453573141367 -0.4495963838019249 0 0.46294348950850428 -0.44825703900704061 0 0.47532784176218862 -0.47257481327436679 0 0.49999999999999828 -0.44642064777577001 0 0.47918453573141367 -0.4495963838019249 0 0.49999999999999828 -0.44642064777577001 0 0.47846681165496419 -0.4311330351505217 0 0.49999999999999828 -0.44642064777577001 0 0.47918453573141367 -0.4495963838019249 0 0.47846681165496419 -0.4311330351505217 0 0.47918453573141367 -0.4495963838019249 0 0.46294348950850428 -0.44825703900704061 0 0.47846681165496419 -0.4311330351505217 0 0.46294348950850428 -0.44825703900704061 0 0.44442683605218691 -0.44583817528272968 0 0.45721208074107311 -0.43281318479414382 0 0.46294348950850428 -0.44825703900704061 0 0.44779318602395363 -0.46550469267136052 0 0.47532784176218862 -0.47257481327436679 0 0.46294348950850428 -0.44825703900704061 0 0.44779318602395363 -0.46550469267136052 0 0.44779318602395363 -0.46550469267136052 0 0.44442683605218691 -0.44583817528272968 0 0.43057418754349119 -0.46211781715143319 0 0.46294348950850428 -0.44825703900704061 0 0.44779318602395363 -0.46550469267136052 0 0.44442683605218691 -0.44583817528272968 0 0.44442683605218691 -0.44583817528272968 0 0.44324354583686831 -0.42153379012121539 0 0.45721208074107311 -0.43281318479414382 0 0.44442683605218691 -0.44583817528272968 0 0.44324354583686831 -0.42153379012121539 0 0.42653452723640378 -0.44279137365393179 0 0.44324354583686831 -0.42153379012121539 0 0.45693362330993059 -0.41584542252527262 0 0.45721208074107311 -0.43281318479414382 0 0.45693362330993059 -0.41584542252527262 0 0.4354004349648965 -0.40055780990002432 0 0.44324354583686831 -0.42153379012121539 0 0.45693362330993059 -0.41584542252527262 0 0.4354004349648965 -0.40055780990002432 0 0.45693362330993059 -0.41584542252527262 0 0.46461049463358839 -0.41117161714406408 0 0.47846681165496419 -0.4311330351505217 0 0.45693362330993059 -0.41584542252527262 0 0.46461049463358839 -0.41117161714406408 0 0.45329728287846061 -0.39963099679296588 0 0.46294348950850428 -0.44825703900704061 0 0.45721208074107311 -0.43281318479414382 0 0.47846681165496419 -0.4311330351505217 0 0.45693362330993059 -0.41584542252527262 0 0.45721208074107311 -0.43281318479414382 0 0.47846681165496419 -0.4311330351505217 0 0.45693362330993059 -0.41584542252527262 0 0.47846681165496419 -0.4311330351505217 0 0.49999999999999828 -0.44642064777577001 0 0.47846681165496419 -0.4311330351505217 0 0.5 -0.42181653977348488 0 0.5 -0.42181653977348488 0 0.48394518954555588 -0.41195106762427058 0 0.49999999999999789 -0.3972124317711998 0 0.47846681165496419 -0.4311330351505217 0 0.5 -0.42181653977348488 0 0.48394518954555588 -0.41195106762427058 0 0.46461049463358839 -0.41117161714406408 0 0.47846681165496419 -0.4311330351505217 0 0.48394518954555588 -0.41195106762427058 0 0.46461049463358839 -0.41117161714406408 0 0.48394518954555588 -0.41195106762427058 0 0.47664864143922919 -0.39842171428208217 0 0.47664864143922919 -0.39842171428208217 0 0.47975395238035062 -0.3854291032725421 0 0.46812846895096999 -0.38912968091376021 0 0.47664864143922919 -0.39842171428208217 0 0.49999999999999789 -0.3972124317711998 0 0.48779058149940679 -0.38751051868815611 0 0.48394518954555588 -0.41195106762427058 0 0.47664864143922919 -0.39842171428208217 0 0.49999999999999789 -0.3972124317711998 0 0.47664864143922919 -0.39842171428208217 0 0.49999999999999789 -0.3972124317711998 0 0.5 -0.37037944899495368 0 0.49999999999999789 -0.3972124317711998 0 0.48779058149940679 -0.38751051868815611 0 0.5 -0.37037944899495368 0 0.48466784746851571 -0.3739080713738358 0 0.48779058149940679 -0.38751051868815611 0 0.48466784746851571 -0.3739080713738358 0 0.47975395238035062 -0.3854291032725421 0 0.47323517146124039 -0.38191256761527542 0 0.48466784746851571 -0.3739080713738358 0 0.48779058149940679 -0.38751051868815611 0 0.47975395238035062 -0.3854291032725421 0 0.47664864143922919 -0.39842171428208217 0 0.48779058149940679 -0.38751051868815611 0 0.47975395238035062 -0.3854291032725421 0 0.47975395238035062 -0.3854291032725421 0 0.47323517146124039 -0.38191256761527542 0 0.46812846895096999 -0.38912968091376021 0 0.46918642870160698 -0.38365020197922722 0 0.47323517146124039 -0.38191256761527542 0 0.46812846895096999 -0.38912968091376021 0 0.4671179630262795 -0.37324494563770522 0 0.46918642870160698 -0.38365020197922722 0 0.47323517146124039 -0.38191256761527542 0 0.45652460043480969 -0.37267172771365881 0 0.4671179630262795 -0.37324494563770522 0 0.46918642870160698 -0.38365020197922722 0 0.45652460043480969 -0.37267172771365881 0 0.46918642870160698 -0.38365020197922722 0 0.45652460043480969 -0.37267172771365881 0 0.45606522570456098 -0.38599652494351028 0 0.44783900322824399 -0.38008781189722518 0 0.45652460043480969 -0.37267172771365881 0 0.46918642870160698 -0.38365020197922722 0 0.45606522570456098 -0.38599652494351028 0 0.46918642870160698 -0.38365020197922722 0 0.45606522570456098 -0.38599652494351028 0 0.46812846895096999 -0.38912968091376021 0 0.46461049463358839 -0.41117161714406408 0 0.47664864143922919 -0.39842171428208217 0 0.45329728287846061 -0.39963099679296588 0 0.47664864143922919 -0.39842171428208217 0 0.45329728287846061 -0.39963099679296588 0 0.47664864143922919 -0.39842171428208217 0 0.46812846895096999 -0.38912968091376021 0 0.45329728287846061 -0.39963099679296588 0 0.46461049463358839 -0.41117161714406408 0 0.45329728287846061 -0.39963099679296588 0 0.45606522570456098 -0.38599652494351028 0 0.46812846895096999 -0.38912968091376021 0 0.45329728287846061 -0.39963099679296588 0 0.45693362330993059 -0.41584542252527262 0 0.45329728287846061 -0.39963099679296588 0 0.4354004349648965 -0.40055780990002432 0 0.45329728287846061 -0.39963099679296588 0 0.4354004349648965 -0.40055780990002432 0 0.45329728287846061 -0.39963099679296588 0 0.4390969294492823 -0.3851451998924304 0 0.4354004349648965 -0.40055780990002432 0 0.45329728287846061 -0.39963099679296588 0 0.4390969294492823 -0.3851451998924304 0 0.45606522570456098 -0.38599652494351028 0 0.4390969294492823 -0.3851451998924304 0 0.44783900322824399 -0.38008781189722518 0 0.45606522570456098 -0.38599652494351028 0 0.45329728287846061 -0.39963099679296588 0 0.4390969294492823 -0.3851451998924304 0 0.4390969294492823 -0.3851451998924304 0 0.43808065797110041 -0.37748478958974491 0 0.44783900322824399 -0.38008781189722518 0 0.42782015831496062 -0.38505662608606978 0 0.4354004349648965 -0.40055780990002432 0 0.41188669282555868 -0.38386409155992901 0 0.42489657602010461 -0.37065940299189432 0 0.4390969294492823 -0.3851451998924304 0 0.42782015831496062 -0.38505662608606978 0 0.42489657602010461 -0.37065940299189432 0 0.4390969294492823 -0.3851451998924304 0 0.43808065797110041 -0.37748478958974491 0 0.42489657602010461 -0.37065940299189432 0 0.4390969294492823 -0.3851451998924304 0 0.4390969294492823 -0.3851451998924304 0 0.42782015831496062 -0.38505662608606978 0 0.4354004349648965 -0.40055780990002432 0 0.4354004349648965 -0.40055780990002432 0 0.41188669282555868 -0.38386409155992901 0 0.4354004349648965 -0.40055780990002432 0 0.40669862042327182 -0.40204417319942209 0 0.4354004349648965 -0.40055780990002432 0 0.40669862042327182 -0.40204417319942209 0 0.41188669282555868 -0.38386409155992901 0 0.42489657602010461 -0.37065940299189432 0 0.42782015831496062 -0.38505662608606978 0 0.41188669282555868 -0.38386409155992901 0 0.42489657602010461 -0.37065940299189432 0 0.4070765621089808 -0.37107032214525337 0 0.41188669282555868 -0.38386409155992901 0 0.4070765621089808 -0.37107032214525337 0 0.39585190457779329 -0.37201308858561799 0 0.39886607975096749 -0.38470810625682389 0 0.40669862042327182 -0.40204417319942209 0 0.41188669282555868 -0.38386409155992901 0 0.39886607975096749 -0.38470810625682389 0 0.4070765621089808 -0.37107032214525337 0 0.41188669282555868 -0.38386409155992901 0 0.39886607975096749 -0.38470810625682389 0 0.39585190457779329 -0.37201308858561799 0 0.39886607975096749 -0.38470810625682389 0 0.38601585554704992 -0.38244526212700758 0 0.39886607975096749 -0.38470810625682389 0 0.38601585554704992 -0.38244526212700758 0 0.37799680588164719 -0.40353053649882148 0 0.38601585554704992 -0.38244526212700758 0 0.37799680588164719 -0.40353053649882148 0 0.38601585554704992 -0.38244526212700758 0 0.37799680588164719 -0.40353053649882148 0 0.36816388811638329 -0.39545065246060412 0 0.37799680588164719 -0.40353053649882148 0 0.37635446215448021 -0.40784891206015261 0 0.37799680588164719 -0.40353053649882148 0 0.37505152225636262 -0.40368306209891941 0 0.37635446215448021 -0.40784891206015261 0 0.37799680588164719 -0.40353053649882148 0 0.37505152225636262 -0.40368306209891941 0 0.40669862042327182 -0.40204417319942209 0 0.39886607975096749 -0.38470810625682389 0 0.37799680588164719 -0.40353053649882148 0 0.40669862042327182 -0.40204417319942209 0 0.37799680588164719 -0.40353053649882148 0 0.40669862042327182 -0.40204417319942209 0 0.38553791301154328 -0.41840677215457472 0 0.40567792500840172 -0.4277251834563135 0 0.40669862042327182 -0.40204417319942209 0 0.37799680588164719 -0.40353053649882148 0 0.38553791301154328 -0.41840677215457472 0 0.38553791301154328 -0.41840677215457472 0 0.36905142820508552 -0.42917232846767789 0 0.37241381966677689 -0.417360225696081 0 0.38553791301154328 -0.41840677215457472 0 0.37635446215448021 -0.40784891206015261 0 0.37241381966677689 -0.417360225696081 0 0.37799680588164719 -0.40353053649882148 0 0.38553791301154328 -0.41840677215457472 0 0.37635446215448021 -0.40784891206015261 0 0.38553791301154328 -0.41840677215457472 0 0.38807715457860831 -0.4388905332329941 0 0.36905142820508552 -0.42917232846767789 0 0.38553791301154328 -0.41840677215457472 0 0.40567792500840172 -0.4277251834563135 0 0.38807715457860831 -0.4388905332329941 0 0.40567792500840172 -0.4277251834563135 0 0.42351101069396863 -0.41893046606618117 0 0.42653452723640378 -0.44279137365393179 0 0.4354004349648965 -0.40055780990002432 0 0.40669862042327182 -0.40204417319942209 0 0.42351101069396863 -0.41893046606618117 0 0.40669862042327182 -0.40204417319942209 0 0.40567792500840172 -0.4277251834563135 0 0.42351101069396863 -0.41893046606618117 0 0.44324354583686831 -0.42153379012121539 0 0.4354004349648965 -0.40055780990002432 0 0.42351101069396863 -0.41893046606618117 0 0.44324354583686831 -0.42153379012121539 0 0.42653452723640378 -0.44279137365393179 0 0.44324354583686831 -0.42153379012121539 0 0.42351101069396863 -0.41893046606618117 0 0.42653452723640378 -0.44279137365393179 0 0.44442683605218691 -0.44583817528272968 0 0.42653452723640378 -0.44279137365393179 0 0.43057418754349119 -0.46211781715143319 0 0.42653452723640378 -0.44279137365393179 0 0.43057418754349119 -0.46211781715143319 0 0.40982550863593931 -0.46404895718664829 0 0.42653452723640378 -0.44279137365393179 0 0.40982550863593931 -0.46404895718664829 0 0.42653452723640378 -0.44279137365393179 0 0.40982550863593931 -0.46404895718664829 0 0.4036378289262339 -0.44671034290208689 0 0.40567792500840172 -0.4277251834563135 0 0.42653452723640378 -0.44279137365393179 0 0.4036378289262339 -0.44671034290208689 0 0.40567792500840172 -0.4277251834563135 0 0.4036378289262339 -0.44671034290208689 0 0.38807715457860831 -0.4388905332329941 0 0.4036378289262339 -0.44671034290208689 0 0.38807715457860831 -0.4388905332329941 0 0.38807402917181633 -0.46009566698054732 0 0.38807715457860831 -0.4388905332329941 0 0.3733961412993268 -0.45022493016754961 0 0.36905142820508552 -0.42917232846767789 0 0.38807715457860831 -0.4388905332329941 0 0.38807402917181633 -0.46009566698054732 0 0.3733961412993268 -0.45022493016754961 0 0.38807402917181633 -0.46009566698054732 0 0.36593927904035028 -0.47432204071884282 0 0.3733961412993268 -0.45022493016754961 0 0.40982550863593931 -0.46404895718664829 0 0.4036378289262339 -0.44671034290208689 0 0.38807402917181633 -0.46009566698054732 0 0.40982550863593931 -0.46404895718664829 0 0.39311649003547477 -0.48530654071936469 0 0.40982550863593931 -0.46404895718664829 0 0.38807402917181633 -0.46009566698054732 0 0.39311649003547477 -0.48530654071936469 0 0.38807402917181633 -0.46009566698054732 0 0.39311649003547477 -0.48530654071936469 0 0.36593927904035028 -0.47432204071884282 0 0.37603974257992701 -0.49999999999999978 0 0.39311649003547477 -0.48530654071936469 0 0.36593927904035028 -0.47432204071884282 0 0.37603974257992701 -0.49999999999999978 0 0.39676616081738958 -0.5 0 0.39311649003547477 -0.48530654071936469 0 0.39676616081738958 -0.5 0 0.39311649003547477 -0.48530654071936469 0 0.41749257905485199 -0.50000000000000033 0 0.40982550863593931 -0.46404895718664829 0 0.41749257905485199 -0.50000000000000033 0 0.43264288253940292 -0.48275234633568048 0 0.40982550863593931 -0.46404895718664829 0 0.39311649003547477 -0.48530654071936469 0 0.41749257905485199 -0.50000000000000033 0 0.43057418754349119 -0.46211781715143319 0 0.40982550863593931 -0.46404895718664829 0 0.43264288253940292 -0.48275234633568048 0 0.44779318602395363 -0.46550469267136052 0 0.43057418754349119 -0.46211781715143319 0 0.43264288253940292 -0.48275234633568048 0 0.41749257905485199 -0.50000000000000033 0 0.43264288253940292 -0.48275234633568048 0 0.32215468257820618 -0.5 0 0.33760568703239408 -0.47417818032706111 0 0.31005432530219129 -0.48106067464861729 0 0.33760568703239408 -0.47417818032706111 0 0.3189449745883719 -0.46117016543644002 0 0.31005432530219129 -0.48106067464861729 0 0.32215468257820618 -0.5 0 0.33760568703239408 -0.47417818032706111 0 0.34909721257906662 -0.5 0 0.37603974257992701 -0.49999999999999978 0 0.34909721257906662 -0.5 0 0.36593927904035028 -0.47432204071884282 0 0.37603974257992701 -0.49999999999999978 0 0.36593927904035028 -0.47432204071884282 0 0.33760568703239408 -0.47417818032706111 0 0.34909721257906662 -0.5 0 0.36593927904035028 -0.47432204071884282 0 0.33760568703239408 -0.47417818032706111 0 0.36593927904035028 -0.47432204071884282 0 0.35583881550077368 -0.44864408143768569 0 0.36593927904035028 -0.47432204071884282 0 0.35583881550077368 -0.44864408143768569 0 0.36593927904035028 -0.47432204071884282 0 0.3733961412993268 -0.45022493016754961 0 0.35583881550077368 -0.44864408143768569 0 0.3733961412993268 -0.45022493016754961 0 0.35583881550077368 -0.44864408143768569 0 0.36905142820508552 -0.42917232846767789 0 0.35583881550077368 -0.44864408143768569 0 0.33540415989768779 -0.44905252560006492 0 0.34573835196119679 -0.42296612215652868 0 0.33760568703239408 -0.47417818032706111 0 0.35583881550077368 -0.44864408143768569 0 0.33540415989768779 -0.44905252560006492 0 0.33760568703239408 -0.47417818032706111 0 0.33540415989768779 -0.44905252560006492 0 0.3189449745883719 -0.46117016543644002 0 0.33540415989768779 -0.44905252560006492 0 0.3189449745883719 -0.46117016543644002 0 0.32126124445813709 -0.43429719032362252 0 0.3189449745883719 -0.46117016543644002 0 0.32126124445813709 -0.43429719032362252 0 0.30480654487456732 -0.44641521679941309 0 0.32126124445813709 -0.43429719032362252 0 0.3193156137706864 -0.40941365839269389 0 0.29937418247959258 -0.41817563384508599 0 0.3193156137706864 -0.40941365839269389 0 0.34573835196119679 -0.42296612215652868 0 0.33563788842162012 -0.39728816287537172 0 0.34573835196119679 -0.42296612215652868 0 0.33563788842162012 -0.39728816287537172 0 0.33540415989768779 -0.44905252560006492 0 0.32126124445813709 -0.43429719032362252 0 0.34573835196119679 -0.42296612215652868 0 0.32126124445813709 -0.43429719032362252 0 0.3193156137706864 -0.40941365839269389 0 0.34573835196119679 -0.42296612215652868 0 0.35583881550077368 -0.44864408143768569 0 0.34573835196119679 -0.42296612215652868 0 0.36905142820508552 -0.42917232846767789 0 0.35583881550077368 -0.44864408143768569 0 0.34573835196119679 -0.42296612215652868 0 0.36905142820508552 -0.42917232846767789 0 0.37241381966677689 -0.417360225696081 0 0.36195200988480669 -0.41065981681110758 0 0.36990343230398692 -0.40830781576793279 0 0.37241381966677689 -0.417360225696081 0 0.36195200988480669 -0.41065981681110758 0 0.37635446215448021 -0.40784891206015261 0 0.36990343230398692 -0.40830781576793279 0 0.37241381966677689 -0.417360225696081 0 0.37505152225636262 -0.40368306209891941 0 0.37635446215448021 -0.40784891206015261 0 0.36990343230398692 -0.40830781576793279 0 0.36990343230398692 -0.40830781576793279 0 0.36195200988480669 -0.41065981681110758 0 0.36876771314038492 -0.40452533678464098 0 0.34573835196119679 -0.42296612215652868 0 0.36195200988480669 -0.41065981681110758 0 0.35211107663302149 -0.40015425695529971 0 0.34573835196119679 -0.42296612215652868 0 0.36905142820508552 -0.42917232846767789 0 0.36195200988480669 -0.41065981681110758 0 0.34573835196119679 -0.42296612215652868 0 0.35211107663302149 -0.40015425695529971 0 0.33563788842162012 -0.39728816287537172 0 0.35211107663302149 -0.40015425695529971 0 0.35352794608594401 -0.38791341326287138 0 0.33563788842162012 -0.39728816287537172 0 0.35211107663302149 -0.40015425695529971 0 0.36816388811638329 -0.39545065246060412 0 0.35352794608594401 -0.38791341326287138 0 0.36195200988480669 -0.41065981681110758 0 0.36816388811638329 -0.39545065246060412 0 0.36876771314038492 -0.40452533678464098 0 0.36195200988480669 -0.41065981681110758 0 0.35211107663302149 -0.40015425695529971 0 0.36816388811638329 -0.39545065246060412 0 0.37505152225636262 -0.40368306209891941 0 0.36816388811638329 -0.39545065246060412 0 0.36876771314038492 -0.40452533678464098 0 0.37799680588164719 -0.40353053649882148 0 0.37505152225636262 -0.40368306209891941 0 0.36816388811638329 -0.39545065246060412 0 0.37505152225636262 -0.40368306209891941 0 0.36990343230398692 -0.40830781576793279 0 0.36876771314038492 -0.40452533678464098 0 0.38601585554704992 -0.38244526212700758 0 0.36816388811638329 -0.39545065246060412 0 0.3689120952668708 -0.37284951495870189 0 0.36816388811638329 -0.39545065246060412 0 0.35352794608594401 -0.38791341326287138 0 0.3689120952668708 -0.37284951495870189 0 0.35352794608594401 -0.38791341326287138 0 0.33563788842162012 -0.39728816287537172 0 0.34467783115022588 -0.37252705130409253 0 0.35352794608594401 -0.38791341326287138 0 0.3689120952668708 -0.37284951495870189 0 0.34467783115022588 -0.37252705130409253 0 0.33563788842162012 -0.39728816287537172 0 0.3255374248820434 -0.37161020359421471 0 0.33563788842162012 -0.39728816287537172 0 0.34467783115022588 -0.37252705130409253 0 0.3255374248820434 -0.37161020359421471 0 0.3193156137706864 -0.40941365839269389 0 0.33563788842162012 -0.39728816287537172 0 0.30534853388527528 -0.38930881101125692 0 0.33563788842162012 -0.39728816287537172 0 0.30534853388527528 -0.38930881101125692 0 0.3255374248820434 -0.37161020359421471 0 0.30534853388527528 -0.38930881101125692 0 0.3255374248820434 -0.37161020359421471 0 0.30525369772634148 -0.37164386163485291 0 0.30534853388527528 -0.38930881101125692 0 0.28783989868818821 -0.37644057584389279 0 0.30525369772634148 -0.37164386163485291 0 0.3193156137706864 -0.40941365839269389 0 0.30534853388527528 -0.38930881101125692 0 0.29937418247959258 -0.41817563384508599 0 0.30534853388527528 -0.38930881101125692 0 0.28922044672054198 -0.39637746652331562 0 0.29937418247959258 -0.41817563384508599 0 0.28922044672054198 -0.39637746652331562 0 0.27510086349567708 -0.39798721671617321 0 0.28320928432356041 -0.41012407252970262 0 0.28922044672054198 -0.39637746652331562 0 0.28783989868818821 -0.37644057584389279 0 0.27924907625512951 -0.38731579260330862 0 0.30534853388527528 -0.38930881101125692 0 0.28922044672054198 -0.39637746652331562 0 0.28783989868818821 -0.37644057584389279 0 0.30534853388527528 -0.38930881101125692 0 0.28783989868818821 -0.37644057584389279 0 0.28783989868818821 -0.37644057584389279 0 0.27447250226623809 -0.37821124143188289 0 0.27924907625512951 -0.38731579260330862 0 0.27447250226623809 -0.37821124143188289 0 0.27924907625512951 -0.38731579260330862 0 0.26961167010500181 -0.38756246250127813 0 0.27447250226623809 -0.37821124143188289 0 0.26961167010500181 -0.38756246250127813 0 0.26423397132697279 -0.37890457124200982 0 0.26961167010500181 -0.38756246250127813 0 0.26423397132697279 -0.37890457124200982 0 0.25687819372407023 -0.38903915957053298 0 0.26423397132697279 -0.37890457124200982 0 0.25687819372407023 -0.38903915957053298 0 0.24987622704845311 -0.37613765202982719 0 0.25108303853213881 -0.40002667887407228 0 0.26390234922262928 -0.39930308446362528 0 0.256136481120742 -0.41447562176841068 0 0.25687819372407023 -0.38903915957053298 0 0.25108303853213881 -0.40002667887407228 0 0.24309899287842279 -0.39271330151873202 0 0.25687819372407023 -0.38903915957053298 0 0.25108303853213881 -0.40002667887407228 0 0.26390234922262928 -0.39930308446362528 0 0.26961167010500181 -0.38756246250127813 0 0.25687819372407023 -0.38903915957053298 0 0.26390234922262928 -0.39930308446362528 0 0.26390234922262928 -0.39930308446362528 0 0.27510086349567708 -0.39798721671617321 0 0.2708804648698091 -0.41009655218672442 0 0.26961167010500181 -0.38756246250127813 0 0.26390234922262928 -0.39930308446362528 0 0.27510086349567708 -0.39798721671617321 0 0.28922044672054198 -0.39637746652331562 0 0.27924907625512951 -0.38731579260330862 0 0.27510086349567708 -0.39798721671617321 0 0.27924907625512951 -0.38731579260330862 0 0.26961167010500181 -0.38756246250127813 0 0.27510086349567708 -0.39798721671617321 0 0.27510086349567708 -0.39798721671617321 0 0.2708804648698091 -0.41009655218672442 0 0.28320928432356041 -0.41012407252970262 0 0.2708804648698091 -0.41009655218672442 0 0.256136481120742 -0.41447562176841068 0 0.27433621812851161 -0.42550461519375637 0 0.2708804648698091 -0.41009655218672442 0 0.27433621812851161 -0.42550461519375637 0 0.28320928432356041 -0.41012407252970262 0 0.26390234922262928 -0.39930308446362528 0 0.2708804648698091 -0.41009655218672442 0 0.256136481120742 -0.41447562176841068 0 0.25108303853213881 -0.40002667887407228 0 0.256136481120742 -0.41447562176841068 0 0.24629253832767661 -0.41022035877505542 0 0.256136481120742 -0.41447562176841068 0 0.25513396950241118 -0.43290986753561628 0 0.2453827316299185 -0.42192330194190181 0 0.256136481120742 -0.41447562176841068 0 0.25513396950241118 -0.43290986753561628 0 0.27433621812851161 -0.42550461519375637 0 0.25513396950241118 -0.43290986753561628 0 0.27433621812851161 -0.42550461519375637 0 0.26752346795397081 -0.44788636482661331 0 0.27433621812851161 -0.42550461519375637 0 0.29937418247959258 -0.41817563384508599 0 0.28546596250580908 -0.44246723239800262 0 0.29937418247959258 -0.41817563384508599 0 0.30480654487456732 -0.44641521679941309 0 0.28546596250580908 -0.44246723239800262 0 0.28922044672054198 -0.39637746652331562 0 0.28320928432356041 -0.41012407252970262 0 0.29937418247959258 -0.41817563384508599 0 0.27433621812851161 -0.42550461519375637 0 0.28320928432356041 -0.41012407252970262 0 0.29937418247959258 -0.41817563384508599 0 0.32126124445813709 -0.43429719032362252 0 0.29937418247959258 -0.41817563384508599 0 0.30480654487456732 -0.44641521679941309 0 0.3189449745883719 -0.46117016543644002 0 0.30480654487456732 -0.44641521679941309 0 0.28880919487484108 -0.4658549053918814 0 0.30480654487456732 -0.44641521679941309 0 0.28880919487484108 -0.4658549053918814 0 0.28546596250580908 -0.44246723239800262 0 0.27433621812851161 -0.42550461519375637 0 0.28546596250580908 -0.44246723239800262 0 0.26752346795397081 -0.44788636482661331 0 0.28880919487484108 -0.4658549053918814 0 0.28546596250580908 -0.44246723239800262 0 0.26752346795397081 -0.44788636482661331 0 0.25513396950241118 -0.43290986753561628 0 0.26752346795397081 -0.44788636482661331 0 0.24480843210435321 -0.45079661158300749 0 0.26752346795397081 -0.44788636482661331 0 0.2588368117714554 -0.46700690363883102 0 0.24480843210435321 -0.45079661158300749 0 0.28880919487484108 -0.4658549053918814 0 0.26752346795397081 -0.44788636482661331 0 0.2588368117714554 -0.46700690363883102 0 0.28880919487484108 -0.4658549053918814 0 0.2588368117714554 -0.46700690363883102 0 0.27227655507569209 -0.48076744006000099 0 0.2588368117714554 -0.46700690363883102 0 0.27227655507569209 -0.48076744006000099 0 0.25270961841775552 -0.48460016746525392 0 0.2588368117714554 -0.46700690363883102 0 0.25270961841775552 -0.48460016746525392 0 0.23949561189523169 -0.47426551941090739 0 0.25270961841775552 -0.48460016746525392 0 0.26826962257648529 -0.5 0 0.2413270925756249 -0.5 0 0.27227655507569209 -0.48076744006000099 0 0.25270961841775552 -0.48460016746525392 0 0.26826962257648529 -0.5 0 0.27227655507569209 -0.48076744006000099 0 0.26826962257648529 -0.5 0 0.29521215257734579 -0.5 0 0.28880919487484108 -0.4658549053918814 0 0.27227655507569209 -0.48076744006000099 0 0.29521215257734579 -0.5 0 0.28880919487484108 -0.4658549053918814 0 0.29521215257734579 -0.5 0 0.31005432530219129 -0.48106067464861729 0 0.3189449745883719 -0.46117016543644002 0 0.28880919487484108 -0.4658549053918814 0 0.31005432530219129 -0.48106067464861729 0 0.32215468257820618 -0.5 0 0.29521215257734579 -0.5 0 0.31005432530219129 -0.48106067464861729 0 0.33463237856908817 -0.28956894479377399 0 0.33485830675890288 -0.30442904333306592 0 0.35657459314761941 -0.2860097891906741 0 0.33463237856908817 -0.28956894479377399 0 0.32894302133540282 -0.28710755170783531 0 0.35195887039823659 -0.28200771363307098 0 0.32894302133540282 -0.28710755170783531 0 0.35195887039823659 -0.28200771363307098 0 0.32894302133540282 -0.28710755170783531 0 0.33255663915089151 -0.29722249741805129 0 0.33463237856908817 -0.28956894479377399 0 0.32894302133540282 -0.28710755170783531 0 0.33255663915089151 -0.29722249741805129 0 0.32894302133540282 -0.28710755170783531 0 0.33255663915089151 -0.29722249741805129 0 0.32301709761150521 -0.2972128627914089 0 0.33485830675890288 -0.30442904333306592 0 0.34824447571033601 -0.30253517369681238 0 0.34533870308018377 -0.31598934501886372 0 0.33485830675890288 -0.30442904333306592 0 0.33255663915089151 -0.29722249741805129 0 0.32434770264142349 -0.30499280498860082 0 0.33463237856908817 -0.28956894479377399 0 0.33485830675890288 -0.30442904333306592 0 0.33255663915089151 -0.29722249741805129 0 0.32301709761150521 -0.2972128627914089 0 0.32434770264142349 -0.30499280498860082 0 0.3171485971304504 -0.30589952111326829 0 0.32434770264142349 -0.30499280498860082 0 0.3171485971304504 -0.30589952111326829 0 0.31314202037018413 -0.32284829747545468 0 0.33485830675890288 -0.30442904333306592 0 0.32434770264142349 -0.30499280498860082 0 0.31314202037018413 -0.32284829747545468 0 0.33255663915089151 -0.29722249741805129 0 0.32301709761150521 -0.2972128627914089 0 0.32434770264142349 -0.30499280498860082 0 0.3171485971304504 -0.30589952111326829 0 0.31208952779935789 -0.2908419387292881 0 0.30833746379913463 -0.30503745501229762 0 0.32301709761150521 -0.2972128627914089 0 0.3171485971304504 -0.30589952111326829 0 0.31208952779935789 -0.2908419387292881 0 0.32894302133540282 -0.28710755170783531 0 0.31611371382327402 -0.28007222207304999 0 0.31208952779935789 -0.2908419387292881 0 0.32894302133540282 -0.28710755170783531 0 0.32301709761150521 -0.2972128627914089 0 0.31208952779935789 -0.2908419387292881 0 0.32894302133540282 -0.28710755170783531 0 0.31208952779935789 -0.2908419387292881 0 0.32894302133540282 -0.28710755170783531 0 0.32245882367699719 -0.26895751187574157 0 0.32894302133540282 -0.28710755170783531 0 0.31611371382327402 -0.28007222207304999 0 0.32245882367699719 -0.26895751187574157 0 0.31611371382327402 -0.28007222207304999 0 0.32245882367699719 -0.26895751187574157 0 0.30706455279928557 -0.27339796693147528 0 0.32245882367699719 -0.26895751187574157 0 0.30981211567343969 -0.26250129009931661 0 0.30706455279928557 -0.27339796693147528 0 0.32245882367699719 -0.26895751187574157 0 0.31597462601859122 -0.25080747204364812 0 0.32245882367699719 -0.26895751187574157 0 0.31597462601859122 -0.25080747204364812 0 0.30981211567343969 -0.26250129009931661 0 0.32245882367699719 -0.26895751187574157 0 0.31597462601859122 -0.25080747204364812 0 0.33396674820841349 -0.26640759283836002 0 0.31597462601859122 -0.25080747204364812 0 0.33396674820841349 -0.26640759283836002 0 0.33517615116993849 -0.24743488902137309 0 0.33396674820841349 -0.26640759283836002 0 0.35185333732921159 -0.25428502110151557 0 0.33517615116993849 -0.24743488902137309 0 0.31597462601859122 -0.25080747204364812 0 0.33396674820841349 -0.26640759283836002 0 0.32894302133540282 -0.28710755170783531 0 0.32245882367699719 -0.26895751187574157 0 0.33396674820841349 -0.26640759283836002 0 0.33396674820841349 -0.26640759283836002 0 0.35195887039823659 -0.28200771363307098 0 0.32894302133540282 -0.28710755170783531 0 0.33396674820841349 -0.26640759283836002 0 0.35195887039823659 -0.28200771363307098 0 0.33396674820841349 -0.26640759283836002 0 0.35159414215374007 -0.26901089914998932 0 0.35195887039823659 -0.28200771363307098 0 0.35159414215374007 -0.26901089914998932 0 0.36459381448795669 -0.2792080702757721 0 0.35195887039823659 -0.28200771363307098 0 0.36459381448795669 -0.2792080702757721 0 0.35195887039823659 -0.28200771363307098 0 0.33396674820841349 -0.26640759283836002 0 0.35159414215374007 -0.26901089914998932 0 0.35185333732921159 -0.25428502110151557 0 0.35159414215374007 -0.26901089914998932 0 0.35185333732921159 -0.25428502110151557 0 0.36435388824524378 -0.26651308148643732 0 0.37477580018058132 -0.24095111383496479 0 0.37683953433427181 -0.26882153263446662 0 0.36563983252638571 -0.25462703483095822 0 0.36075586336603621 -0.2426037127049111 0 0.35185333732921159 -0.25428502110151557 0 0.36563983252638571 -0.25462703483095822 0 0.35185333732921159 -0.25428502110151557 0 0.36563983252638571 -0.25462703483095822 0 0.36435388824524378 -0.26651308148643732 0 0.37683953433427181 -0.26882153263446662 0 0.36563983252638571 -0.25462703483095822 0 0.36435388824524378 -0.26651308148643732 0 0.36459381448795669 -0.2792080702757721 0 0.36308990924476459 -0.28048364807874221 0 0.35195887039823659 -0.28200771363307098 0 0.36459381448795669 -0.2792080702757721 0 0.36308990924476459 -0.28048364807874221 0 0.37273728942595791 -0.27740364396778311 0 0.36459381448795669 -0.2792080702757721 0 0.36308990924476459 -0.28048364807874221 0 0.35159414215374007 -0.26901089914998932 0 0.36459381448795669 -0.2792080702757721 0 0.36435388824524378 -0.26651308148643732 0 0.37683953433427181 -0.26882153263446662 0 0.36459381448795669 -0.2792080702757721 0 0.36435388824524378 -0.26651308148643732 0 0.36459381448795669 -0.2792080702757721 0 0.37273728942595791 -0.27740364396778311 0 0.37683953433427181 -0.26882153263446662 0 0.36459381448795669 -0.2792080702757721 0 0.37273728942595791 -0.27740364396778311 0 0.37683953433427181 -0.26882153263446662 0 0.36459381448795669 -0.2792080702757721 0 0.36308990924476459 -0.28048364807874221 0 0.37273728942595791 -0.27740364396778311 0 0.37795999762798671 -0.28395322059410122 0 0.37273728942595791 -0.27740364396778311 0 0.36936745264149701 -0.28627283508716472 0 0.35657459314761941 -0.2860097891906741 0 0.35620629985463748 -0.30371251724464648 0 0.37101427446782781 -0.29852975601036341 0 0.36308990924476459 -0.28048364807874221 0 0.37273728942595791 -0.27740364396778311 0 0.36936745264149701 -0.28627283508716472 0 0.37519981906117678 -0.29055939022370142 0 0.37795999762798671 -0.28395322059410122 0 0.36936745264149701 -0.28627283508716472 0 0.37519981906117678 -0.29055939022370142 0 0.36936745264149701 -0.28627283508716472 0 0.37101427446782781 -0.29852975601036341 0 0.36936745264149701 -0.28627283508716472 0 0.35657459314761941 -0.2860097891906741 0 0.37101427446782781 -0.29852975601036341 0 0.35657459314761941 -0.2860097891906741 0 0.37101427446782781 -0.29852975601036341 0 0.36308990924476459 -0.28048364807874221 0 0.36936745264149701 -0.28627283508716472 0 0.35657459314761941 -0.2860097891906741 0 0.36308990924476459 -0.28048364807874221 0 0.35657459314761941 -0.2860097891906741 0 0.36308990924476459 -0.28048364807874221 0 0.35366972758071469 -0.28349111722646431 0 0.33463237856908817 -0.28956894479377399 0 0.35366972758071469 -0.28349111722646431 0 0.33463237856908817 -0.28956894479377399 0 0.35366972758071469 -0.28349111722646431 0 0.35195887039823659 -0.28200771363307098 0 0.36308990924476459 -0.28048364807874221 0 0.35366972758071469 -0.28349111722646431 0 0.35195887039823659 -0.28200771363307098 0 0.33485830675890288 -0.30442904333306592 0 0.35657459314761941 -0.2860097891906741 0 0.36308990924476459 -0.28048364807874221 0 0.35366972758071469 -0.28349111722646431 0 0.35657459314761941 -0.2860097891906741 0 0.33463237856908817 -0.28956894479377399 0 0.35366972758071469 -0.28349111722646431 0 0.35657459314761941 -0.2860097891906741 0 0.35366972758071469 -0.28349111722646431 0 0.35657459314761941 -0.2860097891906741 0 0.35366972758071469 -0.28349111722646431 0 0.35195887039823659 -0.28200771363307098 0 0.35620629985463748 -0.30371251724464648 0 0.36380134767337091 -0.31365371592763602 0 0.34533870308018377 -0.31598934501886372 0 0.35657459314761941 -0.2860097891906741 0 0.34824447571033601 -0.30253517369681238 0 0.35620629985463748 -0.30371251724464648 0 0.33485830675890288 -0.30442904333306592 0 0.35657459314761941 -0.2860097891906741 0 0.34824447571033601 -0.30253517369681238 0 0.34824447571033601 -0.30253517369681238 0 0.35620629985463748 -0.30371251724464648 0 0.34533870308018377 -0.31598934501886372 0 0.38545395578803499 -0.31104972283005378 0 0.37101427446782781 -0.29852975601036341 0 0.36380134767337091 -0.31365371592763602 0 0.35620629985463748 -0.30371251724464648 0 0.37101427446782781 -0.29852975601036341 0 0.36380134767337091 -0.31365371592763602 0 0.38545395578803499 -0.31104972283005378 0 0.36380134767337091 -0.31365371592763602 0 0.36945761595668469 -0.32738841673247931 0 0.36380134767337091 -0.31365371592763602 0 0.36945761595668469 -0.32738841673247931 0 0.35533723689285712 -0.32525253772940937 0 0.36945761595668469 -0.32738841673247931 0 0.35618710249729552 -0.34088690244721892 0 0.35533723689285712 -0.32525253772940937 0 0.36945761595668469 -0.32738841673247931 0 0.35618710249729552 -0.34088690244721892 0 0.37368731816096312 -0.34897020548070451 0 0.35618710249729552 -0.34088690244721892 0 0.33810128782584858 -0.35072533414536311 0 0.34064131712366241 -0.33181983138849169 0 0.35618710249729552 -0.34088690244721892 0 0.35533723689285712 -0.32525253772940937 0 0.34064131712366241 -0.33181983138849169 0 0.34533870308018377 -0.31598934501886372 0 0.35533723689285712 -0.32525253772940937 0 0.34064131712366241 -0.33181983138849169 0 0.36380134767337091 -0.31365371592763602 0 0.34533870308018377 -0.31598934501886372 0 0.35533723689285712 -0.32525253772940937 0 0.3689120952668708 -0.37284951495870189 0 0.37368731816096312 -0.34897020548070451 0 0.35738528973841999 -0.35772904562383351 0 0.35618710249729552 -0.34088690244721892 0 0.37368731816096312 -0.34897020548070451 0 0.35738528973841999 -0.35772904562383351 0 0.35618710249729552 -0.34088690244721892 0 0.35738528973841999 -0.35772904562383351 0 0.33810128782584858 -0.35072533414536311 0 0.35738528973841999 -0.35772904562383351 0 0.34467783115022588 -0.37252705130409253 0 0.33810128782584858 -0.35072533414536311 0 0.3689120952668708 -0.37284951495870189 0 0.35738528973841999 -0.35772904562383351 0 0.34467783115022588 -0.37252705130409253 0 0.34467783115022588 -0.37252705130409253 0 0.33810128782584858 -0.35072533414536311 0 0.3255374248820434 -0.37161020359421471 0 0.31543696134246668 -0.34593224431305769 0 0.3255374248820434 -0.37161020359421471 0 0.30900602422585888 -0.35865430802761772 0 0.31543696134246668 -0.34593224431305769 0 0.3255374248820434 -0.37161020359421471 0 0.33810128782584858 -0.35072533414536311 0 0.31543696134246668 -0.34593224431305769 0 0.3255374248820434 -0.37161020359421471 0 0.3255374248820434 -0.37161020359421471 0 0.30525369772634148 -0.37164386163485291 0 0.30900602422585888 -0.35865430802761772 0 0.34533870308018377 -0.31598934501886372 0 0.33130220335757699 -0.32186248444176119 0 0.34064131712366241 -0.33181983138849169 0 0.33485830675890288 -0.30442904333306592 0 0.34533870308018377 -0.31598934501886372 0 0.33130220335757699 -0.32186248444176119 0 0.33810128782584858 -0.35072533414536311 0 0.34064131712366241 -0.33181983138849169 0 0.3268430880468266 -0.33457206034663262 0 0.33130220335757699 -0.32186248444176119 0 0.34064131712366241 -0.33181983138849169 0 0.3268430880468266 -0.33457206034663262 0 0.31543696134246668 -0.34593224431305769 0 0.3268430880468266 -0.33457206034663262 0 0.31314202037018413 -0.32284829747545468 0 0.33810128782584858 -0.35072533414536311 0 0.31543696134246668 -0.34593224431305769 0 0.3268430880468266 -0.33457206034663262 0 0.33130220335757699 -0.32186248444176119 0 0.3268430880468266 -0.33457206034663262 0 0.31314202037018413 -0.32284829747545468 0 0.33485830675890288 -0.30442904333306592 0 0.31314202037018413 -0.32284829747545468 0 0.3171485971304504 -0.30589952111326829 0 0.31314202037018413 -0.32284829747545468 0 0.3109911447756647 -0.31350988965823029 0 0.33485830675890288 -0.30442904333306592 0 0.33130220335757699 -0.32186248444176119 0 0.31314202037018413 -0.32284829747545468 0 0.31314202037018413 -0.32284829747545468 0 0.30533649780288991 -0.32025428503190068 0 0.3109911447756647 -0.31350988965823029 0 0.30533649780288991 -0.32025428503190068 0 0.3109911447756647 -0.31350988965823029 0 0.30833746379913463 -0.30503745501229762 0 0.31543696134246668 -0.34593224431305769 0 0.30533649780288991 -0.32025428503190068 0 0.30314188851555429 -0.3464145030398364 0 0.30533649780288991 -0.32025428503190068 0 0.29792146783109758 -0.32077626486014349 0 0.30314188851555429 -0.3464145030398364 0 0.31543696134246668 -0.34593224431305769 0 0.31314202037018413 -0.32284829747545468 0 0.30533649780288991 -0.32025428503190068 0 0.29792146783109758 -0.32077626486014349 0 0.30314188851555429 -0.3464145030398364 0 0.31543696134246668 -0.34593224431305769 0 0.30533649780288991 -0.32025428503190068 0 0.29792146783109758 -0.32077626486014349 0 0.29422135484035322 -0.33366994296298719 0 0.30314188851555429 -0.3464145030398364 0 0.29422135484035322 -0.33366994296298719 0 0.29546103181119637 -0.34185893253319311 0 0.30314188851555429 -0.3464145030398364 0 0.29422135484035322 -0.33366994296298719 0 0.29546103181119637 -0.34185893253319311 0 0.28827175492889229 -0.34275780055790278 0 0.29546103181119637 -0.34185893253319311 0 0.28827175492889229 -0.34275780055790278 0 0.29811044553331972 -0.34650788457159087 0 0.29422135484035322 -0.33366994296298719 0 0.28827175492889229 -0.34275780055790278 0 0.27955848846152698 -0.33666113426449551 0 0.29422135484035322 -0.33366994296298719 0 0.28744860979629389 -0.32474860906702402 0 0.27955848846152698 -0.33666113426449551 0 0.28744860979629389 -0.32474860906702402 0 0.29019889155513462 -0.31620785207956748 0 0.28097437988070417 -0.31138482246715898 0 0.29792146783109758 -0.32077626486014349 0 0.29019889155513462 -0.31620785207956748 0 0.29244758100571983 -0.32385066724243061 0 0.29422135484035322 -0.33366994296298719 0 0.28744860979629389 -0.32474860906702402 0 0.29244758100571983 -0.32385066724243061 0 0.29792146783109758 -0.32077626486014349 0 0.29422135484035322 -0.33366994296298719 0 0.29244758100571983 -0.32385066724243061 0 0.28744860979629389 -0.32474860906702402 0 0.29019889155513462 -0.31620785207956748 0 0.29244758100571983 -0.32385066724243061 0 0.30525369772634148 -0.37164386163485291 0 0.30031449930387721 -0.36082981960256849 0 0.30900602422585888 -0.35865430802761772 0 0.30525369772634148 -0.37164386163485291 0 0.30031449930387721 -0.36082981960256849 0 0.29483415024835152 -0.36747827247447862 0 0.30080593951138668 -0.35381036279877531 0 0.30900602422585888 -0.35865430802761772 0 0.30314188851555429 -0.3464145030398364 0 0.30080593951138668 -0.35381036279877531 0 0.29811044553331972 -0.34650788457159087 0 0.29345683997832372 -0.35664529875226292 0 0.30031449930387721 -0.36082981960256849 0 0.30080593951138668 -0.35381036279877531 0 0.30900602422585888 -0.35865430802761772 0 0.30031449930387721 -0.36082981960256849 0 0.30080593951138668 -0.35381036279877531 0 0.29345683997832372 -0.35664529875226292 0 0.31543696134246668 -0.34593224431305769 0 0.30900602422585888 -0.35865430802761772 0 0.30314188851555429 -0.3464145030398364 0 0.30080593951138668 -0.35381036279877531 0 0.30314188851555429 -0.3464145030398364 0 0.29811044553331972 -0.34650788457159087 0 0.29546103181119637 -0.34185893253319311 0 0.30314188851555429 -0.3464145030398364 0 0.29811044553331972 -0.34650788457159087 0 0.29811044553331972 -0.34650788457159087 0 0.29345683997832372 -0.35664529875226292 0 0.28122462644821988 -0.35688066365974619 0 0.28827175492889229 -0.34275780055790278 0 0.29811044553331972 -0.34650788457159087 0 0.28122462644821988 -0.35688066365974619 0 0.28827175492889229 -0.34275780055790278 0 0.28122462644821988 -0.35688066365974619 0 0.27955848846152698 -0.33666113426449551 0 0.29811044553331972 -0.34650788457159087 0 0.28122462644821988 -0.35688066365974619 0 0.29345683997832372 -0.35664529875226292 0 0.28676543400443838 -0.36101512068260139 0 0.28122462644821988 -0.35688066365974619 0 0.28676543400443838 -0.36101512068260139 0 0.28122462644821988 -0.35688066365974619 0 0.28783989868818821 -0.37644057584389279 0 0.30525369772634148 -0.37164386163485291 0 0.29483415024835152 -0.36747827247447862 0 0.28783989868818821 -0.37644057584389279 0 0.28676543400443838 -0.36101512068260139 0 0.27033126349110148 -0.36357234067652822 0 0.29357505063040601 -0.36145191270551408 0 0.28676543400443838 -0.36101512068260139 0 0.29483415024835152 -0.36747827247447862 0 0.30031449930387721 -0.36082981960256849 0 0.29357505063040601 -0.36145191270551408 0 0.29483415024835152 -0.36747827247447862 0 0.30031449930387721 -0.36082981960256849 0 0.29345683997832372 -0.35664529875226292 0 0.29357505063040601 -0.36145191270551408 0 0.29345683997832372 -0.35664529875226292 0 0.29357505063040601 -0.36145191270551408 0 0.28676543400443838 -0.36101512068260139 0 0.28783989868818821 -0.37644057584389279 0 0.28676543400443838 -0.36101512068260139 0 0.29483415024835152 -0.36747827247447862 0 0.28783989868818821 -0.37644057584389279 0 0.27033126349110148 -0.36357234067652822 0 0.28783989868818821 -0.37644057584389279 0 0.27447250226623809 -0.37821124143188289 0 0.27033126349110148 -0.36357234067652822 0 0.28676543400443838 -0.36101512068260139 0 0.27033126349110148 -0.36357234067652822 0 0.28122462644821988 -0.35688066365974619 0 0.27447250226623809 -0.37821124143188289 0 0.26423397132697279 -0.37890457124200982 0 0.27033126349110148 -0.36357234067652822 0 0.27033126349110148 -0.36357234067652822 0 0.28122462644821988 -0.35688066365974619 0 0.28122462644821988 -0.35688066365974619 0 0.26082083375001269 -0.34165569813656432 0 0.27033126349110148 -0.36357234067652822 0 0.28122462644821988 -0.35688066365974619 0 0.26082083375001269 -0.34165569813656432 0 0.28122462644821988 -0.35688066365974619 0 0.27955848846152698 -0.33666113426449551 0 0.26082083375001269 -0.34165569813656432 0 0.27033126349110148 -0.36357234067652822 0 0.25099839141978419 -0.34936335514031408 0 0.27033126349110148 -0.36357234067652822 0 0.25099839141978419 -0.34936335514031408 0 0.26082083375001269 -0.34165569813656432 0 0.27033126349110148 -0.36357234067652822 0 0.25099839141978419 -0.34936335514031408 0 0.24534349961555019 -0.36253701182870851 0 0.26423397132697279 -0.37890457124200982 0 0.27033126349110148 -0.36357234067652822 0 0.24987622704845311 -0.37613765202982719 0 0.27033126349110148 -0.36357234067652822 0 0.24534349961555019 -0.36253701182870851 0 0.24987622704845311 -0.37613765202982719 0 0.27033126349110148 -0.36357234067652822 0 0.24987622704845311 -0.37613765202982719 0 0.28744860979629389 -0.32474860906702402 0 0.26598899428458778 -0.32103793389256657 0 0.27955848846152698 -0.33666113426449551 0 0.28744860979629389 -0.32474860906702402 0 0.26598899428458778 -0.32103793389256657 0 0.28097437988070417 -0.31138482246715898 0 0.26598899428458778 -0.32103793389256657 0 0.27955848846152698 -0.33666113426449551 0 0.26082083375001269 -0.34165569813656432 0 0.26082083375001269 -0.34165569813656432 0 0.2404170410518052 -0.32643073261338312 0 0.26598899428458778 -0.32103793389256657 0 0.26082083375001269 -0.34165569813656432 0 0.2404170410518052 -0.32643073261338312 0 0.25099839141978419 -0.34936335514031408 0 0.26082083375001269 -0.34165569813656432 0 0.2404170410518052 -0.32643073261338312 0 0.26598899428458778 -0.32103793389256657 0 0.24423538898563429 -0.30587701823941071 0 0.2404170410518052 -0.32643073261338312 0 0.26846821806613752 -0.30050752245993012 0 0.24423538898563429 -0.30587701823941071 0 0.25301376652256202 -0.2892367573709661 0 0.26846821806613752 -0.30050752245993012 0 0.24423538898563429 -0.30587701823941071 0 0.26598899428458778 -0.32103793389256657 0 0.26846821806613752 -0.30050752245993012 0 0.24423538898563429 -0.30587701823941071 0 0.25301376652256202 -0.2892367573709661 0 0.26500420865911251 -0.28331687632378699 0 0.26846821806613752 -0.30050752245993012 0 0.25301376652256202 -0.2892367573709661 0 0.26500420865911251 -0.28331687632378699 0 0.2507153324002197 -0.27704953531328702 0 0.26500420865911251 -0.28331687632378699 0 0.27805302037335089 -0.28584974436810762 0 0.26846821806613752 -0.30050752245993012 0 0.27805302037335089 -0.28584974436810762 0 0.26846821806613752 -0.30050752245993012 0 0.29270104714664102 -0.29513802668045069 0 0.26500420865911251 -0.28331687632378699 0 0.27805302037335089 -0.28584974436810762 0 0.27342558025451552 -0.27498979272208851 0 0.26598899428458778 -0.32103793389256657 0 0.26846821806613752 -0.30050752245993012 0 0.28097437988070417 -0.31138482246715898 0 0.26846821806613752 -0.30050752245993012 0 0.28097437988070417 -0.31138482246715898 0 0.29270104714664102 -0.29513802668045069 0 0.26846821806613752 -0.30050752245993012 0 0.29270104714664102 -0.29513802668045069 0 0.29792146783109758 -0.32077626486014349 0 0.29270104714664102 -0.29513802668045069 0 0.29019889155513462 -0.31620785207956748 0 0.28097437988070417 -0.31138482246715898 0 0.29270104714664102 -0.29513802668045069 0 0.29792146783109758 -0.32077626486014349 0 0.29019889155513462 -0.31620785207956748 0 0.29270104714664102 -0.29513802668045069 0 0.29792146783109758 -0.32077626486014349 0 0.29270104714664102 -0.29513802668045069 0 0.29523603426331357 -0.29457632575074338 0 0.27805302037335089 -0.28584974436810762 0 0.29026987947112831 -0.28319821192468808 0 0.29270104714664102 -0.29513802668045069 0 0.27805302037335089 -0.28584974436810762 0 0.29026987947112831 -0.28319821192468808 0 0.28863308206368682 -0.27515966401439529 0 0.29026987947112831 -0.28319821192468808 0 0.29523603426331357 -0.29457632575074338 0 0.29026987947112831 -0.28319821192468808 0 0.29523603426331357 -0.29457632575074338 0 0.30320790951940702 -0.28313078900162059 0 0.29026987947112831 -0.28319821192468808 0 0.29270104714664102 -0.29513802668045069 0 0.29523603426331357 -0.29457632575074338 0 0.29026987947112831 -0.28319821192468808 0 0.29270104714664102 -0.29513802668045069 0 0.29270104714664102 -0.29513802668045069 0 0.29523603426331357 -0.29457632575074338 0 0.29523603426331357 -0.29457632575074338 0 0.31208952779935789 -0.2908419387292881 0 0.29523603426331357 -0.29457632575074338 0 0.30320790951940702 -0.28313078900162059 0 0.31208952779935789 -0.2908419387292881 0 0.29523603426331357 -0.29457632575074338 0 0.31208952779935789 -0.2908419387292881 0 0.30833746379913463 -0.30503745501229762 0 0.31611371382327402 -0.28007222207304999 0 0.30320790951940702 -0.28313078900162059 0 0.31208952779935789 -0.2908419387292881 0 0.30533649780288991 -0.32025428503190068 0 0.29523603426331357 -0.29457632575074338 0 0.30833746379913463 -0.30503745501229762 0 0.30533649780288991 -0.32025428503190068 0 0.29792146783109758 -0.32077626486014349 0 0.29523603426331357 -0.29457632575074338 0 0.30533649780288991 -0.32025428503190068 0 0.29523603426331357 -0.29457632575074338 0 0.3171485971304504 -0.30589952111326829 0 0.3109911447756647 -0.31350988965823029 0 0.30833746379913463 -0.30503745501229762 0 0.29812220868357159 -0.26533402464574418 0 0.30111904597271899 -0.2536098058489899 0 0.30981211567343969 -0.26250129009931661 0 0.31597462601859122 -0.25080747204364812 0 0.30111904597271899 -0.2536098058489899 0 0.30981211567343969 -0.26250129009931661 0 0.29812220868357159 -0.26533402464574418 0 0.30981211567343969 -0.26250129009931661 0 0.30706455279928557 -0.27339796693147528 0 0.31611371382327402 -0.28007222207304999 0 0.30320790951940702 -0.28313078900162059 0 0.30706455279928557 -0.27339796693147528 0 0.29026987947112831 -0.28319821192468808 0 0.30320790951940702 -0.28313078900162059 0 0.29755036247591721 -0.27602563541609298 0 0.30320790951940702 -0.28313078900162059 0 0.30706455279928557 -0.27339796693147528 0 0.29755036247591721 -0.27602563541609298 0 0.29812220868357159 -0.26533402464574418 0 0.30706455279928557 -0.27339796693147528 0 0.29755036247591721 -0.27602563541609298 0 0.29812220868357159 -0.26533402464574418 0 0.29755036247591721 -0.27602563541609298 0 0.28863308206368682 -0.27515966401439529 0 0.29026987947112831 -0.28319821192468808 0 0.28863308206368682 -0.27515966401439529 0 0.29026987947112831 -0.28319821192468808 0 0.29755036247591721 -0.27602563541609298 0 0.28863308206368682 -0.27515966401439529 0 0.28863308206368682 -0.27515966401439529 0 0.28456511698073272 -0.25518130134833977 0 0.29812220868357159 -0.26533402464574418 0 0.28863308206368682 -0.27515966401439529 0 0.28456511698073272 -0.25518130134833977 0 0.29812220868357159 -0.26533402464574418 0 0.30111904597271899 -0.2536098058489899 0 0.28456511698073272 -0.25518130134833977 0 0.28863308206368682 -0.27515966401439529 0 0.28456511698073272 -0.25518130134833977 0 0.27223885194073971 -0.26265851400849172 0 0.28456511698073272 -0.25518130134833977 0 0.27223885194073971 -0.26265851400849172 0 0.26629969424128969 -0.25192769388052821 0 0.27223885194073971 -0.26265851400849172 0 0.26629969424128969 -0.25192769388052821 0 0.2629172406837702 -0.26740365320709081 0 0.26500420865911251 -0.28331687632378699 0 0.27342558025451552 -0.27498979272208851 0 0.2629172406837702 -0.26740365320709081 0 0.28863308206368682 -0.27515966401439529 0 0.27223885194073971 -0.26265851400849172 0 0.27342558025451552 -0.27498979272208851 0 0.27805302037335089 -0.28584974436810762 0 0.28863308206368682 -0.27515966401439529 0 0.27342558025451552 -0.27498979272208851 0 0.27223885194073971 -0.26265851400849172 0 0.27342558025451552 -0.27498979272208851 0 0.2629172406837702 -0.26740365320709081 0 0.26500420865911251 -0.28331687632378699 0 0.2629172406837702 -0.26740365320709081 0 0.2507153324002197 -0.27704953531328702 0 0.2629172406837702 -0.26740365320709081 0 0.2507153324002197 -0.27704953531328702 0 0.2466218950091964 -0.26012473444713258 0 0.25037283077400019 -0.2416092145933311 0 0.26629969424128969 -0.25192769388052821 0 0.2466218950091964 -0.26012473444713258 0 0.26629969424128969 -0.25192769388052821 0 0.2629172406837702 -0.26740365320709081 0 0.2466218950091964 -0.26012473444713258 0 0.25037283077400019 -0.2416092145933311 0 0.2466218950091964 -0.26012473444713258 0 0.2339549802858914 -0.24933471903745599 0 0.2466218950091964 -0.26012473444713258 0 0.22717476572977791 -0.26325637954660608 0 0.2339549802858914 -0.24933471903745599 0 0.2466218950091964 -0.26012473444713258 0 0.23628574795648369 -0.27498419313581679 0 0.22717476572977791 -0.26325637954660608 0 0.2507153324002197 -0.27704953531328702 0 0.2466218950091964 -0.26012473444713258 0 0.23628574795648369 -0.27498419313581679 0 0.2507153324002197 -0.27704953531328702 0 0.23628574795648369 -0.27498419313581679 0 0.24044913557019401 -0.28723099739492908 0 0.2247339410531527 -0.27667652802353632 0 0.21554844428562811 -0.26491471108287651 0 0.21653111649902579 -0.28712771180040292 0 0.23628574795648369 -0.27498419313581679 0 0.2247339410531527 -0.27667652802353632 0 0.22717476572977791 -0.26325637954660608 0 0.2247339410531527 -0.27667652802353632 0 0.22717476572977791 -0.26325637954660608 0 0.21554844428562811 -0.26491471108287651 0 0.22717476572977791 -0.26325637954660608 0 0.22331750647786899 -0.25281133177650322 0 0.2339549802858914 -0.24933471903745599 0 0.22717476572977791 -0.26325637954660608 0 0.22331750647786899 -0.25281133177650322 0 0.21554844428562811 -0.26491471108287651 0 0.2084475354763706 -0.25511513831035743 0 0.21554844428562811 -0.26491471108287651 0 0.1982966667633215 -0.26354120971092698 0 0.21554844428562811 -0.26491471108287651 0 0.21456577207223029 -0.24270171036535029 0 0.22331750647786899 -0.25281133177650322 0 0.21554844428562811 -0.26491471108287651 0 0.21456577207223029 -0.24270171036535029 0 0.2084475354763706 -0.25511513831035743 0 0.21554844428562811 -0.26491471108287651 0 0.21336353465090491 -0.24693864317134839 0 0.21554844428562811 -0.26491471108287651 0 0.21336353465090491 -0.24693864317134839 0 0.21456577207223029 -0.24270171036535029 0 0.2084475354763706 -0.25511513831035743 0 0.1982966667633215 -0.26354120971092698 0 0.2080714594183444 -0.2424179483002232 0 0.1982966667633215 -0.26354120971092698 0 0.2080714594183444 -0.2424179483002232 0 0.21554844428562811 -0.26491471108287651 0 0.21653111649902579 -0.28712771180040292 0 0.21554844428562811 -0.26491471108287651 0 0.20859607852913339 -0.28093905456482821 0 0.21653111649902579 -0.28712771180040292 0 0.21554844428562811 -0.26491471108287651 0 0.20859607852913339 -0.28093905456482821 0 0.2011380539128553 -0.27767933622792518 0 0.21554844428562811 -0.26491471108287651 0 0.2011380539128553 -0.27767933622792518 0 0.1982966667633215 -0.26354120971092698 0 0.1982966667633215 -0.26354120971092698 0 0.18852187410829821 -0.28466447112163068 0 0.1982966667633215 -0.26354120971092698 0 0.18852187410829821 -0.28466447112163068 0 0.1845366839674035 -0.26640487959885623 0 0.2011380539128553 -0.27767933622792518 0 0.1982966667633215 -0.26354120971092698 0 0.18852187410829821 -0.28466447112163068 0 0.1982966667633215 -0.26354120971092698 0 0.2080714594183444 -0.2424179483002232 0 0.19254414318066221 -0.24961624770678509 0 0.1982966667633215 -0.26354120971092698 0 0.18706352147094041 -0.25756661524031438 0 0.1845366839674035 -0.26640487959885623 0 0.1982966667633215 -0.26354120971092698 0 0.18706352147094041 -0.25756661524031438 0 0.19254414318066221 -0.24961624770678509 0 0.18706352147094041 -0.25756661524031438 0 0.19254414318066221 -0.24961624770678509 0 0.18399505531774341 -0.24981832115951039 0 0.20249447748908611 -0.29813355613580778 0 0.1976485991634879 -0.30796138879627621 0 0.19462594870140809 -0.30164723750547567 0 0.20249447748908611 -0.29813355613580778 0 0.19462594870140809 -0.30164723750547567 0 0.19392418081794471 -0.29575522021664652 0 0.20249447748908611 -0.29813355613580778 0 0.1976485991634879 -0.30796138879627621 0 0.20782414549410869 -0.30817847155873718 0 0.1976485991634879 -0.30796138879627621 0 0.20782414549410869 -0.30817847155873718 0 0.20282381327660201 -0.31505297042611552 0 0.1976485991634879 -0.30796138879627621 0 0.19009702279388629 -0.3064242775921906 0 0.18802618722583669 -0.31833181955932999 0 0.1976485991634879 -0.30796138879627621 0 0.19009702279388629 -0.3064242775921906 0 0.19462594870140809 -0.30164723750547567 0 0.19009702279388629 -0.3064242775921906 0 0.19462594870140809 -0.30164723750547567 0 0.1880606218677118 -0.30022154946313712 0 0.19462594870140809 -0.30164723750547567 0 0.19110113081553529 -0.29631368747161629 0 0.19392418081794471 -0.29575522021664652 0 0.1880606218677118 -0.30022154946313712 0 0.19110113081553529 -0.29631368747161629 0 0.18734834214976739 -0.29514628785519947 0 0.19462594870140809 -0.30164723750547567 0 0.1880606218677118 -0.30022154946313712 0 0.19110113081553529 -0.29631368747161629 0 0.20249447748908611 -0.29813355613580778 0 0.18747516626574931 -0.28692639975368628 0 0.20249447748908611 -0.29813355613580778 0 0.19392418081794471 -0.29575522021664652 0 0.18747516626574931 -0.28692639975368628 0 0.19110113081553529 -0.29631368747161629 0 0.19392418081794471 -0.29575522021664652 0 0.18747516626574931 -0.28692639975368628 0 0.19110113081553529 -0.29631368747161629 0 0.18747516626574931 -0.28692639975368628 0 0.18734834214976739 -0.29514628785519947 0 0.18852187410829821 -0.28466447112163068 0 0.19787122383615691 -0.29172525818392958 0 0.18852187410829821 -0.28466447112163068 0 0.19731262536099689 -0.28481999283041842 0 0.19787122383615691 -0.29172525818392958 0 0.18852187410829821 -0.28466447112163068 0 0.19787122383615691 -0.29172525818392958 0 0.18747516626574931 -0.28692639975368628 0 0.18852187410829821 -0.28466447112163068 0 0.18747516626574931 -0.28692639975368628 0 0.2011380539128553 -0.27767933622792518 0 0.18852187410829821 -0.28466447112163068 0 0.19731262536099689 -0.28481999283041842 0 0.201719349586677 -0.2852109057881882 0 0.19787122383615691 -0.29172525818392958 0 0.206049533411369 -0.28982701925762389 0 0.19731262536099689 -0.28481999283041842 0 0.201719349586677 -0.2852109057881882 0 0.19787122383615691 -0.29172525818392958 0 0.2011380539128553 -0.27767933622792518 0 0.19731262536099689 -0.28481999283041842 0 0.201719349586677 -0.2852109057881882 0 0.20249447748908611 -0.29813355613580778 0 0.19787122383615691 -0.29172525818392958 0 0.18747516626574931 -0.28692639975368628 0 0.20249447748908611 -0.29813355613580778 0 0.19787122383615691 -0.29172525818392958 0 0.206049533411369 -0.28982701925762389 0 0.20249447748908611 -0.29813355613580778 0 0.206049533411369 -0.28982701925762389 0 0.20903552332543929 -0.29406903275804652 0 0.206049533411369 -0.28982701925762389 0 0.20903552332543929 -0.29406903275804652 0 0.21653111649902579 -0.28712771180040292 0 0.20249447748908611 -0.29813355613580778 0 0.20903552332543929 -0.29406903275804652 0 0.2123558614978226 -0.29827812898856709 0 0.20859607852913339 -0.28093905456482821 0 0.206049533411369 -0.28982701925762389 0 0.21653111649902579 -0.28712771180040292 0 0.20859607852913339 -0.28093905456482821 0 0.201719349586677 -0.2852109057881882 0 0.206049533411369 -0.28982701925762389 0 0.20859607852913339 -0.28093905456482821 0 0.2011380539128553 -0.27767933622792518 0 0.201719349586677 -0.2852109057881882 0 0.20903552332543929 -0.29406903275804652 0 0.21653111649902579 -0.28712771180040292 0 0.2123558614978226 -0.29827812898856709 0 0.21653111649902579 -0.28712771180040292 0 0.2175137887124228 -0.30934071251792922 0 0.21653111649902579 -0.28712771180040292 0 0.2123558614978226 -0.29827812898856709 0 0.2175137887124228 -0.30934071251792922 0 0.20249447748908611 -0.29813355613580778 0 0.2123558614978226 -0.29827812898856709 0 0.2175137887124228 -0.30934071251792922 0 0.20249447748908611 -0.29813355613580778 0 0.2175137887124228 -0.30934071251792922 0 0.20782414549410869 -0.30817847155873718 0 0.2176214393273678 -0.31177412129290383 0 0.20282381327660201 -0.31505297042611552 0 0.20249447748908611 -0.29813355613580778 0 0.20782414549410869 -0.30817847155873718 0 0.2175137887124228 -0.30934071251792922 0 0.20782414549410869 -0.30817847155873718 0 0.2175137887124228 -0.30934071251792922 0 0.2176214393273678 -0.31177412129290383 0 0.2175137887124228 -0.30934071251792922 0 0.2176214393273678 -0.31177412129290383 0 0.2175137887124228 -0.30934071251792922 0 0.2176214393273678 -0.31177412129290383 0 0.21999804566891551 -0.31122614102315033 0 0.21999804566891551 -0.31122614102315033 0 0.24423538898563429 -0.30587701823941071 0 0.2175137887124228 -0.30934071251792922 0 0.21999804566891551 -0.31122614102315033 0 0.22812963079484819 -0.29309964455197901 0 0.21999804566891551 -0.31122614102315033 0 0.22812963079484819 -0.29309964455197901 0 0.21999804566891551 -0.31122614102315033 0 0.22812963079484819 -0.29309964455197901 0 0.24423538898563429 -0.30587701823941071 0 0.2176214393273678 -0.31177412129290383 0 0.21999804566891551 -0.31122614102315033 0 0.2175137887124228 -0.30934071251792922 0 0.21999804566891551 -0.31122614102315033 0 0.23628574795648369 -0.27498419313581679 0 0.22812963079484819 -0.29309964455197901 0 0.2247339410531527 -0.27667652802353632 0 0.21653111649902579 -0.28712771180040292 0 0.22812963079484819 -0.29309964455197901 0 0.23628574795648369 -0.27498419313581679 0 0.2247339410531527 -0.27667652802353632 0 0.22812963079484819 -0.29309964455197901 0 0.21653111649902579 -0.28712771180040292 0 0.2175137887124228 -0.30934071251792922 0 0.22812963079484819 -0.29309964455197901 0 0.23628574795648369 -0.27498419313581679 0 0.22812963079484819 -0.29309964455197901 0 0.24044913557019401 -0.28723099739492908 0 0.25301376652256202 -0.2892367573709661 0 0.24044913557019401 -0.28723099739492908 0 0.24423538898563429 -0.30587701823941071 0 0.22812963079484819 -0.29309964455197901 0 0.24044913557019401 -0.28723099739492908 0 0.24423538898563429 -0.30587701823941071 0 0.25301376652256202 -0.2892367573709661 0 0.2507153324002197 -0.27704953531328702 0 0.24044913557019401 -0.28723099739492908 0 0.21999804566891551 -0.31122614102315033 0 0.24423538898563429 -0.30587701823941071 0 0.2404170410518052 -0.32643073261338312 0 0.25099839141978419 -0.34936335514031408 0 0.2316655193484673 -0.33515436960409939 0 0.25099839141978419 -0.34936335514031408 0 0.2404170410518052 -0.32643073261338312 0 0.2316655193484673 -0.33515436960409939 0 0.2404170410518052 -0.32643073261338312 0 0.2316655193484673 -0.33515436960409939 0 0.2247705650129608 -0.32491873692320528 0 0.2316655193484673 -0.33515436960409939 0 0.22208049410379579 -0.34309390150507102 0 0.22867514261462599 -0.34782526071452929 0 0.2316655193484673 -0.33515436960409939 0 0.22208049410379579 -0.34309390150507102 0 0.220555537226792 -0.33578323097752499 0 0.22208049410379579 -0.34309390150507102 0 0.220555537226792 -0.33578323097752499 0 0.21451162402718699 -0.34512658597487872 0 0.220555537226792 -0.33578323097752499 0 0.2247705650129608 -0.32491873692320528 0 0.21820242441149371 -0.32490710899175251 0 0.2316655193484673 -0.33515436960409939 0 0.220555537226792 -0.33578323097752499 0 0.2247705650129608 -0.32491873692320528 0 0.21999804566891551 -0.31122614102315033 0 0.2404170410518052 -0.32643073261338312 0 0.2247705650129608 -0.32491873692320528 0 0.21999804566891551 -0.31122614102315033 0 0.2404170410518052 -0.32643073261338312 0 0.2247705650129608 -0.32491873692320528 0 0.21780935440599439 -0.31602188338433101 0 0.21820242441149371 -0.32490710899175251 0 0.21999804566891551 -0.31122614102315033 0 0.2247705650129608 -0.32491873692320528 0 0.21780935440599439 -0.31602188338433101 0 0.21999804566891551 -0.31122614102315033 0 0.21780935440599439 -0.31602188338433101 0 0.23679608458568241 -0.3713456781615978 0 0.24534349961555019 -0.36253701182870851 0 0.24987622704845311 -0.37613765202982719 0 0.23679608458568241 -0.3713456781615978 0 0.24534349961555019 -0.36253701182870851 0 0.23133102347449649 -0.35950822589080189 0 0.25099839141978419 -0.34936335514031408 0 0.2316655193484673 -0.33515436960409939 0 0.23760271529458479 -0.35087764463569071 0 0.24534349961555019 -0.36253701182870851 0 0.23760271529458479 -0.35087764463569071 0 0.23133102347449649 -0.35950822589080189 0 0.25099839141978419 -0.34936335514031408 0 0.24534349961555019 -0.36253701182870851 0 0.23760271529458479 -0.35087764463569071 0 0.2316655193484673 -0.33515436960409939 0 0.23760271529458479 -0.35087764463569071 0 0.22867514261462599 -0.34782526071452929 0 0.22208049410379579 -0.34309390150507102 0 0.22076837523631451 -0.35267920974236072 0 0.21451162402718699 -0.34512658597487872 0 0.22208049410379579 -0.34309390150507102 0 0.22867514261462599 -0.34782526071452929 0 0.22076837523631451 -0.35267920974236072 0 0.22076837523631451 -0.35267920974236072 0 0.22341137818785181 -0.36337688942730773 0 0.21609027172906259 -0.36087537471117581 0 0.22076837523631451 -0.35267920974236072 0 0.23133102347449649 -0.35950822589080189 0 0.22341137818785181 -0.36337688942730773 0 0.22867514261462599 -0.34782526071452929 0 0.22076837523631451 -0.35267920974236072 0 0.23133102347449649 -0.35950822589080189 0 0.23760271529458479 -0.35087764463569071 0 0.22867514261462599 -0.34782526071452929 0 0.23133102347449649 -0.35950822589080189 0 0.23133102347449649 -0.35950822589080189 0 0.22341137818785181 -0.36337688942730773 0 0.22699371624108439 -0.37103399677892651 0 0.22341137818785181 -0.36337688942730773 0 0.22699371624108439 -0.37103399677892651 0 0.21663927632257499 -0.37152038636996992 0 0.22699371624108439 -0.37103399677892651 0 0.21663927632257499 -0.37152038636996992 0 0.22189277223980711 -0.38054577212349588 0 0.23679608458568241 -0.3713456781615978 0 0.22699371624108439 -0.37103399677892651 0 0.23010576568282681 -0.37607478874810818 0 0.23679608458568241 -0.3713456781615978 0 0.23133102347449649 -0.35950822589080189 0 0.22699371624108439 -0.37103399677892651 0 0.21663927632257499 -0.37152038636996992 0 0.20683644217058031 -0.36558797855932218 0 0.20576161095015591 -0.37595213443190167 0 0.22341137818785181 -0.36337688942730773 0 0.21663927632257499 -0.37152038636996992 0 0.21609027172906259 -0.36087537471117581 0 0.21609027172906259 -0.36087537471117581 0 0.20683644217058031 -0.36558797855932218 0 0.21089823393406021 -0.35324530101306001 0 0.21663927632257499 -0.37152038636996992 0 0.21609027172906259 -0.36087537471117581 0 0.20683644217058031 -0.36558797855932218 0 0.19940837682496099 -0.35689206815154528 0 0.20777431361625601 -0.33831058893907762 0 0.21089823393406021 -0.35324530101306001 0 0.19940837682496099 -0.35689206815154528 0 0.20777431361625601 -0.33831058893907762 0 0.20683644217058031 -0.36558797855932218 0 0.21089823393406021 -0.35324530101306001 0 0.19940837682496099 -0.35689206815154528 0 0.22076837523631451 -0.35267920974236072 0 0.21609027172906259 -0.36087537471117581 0 0.21089823393406021 -0.35324530101306001 0 0.21089823393406021 -0.35324530101306001 0 0.21451162402718699 -0.34512658597487872 0 0.20777431361625601 -0.33831058893907762 0 0.22076837523631451 -0.35267920974236072 0 0.21089823393406021 -0.35324530101306001 0 0.21451162402718699 -0.34512658597487872 0 0.1971616983813648 -0.34495631128618592 0 0.19940837682496099 -0.35689206815154528 0 0.20777431361625601 -0.33831058893907762 0 0.1971616983813648 -0.34495631128618592 0 0.18787137947787569 -0.35180034780069419 0 0.18864170350563411 -0.33720407153827198 0 0.1971616983813648 -0.34495631128618592 0 0.18787137947787569 -0.35180034780069419 0 0.19940837682496099 -0.35689206815154528 0 0.20683644217058031 -0.36558797855932218 0 0.20576161095015591 -0.37595213443190167 0 0.1910424400336663 -0.37547354736401328 0 0.18787137947787569 -0.35180034780069419 0 0.19940837682496099 -0.35689206815154528 0 0.1910424400336663 -0.37547354736401328 0 0.19940837682496099 -0.35689206815154528 0 0.1910424400336663 -0.37547354736401328 0 0.20683644217058031 -0.36558797855932218 0 0.19940837682496099 -0.35689206815154528 0 0.1910424400336663 -0.37547354736401328 0 0.21780935440599439 -0.31602188338433101 0 0.20777431361625601 -0.33831058893907762 0 0.21780935440599439 -0.31602188338433101 0 0.20777431361625601 -0.33831058893907762 0 0.20282381327660201 -0.31505297042611552 0 0.21780935440599439 -0.31602188338433101 0 0.21820242441149371 -0.32490710899175251 0 0.20777431361625601 -0.33831058893907762 0 0.2176214393273678 -0.31177412129290383 0 0.20282381327660201 -0.31505297042611552 0 0.2176214393273678 -0.31177412129290383 0 0.21780935440599439 -0.31602188338433101 0 0.20282381327660201 -0.31505297042611552 0 0.2176214393273678 -0.31177412129290383 0 0.21780935440599439 -0.31602188338433101 0 0.2176214393273678 -0.31177412129290383 0 0.21999804566891551 -0.31122614102315033 0 0.21780935440599439 -0.31602188338433101 0 0.21780935440599439 -0.31602188338433101 0 0.21820242441149371 -0.32490710899175251 0 0.220555537226792 -0.33578323097752499 0 0.21820242441149371 -0.32490710899175251 0 0.20777431361625601 -0.33831058893907762 0 0.220555537226792 -0.33578323097752499 0 0.21451162402718699 -0.34512658597487872 0 0.20777431361625601 -0.33831058893907762 0 0.21451162402718699 -0.34512658597487872 0 0.20777431361625601 -0.33831058893907762 0 0.1971616983813648 -0.34495631128618592 0 0.20777431361625601 -0.33831058893907762 0 0.18864170350563411 -0.33720407153827198 0 0.20777431361625601 -0.33831058893907762 0 0.18802618722583669 -0.31833181955932999 0 0.20777431361625601 -0.33831058893907762 0 0.18864170350563411 -0.33720407153827198 0 0.18802618722583669 -0.31833181955932999 0 0.20777431361625601 -0.33831058893907762 0 0.20282381327660201 -0.31505297042611552 0 0.18802618722583669 -0.31833181955932999 0 0.20282381327660201 -0.31505297042611552 0 0.18802618722583669 -0.31833181955932999 0 0.1976485991634879 -0.30796138879627621 0 0.20282381327660201 -0.31505297042611552 0 0.18802618722583669 -0.31833181955932999 0 0.18802618722583669 -0.31833181955932999 0 0.1791507244663583 -0.32983729973660558 0 0.16791254130802971 -0.3227885891963716 0 0.18802618722583669 -0.31833181955932999 0 0.17151825735526699 -0.31325416760549368 0 0.16791254130802971 -0.3227885891963716 0 0.18802618722583669 -0.31833181955932999 0 0.16791254130802971 -0.3227885891963716 0 0.18864170350563411 -0.33720407153827198 0 0.18802618722583669 -0.31833181955932999 0 0.1791507244663583 -0.32983729973660558 0 0.17202246582593331 -0.34102471865244838 0 0.1791507244663583 -0.32983729973660558 0 0.16791254130802971 -0.3227885891963716 0 0.18787137947787569 -0.35180034780069419 0 0.18864170350563411 -0.33720407153827198 0 0.17202246582593331 -0.34102471865244838 0 0.18864170350563411 -0.33720407153827198 0 0.17202246582593331 -0.34102471865244838 0 0.1791507244663583 -0.32983729973660558 0 0.17202246582593331 -0.34102471865244838 0 0.1546435437787094 -0.34381338892778002 0 0.1557586906108582 -0.32786840018592928 0 0.17202246582593331 -0.34102471865244838 0 0.16791254130802971 -0.3227885891963716 0 0.1557586906108582 -0.32786840018592928 0 0.16791254130802971 -0.3227885891963716 0 0.1557586906108582 -0.32786840018592928 0 0.1602411687519314 -0.31190927739118429 0 0.17151825735526699 -0.31325416760549368 0 0.16791254130802971 -0.3227885891963716 0 0.1602411687519314 -0.31190927739118429 0 0.18787137947787569 -0.35180034780069419 0 0.17662324672053431 -0.35795823269279659 0 0.1910424400336663 -0.37547354736401328 0 0.17662324672053431 -0.35795823269279659 0 0.17035242753357599 -0.36877211446365682 0 0.1910424400336663 -0.37547354736401328 0 0.17035242753357599 -0.36877211446365682 0 0.1910424400336663 -0.37547354736401328 0 0.1737051017910701 -0.38004230502140057 0 0.18787137947787569 -0.35180034780069419 0 0.17202246582593331 -0.34102471865244838 0 0.17662324672053431 -0.35795823269279659 0 0.17202246582593331 -0.34102471865244838 0 0.17662324672053431 -0.35795823269279659 0 0.16265844046108829 -0.35526087104265458 0 0.17202246582593331 -0.34102471865244838 0 0.16265844046108829 -0.35526087104265458 0 0.1546435437787094 -0.34381338892778002 0 0.17662324672053431 -0.35795823269279659 0 0.16265844046108829 -0.35526087104265458 0 0.17035242753357599 -0.36877211446365682 0 0.16265844046108829 -0.35526087104265458 0 0.1569593121701936 -0.36832063090657668 0 0.17035242753357599 -0.36877211446365682 0 0.1569593121701936 -0.36832063090657668 0 0.17035242753357599 -0.36877211446365682 0 0.16307541855137739 -0.37743582412871929 0 0.14536400873927011 -0.3681220756701501 0 0.1426630499740982 -0.35652090160864008 0 0.13524945632583441 -0.37311377610700652 0 0.16265844046108829 -0.35526087104265458 0 0.1569593121701936 -0.36832063090657668 0 0.1426630499740982 -0.35652090160864008 0 0.14536400873927011 -0.3681220756701501 0 0.13524945632583441 -0.37311377610700652 0 0.14973869037300869 -0.38096853745143089 0 0.1569593121701936 -0.36832063090657668 0 0.14536400873927011 -0.3681220756701501 0 0.14973869037300869 -0.38096853745143089 0 0.1569593121701936 -0.36832063090657668 0 0.14536400873927011 -0.3681220756701501 0 0.1426630499740982 -0.35652090160864008 0 0.1546435437787094 -0.34381338892778002 0 0.1426630499740982 -0.35652090160864008 0 0.1424354920479888 -0.33775294740649747 0 0.16265844046108829 -0.35526087104265458 0 0.1546435437787094 -0.34381338892778002 0 0.1426630499740982 -0.35652090160864008 0 0.13449730155472761 -0.34743155680512378 0 0.12784456261830821 -0.36308533366748658 0 0.123981461538115 -0.35128285539313481 0 0.1426630499740982 -0.35652090160864008 0 0.13449730155472761 -0.34743155680512378 0 0.1424354920479888 -0.33775294740649747 0 0.1426630499740982 -0.35652090160864008 0 0.13449730155472761 -0.34743155680512378 0 0.12784456261830821 -0.36308533366748658 0 0.13449730155472761 -0.34743155680512378 0 0.13051916655351839 -0.33696304048325831 0 0.123981461538115 -0.35128285539313481 0 0.1426630499740982 -0.35652090160864008 0 0.12784456261830821 -0.36308533366748658 0 0.13524945632583441 -0.37311377610700652 0 0.12784456261830821 -0.36308533366748658 0 0.13524945632583441 -0.37311377610700652 0 0.12609635470998201 -0.38402791619100712 0 0.14855409589738661 -0.31441038212804873 0 0.1557586906108582 -0.32786840018592928 0 0.1602411687519314 -0.31190927739118429 0 0.1445015266660287 -0.32337949759917511 0 0.14855409589738661 -0.31441038212804873 0 0.13871327718005111 -0.31332369293528212 0 0.1445015266660287 -0.32337949759917511 0 0.14855409589738661 -0.31441038212804873 0 0.1557586906108582 -0.32786840018592928 0 0.1546435437787094 -0.34381338892778002 0 0.1557586906108582 -0.32786840018592928 0 0.1424354920479888 -0.33775294740649747 0 0.1445015266660287 -0.32337949759917511 0 0.1557586906108582 -0.32786840018592928 0 0.1424354920479888 -0.33775294740649747 0 0.1445015266660287 -0.32337949759917511 0 0.1424354920479888 -0.33775294740649747 0 0.13219802669416811 -0.32498852212276208 0 0.1424354920479888 -0.33775294740649747 0 0.13051916655351839 -0.33696304048325831 0 0.13219802669416811 -0.32498852212276208 0 0.13449730155472761 -0.34743155680512378 0 0.1424354920479888 -0.33775294740649747 0 0.13051916655351839 -0.33696304048325831 0 0.13051916655351839 -0.33696304048325831 0 0.13219802669416811 -0.32498852212276208 0 0.12260601330919629 -0.33072698382653798 0 0.1445015266660287 -0.32337949759917511 0 0.13219802669416811 -0.32498852212276208 0 0.13871327718005111 -0.31332369293528212 0 0.13219802669416811 -0.32498852212276208 0 0.1265219532001009 -0.3124330460259736 0 0.1192961391526948 -0.32261879728377291 0 0.13219802669416811 -0.32498852212276208 0 0.13871327718005111 -0.31332369293528212 0 0.1265219532001009 -0.3124330460259736 0 0.1265219532001009 -0.3124330460259736 0 0.1332586495603032 -0.30031372317270688 0 0.1198701537204314 -0.30089140532399938 0 0.1332586495603032 -0.30031372317270688 0 0.1242383748246253 -0.29131174999725179 0 0.1198701537204314 -0.30089140532399938 0 0.13871327718005111 -0.31332369293528212 0 0.1265219532001009 -0.3124330460259736 0 0.1332586495603032 -0.30031372317270688 0 0.13871327718005111 -0.31332369293528212 0 0.1332586495603032 -0.30031372317270688 0 0.147245411062319 -0.30441698656302629 0 0.14855409589738661 -0.31441038212804873 0 0.13871327718005111 -0.31332369293528212 0 0.147245411062319 -0.30441698656302629 0 0.147245411062319 -0.30441698656302629 0 0.15432967412725099 -0.29846298066074151 0 0.14327492933615671 -0.29425024746867751 0 0.1332586495603032 -0.30031372317270688 0 0.147245411062319 -0.30441698656302629 0 0.14327492933615671 -0.29425024746867751 0 0.147245411062319 -0.30441698656302629 0 0.15432967412725099 -0.29846298066074151 0 0.1602411687519314 -0.31190927739118429 0 0.14855409589738661 -0.31441038212804873 0 0.147245411062319 -0.30441698656302629 0 0.1602411687519314 -0.31190927739118429 0 0.15432967412725099 -0.29846298066074151 0 0.1517600770447052 -0.28164214899084639 0 0.14327492933615671 -0.29425024746867751 0 0.1517600770447052 -0.28164214899084639 0 0.14327492933615671 -0.29425024746867751 0 0.13646338677899769 -0.28546266283427663 0 0.1332586495603032 -0.30031372317270688 0 0.14327492933615671 -0.29425024746867751 0 0.13646338677899769 -0.28546266283427663 0 0.1332586495603032 -0.30031372317270688 0 0.13646338677899769 -0.28546266283427663 0 0.1242383748246253 -0.29131174999725179 0 0.13646338677899769 -0.28546266283427663 0 0.1233023238440631 -0.28097148456094378 0 0.1242383748246253 -0.29131174999725179 0 0.1517600770447052 -0.28164214899084639 0 0.13646338677899769 -0.28546266283427663 0 0.1311170075682456 -0.27142576198599933 0 0.1517600770447052 -0.28164214899084639 0 0.1311170075682456 -0.27142576198599933 0 0.1364827709165429 -0.26618641562940759 0 0.13646338677899769 -0.28546266283427663 0 0.1311170075682456 -0.27142576198599933 0 0.1233023238440631 -0.28097148456094378 0 0.1311170075682456 -0.27142576198599933 0 0.1364827709165429 -0.26618641562940759 0 0.1212054647883809 -0.25073068226796852 0 0.1364827709165429 -0.26618641562940759 0 0.13217397618885759 -0.25462043987800831 0 0.1212054647883809 -0.25073068226796852 0 0.1364827709165429 -0.26618641562940759 0 0.1212054647883809 -0.25073068226796852 0 0.1364827709165429 -0.26618641562940759 0 0.13217397618885759 -0.25462043987800831 0 0.14275904560399111 -0.25945725309375861 0 0.13217397618885759 -0.25462043987800831 0 0.1429630926125974 -0.2502577086919005 0 0.14275904560399111 -0.25945725309375861 0 0.1429630926125974 -0.2502577086919005 0 0.16574248336044761 -0.26746108990676593 0 0.1429630926125974 -0.2502577086919005 0 0.15128247879849499 -0.26292486595599002 0 0.16574248336044761 -0.26746108990676593 0 0.1429630926125974 -0.2502577086919005 0 0.16574248336044761 -0.26746108990676593 0 0.16001236861667459 -0.2513654190734112 0 0.1429630926125974 -0.2502577086919005 0 0.14275904560399111 -0.25945725309375861 0 0.15128247879849499 -0.26292486595599002 0 0.1364827709165429 -0.26618641562940759 0 0.14275904560399111 -0.25945725309375861 0 0.15128247879849499 -0.26292486595599002 0 0.1517600770447052 -0.28164214899084639 0 0.1364827709165429 -0.26618641562940759 0 0.15128247879849499 -0.26292486595599002 0 0.1517600770447052 -0.28164214899084639 0 0.15128247879849499 -0.26292486595599002 0 0.15776774232478771 -0.26956647822523339 0 0.1517600770447052 -0.28164214899084639 0 0.1311170075682456 -0.27142576198599933 0 0.1517600770447052 -0.28164214899084639 0 0.1364827709165429 -0.26618641562940759 0 0.1517600770447052 -0.28164214899084639 0 0.16209364730358741 -0.27452888323759039 0 0.16594555478614451 -0.28284233368471318 0 0.1517600770447052 -0.28164214899084639 0 0.16209364730358741 -0.27452888323759039 0 0.15776774232478771 -0.26956647822523339 0 0.16209364730358741 -0.27452888323759039 0 0.15776774232478771 -0.26956647822523339 0 0.16574248336044761 -0.26746108990676593 0 0.15128247879849499 -0.26292486595599002 0 0.15776774232478771 -0.26956647822523339 0 0.16574248336044761 -0.26746108990676593 0 0.16209364730358741 -0.27452888323759039 0 0.16574248336044761 -0.26746108990676593 0 0.16920230535812411 -0.27329149954452342 0 0.16209364730358741 -0.27452888323759039 0 0.16920230535812411 -0.27329149954452342 0 0.16594555478614451 -0.28284233368471318 0 0.16920230535812411 -0.27329149954452342 0 0.1710222018321049 -0.28124575318360368 0 0.16594555478614451 -0.28284233368471318 0 0.16574248336044761 -0.26746108990676593 0 0.16001236861667459 -0.2513654190734112 0 0.16988601458932601 -0.2589500224365659 0 0.16574248336044761 -0.26746108990676593 0 0.16988601458932601 -0.2589500224365659 0 0.17628584543496439 -0.26683535894776161 0 0.16001236861667459 -0.2513654190734112 0 0.16988601458932601 -0.2589500224365659 0 0.16978669848249819 -0.25098739912941831 0 0.1767458594742066 -0.25730285456071711 0 0.17619278994504239 -0.24587918172992959 0 0.18399505531774341 -0.24981832115951039 0 0.16978669848249819 -0.25098739912941831 0 0.1767458594742066 -0.25730285456071711 0 0.17619278994504239 -0.24587918172992959 0 0.16988601458932601 -0.2589500224365659 0 0.16978669848249819 -0.25098739912941831 0 0.1767458594742066 -0.25730285456071711 0 0.16988601458932601 -0.2589500224365659 0 0.1767458594742066 -0.25730285456071711 0 0.17628584543496439 -0.26683535894776161 0 0.1767458594742066 -0.25730285456071711 0 0.17628584543496439 -0.26683535894776161 0 0.1845366839674035 -0.26640487959885623 0 0.1767458594742066 -0.25730285456071711 0 0.18706352147094041 -0.25756661524031438 0 0.1845366839674035 -0.26640487959885623 0 0.1767458594742066 -0.25730285456071711 0 0.18706352147094041 -0.25756661524031438 0 0.18399505531774341 -0.24981832115951039 0 0.18852187410829821 -0.28466447112163068 0 0.17628584543496439 -0.26683535894776161 0 0.1845366839674035 -0.26640487959885623 0 0.18852187410829821 -0.28466447112163068 0 0.16574248336044761 -0.26746108990676593 0 0.18852187410829821 -0.28466447112163068 0 0.16574248336044761 -0.26746108990676593 0 0.17628584543496439 -0.26683535894776161 0 0.16920230535812411 -0.27329149954452342 0 0.18747516626574931 -0.28692639975368628 0 0.17602993407772211 -0.2832030986568283 0 0.18852187410829821 -0.28466447112163068 0 0.16574248336044761 -0.26746108990676593 0 0.16920230535812411 -0.27329149954452342 0 0.16920230535812411 -0.27329149954452342 0 0.18747516626574931 -0.28692639975368628 0 0.16920230535812411 -0.27329149954452342 0 0.1710222018321049 -0.28124575318360368 0 0.17602993407772211 -0.2832030986568283 0 0.18747516626574931 -0.28692639975368628 0 0.1806905449634813 -0.28832929748571318 0 0.17602993407772211 -0.2832030986568283 0 0.18852187410829821 -0.28466447112163068 0 0.16920230535812411 -0.27329149954452342 0 0.18747516626574931 -0.28692639975368628 0 0.18747516626574931 -0.28692639975368628 0 0.1806905449634813 -0.28832929748571318 0 0.18301660310609241 -0.29114958545392738 0 0.17291101310642881 -0.28564608084835003 0 0.17864991096044419 -0.29495009963706692 0 0.16594555478614451 -0.28284233368471318 0 0.1806905449634813 -0.28832929748571318 0 0.17602993407772211 -0.2832030986568283 0 0.17673138357400531 -0.28840876668861409 0 0.17602993407772211 -0.2832030986568283 0 0.17673138357400531 -0.28840876668861409 0 0.17291101310642881 -0.28564608084835003 0 0.1710222018321049 -0.28124575318360368 0 0.17602993407772211 -0.2832030986568283 0 0.17291101310642881 -0.28564608084835003 0 0.17673138357400531 -0.28840876668861409 0 0.17291101310642881 -0.28564608084835003 0 0.17864991096044419 -0.29495009963706692 0 0.17673138357400531 -0.28840876668861409 0 0.17909088347012619 -0.29088019083727579 0 0.17864991096044419 -0.29495009963706692 0 0.1806905449634813 -0.28832929748571318 0 0.17673138357400531 -0.28840876668861409 0 0.17909088347012619 -0.29088019083727579 0 0.17909088347012619 -0.29088019083727579 0 0.17864991096044419 -0.29495009963706692 0 0.18114425154506539 -0.29221912984395187 0 0.18747516626574931 -0.28692639975368628 0 0.18734834214976739 -0.29514628785519947 0 0.1827564496500734 -0.29712351473235832 0 0.18747516626574931 -0.28692639975368628 0 0.18301660310609241 -0.29114958545392738 0 0.1827564496500734 -0.29712351473235832 0 0.18114425154506539 -0.29221912984395187 0 0.18301660310609241 -0.29114958545392738 0 0.1827564496500734 -0.29712351473235832 0 0.17864991096044419 -0.29495009963706692 0 0.18114425154506539 -0.29221912984395187 0 0.1827564496500734 -0.29712351473235832 0 0.18747516626574931 -0.28692639975368628 0 0.1827564496500734 -0.29712351473235832 0 0.1806905449634813 -0.28832929748571318 0 0.18114425154506539 -0.29221912984395187 0 0.18301660310609241 -0.29114958545392738 0 0.1806905449634813 -0.28832929748571318 0 0.17909088347012619 -0.29088019083727579 0 0.18114425154506539 -0.29221912984395187 0 0.18802618722583669 -0.31833181955932999 0 0.18221347423979239 -0.30458962683289892 0 0.1698931321352706 -0.29998698427508858 0 0.1880606218677118 -0.30022154946313712 0 0.18734834214976739 -0.29514628785519947 0 0.1827564496500734 -0.29712351473235832 0 0.19009702279388629 -0.3064242775921906 0 0.1880606218677118 -0.30022154946313712 0 0.18221347423979239 -0.30458962683289892 0 0.18802618722583669 -0.31833181955932999 0 0.17151825735526699 -0.31325416760549368 0 0.1698931321352706 -0.29998698427508858 0 0.1880606218677118 -0.30022154946313712 0 0.18221347423979239 -0.30458962683289892 0 0.1827564496500734 -0.29712351473235832 0 0.18802618722583669 -0.31833181955932999 0 0.1698931321352706 -0.29998698427508858 0 0.17864991096044419 -0.29495009963706692 0 0.1827564496500734 -0.29712351473235832 0 0.17837824174639511 -0.29916255636935318 0 0.18221347423979239 -0.30458962683289892 0 0.1827564496500734 -0.29712351473235832 0 0.17837824174639511 -0.29916255636935318 0 0.19009702279388629 -0.3064242775921906 0 0.18802618722583669 -0.31833181955932999 0 0.18221347423979239 -0.30458962683289892 0 0.18221347423979239 -0.30458962683289892 0 0.17837824174639511 -0.29916255636935318 0 0.1698931321352706 -0.29998698427508858 0 0.17864991096044419 -0.29495009963706692 0 0.17837824174639511 -0.29916255636935318 0 0.1698931321352706 -0.29998698427508858 0 0.17151825735526699 -0.31325416760549368 0 0.1698931321352706 -0.29998698427508858 0 0.1602411687519314 -0.31190927739118429 0 0.15432967412725099 -0.29846298066074151 0 0.1698931321352706 -0.29998698427508858 0 0.1602411687519314 -0.31190927739118429 0 0.1517600770447052 -0.28164214899084639 0 0.17864991096044419 -0.29495009963706692 0 0.1698931321352706 -0.29998698427508858 0 0.1517600770447052 -0.28164214899084639 0 0.1698931321352706 -0.29998698427508858 0 0.15432967412725099 -0.29846298066074151 0 0.1517600770447052 -0.28164214899084639 0 0.1698931321352706 -0.29998698427508858 0 0.1517600770447052 -0.28164214899084639 0 0.17864991096044419 -0.29495009963706692 0 0.1517600770447052 -0.28164214899084639 0 0.17864991096044419 -0.29495009963706692 0 0.16594555478614451 -0.28284233368471318 0 0.1710222018321049 -0.28124575318360368 0 0.17291101310642881 -0.28564608084835003 0 0.16594555478614451 -0.28284233368471318 0 0.21438456257476449 -0.5 0 0.2048745361024723 -0.48472171768082351 0 0.18744203257390391 -0.5 0 0.19122796324104871 -0.48466606029959602 0 0.2048745361024723 -0.48472171768082351 0 0.18744203257390391 -0.5 0 0.19122796324104871 -0.48466606029959602 0 0.20365346230900849 -0.47086657296764728 0 0.1938641377332887 -0.4633108835168005 0 0.19122796324104871 -0.48466606029959602 0 0.20365346230900849 -0.47086657296764728 0 0.2048745361024723 -0.48472171768082351 0 0.21766866328091511 -0.47157360957620892 0 0.2048745361024723 -0.48472171768082351 0 0.22288060450936709 -0.48400008360299168 0 0.20365346230900849 -0.47086657296764728 0 0.21766866328091511 -0.47157360957620892 0 0.2048745361024723 -0.48472171768082351 0 0.21438456257476449 -0.5 0 0.2048745361024723 -0.48472171768082351 0 0.22288060450936709 -0.48400008360299168 0 0.21438456257476449 -0.5 0 0.23633351028628971 -0.48712361601618398 0 0.2413270925756249 -0.5 0 0.21438456257476449 -0.5 0 0.23633351028628971 -0.48712361601618398 0 0.22288060450936709 -0.48400008360299168 0 0.25270961841775552 -0.48460016746525392 0 0.23633351028628971 -0.48712361601618398 0 0.2413270925756249 -0.5 0 0.25270961841775552 -0.48460016746525392 0 0.23633351028628971 -0.48712361601618398 0 0.23949561189523169 -0.47426551941090739 0 0.23949561189523169 -0.47426551941090739 0 0.22288060450936709 -0.48400008360299168 0 0.22545312399173489 -0.46028769725088831 0 0.21766866328091511 -0.47157360957620892 0 0.22288060450936709 -0.48400008360299168 0 0.22545312399173489 -0.46028769725088831 0 0.23633351028628971 -0.48712361601618398 0 0.23949561189523169 -0.47426551941090739 0 0.22288060450936709 -0.48400008360299168 0 0.22288060450936709 -0.48400008360299168 0 0.22545312399173489 -0.46028769725088831 0 0.21766866328091511 -0.47157360957620892 0 0.22545312399173489 -0.46028769725088831 0 0.2186728293425339 -0.44755637628226819 0 0.2588368117714554 -0.46700690363883102 0 0.23949561189523169 -0.47426551941090739 0 0.2409729068143365 -0.46262444708906358 0 0.22545312399173489 -0.46028769725088831 0 0.2409729068143365 -0.46262444708906358 0 0.24480843210435321 -0.45079661158300749 0 0.2588368117714554 -0.46700690363883102 0 0.2409729068143365 -0.46262444708906358 0 0.24480843210435321 -0.45079661158300749 0 0.23949561189523169 -0.47426551941090739 0 0.22545312399173489 -0.46028769725088831 0 0.2409729068143365 -0.46262444708906358 0 0.24480843210435321 -0.45079661158300749 0 0.22802564347410281 -0.43657531089878487 0 0.2418992233321238 -0.43333026798624508 0 0.25513396950241118 -0.43290986753561628 0 0.24480843210435321 -0.45079661158300749 0 0.2418992233321238 -0.43333026798624508 0 0.22545312399173489 -0.46028769725088831 0 0.22802564347410281 -0.43657531089878487 0 0.2186728293425339 -0.44755637628226819 0 0.21246462128442831 -0.43168381348743168 0 0.22802564347410281 -0.43657531089878487 0 0.22545312399173489 -0.46028769725088831 0 0.2186728293425339 -0.44755637628226819 0 0.22802564347410281 -0.43657531089878487 0 0.22545312399173489 -0.46028769725088831 0 0.24480843210435321 -0.45079661158300749 0 0.22802564347410281 -0.43657531089878487 0 0.20442019459899149 -0.44533796874460208 0 0.2186728293425339 -0.44755637628226819 0 0.21246462128442831 -0.43168381348743168 0 0.21766866328091511 -0.47157360957620892 0 0.20442019459899149 -0.44533796874460208 0 0.21766866328091511 -0.47157360957620892 0 0.20442019459899149 -0.44533796874460208 0 0.2186728293425339 -0.44755637628226819 0 0.20365346230900849 -0.47086657296764728 0 0.21766866328091511 -0.47157360957620892 0 0.20442019459899149 -0.44533796874460208 0 0.20365346230900849 -0.47086657296764728 0 0.20442019459899149 -0.44533796874460208 0 0.1938641377332887 -0.4633108835168005 0 0.20442019459899149 -0.44533796874460208 0 0.18484232774876749 -0.43033534366960768 0 0.18590039067086719 -0.44115637567916172 0 0.20442019459899149 -0.44533796874460208 0 0.18923595964957429 -0.45067509688328122 0 0.18590039067086719 -0.44115637567916172 0 0.20442019459899149 -0.44533796874460208 0 0.1938641377332887 -0.4633108835168005 0 0.18923595964957429 -0.45067509688328122 0 0.20442019459899149 -0.44533796874460208 0 0.1911717259170673 -0.41910232791299562 0 0.20473537155931409 -0.42802668409371708 0 0.20442019459899149 -0.44533796874460208 0 0.1911717259170673 -0.41910232791299562 0 0.20442019459899149 -0.44533796874460208 0 0.1911717259170673 -0.41910232791299562 0 0.18484232774876749 -0.43033534366960768 0 0.1911717259170673 -0.41910232791299562 0 0.21088494443676881 -0.41598262622983972 0 0.20473537155931409 -0.42802668409371708 0 0.18851111772050869 -0.41383358608972459 0 0.208966154163157 -0.40126827473642579 0 0.1911717259170673 -0.41910232791299562 0 0.21088494443676881 -0.41598262622983972 0 0.1911717259170673 -0.41910232791299562 0 0.18851111772050869 -0.41383358608972459 0 0.21088494443676881 -0.41598262622983972 0 0.18851111772050869 -0.41383358608972459 0 0.21088494443676881 -0.41598262622983972 0 0.208966154163157 -0.40126827473642579 0 0.1911717259170673 -0.41910232791299562 0 0.18851111772050869 -0.41383358608972459 0 0.21088494443676881 -0.41598262622983972 0 0.22155668588658281 -0.40529615173032069 0 0.208966154163157 -0.40126827473642579 0 0.21088494443676881 -0.41598262622983972 0 0.20473537155931409 -0.42802668409371708 0 0.21246462128442831 -0.43168381348743168 0 0.21088494443676881 -0.41598262622983972 0 0.21246462128442831 -0.43168381348743168 0 0.21959695705502991 -0.42408781639437282 0 0.20442019459899149 -0.44533796874460208 0 0.20473537155931409 -0.42802668409371708 0 0.21246462128442831 -0.43168381348743168 0 0.21246462128442831 -0.43168381348743168 0 0.21959695705502991 -0.42408781639437282 0 0.22802564347410281 -0.43657531089878487 0 0.22802564347410281 -0.43657531089878487 0 0.23614533994983331 -0.4244462479719151 0 0.23059816295646979 -0.4128629245466815 0 0.22802564347410281 -0.43657531089878487 0 0.23059816295646979 -0.4128629245466815 0 0.21959695705502991 -0.42408781639437282 0 0.22802564347410281 -0.43657531089878487 0 0.23059816295646979 -0.4128629245466815 0 0.22802564347410281 -0.43657531089878487 0 0.2418992233321238 -0.43333026798624508 0 0.23614533994983331 -0.4244462479719151 0 0.2418992233321238 -0.43333026798624508 0 0.23614533994983331 -0.4244462479719151 0 0.2453827316299185 -0.42192330194190181 0 0.25513396950241118 -0.43290986753561628 0 0.2418992233321238 -0.43333026798624508 0 0.2453827316299185 -0.42192330194190181 0 0.256136481120742 -0.41447562176841068 0 0.2453827316299185 -0.42192330194190181 0 0.24629253832767661 -0.41022035877505542 0 0.2453827316299185 -0.42192330194190181 0 0.24629253832767661 -0.41022035877505542 0 0.2366098857920339 -0.41191154353144788 0 0.23614533994983331 -0.4244462479719151 0 0.2366098857920339 -0.41191154353144788 0 0.23059816295646979 -0.4128629245466815 0 0.23614533994983331 -0.4244462479719151 0 0.2453827316299185 -0.42192330194190181 0 0.2366098857920339 -0.41191154353144788 0 0.24629253832767661 -0.41022035877505542 0 0.2366098857920339 -0.41191154353144788 0 0.2422505545635501 -0.40276464775944387 0 0.21088494443676881 -0.41598262622983972 0 0.23059816295646979 -0.4128629245466815 0 0.2366098857920339 -0.41191154353144788 0 0.23059816295646979 -0.4128629245466815 0 0.23156745731421779 -0.4039283829592023 0 0.23059816295646979 -0.4128629245466815 0 0.22155668588658281 -0.40529615173032069 0 0.23156745731421779 -0.4039283829592023 0 0.23059816295646979 -0.4128629245466815 0 0.23156745731421779 -0.4039283829592023 0 0.21088494443676881 -0.41598262622983972 0 0.23059816295646979 -0.4128629245466815 0 0.22155668588658281 -0.40529615173032069 0 0.21088494443676881 -0.41598262622983972 0 0.21959695705502991 -0.42408781639437282 0 0.23059816295646979 -0.4128629245466815 0 0.2366098857920339 -0.41191154353144788 0 0.23059816295646979 -0.4128629245466815 0 0.22155668588658281 -0.40529615173032069 0 0.22942119060580499 -0.38870296338312649 0 0.208966154163157 -0.40126827473642579 0 0.22155668588658281 -0.40529615173032069 0 0.23156745731421779 -0.4039283829592023 0 0.22942119060580499 -0.38870296338312649 0 0.22942119060580499 -0.38870296338312649 0 0.208966154163157 -0.40126827473642579 0 0.23156745731421779 -0.4039283829592023 0 0.24309899287842279 -0.39271330151873202 0 0.2422505545635501 -0.40276464775944387 0 0.2366098857920339 -0.41191154353144788 0 0.23156745731421779 -0.4039283829592023 0 0.2422505545635501 -0.40276464775944387 0 0.23156745731421779 -0.4039283829592023 0 0.24309899287842279 -0.39271330151873202 0 0.22942119060580499 -0.38870296338312649 0 0.25108303853213881 -0.40002667887407228 0 0.24629253832767661 -0.41022035877505542 0 0.2422505545635501 -0.40276464775944387 0 0.25108303853213881 -0.40002667887407228 0 0.24309899287842279 -0.39271330151873202 0 0.2422505545635501 -0.40276464775944387 0 0.24987622704845311 -0.37613765202982719 0 0.22942119060580499 -0.38870296338312649 0 0.24309899287842279 -0.39271330151873202 0 0.24987622704845311 -0.37613765202982719 0 0.22942119060580499 -0.38870296338312649 0 0.24987622704845311 -0.37613765202982719 0 0.23474048966473349 -0.38137370792841258 0 0.22942119060580499 -0.38870296338312649 0 0.25687819372407023 -0.38903915957053298 0 0.24309899287842279 -0.39271330151873202 0 0.24987622704845311 -0.37613765202982719 0 0.23679608458568241 -0.3713456781615978 0 0.24987622704845311 -0.37613765202982719 0 0.23474048966473349 -0.38137370792841258 0 0.23474048966473349 -0.38137370792841258 0 0.23010576568282681 -0.37607478874810818 0 0.22189277223980711 -0.38054577212349588 0 0.23474048966473349 -0.38137370792841258 0 0.22189277223980711 -0.38054577212349588 0 0.20961824525516401 -0.3936281247522696 0 0.23474048966473349 -0.38137370792841258 0 0.22942119060580499 -0.38870296338312649 0 0.20961824525516401 -0.3936281247522696 0 0.23679608458568241 -0.3713456781615978 0 0.23474048966473349 -0.38137370792841258 0 0.23010576568282681 -0.37607478874810818 0 0.23474048966473349 -0.38137370792841258 0 0.20961824525516401 -0.3936281247522696 0 0.22699371624108439 -0.37103399677892651 0 0.23010576568282681 -0.37607478874810818 0 0.22189277223980711 -0.38054577212349588 0 0.21663927632257499 -0.37152038636996992 0 0.22189277223980711 -0.38054577212349588 0 0.21119602619295649 -0.38157571206759561 0 0.21663927632257499 -0.37152038636996992 0 0.21119602619295649 -0.38157571206759561 0 0.20576161095015591 -0.37595213443190167 0 0.21119602619295649 -0.38157571206759561 0 0.20576161095015591 -0.37595213443190167 0 0.20229958674085519 -0.38616776423662919 0 0.21119602619295649 -0.38157571206759561 0 0.20961824525516401 -0.3936281247522696 0 0.20229958674085519 -0.38616776423662919 0 0.22189277223980711 -0.38054577212349588 0 0.21119602619295649 -0.38157571206759561 0 0.20961824525516401 -0.3936281247522696 0 0.22942119060580499 -0.38870296338312649 0 0.208966154163157 -0.40126827473642579 0 0.20961824525516401 -0.3936281247522696 0 0.20961824525516401 -0.3936281247522696 0 0.18449600084559339 -0.40588254157612419 0 0.20961824525516401 -0.3936281247522696 0 0.19262774622386039 -0.39991289132556063 0 0.20229958674085519 -0.38616776423662919 0 0.18851111772050869 -0.41383358608972459 0 0.20961824525516401 -0.3936281247522696 0 0.18449600084559339 -0.40588254157612419 0 0.19262774622386039 -0.39991289132556063 0 0.193172237845981 -0.38760648281860499 0 0.20229958674085519 -0.38616776423662919 0 0.20961824525516401 -0.3936281247522696 0 0.19262774622386039 -0.39991289132556063 0 0.18449600084559339 -0.40588254157612419 0 0.18851111772050869 -0.41383358608972459 0 0.208966154163157 -0.40126827473642579 0 0.20961824525516401 -0.3936281247522696 0 0.19262774622386039 -0.39991289132556063 0 0.18963514604776821 -0.39361523539988952 0 0.193172237845981 -0.38760648281860499 0 0.19262774622386039 -0.39991289132556063 0 0.18963514604776821 -0.39361523539988952 0 0.18221634088723479 -0.40136818287387582 0 0.18963514604776821 -0.39361523539988952 0 0.193172237845981 -0.38760648281860499 0 0.18267650324237161 -0.39405502657648112 0 0.193172237845981 -0.38760648281860499 0 0.1910424400336663 -0.37547354736401328 0 0.18267650324237161 -0.39405502657648112 0 0.20576161095015591 -0.37595213443190167 0 0.1910424400336663 -0.37547354736401328 0 0.20229958674085519 -0.38616776423662919 0 0.193172237845981 -0.38760648281860499 0 0.1910424400336663 -0.37547354736401328 0 0.20229958674085519 -0.38616776423662919 0 0.1910424400336663 -0.37547354736401328 0 0.17822948803450961 -0.38676940160015832 0 0.1737051017910701 -0.38004230502140057 0 0.1910424400336663 -0.37547354736401328 0 0.18267650324237161 -0.39405502657648112 0 0.1910424400336663 -0.37547354736401328 0 0.17822948803450961 -0.38676940160015832 0 0.18267650324237161 -0.39405502657648112 0 0.17822948803450961 -0.38676940160015832 0 0.17910183421640119 -0.39520059623836468 0 0.1646215608890387 -0.38907553280053181 0 0.17822948803450961 -0.38676940160015832 0 0.1737051017910701 -0.38004230502140057 0 0.1646215608890387 -0.38907553280053181 0 0.17822948803450961 -0.38676940160015832 0 0.18267650324237161 -0.39405502657648112 0 0.17910183421640119 -0.39520059623836468 0 0.18221634088723479 -0.40136818287387582 0 0.17910183421640119 -0.39520059623836468 0 0.15805845094365739 -0.40474493864538458 0 0.18963514604776821 -0.39361523539988952 0 0.18267650324237161 -0.39405502657648112 0 0.18221634088723479 -0.40136818287387582 0 0.18267650324237161 -0.39405502657648112 0 0.18221634088723479 -0.40136818287387582 0 0.17910183421640119 -0.39520059623836468 0 0.18221634088723479 -0.40136818287387582 0 0.17910183421640119 -0.39520059623836468 0 0.19262774622386039 -0.39991289132556063 0 0.18221634088723479 -0.40136818287387582 0 0.19262774622386039 -0.39991289132556063 0 0.18449600084559339 -0.40588254157612419 0 0.18221634088723479 -0.40136818287387582 0 0.18449600084559339 -0.40588254157612419 0 0.18221634088723479 -0.40136818287387582 0 0.17910183421640119 -0.39520059623836468 0 0.15805845094365739 -0.40474493864538458 0 0.1646215608890387 -0.38907553280053181 0 0.18221634088723479 -0.40136818287387582 0 0.15805845094365739 -0.40474493864538458 0 0.15805845094365739 -0.40474493864538458 0 0.1646215608890387 -0.38907553280053181 0 0.14706277844018539 -0.39464292458295508 0 0.1737051017910701 -0.38004230502140057 0 0.1646215608890387 -0.38907553280053181 0 0.16307541855137739 -0.37743582412871929 0 0.17035242753357599 -0.36877211446365682 0 0.1737051017910701 -0.38004230502140057 0 0.16307541855137739 -0.37743582412871929 0 0.1569593121701936 -0.36832063090657668 0 0.16307541855137739 -0.37743582412871929 0 0.14973869037300869 -0.38096853745143089 0 0.1646215608890387 -0.38907553280053181 0 0.16307541855137739 -0.37743582412871929 0 0.14973869037300869 -0.38096853745143089 0 0.1646215608890387 -0.38907553280053181 0 0.14973869037300869 -0.38096853745143089 0 0.14706277844018539 -0.39464292458295508 0 0.14973869037300869 -0.38096853745143089 0 0.1375772795987745 -0.38493757303029391 0 0.14706277844018539 -0.39464292458295508 0 0.13524945632583441 -0.37311377610700652 0 0.14973869037300869 -0.38096853745143089 0 0.1375772795987745 -0.38493757303029391 0 0.13524945632583441 -0.37311377610700652 0 0.1375772795987745 -0.38493757303029391 0 0.12609635470998201 -0.38402791619100712 0 0.1375772795987745 -0.38493757303029391 0 0.12609635470998201 -0.38402791619100712 0 0.13569313113510631 -0.39589912548093298 0 0.12645644117523869 -0.39722706905544619 0 0.13569313113510631 -0.39589912548093298 0 0.1339005610000801 -0.40812169441689322 0 0.12645644117523869 -0.39722706905544619 0 0.1339005610000801 -0.40812169441689322 0 0.1250254850364893 -0.40936224001308058 0 0.12609635470998201 -0.38402791619100712 0 0.12645644117523869 -0.39722706905544619 0 0.13569313113510631 -0.39589912548093298 0 0.1375772795987745 -0.38493757303029391 0 0.13569313113510631 -0.39589912548093298 0 0.14706277844018539 -0.39464292458295508 0 0.13569313113510631 -0.39589912548093298 0 0.14706277844018539 -0.39464292458295508 0 0.1339005610000801 -0.40812169441689322 0 0.13569313113510631 -0.39589912548093298 0 0.1339005610000801 -0.40812169441689322 0 0.15805845094365739 -0.40474493864538458 0 0.14706277844018539 -0.39464292458295508 0 0.1339005610000801 -0.40812169441689322 0 0.15805845094365739 -0.40474493864538458 0 0.1339005610000801 -0.40812169441689322 0 0.15805845094365739 -0.40474493864538458 0 0.15398562739609989 -0.414436145328195 0 0.14500783119440661 -0.41410657591589572 0 0.15805845094365739 -0.40474493864538458 0 0.14500783119440661 -0.41410657591589572 0 0.1339005610000801 -0.40812169441689322 0 0.15398562739609989 -0.414436145328195 0 0.15088002640467921 -0.42009116626417142 0 0.14500783119440661 -0.41410657591589572 0 0.15088002640467921 -0.42009116626417142 0 0.15979138776423191 -0.42406840149736191 0 0.15636365466176849 -0.41960526040447821 0 0.15398562739609989 -0.414436145328195 0 0.15088002640467921 -0.42009116626417142 0 0.15636365466176849 -0.41960526040447821 0 0.15088002640467921 -0.42009116626417142 0 0.14500783119440661 -0.41410657591589572 0 0.14354831806896931 -0.42663893719234869 0 0.14500783119440661 -0.41410657591589572 0 0.1339005610000801 -0.40812169441689322 0 0.13212255532719441 -0.42024495614079282 0 0.14500783119440661 -0.41410657591589572 0 0.13212255532719441 -0.42024495614079282 0 0.14354831806896931 -0.42663893719234869 0 0.1339005610000801 -0.40812169441689322 0 0.13212255532719441 -0.42024495614079282 0 0.13212255532719441 -0.42024495614079282 0 0.1250254850364893 -0.40936224001308058 0 0.117866085899093 -0.41583132647739651 0 0.13212255532719441 -0.42024495614079282 0 0.1250254850364893 -0.40936224001308058 0 0.1339005610000801 -0.40812169441689322 0 0.13212255532719441 -0.42024495614079282 0 0.1250254850364893 -0.40936224001308058 0 0.1339005610000801 -0.40812169441689322 0 0.1250254850364893 -0.40936224001308058 0 0.13212255532719441 -0.42024495614079282 0 0.14354831806896931 -0.42663893719234869 0 0.1460535583969573 -0.44160689079445481 0 0.13212255532719441 -0.42024495614079282 0 0.128223579302082 -0.44682997076052833 0 0.13212255532719441 -0.42024495614079282 0 0.128223579302082 -0.44682997076052833 0 0.1159996351348133 -0.43474120747525058 0 0.13212255532719441 -0.42024495614079282 0 0.1460535583969573 -0.44160689079445481 0 0.13212255532719441 -0.42024495614079282 0 0.1460535583969573 -0.44160689079445481 0 0.128223579302082 -0.44682997076052833 0 0.15088002640467921 -0.42009116626417142 0 0.14354831806896931 -0.42663893719234869 0 0.15979138776423191 -0.42406840149736191 0 0.14354831806896931 -0.42663893719234869 0 0.15979138776423191 -0.42406840149736191 0 0.14354831806896931 -0.42663893719234869 0 0.15423293294423909 -0.43386412417913311 0 0.1460535583969573 -0.44160689079445481 0 0.14354831806896931 -0.42663893719234869 0 0.15423293294423909 -0.43386412417913311 0 0.15979138776423191 -0.42406840149736191 0 0.15423293294423909 -0.43386412417913311 0 0.16088991666547389 -0.43196094602310392 0 0.16557730454712019 -0.44172028084172121 0 0.1713980071398 -0.42434598792645378 0 0.15979138776423191 -0.42406840149736191 0 0.1760344574594947 -0.42149786580237669 0 0.15423293294423909 -0.43386412417913311 0 0.16088991666547389 -0.43196094602310392 0 0.15979138776423191 -0.42406840149736191 0 0.15979138776423191 -0.42406840149736191 0 0.1760344574594947 -0.42149786580237669 0 0.16626302434537371 -0.43076979168845952 0 0.17509911994716071 -0.43336510097506958 0 0.16557730454712019 -0.44172028084172121 0 0.16088991666547389 -0.43196094602310392 0 0.16626302434537371 -0.43076979168845952 0 0.16557730454712019 -0.44172028084172121 0 0.16626302434537371 -0.43076979168845952 0 0.1713980071398 -0.42434598792645378 0 0.17509911994716071 -0.43336510097506958 0 0.16626302434537371 -0.43076979168845952 0 0.1713980071398 -0.42434598792645378 0 0.15979138776423191 -0.42406840149736191 0 0.16088991666547389 -0.43196094602310392 0 0.16626302434537371 -0.43076979168845952 0 0.15979138776423191 -0.42406840149736191 0 0.15636365466176849 -0.41960526040447821 0 0.16176651730702801 -0.41283252991975622 0 0.17042982775368151 -0.41274390099030239 0 0.18221634088723479 -0.40136818287387582 0 0.15805845094365739 -0.40474493864538458 0 0.17042982775368151 -0.41274390099030239 0 0.15979138776423191 -0.42406840149736191 0 0.15636365466176849 -0.41960526040447821 0 0.17042982775368151 -0.41274390099030239 0 0.15636365466176849 -0.41960526040447821 0 0.17042982775368151 -0.41274390099030239 0 0.15979138776423191 -0.42406840149736191 0 0.17042982775368151 -0.41274390099030239 0 0.1760344574594947 -0.42149786580237669 0 0.15398562739609989 -0.414436145328195 0 0.15636365466176849 -0.41960526040447821 0 0.16176651730702801 -0.41283252991975622 0 0.15805845094365739 -0.40474493864538458 0 0.15398562739609989 -0.414436145328195 0 0.16176651730702801 -0.41283252991975622 0 0.15805845094365739 -0.40474493864538458 0 0.16176651730702801 -0.41283252991975622 0 0.17042982775368151 -0.41274390099030239 0 0.17042982775368151 -0.41274390099030239 0 0.1760344574594947 -0.42149786580237669 0 0.17986785094481991 -0.4134894736146324 0 0.18449600084559339 -0.40588254157612419 0 0.17042982775368151 -0.41274390099030239 0 0.18449600084559339 -0.40588254157612419 0 0.18221634088723479 -0.40136818287387582 0 0.17042982775368151 -0.41274390099030239 0 0.18449600084559339 -0.40588254157612419 0 0.17042982775368151 -0.41274390099030239 0 0.17986785094481991 -0.4134894736146324 0 0.18851111772050869 -0.41383358608972459 0 0.18449600084559339 -0.40588254157612419 0 0.18851111772050869 -0.41383358608972459 0 0.18449600084559339 -0.40588254157612419 0 0.17986785094481991 -0.4134894736146324 0 0.18851111772050869 -0.41383358608972459 0 0.1760344574594947 -0.42149786580237669 0 0.1911717259170673 -0.41910232791299562 0 0.1760344574594947 -0.42149786580237669 0 0.18851111772050869 -0.41383358608972459 0 0.1760344574594947 -0.42149786580237669 0 0.17986785094481991 -0.4134894736146324 0 0.1911717259170673 -0.41910232791299562 0 0.18851111772050869 -0.41383358608972459 0 0.1760344574594947 -0.42149786580237669 0 0.1911717259170673 -0.41910232791299562 0 0.1760344574594947 -0.42149786580237669 0 0.18484232774876749 -0.43033534366960768 0 0.18484232774876749 -0.43033534366960768 0 0.17509911994716071 -0.43336510097506958 0 0.18590039067086719 -0.44115637567916172 0 0.18484232774876749 -0.43033534366960768 0 0.17509911994716071 -0.43336510097506958 0 0.17653319474121221 -0.42750765242104072 0 0.1713980071398 -0.42434598792645378 0 0.17509911994716071 -0.43336510097506958 0 0.17653319474121221 -0.42750765242104072 0 0.1760344574594947 -0.42149786580237669 0 0.18484232774876749 -0.43033534366960768 0 0.17653319474121221 -0.42750765242104072 0 0.1713980071398 -0.42434598792645378 0 0.1760344574594947 -0.42149786580237669 0 0.17653319474121221 -0.42750765242104072 0 0.1713980071398 -0.42434598792645378 0 0.1760344574594947 -0.42149786580237669 0 0.17791556380287959 -0.4455361086535346 0 0.17376504419967539 -0.46076368888843938 0 0.16557730454712019 -0.44172028084172121 0 0.17509911994716071 -0.43336510097506958 0 0.17791556380287959 -0.4455361086535346 0 0.18590039067086719 -0.44115637567916172 0 0.17509911994716071 -0.43336510097506958 0 0.17791556380287959 -0.4455361086535346 0 0.16557730454712019 -0.44172028084172121 0 0.18923595964957429 -0.45067509688328122 0 0.17791556380287959 -0.4455361086535346 0 0.18590039067086719 -0.44115637567916172 0 0.18923595964957429 -0.45067509688328122 0 0.17791556380287959 -0.4455361086535346 0 0.17376504419967539 -0.46076368888843938 0 0.1938641377332887 -0.4633108835168005 0 0.18923595964957429 -0.45067509688328122 0 0.17376504419967539 -0.46076368888843938 0 0.1938641377332887 -0.4633108835168005 0 0.17376504419967539 -0.46076368888843938 0 0.17718182015316611 -0.48165544175840053 0 0.17376504419967539 -0.46076368888843938 0 0.15550290350416551 -0.45157236434768988 0 0.1539044029471725 -0.46809795184702829 0 0.17376504419967539 -0.46076368888843938 0 0.16557730454712019 -0.44172028084172121 0 0.15550290350416551 -0.45157236434768988 0 0.15423293294423909 -0.43386412417913311 0 0.16557730454712019 -0.44172028084172121 0 0.15550290350416551 -0.45157236434768988 0 0.15423293294423909 -0.43386412417913311 0 0.15550290350416551 -0.45157236434768988 0 0.1460535583969573 -0.44160689079445481 0 0.15550290350416551 -0.45157236434768988 0 0.1460535583969573 -0.44160689079445481 0 0.14153074802588431 -0.45654190970348868 0 0.1460535583969573 -0.44160689079445481 0 0.128223579302082 -0.44682997076052833 0 0.14153074802588431 -0.45654190970348868 0 0.128223579302082 -0.44682997076052833 0 0.12432460327697011 -0.47341498538026422 0 0.128223579302082 -0.44682997076052833 0 0.14153074802588431 -0.45654190970348868 0 0.12432460327697011 -0.47341498538026422 0 0.1539044029471725 -0.46809795184702829 0 0.14153074802588431 -0.45654190970348868 0 0.12432460327697011 -0.47341498538026422 0 0.15550290350416551 -0.45157236434768988 0 0.1539044029471725 -0.46809795184702829 0 0.14153074802588431 -0.45654190970348868 0 0.1539044029471725 -0.46809795184702829 0 0.15048103374274721 -0.48484579871078243 0 0.12432460327697011 -0.47341498538026422 0 0.1404625649124509 -0.5 0 0.15048103374274721 -0.48484579871078243 0 0.12432460327697011 -0.47341498538026422 0 0.1404625649124509 -0.5 0 0.12042562725185831 -0.49999999999999989 0 0.12432460327697011 -0.47341498538026422 0 0.1404625649124509 -0.5 0 0.15048103374274721 -0.48484579871078243 0 0.16049950257304349 -0.50000000000000033 0 0.16049950257304349 -0.50000000000000033 0 0.17718182015316611 -0.48165544175840053 0 0.15048103374274721 -0.48484579871078243 0 0.16049950257304349 -0.50000000000000033 0 0.17718182015316611 -0.48165544175840053 0 0.17376504419967539 -0.46076368888843938 0 0.1539044029471725 -0.46809795184702829 0 0.17718182015316611 -0.48165544175840053 0 0.1539044029471725 -0.46809795184702829 0 0.15048103374274721 -0.48484579871078243 0 0.17718182015316611 -0.48165544175840053 0 0.1938641377332887 -0.4633108835168005 0 0.17718182015316611 -0.48165544175840053 0 0.19122796324104871 -0.48466606029959602 0 0.1938641377332887 -0.4633108835168005 0 0.17718182015316611 -0.48165544175840053 0 0.16049950257304349 -0.50000000000000033 0 0.17718182015316611 -0.48165544175840053 0 0.18744203257390391 -0.5 0 0.19122796324104871 -0.48466606029959602 0 0.17718182015316611 -0.48165544175840053 0 0.18744203257390391 -0.5 0 0.072018957471098571 -0.48629524479662273 0 0.069142552082564368 -0.5 0 0.082735946582200875 -0.4892045976485363 0 0.072018957471098571 -0.48629524479662273 0 0.079568506083734697 -0.4785915255016745 0 0.082735946582200875 -0.4892045976485363 0 0.072018957471098571 -0.48629524479662273 0 0.062670741706174135 -0.48944359682069549 0 0.064881374578912687 -0.4815757870058418 0 0.072018957471098571 -0.48629524479662273 0 0.069142552082564368 -0.5 0 0.062670741706174135 -0.48944359682069549 0 0.073180054077148754 -0.46968413697177741 0 0.079568506083734697 -0.4785915255016745 0 0.081395248040860374 -0.46160025678040811 0 0.067447632246636219 -0.45716428258124142 0 0.05849497948899289 -0.47642287528831911 0 0.061758178687080389 -0.47580514524370598 0 0.072018957471098571 -0.48629524479662273 0 0.064881374578912687 -0.4815757870058418 0 0.070673492561877091 -0.4782128222507579 0 0.064881374578912687 -0.4815757870058418 0 0.066280053791524171 -0.47680462027284459 0 0.061758178687080389 -0.47580514524370598 0 0.064881374578912687 -0.4815757870058418 0 0.066280053791524171 -0.47680462027284459 0 0.070673492561877091 -0.4782128222507579 0 0.066280053791524171 -0.47680462027284459 0 0.067807169338226503 -0.47162472659107291 0 0.061758178687080389 -0.47580514524370598 0 0.066280053791524171 -0.47680462027284459 0 0.067807169338226503 -0.47162472659107291 0 0.070673492561877091 -0.4782128222507579 0 0.067807169338226503 -0.47162472659107291 0 0.073180054077148754 -0.46968413697177741 0 0.070673492561877091 -0.4782128222507579 0 0.073180054077148754 -0.46968413697177741 0 0.070673492561877091 -0.4782128222507579 0 0.079568506083734697 -0.4785915255016745 0 0.072018957471098571 -0.48629524479662273 0 0.070673492561877091 -0.4782128222507579 0 0.079568506083734697 -0.4785915255016745 0 0.096876661376123455 -0.48080012839020431 0 0.081395248040860374 -0.46160025678040811 0 0.096876661376123455 -0.48080012839020431 0 0.095349939854524335 -0.46404107218864848 0 0.081395248040860374 -0.46160025678040811 0 0.079568506083734697 -0.4785915255016745 0 0.082735946582200875 -0.4892045976485363 0 0.096876661376123455 -0.48080012839020431 0 0.079568506083734697 -0.4785915255016745 0 0.096876661376123455 -0.48080012839020431 0 0.081395248040860374 -0.46160025678040811 0 0.090750313396975479 -0.5 0 0.082735946582200875 -0.4892045976485363 0 0.096876661376123455 -0.48080012839020431 0 0.069142552082564368 -0.5 0 0.090750313396975479 -0.5 0 0.082735946582200875 -0.4892045976485363 0 0.1123580747113867 -0.50000000000000033 0 0.1124728586670535 -0.48406595427175642 0 0.096876661376123455 -0.48080012839020431 0 0.090750313396975479 -0.5 0 0.1123580747113867 -0.50000000000000033 0 0.096876661376123455 -0.48080012839020431 0 0.1123580747113867 -0.50000000000000033 0 0.096876661376123455 -0.48080012839020431 0 0.1123580747113867 -0.50000000000000033 0 0.12042562725185831 -0.49999999999999989 0 0.1124728586670535 -0.48406595427175642 0 0.12042562725185831 -0.49999999999999989 0 0.1124728586670535 -0.48406595427175642 0 0.12432460327697011 -0.47341498538026422 0 0.12042562725185831 -0.49999999999999989 0 0.12432460327697011 -0.47341498538026422 0 0.1124728586670535 -0.48406595427175642 0 0.12432460327697011 -0.47341498538026422 0 0.1082250197838846 -0.46311527911574241 0 0.096876661376123455 -0.48080012839020431 0 0.095349939854524335 -0.46404107218864848 0 0.1082250197838846 -0.46311527911574241 0 0.1124728586670535 -0.48406595427175642 0 0.096876661376123455 -0.48080012839020431 0 0.1082250197838846 -0.46311527911574241 0 0.095349939854524335 -0.46404107218864848 0 0.1082250197838846 -0.46311527911574241 0 0.094902830217228867 -0.45064862446823939 0 0.128223579302082 -0.44682997076052833 0 0.12432460327697011 -0.47341498538026422 0 0.1082250197838846 -0.46311527911574241 0 0.128223579302082 -0.44682997076052833 0 0.1069391861142964 -0.44299064961396012 0 0.1159996351348133 -0.43474120747525058 0 0.128223579302082 -0.44682997076052833 0 0.1082250197838846 -0.46311527911574241 0 0.1069391861142964 -0.44299064961396012 0 0.1082250197838846 -0.46311527911574241 0 0.1069391861142964 -0.44299064961396012 0 0.094902830217228867 -0.45064862446823939 0 0.1069391861142964 -0.44299064961396012 0 0.091812697424993442 -0.4386357446441016 0 0.098414951810672224 -0.43233268446502993 0 0.1069391861142964 -0.44299064961396012 0 0.094902830217228867 -0.45064862446823939 0 0.091812697424993442 -0.4386357446441016 0 0.094902830217228867 -0.45064862446823939 0 0.091812697424993442 -0.4386357446441016 0 0.082434724511159588 -0.44537142502386151 0 0.094902830217228867 -0.45064862446823939 0 0.082434724511159588 -0.44537142502386151 0 0.081395248040860374 -0.46160025678040811 0 0.091812697424993442 -0.4386357446441016 0 0.082434724511159588 -0.44537142502386151 0 0.078149012167117934 -0.43357211405594609 0 0.095349939854524335 -0.46404107218864848 0 0.094902830217228867 -0.45064862446823939 0 0.081395248040860374 -0.46160025678040811 0 0.067447632246636219 -0.45716428258124142 0 0.065913834705597293 -0.44240038517061198 0 0.057068655694905858 -0.46015288389510001 0 0.067447632246636219 -0.45716428258124142 0 0.05849497948899289 -0.47642287528831911 0 0.067807169338226503 -0.47162472659107291 0 0.067447632246636219 -0.45716428258124142 0 0.061758178687080389 -0.47580514524370598 0 0.081395248040860374 -0.46160025678040811 0 0.067447632246636219 -0.45716428258124142 0 0.065913834705597293 -0.44240038517061198 0 0.073180054077148754 -0.46968413697177741 0 0.081395248040860374 -0.46160025678040811 0 0.067447632246636219 -0.45716428258124142 0 0.067807169338226503 -0.47162472659107291 0 0.073180054077148754 -0.46968413697177741 0 0.067447632246636219 -0.45716428258124142 0 0.081395248040860374 -0.46160025678040811 0 0.065913834705597293 -0.44240038517061198 0 0.082434724511159588 -0.44537142502386151 0 0.081395248040860374 -0.46160025678040811 0 0.065913834705597293 -0.44240038517061198 0 0.082434724511159588 -0.44537142502386151 0 0.065913834705597293 -0.44240038517061198 0 0.078149012167117934 -0.43357211405594609 0 0.065921365320016911 -0.4273577277455588 0 0.073982485551444349 -0.42005290588181732 0 0.078149012167117934 -0.43357211405594609 0 0.065913834705597293 -0.44240038517061198 0 0.065921365320016911 -0.4273577277455588 0 0.078149012167117934 -0.43357211405594609 0 0.073982485551444349 -0.42005290588181732 0 0.069775570718114244 -0.40426700169235308 0 0.060774245729122177 -0.41691050055794487 0 0.065921365320016911 -0.4273577277455588 0 0.073982485551444349 -0.42005290588181732 0 0.060774245729122177 -0.41691050055794487 0 0.073982485551444349 -0.42005290588181732 0 0.086447448161059384 -0.41120764722282821 0 0.069775570718114244 -0.40426700169235308 0 0.073982485551444349 -0.42005290588181732 0 0.086447448161059384 -0.41120764722282821 0 0.088692331433278357 -0.42535053834926723 0 0.086447448161059384 -0.41120764722282821 0 0.093827427438274241 -0.41775801958915132 0 0.099702730965631758 -0.41290181884877419 0 0.086447448161059384 -0.41120764722282821 0 0.088692331433278357 -0.42535053834926723 0 0.093827427438274241 -0.41775801958915132 0 0.088692331433278357 -0.42535053834926723 0 0.097645949564215143 -0.42435504664253748 0 0.093827427438274241 -0.41775801958915132 0 0.073982485551444349 -0.42005290588181732 0 0.088692331433278357 -0.42535053834926723 0 0.078149012167117934 -0.43357211405594609 0 0.091812697424993442 -0.4386357446441016 0 0.088692331433278357 -0.42535053834926723 0 0.078149012167117934 -0.43357211405594609 0 0.091812697424993442 -0.4386357446441016 0 0.088692331433278357 -0.42535053834926723 0 0.098414951810672224 -0.43233268446502993 0 0.098414951810672224 -0.43233268446502993 0 0.097645949564215143 -0.42435504664253748 0 0.1061961683754654 -0.43004895598907111 0 0.088692331433278357 -0.42535053834926723 0 0.098414951810672224 -0.43233268446502993 0 0.097645949564215143 -0.42435504664253748 0 0.1061961683754654 -0.43004895598907111 0 0.11152958735588871 -0.42539382439527612 0 0.1045809803654715 -0.42051706085107571 0 0.097645949564215143 -0.42435504664253748 0 0.1061961683754654 -0.43004895598907111 0 0.1045809803654715 -0.42051706085107571 0 0.1069391861142964 -0.44299064961396012 0 0.098414951810672224 -0.43233268446502993 0 0.1061961683754654 -0.43004895598907111 0 0.1061961683754654 -0.43004895598907111 0 0.1159996351348133 -0.43474120747525058 0 0.11152958735588871 -0.42539382439527612 0 0.13212255532719441 -0.42024495614079282 0 0.1159996351348133 -0.43474120747525058 0 0.11851153239627241 -0.42275952171654291 0 0.1069391861142964 -0.44299064961396012 0 0.1061961683754654 -0.43004895598907111 0 0.1159996351348133 -0.43474120747525058 0 0.1159996351348133 -0.43474120747525058 0 0.11152958735588871 -0.42539382439527612 0 0.11851153239627241 -0.42275952171654291 0 0.11152958735588871 -0.42539382439527612 0 0.11851153239627241 -0.42275952171654291 0 0.1123596205074209 -0.41890237594444008 0 0.1250254850364893 -0.40936224001308058 0 0.117866085899093 -0.41583132647739651 0 0.1096180349996463 -0.41151587164058129 0 0.1250254850364893 -0.40936224001308058 0 0.1096180349996463 -0.41151587164058129 0 0.13212255532719441 -0.42024495614079282 0 0.11851153239627241 -0.42275952171654291 0 0.117866085899093 -0.41583132647739651 0 0.117866085899093 -0.41583132647739651 0 0.1123596205074209 -0.41890237594444008 0 0.1096180349996463 -0.41151587164058129 0 0.11851153239627241 -0.42275952171654291 0 0.117866085899093 -0.41583132647739651 0 0.1123596205074209 -0.41890237594444008 0 0.11152958735588871 -0.42539382439527612 0 0.1123596205074209 -0.41890237594444008 0 0.1045809803654715 -0.42051706085107571 0 0.1123596205074209 -0.41890237594444008 0 0.1096180349996463 -0.41151587164058129 0 0.1065506547415149 -0.41613106226330793 0 0.1096180349996463 -0.41151587164058129 0 0.1065506547415149 -0.41613106226330793 0 0.099702730965631758 -0.41290181884877419 0 0.1096180349996463 -0.41151587164058129 0 0.099702730965631758 -0.41290181884877419 0 0.1096180349996463 -0.41151587164058129 0 0.099702730965631758 -0.41290181884877419 0 0.1041447551606165 -0.40305668800175581 0 0.1123596205074209 -0.41890237594444008 0 0.1065506547415149 -0.41613106226330793 0 0.1045809803654715 -0.42051706085107571 0 0.1065506547415149 -0.41613106226330793 0 0.1045809803654715 -0.42051706085107571 0 0.099702730965631758 -0.41290181884877419 0 0.1045809803654715 -0.42051706085107571 0 0.093827427438274241 -0.41775801958915132 0 0.099702730965631758 -0.41290181884877419 0 0.097645949564215143 -0.42435504664253748 0 0.1045809803654715 -0.42051706085107571 0 0.093827427438274241 -0.41775801958915132 0 0.086447448161059384 -0.41120764722282821 0 0.099702730965631758 -0.41290181884877419 0 0.095691580682652475 -0.39908469234235189 0 0.095691580682652475 -0.39908469234235189 0 0.1041447551606165 -0.40305668800175581 0 0.1115666739945345 -0.38872436917531578 0 0.099702730965631758 -0.41290181884877419 0 0.095691580682652475 -0.39908469234235189 0 0.1041447551606165 -0.40305668800175581 0 0.1096180349996463 -0.41151587164058129 0 0.1041447551606165 -0.40305668800175581 0 0.1115666739945345 -0.38872436917531578 0 0.1250254850364893 -0.40936224001308058 0 0.1115666739945345 -0.38872436917531578 0 0.1096180349996463 -0.41151587164058129 0 0.1115666739945345 -0.38872436917531578 0 0.1250254850364893 -0.40936224001308058 0 0.1096180349996463 -0.41151587164058129 0 0.1115666739945345 -0.38872436917531578 0 0.12645644117523869 -0.39722706905544619 0 0.1250254850364893 -0.40936224001308058 0 0.1115666739945345 -0.38872436917531578 0 0.12609635470998201 -0.38402791619100712 0 0.1115666739945345 -0.38872436917531578 0 0.113745377556003 -0.36324200547299851 0 0.1115666739945345 -0.38872436917531578 0 0.113745377556003 -0.36324200547299851 0 0.12609635470998201 -0.38402791619100712 0 0.12645644117523869 -0.39722706905544619 0 0.1115666739945345 -0.38872436917531578 0 0.1115666739945345 -0.38872436917531578 0 0.096372132326470572 -0.36542491223168638 0 0.1115666739945345 -0.38872436917531578 0 0.089853218628298884 -0.38394717958202601 0 0.096372132326470572 -0.36542491223168638 0 0.095691580682652475 -0.39908469234235189 0 0.1115666739945345 -0.38872436917531578 0 0.089853218628298884 -0.38394717958202601 0 0.089853218628298884 -0.38394717958202601 0 0.082924844884061683 -0.39714926844771359 0 0.072939106935086151 -0.38728773006234168 0 0.089853218628298884 -0.38394717958202601 0 0.072939106935086151 -0.38728773006234168 0 0.07582030708563034 -0.37256671738353597 0 0.095691580682652475 -0.39908469234235189 0 0.089853218628298884 -0.38394717958202601 0 0.082924844884061683 -0.39714926844771359 0 0.086447448161059384 -0.41120764722282821 0 0.082924844884061683 -0.39714926844771359 0 0.069775570718114244 -0.40426700169235308 0 0.086447448161059384 -0.41120764722282821 0 0.095691580682652475 -0.39908469234235189 0 0.082924844884061683 -0.39714926844771359 0 0.069775570718114244 -0.40426700169235308 0 0.072939106935086151 -0.38728773006234168 0 0.058313699768321348 -0.39007371912844929 0 0.082924844884061683 -0.39714926844771359 0 0.069775570718114244 -0.40426700169235308 0 0.072939106935086151 -0.38728773006234168 0 0.072939106935086151 -0.38728773006234168 0 0.05933500968155693 -0.37671477575793533 0 0.058313699768321348 -0.39007371912844929 0 0.072939106935086151 -0.38728773006234168 0 0.05933500968155693 -0.37671477575793533 0 0.07582030708563034 -0.37256671738353597 0 0.05933500968155693 -0.37671477575793533 0 0.043300396670470892 -0.38581293046691678 0 0.039079294002052851 -0.37065651216905859 0 0.05933500968155693 -0.37671477575793533 0 0.058313699768321348 -0.39007371912844929 0 0.043300396670470892 -0.38581293046691678 0 0.058313699768321348 -0.39007371912844929 0 0.0466875803122518 -0.39705513158652528 0 0.054373060569327003 -0.40663711634463268 0 0.069775570718114244 -0.40426700169235308 0 0.058313699768321348 -0.39007371912844929 0 0.054373060569327003 -0.40663711634463268 0 0.058313699768321348 -0.39007371912844929 0 0.054373060569327003 -0.40663711634463268 0 0.0466875803122518 -0.39705513158652528 0 0.042121557959679479 -0.40689397827368962 0 0.054373060569327003 -0.40663711634463268 0 0.058313699768321348 -0.39007371912844929 0 0.0466875803122518 -0.39705513158652528 0 0.043300396670470892 -0.38581293046691678 0 0.0466875803122518 -0.39705513158652528 0 0.032645317368698572 -0.39721328630736241 0 0.043300396670470892 -0.38581293046691678 0 0.0466875803122518 -0.39705513158652528 0 0.032645317368698572 -0.39721328630736241 0 0.042121557959679479 -0.40689397827368962 0 0.032645317368698572 -0.39721328630736241 0 0.043300396670470892 -0.38581293046691678 0 0.025542853711361019 -0.38384675294920401 0 0.043300396670470892 -0.38581293046691678 0 0.025542853711361019 -0.38384675294920401 0 0.039079294002052851 -0.37065651216905859 0 0.025542853711361019 -0.38384675294920401 0 0.009690974369139977 -0.39295199195252922 0 0.016784443680880379 -0.36713146693108112 0 -0.0064694903547723136 -0.38059021958606692 0 0.009690974369139977 -0.39295199195252922 0 0.016784443680880379 -0.36713146693108112 0 0.032645317368698572 -0.39721328630736241 0 0.009690974369139977 -0.39295199195252922 0 0.030062121183744069 -0.41560348860952728 0 0.032645317368698572 -0.39721328630736241 0 0.025542853711361019 -0.38384675294920401 0 0.009690974369139977 -0.39295199195252922 0 0.009690974369139977 -0.39295199195252922 0 0.030062121183744069 -0.41560348860952728 0 0.01224976062295041 -0.42183763890738629 0 -0.0080625817845775948 -0.40608726553411861 0 0.009690974369139977 -0.39295199195252922 0 0.01224976062295041 -0.42183763890738629 0 0.009690974369139977 -0.39295199195252922 0 0.01224976062295041 -0.42183763890738629 0 0.01224976062295041 -0.42183763890738629 0 0.01480854687676085 -0.45072328586224342 0 0.030062121183744069 -0.41560348860952728 0 0.01224976062295041 -0.42183763890738629 0 0.028535899264767479 -0.43733174884408438 0 0.01224976062295041 -0.42183763890738629 0 0.028535899264767479 -0.43733174884408438 0 0.01480854687676085 -0.45072328586224342 0 0.030062121183744069 -0.41560348860952728 0 0.028535899264767479 -0.43733174884408438 0 0.039909128579099777 -0.42893709763038412 0 0.039909128579099777 -0.42893709763038412 0 0.050432421370333713 -0.42320051356081623 0 0.04400553312424714 -0.45021417746364167 0 0.039909128579099777 -0.42893709763038412 0 0.046509667952406512 -0.41833555967385072 0 0.050432421370333713 -0.42320051356081623 0 0.032645317368698572 -0.39721328630736241 0 0.030062121183744069 -0.41560348860952728 0 0.042121557959679479 -0.40689397827368962 0 0.030062121183744069 -0.41560348860952728 0 0.039909128579099777 -0.42893709763038412 0 0.046509667952406512 -0.41833555967385072 0 0.030062121183744069 -0.41560348860952728 0 0.042121557959679479 -0.40689397827368962 0 0.046509667952406512 -0.41833555967385072 0 0.054373060569327003 -0.40663711634463268 0 0.050432421370333713 -0.42320051356081623 0 0.046509667952406512 -0.41833555967385072 0 0.054373060569327003 -0.40663711634463268 0 0.050432421370333713 -0.42320051356081623 0 0.054373060569327003 -0.40663711634463268 0 0.060774245729122177 -0.41691050055794487 0 0.050432421370333713 -0.42320051356081623 0 0.046509667952406512 -0.41833555967385072 0 0.050432421370333713 -0.42320051356081623 0 0.042121557959679479 -0.40689397827368962 0 0.046509667952406512 -0.41833555967385072 0 0.054373060569327003 -0.40663711634463268 0 0.069775570718114244 -0.40426700169235308 0 0.054373060569327003 -0.40663711634463268 0 0.060774245729122177 -0.41691050055794487 0 0.050432421370333713 -0.42320051356081623 0 0.04400553312424714 -0.45021417746364167 0 0.065913834705597293 -0.44240038517061198 0 0.050432421370333713 -0.42320051356081623 0 0.065913834705597293 -0.44240038517061198 0 0.065921365320016911 -0.4273577277455588 0 0.050432421370333713 -0.42320051356081623 0 0.065921365320016911 -0.4273577277455588 0 0.060774245729122177 -0.41691050055794487 0 0.050432421370333713 -0.42320051356081623 0 0.065913834705597293 -0.44240038517061198 0 0.050432421370333713 -0.42320051356081623 0 0.04400553312424714 -0.45021417746364167 0 0.065913834705597293 -0.44240038517061198 0 0.057068655694905858 -0.46015288389510001 0 0.04400553312424714 -0.45021417746364167 0 0.057068655694905858 -0.46015288389510001 0 0.048043393468649283 -0.46676160836513853 0 0.04400553312424714 -0.45021417746364167 0 0.067447632246636219 -0.45716428258124142 0 0.057068655694905858 -0.46015288389510001 0 0.05849497948899289 -0.47642287528831911 0 0.057068655694905858 -0.46015288389510001 0 0.048043393468649283 -0.46676160836513853 0 0.052635520687858477 -0.47072247146996382 0 0.04400553312424714 -0.45021417746364167 0 0.037578644878161642 -0.47722784136646751 0 0.048043393468649283 -0.46676160836513853 0 0.04400553312424714 -0.45021417746364167 0 0.037578644878161642 -0.47722784136646751 0 0.04400553312424714 -0.45021417746364167 0 0.030366658319331299 -0.45781827645911538 0 0.037578644878161642 -0.47722784136646751 0 0.028535899264767479 -0.43733174884408438 0 0.039909128579099777 -0.42893709763038412 0 0.04400553312424714 -0.45021417746364167 0 0.028535899264767479 -0.43733174884408438 0 0.04400553312424714 -0.45021417746364167 0 0.030366658319331299 -0.45781827645911538 0 0.028535899264767479 -0.43733174884408438 0 0.01480854687676085 -0.45072328586224342 0 0.030366658319331299 -0.45781827645911538 0 -0.008216644178786571 -0.4466179140804285 0 0.01224976062295041 -0.42183763890738629 0 0.01480854687676085 -0.45072328586224342 0 0.01480854687676085 -0.45072328586224342 0 0.017367333130571299 -0.47960893281710049 0 0.0084119176919832291 -0.471974008478943 0 -0.0021957942935651631 -0.46571035637089769 0 0.01480854687676085 -0.45072328586224342 0 0.0084119176919832291 -0.471974008478943 0 -0.008216644178786571 -0.4466179140804285 0 -0.0021957942935651631 -0.46571035637089769 0 0.01480854687676085 -0.45072328586224342 0 0.01480854687676085 -0.45072328586224342 0 0.017367333130571299 -0.47960893281710049 0 0.01480854687676085 -0.45072328586224342 0 0.030366658319331299 -0.45781827645911538 0 0.0269046674527194 -0.47359432875914009 0 0.01480854687676085 -0.45072328586224342 0 0.0269046674527194 -0.47359432875914009 0 0.017367333130571299 -0.47960893281710049 0 0.017367333130571299 -0.47960893281710049 0 0.012735562036971701 -0.48508522326900949 0 0.035615270762982369 -0.48075404927866472 0 0.012735562036971701 -0.48508522326900949 0 0.035615270762982369 -0.48075404927866472 0 0.0269046674527194 -0.47359432875914009 0 0.017367333130571299 -0.47960893281710049 0 0.035615270762982369 -0.48075404927866472 0 0.017367333130571299 -0.47960893281710049 0 0.0084119176919832291 -0.471974008478943 0 0.012735562036971701 -0.48508522326900949 0 -0.00065605929082254884 -0.47874224407546379 0 0.0084119176919832291 -0.471974008478943 0 0.012735562036971701 -0.48508522326900949 0 -0.0021957942935651631 -0.46571035637089769 0 -0.00065605929082254884 -0.47874224407546379 0 0.0084119176919832291 -0.471974008478943 0 -0.010144146689038991 -0.48941639725935437 0 -0.00065605929082254884 -0.47874224407546379 0 0.012735562036971701 -0.48508522326900949 0 -0.010144146689038991 -0.48941639725935437 0 0.012735562036971701 -0.48508522326900949 0 -0.011489863113854141 -0.5 0 0.012735562036971701 -0.48508522326900949 0 0.01802246382714956 -0.5 0 0.01802246382714956 -0.5 0 0.025329369399590369 -0.48901546815995378 0 0.047534790768153173 -0.50000000000000044 0 0.012735562036971701 -0.48508522326900949 0 0.025329369399590369 -0.48901546815995378 0 0.035615270762982369 -0.48075404927866472 0 0.012735562036971701 -0.48508522326900949 0 0.01802246382714956 -0.5 0 0.025329369399590369 -0.48901546815995378 0 0.025329369399590369 -0.48901546815995378 0 0.035615270762982369 -0.48075404927866472 0 0.047534790768153173 -0.50000000000000044 0 0.030366658319331299 -0.45781827645911538 0 0.0269046674527194 -0.47359432875914009 0 0.037578644878161642 -0.47722784136646751 0 0.0269046674527194 -0.47359432875914009 0 0.037578644878161642 -0.47722784136646751 0 0.035615270762982369 -0.48075404927866472 0 0.048043393468649283 -0.46676160836513853 0 0.037578644878161642 -0.47722784136646751 0 0.046296380844488463 -0.47463440362945558 0 0.035615270762982369 -0.48075404927866472 0 0.046296380844488463 -0.47463440362945558 0 0.049693011087844949 -0.4756354888466594 0 0.037578644878161642 -0.47722784136646751 0 0.035615270762982369 -0.48075404927866472 0 0.046296380844488463 -0.47463440362945558 0 0.057068655694905858 -0.46015288389510001 0 0.052635520687858477 -0.47072247146996382 0 0.05849497948899289 -0.47642287528831911 0 0.035615270762982369 -0.48075404927866472 0 0.049693011087844949 -0.4756354888466594 0 0.05849497948899289 -0.47642287528831911 0 0.035615270762982369 -0.48075404927866472 0 0.05849497948899289 -0.47642287528831911 0 0.048043393468649283 -0.46676160836513853 0 0.046296380844488463 -0.47463440362945558 0 0.052635520687858477 -0.47072247146996382 0 0.049693011087844949 -0.4756354888466594 0 0.052635520687858477 -0.47072247146996382 0 0.05849497948899289 -0.47642287528831911 0 0.046296380844488463 -0.47463440362945558 0 0.049693011087844949 -0.4756354888466594 0 0.052635520687858477 -0.47072247146996382 0 0.05849497948899289 -0.47642287528831911 0 0.061758178687080389 -0.47580514524370598 0 0.062670741706174135 -0.48944359682069549 0 0.064881374578912687 -0.4815757870058418 0 0.05849497948899289 -0.47642287528831911 0 0.064881374578912687 -0.4815757870058418 0 0.05849497948899289 -0.47642287528831911 0 0.061758178687080389 -0.47580514524370598 0 0.069142552082564368 -0.5 0 0.062670741706174135 -0.48944359682069549 0 0.047534790768153173 -0.50000000000000044 0 0.05849497948899289 -0.47642287528831911 0 0.047534790768153173 -0.50000000000000044 0 0.035615270762982369 -0.48075404927866472 0 0.05849497948899289 -0.47642287528831911 0 0.047534790768153173 -0.50000000000000044 0 0.062670741706174135 -0.48944359682069549 0 0.05849497948899289 -0.47642287528831911 0 0.047534790768153173 -0.50000000000000044 0 0.089727975817252392 -0.29646224842349211 0 0.069967983226982527 -0.30495776272600778 0 0.075483032258224086 -0.28815868119130272 0 0.089727975817252392 -0.29646224842349211 0 0.088503230311337153 -0.27716835087377989 0 0.101883582619993 -0.28460947857741209 0 0.089727975817252392 -0.29646224842349211 0 0.075483032258224086 -0.28815868119130272 0 0.088503230311337153 -0.27716835087377989 0 0.089727975817252392 -0.29646224842349211 0 0.086214248119208581 -0.31193359067875348 0 0.069967983226982527 -0.30495776272600778 0 0.089727975817252392 -0.29646224842349211 0 0.086214248119208581 -0.31193359067875348 0 0.10049372866807189 -0.31082656242210721 0 0.069967983226982527 -0.30495776272600778 0 0.075483032258224086 -0.28815868119130272 0 0.059449054433483903 -0.28956707473318272 0 0.075483032258224086 -0.28815868119130272 0 0.0646939085167762 -0.2722383315448984 0 0.059449054433483903 -0.28956707473318272 0 0.0646939085167762 -0.2722383315448984 0 0.077350866508299074 -0.27549126298099152 0 0.080723294946858856 -0.26439968831398508 0 0.075483032258224086 -0.28815868119130272 0 0.0646939085167762 -0.2722383315448984 0 0.077350866508299074 -0.27549126298099152 0 0.0646939085167762 -0.2722383315448984 0 0.070005134957367529 -0.25889031236374099 0 0.080723294946858856 -0.26439968831398508 0 0.070005134957367529 -0.25889031236374099 0 0.061490933840310687 -0.25382890142296882 0 0.070069103552599196 -0.24823964670048029 0 0.0646939085167762 -0.2722383315448984 0 0.070005134957367529 -0.25889031236374099 0 0.060614126731859473 -0.2624009925450973 0 0.070005134957367529 -0.25889031236374099 0 0.061490933840310687 -0.25382890142296882 0 0.060614126731859473 -0.2624009925450973 0 0.070005134957367529 -0.25889031236374099 0 0.080071368274292315 -0.25145738896057979 0 0.080723294946858856 -0.26439968831398508 0 0.070005134957367529 -0.25889031236374099 0 0.080071368274292315 -0.25145738896057979 0 0.070069103552599196 -0.24823964670048029 0 0.080071368274292315 -0.25145738896057979 0 0.080723294946858856 -0.26439968831398508 0 0.090706365013478091 -0.25245448435890872 0 0.080723294946858856 -0.26439968831398508 0 0.090706365013478091 -0.25245448435890872 0 0.095060577752172304 -0.26241188567384149 0 0.075483032258224086 -0.28815868119130272 0 0.077350866508299074 -0.27549126298099152 0 0.088503230311337153 -0.27716835087377989 0 0.077350866508299074 -0.27549126298099152 0 0.080723294946858856 -0.26439968831398508 0 0.088503230311337153 -0.27716835087377989 0 0.080723294946858856 -0.26439968831398508 0 0.088503230311337153 -0.27716835087377989 0 0.095060577752172304 -0.26241188567384149 0 0.088503230311337153 -0.27716835087377989 0 0.1016952336099234 -0.27235330725820578 0 0.101883582619993 -0.28460947857741209 0 0.088503230311337153 -0.27716835087377989 0 0.1016952336099234 -0.27235330725820578 0 0.095060577752172304 -0.26241188567384149 0 0.1016952336099234 -0.27235330725820578 0 0.1104739380917857 -0.2612093749811526 0 0.1125548392743288 -0.27636744618484282 0 0.1016952336099234 -0.27235330725820578 0 0.1125548392743288 -0.27636744618484282 0 0.101883582619993 -0.28460947857741209 0 0.090706365013478091 -0.25245448435890872 0 0.099550463170151926 -0.25262580003909579 0 0.095060577752172304 -0.26241188567384149 0 0.1016952336099234 -0.27235330725820578 0 0.095060577752172304 -0.26241188567384149 0 0.1104739380917857 -0.2612093749811526 0 0.099550463170151926 -0.25262580003909579 0 0.095060577752172304 -0.26241188567384149 0 0.1104739380917857 -0.2612093749811526 0 0.099550463170151926 -0.25262580003909579 0 0.1104739380917857 -0.2612093749811526 0 0.1078238037173969 -0.24832262031645649 0 0.1311170075682456 -0.27142576198599933 0 0.1104739380917857 -0.2612093749811526 0 0.1212054647883809 -0.25073068226796852 0 0.1104739380917857 -0.2612093749811526 0 0.1212054647883809 -0.25073068226796852 0 0.1078238037173969 -0.24832262031645649 0 0.1311170075682456 -0.27142576198599933 0 0.1104739380917857 -0.2612093749811526 0 0.1311170075682456 -0.27142576198599933 0 0.1104739380917857 -0.2612093749811526 0 0.1193620271946058 -0.27249351692823448 0 0.1104739380917857 -0.2612093749811526 0 0.1125548392743288 -0.27636744618484282 0 0.1193620271946058 -0.27249351692823448 0 0.1125548392743288 -0.27636744618484282 0 0.1193620271946058 -0.27249351692823448 0 0.1233023238440631 -0.28097148456094378 0 0.1311170075682456 -0.27142576198599933 0 0.1193620271946058 -0.27249351692823448 0 0.1233023238440631 -0.28097148456094378 0 0.1233023238440631 -0.28097148456094378 0 0.1242383748246253 -0.29131174999725179 0 0.1141297936923768 -0.28878453930630188 0 0.1242383748246253 -0.29131174999725179 0 0.1141297936923768 -0.28878453930630188 0 0.1198701537204314 -0.30089140532399938 0 0.1141297936923768 -0.28878453930630188 0 0.10622170970645189 -0.29895353846799488 0 0.1198701537204314 -0.30089140532399938 0 0.1125548392743288 -0.27636744618484282 0 0.1233023238440631 -0.28097148456094378 0 0.1141297936923768 -0.28878453930630188 0 0.1125548392743288 -0.27636744618484282 0 0.1141297936923768 -0.28878453930630188 0 0.101883582619993 -0.28460947857741209 0 0.089727975817252392 -0.29646224842349211 0 0.101883582619993 -0.28460947857741209 0 0.10622170970645189 -0.29895353846799488 0 0.1141297936923768 -0.28878453930630188 0 0.101883582619993 -0.28460947857741209 0 0.10622170970645189 -0.29895353846799488 0 0.089727975817252392 -0.29646224842349211 0 0.10049372866807189 -0.31082656242210721 0 0.10622170970645189 -0.29895353846799488 0 0.10049372866807189 -0.31082656242210721 0 0.10622170970645189 -0.29895353846799488 0 0.1134387524627216 -0.31086840579325631 0 0.10622170970645189 -0.29895353846799488 0 0.1134387524627216 -0.31086840579325631 0 0.1198701537204314 -0.30089140532399938 0 0.1265219532001009 -0.3124330460259736 0 0.1134387524627216 -0.31086840579325631 0 0.1198701537204314 -0.30089140532399938 0 0.1265219532001009 -0.3124330460259736 0 0.1134387524627216 -0.31086840579325631 0 0.1192961391526948 -0.32261879728377291 0 0.1134387524627216 -0.31086840579325631 0 0.1192961391526948 -0.32261879728377291 0 0.1082288303285789 -0.31948708523568958 0 0.1192961391526948 -0.32261879728377291 0 0.1093748658769356 -0.32997486192450581 0 0.1082288303285789 -0.31948708523568958 0 0.1192961391526948 -0.32261879728377291 0 0.1168506625355451 -0.3296807312869221 0 0.1093748658769356 -0.32997486192450581 0 0.1192961391526948 -0.32261879728377291 0 0.12260601330919629 -0.33072698382653798 0 0.1168506625355451 -0.3296807312869221 0 0.13219802669416811 -0.32498852212276208 0 0.1192961391526948 -0.32261879728377291 0 0.12260601330919629 -0.33072698382653798 0 0.13051916655351839 -0.33696304048325831 0 0.12260601330919629 -0.33072698382653798 0 0.1159240811174677 -0.33775964177068091 0 0.12260601330919629 -0.33072698382653798 0 0.1159240811174677 -0.33775964177068091 0 0.1161256318033537 -0.33540228211287182 0 0.12260601330919629 -0.33072698382653798 0 0.1168506625355451 -0.3296807312869221 0 0.1161256318033537 -0.33540228211287182 0 0.13051916655351839 -0.33696304048325831 0 0.1159240811174677 -0.33775964177068091 0 0.13051916655351839 -0.33696304048325831 0 0.1159240811174677 -0.33775964177068091 0 0.123981461538115 -0.35128285539313481 0 0.1159240811174677 -0.33775964177068091 0 0.1161256318033537 -0.33540228211287182 0 0.1168506625355451 -0.3296807312869221 0 0.1161256318033537 -0.33540228211287182 0 0.1093748658769356 -0.32997486192450581 0 0.1159240811174677 -0.33775964177068091 0 0.1161256318033537 -0.33540228211287182 0 0.1093748658769356 -0.32997486192450581 0 0.1159240811174677 -0.33775964177068091 0 0.092335912071574502 -0.33904708650077298 0 0.1159240811174677 -0.33775964177068091 0 0.1093748658769356 -0.32997486192450581 0 0.092335912071574502 -0.33904708650077298 0 0.1093748658769356 -0.32997486192450581 0 0.096347407600029022 -0.32440529872184809 0 0.092335912071574502 -0.33904708650077298 0 0.1159240811174677 -0.33775964177068091 0 0.10211321446004019 -0.35101158716873732 0 0.092335912071574502 -0.33904708650077298 0 0.086214248119208581 -0.31193359067875348 0 0.10049372866807189 -0.31082656242210721 0 0.096347407600029022 -0.32440529872184809 0 0.10049372866807189 -0.31082656242210721 0 0.1134387524627216 -0.31086840579325631 0 0.1082288303285789 -0.31948708523568958 0 0.10049372866807189 -0.31082656242210721 0 0.096347407600029022 -0.32440529872184809 0 0.1082288303285789 -0.31948708523568958 0 0.1093748658769356 -0.32997486192450581 0 0.096347407600029022 -0.32440529872184809 0 0.1082288303285789 -0.31948708523568958 0 0.12784456261830821 -0.36308533366748658 0 0.12609635470998201 -0.38402791619100712 0 0.113745377556003 -0.36324200547299851 0 0.1159240811174677 -0.33775964177068091 0 0.113745377556003 -0.36324200547299851 0 0.123981461538115 -0.35128285539313481 0 0.1159240811174677 -0.33775964177068091 0 0.113745377556003 -0.36324200547299851 0 0.1159240811174677 -0.33775964177068091 0 0.113745377556003 -0.36324200547299851 0 0.10211321446004019 -0.35101158716873732 0 0.12784456261830821 -0.36308533366748658 0 0.113745377556003 -0.36324200547299851 0 0.123981461538115 -0.35128285539313481 0 0.1115666739945345 -0.38872436917531578 0 0.113745377556003 -0.36324200547299851 0 0.096372132326470572 -0.36542491223168638 0 0.113745377556003 -0.36324200547299851 0 0.10211321446004019 -0.35101158716873732 0 0.096372132326470572 -0.36542491223168638 0 0.089853218628298884 -0.38394717958202601 0 0.096372132326470572 -0.36542491223168638 0 0.07582030708563034 -0.37256671738353597 0 0.096372132326470572 -0.36542491223168638 0 0.082110249222110576 -0.35466523699539548 0 0.07582030708563034 -0.37256671738353597 0 0.10211321446004019 -0.35101158716873732 0 0.096372132326470572 -0.36542491223168638 0 0.082110249222110576 -0.35466523699539548 0 0.082110249222110576 -0.35466523699539548 0 0.092335912071574502 -0.33904708650077298 0 0.068747743025681235 -0.34033453123086538 0 0.10211321446004019 -0.35101158716873732 0 0.082110249222110576 -0.35466523699539548 0 0.092335912071574502 -0.33904708650077298 0 0.082110249222110576 -0.35466523699539548 0 0.068747743025681235 -0.34033453123086538 0 0.057272186363266697 -0.35960658745677498 0 0.082110249222110576 -0.35466523699539548 0 0.07582030708563034 -0.37256671738353597 0 0.057272186363266697 -0.35960658745677498 0 0.05933500968155693 -0.37671477575793533 0 0.07582030708563034 -0.37256671738353597 0 0.057272186363266697 -0.35960658745677498 0 0.086214248119208581 -0.31193359067875348 0 0.096347407600029022 -0.32440529872184809 0 0.078030795921920637 -0.32434601069550512 0 0.092335912071574502 -0.33904708650077298 0 0.068747743025681235 -0.34033453123086538 0 0.078030795921920637 -0.32434601069550512 0 0.092335912071574502 -0.33904708650077298 0 0.068747743025681235 -0.34033453123086538 0 0.096347407600029022 -0.32440529872184809 0 0.092335912071574502 -0.33904708650077298 0 0.078030795921920637 -0.32434601069550512 0 0.068747743025681235 -0.34033453123086538 0 0.078030795921920637 -0.32434601069550512 0 0.053863538987460123 -0.3232816795844588 0 0.069967983226982527 -0.30495776272600778 0 0.078030795921920637 -0.32434601069550512 0 0.053863538987460123 -0.3232816795844588 0 0.086214248119208581 -0.31193359067875348 0 0.069967983226982527 -0.30495776272600778 0 0.078030795921920637 -0.32434601069550512 0 0.068747743025681235 -0.34033453123086538 0 0.045159573979787898 -0.34162197596095778 0 0.068747743025681235 -0.34033453123086538 0 0.053863538987460123 -0.3232816795844588 0 0.045159573979787898 -0.34162197596095778 0 0.053863538987460123 -0.3232816795844588 0 0.034832013842728909 -0.33032259781876938 0 0.045159573979787898 -0.34162197596095778 0 0.034832013842728909 -0.33032259781876938 0 0.045159573979787898 -0.34162197596095778 0 0.02157140493389462 -0.34290942069105018 0 0.045159573979787898 -0.34162197596095778 0 0.02157140493389462 -0.34290942069105018 0 0.053863538987460123 -0.3232816795844588 0 0.034832013842728909 -0.33032259781876938 0 0.03621734991660093 -0.31670946998547028 0 0.053863538987460123 -0.3232816795844588 0 0.03621734991660093 -0.31670946998547028 0 0.048768037075517537 -0.30442990221103089 0 0.05933500968155693 -0.37671477575793533 0 0.057272186363266697 -0.35960658745677498 0 0.039079294002052851 -0.37065651216905859 0 0.068747743025681235 -0.34033453123086538 0 0.045159573979787898 -0.34162197596095778 0 0.057272186363266697 -0.35960658745677498 0 0.045159573979787898 -0.34162197596095778 0 0.034512899630155462 -0.3545258348651717 0 0.02157140493389462 -0.34290942069105018 0 0.045159573979787898 -0.34162197596095778 0 0.057272186363266697 -0.35960658745677498 0 0.034512899630155462 -0.3545258348651717 0 0.057272186363266697 -0.35960658745677498 0 0.034512899630155462 -0.3545258348651717 0 0.039079294002052851 -0.37065651216905859 0 0.025542853711361019 -0.38384675294920401 0 0.039079294002052851 -0.37065651216905859 0 0.016784443680880379 -0.36713146693108112 0 0.034512899630155462 -0.3545258348651717 0 0.039079294002052851 -0.37065651216905859 0 0.016784443680880379 -0.36713146693108112 0 0.034512899630155462 -0.3545258348651717 0 0.016784443680880379 -0.36713146693108112 0 0.02157140493389462 -0.34290942069105018 0 -0.0043130761299947744 -0.35643483176966217 0 0.016784443680880379 -0.36713146693108112 0 0.02157140493389462 -0.34290942069105018 0 -0.0038616663111063101 -0.33241552487502413 0 -0.0043130761299947744 -0.35643483176966217 0 0.02157140493389462 -0.34290942069105018 0 -0.0043130761299947744 -0.35643483176966217 0 -0.0064694903547723136 -0.38059021958606692 0 0.016784443680880379 -0.36713146693108112 0 0.03621734991660093 -0.31670946998547028 0 0.020048637459846991 -0.32439583124448262 0 0.029165048793799431 -0.30349547286963757 0 0.034832013842728909 -0.33032259781876938 0 0.03621734991660093 -0.31670946998547028 0 0.020048637459846991 -0.32439583124448262 0 0.020048637459846991 -0.32439583124448262 0 0.0094652366165251054 -0.31053241408104548 0 0.029165048793799431 -0.30349547286963757 0 0.034832013842728909 -0.33032259781876938 0 0.020048637459846991 -0.32439583124448262 0 0.02157140493389462 -0.34290942069105018 0 -0.0038616663111063101 -0.33241552487502413 0 0.020048637459846991 -0.32439583124448262 0 0.02157140493389462 -0.34290942069105018 0 -0.0038616663111063101 -0.33241552487502413 0 0.020048637459846991 -0.32439583124448262 0 0.0094652366165251054 -0.31053241408104548 0 -0.01007927323019326 -0.3103345258507364 0 0.0094652366165251054 -0.31053241408104548 0 0.0017563221397047381 -0.2997067901486577 0 0.0094652366165251054 -0.31053241408104548 0 0.0017563221397047381 -0.2997067901486577 0 0.017453688627786131 -0.29322190620108468 0 0.0017563221397047381 -0.2997067901486577 0 0.0066437179820165657 -0.2861171845936395 0 0.017453688627786131 -0.29322190620108468 0 -0.0080748459131490501 -0.2914060437848453 0 0.0017563221397047381 -0.2997067901486577 0 0.0066437179820165657 -0.2861171845936395 0 0.0066437179820165657 -0.2861171845936395 0 0.017453688627786131 -0.29322190620108468 0 0.01908241754038794 -0.28073467218482329 0 0.017453688627786131 -0.29322190620108468 0 0.029398966714908509 -0.28692964748338379 0 0.029165048793799431 -0.30349547286963757 0 0.017453688627786131 -0.29322190620108468 0 0.029398966714908509 -0.28692964748338379 0 0.01908241754038794 -0.28073467218482329 0 0.0094652366165251054 -0.31053241408104548 0 0.017453688627786131 -0.29322190620108468 0 0.029165048793799431 -0.30349547286963757 0 0.03621734991660093 -0.31670946998547028 0 0.029165048793799431 -0.30349547286963757 0 0.048768037075517537 -0.30442990221103089 0 0.029165048793799431 -0.30349547286963757 0 0.043029943860180789 -0.28970337243015992 0 0.048768037075517537 -0.30442990221103089 0 0.029398966714908509 -0.28692964748338379 0 0.029165048793799431 -0.30349547286963757 0 0.043029943860180789 -0.28970337243015992 0 0.029398966714908509 -0.28692964748338379 0 0.043029943860180789 -0.28970337243015992 0 0.038396769586432553 -0.27977596087564799 0 0.043029943860180789 -0.28970337243015992 0 0.051749435803858171 -0.27840569125857739 0 0.038396769586432553 -0.27977596087564799 0 0.043029943860180789 -0.28970337243015992 0 0.059449054433483903 -0.28956707473318272 0 0.051749435803858171 -0.27840569125857739 0 0.043029943860180789 -0.28970337243015992 0 0.059449054433483903 -0.28956707473318272 0 0.048768037075517537 -0.30442990221103089 0 0.069967983226982527 -0.30495776272600778 0 0.059449054433483903 -0.28956707473318272 0 0.048768037075517537 -0.30442990221103089 0 0.069967983226982527 -0.30495776272600778 0 0.053863538987460123 -0.3232816795844588 0 0.048768037075517537 -0.30442990221103089 0 0.053380735395516472 -0.25867595766617779 0 0.04428054005230446 -0.26275141268032309 0 0.045372505498807933 -0.25408090721008542 0 0.053380735395516472 -0.25867595766617779 0 0.053158010572478251 -0.26777612517812432 0 0.04428054005230446 -0.26275141268032309 0 0.053380735395516472 -0.25867595766617779 0 0.045372505498807933 -0.25408090721008542 0 0.05268811686830014 -0.24901610311096159 0 0.053380735395516472 -0.25867595766617779 0 0.061490933840310687 -0.25382890142296882 0 0.05268811686830014 -0.24901610311096159 0 0.053380735395516472 -0.25867595766617779 0 0.060614126731859473 -0.2624009925450973 0 0.053158010572478251 -0.26777612517812432 0 0.053380735395516472 -0.25867595766617779 0 0.061490933840310687 -0.25382890142296882 0 0.060614126731859473 -0.2624009925450973 0 0.0646939085167762 -0.2722383315448984 0 0.060614126731859473 -0.2624009925450973 0 0.053158010572478251 -0.26777612517812432 0 0.0646939085167762 -0.2722383315448984 0 0.059449054433483903 -0.28956707473318272 0 0.051749435803858171 -0.27840569125857739 0 0.0646939085167762 -0.2722383315448984 0 0.051749435803858171 -0.27840569125857739 0 0.053158010572478251 -0.26777612517812432 0 0.053158010572478251 -0.26777612517812432 0 0.044229316934554799 -0.27218436537367241 0 0.04428054005230446 -0.26275141268032309 0 0.051749435803858171 -0.27840569125857739 0 0.053158010572478251 -0.26777612517812432 0 0.044229316934554799 -0.27218436537367241 0 0.044229316934554799 -0.27218436537367241 0 0.031885251388666561 -0.26470215361104171 0 0.04428054005230446 -0.26275141268032309 0 0.051749435803858171 -0.27840569125857739 0 0.044229316934554799 -0.27218436537367241 0 0.038396769586432553 -0.27977596087564799 0 0.044229316934554799 -0.27218436537367241 0 0.038396769586432553 -0.27977596087564799 0 0.029696712261103771 -0.27487286106778819 0 0.029398966714908509 -0.28692964748338379 0 0.038396769586432553 -0.27977596087564799 0 0.029696712261103771 -0.27487286106778819 0 0.044229316934554799 -0.27218436537367241 0 0.031885251388666561 -0.26470215361104171 0 0.029696712261103771 -0.27487286106778819 0 0.037315510146954597 -0.25849363249326118 0 0.031885251388666561 -0.26470215361104171 0 0.04428054005230446 -0.26275141268032309 0 0.037315510146954597 -0.25849363249326118 0 0.031885251388666561 -0.26470215361104171 0 0.03069464768829987 -0.25176037071845259 0 0.037315510146954597 -0.25849363249326118 0 0.04428054005230446 -0.26275141268032309 0 0.045372505498807933 -0.25408090721008542 0 0.045372505498807933 -0.25408090721008542 0 0.03069464768829987 -0.25176037071845259 0 0.042588116356466379 -0.2448823624008481 0 0.037315510146954597 -0.25849363249326118 0 0.045372505498807933 -0.25408090721008542 0 0.03069464768829987 -0.25176037071845259 0 0.031885251388666561 -0.26470215361104171 0 0.021199614426200629 -0.26114166245967918 0 0.019908913466960752 -0.27058631964059482 0 0.031885251388666561 -0.26470215361104171 0 0.03069464768829987 -0.25176037071845259 0 0.021199614426200629 -0.26114166245967918 0 0.03069464768829987 -0.25176037071845259 0 0.021199614426200629 -0.26114166245967918 0 0.016145176335298529 -0.25210595968411048 0 0.029398966714908509 -0.28692964748338379 0 0.029696712261103771 -0.27487286106778819 0 0.01908241754038794 -0.28073467218482329 0 0.031885251388666561 -0.26470215361104171 0 0.029696712261103771 -0.27487286106778819 0 0.019908913466960752 -0.27058631964059482 0 0.019908913466960752 -0.27058631964059482 0 0.01908241754038794 -0.28073467218482329 0 0.01128192931255503 -0.27464126756021451 0 0.029696712261103771 -0.27487286106778819 0 0.019908913466960752 -0.27058631964059482 0 0.01908241754038794 -0.28073467218482329 0 -0.01145854626600548 -0.26602311564559261 0 0.01128192931255503 -0.27464126756021451 0 0.0057158633005241696 -0.26337829885565528 0 0.0066437179820165657 -0.2861171845936395 0 0.01908241754038794 -0.28073467218482329 0 0.01128192931255503 -0.27464126756021451 0 0.019908913466960752 -0.27058631964059482 0 0.01128192931255503 -0.27464126756021451 0 0.0057158633005241696 -0.26337829885565528 0 -0.002848760243290064 -0.27761611820401882 0 0.0066437179820165657 -0.2861171845936395 0 0.01128192931255503 -0.27464126756021451 0 0.016145176335298529 -0.25210595968411048 0 0.0057158633005241696 -0.26337829885565528 0 0.0054759062840018038 -0.25064707341720888 0 0.021199614426200629 -0.26114166245967918 0 0.019908913466960752 -0.27058631964059482 0 0.0057158633005241696 -0.26337829885565528 0 0.021199614426200629 -0.26114166245967918 0 0.016145176335298529 -0.25210595968411048 0 0.0057158633005241696 -0.26337829885565528 0 -0.0009620894167222515 -0.25496392916579452 0 0.0057158633005241696 -0.26337829885565528 0 0.0054759062840018038 -0.25064707341720888 0 -0.0009620894167222515 -0.25496392916579452 0 -0.0029313858115674811 -0.24854412401401971 0 0.0054759062840018038 -0.25064707341720888 0 0.0054759062840018038 -0.25064707341720888 0 0.0026199421412959989 -0.2430643023623929 0 0.011589873569895199 -0.24127835128668559 0 -0.0029313858115674811 -0.24854412401401971 0 0.0054759062840018038 -0.25064707341720888 0 0.0026199421412959989 -0.2430643023623929 0 0.016145176335298529 -0.25210595968411048 0 0.0054759062840018038 -0.25064707341720888 0 0.011589873569895199 -0.24127835128668559 0 0.011589873569895199 -0.24127835128668559 0 0.010668172172219499 -0.2272828987723072 0 0.020574075722817331 -0.2351284197632682 0 0.0026199421412959989 -0.2430643023623929 0 0.011589873569895199 -0.24127835128668559 0 0.0017465435191736189 -0.23378549097037141 0 -0.00080535468136348092 -0.21995366459000901 0 0.010668172172219499 -0.2272828987723072 0 0.01016515501406726 -0.20926501301563591 0 -0.00080535468136348092 -0.21995366459000901 0 0.0017465435191736189 -0.23378549097037141 0 0.010668172172219499 -0.2272828987723072 0 0.010668172172219499 -0.2272828987723072 0 0.02170661161633574 -0.22145314359659171 0 0.01016515501406726 -0.20926501301563591 0 0.011589873569895199 -0.24127835128668559 0 0.0017465435191736189 -0.23378549097037141 0 0.010668172172219499 -0.2272828987723072 0 0.010668172172219499 -0.2272828987723072 0 0.02170661161633574 -0.22145314359659171 0 0.020574075722817331 -0.2351284197632682 0 0.02170661161633574 -0.22145314359659171 0 0.02866695829179056 -0.22960637228307629 0 0.036392787169896093 -0.22322562645731159 0 0.02170661161633574 -0.22145314359659171 0 0.02866695829179056 -0.22960637228307629 0 0.020574075722817331 -0.2351284197632682 0 0.02866695829179056 -0.22960637228307629 0 0.020574075722817331 -0.2351284197632682 0 0.032071787069821417 -0.24054619649286721 0 0.022195152742869501 -0.2444300013669817 0 0.020574075722817331 -0.2351284197632682 0 0.032071787069821417 -0.24054619649286721 0 0.03069464768829987 -0.25176037071845259 0 0.022195152742869501 -0.2444300013669817 0 0.032071787069821417 -0.24054619649286721 0 0.03069464768829987 -0.25176037071845259 0 0.016145176335298529 -0.25210595968411048 0 0.022195152742869501 -0.2444300013669817 0 0.016145176335298529 -0.25210595968411048 0 0.011589873569895199 -0.24127835128668559 0 0.022195152742869501 -0.2444300013669817 0 0.011589873569895199 -0.24127835128668559 0 0.022195152742869501 -0.2444300013669817 0 0.020574075722817331 -0.2351284197632682 0 -0.003739977245034012 -0.19168309442994089 0 0.010514116253606281 -0.1925853606064957 0 0.01016515501406726 -0.20926501301563591 0 0.010514116253606281 -0.1925853606064957 0 0.01016515501406726 -0.20926501301563591 0 0.018596641755985681 -0.20049862993462389 0 0.02170661161633574 -0.22145314359659171 0 0.01016515501406726 -0.20926501301563591 0 0.028304225500431591 -0.20785134554231141 0 0.01016515501406726 -0.20926501301563591 0 0.028304225500431591 -0.20785134554231141 0 0.018596641755985681 -0.20049862993462389 0 0.02170661161633574 -0.22145314359659171 0 0.028304225500431591 -0.20785134554231141 0 0.036392787169896093 -0.22322562645731159 0 0.028304225500431591 -0.20785134554231141 0 0.018596641755985681 -0.20049862993462389 0 0.02540307025583758 -0.19229280057405279 0 0.010514116253606281 -0.1925853606064957 0 0.018596641755985681 -0.20049862993462389 0 0.02540307025583758 -0.19229280057405279 0 0.010514116253606281 -0.1925853606064957 0 0.02540307025583758 -0.19229280057405279 0 0.015764016274472759 -0.1812646672695073 0 0.02540307025583758 -0.19229280057405279 0 0.041440672425083092 -0.19607701236864419 0 0.030421272951226121 -0.1778391783376792 0 0.028304225500431591 -0.20785134554231141 0 0.02540307025583758 -0.19229280057405279 0 0.041440672425083092 -0.19607701236864419 0 0.041440672425083092 -0.19607701236864419 0 0.042310424588804782 -0.2140630995529598 0 0.055497750511994078 -0.2086068857692274 0 0.028304225500431591 -0.20785134554231141 0 0.041440672425083092 -0.19607701236864419 0 0.042310424588804782 -0.2140630995529598 0 0.028304225500431591 -0.20785134554231141 0 0.042310424588804782 -0.2140630995529598 0 0.036392787169896093 -0.22322562645731159 0 0.042310424588804782 -0.2140630995529598 0 0.055497750511994078 -0.2086068857692274 0 0.052955454276687589 -0.2198291654371925 0 0.062338921595789062 -0.21792006704763969 0 0.055497750511994078 -0.2086068857692274 0 0.052955454276687589 -0.2198291654371925 0 0.062338921595789062 -0.21792006704763969 0 0.055497750511994078 -0.2086068857692274 0 0.067863046951983474 -0.20503048868511209 0 0.055497750511994078 -0.2086068857692274 0 0.056257937900538298 -0.19577788601322099 0 0.067863046951983474 -0.20503048868511209 0 0.041440672425083092 -0.19607701236864419 0 0.056257937900538298 -0.19577788601322099 0 0.051449240160577621 -0.1762857105508405 0 0.041440672425083092 -0.19607701236864419 0 0.055497750511994078 -0.2086068857692274 0 0.056257937900538298 -0.19577788601322099 0 0.040491861427302538 -0.2355872617630255 0 0.042588116356466379 -0.2448823624008481 0 0.052307832003780613 -0.23884346229351339 0 0.040491861427302538 -0.2355872617630255 0 0.045866106706223042 -0.22907627795895011 0 0.052307832003780613 -0.23884346229351339 0 0.03069464768829987 -0.25176037071845259 0 0.042588116356466379 -0.2448823624008481 0 0.032071787069821417 -0.24054619649286721 0 0.040491861427302538 -0.2355872617630255 0 0.042588116356466379 -0.2448823624008481 0 0.032071787069821417 -0.24054619649286721 0 0.02866695829179056 -0.22960637228307629 0 0.040491861427302538 -0.2355872617630255 0 0.032071787069821417 -0.24054619649286721 0 0.02866695829179056 -0.22960637228307629 0 0.040491861427302538 -0.2355872617630255 0 0.036392787169896093 -0.22322562645731159 0 0.042310424588804782 -0.2140630995529598 0 0.036392787169896093 -0.22322562645731159 0 0.045866106706223042 -0.22907627795895011 0 0.040491861427302538 -0.2355872617630255 0 0.036392787169896093 -0.22322562645731159 0 0.045866106706223042 -0.22907627795895011 0 0.045866106706223042 -0.22907627795895011 0 0.058764067980626958 -0.22947949685718549 0 0.052307832003780613 -0.23884346229351339 0 0.045866106706223042 -0.22907627795895011 0 0.052955454276687589 -0.2198291654371925 0 0.058764067980626958 -0.22947949685718549 0 0.042310424588804782 -0.2140630995529598 0 0.045866106706223042 -0.22907627795895011 0 0.052955454276687589 -0.2198291654371925 0 0.062338921595789062 -0.21792006704763969 0 0.058764067980626958 -0.22947949685718549 0 0.065719467571416057 -0.22489822263154319 0 0.062338921595789062 -0.21792006704763969 0 0.052955454276687589 -0.2198291654371925 0 0.058764067980626958 -0.22947949685718549 0 0.058764067980626958 -0.22947949685718549 0 0.062159259289524899 -0.2368834247622158 0 0.052307832003780613 -0.23884346229351339 0 0.062159259289524899 -0.2368834247622158 0 0.052307832003780613 -0.23884346229351339 0 0.061229972926465738 -0.2445427902389527 0 0.045372505498807933 -0.25408090721008542 0 0.042588116356466379 -0.2448823624008481 0 0.05268811686830014 -0.24901610311096159 0 0.042588116356466379 -0.2448823624008481 0 0.052307832003780613 -0.23884346229351339 0 0.05268811686830014 -0.24901610311096159 0 0.061490933840310687 -0.25382890142296882 0 0.05268811686830014 -0.24901610311096159 0 0.061229972926465738 -0.2445427902389527 0 0.052307832003780613 -0.23884346229351339 0 0.05268811686830014 -0.24901610311096159 0 0.061229972926465738 -0.2445427902389527 0 0.061490933840310687 -0.25382890142296882 0 0.061229972926465738 -0.2445427902389527 0 0.070069103552599196 -0.24823964670048029 0 0.061229972926465738 -0.2445427902389527 0 0.070069103552599196 -0.24823964670048029 0 0.069856411684105391 -0.23913895996007839 0 0.062159259289524899 -0.2368834247622158 0 0.061229972926465738 -0.2445427902389527 0 0.069856411684105391 -0.23913895996007839 0 0.062159259289524899 -0.2368834247622158 0 0.069856411684105391 -0.23913895996007839 0 0.067142239376285745 -0.23139328163069281 0 0.069856411684105391 -0.23913895996007839 0 0.077788170153509889 -0.24196191377257101 0 0.076767606518392539 -0.23187249677345001 0 0.080071368274292315 -0.25145738896057979 0 0.070069103552599196 -0.24823964670048029 0 0.077788170153509889 -0.24196191377257101 0 0.070069103552599196 -0.24823964670048029 0 0.069856411684105391 -0.23913895996007839 0 0.077788170153509889 -0.24196191377257101 0 0.080071368274292315 -0.25145738896057979 0 0.090706365013478091 -0.25245448435890872 0 0.085906732882507178 -0.24385162082211831 0 0.080071368274292315 -0.25145738896057979 0 0.077788170153509889 -0.24196191377257101 0 0.085906732882507178 -0.24385162082211831 0 0.077788170153509889 -0.24196191377257101 0 0.085906732882507178 -0.24385162082211831 0 0.083256636250354649 -0.23616880796388259 0 0.077788170153509889 -0.24196191377257101 0 0.083256636250354649 -0.23616880796388259 0 0.076767606518392539 -0.23187249677345001 0 0.085906732882507178 -0.24385162082211831 0 0.089657973372422345 -0.23730775202069579 0 0.094006026236525903 -0.2441335510050745 0 0.085906732882507178 -0.24385162082211831 0 0.083256636250354649 -0.23616880796388259 0 0.089657973372422345 -0.23730775202069579 0 0.083256636250354649 -0.23616880796388259 0 0.089657973372422345 -0.23730775202069579 0 0.089763789457938253 -0.2306791647953326 0 0.089657973372422345 -0.23730775202069579 0 0.089763789457938253 -0.2306791647953326 0 0.096012267649498176 -0.23702186761809721 0 0.089657973372422345 -0.23730775202069579 0 0.094006026236525903 -0.2441335510050745 0 0.096012267649498176 -0.23702186761809721 0 0.090706365013478091 -0.25245448435890872 0 0.085906732882507178 -0.24385162082211831 0 0.094006026236525903 -0.2441335510050745 0 0.086446736705125371 -0.22420087797706609 0 0.091303359373345411 -0.22339335178318359 0 0.089763789457938253 -0.2306791647953326 0 0.086446736705125371 -0.22420087797706609 0 0.091303359373345411 -0.22339335178318359 0 0.086853981468707001 -0.2185547472363609 0 0.091303359373345411 -0.22339335178318359 0 0.086853981468707001 -0.2185547472363609 0 0.09077468002378962 -0.21857675351640271 0 0.091303359373345411 -0.22339335178318359 0 0.09077468002378962 -0.21857675351640271 0 0.094530837428433365 -0.22086489816084981 0 0.091303359373345411 -0.22339335178318359 0 0.089763789457938253 -0.2306791647953326 0 0.098670227838192195 -0.22970514568366851 0 0.086446736705125371 -0.22420087797706609 0 0.089763789457938253 -0.2306791647953326 0 0.083020570332336119 -0.22791650227557511 0 0.083256636250354649 -0.23616880796388259 0 0.083020570332336119 -0.22791650227557511 0 0.076767606518392539 -0.23187249677345001 0 0.083256636250354649 -0.23616880796388259 0 0.089763789457938253 -0.2306791647953326 0 0.083020570332336119 -0.22791650227557511 0 0.083020570332336119 -0.22791650227557511 0 0.077930889523722374 -0.22519622511208121 0 0.076767606518392539 -0.23187249677345001 0 0.083020570332336119 -0.22791650227557511 0 0.081291982893300085 -0.22046062379487821 0 0.077930889523722374 -0.22519622511208121 0 0.086446736705125371 -0.22420087797706609 0 0.083020570332336119 -0.22791650227557511 0 0.081291982893300085 -0.22046062379487821 0 0.086446736705125371 -0.22420087797706609 0 0.081291982893300085 -0.22046062379487821 0 0.086853981468707001 -0.2185547472363609 0 0.081291982893300085 -0.22046062379487821 0 0.077930889523722374 -0.22519622511208121 0 0.073706539318973169 -0.21796036257100029 0 0.072234091795087663 -0.22574485878751241 0 0.065719467571416057 -0.22489822263154319 0 0.073706539318973169 -0.21796036257100029 0 0.077930889523722374 -0.22519622511208121 0 0.072234091795087663 -0.22574485878751241 0 0.073706539318973169 -0.21796036257100029 0 0.069856411684105391 -0.23913895996007839 0 0.076767606518392539 -0.23187249677345001 0 0.067142239376285745 -0.23139328163069281 0 0.072234091795087663 -0.22574485878751241 0 0.076767606518392539 -0.23187249677345001 0 0.067142239376285745 -0.23139328163069281 0 0.077930889523722374 -0.22519622511208121 0 0.072234091795087663 -0.22574485878751241 0 0.076767606518392539 -0.23187249677345001 0 0.058764067980626958 -0.22947949685718549 0 0.062159259289524899 -0.2368834247622158 0 0.067142239376285745 -0.23139328163069281 0 0.058764067980626958 -0.22947949685718549 0 0.067142239376285745 -0.23139328163069281 0 0.065719467571416057 -0.22489822263154319 0 0.072234091795087663 -0.22574485878751241 0 0.067142239376285745 -0.23139328163069281 0 0.065719467571416057 -0.22489822263154319 0 0.062338921595789062 -0.21792006704763969 0 0.065719467571416057 -0.22489822263154319 0 0.073706539318973169 -0.21796036257100029 0 0.062338921595789062 -0.21792006704763969 0 0.067863046951983474 -0.20503048868511209 0 0.073706539318973169 -0.21796036257100029 0 0.067863046951983474 -0.20503048868511209 0 0.073706539318973169 -0.21796036257100029 0 0.079094442607528917 -0.20913243433380641 0 0.067863046951983474 -0.20503048868511209 0 0.081482512553192915 -0.1953056794767786 0 0.079094442607528917 -0.20913243433380641 0 0.056257937900538298 -0.19577788601322099 0 0.067863046951983474 -0.20503048868511209 0 0.066040058368007956 -0.18964665730407451 0 0.067863046951983474 -0.20503048868511209 0 0.066040058368007956 -0.18964665730407451 0 0.081482512553192915 -0.1953056794767786 0 0.081482512553192915 -0.1953056794767786 0 0.095454742848087734 -0.19451486061966669 0 0.093505174579280592 -0.1731787749771625 0 0.081482512553192915 -0.1953056794767786 0 0.08833530696517819 -0.21036332105093219 0 0.095454742848087734 -0.19451486061966669 0 0.08833530696517819 -0.21036332105093219 0 0.097404311116896569 -0.21585094626217091 0 0.095454742848087734 -0.19451486061966669 0 0.081291982893300085 -0.22046062379487821 0 0.073706539318973169 -0.21796036257100029 0 0.082946926161669862 -0.2149195339015407 0 0.082946926161669862 -0.2149195339015407 0 0.079094442607528917 -0.20913243433380641 0 0.08833530696517819 -0.21036332105093219 0 0.073706539318973169 -0.21796036257100029 0 0.082946926161669862 -0.2149195339015407 0 0.079094442607528917 -0.20913243433380641 0 0.081291982893300085 -0.22046062379487821 0 0.082946926161669862 -0.2149195339015407 0 0.086853981468707001 -0.2185547472363609 0 0.081482512553192915 -0.1953056794767786 0 0.079094442607528917 -0.20913243433380641 0 0.08833530696517819 -0.21036332105093219 0 0.082946926161669862 -0.2149195339015407 0 0.08833530696517819 -0.21036332105093219 0 0.086853981468707001 -0.2185547472363609 0 0.08833530696517819 -0.21036332105093219 0 0.086853981468707001 -0.2185547472363609 0 0.09077468002378962 -0.21857675351640271 0 0.08833530696517819 -0.21036332105093219 0 0.09077468002378962 -0.21857675351640271 0 0.092213447725184278 -0.21529843562297729 0 0.08833530696517819 -0.21036332105093219 0 0.092213447725184278 -0.21529843562297729 0 0.097404311116896569 -0.21585094626217091 0 0.09077468002378962 -0.21857675351640271 0 0.094501608789943028 -0.21679829355882299 0 0.094530837428433365 -0.22086489816084981 0 0.09077468002378962 -0.21857675351640271 0 0.092213447725184278 -0.21529843562297729 0 0.094501608789943028 -0.21679829355882299 0 0.094501608789943028 -0.21679829355882299 0 0.097404311116896569 -0.21585094626217091 0 0.094530837428433365 -0.22086489816084981 0 0.092213447725184278 -0.21529843562297729 0 0.094501608789943028 -0.21679829355882299 0 0.097404311116896569 -0.21585094626217091 0 0.097404311116896569 -0.21585094626217091 0 0.095454742848087734 -0.19451486061966669 0 0.097404311116896569 -0.21585094626217091 0 0.1059898830346106 -0.20430933332548051 0 0.095454742848087734 -0.19451486061966669 0 0.097404311116896569 -0.21585094626217091 0 0.1089347031997706 -0.21297733173581901 0 0.1146171121197104 -0.21980430615730401 0 0.097404311116896569 -0.21585094626217091 0 0.1059898830346106 -0.20430933332548051 0 0.1089347031997706 -0.21297733173581901 0 0.095454742848087734 -0.19451486061966669 0 0.1128143282819509 -0.19216489626002589 0 0.10772522460311169 -0.17968171223372481 0 0.1059898830346106 -0.20430933332548051 0 0.095454742848087734 -0.19451486061966669 0 0.1128143282819509 -0.19216489626002589 0 0.1128143282819509 -0.19216489626002589 0 0.1237689835273371 -0.19605207676116951 0 0.1178461100078927 -0.20838697738218431 0 0.1059898830346106 -0.20430933332548051 0 0.1128143282819509 -0.19216489626002589 0 0.1178461100078927 -0.20838697738218431 0 0.1128143282819509 -0.19216489626002589 0 0.1237689835273371 -0.19605207676116951 0 0.1232013989280239 -0.1819146573535104 0 0.1089347031997706 -0.21297733173581901 0 0.1178461100078927 -0.20838697738218431 0 0.1146171121197104 -0.21980430615730401 0 0.1059898830346106 -0.20430933332548051 0 0.1089347031997706 -0.21297733173581901 0 0.1178461100078927 -0.20838697738218431 0 0.1178461100078927 -0.20838697738218431 0 0.1146171121197104 -0.21980430615730401 0 0.12895394136930069 -0.22163642029703709 0 0.1146171121197104 -0.21980430615730401 0 0.12018370186474731 -0.23305432747703519 0 0.12895394136930069 -0.22163642029703709 0 0.097404311116896569 -0.21585094626217091 0 0.1146171121197104 -0.21980430615730401 0 0.12018370186474731 -0.23305432747703519 0 0.1212054647883809 -0.25073068226796852 0 0.12018370186474731 -0.23305432747703519 0 0.1059281586602189 -0.23527494890652931 0 0.13217397618885759 -0.25462043987800831 0 0.1212054647883809 -0.25073068226796852 0 0.12018370186474731 -0.23305432747703519 0 0.1212054647883809 -0.25073068226796852 0 0.1059281586602189 -0.23527494890652931 0 0.1078238037173969 -0.24832262031645649 0 0.1212054647883809 -0.25073068226796852 0 0.1059281586602189 -0.23527494890652931 0 0.099550463170151926 -0.25262580003909579 0 0.1078238037173969 -0.24832262031645649 0 0.10103467245524091 -0.24298905409433241 0 0.1059281586602189 -0.23527494890652931 0 0.1078238037173969 -0.24832262031645649 0 0.10103467245524091 -0.24298905409433241 0 0.099550463170151926 -0.25262580003909579 0 0.10103467245524091 -0.24298905409433241 0 0.094006026236525903 -0.2441335510050745 0 0.090706365013478091 -0.25245448435890872 0 0.099550463170151926 -0.25262580003909579 0 0.094006026236525903 -0.2441335510050745 0 0.1059281586602189 -0.23527494890652931 0 0.10103467245524091 -0.24298905409433241 0 0.096012267649498176 -0.23702186761809721 0 0.10103467245524091 -0.24298905409433241 0 0.094006026236525903 -0.2441335510050745 0 0.096012267649498176 -0.23702186761809721 0 0.1059281586602189 -0.23527494890652931 0 0.096012267649498176 -0.23702186761809721 0 0.098670227838192195 -0.22970514568366851 0 0.089763789457938253 -0.2306791647953326 0 0.096012267649498176 -0.23702186761809721 0 0.098670227838192195 -0.22970514568366851 0 0.097404311116896569 -0.21585094626217091 0 0.12018370186474731 -0.23305432747703519 0 0.097404311116896569 -0.21585094626217091 0 0.12018370186474731 -0.23305432747703519 0 0.1059281586602189 -0.23527494890652931 0 0.097404311116896569 -0.21585094626217091 0 0.1059281586602189 -0.23527494890652931 0 0.098670227838192195 -0.22970514568366851 0 0.091303359373345411 -0.22339335178318359 0 0.098670227838192195 -0.22970514568366851 0 0.094530837428433365 -0.22086489816084981 0 0.097404311116896569 -0.21585094626217091 0 0.098670227838192195 -0.22970514568366851 0 0.094530837428433365 -0.22086489816084981 0 0.097404311116896569 -0.21585094626217091 0 0.098670227838192195 -0.22970514568366851 0 0.1071373084330472 -0.14482826815459701 0 0.1035248479174861 -0.15311019857333261 0 0.098760878024456711 -0.14050656481393209 0 0.1071373084330472 -0.14482826815459701 0 0.1035248479174861 -0.15311019857333261 0 0.1121477659277255 -0.1503271840913511 0 0.1035248479174861 -0.15311019857333261 0 0.098760878024456711 -0.14050656481393209 0 0.091560400862706559 -0.15189516094014111 0 0.098760878024456711 -0.14050656481393209 0 0.099399694252258627 -0.1328638184600745 0 0.089615627146132512 -0.13061154690311971 0 0.099399694252258627 -0.1328638184600745 0 0.099525338641528904 -0.12611341339503321 0 0.089615627146132512 -0.13061154690311971 0 0.099525338641528904 -0.12611341339503321 0 0.1096969331969164 -0.13422374872821319 0 0.1121708616464093 -0.1216807098986791 0 0.099399694252258627 -0.1328638184600745 0 0.099525338641528904 -0.12611341339503321 0 0.1096969331969164 -0.13422374872821319 0 0.098760878024456711 -0.14050656481393209 0 0.099399694252258627 -0.1328638184600745 0 0.1096969331969164 -0.13422374872821319 0 0.1071373084330472 -0.14482826815459701 0 0.098760878024456711 -0.14050656481393209 0 0.1096969331969164 -0.13422374872821319 0 0.1096969331969164 -0.13422374872821319 0 0.1155243526086871 -0.14484298486410191 0 0.12532898621889721 -0.13663811256420449 0 0.1096969331969164 -0.13422374872821319 0 0.11997683785091839 -0.1276371159963853 0 0.12532898621889721 -0.13663811256420449 0 0.1096969331969164 -0.13422374872821319 0 0.11997683785091839 -0.1276371159963853 0 0.1121708616464093 -0.1216807098986791 0 0.1217036921304827 -0.1482443959076799 0 0.1155243526086871 -0.14484298486410191 0 0.12532898621889721 -0.13663811256420449 0 0.1217036921304827 -0.1482443959076799 0 0.1155243526086871 -0.14484298486410191 0 0.1179114041550178 -0.15136128022523329 0 0.1071373084330472 -0.14482826815459701 0 0.1155243526086871 -0.14484298486410191 0 0.1121477659277255 -0.1503271840913511 0 0.1071373084330472 -0.14482826815459701 0 0.1096969331969164 -0.13422374872821319 0 0.1155243526086871 -0.14484298486410191 0 0.1035248479174861 -0.15311019857333261 0 0.1121477659277255 -0.1503271840913511 0 0.1169082366172023 -0.15609331882735419 0 0.1155243526086871 -0.14484298486410191 0 0.1121477659277255 -0.1503271840913511 0 0.1179114041550178 -0.15136128022523329 0 0.1121477659277255 -0.1503271840913511 0 0.1169082366172023 -0.15609331882735419 0 0.1179114041550178 -0.15136128022523329 0 0.1169082366172023 -0.15609331882735419 0 0.1179114041550178 -0.15136128022523329 0 0.12324902196630889 -0.15465793599018671 0 0.1217036921304827 -0.1482443959076799 0 0.1179114041550178 -0.15136128022523329 0 0.12324902196630889 -0.15465793599018671 0 0.1217036921304827 -0.1482443959076799 0 0.12324902196630889 -0.15465793599018671 0 0.12831016946945831 -0.1492440347933528 0 0.1035248479174861 -0.15311019857333261 0 0.12443417021765769 -0.1709717485187108 0 0.1227471198665283 -0.15880086614903269 0 0.12098675462827781 -0.16200852072179159 0 0.1290045142054978 -0.1612372837293575 0 0.1035248479174861 -0.15311019857333261 0 0.12443417021765769 -0.1709717485187108 0 0.12083528946942131 -0.1711597280255607 0 0.1035248479174861 -0.15311019857333261 0 0.12098675462827781 -0.16200852072179159 0 0.12443417021765769 -0.1709717485187108 0 0.1035248479174861 -0.15311019857333261 0 0.1169082366172023 -0.15609331882735419 0 0.12098675462827781 -0.16200852072179159 0 0.1169082366172023 -0.15609331882735419 0 0.1227471198665283 -0.15880086614903269 0 0.12098675462827781 -0.16200852072179159 0 0.1169082366172023 -0.15609331882735419 0 0.12324902196630889 -0.15465793599018671 0 0.1227471198665283 -0.15880086614903269 0 0.12098675462827781 -0.16200852072179159 0 0.12443417021765769 -0.1709717485187108 0 0.12715697753007521 -0.16591248018761531 0 0.1128143282819509 -0.19216489626002589 0 0.1232013989280239 -0.1819146573535104 0 0.1157139550245927 -0.18029465614444529 0 0.12083528946942131 -0.1711597280255607 0 0.1232013989280239 -0.1819146573535104 0 0.1157139550245927 -0.18029465614444529 0 0.12443417021765769 -0.1709717485187108 0 0.12083528946942131 -0.1711597280255607 0 0.1232013989280239 -0.1819146573535104 0 0.12083528946942131 -0.1711597280255607 0 0.1157139550245927 -0.18029465614444529 0 0.10772522460311169 -0.17968171223372481 0 0.1128143282819509 -0.19216489626002589 0 0.1157139550245927 -0.18029465614444529 0 0.10772522460311169 -0.17968171223372481 0 0.095454742848087734 -0.19451486061966669 0 0.10772522460311169 -0.17968171223372481 0 0.093505174579280592 -0.1731787749771625 0 0.12083528946942131 -0.1711597280255607 0 0.093505174579280592 -0.1731787749771625 0 0.095454742848087734 -0.19451486061966669 0 0.093505174579280592 -0.1731787749771625 0 0.12083528946942131 -0.1711597280255607 0 0.10772522460311169 -0.17968171223372481 0 0.093505174579280592 -0.1731787749771625 0 0.1035248479174861 -0.15311019857333261 0 0.093505174579280592 -0.1731787749771625 0 0.091560400862706559 -0.15189516094014111 0 0.1035248479174861 -0.15311019857333261 0 0.12083528946942131 -0.1711597280255607 0 0.093505174579280592 -0.1731787749771625 0 0.078133883947979807 -0.15717501910519549 0 0.093505174579280592 -0.1731787749771625 0 0.091560400862706559 -0.15189516094014111 0 0.078133883947979807 -0.15717501910519549 0 0.093505174579280592 -0.1731787749771625 0 0.072477207369929117 -0.17473224276400179 0 0.093505174579280592 -0.1731787749771625 0 0.091560400862706559 -0.15189516094014111 0 0.081482512553192915 -0.1953056794767786 0 0.093505174579280592 -0.1731787749771625 0 0.072477207369929117 -0.17473224276400179 0 0.093505174579280592 -0.1731787749771625 0 0.072477207369929117 -0.17473224276400179 0 0.066040058368007956 -0.18964665730407451 0 0.072477207369929117 -0.17473224276400179 0 0.051449240160577621 -0.1762857105508405 0 0.066040058368007956 -0.18964665730407451 0 0.081482512553192915 -0.1953056794767786 0 0.072477207369929117 -0.17473224276400179 0 0.078133883947979807 -0.15717501910519549 0 0.072477207369929117 -0.17473224276400179 0 0.063878974636528515 -0.16401540189567099 0 0.072477207369929117 -0.17473224276400179 0 0.063878974636528515 -0.16401540189567099 0 0.051449240160577621 -0.1762857105508405 0 0.078133883947979807 -0.15717501910519549 0 0.063878974636528515 -0.16401540189567099 0 0.06522271263887458 -0.15305574504012881 0 0.06522271263887458 -0.15305574504012881 0 0.069316279952888193 -0.14186668388360371 0 0.075278834721760557 -0.14616760919767161 0 0.06522271263887458 -0.15305574504012881 0 0.069316279952888193 -0.14186668388360371 0 0.05757515479497001 -0.1486962131740798 0 0.069316279952888193 -0.14186668388360371 0 0.075278834721760557 -0.14616760919767161 0 0.079765110473415279 -0.13788087003968491 0 0.078133883947979807 -0.15717501910519549 0 0.06522271263887458 -0.15305574504012881 0 0.075278834721760557 -0.14616760919767161 0 0.098760878024456711 -0.14050656481393209 0 0.091560400862706559 -0.15189516094014111 0 0.089615627146132512 -0.13061154690311971 0 0.078133883947979807 -0.15717501910519549 0 0.083611330147541921 -0.14459745320402559 0 0.091560400862706559 -0.15189516094014111 0 0.091560400862706559 -0.15189516094014111 0 0.089615627146132512 -0.13061154690311971 0 0.078133883947979807 -0.15717501910519549 0 0.075278834721760557 -0.14616760919767161 0 0.083611330147541921 -0.14459745320402559 0 0.083611330147541921 -0.14459745320402559 0 0.091560400862706559 -0.15189516094014111 0 0.089615627146132512 -0.13061154690311971 0 0.075278834721760557 -0.14616760919767161 0 0.083611330147541921 -0.14459745320402559 0 0.079765110473415279 -0.13788087003968491 0 0.099525338641528904 -0.12611341339503321 0 0.089615627146132512 -0.13061154690311971 0 0.081894058627025895 -0.12584863130967919 0 0.083611330147541921 -0.14459745320402559 0 0.089615627146132512 -0.13061154690311971 0 0.079765110473415279 -0.13788087003968491 0 0.089615627146132512 -0.13061154690311971 0 0.079765110473415279 -0.13788087003968491 0 0.081894058627025895 -0.12584863130967919 0 0.081894058627025895 -0.12584863130967919 0 0.065576399090336079 -0.13067912082877309 0 0.057907204523981459 -0.13951585418161591 0 0.081894058627025895 -0.12584863130967919 0 0.057907204523981459 -0.13951585418161591 0 0.069316279952888193 -0.14186668388360371 0 0.081894058627025895 -0.12584863130967919 0 0.057907204523981459 -0.13951585418161591 0 0.081894058627025895 -0.12584863130967919 0 0.068207364780656948 -0.12563827965844471 0 0.065576399090336079 -0.13067912082877309 0 0.069316279952888193 -0.14186668388360371 0 0.079765110473415279 -0.13788087003968491 0 0.081894058627025895 -0.12584863130967919 0 0.068207364780656948 -0.12563827965844471 0 0.065576399090336079 -0.13067912082877309 0 0.054296968429680029 -0.13171371816535249 0 0.054296968429680029 -0.13171371816535249 0 0.057907204523981459 -0.13951585418161591 0 0.034849001543539322 -0.1503583031021323 0 0.054296968429680029 -0.13171371816535249 0 0.045553716665441668 -0.12681104972785159 0 0.052448498866582129 -0.1166826243517366 0 0.065576399090336079 -0.13067912082877309 0 0.054296968429680029 -0.13171371816535249 0 0.057907204523981459 -0.13951585418161591 0 0.069316279952888193 -0.14186668388360371 0 0.057907204523981459 -0.13951585418161591 0 0.05757515479497001 -0.1486962131740798 0 0.06522271263887458 -0.15305574504012881 0 0.05757515479497001 -0.1486962131740798 0 0.052111829065281459 -0.15882829201818821 0 0.046808539919221563 -0.15014413002933799 0 0.052111829065281459 -0.15882829201818821 0 0.043031393960321331 -0.1571354857308308 0 0.05757515479497001 -0.1486962131740798 0 0.046808539919221563 -0.15014413002933799 0 0.052111829065281459 -0.15882829201818821 0 0.057907204523981459 -0.13951585418161591 0 0.05757515479497001 -0.1486962131740798 0 0.046808539919221563 -0.15014413002933799 0 0.057907204523981459 -0.13951585418161591 0 0.046808539919221563 -0.15014413002933799 0 0.033920350420936912 -0.1531830770535528 0 0.057907204523981459 -0.13951585418161591 0 0.034849001543539322 -0.1503583031021323 0 0.033920350420936912 -0.1531830770535528 0 0.054296968429680029 -0.13171371816535249 0 0.034849001543539322 -0.1503583031021323 0 0.038558521200612962 -0.14006542407622449 0 0.054296968429680029 -0.13171371816535249 0 0.034849001543539322 -0.1503583031021323 0 0.057907204523981459 -0.13951585418161591 0 0.033920350420936912 -0.1531830770535528 0 0.046808539919221563 -0.15014413002933799 0 0.040219483271594643 -0.15466785876887121 0 0.033920350420936912 -0.1531830770535528 0 0.046808539919221563 -0.15014413002933799 0 0.040219483271594643 -0.15466785876887121 0 0.043031393960321331 -0.1571354857308308 0 0.040219483271594643 -0.15466785876887121 0 0.033920350420936912 -0.1531830770535528 0 0.037117648785898759 -0.15820874226176301 0 0.034849001543539322 -0.1503583031021323 0 0.031672068294339203 -0.14528428076340441 0 0.030051573782975471 -0.15027594372919439 0 0.034849001543539322 -0.1503583031021323 0 0.033920350420936912 -0.1531830770535528 0 0.030051573782975471 -0.15027594372919439 0 0.034849001543539322 -0.1503583031021323 0 0.031672068294339203 -0.14528428076340441 0 0.038558521200612962 -0.14006542407622449 0 0.031672068294339203 -0.14528428076340441 0 0.038558521200612962 -0.14006542407622449 0 0.030566093298411881 -0.13865773310914861 0 0.054296968429680029 -0.13171371816535249 0 0.038558521200612962 -0.14006542407622449 0 0.040644455285911409 -0.1338393175667463 0 0.038558521200612962 -0.14006542407622449 0 0.040644455285911409 -0.1338393175667463 0 0.030566093298411881 -0.13865773310914861 0 0.034824944079593127 -0.12500853882757099 0 0.040644455285911409 -0.1338393175667463 0 0.030566093298411881 -0.13865773310914861 0 0.034824944079593127 -0.12500853882757099 0 0.045553716665441668 -0.12681104972785159 0 0.040644455285911409 -0.1338393175667463 0 0.054296968429680029 -0.13171371816535249 0 0.045553716665441668 -0.12681104972785159 0 0.040644455285911409 -0.1338393175667463 0 0.072477207369929117 -0.17473224276400179 0 0.051449240160577621 -0.1762857105508405 0 0.056257937900538298 -0.19577788601322099 0 0.066040058368007956 -0.18964665730407451 0 0.051449240160577621 -0.1762857105508405 0 0.063878974636528515 -0.16401540189567099 0 0.051449240160577621 -0.1762857105508405 0 0.052111829065281459 -0.15882829201818821 0 0.051449240160577621 -0.1762857105508405 0 0.052111829065281459 -0.15882829201818821 0 0.040502396519655252 -0.1663673850483231 0 0.063878974636528515 -0.16401540189567099 0 0.06522271263887458 -0.15305574504012881 0 0.052111829065281459 -0.15882829201818821 0 0.043031393960321331 -0.1571354857308308 0 0.037117648785898759 -0.15820874226176301 0 0.040502396519655252 -0.1663673850483231 0 0.052111829065281459 -0.15882829201818821 0 0.043031393960321331 -0.1571354857308308 0 0.040502396519655252 -0.1663673850483231 0 0.040219483271594643 -0.15466785876887121 0 0.043031393960321331 -0.1571354857308308 0 0.037117648785898759 -0.15820874226176301 0 0.033920350420936912 -0.1531830770535528 0 0.033509818979212957 -0.15868168045615499 0 0.027465449436243041 -0.1628752445715565 0 0.037117648785898759 -0.15820874226176301 0 0.034071859908748191 -0.1623715567021686 0 0.040502396519655252 -0.1663673850483231 0 0.033920350420936912 -0.1531830770535528 0 0.037117648785898759 -0.15820874226176301 0 0.033509818979212957 -0.15868168045615499 0 0.037117648785898759 -0.15820874226176301 0 0.033509818979212957 -0.15868168045615499 0 0.034071859908748191 -0.1623715567021686 0 0.033509818979212957 -0.15868168045615499 0 0.034071859908748191 -0.1623715567021686 0 0.027465449436243041 -0.1628752445715565 0 0.031586668938662611 -0.1691709391612749 0 0.040502396519655252 -0.1663673850483231 0 0.030421272951226121 -0.1778391783376792 0 0.034071859908748191 -0.1623715567021686 0 0.031586668938662611 -0.1691709391612749 0 0.040502396519655252 -0.1663673850483231 0 0.051449240160577621 -0.1762857105508405 0 0.040502396519655252 -0.1663673850483231 0 0.030421272951226121 -0.1778391783376792 0 0.041440672425083092 -0.19607701236864419 0 0.051449240160577621 -0.1762857105508405 0 0.030421272951226121 -0.1778391783376792 0 0.051449240160577621 -0.1762857105508405 0 0.030421272951226121 -0.1778391783376792 0 0.02540307025583758 -0.19229280057405279 0 0.015764016274472759 -0.1812646672695073 0 0.030421272951226121 -0.1778391783376792 0 0.031586668938662611 -0.1691709391612749 0 0.030421272951226121 -0.1778391783376792 0 0.021575687727073561 -0.1734893605992324 0 0.015764016274472759 -0.1812646672695073 0 0.021575687727073561 -0.1734893605992324 0 0.012676990919703311 -0.16924925594887871 0 0.015764016274472759 -0.1812646672695073 0 0.030421272951226121 -0.1778391783376792 0 0.021575687727073561 -0.1734893605992324 0 0.033920350420936912 -0.1531830770535528 0 0.009933496317892726 -0.16685029992549011 0 0.02294500892830088 -0.1542832107784407 0 0.033920350420936912 -0.1531830770535528 0 0.027465449436243041 -0.1628752445715565 0 0.009933496317892726 -0.16685029992549011 0 0.019596439448784399 -0.16744493330375371 0 0.027465449436243041 -0.1628752445715565 0 0.009933496317892726 -0.16685029992549011 0 0.033920350420936912 -0.1531830770535528 0 0.009933496317892726 -0.16685029992549011 0 0.021575687727073561 -0.1734893605992324 0 0.019596439448784399 -0.16744493330375371 0 0.012676990919703311 -0.16924925594887871 0 0.021575687727073561 -0.1734893605992324 0 0.019596439448784399 -0.16744493330375371 0 0.025540403417393751 -0.1677775419388785 0 0.031586668938662611 -0.1691709391612749 0 0.021575687727073561 -0.1734893605992324 0 0.025540403417393751 -0.1677775419388785 0 0.019596439448784399 -0.16744493330375371 0 0.025540403417393751 -0.1677775419388785 0 0.027465449436243041 -0.1628752445715565 0 0.034071859908748191 -0.1623715567021686 0 0.031586668938662611 -0.1691709391612749 0 0.027465449436243041 -0.1628752445715565 0 0.031586668938662611 -0.1691709391612749 0 0.025540403417393751 -0.1677775419388785 0 0.027465449436243041 -0.1628752445715565 0 0.009933496317892726 -0.16685029992549011 0 0.01648447247354291 -0.15404273338364399 0 0.02294500892830088 -0.1542832107784407 0 0.009933496317892726 -0.16685029992549011 0 0.01648447247354291 -0.15404273338364399 0 0.0068311679390763679 -0.1533437069849535 0 0.019596439448784399 -0.16744493330375371 0 0.009933496317892726 -0.16685029992549011 0 0.012676990919703311 -0.16924925594887871 0 0.009933496317892726 -0.16685029992549011 0 0.012676990919703311 -0.16924925594887871 0 0.0034571977838801569 -0.17702496179755631 0 0.009933496317892726 -0.16685029992549011 0 0.012676990919703311 -0.16924925594887871 0 -0.0085976242789068957 -0.177408956520272 0 0.009933496317892726 -0.16685029992549011 0 -0.0085976242789068957 -0.177408956520272 0 0.009933496317892726 -0.16685029992549011 0 0.0034571977838801569 -0.17702496179755631 0 0.015764016274472759 -0.1812646672695073 0 0.012676990919703311 -0.16924925594887871 0 0.0034571977838801569 -0.17702496179755631 0 -0.003739977245034012 -0.19168309442994089 0 0.010514116253606281 -0.1925853606064957 0 0.0034571977838801569 -0.17702496179755631 0 0.010514116253606281 -0.1925853606064957 0 0.015764016274472759 -0.1812646672695073 0 0.0034571977838801569 -0.17702496179755631 0 0.02166725362828328 -0.1398342401410575 0 0.019282665512654749 -0.1297026577714144 0 0.01241268948209219 -0.14437852502616319 0 0.034824944079593127 -0.12500853882757099 0 0.019282665512654749 -0.1297026577714144 0 0.030566093298411881 -0.13865773310914861 0 0.02166725362828328 -0.1398342401410575 0 0.019282665512654749 -0.1297026577714144 0 0.030566093298411881 -0.13865773310914861 0 0.031672068294339203 -0.14528428076340441 0 0.030566093298411881 -0.13865773310914861 0 0.024335151646156381 -0.14706399980032239 0 0.02166725362828328 -0.1398342401410575 0 0.030566093298411881 -0.13865773310914861 0 0.024335151646156381 -0.14706399980032239 0 0.031672068294339203 -0.14528428076340441 0 0.024335151646156381 -0.14706399980032239 0 0.030051573782975471 -0.15027594372919439 0 0.033920350420936912 -0.1531830770535528 0 0.030051573782975471 -0.15027594372919439 0 0.02294500892830088 -0.1542832107784407 0 0.024335151646156381 -0.14706399980032239 0 0.030051573782975471 -0.15027594372919439 0 0.02294500892830088 -0.1542832107784407 0 0.024335151646156381 -0.14706399980032239 0 0.01648447247354291 -0.15404273338364399 0 0.01241268948209219 -0.14437852502616319 0 0.024335151646156381 -0.14706399980032239 0 0.01648447247354291 -0.15404273338364399 0 0.02294500892830088 -0.1542832107784407 0 0.02166725362828328 -0.1398342401410575 0 0.024335151646156381 -0.14706399980032239 0 0.01241268948209219 -0.14437852502616319 0 -0.011505986517222349 -0.14810326960451681 0 0.01241268948209219 -0.14437852502616319 0 0.0068311679390763679 -0.1533437069849535 0 -0.011505986517222349 -0.14810326960451681 0 0.009933496317892726 -0.16685029992549011 0 0.0068311679390763679 -0.1533437069849535 0 -0.011505986517222349 -0.14810326960451681 0 0.01241268948209219 -0.14437852502616319 0 0.0027021066240326768 -0.1317064378292063 0 0.01648447247354291 -0.15404273338364399 0 0.01241268948209219 -0.14437852502616319 0 0.0068311679390763679 -0.1533437069849535 0 0.019282665512654749 -0.1297026577714144 0 0.01241268948209219 -0.14437852502616319 0 0.0027021066240326768 -0.1317064378292063 0 0.019282665512654749 -0.1297026577714144 0 0.0027021066240326768 -0.1317064378292063 0 0.005085065621477718 -0.1151057880332567 0 0.019282665512654749 -0.1297026577714144 0 0.005085065621477718 -0.1151057880332567 0 0.024129304522527751 -0.1089818526354679 0 0.034824944079593127 -0.12500853882757099 0 0.019282665512654749 -0.1297026577714144 0 0.024129304522527751 -0.1089818526354679 0 0.024129304522527751 -0.1089818526354679 0 0.01380815825635252 -0.094132232187142617 0 0.031293966725895003 -0.08518965294817829 0 -0.00044729776891663488 -0.1011528385718463 0 0.005085065621477718 -0.1151057880332567 0 0.01380815825635252 -0.094132232187142617 0 0.005085065621477718 -0.1151057880332567 0 0.024129304522527751 -0.1089818526354679 0 0.01380815825635252 -0.094132232187142617 0 0.01380815825635252 -0.094132232187142617 0 0.0042106568376920582 -0.081118225430045127 0 0.020039989671696231 -0.071989185162356889 0 -0.00044729776891663488 -0.1011528385718463 0 0.01380815825635252 -0.094132232187142617 0 0.0042106568376920582 -0.081118225430045127 0 0.0042106568376920582 -0.081118225430045127 0 0.0052181775422467033 -0.064346337314722044 0 0.020039989671696231 -0.071989185162356889 0 -0.0043762627118289626 -0.071729097412358583 0 0.0042106568376920582 -0.081118225430045127 0 0.0052181775422467033 -0.064346337314722044 0 0.0052181775422467033 -0.064346337314722044 0 0.020039989671696231 -0.071989185162356889 0 0.0052181775422467033 -0.064346337314722044 0 0.020039989671696231 -0.071989185162356889 0 0.017880224012190679 -0.058506375123621113 0 0.020039989671696231 -0.071989185162356889 0 0.017880224012190679 -0.058506375123621113 0 0.035073137211611732 -0.060365082031122411 0 0.020039989671696231 -0.071989185162356889 0 0.031293966725895003 -0.08518965294817829 0 0.035073137211611732 -0.060365082031122411 0 0.01380815825635252 -0.094132232187142617 0 0.020039989671696231 -0.071989185162356889 0 0.031293966725895003 -0.08518965294817829 0 0.031293966725895003 -0.08518965294817829 0 0.050629459546369923 -0.074776417317023003 0 0.042727201812981508 -0.099892478072297022 0 0.050629459546369923 -0.074776417317023003 0 0.042727201812981508 -0.099892478072297022 0 0.031293966725895003 -0.08518965294817829 0 0.050629459546369923 -0.074776417317023003 0 0.035073137211611732 -0.060365082031122411 0 0.050629459546369923 -0.074776417317023003 0 0.058531717279758283 -0.049660356561749108 0 0.072219385832792832 -0.066659644627356851 0 0.050629459546369923 -0.074776417317023003 0 0.042727201812981508 -0.099892478072297022 0 0.069701838591585213 -0.089386546866783212 0 0.059655618646742382 -0.10475769562984739 0 0.052448498866582129 -0.1166826243517366 0 0.042727201812981508 -0.099892478072297022 0 0.059655618646742382 -0.10475769562984739 0 0.042727201812981508 -0.099892478072297022 0 0.069701838591585213 -0.089386546866783212 0 0.054296968429680029 -0.13171371816535249 0 0.052448498866582129 -0.1166826243517366 0 0.073744935315820714 -0.1130691332285727 0 0.059655618646742382 -0.10475769562984739 0 0.052448498866582129 -0.1166826243517366 0 0.073744935315820714 -0.1130691332285727 0 0.034824944079593127 -0.12500853882757099 0 0.045553716665441668 -0.12681104972785159 0 0.052448498866582129 -0.1166826243517366 0 0.034824944079593127 -0.12500853882757099 0 0.052448498866582129 -0.1166826243517366 0 0.042727201812981508 -0.099892478072297022 0 0.034824944079593127 -0.12500853882757099 0 0.024129304522527751 -0.1089818526354679 0 0.042727201812981508 -0.099892478072297022 0 0.034824944079593127 -0.12500853882757099 0 0.042727201812981508 -0.099892478072297022 0 0.024129304522527751 -0.1089818526354679 0 0.031293966725895003 -0.08518965294817829 0 0.042727201812981508 -0.099892478072297022 0 0.034885408484197772 0.0062912350017927032 0 0.01265631079038235 -0.01012693536007268 0 0.042517259973231587 -0.011683923625132649 0 -0.00118246574067416 -0.01324232368796026 0 0.0012074066645448821 -0.00065723147797176382 0 0.01265631079038235 -0.01012693536007268 0 0.01265631079038235 -0.01012693536007268 0 0.02406773205363014 -0.026959444655171291 0 0.0015263381015913891 -0.033415212413580753 0 0.01265631079038235 -0.01012693536007268 0 0.0015263381015913891 -0.033415212413580753 0 -0.00118246574067416 -0.01324232368796026 0 0.01265631079038235 -0.01012693536007268 0 0.0015263381015913891 -0.033415212413580753 0 0.01265631079038235 -0.01012693536007268 0 0.02406773205363014 -0.026959444655171291 0 0.042517259973231587 -0.011683923625132649 0 0.02406773205363014 -0.026959444655171291 0 0.021771409900077709 -0.044354063799483319 0 0.04186734150286768 -0.035217088077587062 0 0.02406773205363014 -0.026959444655171291 0 0.021771409900077709 -0.044354063799483319 0 0.0015263381015913891 -0.033415212413580753 0 0.021771409900077709 -0.044354063799483319 0 0.0015263381015913891 -0.033415212413580753 0 0.007298405735321048 -0.051477207310420908 0 -0.0096036345872028556 -0.056703489467087059 0 0.0052181775422467033 -0.064346337314722044 0 0.007298405735321048 -0.051477207310420908 0 0.0052181775422467033 -0.064346337314722044 0 0.007298405735321048 -0.051477207310420908 0 0.017880224012190679 -0.058506375123621113 0 0.021771409900077709 -0.044354063799483319 0 0.017880224012190679 -0.058506375123621113 0 0.035073137211611732 -0.060365082031122411 0 0.021771409900077709 -0.044354063799483319 0 0.007298405735321048 -0.051477207310420908 0 0.017880224012190679 -0.058506375123621113 0 0.035073137211611732 -0.060365082031122411 0 0.058531717279758283 -0.049660356561749108 0 0.04186734150286768 -0.035217088077587062 0 0.050629459546369923 -0.074776417317023003 0 0.058531717279758283 -0.049660356561749108 0 0.050629459546369923 -0.074776417317023003 0 0.035073137211611732 -0.060365082031122411 0 0.058531717279758283 -0.049660356561749108 0 0.058531717279758283 -0.049660356561749108 0 0.066433975013146629 -0.02454429580647528 0 0.058531717279758283 -0.049660356561749108 0 0.04186734150286768 -0.035217088077587062 0 0.066433975013146629 -0.02454429580647528 0 0.021771409900077709 -0.044354063799483319 0 0.035073137211611732 -0.060365082031122411 0 0.04186734150286768 -0.035217088077587062 0 0.02406773205363014 -0.026959444655171291 0 0.04186734150286768 -0.035217088077587062 0 0.042517259973231587 -0.011683923625132649 0 0.04186734150286768 -0.035217088077587062 0 0.042517259973231587 -0.011683923625132649 0 0.066433975013146629 -0.02454429580647528 0 0.052968053050369737 0.0090809173488315582 0 0.042517259973231587 -0.011683923625132649 0 0.067492943165135169 -0.0019794682467893379 0 0.042517259973231587 -0.011683923625132649 0 0.067492943165135169 -0.0019794682467893379 0 0.066433975013146629 -0.02454429580647528 0 0.087040675587819916 -0.0096101539263870796 0 0.066433975013146629 -0.02454429580647528 0 0.098032226742104309 -0.02831505409649597 0 0.083930998993742512 0.0059737405228527038 0 0.087040675587819916 -0.0096101539263870796 0 0.067492943165135169 -0.0019794682467893379 0 0.083930998993742512 0.0059737405228527038 0 0.098495163759696414 0.0029673617968291321 0 0.087040675587819916 -0.0096101539263870796 0 0.087040675587819916 -0.0096101539263870796 0 0.067492943165135169 -0.0019794682467893379 0 0.066433975013146629 -0.02454429580647528 0 0.066433975013146629 -0.02454429580647528 0 0.080663194565618018 -0.042742664855397232 0 0.098032226742104309 -0.02831505409649597 0 0.080663194565618018 -0.042742664855397232 0 0.099119978598511321 -0.045144617550746849 0 0.098032226742104309 -0.02831505409649597 0 0.058531717279758283 -0.049660356561749108 0 0.066433975013146629 -0.02454429580647528 0 0.080663194565618018 -0.042742664855397232 0 0.058531717279758283 -0.049660356561749108 0 0.080663194565618018 -0.042742664855397232 0 0.072219385832792832 -0.066659644627356851 0 0.080663194565618018 -0.042742664855397232 0 0.091985945990252393 -0.059557823171565508 0 0.072219385832792832 -0.066659644627356851 0 0.080663194565618018 -0.042742664855397232 0 0.091985945990252393 -0.059557823171565508 0 0.099119978598511321 -0.045144617550746849 0 0.091985945990252393 -0.059557823171565508 0 0.109385226414503 -0.056941989317685793 0 0.099119978598511321 -0.045144617550746849 0 0.109385226414503 -0.056941989317685793 0 0.1174221699598199 -0.069046986946925279 0 0.12664898879935529 -0.055605769639440771 0 0.109385226414503 -0.056941989317685793 0 0.1155332992800789 -0.038165556312589707 0 0.12664898879935529 -0.055605769639440771 0 0.1155332992800789 -0.038165556312589707 0 0.12954193793015309 -0.041748568408345607 0 0.12664898879935529 -0.055605769639440771 0 0.1155332992800789 -0.038165556312589707 0 0.1294320674019063 -0.023146095115484211 0 0.12954193793015309 -0.041748568408345607 0 0.109385226414503 -0.056941989317685793 0 0.1155332992800789 -0.038165556312589707 0 0.099119978598511321 -0.045144617550746849 0 0.1155332992800789 -0.038165556312589707 0 0.099119978598511321 -0.045144617550746849 0 0.098032226742104309 -0.02831505409649597 0 0.1155332992800789 -0.038165556312589707 0 0.098032226742104309 -0.02831505409649597 0 0.1112777463759113 -0.012222875866518469 0 0.087040675587819916 -0.0096101539263870796 0 0.098032226742104309 -0.02831505409649597 0 0.1112777463759113 -0.012222875866518469 0 0.1155332992800789 -0.038165556312589707 0 0.1112777463759113 -0.012222875866518469 0 0.1294320674019063 -0.023146095115484211 0 0.1158546052028349 0.0064685721448778594 0 0.13464870039648349 0.00080453217212592717 0 0.1112777463759113 -0.012222875866518469 0 0.098495163759696414 0.0029673617968291321 0 0.087040675587819916 -0.0096101539263870796 0 0.1112777463759113 -0.012222875866518469 0 0.1158546052028349 0.0064685721448778594 0 0.098495163759696414 0.0029673617968291321 0 0.1112777463759113 -0.012222875866518469 0 0.093192902201961414 -0.094424548291792879 0 0.088899626305776192 -0.1113374325741409 0 0.073744935315820714 -0.1130691332285727 0 0.093192902201961414 -0.094424548291792879 0 0.073744935315820714 -0.1130691332285727 0 0.069701838591585213 -0.089386546866783212 0 0.093192902201961414 -0.094424548291792879 0 0.073744935315820714 -0.1130691332285727 0 0.081894058627025895 -0.12584863130967919 0 0.088899626305776192 -0.1113374325741409 0 0.09397493983509804 -0.11322330148444169 0 0.081894058627025895 -0.12584863130967919 0 0.079920122843727764 -0.11786127252462281 0 0.075141871126288284 -0.1211898929860986 0 0.081894058627025895 -0.12584863130967919 0 0.088899626305776192 -0.1113374325741409 0 0.079920122843727764 -0.11786127252462281 0 0.088899626305776192 -0.1113374325741409 0 0.079920122843727764 -0.11786127252462281 0 0.073744935315820714 -0.1130691332285727 0 0.068207364780656948 -0.12563827965844471 0 0.054296968429680029 -0.13171371816535249 0 0.073744935315820714 -0.1130691332285727 0 0.054296968429680029 -0.13171371816535249 0 0.073744935315820714 -0.1130691332285727 0 0.068207364780656948 -0.12563827965844471 0 0.073744935315820714 -0.1130691332285727 0 0.075141871126288284 -0.1211898929860986 0 0.079920122843727764 -0.11786127252462281 0 0.073744935315820714 -0.1130691332285727 0 0.075141871126288284 -0.1211898929860986 0 0.081894058627025895 -0.12584863130967919 0 0.068207364780656948 -0.12563827965844471 0 0.075141871126288284 -0.1211898929860986 0 0.059655618646742382 -0.10475769562984739 0 0.073744935315820714 -0.1130691332285727 0 0.069701838591585213 -0.089386546866783212 0 0.050629459546369923 -0.074776417317023003 0 0.069701838591585213 -0.089386546866783212 0 0.072219385832792832 -0.066659644627356851 0 0.069701838591585213 -0.089386546866783212 0 0.072219385832792832 -0.066659644627356851 0 0.089711563165187497 -0.078251462936863553 0 0.091985945990252393 -0.059557823171565508 0 0.072219385832792832 -0.066659644627356851 0 0.089711563165187497 -0.078251462936863553 0 0.093192902201961414 -0.094424548291792879 0 0.069701838591585213 -0.089386546866783212 0 0.089711563165187497 -0.078251462936863553 0 0.093192902201961414 -0.094424548291792879 0 0.089711563165187497 -0.078251462936863553 0 0.1048667032735431 -0.089595599910983495 0 0.089711563165187497 -0.078251462936863553 0 0.1048667032735431 -0.089595599910983495 0 0.1056935618466131 -0.072691272791708894 0 0.1048667032735431 -0.089595599910983495 0 0.1056935618466131 -0.072691272791708894 0 0.11564058922802831 -0.08068930143821873 0 0.091985945990252393 -0.059557823171565508 0 0.089711563165187497 -0.078251462936863553 0 0.1056935618466131 -0.072691272791708894 0 0.091985945990252393 -0.059557823171565508 0 0.109385226414503 -0.056941989317685793 0 0.1056935618466131 -0.072691272791708894 0 0.1174221699598199 -0.069046986946925279 0 0.12840026197867099 -0.078951386265116219 0 0.12664898879935529 -0.055605769639440771 0 0.109385226414503 -0.056941989317685793 0 0.1056935618466131 -0.072691272791708894 0 0.1174221699598199 -0.069046986946925279 0 0.1056935618466131 -0.072691272791708894 0 0.1174221699598199 -0.069046986946925279 0 0.11564058922802831 -0.08068930143821873 0 0.1174221699598199 -0.069046986946925279 0 0.11564058922802831 -0.08068930143821873 0 0.12840026197867099 -0.078951386265116219 0 0.1048667032735431 -0.089595599910983495 0 0.11564058922802831 -0.08068930143821873 0 0.1191358060176364 -0.092450830711447801 0 0.1191358060176364 -0.092450830711447801 0 0.12840026197867099 -0.078951386265116219 0 0.11564058922802831 -0.08068930143821873 0 0.1191358060176364 -0.092450830711447801 0 0.12840026197867099 -0.078951386265116219 0 0.1058809127300703 -0.11218140843774239 0 0.12023297736745781 -0.1110263554770618 0 0.12986776683311119 -0.098514185565799078 0 0.1058809127300703 -0.11218140843774239 0 0.12986776683311119 -0.098514185565799078 0 0.1048667032735431 -0.089595599910983495 0 0.1191358060176364 -0.092450830711447801 0 0.10987135005660249 -0.1059502751577799 0 0.10987135005660249 -0.1059502751577799 0 0.1058809127300703 -0.11218140843774239 0 0.12986776683311119 -0.098514185565799078 0 0.1191358060176364 -0.092450830711447801 0 0.10987135005660249 -0.1059502751577799 0 0.12986776683311119 -0.098514185565799078 0 0.1191358060176364 -0.092450830711447801 0 0.10987135005660249 -0.1059502751577799 0 0.093192902201961414 -0.094424548291792879 0 0.088899626305776192 -0.1113374325741409 0 0.099225161677519755 -0.1035257336162041 0 0.1048667032735431 -0.089595599910983495 0 0.10987135005660249 -0.1059502751577799 0 0.099225161677519755 -0.1035257336162041 0 0.10987135005660249 -0.1059502751577799 0 0.099225161677519755 -0.1035257336162041 0 0.1058809127300703 -0.11218140843774239 0 0.088899626305776192 -0.1113374325741409 0 0.099225161677519755 -0.1035257336162041 0 0.09397493983509804 -0.11322330148444169 0 0.093192902201961414 -0.094424548291792879 0 0.1048667032735431 -0.089595599910983495 0 0.099225161677519755 -0.1035257336162041 0 0.081894058627025895 -0.12584863130967919 0 0.1058809127300703 -0.11218140843774239 0 0.099525338641528904 -0.12611341339503321 0 0.081894058627025895 -0.12584863130967919 0 0.1058809127300703 -0.11218140843774239 0 0.081894058627025895 -0.12584863130967919 0 0.09397493983509804 -0.11322330148444169 0 0.1058809127300703 -0.11218140843774239 0 0.099225161677519755 -0.1035257336162041 0 0.09397493983509804 -0.11322330148444169 0 0.1058809127300703 -0.11218140843774239 0 0.099525338641528904 -0.12611341339503321 0 0.1058809127300703 -0.11218140843774239 0 0.1121708616464093 -0.1216807098986791 0 0.1058809127300703 -0.11218140843774239 0 0.1121708616464093 -0.1216807098986791 0 0.12023297736745781 -0.1110263554770618 0 0.11997683785091839 -0.1276371159963853 0 0.121067612134044 -0.1214532534018402 0 0.13188977167139071 -0.12546883223523481 0 0.12023297736745781 -0.1110263554770618 0 0.121067612134044 -0.1214532534018402 0 0.13188977167139071 -0.12546883223523481 0 0.11997683785091839 -0.1276371159963853 0 0.1121708616464093 -0.1216807098986791 0 0.121067612134044 -0.1214532534018402 0 0.1121708616464093 -0.1216807098986791 0 0.12023297736745781 -0.1110263554770618 0 0.121067612134044 -0.1214532534018402 0 0.12023297736745781 -0.1110263554770618 0 0.12986776683311119 -0.098514185565799078 0 0.13188977167139071 -0.12546883223523481 0 0.12986776683311119 -0.098514185565799078 0 0.13188977167139071 -0.12546883223523481 0 0.14925441928633251 -0.10969288085116551 0 0.13995942417209239 -0.1034127274713456 0 0.13188977167139071 -0.12546883223523481 0 0.14724036225017881 -0.1245170930860646 0 0.14925441928633251 -0.10969288085116551 0 0.13188977167139071 -0.12546883223523481 0 0.14925441928633251 -0.10969288085116551 0 0.15485465026004211 -0.11932571079310079 0 0.15999890680388329 -0.1096406796162286 0 0.14724036225017881 -0.1245170930860646 0 0.15485465026004211 -0.11932571079310079 0 0.15557261582888751 -0.13003178131142151 0 0.14724036225017881 -0.1245170930860646 0 0.14925441928633251 -0.10969288085116551 0 0.15485465026004211 -0.11932571079310079 0 0.14925441928633251 -0.10969288085116551 0 0.14348993397904131 -0.092765062884646393 0 0.1620153957752187 -0.097165399419701551 0 0.14348993397904131 -0.092765062884646393 0 0.1620153957752187 -0.097165399419701551 0 0.14925441928633251 -0.10969288085116551 0 0.13995942417209239 -0.1034127274713456 0 0.14348993397904131 -0.092765062884646393 0 0.13995942417209239 -0.1034127274713456 0 0.12986776683311119 -0.098514185565799078 0 0.13188977167139071 -0.12546883223523481 0 0.13995942417209239 -0.1034127274713456 0 0.12986776683311119 -0.098514185565799078 0 0.14348993397904131 -0.092765062884646393 0 0.12986776683311119 -0.098514185565799078 0 0.12840026197867099 -0.078951386265116219 0 0.1428482005174804 -0.076716741777837147 0 0.1191358060176364 -0.092450830711447801 0 0.12986776683311119 -0.098514185565799078 0 0.12840026197867099 -0.078951386265116219 0 0.12986776683311119 -0.098514185565799078 0 0.12840026197867099 -0.078951386265116219 0 0.12840026197867099 -0.078951386265116219 0 0.12664898879935529 -0.055605769639440771 0 0.12840026197867099 -0.078951386265116219 0 0.12664898879935529 -0.055605769639440771 0 0.14464694777039611 -0.055277979731059648 0 0.12840026197867099 -0.078951386265116219 0 0.1428482005174804 -0.076716741777837147 0 0.14464694777039611 -0.055277979731059648 0 0.12840026197867099 -0.078951386265116219 0 0.14464694777039611 -0.055277979731059648 0 0.1428482005174804 -0.076716741777837147 0 0.15680899227989839 -0.06637062400294011 0 0.14464694777039611 -0.055277979731059648 0 0.1428482005174804 -0.076716741777837147 0 0.15451703372532541 -0.084469533324270707 0 0.15680899227989839 -0.06637062400294011 0 0.12986776683311119 -0.098514185565799078 0 0.15451703372532541 -0.084469533324270707 0 0.12986776683311119 -0.098514185565799078 0 0.14348993397904131 -0.092765062884646393 0 0.15451703372532541 -0.084469533324270707 0 0.14348993397904131 -0.092765062884646393 0 0.15451703372532541 -0.084469533324270707 0 0.1620153957752187 -0.097165399419701551 0 0.12986776683311119 -0.098514185565799078 0 0.1428482005174804 -0.076716741777837147 0 0.15451703372532541 -0.084469533324270707 0 0.15451703372532541 -0.084469533324270707 0 0.1674193516126988 -0.088794767656503876 0 0.1620153957752187 -0.097165399419701551 0 0.15451703372532541 -0.084469533324270707 0 0.1674193516126988 -0.088794767656503876 0 0.16389165652408541 -0.076485311925560115 0 0.1674193516126988 -0.088794767656503876 0 0.16389165652408541 -0.076485311925560115 0 0.17613181446746839 -0.084287857658230353 0 0.15451703372532541 -0.084469533324270707 0 0.15680899227989839 -0.06637062400294011 0 0.16389165652408541 -0.076485311925560115 0 0.16389165652408541 -0.076485311925560115 0 0.1717227713635387 -0.067009979361705274 0 0.17613181446746839 -0.084287857658230353 0 0.15680899227989839 -0.06637062400294011 0 0.16389165652408541 -0.076485311925560115 0 0.1717227713635387 -0.067009979361705274 0 0.15680899227989839 -0.06637062400294011 0 0.1717227713635387 -0.067009979361705274 0 0.1652446184022294 -0.054500080927008407 0 0.1717227713635387 -0.067009979361705274 0 0.17613181446746839 -0.084287857658230353 0 0.1717227713635387 -0.067009979361705274 0 0.18346211879182289 -0.064955309332027283 0 0.18137547142311691 -0.085525622921553163 0 0.18346211879182289 -0.064955309332027283 0 0.18137547142311691 -0.085525622921553163 0 0.1952329782378138 -0.068464889048657496 0 0.1717227713635387 -0.067009979361705274 0 0.18137547142311691 -0.085525622921553163 0 0.1717227713635387 -0.067009979361705274 0 0.18346211879182289 -0.064955309332027283 0 0.1746283364613696 -0.057560297553190053 0 0.18137547142311691 -0.085525622921553163 0 0.17613181446746839 -0.084287857658230353 0 0.18054085757139629 -0.1015657359547559 0 0.17613181446746839 -0.084287857658230353 0 0.18054085757139629 -0.1015657359547559 0 0.1674193516126988 -0.088794767656503876 0 0.17613181446746839 -0.084287857658230353 0 0.18054085757139629 -0.1015657359547559 0 0.1717227713635387 -0.067009979361705274 0 0.18137547142311691 -0.085525622921553163 0 0.17613181446746839 -0.084287857658230353 0 0.18137547142311691 -0.085525622921553163 0 0.19100769245097829 -0.1040519139747048 0 0.18137547142311691 -0.085525622921553163 0 0.18054085757139629 -0.1015657359547559 0 0.19100769245097829 -0.1040519139747048 0 0.18054085757139629 -0.1015657359547559 0 0.1749190978293893 -0.1165979942053425 0 0.16884250162088479 -0.1080310140379921 0 0.18054085757139629 -0.1015657359547559 0 0.19100769245097829 -0.1040519139747048 0 0.18054085757139629 -0.1015657359547559 0 0.1862357176231304 -0.1238823921021804 0 0.1749190978293893 -0.1165979942053425 0 0.18054085757139629 -0.1015657359547559 0 0.1862357176231304 -0.1238823921021804 0 0.19100769245097829 -0.1040519139747048 0 0.18054085757139629 -0.1015657359547559 0 0.1862357176231304 -0.1238823921021804 0 0.1862357176231304 -0.1238823921021804 0 0.1749190978293893 -0.1165979942053425 0 0.17324983187337631 -0.13165498831909611 0 0.1749190978293893 -0.1165979942053425 0 0.16471491079178111 -0.1205264202314431 0 0.16884250162088479 -0.1080310140379921 0 0.16471491079178111 -0.1205264202314431 0 0.15999890680388329 -0.1096406796162286 0 0.16884250162088479 -0.1080310140379921 0 0.1749190978293893 -0.1165979942053425 0 0.16471491079178111 -0.1205264202314431 0 0.17324983187337631 -0.13165498831909611 0 0.15485465026004211 -0.11932571079310079 0 0.16471491079178111 -0.1205264202314431 0 0.15557261582888751 -0.13003178131142151 0 0.15485465026004211 -0.11932571079310079 0 0.16471491079178111 -0.1205264202314431 0 0.15999890680388329 -0.1096406796162286 0 0.18054085757139629 -0.1015657359547559 0 0.1620153957752187 -0.097165399419701551 0 0.1674193516126988 -0.088794767656503876 0 0.18054085757139629 -0.1015657359547559 0 0.1620153957752187 -0.097165399419701551 0 0.14925441928633251 -0.10969288085116551 0 0.15999890680388329 -0.1096406796162286 0 0.1620153957752187 -0.097165399419701551 0 0.15999890680388329 -0.1096406796162286 0 0.1620153957752187 -0.097165399419701551 0 0.16884250162088479 -0.1080310140379921 0 0.18054085757139629 -0.1015657359547559 0 0.1620153957752187 -0.097165399419701551 0 0.16884250162088479 -0.1080310140379921 0 0.13464870039648349 0.00080453217212592717 0 0.15480995508657039 -0.001084596553268768 0 0.14892696920713289 -0.018041582065753459 0 0.13464870039648349 0.00080453217212592717 0 0.1294320674019063 -0.023146095115484211 0 0.14892696920713289 -0.018041582065753459 0 0.13464870039648349 0.00080453217212592717 0 0.1112777463759113 -0.012222875866518469 0 0.1294320674019063 -0.023146095115484211 0 0.1294320674019063 -0.023146095115484211 0 0.14892696920713289 -0.018041582065753459 0 0.14270131340979469 -0.036531096068384838 0 0.14892696920713289 -0.018041582065753459 0 0.14270131340979469 -0.036531096068384838 0 0.16089363356212191 -0.031604573197003549 0 0.14270131340979469 -0.036531096068384838 0 0.14464694777039611 -0.055277979731059648 0 0.16089363356212191 -0.031604573197003549 0 0.14464694777039611 -0.055277979731059648 0 0.15561449558007559 -0.051164132387281437 0 0.16089363356212191 -0.031604573197003549 0 0.14464694777039611 -0.055277979731059648 0 0.16089363356212191 -0.031604573197003549 0 0.14270131340979469 -0.036531096068384838 0 0.12954193793015309 -0.041748568408345607 0 0.14464694777039611 -0.055277979731059648 0 0.1294320674019063 -0.023146095115484211 0 0.14270131340979469 -0.036531096068384838 0 0.12954193793015309 -0.041748568408345607 0 0.12954193793015309 -0.041748568408345607 0 0.12664898879935529 -0.055605769639440771 0 0.14464694777039611 -0.055277979731059648 0 0.15680899227989839 -0.06637062400294011 0 0.14464694777039611 -0.055277979731059648 0 0.15561449558007559 -0.051164132387281437 0 0.15680899227989839 -0.06637062400294011 0 0.15561449558007559 -0.051164132387281437 0 0.1652446184022294 -0.054500080927008407 0 0.15561449558007559 -0.051164132387281437 0 0.1652446184022294 -0.054500080927008407 0 0.1617942405007988 -0.043199732881276223 0 0.1652446184022294 -0.054500080927008407 0 0.1746283364613696 -0.057560297553190053 0 0.1617942405007988 -0.043199732881276223 0 0.1717227713635387 -0.067009979361705274 0 0.1652446184022294 -0.054500080927008407 0 0.1717227713635387 -0.067009979361705274 0 0.1652446184022294 -0.054500080927008407 0 0.1746283364613696 -0.057560297553190053 0 0.1746283364613696 -0.057560297553190053 0 0.1828119860636557 -0.050363577362968731 0 0.1617942405007988 -0.043199732881276223 0 0.18346211879182289 -0.064955309332027283 0 0.1746283364613696 -0.057560297553190053 0 0.1828119860636557 -0.050363577362968731 0 0.18346211879182289 -0.064955309332027283 0 0.1828119860636557 -0.050363577362968731 0 0.19188844298534441 -0.056659859735039647 0 0.1617942405007988 -0.043199732881276223 0 0.18853740735089011 -0.033706188378118708 0 0.1828119860636557 -0.050363577362968731 0 0.1617942405007988 -0.043199732881276223 0 0.18853740735089011 -0.033706188378118708 0 0.15561449558007559 -0.051164132387281437 0 0.16089363356212191 -0.031604573197003549 0 0.1617942405007988 -0.043199732881276223 0 0.16089363356212191 -0.031604573197003549 0 0.1617942405007988 -0.043199732881276223 0 0.18853740735089011 -0.033706188378118708 0 0.16089363356212191 -0.031604573197003549 0 0.17714031935384769 -0.0079311666629475405 0 0.14892696920713289 -0.018041582065753459 0 0.16089363356212191 -0.031604573197003549 0 0.17714031935384769 -0.0079311666629475405 0 0.16089363356212191 -0.031604573197003549 0 0.17714031935384769 -0.0079311666629475405 0 0.18853740735089011 -0.033706188378118708 0 0.1657030786406338 0.0084270166623369204 0 0.15480995508657039 -0.001084596553268768 0 0.17714031935384769 -0.0079311666629475405 0 0.15480995508657039 -0.001084596553268768 0 0.14892696920713289 -0.018041582065753459 0 0.17714031935384769 -0.0079311666629475405 0 0.21351355446813719 -0.0021103410187178909 0 0.2110126965438916 -0.012672932103663791 0 0.2228246624943325 -0.0092295053444410857 0 0.2110126965438916 -0.012672932103663791 0 0.21911622703360889 -0.015650702578479541 0 0.2228246624943325 -0.0092295053444410857 0 0.21351355446813719 -0.0021103410187178909 0 0.2110126965438916 -0.012672932103663791 0 0.19836939172364151 -0.01016904411482358 0 0.1998105265397013 0.00335350757378736 0 0.21351355446813719 -0.0021103410187178909 0 0.19836939172364151 -0.01016904411482358 0 0.1998105265397013 0.00335350757378736 0 0.17714031935384769 -0.0079311666629475405 0 0.19836939172364151 -0.01016904411482358 0 0.17714031935384769 -0.0079311666629475405 0 0.19836939172364151 -0.01016904411482358 0 0.18853740735089011 -0.033706188378118708 0 0.2110126965438916 -0.012672932103663791 0 0.19836939172364151 -0.01016904411482358 0 0.18853740735089011 -0.033706188378118708 0 0.21528057420098159 -0.024212643874961401 0 0.18853740735089011 -0.033706188378118708 0 0.2110126965438916 -0.012672932103663791 0 0.21528057420098159 -0.024212643874961401 0 0.18853740735089011 -0.033706188378118708 0 0.21528057420098159 -0.024212643874961401 0 0.20886364623554921 -0.031523512657201581 0 0.18853740735089011 -0.033706188378118708 0 0.2110126965438916 -0.012672932103663791 0 0.21528057420098159 -0.024212643874961401 0 0.21911622703360889 -0.015650702578479541 0 0.21528057420098159 -0.024212643874961401 0 0.2158000993154765 -0.027276596113623111 0 0.21360323626451261 -0.02858374534336202 0 0.21528057420098159 -0.024212643874961401 0 0.2158000993154765 -0.027276596113623111 0 0.21995729679401421 -0.029331280632926501 0 0.2158000993154765 -0.027276596113623111 0 0.21503400689837671 -0.030930810510401429 0 0.21995729679401421 -0.029331280632926501 0 0.2158000993154765 -0.027276596113623111 0 0.21503400689837671 -0.030930810510401429 0 0.21360323626451261 -0.02858374534336202 0 0.21528057420098159 -0.024212643874961401 0 0.21360323626451261 -0.02858374534336202 0 0.20886364623554921 -0.031523512657201581 0 0.21503400689837671 -0.030930810510401429 0 0.21360323626451261 -0.02858374534336202 0 0.20886364623554921 -0.031523512657201581 0 0.2128060919330283 -0.035124071741943173 0 0.2180191377477218 -0.035203133534298187 0 0.2167024847658664 -0.043974661413588162 0 0.21503400689837671 -0.030930810510401429 0 0.2128060919330283 -0.035124071741943173 0 0.20886364623554921 -0.031523512657201581 0 0.21503400689837671 -0.030930810510401429 0 0.2128060919330283 -0.035124071741943173 0 0.2180191377477218 -0.035203133534298187 0 0.21503400689837671 -0.030930810510401429 0 0.2180191377477218 -0.035203133534298187 0 0.21995729679401421 -0.029331280632926501 0 0.2167024847658664 -0.043974661413588162 0 0.20890374551960481 -0.040729144831228678 0 0.20897987019450001 -0.050060865146210963 0 0.2128060919330283 -0.035124071741943173 0 0.2167024847658664 -0.043974661413588162 0 0.20890374551960481 -0.040729144831228678 0 0.20890374551960481 -0.040729144831228678 0 0.19655169947710091 -0.043788383486002072 0 0.20897987019450001 -0.050060865146210963 0 0.2128060919330283 -0.035124071741943173 0 0.20890374551960481 -0.040729144831228678 0 0.20886364623554921 -0.031523512657201581 0 0.20890374551960481 -0.040729144831228678 0 0.20886364623554921 -0.031523512657201581 0 0.19655169947710091 -0.043788383486002072 0 0.1828119860636557 -0.050363577362968731 0 0.18853740735089011 -0.033706188378118708 0 0.19655169947710091 -0.043788383486002072 0 0.20886364623554921 -0.031523512657201581 0 0.18853740735089011 -0.033706188378118708 0 0.19655169947710091 -0.043788383486002072 0 0.19655169947710091 -0.043788383486002072 0 0.20138343235632811 -0.055727139445542639 0 0.20897987019450001 -0.050060865146210963 0 0.19655169947710091 -0.043788383486002072 0 0.19188844298534441 -0.056659859735039647 0 0.20138343235632811 -0.055727139445542639 0 0.1828119860636557 -0.050363577362968731 0 0.19655169947710091 -0.043788383486002072 0 0.19188844298534441 -0.056659859735039647 0 0.19188844298534441 -0.056659859735039647 0 0.20138343235632811 -0.055727139445542639 0 0.1952329782378138 -0.068464889048657496 0 0.20138343235632811 -0.055727139445542639 0 0.22670270369963491 -0.067064047377793826 0 0.20138343235632811 -0.055727139445542639 0 0.21577564808412511 -0.056666161138016313 0 0.22670270369963491 -0.067064047377793826 0 0.20138343235632811 -0.055727139445542639 0 0.20897987019450001 -0.050060865146210963 0 0.21577564808412511 -0.056666161138016313 0 0.2167024847658664 -0.043974661413588162 0 0.20897987019450001 -0.050060865146210963 0 0.21577564808412511 -0.056666161138016313 0 0.21577564808412511 -0.056666161138016313 0 0.23694359709532001 -0.061394592404840097 0 0.22670270369963491 -0.067064047377793826 0 0.21577564808412511 -0.056666161138016313 0 0.22648325856373289 -0.049317463857355977 0 0.23694359709532001 -0.061394592404840097 0 0.21577564808412511 -0.056666161138016313 0 0.23694359709532001 -0.061394592404840097 0 0.2167024847658664 -0.043974661413588162 0 0.21577564808412511 -0.056666161138016313 0 0.22648325856373289 -0.049317463857355977 0 0.22648325856373289 -0.049317463857355977 0 0.23694359709532001 -0.061394592404840097 0 0.23716366819637241 -0.046229271507985323 0 0.25811154610651499 -0.066123023671663908 0 0.23694359709532001 -0.061394592404840097 0 0.24870160087168189 -0.052882304334001928 0 0.23694359709532001 -0.061394592404840097 0 0.24870160087168189 -0.052882304334001928 0 0.23716366819637241 -0.046229271507985323 0 0.24870160087168189 -0.052882304334001928 0 0.23716366819637241 -0.046229271507985323 0 0.24731406762381819 -0.035960341631652723 0 0.23716366819637241 -0.046229271507985323 0 0.24731406762381819 -0.035960341631652723 0 0.23342582712955959 -0.033308149953783547 0 0.23342582712955959 -0.033308149953783547 0 0.2258308946769807 -0.038322632822349968 0 0.22548915127375299 -0.027513718828695861 0 0.22648325856373289 -0.049317463857355977 0 0.23716366819637241 -0.046229271507985323 0 0.2258308946769807 -0.038322632822349968 0 0.23716366819637241 -0.046229271507985323 0 0.23342582712955959 -0.033308149953783547 0 0.2258308946769807 -0.038322632822349968 0 0.2180191377477218 -0.035203133534298187 0 0.2167024847658664 -0.043974661413588162 0 0.2258308946769807 -0.038322632822349968 0 0.2167024847658664 -0.043974661413588162 0 0.22648325856373289 -0.049317463857355977 0 0.2258308946769807 -0.038322632822349968 0 0.2180191377477218 -0.035203133534298187 0 0.2258308946769807 -0.038322632822349968 0 0.21995729679401421 -0.029331280632926501 0 0.2258308946769807 -0.038322632822349968 0 0.22548915127375299 -0.027513718828695861 0 0.21995729679401421 -0.029331280632926501 0 0.21528057420098159 -0.024212643874961401 0 0.2313313538768734 -0.018514784978234038 0 0.22829619310998309 -0.01520182636873813 0 0.21528057420098159 -0.024212643874961401 0 0.2313313538768734 -0.018514784978234038 0 0.21528057420098159 -0.024212643874961401 0 0.22548915127375299 -0.027513718828695861 0 0.2313313538768734 -0.018514784978234038 0 0.21528057420098159 -0.024212643874961401 0 0.22548915127375299 -0.027513718828695861 0 0.21995729679401421 -0.029331280632926501 0 0.21528057420098159 -0.024212643874961401 0 0.22829619310998309 -0.01520182636873813 0 0.21528057420098159 -0.024212643874961401 0 0.21911622703360889 -0.015650702578479541 0 0.22829619310998309 -0.01520182636873813 0 0.2313313538768734 -0.018514784978234038 0 0.22829619310998309 -0.01520182636873813 0 0.23342582712955959 -0.033308149953783547 0 0.22548915127375299 -0.027513718828695861 0 0.2313313538768734 -0.018514784978234038 0 0.25508119948702751 -0.010083838205662381 0 0.2313313538768734 -0.018514784978234038 0 0.2482857443068576 -0.021714794414400052 0 0.24731406762381819 -0.035960341631652723 0 0.2313313538768734 -0.018514784978234038 0 0.2482857443068576 -0.021714794414400052 0 0.24731406762381819 -0.035960341631652723 0 0.23342582712955959 -0.033308149953783547 0 0.2313313538768734 -0.018514784978234038 0 0.24731406762381819 -0.035960341631652723 0 0.2313313538768734 -0.018514784978234038 0 0.25508119948702751 -0.010083838205662381 0 0.2313313538768734 -0.018514784978234038 0 0.24138147174972829 -0.0061427828714447699 0 0.25508119948702751 -0.010083838205662381 0 0.2313313538768734 -0.018514784978234038 0 0.24138147174972829 -0.0061427828714447699 0 0.22829619310998309 -0.01520182636873813 0 0.25446675038947358 0.0029162606258486688 0 0.2541426920980116 -0.0036136263454906951 0 0.24138147174972829 -0.0061427828714447699 0 0.25446675038947358 0.0029162606258486688 0 0.24138147174972829 -0.0061427828714447699 0 0.22999165343287109 0.0038227322559807589 0 0.24138147174972829 -0.0061427828714447699 0 0.23189167676904729 -0.0064153040848911828 0 0.22999165343287109 0.0038227322559807589 0 0.23189167676904729 -0.0064153040848911828 0 0.2228246624943325 -0.0092295053444410857 0 0.22999165343287109 0.0038227322559807589 0 0.21351355446813719 -0.0021103410187178909 0 0.2228246624943325 -0.0092295053444410857 0 0.23189167676904729 -0.0064153040848911828 0 0.22829619310998309 -0.01520182636873813 0 0.2228246624943325 -0.0092295053444410857 0 0.2313313538768734 -0.018514784978234038 0 0.24138147174972829 -0.0061427828714447699 0 0.22829619310998309 -0.01520182636873813 0 0.24138147174972829 -0.0061427828714447699 0 0.23189167676904729 -0.0064153040848911828 0 0.22829619310998309 -0.01520182636873813 0 0.21911622703360889 -0.015650702578479541 0 0.22829619310998309 -0.01520182636873813 0 0.2228246624943325 -0.0092295053444410857 0 0.22829619310998309 -0.01520182636873813 0 0.2228246624943325 -0.0092295053444410857 0 0.2084634723971549 -0.097930235578601213 0 0.21737999015654699 -0.1103161024944793 0 0.2275791846540145 -0.10054182369239011 0 0.21737999015654699 -0.1103161024944793 0 0.19100769245097829 -0.1040519139747048 0 0.2084634723971549 -0.097930235578601213 0 0.21140608144591419 -0.084503356370523836 0 0.2275791846540145 -0.10054182369239011 0 0.2084634723971549 -0.097930235578601213 0 0.21737999015654699 -0.1103161024944793 0 0.19100769245097829 -0.1040519139747048 0 0.21737999015654699 -0.1103161024944793 0 0.21277072480774051 -0.1248863227998855 0 0.20025029595199689 -0.1218288277367077 0 0.21737999015654699 -0.1103161024944793 0 0.21277072480774051 -0.1248863227998855 0 0.2239597136694004 -0.1277946194696456 0 0.1862357176231304 -0.1238823921021804 0 0.20025029595199689 -0.1218288277367077 0 0.19100769245097829 -0.1040519139747048 0 0.21737999015654699 -0.1103161024944793 0 0.20025029595199689 -0.1218288277367077 0 0.19100769245097829 -0.1040519139747048 0 0.20025029595199689 -0.1218288277367077 0 0.19100769245097829 -0.1040519139747048 0 0.2084634723971549 -0.097930235578601213 0 0.19100769245097829 -0.1040519139747048 0 0.19624682445825681 -0.08914472739044943 0 0.18137547142311691 -0.085525622921553163 0 0.19100769245097829 -0.1040519139747048 0 0.19624682445825681 -0.08914472739044943 0 0.19624682445825681 -0.08914472739044943 0 0.1952329782378138 -0.068464889048657496 0 0.21140608144591419 -0.084503356370523836 0 0.18137547142311691 -0.085525622921553163 0 0.19624682445825681 -0.08914472739044943 0 0.1952329782378138 -0.068464889048657496 0 0.20138343235632811 -0.055727139445542639 0 0.1952329782378138 -0.068464889048657496 0 0.21149591893834541 -0.070957707586151192 0 0.18346211879182289 -0.064955309332027283 0 0.19188844298534441 -0.056659859735039647 0 0.1952329782378138 -0.068464889048657496 0 0.1952329782378138 -0.068464889048657496 0 0.21140608144591419 -0.084503356370523836 0 0.20138343235632811 -0.055727139445542639 0 0.21149591893834541 -0.070957707586151192 0 0.22670270369963491 -0.067064047377793826 0 0.1952329782378138 -0.068464889048657496 0 0.21149591893834541 -0.070957707586151192 0 0.21140608144591419 -0.084503356370523836 0 0.2084634723971549 -0.097930235578601213 0 0.19624682445825681 -0.08914472739044943 0 0.21140608144591419 -0.084503356370523836 0 0.21149591893834541 -0.070957707586151192 0 0.21140608144591419 -0.084503356370523836 0 0.2227543989520358 -0.079029105688238177 0 0.21140608144591419 -0.084503356370523836 0 0.2275791846540145 -0.10054182369239011 0 0.2227543989520358 -0.079029105688238177 0 0.23449163343577681 -0.083610487294907485 0 0.2275791846540145 -0.10054182369239011 0 0.21140608144591419 -0.084503356370523836 0 0.2227543989520358 -0.079029105688238177 0 0.2275791846540145 -0.10054182369239011 0 0.2227543989520358 -0.079029105688238177 0 0.22670270369963491 -0.067064047377793826 0 0.23449163343577681 -0.083610487294907485 0 0.21149591893834541 -0.070957707586151192 0 0.2227543989520358 -0.079029105688238177 0 0.22670270369963491 -0.067064047377793826 0 0.25202197504294188 -0.078400955310045109 0 0.25811154610651499 -0.066123023671663908 0 0.23694359709532001 -0.061394592404840097 0 0.25202197504294188 -0.078400955310045109 0 0.22670270369963491 -0.067064047377793826 0 0.25202197504294188 -0.078400955310045109 0 0.22670270369963491 -0.067064047377793826 0 0.23449163343577681 -0.083610487294907485 0 0.25202197504294188 -0.078400955310045109 0 0.23694359709532001 -0.061394592404840097 0 0.22670270369963491 -0.067064047377793826 0 0.25811154610651499 -0.066123023671663908 0 0.23694359709532001 -0.061394592404840097 0 0.25202197504294188 -0.078400955310045109 0 0.23449163343577681 -0.083610487294907485 0 0.24624903761231479 -0.086847438891893419 0 0.23449163343577681 -0.083610487294907485 0 0.24292322406264641 -0.096552741650977186 0 0.2275791846540145 -0.10054182369239011 0 0.23449163343577681 -0.083610487294907485 0 0.24624903761231479 -0.086847438891893419 0 0.24292322406264641 -0.096552741650977186 0 0.25304747237378489 -0.090741332181114118 0 0.24624903761231479 -0.086847438891893419 0 0.24292322406264641 -0.096552741650977186 0 0.2275791846540145 -0.10054182369239011 0 0.24375228786211539 -0.116580291014256 0 0.24292322406264641 -0.096552741650977186 0 0.2275791846540145 -0.10054182369239011 0 0.24375228786211539 -0.116580291014256 0 0.25771864553297669 -0.099620140202181948 0 0.24292322406264641 -0.096552741650977186 0 0.24375228786211539 -0.116580291014256 0 0.21737999015654699 -0.1103161024944793 0 0.2275791846540145 -0.10054182369239011 0 0.24375228786211539 -0.116580291014256 0 0.21737999015654699 -0.1103161024944793 0 0.24375228786211539 -0.116580291014256 0 0.2239597136694004 -0.1277946194696456 0 0.21737999015654699 -0.1103161024944793 0 0.24375228786211539 -0.116580291014256 0 0.24375228786211539 -0.116580291014256 0 0.235054631712311 -0.13955626642273861 0 0.24955680073527009 -0.143898101237383 0 0.235054631712311 -0.13955626642273861 0 0.24955680073527009 -0.143898101237383 0 0.23627457688356679 -0.15840319400941011 0 0.25449645062408999 -0.16331052089379791 0 0.24955680073527009 -0.143898101237383 0 0.23627457688356679 -0.15840319400941011 0 0.235054631712311 -0.13955626642273861 0 0.22199130801810529 -0.1478171468904442 0 0.23627457688356679 -0.15840319400941011 0 0.24375228786211539 -0.116580291014256 0 0.235054631712311 -0.13955626642273861 0 0.2239597136694004 -0.1277946194696456 0 0.235054631712311 -0.13955626642273861 0 0.22199130801810529 -0.1478171468904442 0 0.2239597136694004 -0.1277946194696456 0 0.20025029595199689 -0.1218288277367077 0 0.20949289945301761 -0.1396057414987095 0 0.22199130801810529 -0.1478171468904442 0 0.2239597136694004 -0.1277946194696456 0 0.20949289945301761 -0.1396057414987095 0 0.21277072480774051 -0.1248863227998855 0 0.20025029595199689 -0.1218288277367077 0 0.20949289945301761 -0.1396057414987095 0 0.21277072480774051 -0.1248863227998855 0 0.2239597136694004 -0.1277946194696456 0 0.20949289945301761 -0.1396057414987095 0 0.22199130801810529 -0.1478171468904442 0 0.20949289945301761 -0.1396057414987095 0 0.2069794531536403 -0.1537888919124783 0 0.20949289945301761 -0.1396057414987095 0 0.2069794531536403 -0.1537888919124783 0 0.1919305776748628 -0.1461990482496055 0 0.2069794531536403 -0.1537888919124783 0 0.1919305776748628 -0.1461990482496055 0 0.19225769977326759 -0.16432491474026781 0 0.1862357176231304 -0.1238823921021804 0 0.1919305776748628 -0.1461990482496055 0 0.19714487019074359 -0.1333469628700395 0 0.20025029595199689 -0.1218288277367077 0 0.20949289945301761 -0.1396057414987095 0 0.19714487019074359 -0.1333469628700395 0 0.20949289945301761 -0.1396057414987095 0 0.1919305776748628 -0.1461990482496055 0 0.19714487019074359 -0.1333469628700395 0 0.1862357176231304 -0.1238823921021804 0 0.1919305776748628 -0.1461990482496055 0 0.1862357176231304 -0.1238823921021804 0 0.20025029595199689 -0.1218288277367077 0 0.19714487019074359 -0.1333469628700395 0 0.19629081049063871 -0.1815365299480412 0 0.19225769977326759 -0.16432491474026781 0 0.17982600751226671 -0.1762593337595659 0 0.19629081049063871 -0.1815365299480412 0 0.19225769977326759 -0.16432491474026781 0 0.22018657323669569 -0.16775416802968299 0 0.2069794531536403 -0.1537888919124783 0 0.19225769977326759 -0.16432491474026781 0 0.22018657323669569 -0.16775416802968299 0 0.22199130801810529 -0.1478171468904442 0 0.2069794531536403 -0.1537888919124783 0 0.22018657323669569 -0.16775416802968299 0 0.19629081049063871 -0.1815365299480412 0 0.22018657323669569 -0.16775416802968299 0 0.21237941264848451 -0.18810475376770611 0 0.22018657323669569 -0.16775416802968299 0 0.23934418379307471 -0.18436482883247621 0 0.22018657323669569 -0.16775416802968299 0 0.23934418379307471 -0.18436482883247621 0 0.21237941264848451 -0.18810475376770611 0 0.22018657323669569 -0.16775416802968299 0 0.23627457688356679 -0.15840319400941011 0 0.23934418379307471 -0.18436482883247621 0 0.22199130801810529 -0.1478171468904442 0 0.22018657323669569 -0.16775416802968299 0 0.23627457688356679 -0.15840319400941011 0 0.25449645062408999 -0.16331052089379791 0 0.23627457688356679 -0.15840319400941011 0 0.23934418379307471 -0.18436482883247621 0 0.25850179434945381 -0.20097548963526929 0 0.23934418379307471 -0.18436482883247621 0 0.25850179434945381 -0.20097548963526929 0 0.23934418379307471 -0.18436482883247621 0 0.23907695871134879 -0.21289681242661959 0 0.23907695871134879 -0.21289681242661959 0 0.22308479462261119 -0.20217133576560289 0 0.21722062693650279 -0.2226466586169516 0 0.23934418379307471 -0.18436482883247621 0 0.22308479462261119 -0.20217133576560289 0 0.21237941264848451 -0.18810475376770611 0 0.23934418379307471 -0.18436482883247621 0 0.23907695871134879 -0.21289681242661959 0 0.22308479462261119 -0.20217133576560289 0 0.25037283077400019 -0.2416092145933311 0 0.23239962387573149 -0.2337287944253621 0 0.2339549802858914 -0.24933471903745599 0 0.25658827463044448 -0.2222138965281123 0 0.23907695871134879 -0.21289681242661959 0 0.2446094219978813 -0.2276121794933563 0 0.25037283077400019 -0.2416092145933311 0 0.2446094219978813 -0.2276121794933563 0 0.23239962387573149 -0.2337287944253621 0 0.23907695871134879 -0.21289681242661959 0 0.2446094219978813 -0.2276121794933563 0 0.23239962387573149 -0.2337287944253621 0 0.23907695871134879 -0.21289681242661959 0 0.23239962387573149 -0.2337287944253621 0 0.21722062693650279 -0.2226466586169516 0 0.23239962387573149 -0.2337287944253621 0 0.2194561222393229 -0.23682627783696539 0 0.21722062693650279 -0.2226466586169516 0 0.23239962387573149 -0.2337287944253621 0 0.22502312889380549 -0.2426362774769398 0 0.2339549802858914 -0.24933471903745599 0 0.2194561222393229 -0.23682627783696539 0 0.22502312889380549 -0.2426362774769398 0 0.21456577207223029 -0.24270171036535029 0 0.23239962387573149 -0.2337287944253621 0 0.2194561222393229 -0.23682627783696539 0 0.22502312889380549 -0.2426362774769398 0 0.22331750647786899 -0.25281133177650322 0 0.22502312889380549 -0.2426362774769398 0 0.21456577207223029 -0.24270171036535029 0 0.22331750647786899 -0.25281133177650322 0 0.22502312889380549 -0.2426362774769398 0 0.2339549802858914 -0.24933471903745599 0 0.2084475354763706 -0.25511513831035743 0 0.2080714594183444 -0.2424179483002232 0 0.21336353465090491 -0.24693864317134839 0 0.2080714594183444 -0.2424179483002232 0 0.21336353465090491 -0.24693864317134839 0 0.2080714594183444 -0.2424179483002232 0 0.21336353465090491 -0.24693864317134839 0 0.21456577207223029 -0.24270171036535029 0 0.2194561222393229 -0.23682627783696539 0 0.2080714594183444 -0.2424179483002232 0 0.21456577207223029 -0.24270171036535029 0 0.21722062693650279 -0.2226466586169516 0 0.20244123733496699 -0.2260211367091485 0 0.19848523837712481 -0.2136299623964425 0 0.2080714594183444 -0.2424179483002232 0 0.21722062693650279 -0.2226466586169516 0 0.2194561222393229 -0.23682627783696539 0 0.2080714594183444 -0.2424179483002232 0 0.21722062693650279 -0.2226466586169516 0 0.2080714594183444 -0.2424179483002232 0 0.21722062693650279 -0.2226466586169516 0 0.20244123733496699 -0.2260211367091485 0 0.2080714594183444 -0.2424179483002232 0 0.18716213711817259 -0.22455639835484539 0 0.2080714594183444 -0.2424179483002232 0 0.20244123733496699 -0.2260211367091485 0 0.18716213711817259 -0.22455639835484539 0 0.20244123733496699 -0.2260211367091485 0 0.19848523837712481 -0.2136299623964425 0 0.18716213711817259 -0.22455639835484539 0 0.2080714594183444 -0.2424179483002232 0 0.19254414318066221 -0.24961624770678509 0 0.1866817818972302 -0.23981118877977231 0 0.2080714594183444 -0.2424179483002232 0 0.1866817818972302 -0.23981118877977231 0 0.18716213711817259 -0.22455639835484539 0 0.19254414318066221 -0.24961624770678509 0 0.18399505531774341 -0.24981832115951039 0 0.1866817818972302 -0.23981118877977231 0 0.21237941264848451 -0.18810475376770611 0 0.20793523744788639 -0.20366419955677639 0 0.19447652973028121 -0.19759128756789451 0 0.22308479462261119 -0.20217133576560289 0 0.21237941264848451 -0.18810475376770611 0 0.20793523744788639 -0.20366419955677639 0 0.22308479462261119 -0.20217133576560289 0 0.21722062693650279 -0.2226466586169516 0 0.20793523744788639 -0.20366419955677639 0 0.21722062693650279 -0.2226466586169516 0 0.20793523744788639 -0.20366419955677639 0 0.19848523837712481 -0.2136299623964425 0 0.19848523837712481 -0.2136299623964425 0 0.19447652973028121 -0.19759128756789451 0 0.1831457957419608 -0.2071674304332729 0 0.20793523744788639 -0.20366419955677639 0 0.19848523837712481 -0.2136299623964425 0 0.19447652973028121 -0.19759128756789451 0 0.19848523837712481 -0.2136299623964425 0 0.1831457957419608 -0.2071674304332729 0 0.18716213711817259 -0.22455639835484539 0 0.19629081049063871 -0.1815365299480412 0 0.19447652973028121 -0.19759128756789451 0 0.1840061663436266 -0.1900566622106199 0 0.19629081049063871 -0.1815365299480412 0 0.21237941264848451 -0.18810475376770611 0 0.19447652973028121 -0.19759128756789451 0 0.19447652973028121 -0.19759128756789451 0 0.1840061663436266 -0.1900566622106199 0 0.1831457957419608 -0.2071674304332729 0 0.1840061663436266 -0.1900566622106199 0 0.1831457957419608 -0.2071674304332729 0 0.16486725365112659 -0.18785963188663279 0 0.1831457957419608 -0.2071674304332729 0 0.16486725365112659 -0.18785963188663279 0 0.1831457957419608 -0.2071674304332729 0 0.16625281481800089 -0.2066948484094672 0 0.18716213711817259 -0.22455639835484539 0 0.16625281481800089 -0.2066948484094672 0 0.18716213711817259 -0.22455639835484539 0 0.16625281481800089 -0.2066948484094672 0 0.18716213711817259 -0.22455639835484539 0 0.16937657335138201 -0.22198425569814831 0 0.16625281481800089 -0.2066948484094672 0 0.15661990237239229 -0.21733625041789439 0 0.14909823278687431 -0.20687378182447139 0 0.16625281481800089 -0.2066948484094672 0 0.15661990237239229 -0.21733625041789439 0 0.16937657335138201 -0.22198425569814831 0 0.1831457957419608 -0.2071674304332729 0 0.16625281481800089 -0.2066948484094672 0 0.16486725365112659 -0.18785963188663279 0 0.16625281481800089 -0.2066948484094672 0 0.16486725365112659 -0.18785963188663279 0 0.14534349251782941 -0.188833298464089 0 0.17619278994504239 -0.24587918172992959 0 0.18399505531774341 -0.24981832115951039 0 0.1866817818972302 -0.23981118877977231 0 0.17619278994504239 -0.24587918172992959 0 0.17450151464944069 -0.23276490516368609 0 0.16609645978724119 -0.24143951784646769 0 0.17619278994504239 -0.24587918172992959 0 0.1866817818972302 -0.23981118877977231 0 0.17450151464944069 -0.23276490516368609 0 0.17450151464944069 -0.23276490516368609 0 0.18716213711817259 -0.22455639835484539 0 0.16937657335138201 -0.22198425569814831 0 0.1866817818972302 -0.23981118877977231 0 0.17450151464944069 -0.23276490516368609 0 0.18716213711817259 -0.22455639835484539 0 0.15661990237239229 -0.21733625041789439 0 0.1623464977989032 -0.22856887614484861 0 0.15090654410468329 -0.22688320449844629 0 0.15661990237239229 -0.21733625041789439 0 0.16937657335138201 -0.22198425569814831 0 0.1623464977989032 -0.22856887614484861 0 0.17450151464944069 -0.23276490516368609 0 0.1623464977989032 -0.22856887614484861 0 0.16609645978724119 -0.24143951784646769 0 0.17450151464944069 -0.23276490516368609 0 0.16937657335138201 -0.22198425569814831 0 0.1623464977989032 -0.22856887614484861 0 0.1623464977989032 -0.22856887614484861 0 0.16609645978724119 -0.24143951784646769 0 0.1528270009437688 -0.23836283418195289 0 0.16001236861667459 -0.2513654190734112 0 0.16609645978724119 -0.24143951784646769 0 0.1528270009437688 -0.23836283418195289 0 0.16978669848249819 -0.25098739912941831 0 0.17619278994504239 -0.24587918172992959 0 0.16609645978724119 -0.24143951784646769 0 0.16001236861667459 -0.2513654190734112 0 0.16978669848249819 -0.25098739912941831 0 0.16609645978724119 -0.24143951784646769 0 0.1429630926125974 -0.2502577086919005 0 0.16001236861667459 -0.2513654190734112 0 0.1528270009437688 -0.23836283418195289 0 0.1429630926125974 -0.2502577086919005 0 0.1528270009437688 -0.23836283418195289 0 0.13988621804673579 -0.23152362256679451 0 0.1528270009437688 -0.23836283418195289 0 0.15090654410468329 -0.22688320449844629 0 0.13988621804673579 -0.23152362256679451 0 0.1623464977989032 -0.22856887614484861 0 0.1528270009437688 -0.23836283418195289 0 0.15090654410468329 -0.22688320449844629 0 0.15661990237239229 -0.21733625041789439 0 0.15090654410468329 -0.22688320449844629 0 0.1428531013616163 -0.21862443918074129 0 0.15090654410468329 -0.22688320449844629 0 0.13988621804673579 -0.23152362256679451 0 0.1428531013616163 -0.21862443918074129 0 0.12018370186474731 -0.23305432747703519 0 0.12895394136930069 -0.22163642029703709 0 0.13988621804673579 -0.23152362256679451 0 0.12895394136930069 -0.22163642029703709 0 0.13988621804673579 -0.23152362256679451 0 0.1428531013616163 -0.21862443918074129 0 0.1429630926125974 -0.2502577086919005 0 0.12018370186474731 -0.23305432747703519 0 0.1429630926125974 -0.2502577086919005 0 0.12018370186474731 -0.23305432747703519 0 0.13988621804673579 -0.23152362256679451 0 0.13217397618885759 -0.25462043987800831 0 0.1429630926125974 -0.2502577086919005 0 0.12018370186474731 -0.23305432747703519 0 0.16625281481800089 -0.2066948484094672 0 0.14534349251782941 -0.188833298464089 0 0.16625281481800089 -0.2066948484094672 0 0.14534349251782941 -0.188833298464089 0 0.14909823278687431 -0.20687378182447139 0 0.14534349251782941 -0.188833298464089 0 0.14909823278687431 -0.20687378182447139 0 0.1346280568372662 -0.20359450925845249 0 0.15661990237239229 -0.21733625041789439 0 0.14909823278687431 -0.20687378182447139 0 0.1428531013616163 -0.21862443918074129 0 0.14909823278687431 -0.20687378182447139 0 0.1428531013616163 -0.21862443918074129 0 0.1346280568372662 -0.20359450925845249 0 0.1178461100078927 -0.20838697738218431 0 0.12895394136930069 -0.22163642029703709 0 0.1346280568372662 -0.20359450925845249 0 0.12895394136930069 -0.22163642029703709 0 0.1428531013616163 -0.21862443918074129 0 0.1346280568372662 -0.20359450925845249 0 0.14534349251782941 -0.188833298464089 0 0.1346280568372662 -0.20359450925845249 0 0.13128332926409281 -0.18787359724935929 0 0.1237689835273371 -0.19605207676116951 0 0.1178461100078927 -0.20838697738218431 0 0.1346280568372662 -0.20359450925845249 0 0.1237689835273371 -0.19605207676116951 0 0.1346280568372662 -0.20359450925845249 0 0.13128332926409281 -0.18787359724935929 0 0.1237689835273371 -0.19605207676116951 0 0.1232013989280239 -0.1819146573535104 0 0.13128332926409281 -0.18787359724935929 0 0.12443417021765769 -0.1709717485187108 0 0.14534349251782941 -0.188833298464089 0 0.12443417021765769 -0.1709717485187108 0 0.1232013989280239 -0.1819146573535104 0 0.13128332926409281 -0.18787359724935929 0 0.12443417021765769 -0.1709717485187108 0 0.14534349251782941 -0.188833298464089 0 0.13128332926409281 -0.18787359724935929 0 0.12443417021765769 -0.1709717485187108 0 0.14534349251782941 -0.188833298464089 0 0.13540865390058859 -0.1688207667960602 0 0.14534349251782941 -0.188833298464089 0 0.14658871156029241 -0.16855183333999291 0 0.13540865390058859 -0.1688207667960602 0 0.16486725365112659 -0.18785963188663279 0 0.14658871156029241 -0.16855183333999291 0 0.16486725365112659 -0.18785963188663279 0 0.14534349251782941 -0.188833298464089 0 0.14658871156029241 -0.16855183333999291 0 0.14658871156029241 -0.16855183333999291 0 0.13391177650968769 -0.15242347890466901 0 0.14971917460686079 -0.1530450482394467 0 0.14658871156029241 -0.16855183333999291 0 0.14971917460686079 -0.1530450482394467 0 0.16192904395431579 -0.15800089119817939 0 0.14658871156029241 -0.16855183333999291 0 0.13391177650968769 -0.15242347890466901 0 0.12831016946945831 -0.1492440347933528 0 0.14658871156029241 -0.16855183333999291 0 0.12831016946945831 -0.1492440347933528 0 0.14658871156029241 -0.16855183333999291 0 0.13540865390058859 -0.1688207667960602 0 0.1290045142054978 -0.1612372837293575 0 0.14658871156029241 -0.16855183333999291 0 0.1290045142054978 -0.1612372837293575 0 0.12831016946945831 -0.1492440347933528 0 0.13540865390058859 -0.1688207667960602 0 0.12715697753007521 -0.16591248018761531 0 0.1290045142054978 -0.1612372837293575 0 0.12443417021765769 -0.1709717485187108 0 0.13540865390058859 -0.1688207667960602 0 0.12715697753007521 -0.16591248018761531 0 0.12098675462827781 -0.16200852072179159 0 0.12715697753007521 -0.16591248018761531 0 0.1290045142054978 -0.1612372837293575 0 0.12324902196630889 -0.15465793599018671 0 0.1227471198665283 -0.15880086614903269 0 0.1290045142054978 -0.1612372837293575 0 0.13391177650968769 -0.15242347890466901 0 0.12831016946945831 -0.1492440347933528 0 0.12532898621889721 -0.13663811256420449 0 0.12324902196630889 -0.15465793599018671 0 0.1290045142054978 -0.1612372837293575 0 0.12831016946945831 -0.1492440347933528 0 0.1217036921304827 -0.1482443959076799 0 0.12831016946945831 -0.1492440347933528 0 0.12532898621889721 -0.13663811256420449 0 0.13391177650968769 -0.15242347890466901 0 0.13188977167139071 -0.12546883223523481 0 0.13391177650968769 -0.15242347890466901 0 0.13188977167139071 -0.12546883223523481 0 0.1446303542042412 -0.1380662602394005 0 0.13391177650968769 -0.15242347890466901 0 0.13188977167139071 -0.12546883223523481 0 0.12532898621889721 -0.13663811256420449 0 0.11997683785091839 -0.1276371159963853 0 0.13188977167139071 -0.12546883223523481 0 0.12532898621889721 -0.13663811256420449 0 0.1446303542042412 -0.1380662602394005 0 0.15557261582888751 -0.13003178131142151 0 0.1621281360659286 -0.14191921566573409 0 0.14724036225017881 -0.1245170930860646 0 0.13188977167139071 -0.12546883223523481 0 0.1446303542042412 -0.1380662602394005 0 0.14724036225017881 -0.1245170930860646 0 0.1446303542042412 -0.1380662602394005 0 0.15557261582888751 -0.13003178131142151 0 0.13391177650968769 -0.15242347890466901 0 0.1446303542042412 -0.1380662602394005 0 0.14971917460686079 -0.1530450482394467 0 0.1446303542042412 -0.1380662602394005 0 0.14971917460686079 -0.1530450482394467 0 0.1621281360659286 -0.14191921566573409 0 0.1621281360659286 -0.14191921566573409 0 0.17324983187337631 -0.13165498831909611 0 0.17651024624945799 -0.1485415537171802 0 0.14971917460686079 -0.1530450482394467 0 0.1621281360659286 -0.14191921566573409 0 0.16192904395431579 -0.15800089119817939 0 0.1621281360659286 -0.14191921566573409 0 0.17651024624945799 -0.1485415537171802 0 0.16192904395431579 -0.15800089119817939 0 0.16471491079178111 -0.1205264202314431 0 0.15557261582888751 -0.13003178131142151 0 0.1639163736399934 -0.1310331013819237 0 0.15557261582888751 -0.13003178131142151 0 0.1621281360659286 -0.14191921566573409 0 0.1639163736399934 -0.1310331013819237 0 0.1621281360659286 -0.14191921566573409 0 0.1639163736399934 -0.1310331013819237 0 0.17324983187337631 -0.13165498831909611 0 0.16471491079178111 -0.1205264202314431 0 0.1639163736399934 -0.1310331013819237 0 0.17324983187337631 -0.13165498831909611 0 0.1862357176231304 -0.1238823921021804 0 0.1919305776748628 -0.1461990482496055 0 0.17324983187337631 -0.13165498831909611 0 0.1919305776748628 -0.1461990482496055 0 0.17324983187337631 -0.13165498831909611 0 0.17651024624945799 -0.1485415537171802 0 0.1919305776748628 -0.1461990482496055 0 0.19225769977326759 -0.16432491474026781 0 0.17651024624945799 -0.1485415537171802 0 0.19225769977326759 -0.16432491474026781 0 0.17526083145963689 -0.16308053239281189 0 0.17982600751226671 -0.1762593337595659 0 0.19225769977326759 -0.16432491474026781 0 0.17651024624945799 -0.1485415537171802 0 0.17526083145963689 -0.16308053239281189 0 0.17526083145963689 -0.16308053239281189 0 0.17982600751226671 -0.1762593337595659 0 0.16627328335530381 -0.17069773137902189 0 0.1840061663436266 -0.1900566622106199 0 0.16486725365112659 -0.18785963188663279 0 0.17982600751226671 -0.1762593337595659 0 0.19629081049063871 -0.1815365299480412 0 0.1840061663436266 -0.1900566622106199 0 0.17982600751226671 -0.1762593337595659 0 0.16486725365112659 -0.18785963188663279 0 0.14658871156029241 -0.16855183333999291 0 0.16627328335530381 -0.17069773137902189 0 0.16486725365112659 -0.18785963188663279 0 0.17982600751226671 -0.1762593337595659 0 0.16627328335530381 -0.17069773137902189 0 0.14658871156029241 -0.16855183333999291 0 0.16192904395431579 -0.15800089119817939 0 0.16627328335530381 -0.17069773137902189 0 0.17526083145963689 -0.16308053239281189 0 0.16192904395431579 -0.15800089119817939 0 0.16627328335530381 -0.17069773137902189 0 0.17651024624945799 -0.1485415537171802 0 0.17526083145963689 -0.16308053239281189 0 0.16192904395431579 -0.15800089119817939 0 
</DataArray>
</Points>
<Cells>
<DataArray type="UInt32" Name="connectivity" format="ascii">
0 1 2 3 4 5 6 7 8 9 10 11 12 13 14 15 16 17 18 19 20 21 22 23 24 25 26 27 28 29 30 31 32 33 34 35 36 37 38 39 40 41 42 43 44 45 46 47 48 49 50 51 52 53 54 55 56 57 58 59 60 61 62 63 64 65 66 67 68 69 70 71 72 73 74 75 76 77 78 79 80 81 82 83 84 85 86 87 88 89 90 91 92 93 94 95 96 97 98 99 100 101 102 103 104 105 106 107 108 109 110 111 112 113 114 115 116 117 118 119 120 121 122 123 124 125 126 127 128 129 130 131 132 133 134 135 136 137 138 139 140 141 142 143 144 145 146 147 148 149 150 151 152 153 154 155 156 157 158 159 160 161 162 163 164 165 166 167 168 169 170 171 172 173 174 175 176 177 178 179 180 181 182 183 184 185 186 187 188 189 190 191 192 193 194 195 196 197 198 199 200 201 202 203 204 205 206 207 208 209 210 211 212 213 214 215 216 217 218 219 220 221 222 223 224 225 226 227 228 229 230 231 232 233 234 235 236 237 238 239 240 241 242 243 244 245 246 247 248 249 250 251 252 253 254 255 256 257 258 259 260 261 262 263 264 265 266 267 268 269 270 271 272 273 274 275 276 277 278 279 280 281 282 283 284 285 286 287 288 289 290 291 292 293 294 295 296 297 298 299 300 301 302 303 304 305 306 307 308 309 310 311 312 313 314 315 316 317 318 319 320 321 322 323 324 325 326 327 328 329 330 331 332 333 334 335 336 337 338 339 340 341 342 343 344 345 346 347 348 349 350 351 352 353 354 355 356 357 358 359 360 361 362 363 364 365 366 367 368 369 370 371 372 373 374 375 376 377 378 379 380 381 382 383 384 385 386 387 388 389 390 391 392 393 394 395 396 397 398 399 400 401 402 403 404 405 406 407 408 409 410 411 412 413 414 415 416 417 418 419 420 421 422 423 424 425 426 427 428 429 430 431 432 433 434 435 436 437 438 439 440 441 442 443 444 445 446 447 448 449 450 451 452 453 454 455 456 457 458 459 460 461 462 463 464 465 466 467 468 469 470 471 472 473 474 475 476 477 478 479 480 481 482 483 484 485 486 487 488 489 490 491 492 493 494 495 496 497 498 499 500 501 502 503 504 505 506 507 508 509 510 511 512 513 514 515 516 517 518 519 520 521 522 523 524 525 526 527 528 529 530 531 532 533 534 535 536 537 538 539 540 541 542 543 544 545 546 547 548 549 550 551 552 553 554 555 556 557 558 559 560 561 562 563 564 565 566 567 568 569 570 571 572 573 574 575 576 577 578 579 580 581 582 583 584 585 586 587 588 589 590 591 592 593 594 595 596 597 598 599 600 601 602 603 604 605 606 607 608 609 610 611 612 613 614 615 616 617 618 619 620 621 622 623 624 625 626 627 628 629 630 631 632 633 634 635 636 637 638 639 640 641 642 643 644 645 646 647 648 649 650 651 652 653 654 655 656 657 658 659 660 661 662 663 664 665 666 667 668 669 670 671 672 673 674 675 676 677 678 679 680 681 682 683 684 685 686 687 688 689 690 691 692 693 694 695 696 697 698 699 700 701 702 703 704 705 706 707 708 709 710 711 712 713 714 715 716 717 718 719 720 721 722 723 724 725 726 727 728 729 730 731 732 733 734 735 736 737 738 739 740 741 742 743 744 745 746 747 748 749 750 751 752 753 754 755 756 757 758 759 760 761 762 763 764 765 766 767 768 769 770 771 772 773 774 775 776 777 778 779 780 781 782 783 784 785 786 787 788 789 790 791 792 793 794 795 796 797 798 799 800 801 802 803 804 805 806 807 808 809 810 811 812 813 814 815 816 817 818 819 820 821 822 823 824 825 826 827 828 829 830 831 832 833 834 835 836 837 838 839 840 841 842 843 844 845 846 847 848 849 850 851 852 853 854 855 856 857 858 859 860 861 862 863 864 865 866 867 868 869 870 871 872 873 874 875 876 877 878 879 880 881 882 883 884 885 886 887 888 889 890 891 892 893 894 895 896 897 898 899 900 901 902 903 904 905 906 907 908 909 910 911 912 913 914 915 916 917 918 919 920 921 922 923 924 925 926 927 928 929 930 931 932 933 934 935 936 937 938 939 940 941 942 943 944 945 946 947 948 949 950 951 952 953 954 955 956 957 958 959 960 961 962 963 964 965 966 967 968 969 970 971 972 973 974 975 976 977 978 979 980 981 982 983 984 985 986 987 988 989 990 991 992 993 994 995 996 997 998 999 1000 1001 1002 1003 1004 1005 1006 1007 1008 1009 1010 1011 1012 1013 1014 1015 1016 1017 1018 1019 1020 1021 1022 1023 1024 1025 1026 1027 1028 1029 1030 1031 1032 1033 1034 1035 1036 1037 1038 1039 1040 1041 1042 1043 1044 1045 1046 1047 1048 1049 1050 1051 1052 1053 1054 1055 1056 1057 1058 1059 1060 1061 1062 1063 1064 1065 1066 1067 1068 1069 1070 1071 1072 1073 1074 1075 1076 1077 1078 1079 1080 1081 1082 1083 1084 1085 1086 1087 1088 1089 1090 1091 1092 1093 1094 1095 1096 1097 1098 1099 1100 1101 1102 1103 1104 1105 1106 1107 1108 1109 1110 1111 1112 1113 1114 1115 1116 1117 1118 1119 1120 1121 1122 1123 1124 1125 1126 1127 1128 1129 1130 1131 1132 1133 1134 1135 1136 1137 1138 1139 1140 1141 1142 1143 1144 1145 1146 1147 1148 1149 1150 1151 1152 1153 1154 1155 1156 1157 1158 1159 1160 1161 1162 1163 1164 1165 1166 1167 1168 1169 1170 1171 1172 1173 1174 1175 1176 1177 1178 1179 1180 1181 1182 1183 1184 1185 1186 1187 1188 1189 1190 1191 1192 1193 1194 1195 1196 1197 1198 1199 1200 1201 1202 1203 1204 1205 1206 1207 1208 1209 1210 1211 1212 1213 1214 1215 1216 1217 1218 1219 1220 1221 1222 1223 1224 1225 1226 1227 1228 1229 1230 1231 1232 1233 1234 1235 1236 1237 1238 1239 1240 1241 1242 1243 1244 1245 1246 1247 1248 1249 1250 1251 1252 1253 1254 1255 1256 1257 1258 1259 1260 1261 1262 1263 1264 1265 1266 1267 1268 1269 1270 1271 1272 1273 1274 1275 1276 1277 1278 1279 1280 1281 1282 1283 1284 1285 1286 1287 1288 1289 1290 1291 1292 1293 1294 1295 1296 1297 1298 1299 1300 1301 1302 1303 1304 1305 1306 1307 1308 1309 1310 1311 1312 1313 1314 1315 1316 1317 1318 1319 1320 1321 1322 1323 1324 1325 1326 1327 1328 1329 1330 1331 1332 1333 1334 1335 1336 1337 1338 1339 1340 1341 1342 1343 1344 1345 1346 1347 1348 1349 1350 1351 1352 1353 1354 1355 1356 1357 1358 1359 1360 1361 1362 1363 1364 1365 1366 1367 1368 1369 1370 1371 1372 1373 1374 1375 1376 1377 1378 1379 1380 1381 1382 1383 1384 1385 1386 1387 1388 1389 1390 1391 1392 1393 1394 1395 1396 1397 1398 1399 1400 1401 1402 1403 1404 1405 1406 1407 1408 1409 1410 1411 1412 1413 1414 1415 1416 1417 1418 1419 1420 1421 1422 1423 1424 1425 1426 1427 1428 1429 1430 1431 1432 1433 1434 1435 1436 1437 1438 1439 1440 1441 1442 1443 1444 1445 1446 1447 1448 1449 1450 1451 1452 1453 1454 1455 1456 1457 1458 1459 1460 1461 1462 1463 1464 1465 1466 1467 1468 1469 1470 1471 1472 1473 1474 1475 1476 1477 1478 1479 1480 1481 1482 1483 1484 1485 1486 1487 1488 1489 1490 1491 1492 1493 1494 1495 1496 1497 1498 1499 1500 1501 1502 1503 1504 1505 1506 1507 1508 1509 1510 1511 1512 1513 1514 1515 1516 1517 1518 1519 1520 1521 1522 1523 1524 1525 1526 1527 1528 1529 1530 1531 1532 1533 1534 1535 1536 1537 1538 1539 1540 1541 1542 1543 1544 1545 1546 1547 1548 1549 1550 1551 1552 1553 1554 1555 1556 1557 1558 1559 1560 1561 1562 1563 1564 1565 1566 1567 1568 1569 1570 1571 1572 1573 1574 1575 1576 1577 1578 1579 1580 1581 1582 1583 1584 1585 1586 1587 1588 1589 1590 1591 1592 1593 1594 1595 1596 1597 1598 1599 1600 1601 1602 1603 1604 1605 1606 1607 1608 1609 1610 1611 1612 1613 1614 1615 1616 1617 1618 1619 1620 1621 1622 1623 1624 1625 1626 1627 1628 1629 1630 1631 1632 1633 1634 1635 1636 1637 1638 1639 1640 1641 1642 1643 1644 1645 1646 1647 1648 1649 1650 1651 1652 1653 1654 1655 1656 1657 1658 1659 1660 1661 1662 1663 1664 1665 1666 1667 1668 1669 1670 1671 1672 1673 1674 1675 1676 1677 1678 1679 1680 1681 1682 1683 1684 1685 1686 1687 1688 1689 1690 1691 1692 1693 1694 1695 1696 1697 1698 1699 1700 1701 1702 1703 1704 1705 1706 1707 1708 1709 1710 1711 1712 1713 1714 1715 1716 1717 1718 1719 1720 1721 1722 1723 1724 1725 1726 1727 1728 1729 1730 1731 1732 1733 1734 1735 1736 1737 1738 1739 1740 1741 1742 1743 1744 1745 1746 1747 1748 1749 1750 1751 1752 1753 1754 1755 1756 1757 1758 1759 1760 1761 1762 1763 1764 1765 1766 1767 1768 1769 1770 1771 1772 1773 1774 1775 1776 1777 1778 1779 1780 1781 1782 1783 1784 1785 1786 1787 1788 1789 1790 1791 1792 1793 1794 1795 1796 1797 1798 1799 1800 1801 1802 1803 1804 1805 1806 1807 1808 1809 1810 1811 1812 1813 1814 1815 1816 1817 1818 1819 1820 1821 1822 1823 1824 1825 1826 1827 1828 1829 1830 1831 1832 1833 1834 1835 1836 1837 1838 1839 1840 1841 1842 1843 1844 1845 1846 1847 1848 1849 1850 1851 1852 1853 1854 1855 1856 1857 1858 1859 1860 1861 1862 1863 1864 1865 1866 1867 1868 1869 1870 1871 1872 1873 1874 1875 1876 1877 1878 1879 1880 1881 1882 1883 1884 1885 1886 1887 1888 1889 1890 1891 1892 1893 1894 1895 1896 1897 1898 1899 1900 1901 1902 1903 1904 1905 1906 1907 1908 1909 1910 1911 1912 1913 1914 1915 1916 1917 1918 1919 1920 1921 1922 1923 1924 1925 1926 1927 1928 1929 1930 1931 1932 1933 1934 1935 1936 1937 1938 1939 1940 1941 1942 1943 1944 1945 1946 1947 1948 1949 1950 1951 1952 1953 1954 1955 1956 1957 1958 1959 1960 1961 1962 1963 1964 1965 1966 1967 1968 1969 1970 1971 1972 1973 1974 1975 1976 1977 1978 1979 1980 1981 1982 1983 1984 1985 1986 1987 1988 1989 1990 1991 1992 1993 1994 1995 1996 1997 1998 1999 2000 2001 2002 2003 2004 2005 2006 2007 2008 2009 2010 2011 2012 2013 2014 2015 2016 2017 2018 2019 2020 2021 2022 2023 2024 2025 2026 2027 2028 2029 2030 2031 2032 2033 2034 2035 2036 2037 2038 2039 2040 2041 2042 2043 2044 2045 2046 2047 2048 2049 2050 2051 2052 2053 2054 2055 2056 2057 2058 2059 2060 2061 2062 2063 2064 2065 2066 2067 2068 2069 2070 2071 2072 2073 2074 2075 2076 2077 2078 2079 2080 2081 2082 2083 2084 2085 2086 2087 2088 2089 2090 2091 2092 2093 2094 2095 2096 2097 2098 2099 2100 2101 2102 2103 2104 2105 2106 2107 2108 2109 2110 2111 2112 2113 2114 2115 2116 2117 2118 2119 2120 2121 2122 2123 2124 2125 2126 2127 2128 2129 2130 2131 2132 2133 2134 2135 2136 2137 2138 2139 2140 2141 2142 2143 2144 2145 2146 2147 2148 2149 2150 2151 2152 2153 2154 2155 2156 2157 2158 2159 2160 2161 2162 2163 2164 2165 2166 2167 2168 2169 2170 2171 2172 2173 2174 2175 2176 2177 2178 2179 2180 2181 2182 2183 2184 2185 2186 2187 2188 2189 2190 2191 2192 2193 2194 2195 2196 2197 2198 2199 2200 2201 2202 2203 2204 2205 2206 2207 2208 2209 2210 2211 2212 2213 2214 2215 2216 2217 2218 2219 2220 2221 2222 2223 2224 2225 2226 2227 2228 2229 2230 2231 2232 2233 2234 2235 2236 2237 2238 2239 2240 2241 2242 2243 2244 2245 2246 2247 2248 2249 2250 2251 2252 2253 2254 2255 2256 2257 2258 2259 2260 2261 2262 2263 2264 2265 2266 2267 2268 2269 2270 2271 2272 2273 2274 2275 2276 2277 2278 2279 2280 2281 2282 2283 2284 2285 2286 2287 2288 2289 2290 2291 2292 2293 2294 2295 2296 2297 2298 2299 2300 2301 2302 2303 2304 2305 2306 2307 2308 2309 2310 2311 2312 2313 2314 2315 2316 2317 2318 2319 2320 2321 2322 2323 2324 2325 2326 2327 2328 2329 2330 2331 2332 2333 2334 2335 2336 2337 2338 2339 2340 2341 2342 2343 2344 2345 2346 2347 2348 2349 2350 2351 2352 2353 2354 2355 2356 2357 2358 2359 2360 2361 2362 2363 2364 2365 2366 2367 2368 2369 2370 2371 2372 2373 2374 2375 2376 2377 2378 2379 2380 2381 2382 2383 2384 2385 2386 2387 2388 2389 2390 2391 2392 2393 2394 2395 2396 2397 2398 2399 2400 2401 2402 2403 2404 2405 2406 2407 2408 2409 2410 2411 2412 2413 2414 2415 2416 2417 2418 2419 2420 2421 2422 2423 2424 2425 2426 2427 2428 2429 2430 2431 2432 2433 2434 2435 2436 2437 2438 2439 2440 2441 2442 2443 2444 2445 2446 2447 2448 2449 2450 2451 2452 2453 2454 2455 2456 2457 2458 2459 2460 2461 2462 2463 2464 2465 2466 2467 2468 2469 2470 2471 2472 2473 2474 2475 2476 2477 2478 2479 2480 2481 2482 2483 2484 2485 2486 2487 2488 2489 2490 2491 2492 2493 2494 2495 2496 2497 2498 2499 2500 2501 2502 2503 2504 2505 2506 2507 2508 2509 2510 2511 2512 2513 2514 2515 2516 2517 2518 2519 2520 2521 2522 2523 2524 2525 2526 2527 2528 2529 2530 2531 2532 2533 2534 2535 2536 2537 2538 2539 2540 2541 2542 2543 2544 2545 2546 2547 2548 2549 2550 2551 2552 2553 2554 2555 2556 2557 2558 2559 2560 2561 2562 2563 2564 2565 2566 2567 2568 2569 2570 2571 2572 2573 2574 2575 2576 2577 2578 2579 2580 2581 2582 2583 2584 2585 2586 2587 2588 2589 2590 2591 2592 2593 2594 2595 2596 2597 2598 2599 2600 2601 2602 2603 2604 2605 2606 2607 2608 2609 2610 2611 2612 2613 2614 2615 2616 2617 2618 2619 2620 2621 2622 2623 2624 2625 2626 2627 2628 2629 2630 2631 2632 2633 2634 2635 2636 2637 2638 2639 2640 2641 2642 2643 2644 2645 2646 2647 2648 2649 2650 2651 2652 2653 2654 2655 2656 2657 2658 2659 2660 2661 2662 2663 2664 2665 2666 2667 2668 2669 2670 2671 2672 2673 2674 2675 2676 2677 2678 2679 2680 2681 2682 2683 2684 2685 2686 2687 2688 2689 2690 2691 2692 2693 2694 2695 2696 2697 2698 2699 2700 2701 2702 2703 2704 2705 2706 2707 2708 2709 2710 2711 2712 2713 2714 2715 2716 2717 2718 2719 2720 2721 2722 2723 2724 2725 2726 2727 2728 2729 2730 2731 2732 2733 2734 2735 2736 2737 2738 2739 2740 2741 2742 2743 2744 2745 2746 2747 2748 2749 2750 2751 2752 2753 2754 2755 2756 2757 2758 2759 2760 2761 2762 2763 2764 2765 2766 2767 2768 2769 2770 2771 2772 2773 2774 2775 2776 2777 2778 2779 2780 2781 2782 2783 2784 2785 2786 2787 2788 2789 2790 2791 2792 2793 2794 2795 2796 2797 2798 2799 2800 2801 2802 2803 2804 2805 2806 2807 2808 2809 2810 2811 2812 2813 2814 2815 2816 2817 2818 2819 2820 2821 2822 2823 2824 2825 2826 2827 2828 2829 2830 2831 2832 2833 2834 2835 2836 2837 2838 2839 2840 2841 2842 2843 2844 2845 2846 2847 2848 2849 2850 2851 2852 2853 2854 2855 2856 2857 2858 2859 2860 2861 2862 2863 2864 2865 2866 2867 2868 2869 2870 2871 2872 2873 2874 2875 2876 2877 2878 2879 2880 2881 2882 2883 2884 2885 2886 2887 2888 2889 2890 2891 2892 2893 2894 2895 2896 2897 2898 2899 2900 2901 2902 2903 2904 2905 2906 2907 2908 2909 2910 2911 2912 2913 2914 2915 2916 2917 2918 2919 2920 2921 2922 2923 2924 2925 2926 2927 2928 2929 2930 2931 2932 2933 2934 2935 2936 2937 2938 2939 2940 2941 2942 2943 2944 2945 2946 2947 2948 2949 2950 2951 2952 2953 2954 2955 2956 2957 2958 2959 2960 2961 2962 2963 2964 2965 2966 2967 2968 2969 2970 2971 2972 2973 2974 2975 2976 2977 2978 2979 2980 2981 2982 2983 2984 2985 2986 2987 2988 2989 2990 2991 2992 2993 2994 2995 2996 2997 2998 2999 3000 3001 3002 3003 3004 3005 3006 3007 3008 3009 3010 3011 3012 3013 3014 3015 3016 3017 3018 3019 3020 3021 3022 3023 3024 3025 3026 3027 3028 3029 3030 3031 3032 3033 3034 3035 3036 3037 3038 3039 3040 3041 3042 3043 3044 3045 3046 3047 3048 3049 3050 3051 3052 3053 3054 3055 3056 3057 3058 3059 3060 3061 3062 3063 3064 3065 3066 3067 3068 3069 3070 3071 3072 3073 3074 3075 3076 3077 3078 3079 3080 3081 3082 3083 3084 3085 3086 3087 3088 3089 3090 3091 3092 3093 3094 3095 3096 3097 3098 3099 3100 3101 3102 3103 3104 3105 3106 3107 3108 3109 3110 3111 3112 3113 3114 3115 3116 3117 3118 3119 3120 3121 3122 3123 3124 3125 3126 3127 3128 3129 3130 3131 3132 3133 3134 3135 3136 3137 3138 3139 3140 3141 3142 3143 3144 3145 3146 3147 3148 3149 3150 3151 3152 3153 3154 3155 3156 3157 3158 3159 3160 3161 3162 3163 3164 3165 3166 3167 3168 3169 3170 3171 3172 3173 3174 3175 3176 3177 3178 3179 3180 3181 3182 3183 3184 3185 3186 3187 3188 3189 3190 3191 3192 3193 3194 3195 3196 3197 3198 3199 3200 3201 3202 3203 3204 3205 3206 3207 3208 3209 3210 3211 3212 3213 3214 3215 3216 3217 3218 3219 3220 3221 3222 3223 3224 3225 3226 3227 3228 3229 3230 3231 3232 3233 3234 3235 3236 3237 3238 3239 3240 3241 3242 3243 3244 3245 3246 3247 3248 3249 3250 3251 3252 3253 3254 3255 3256 3257 3258 3259 3260 3261 3262 3263 3264 3265 3266 3267 3268 3269 3270 3271 3272 3273 3274 3275 3276 3277 3278 3279 3280 3281 3282 3283 3284 3285 3286 3287 3288 3289 3290 3291 3292 3293 3294 3295 3296 3297 3298 3299 3300 3301 3302 3303 3304 3305 3306 3307 3308 3309 3310 3311 3312 3313 3314 3315 3316 3317 3318 3319 3320 3321 3322 3323 3324 3325 3326 3327 3328 3329 3330 3331 3332 3333 3334 3335 3336 3337 3338 3339 3340 3341 3342 3343 3344 3345 3346 3347 3348 3349 3350 3351 3352 3353 3354 3355 3356 3357 3358 3359 3360 3361 3362 3363 3364 3365 3366 3367 3368 3369 3370 3371 3372 3373 3374 3375 3376 3377 3378 3379 3380 3381 3382 3383 3384 3385 3386 3387 3388 3389 3390 3391 3392 3393 3394 3395 3396 3397 3398 3399 3400 3401 3402 3403 3404 3405 3406 3407 3408 3409 3410 3411 3412 3413 3414 3415 3416 3417 3418 3419 3420 3421 3422 3423 3424 3425 3426 3427 3428 3429 3430 3431 3432 3433 3434 3435 3436 3437 3438 3439 3440 3441 3442 3443 3444 3445 3446 3447 3448 3449 3450 3451 3452 3453 3454 3455 3456 3457 3458 3459 3460 3461 3462 3463 3464 3465 3466 3467 3468 3469 3470 3471 3472 3473 3474 3475 3476 3477 3478 3479 3480 3481 3482 3483 3484 3485 3486 3487 3488 3489 3490 3491 3492 3493 3494 3495 3496 3497 3498 3499 3500 3501 3502 3503 3504 3505 3506 3507 3508 3509 3510 3511 3512 3513 3514 3515 3516 3517 3518 3519 3520 3521 3522 3523 3524 3525 3526 3527 3528 3529 3530 3531 3532 3533 3534 3535 3536 3537 3538 3539 3540 3541 3542 3543 3544 3545 3546 3547 3548 3549 3550 3551 3552 3553 3554 3555 3556 3557 3558 3559 3560 3561 3562 3563 3564 3565 3566 3567 3568 3569 3570 3571 3572 3573 3574 3575 3576 3577 3578 3579 3580 3581 3582 3583 3584 3585 3586 3587 3588 3589 3590 3591 3592 3593 3594 3595 3596 3597 3598 3599 3600 3601 3602 3603 3604 3605 3606 3607 3608 3609 3610 3611 3612 3613 3614 3615 3616 3617 3618 3619 3620 3621 3622 3623 3624 3625 3626 3627 3628 3629 3630 3631 3632 3633 3634 3635 3636 3637 3638 3639 3640 3641 3642 3643 3644 3645 3646 3647 3648 3649 3650 3651 3652 3653 3654 3655 3656 3657 3658 3659 3660 3661 3662 3663 3664 3665 3666 3667 3668 3669 3670 3671 3672 3673 3674 3675 3676 3677 3678 3679 3680 3681 3682 3683 3684 3685 3686 3687 3688 3689 3690 3691 3692 3693 3694 3695 3696 3697 3698 3699 3700 3701 3702 3703 3704 3705 3706 3707 3708 3709 3710 3711 3712 3713 3714 3715 3716 3717 3718 3719 3720 3721 3722 3723 3724 3725 3726 3727 3728 3729 3730 3731 3732 3733 3734 3735 3736 3737 3738 3739 3740 3741 3742 3743 3744 3745 3746 3747 3748 3749 3750 3751 3752 3753 3754 3755 3756 3757 3758 3759 3760 3761 3762 3763 3764 3765 3766 3767 3768 3769 3770 3771 3772 3773 3774 3775 3776 3777 3778 3779 3780 3781 3782 3783 3784 3785 3786 3787 3788 3789 3790 3791 3792 3793 3794 3795 3796 3797 3798 3799 3800 3801 3802 3803 3804 3805 3806 3807 3808 3809 3810 3811 3812 3813 3814 3815 3816 3817 3818 3819 3820 3821 3822 3823 3824 3825 3826 3827 3828 3829 3830 3831 3832 3833 3834 3835 3836 3837 3838 3839 3840 3841 3842 3843 3844 3845 3846 3847 3848 3849 3850 3851 3852 3853 3854 3855 3856 3857 3858 3859 3860 3861 3862 3863 3864 3865 3866 3867 3868 3869 3870 3871 3872 3873 3874 3875 3876 3877 3878 3879 3880 3881 3882 3883 3884 3885 3886 3887 3888 3889 3890 3891 3892 3893 3894 3895 3896 3897 3898 3899 3900 3901 3902 3903 3904 3905 3906 3907 3908 3909 3910 3911 3912 3913 3914 3915 3916 3917 3918 3919 3920 3921 3922 3923 3924 3925 3926 3927 3928 3929 3930 3931 3932 3933 3934 3935 3936 3937 3938 3939 3940 3941 3942 3943 3944 3945 3946 3947 3948 3949 3950 3951 3952 3953 3954 3955 3956 3957 3958 3959 3960 3961 3962 3963 3964 3965 3966 3967 3968 3969 3970 3971 3972 3973 3974 3975 3976 3977 3978 3979 3980 3981 3982 3983 3984 3985 3986 3987 3988 3989 3990 3991 3992 3993 3994 3995 3996 3997 3998 3999 4000 4001 4002 4003 4004 4005 4006 4007 4008 4009 4010 4011 4012 4013 4014 4015 4016 4017 4018 4019 4020 4021 4022 4023 4024 4025 4026 4027 4028 4029 4030 4031 4032 4033 4034 4035 4036 4037 4038 4039 4040 4041 4042 4043 4044 4045 4046 4047 4048 4049 4050 4051 4052 4053 4054 4055 4056 4057 4058 4059 4060 4061 4062 4063 4064 4065 4066 4067 4068 4069 4070 4071 4072 4073 4074 4075 4076 4077 4078 4079 4080 4081 4082 4083 4084 4085 4086 4087 4088 4089 4090 4091 4092 4093 4094 4095 4096 4097 4098 4099 4100 4101 4102 4103 4104 4105 4106 4107 4108 4109 4110 4111 4112 4113 4114 4115 4116 4117 4118 4119 4120 4121 4122 4123 4124 4125 4126 4127 4128 4129 4130 4131 4132 4133 4134 4135 4136 4137 4138 4139 4140 4141 4142 4143 4144 4145 4146 4147 4148 4149 4150 4151 4152 4153 4154 4155 4156 4157 4158 4159 4160 4161 4162 4163 4164 4165 4166 4167 4168 4169 4170 4171 4172 4173 4174 4175 4176 4177 4178 4179 4180 4181 4182 4183 4184 4185 4186 4187 4188 4189 4190 4191 4192 4193 4194 4195 4196 4197 4198 4199 4200 4201 4202 4203 4204 4205 4206 4207 4208 4209 4210 4211 4212 4213 4214 4215 4216 4217 4218 4219 4220 4221 4222 4223 4224 4225 4226 4227 4228 4229 4230 4231 4232 4233 4234 4235 4236 4237 4238 4239 4240 4241 4242 4243 4244 4245 4246 4247 4248 4249 4250 4251 4252 4253 4254 4255 4256 4257 4258 4259 4260 4261 4262 4263 4264 4265 4266 4267 4268 4269 4270 4271 4272 4273 4274 4275 4276 4277 4278 4279 4280 4281 4282 4283 4284 4285 4286 4287 4288 4289 4290 4291 4292 4293 4294 4295 4296 4297 4298 4299 4300 4301 4302 4303 4304 4305 4306 4307 4308 4309 4310 4311 4312 4313 4314 4315 4316 4317 4318 4319 4320 4321 4322 4323 4324 4325 4326 4327 4328 4329 4330 4331 4332 4333 4334 4335 4336 4337 4338 4339 4340 4341 4342 4343 4344 4345 4346 4347 4348 4349 4350 4351 4352 4353 4354 4355 4356 4357 4358 4359 4360 4361 4362 4363 4364 4365 4366 4367 4368 4369 4370 4371 4372 4373 4374 4375 4376 4377 4378 4379 4380 4381 4382 4383 4384 4385 4386 4387 4388 4389 4390 4391 4392 4393 4394 4395 4396 4397 4398 4399 4400 4401 4402 4403 4404 4405 4406 4407 4408 4409 4410 4411 4412 4413 4414 4415 4416 4417 4418 4419 4420 4421 4422 4423 4424 4425 4426 4427 4428 4429 4430 4431 4432 4433 4434 4435 4436 4437 4438 4439 4440 4441 4442 4443 4444 4445 4446 4447 4448 4449 4450 4451 4452 4453 4454 4455 4456 4457 4458 4459 4460 4461 4462 4463 4464 4465 4466 4467 4468 4469 4470 4471 4472 4473 4474 4475 4476 4477 4478 4479 4480 4481 4482 4483 4484 4485 4486 4487 4488 4489 4490 4491 4492 4493 4494 4495 4496 4497 4498 4499 4500 4501 4502 4503 4504 4505 4506 4507 4508 4509 4510 4511 4512 4513 4514 4515 4516 4517 4518 4519 4520 4521 4522 4523 4524 4525 4526 4527 4528 4529 4530 4531 4532 4533 4534 4535 4536 4537 4538 4539 4540 4541 4542 4543 4544 4545 4546 4547 4548 4549 4550 4551 4552 4553 4554 4555 4556 4557 4558 4559 4560 4561 4562 4563 4564 4565 4566 4567 4568 4569 4570 4571 4572 4573 4574 4575 4576 4577 4578 4579 4580 4581 4582 4583 4584 4585 4586 4587 4588 4589 4590 4591 4592 4593 4594 4595 4596 4597 4598 4599 4600 4601 4602 4603 4604 4605 4606 4607 4608 4609 4610 4611 4612 4613 4614 4615 4616 4617 4618 4619 4620 4621 4622 4623 4624 4625 4626 4627 4628 4629 4630 4631 4632 4633 4634 4635 4636 4637 4638 4639 4640 4641 4642 4643 4644 4645 4646 4647 4648 4649 4650 4651 4652 4653 4654 4655 4656 4657 4658 4659 4660 4661 4662 4663 4664 4665 4666 4667 4668 4669 4670 4671 4672 4673 4674 4675 4676 4677 4678 4679 4680 4681 4682 4683 4684 4685 4686 4687 4688 4689 4690 4691 4692 4693 4694 4695 4696 4697 4698 4699 4700 4701 4702 4703 4704 4705 4706 4707 4708 4709 4710 4711 4712 4713 4714 4715 4716 4717 4718 4719 4720 4721 4722 4723 4724 4725 4726 4727 4728 4729 4730 4731 4732 4733 4734 4735 4736 4737 4738 4739 4740 4741 4742 4743 4744 4745 4746 4747 4748 4749 4750 4751 4752 4753 4754 4755 4756 4757 4758 4759 4760 4761 4762 4763 4764 4765 4766 4767 4768 4769 4770 4771 4772 4773 4774 4775 4776 4777 4778 4779 4780 4781 4782 4783 4784 4785 4786 4787 4788 4789 4790 4791 4792 4793 4794 4795 4796 4797 4798 4799 4800 4801 4802 4803 4804 4805 4806 4807 4808 4809 4810 4811 4812 4813 4814 4815 4816 4817 4818 4819 4820 4821 4822 4823 4824 4825 4826 4827 4828 4829 4830 4831 4832 4833 4834 4835 4836 4837 4838 4839 4840 4841 4842 4843 4844 4845 4846 4847 4848 4849 4850 4851 4852 4853 4854 4855 4856 4857 4858 4859 4860 4861 4862 4863 4864 4865 4866 4867 4868 4869 4870 4871 4872 4873 4874 4875 4876 4877 4878 4879 4880 4881 4882 4883 4884 4885 4886 4887 4888 4889 4890 4891 4892 4893 4894 4895 4896 4897 4898 4899 4900 4901 4902 4903 4904 4905 4906 4907 4908 4909 4910 4911 4912 4913 4914 4915 4916 4917 4918 4919 4920 4921 4922 4923 4924 4925 4926 4927 4928 4929 4930 4931 4932 4933 4934 4935 4936 4937 4938 4939 4940 4941 4942 4943 4944 4945 4946 4947 4948 4949 4950 4951 4952 4953 4954 4955 4956 4957 4958 4959 4960 4961 4962 4963 4964 4965 4966 4967 4968 4969 4970 4971 4972 4973 4974 4975 4976 4977 4978 4979 4980 4981 4982 4983 4984 4985 4986 4987 4988 4989 4990 4991 4992 4993 4994 4995 4996 4997 4998 4999 5000 5001 5002 5003 5004 5005 5006 5007 5008 5009 5010 5011 5012 5013 5014 5015 5016 5017 5018 5019 5020 5021 5022 5023 5024 5025 5026 5027 5028 5029 5030 5031 5032 5033 5034 5035 5036 5037 5038 5039 5040 5041 5042 5043 5044 5045 5046 5047 5048 5049 5050 5051 5052 5053 5054 5055 5056 5057 5058 5059 5060 5061 5062 5063 5064 5065 5066 5067 5068 5069 5070 5071 5072 5073 5074 5075 5076 5077 5078 5079 5080 5081 5082 5083 5084 5085 5086 5087 5088 5089 5090 5091 5092 5093 5094 5095 5096 5097 5098 5099 5100 5101 5102 5103 5104 5105 5106 5107 5108 5109 5110 5111 5112 5113 5114 5115 5116 5117 5118 5119 5120 5121 5122 5123 5124 5125 5126 5127 5128 5129 5130 5131 5132 5133 5134 5135 5136 5137 5138 5139 5140 5141 5142 5143 5144 5145 5146 5147 5148 5149 5150 5151 5152 5153 5154 5155 5156 5157 5158 5159 5160 5161 5162 5163 5164 5165 5166 5167 5168 5169 5170 5171 5172 5173 5174 5175 5176 5177 5178 5179 5180 5181 5182 5183 5184 5185 5186 5187 5188 5189 5190 5191 5192 5193 5194 5195 5196 5197 5198 5199 5200 5201 5202 5203 5204 5205 5206 5207 5208 5209 5210 5211 5212 5213 5214 5215 5216 5217 5218 5219 5220 5221 5222 5223 5224 5225 5226 5227 5228 5229 5230 5231 5232 5233 5234 5235 5236 5237 5238 5239 5240 5241 5242 5243 5244 5245 5246 5247 5248 5249 5250 5251 5252 5253 5254 5255 5256 5257 5258 5259 5260 5261 5262 5263 5264 5265 5266 5267 5268 5269 5270 5271 5272 5273 5274 5275 5276 5277 5278 5279 5280 5281 5282 5283 5284 5285 5286 5287 5288 5289 5290 5291 5292 5293 5294 5295 5296 5297 5298 5299 5300 5301 5302 5303 5304 5305 5306 5307 5308 5309 5310 5311 5312 5313 5314 5315 5316 5317 5318 5319 5320 5321 5322 5323 5324 5325 5326 5327 5328 5329 5330 5331 5332 5333 5334 5335 5336 5337 5338 5339 5340 5341 5342 5343 5344 5345 5346 5347 5348 5349 5350 5351 5352 5353 5354 5355 5356 5357 5358 5359 5360 5361 5362 5363 5364 5365 5366 5367 5368 5369 5370 5371 5372 5373 5374 5375 5376 5377 5378 5379 5380 5381 5382 5383 5384 5385 5386 5387 5388 5389 5390 5391 5392 5393 5394 5395 5396 5397 5398 5399 5400 5401 5402 5403 5404 5405 5406 5407 5408 5409 5410 5411 5412 5413 5414 5415 5416 5417 5418 5419 5420 5421 5422 5423 5424 5425 5426 5427 5428 5429 5430 5431 5432 5433 5434 5435 5436 5437 5438 5439 5440 5441 5442 5443 5444 5445 5446 5447 5448 5449 5450 5451 5452 5453 5454 5455 5456 5457 5458 5459 5460 5461 5462 5463 5464 5465 5466 5467 5468 5469 5470 5471 5472 5473 5474 5475 5476 5477 5478 5479 5480 5481 5482 5483 5484 5485 5486 5487 5488 5489 5490 5491 5492 5493 5494 5495 5496 5497 5498 5499 5500 5501 5502 5503 5504 5505 5506 5507 5508 5509 5510 5511 5512 5513 5514 5515 5516 5517 5518 5519 5520 5521 5522 5523 5524 5525 5526 5527 5528 5529 5530 5531 5532 5533 5534 5535 5536 5537 5538 5539 5540 5541 5542 5543 5544 5545 5546 5547 5548 5549 5550 5551 5552 5553 5554 5555 5556 5557 5558 5559 5560 5561 5562 5563 5564 5565 5566 5567 5568 5569 5570 5571 5572 5573 5574 5575 5576 5577 5578 5579 5580 5581 5582 5583 5584 5585 5586 5587 5588 5589 5590 5591 5592 5593 5594 5595 5596 5597 5598 5599 5600 5601 5602 5603 5604 5605 5606 5607 5608 5609 5610 5611 5612 5613 5614 5615 5616 5617 5618 5619 5620 5621 5622 5623 5624 5625 5626 5627 5628 5629 5630 5631 5632 5633 5634 5635 5636 5637 5638 5639 5640 5641 5642 5643 5644 5645 5646 5647 5648 5649 5650 5651 5652 5653 5654 5655 5656 5657 5658 5659 5660 5661 5662 5663 5664 5665 5666 5667 5668 5669 5670 5671 5672 5673 5674 5675 5676 5677 5678 5679 5680 5681 5682 5683 5684 5685 5686 5687 5688 5689 5690 5691 5692 5693 5694 5695 5696 5697 5698 5699 5700 5701 5702 5703 5704 5705 5706 5707 5708 5709 5710 5711 5712 5713 5714 5715 5716 5717 5718 5719 5720 5721 5722 5723 5724 5725 5726 5727 5728 5729 5730 5731 5732 5733 5734 5735 5736 5737 5738 5739 5740 5741 5742 5743 5744 5745 5746 5747 5748 5749 5750 5751 5752 5753 5754 5755 5756 5757 5758 5759 5760 5761 5762 5763 5764 5765 5766 5767 5768 5769 5770 5771 5772 5773 5774 5775 5776 5777 5778 5779 5780 5781 5782 5783 5784 5785 5786 5787 5788 5789 5790 5791 5792 5793 5794 5795 5796 5797 5798 5799 5800 5801 5802 5803 5804 5805 5806 5807 5808 5809 5810 5811 5812 5813 5814 5815 5816 5817 5818 5819 5820 5821 5822 5823 5824 5825 5826 5827 5828 5829 5830 5831 5832 5833 5834 5835 5836 5837 5838 5839 5840 5841 5842 5843 5844 5845 5846 5847 5848 5849 5850 5851 5852 5853 5854 5855 5856 5857 5858 5859 5860 5861 5862 5863 5864 5865 5866 5867 5868 5869 5870 5871 5872 5873 5874 5875 5876 5877 5878 5879 5880 5881 5882 5883 5884 5885 5886 5887 5888 5889 5890 5891 5892 5893 5894 5895 5896 5897 5898 5899 5900 5901 5902 5903 5904 5905 5906 5907 5908 5909 5910 5911 5912 5913 5914 5915 5916 5917 5918 5919 5920 5921 5922 5923 5924 5925 5926 5927 5928 5929 5930 5931 5932 5933 5934 5935 5936 5937 5938 5939 5940 5941 5942 5943 5944 5945 5946 5947 5948 5949 5950 5951 5952 5953 5954 5955 5956 5957 5958 5959 5960 5961 5962 5963 5964 5965 5966 5967 5968 5969 5970 5971 5972 5973 5974 5975 5976 5977 5978 5979 5980 5981 5982 5983 5984 5985 5986 5987 5988 5989 5990 5991 5992 5993 5994 5995 5996 5997 5998 5999 6000 6001 6002 6003 6004 6005 6006 6007 6008 6009 6010 6011 6012 6013 6014 6015 6016 6017 6018 6019 6020 6021 6022 6023 6024 6025 6026 6027 6028 6029 6030 6031 6032 6033 6034 6035 6036 6037 6038 6039 6040 6041 6042 6043 6044 6045 6046 6047 6048 6049 6050 6051 6052 6053 6054 6055 6056 6057 6058 6059 6060 6061 6062 6063 6064 6065 6066 6067 6068 6069 6070 6071 6072 6073 6074 6075 6076 6077 6078 6079 6080 6081 6082 6083 6084 6085 6086 6087 6088 6089 6090 6091 6092 6093 6094 6095 6096 6097 6098 6099 6100 6101 6102 6103 6104 6105 6106 6107 6108 6109 6110 6111 6112 6113 6114 6115 6116 6117 6118 6119 6120 6121 6122 6123 6124 6125 6126 6127 6128 6129 6130 6131 6132 6133 6134 6135 6136 6137 6138 6139 6140 6141 6142 6143 6144 6145 6146 6147 6148 6149 6150 6151 6152 6153 6154 6155 6156 6157 6158 6159 6160 6161 6162 6163 6164 6165 6166 6167 6168 6169 6170 6171 6172 6173 6174 6175 6176 6177 6178 6179 6180 6181 6182 6183 6184 6185 6186 6187 6188 6189 6190 6191 6192 6193 6194 6195 6196 6197 6198 6199 6200 6201 6202 6203 6204 6205 6206 6207 6208 6209 6210 6211 6212 6213 6214 6215 6216 6217 6218 6219 6220 6221 6222 6223 6224 6225 6226 6227 6228 6229 6230 6231 6232 6233 6234 6235 6236 6237 6238 6239 6240 6241 6242 6243 6244 6245 6246 6247 6248 6249 6250 6251 6252 6253 6254 6255 6256 6257 6258 6259 6260 6261 6262 6263 6264 6265 6266 6267 6268 6269 6270 6271 6272 6273 6274 6275 6276 6277 6278 6279 6280 6281 6282 6283 6284 6285 6286 6287 6288 6289 6290 6291 6292 6293 6294 6295 6296 6297 6298 6299 6300 6301 6302 6303 6304 6305 6306 6307 6308 6309 6310 6311 6312 6313 6314 6315 6316 6317 6318 6319 6320 6321 6322 6323 6324 6325 6326 6327 6328 6329 6330 6331 6332 6333 6334 6335 6336 6337 6338 6339 6340 6341 6342 6343 6344 6345 6346 6347 6348 6349 6350 6351 6352 6353 6354 6355 6356 6357 6358 6359 6360 6361 6362 6363 6364 6365 6366 6367 6368 6369 6370 6371 6372 6373 6374 6375 6376 6377 6378 6379 6380 6381 6382 6383 6384 6385 6386 6387 6388 6389 6390 6391 6392 6393 6394 6395 6396 6397 6398 6399 6400 6401 6402 6403 6404 6405 6406 6407 6408 6409 6410 6411 6412 6413 6414 6415 6416 6417 6418 6419 6420 6421 6422 6423 6424 6425 6426 6427 6428 6429 6430 6431 6432 6433 6434 6435 6436 6437 6438 6439 6440 6441 6442 6443 6444 6445 6446 6447 6448 6449 6450 6451 6452 6453 6454 6455 6456 6457 6458 6459 6460 6461 6462 6463 6464 6465 6466 6467 6468 6469 6470 6471 6472 6473 6474 6475 6476 6477 6478 6479 6480 6481 6482 6483 6484 6485 6486 6487 6488 6489 6490 6491 6492 6493 6494 6495 6496 6497 6498 6499 6500 6501 6502 6503 6504 6505 6506 6507 6508 6509 6510 6511 6512 6513 6514 6515 6516 6517 6518 6519 6520 6521 6522 6523 6524 6525 6526 6527 6528 6529 6530 6531 6532 6533 6534 6535 6536 6537 6538 6539 6540 6541 6542 6543 6544 6545 6546 6547 6548 6549 6550 6551 6552 6553 6554 6555 6556 6557 6558 6559 6560 6561 6562 6563 6564 6565 6566 6567 6568 6569 6570 6571 6572 6573 6574 6575 6576 6577 6578 6579 6580 6581 6582 6583 6584 6585 6586 6587 6588 6589 6590 6591 6592 6593 6594 6595 6596 6597 6598 6599 6600 6601 6602 6603 6604 6605 6606 6607 6608 6609 6610 6611 6612 6613 6614 6615 6616 6617 6618 6619 6620 6621 6622 6623 6624 6625 6626 6627 6628 6629 6630 6631 6632 6633 6634 6635 6636 6637 6638 6639 6640 6641 6642 6643 6644 6645 6646 6647 6648 6649 6650 6651 6652 6653 6654 6655 6656 6657 6658 6659 6660 6661 6662 6663 6664 6665 6666 6667 6668 6669 6670 6671 6672 6673 6674 6675 6676 6677 6678 6679 6680 6681 6682 6683 6684 6685 6686 6687 6688 6689 6690 6691 6692 6693 6694 6695 6696 6697 6698 6699 6700 6701 6702 6703 6704 6705 6706 6707 6708 6709 6710 6711 6712 6713 6714 6715 6716 6717 6718 6719 6720 6721 6722 6723 6724 6725 6726 6727 6728 6729 6730 6731 6732 6733 6734 6735 6736 6737 6738 6739 6740 6741 6742 6743 6744 6745 6746 6747 6748 6749 6750 6751 6752 6753 6754 6755 6756 6757 6758 6759 6760 6761 6762 6763 6764 6765 6766 6767 6768 6769 6770 6771 6772 6773 6774 6775 6776 6777 6778 6779 6780 6781 6782 6783 6784 6785 6786 6787 6788 6789 6790 6791 6792 6793 6794 6795 6796 6797 6798 6799 6800 6801 6802 6803 6804 6805 6806 6807 6808 6809 6810 6811 6812 6813 6814 6815 6816 6817 6818 6819 6820 6821 6822 6823 6824 6825 6826 6827 6828 6829 6830 6831 6832 6833 6834 6835 6836 6837 6838 6839 6840 6841 6842 6843 6844 6845 6846 6847 6848 6849 6850 6851 6852 6853 6854 6855 6856 6857 6858 6859 6860 6861 6862 6863 6864 6865 6866 6867 6868 6869 6870 6871 6872 6873 6874 6875 6876 6877 6878 6879 6880 6881 6882 6883 6884 6885 6886 6887 6888 6889 6890 6891 6892 6893 6894 6895 6896 6897 6898 6899 6900 6901 6902 6903 6904 6905 6906 6907 6908 6909 6910 6911 6912 6913 6914 6915 6916 6917 6918 6919 6920 6921 6922 6923 6924 6925 6926 6927 6928 6929 6930 6931 6932 6933 6934 6935 6936 6937 6938 6939 6940 6941 6942 6943 6944 6945 6946 6947 6948 6949 6950 6951 6952 6953 6954 6955 6956 6957 6958 6959 6960 6961 6962 6963 6964 6965 6966 6967 6968 6969 6970 6971 6972 6973 6974 6975 6976 6977 6978 6979 6980 6981 6982 6983 6984 6985 6986 6987 6988 6989 6990 6991 6992 6993 6994 6995 6996 6997 6998 6999 7000 7001 7002 7003 7004 7005 7006 7007 7008 7009 7010 7011 7012 7013 7014 7015 7016 7017 7018 7019 7020 7021 7022 7023 7024 7025 7026 7027 7028 7029 7030 7031 7032 7033 7034 7035 7036 7037 7038 7039 7040 7041 7042 7043 7044 7045 7046 7047 7048 7049 7050 7051 7052 7053 7054 7055 7056 7057 7058 7059 7060 7061 7062 7063 7064 7065 7066 7067 7068 7069 7070 7071 7072 7073 7074 7075 7076 7077 7078 7079 7080 7081 7082 7083 7084 7085 7086 7087 7088 7089 7090 7091 7092 7093 7094 7095 7096 7097 7098 7099 7100 7101 7102 7103 7104 7105 7106 7107 7108 7109 7110 7111 7112 7113 7114 7115 7116 7117 7118 7119 7120 7121 7122 7123 7124 7125 7126 7127 7128 7129 7130 7131 7132 7133 7134 7135 7136 7137 7138 7139 7140 7141 7142 7143 7144 7145 7146 7147 7148 7149 7150 7151 7152 7153 7154 7155 7156 7157 7158 7159 7160 7161 7162 7163 7164 7165 7166 7167 7168 7169 7170 7171 7172 7173 7174 7175 7176 7177 7178 7179 7180 7181 7182 7183 7184 7185 7186 7187 7188 7189 7190 7191 7192 7193 7194 7195 7196 7197 7198 7199 7200 7201 7202 7203 7204 7205 7206 7207 7208 7209 7210 7211 7212 7213 7214 7215 7216 7217 7218 7219 7220 7221 7222 7223 7224 7225 7226 7227 7228 7229 7230 7231 7232 7233 7234 7235 7236 7237 7238 7239 7240 7241 7242 7243 7244 7245 7246 7247 7248 7249 7250 7251 7252 7253 7254 7255 7256 7257 7258 7259 7260 7261 7262 7263 7264 7265 7266 7267 7268 7269 7270 7271 7272 7273 7274 7275 7276 7277 7278 7279 7280 7281 7282 7283 7284 7285 7286 7287 7288 7289 7290 7291 7292 7293 7294 7295 7296 7297 7298 7299 7300 7301 7302 7303 7304 7305 7306 7307 7308 7309 7310 7311 7312 7313 7314 7315 7316 7317 7318 7319 7320 7321 7322 7323 7324 7325 7326 7327 7328 7329 7330 7331 7332 7333 7334 7335 7336 7337 7338 7339 7340 7341 7342 7343 7344 7345 7346 7347 7348 7349 7350 7351 7352 7353 7354 7355 7356 7357 7358 7359 7360 7361 7362 7363 7364 7365 7366 7367 7368 7369 7370 7371 7372 7373 7374 7375 7376 7377 7378 7379 7380 7381 7382 7383 7384 7385 7386 7387 7388 7389 7390 7391 7392 7393 7394 7395 7396 7397 7398 7399 7400 7401 7402 7403 7404 7405 7406 7407 7408 7409 7410 7411 7412 7413 7414 7415 7416 7417 7418 7419 7420 7421 7422 7423 7424 7425 7426 7427 7428 7429 7430 7431 7432 7433 7434 7435 7436 7437 7438 7439 7440 7441 7442 7443 7444 7445 7446 7447 7448 7449 7450 7451 7452 7453 7454 7455 7456 7457 7458 7459 7460 7461 7462 7463 7464 7465 7466 7467 7468 7469 7470 7471 7472 7473 7474 7475 7476 7477 7478 7479 7480 7481 7482 7483 7484 7485 7486 7487 7488 7489 7490 7491 7492 7493 7494 7495 7496 7497 7498 7499 7500 7501 7502 7503 7504 7505 7506 7507 7508 7509 7510 7511 7512 7513 7514 7515 7516 7517 7518 7519 7520 7521 7522 7523 7524 7525 7526 7527 7528 7529 7530 7531 7532 7533 7534 7535 7536 7537 7538 7539 7540 7541 7542 7543 7544 7545 7546 7547 7548 7549 7550 7551 7552 7553 7554 7555 7556 7557 7558 7559 7560 7561 7562 7563 7564 7565 7566 7567 7568 7569 7570 7571 7572 7573 7574 7575 7576 7577 7578 7579 7580 7581 7582 7583 7584 7585 7586 7587 7588 7589 7590 7591 7592 7593 7594 7595 7596 7597 7598 7599 7600 7601 7602 7603 7604 7605 7606 7607 7608 7609 7610 7611 7612 7613 7614 7615 7616 7617 7618 7619 7620 7621 7622 7623 7624 7625 7626 7627 7628 7629 7630 7631 7632 7633 7634 7635 7636 7637 7638 7639 7640 7641 7642 7643 7644 7645 7646 7647 7648 7649 7650 7651 7652 7653 7654 7655 7656 7657 7658 7659 7660 7661 7662 7663 7664 7665 7666 7667 7668 7669 7670 7671 7672 7673 7674 7675 7676 7677 7678 7679 7680 7681 7682 7683 7684 7685 7686 7687 7688 7689 7690 7691 7692 7693 7694 7695 7696 7697 7698 7699 7700 7701 7702 7703 7704 7705 7706 7707 7708 7709 7710 7711 7712 7713 7714 7715 7716 7717 7718 7719 7720 7721 7722 7723 7724 7725 7726 7727 7728 7729 7730 7731 7732 7733 7734 7735 7736 7737 7738 7739 7740 7741 7742 7743 7744 7745 7746 7747 7748 7749 7750 7751 7752 7753 7754 7755 7756 7757 7758 7759 7760 7761 7762 7763 7764 7765 7766 7767 7768 7769 7770 7771 7772 7773 7774 7775 7776 7777 7778 7779 7780 7781 7782 7783 7784 7785 7786 7787 7788 7789 7790 7791 7792 7793 7794 7795 7796 7797 7798 7799 7800 7801 7802 7803 7804 7805 7806 7807 7808 7809 7810 7811 7812 7813 7814 7815 7816 7817 7818 7819 7820 7821 7822 7823 7824 7825 7826 7827 7828 7829 7830 7831 7832 7833 7834 7835 7836 7837 7838 7839 7840 7841 7842 7843 7844 7845 7846 7847 7848 7849 7850 7851 7852 7853 7854 7855 7856 7857 7858 7859 7860 7861 7862 7863 7864 7865 7866 7867 7868 7869 7870 7871 7872 7873 7874 7875 7876 7877 7878 7879 7880 7881 7882 7883 7884 7885 7886 7887 7888 7889 7890 7891 7892 7893 7894 7895 7896 7897 7898 7899 7900 7901 7902 7903 7904 7905 7906 7907 7908 7909 7910 7911 7912 7913 7914 7915 7916 7917 7918 7919 7920 7921 7922 7923 7924 7925 7926 7927 7928 7929 7930 7931 7932 7933 7934 7935 7936 7937 7938 7939 7940 7941 7942 7943 7944 7945 7946 7947 7948 7949 7950 7951 7952 7953 7954 7955 7956 7957 7958 7959 7960 7961 7962 7963 7964 7965 7966 7967 7968 7969 7970 7971 7972 7973 7974 7975 7976 7977 7978 7979 7980 7981 7982 7983 7984 7985 7986 7987 7988 7989 7990 7991 7992 7993 7994 7995 7996 7997 7998 7999 8000 8001 8002 8003 8004 8005 8006 8007 8008 8009 8010 8011 8012 8013 8014 8015 8016 8017 8018 8019 8020 8021 8022 8023 8024 8025 8026 8027 8028 8029 8030 8031 8032 8033 8034 8035 8036 8037 8038 8039 8040 8041 8042 8043 8044 8045 8046 8047 8048 8049 8050 8051 8052 8053 8054 8055 8056 8057 8058 8059 8060 8061 8062 8063 8064 8065 8066 8067 8068 8069 8070 8071 8072 8073 8074 8075 8076 8077 8078 8079 8080 8081 8082 8083 8084 8085 8086 8087 8088 8089 8090 8091 8092 8093 8094 8095 8096 8097 8098 8099 8100 8101 8102 8103 8104 8105 8106 8107 8108 8109 8110 8111 8112 8113 8114 8115 8116 8117 8118 8119 8120 8121 8122 8123 8124 8125 8126 8127 8128 8129 8130 8131 8132 8133 8134 8135 8136 8137 8138 8139 8140 8141 8142 8143 8144 8145 8146 8147 8148 8149 8150 8151 8152 8153 8154 8155 8156 8157 8158 8159 8160 8161 8162 8163 8164 8165 8166 8167 8168 8169 8170 8171 8172 8173 8174 8175 8176 8177 8178 8179 8180 8181 8182 8183 8184 8185 8186 8187 8188 8189 8190 8191 8192 8193 8194 8195 8196 8197 8198 8199 8200 8201 8202 8203 8204 8205 8206 8207 8208 8209 8210 8211 8212 8213 8214 8215 8216 8217 8218 8219 8220 8221 8222 8223 8224 8225 8226 8227 8228 8229 8230 8231 8232 8233 8234 8235 8236 8237 8238 8239 8240 8241 8242 8243 8244 8245 8246 8247 8248 8249 8250 8251 8252 8253 8254 8255 8256 8257 8258 8259 8260 8261 8262 8263 8264 8265 8266 8267 8268 8269 8270 8271 8272 8273 8274 8275 8276 8277 8278 8279 8280 8281 8282 8283 8284 8285 8286 8287 8288 8289 8290 8291 8292 8293 8294 8295 8296 8297 8298 8299 8300 8301 8302 8303 8304 8305 8306 8307 8308 8309 8310 8311 8312 8313 8314 8315 8316 8317 8318 8319 8320 8321 8322 8323 8324 8325 8326 8327 8328 8329 8330 8331 8332 8333 8334 8335 8336 8337 8338 8339 8340 8341 8342 8343 8344 8345 8346 8347 8348 8349 8350 8351 8352 8353 8354 8355 8356 8357 8358 8359 8360 8361 8362 8363 8364 8365 8366 8367 8368 8369 8370 8371 8372 8373 8374 8375 8376 8377 8378 8379 8380 8381 8382 8383 8384 8385 8386 8387 8388 8389 8390 8391 8392 8393 8394 8395 8396 8397 8398 8399 8400 8401 8402 8403 8404 8405 8406 8407 8408 8409 8410 8411 8412 8413 8414 8415 8416 8417 8418 8419 8420 8421 8422 8423 8424 8425 8426 8427 8428 8429 8430 8431 8432 8433 8434 8435 8436 8437 8438 8439 8440 8441 8442 8443 8444 8445 8446 8447 8448 8449 8450 8451 8452 8453 8454 8455 8456 8457 8458 8459 8460 8461 8462 8463 8464 8465 8466 8467 8468 8469 8470 8471 8472 8473 8474 8475 8476 8477 8478 8479 8480 8481 8482 8483 8484 8485 8486 8487 8488 8489 8490 8491 8492 8493 8494 8495 8496 8497 8498 8499 8500 8501 8502 8503 8504 8505 8506 8507 8508 8509 8510 8511 8512 8513 8514 8515 8516 8517 8518 8519 8520 8521 8522 8523 8524 8525 8526 8527 8528 8529 8530 8531 8532 8533 8534 8535 8536 8537 8538 8539 8540 8541 8542 8543 8544 8545 8546 8547 8548 8549 8550 8551 8552 8553 8554 8555 8556 8557 8558 8559 8560 8561 8562 8563 8564 8565 8566 8567 8568 8569 8570 8571 8572 8573 8574 8575 8576 8577 8578 8579 8580 8581 8582 8583 8584 8585 8586 8587 8588 8589 8590 8591 8592 8593 8594 8595 8596 8597 8598 8599 8600 8601 8602 8603 8604 8605 8606 8607 8608 8609 8610 8611 8612 8613 8614 8615 8616 8617 8618 8619 8620 8621 8622 8623 8624 8625 8626 8627 8628 8629 8630 8631 8632 8633 8634 8635 8636 8637 8638 8639 8640 8641 8642 8643 8644 8645 8646 8647 8648 8649 8650 8651 8652 8653 8654 8655 8656 8657 8658 8659 8660 8661 8662 8663 8664 8665 8666 8667 8668 8669 8670 8671 8672 8673 8674 8675 8676 8677 8678 8679 8680 8681 8682 8683 8684 8685 8686 8687 8688 8689 8690 8691 8692 8693 8694 8695 8696 8697 8698 8699 8700 8701 8702 8703 8704 8705 8706 8707 8708 8709 8710 8711 8712 8713 8714 8715 8716 8717 8718 8719 8720 8721 8722 8723 8724 8725 8726 8727 8728 8729 8730 8731 8732 8733 8734 8735 8736 8737 8738 8739 8740 8741 8742 8743 8744 8745 8746 8747 8748 8749 8750 8751 8752 8753 8754 8755 8756 8757 8758 8759 8760 8761 8762 8763 8764 8765 8766 8767 8768 8769 8770 8771 8772 8773 8774 8775 8776 8777 8778 8779 8780 8781 8782 8783 8784 8785 8786 8787 8788 8789 8790 8791 8792 8793 8794 8795 8796 8797 8798 8799 8800 8801 8802 8803 8804 8805 8806 8807 8808 8809 8810 8811 8812 8813 8814 8815 8816 8817 8818 8819 8820 8821 8822 8823 8824 8825 8826 8827 8828 8829 8830 8831 8832 8833 8834 8835 8836 8837 8838 8839 8840 8841 8842 8843 8844 8845 8846 8847 8848 8849 8850 8851 8852 8853 8854 8855 8856 8857 8858 8859 8860 8861 8862 8863 8864 8865 8866 8867 8868 8869 8870 8871 8872 8873 8874 8875 8876 8877 8878 8879 8880 8881 8882 8883 8884 8885 8886 8887 8888 8889 8890 8891 8892 8893 8894 8895 8896 8897 8898 8899 8900 8901 8902 8903 8904 8905 8906 8907 8908 8909 8910 8911 8912 8913 8914 8915 8916 8917 8918 8919 8920 8921 8922 8923 8924 8925 8926 8927 8928 8929 8930 8931 8932 8933 8934 8935 8936 8937 8938 8939 8940 8941 8942 8943 8944 8945 8946 8947 8948 8949 8950 8951 8952 8953 8954 8955 8956 8957 8958 8959 8960 8961 8962 8963 8964 8965 8966 8967 8968 8969 8970 8971 8972 8973 8974 8975 8976 8977 8978 8979 8980 8981 8982 8983 8984 8985 8986 8987 8988 8989 8990 8991 8992 8993 8994 8995 8996 8997 8998 8999 9000 9001 9002 9003 9004 9005 9006 9007 9008 9009 9010 9011 9012 9013 9014 9015 9016 9017 9018 9019 9020 9021 9022 9023 9024 9025 9026 9027 9028 9029 9030 9031 9032 9033 9034 9035 9036 9037 9038 9039 9040 9041 9042 9043 9044 9045 9046 9047 9048 9049 9050 9051 9052 9053 9054 9055 9056 9057 9058 9059 9060 9061 9062 9063 9064 9065 9066 9067 9068 9069 9070 9071 9072 9073 9074 9075 9076 9077 9078 9079 9080 9081 9082 9083 9084 9085 9086 9087 9088 9089 9090 9091 9092 9093 9094 9095 9096 9097 9098 9099 9100 9101 9102 9103 9104 9105 9106 9107 9108 9109 9110 9111 9112 9113 9114 9115 9116 9117 9118 9119 9120 9121 9122 9123 9124 9125 9126 9127 9128 9129 9130 9131 9132 9133 9134 9135 9136 9137 9138 9139 9140 9141 9142 9143 9144 9145 9146 9147 9148 9149 9150 9151 9152 9153 9154 9155 9156 9157 9158 9159 9160 9161 9162 9163 9164 9165 9166 9167 9168 9169 9170 9171 9172 9173 9174 9175 9176 9177 9178 9179 9180 9181 9182 9183 9184 9185 9186 9187 9188 9189 9190 9191 9192 9193 9194 9195 9196 9197 9198 9199 9200 9201 9202 9203 9204 9205 9206 9207 9208 9209 9210 9211 9212 9213 9214 9215 9216 9217 9218 9219 9220 9221 9222 9223 9224 9225 9226 9227 9228 9229 9230 9231 9232 9233 9234 9235 9236 9237 9238 9239 9240 9241 9242 9243 9244 9245 9246 9247 9248 9249 9250 9251 9252 9253 9254 9255 9256 9257 9258 9259 9260 9261 9262 9263 9264 9265 9266 9267 9268 9269 9270 9271 9272 9273 9274 9275 9276 9277 9278 9279 9280 9281 9282 9283 9284 9285 9286 9287 9288 9289 9290 9291 9292 9293 9294 9295 9296 9297 9298 9299 9300 9301 9302 9303 9304 9305 9306 9307 9308 9309 9310 9311 9312 9313 9314 9315 9316 9317 9318 9319 9320 9321 9322 9323 9324 9325 9326 9327 9328 9329 9330 9331 9332 9333 9334 9335 9336 9337 9338 9339 9340 9341 9342 9343 9344 9345 9346 9347 9348 9349 9350 9351 9352 9353 9354 9355 9356 9357 9358 9359 9360 9361 9362 9363 9364 9365 9366 9367 9368 9369 9370 9371 9372 9373 9374 9375 9376 9377 9378 9379 9380 9381 9382 9383 9384 9385 9386 9387 9388 9389 9390 9391 9392 9393 9394 9395 9396 9397 9398 9399 9400 9401 9402 9403 9404 9405 9406 9407 9408 9409 9410 9411 9412 9413 9414 9415 9416 9417 9418 9419 9420 9421 9422 9423 9424 9425 9426 9427 9428 9429 9430 9431 9432 9433 9434 9435 9436 9437 9438 9439 9440 9441 9442 9443 9444 9445 9446 9447 9448 9449 9450 9451 9452 9453 9454 9455 9456 9457 9458 9459 9460 9461 9462 9463 9464 9465 9466 9467 9468 9469 9470 9471 9472 9473 9474 9475 9476 9477 9478 9479 9480 9481 9482 9483 9484 9485 9486 9487 9488 9489 9490 9491 9492 9493 9494 9495 9496 9497 9498 9499 9500 9501 9502 9503 9504 9505 9506 9507 9508 9509 9510 9511 9512 9513 9514 9515 9516 9517 9518 9519 9520 9521 9522 9523 9524 9525 9526 9527 9528 9529 9530 9531 9532 9533 9534 9535 9536 9537 9538 9539 9540 9541 9542 9543 9544 9545 9546 9547 9548 9549 9550 9551 9552 9553 9554 9555 9556 9557 9558 9559 9560 9561 9562 9563 9564 9565 9566 9567 9568 9569 9570 9571 9572 9573 9574 9575 9576 9577 9578 9579 9580 9581 9582 9583 9584 9585 9586 9587 9588 9589 9590 9591 9592 9593 9594 9595 9596 9597 9598 9599 9600 9601 9602 9603 9604 9605 9606 9607 9608 9609 9610 9611 9612 9613 9614 9615 9616 9617 9618 9619 9620 9621 9622 9623 9624 9625 9626 9627 9628 9629 9630 9631 9632 9633 9634 9635 9636 9637 9638 9639 9640 9641 9642 9643 9644 9645 9646 9647 9648 9649 9650 9651 9652 9653 9654 9655 9656 9657 9658 9659 9660 9661 9662 9663 9664 9665 9666 9667 9668 9669 9670 9671 9672 9673 9674 9675 9676 9677 9678 9679 9680 9681 9682 9683 9684 9685 9686 9687 9688 9689 9690 9691 9692 9693 9694 9695 9696 9697 9698 9699 9700 9701 9702 9703 9704 9705 9706 9707 9708 9709 9710 9711 9712 9713 9714 9715 9716 9717 9718 9719 9720 9721 9722 9723 9724 9725 9726 9727 9728 9729 9730 9731 9732 9733 9734 9735 9736 9737 9738 9739 9740 9741 9742 9743 9744 9745 9746 9747 9748 9749 9750 9751 9752 9753 9754 9755 9756 9757 9758 9759 9760 9761 9762 9763 9764 9765 9766 9767 9768 9769 9770 9771 9772 9773 9774 9775 9776 9777 9778 9779 9780 9781 9782 9783 9784 9785 9786 9787 9788 9789 9790 9791 9792 9793 9794 9795 9796 9797 9798 9799 9800 9801 9802 9803 9804 9805 9806 9807 9808 9809 9810 9811 9812 9813 9814 9815 9816 9817 9818 9819 9820 9821 9822 9823 9824 9825 9826 9827 9828 9829 9830 9831 9832 9833 9834 9835 9836 9837 9838 9839 9840 9841 9842 9843 9844 9845 9846 9847 9848 9849 9850 9851 9852 9853 9854 9855 9856 9857 9858 9859 9860 9861 9862 9863 9864 9865 9866 9867 9868 9869 9870 9871 9872 9873 9874 9875 9876 9877 9878 9879 9880 9881 9882 9883 9884 9885 9886 9887 9888 9889 9890 9891 9892 9893 9894 9895 9896 9897 9898 9899 9900 9901 9902 9903 9904 9905 9906 9907 9908 9909 9910 9911 9912 9913 9914 9915 9916 9917 9918 9919 9920 9921 9922 9923 9924 9925 9926 9927 9928 9929 9930 9931 9932 9933 9934 9935 9936 9937 9938 9939 9940 9941 9942 9943 9944 9945 9946 9947 9948 9949 9950 9951 9952 9953 9954 9955 9956 9957 9958 9959 9960 9961 9962 9963 9964 9965 9966 9967 9968 9969 9970 9971 9972 9973 9974 9975 9976 9977 9978 9979 9980 9981 9982 9983 9984 9985 9986 9987 9988 9989 9990 9991 9992 9993 9994 9995 9996 9997 9998 9999 10000 10001 10002 10003 10004 10005 10006 10007 10008 10009 10010 10011 10012 10013 10014 10015 10016 10017 10018 10019 10020 10021 10022 10023 10024 10025 10026 10027 10028 10029 10030 10031 10032 10033 10034 10035 10036 10037 10038 10039 10040 10041 10042 10043 10044 10045 10046 10047 10048 10049 10050 10051 10052 10053 10054 10055 10056 10057 10058 10059 10060 10061 10062 10063 10064 10065 10066 10067 10068 10069 10070 10071 10072 10073 10074 10075 10076 10077 10078 10079 10080 10081 10082 10083 10084 10085 10086 10087 10088 10089 10090 10091 10092 10093 10094 10095 10096 10097 10098 10099 10100 10101 10102 10103 10104 10105 10106 10107 10108 10109 10110 10111 10112 10113 10114 10115 10116 10117 10118 10119 10120 10121 10122 10123 10124 10125 10126 10127 10128 10129 10130 10131 10132 10133 10134 10135 10136 10137 10138 10139 10140 10141 10142 10143 10144 10145 10146 10147 10148 10149 10150 10151 10152 10153 10154 10155 10156 10157 10158 10159 10160 10161 10162 10163 10164 10165 10166 10167 10168 10169 10170 10171 10172 10173 10174 10175 10176 10177 10178 10179 10180 10181 10182 10183 10184 10185 10186 10187 10188 10189 10190 10191 10192 10193 10194 10195 10196 10197 10198 10199 10200 10201 10202 10203 10204 10205 10206 10207 10208 10209 10210 10211 10212 10213 10214 10215 10216 10217 10218 10219 10220 10221 10222 10223 10224 10225 10226 10227 10228 10229 10230 10231 10232 10233 10234 10235 10236 10237 10238 10239 10240 10241 10242 10243 10244 10245 10246 10247 10248 10249 10250 10251 10252 10253 10254 10255 10256 10257 10258 10259 10260 10261 10262 10263 10264 10265 10266 10267 10268 10269 10270 10271 10272 10273 10274 10275 10276 10277 10278 10279 10280 10281 10282 10283 10284 10285 10286 10287 10288 10289 10290 10291 10292 10293 10294 10295 10296 10297 10298 10299 10300 10301 10302 10303 10304 10305 10306 10307 10308 10309 10310 10311 10312 10313 10314 10315 10316 10317 10318 10319 10320 10321 10322 10323 10324 10325 10326 10327 10328 10329 10330 10331 10332 10333 10334 10335 10336 10337 10338 10339 10340 10341 10342 10343 10344 10345 10346 10347 10348 10349 10350 10351 10352 10353 10354 10355 10356 10357 10358 10359 10360 10361 10362 10363 10364 10365 10366 10367 10368 10369 10370 10371 10372 10373 10374 10375 10376 10377 10378 10379 10380 10381 10382 10383 10384 10385 10386 10387 10388 10389 10390 10391 10392 10393 10394 10395 10396 10397 10398 10399 10400 10401 10402 10403 10404 10405 10406 10407 10408 10409 10410 10411 10412 10413 10414 10415 10416 10417 10418 10419 10420 10421 10422 10423 10424 10425 10426 10427 10428 10429 10430 10431 10432 10433 10434 10435 10436 10437 10438 10439 10440 10441 10442 10443 10444 10445 10446 10447 10448 10449 10450 10451 10452 10453 10454 10455 10456 10457 10458 10459 10460 10461 10462 10463 10464 10465 10466 10467 10468 10469 10470 10471 10472 10473 10474 10475 10476 10477 10478 10479 10480 10481 10482 10483 10484 10485 10486 10487 10488 10489 10490 10491 10492 10493 10494 10495 10496 10497 10498 10499 10500 10501 10502 10503 10504 10505 10506 10507 10508 10509 10510 10511 10512 10513 10514 10515 10516 10517 10518 10519 10520 10521 10522 10523 10524 10525 10526 10527 10528 10529 10530 10531 10532 10533 10534 10535 10536 10537 10538 10539 10540 10541 10542 10543 10544 10545 10546 10547 10548 10549 10550 10551 10552 10553 10554 10555 10556 10557 10558 10559 10560 10561 10562 10563 10564 10565 10566 10567 10568 10569 10570 10571 10572 10573 10574 10575 10576 10577 10578 10579 10580 10581 10582 10583 10584 10585 10586 10587 10588 10589 10590 10591 10592 10593 10594 10595 10596 10597 10598 10599 10600 10601 10602 10603 10604 10605 10606 10607 10608 10609 10610 10611 10612 10613 10614 10615 10616 10617 10618 10619 10620 10621 10622 10623 10624 10625 10626 10627 10628 10629 10630 10631 10632 10633 10634 10635 10636 10637 10638 10639 10640 10641 10642 10643 10644 10645 10646 10647 10648 10649 10650 10651 10652 10653 10654 10655 10656 10657 10658 10659 10660 10661 10662 10663 10664 10665 10666 10667 10668 10669 10670 10671 10672 10673 10674 10675 10676 10677 10678 10679 10680 10681 10682 10683 10684 10685 10686 10687 10688 10689 10690 10691 10692 10693 10694 10695 10696 10697 10698 10699 10700 10701 10702 10703 10704 10705 10706 10707 10708 10709 10710 10711 10712 10713 10714 10715 10716 10717 10718 10719 10720 10721 10722 10723 10724 10725 10726 10727 10728 10729 10730 10731 10732 10733 10734 10735 10736 10737 10738 10739 10740 10741 10742 10743 10744 10745 10746 10747 10748 10749 10750 10751 10752 10753 10754 10755 10756 10757 10758 10759 10760 10761 10762 10763 10764 10765 10766 10767 10768 10769 10770 10771 10772 10773 10774 10775 10776 10777 10778 10779 10780 10781 10782 10783 10784 10785 10786 10787 10788 10789 10790 10791 10792 10793 10794 10795 10796 10797 10798 10799 10800 10801 10802 10803 10804 10805 10806 10807 10808 10809 10810 10811 10812 10813 10814 10815 10816 10817 10818 10819 10820 10821 10822 10823 10824 10825 10826 10827 10828 10829 10830 10831 10832 10833 10834 10835 10836 10837 10838 10839 10840 10841 10842 10843 10844 10845 10846 10847 10848 10849 10850 10851 10852 10853 10854 10855 10856 10857 10858 10859 10860 10861 10862 10863 10864 10865 10866 10867 10868 10869 10870 10871 10872 10873 10874 10875 10876 10877 10878 10879 10880 10881 10882 10883 10884 10885 10886 10887 10888 10889 10890 10891 10892 10893 10894 10895 10896 10897 10898 10899 10900 10901 10902 10903 10904 10905 10906 10907 10908 10909 10910 10911 10912 10913 10914 10915 10916 10917 10918 10919 10920 10921 10922 10923 10924 10925 10926 10927 10928 10929 10930 10931 10932 10933 10934 10935 10936 10937 10938 10939 10940 10941 10942 10943 10944 10945 10946 10947 10948 10949 10950 10951 10952 10953 10954 10955 10956 10957 10958 10959 10960 10961 10962 10963 10964 10965 10966 10967 10968 10969 10970 10971 10972 10973 10974 10975 10976 10977 10978 10979 10980 10981 10982 10983 10984 10985 10986 10987 10988 10989 10990 10991 10992 10993 10994 10995 10996 10997 10998 10999 11000 11001 11002 11003 11004 11005 11006 11007 11008 11009 11010 11011 11012 11013 11014 11015 11016 11017 11018 11019 11020 11021 11022 11023 11024 11025 11026 11027 11028 11029 11030 11031 11032 11033 11034 11035 11036 11037 11038 11039 11040 11041 11042 11043 11044 11045 11046 11047 11048 11049 11050 11051 11052 11053 11054 11055 11056 11057 11058 11059 11060 11061 11062 11063 11064 11065 11066 11067 11068 11069 11070 11071 11072 11073 11074 11075 11076 11077 11078 11079 11080 11081 11082 11083 11084 11085 11086 11087 11088 11089 11090 11091 11092 11093 11094 11095 11096 11097 11098 11099 11100 11101 11102 11103 11104 11105 11106 11107 11108 11109 11110 11111 11112 11113 11114 11115 11116 11117 11118 11119 11120 11121 11122 11123 11124 11125 11126 11127 11128 11129 11130 11131 11132 11133 11134 11135 11136 11137 11138 11139 11140 11141 11142 11143 11144 11145 11146 11147 11148 11149 11150 11151 11152 11153 11154 11155 11156 11157 11158 11159 11160 11161 11162 11163 11164 11165 11166 11167 11168 11169 11170 11171 11172 11173 11174 11175 11176 11177 11178 11179 11180 11181 11182 11183 11184 11185 11186 11187 11188 11189 11190 11191 11192 11193 11194 11195 11196 11197 11198 11199 11200 11201 11202 11203 11204 11205 11206 11207 11208 11209 11210 11211 11212 11213 11214 11215 11216 11217 11218 11219 11220 11221 11222 11223 11224 11225 11226 11227 11228 11229 11230 11231 11232 11233 11234 11235 11236 11237 11238 11239 11240 11241 11242 11243 11244 11245 11246 11247 11248 11249 11250 11251 11252 11253 11254 11255 11256 11257 11258 11259 11260 11261 11262 11263 11264 11265 11266 11267 11268 11269 11270 11271 11272 11273 11274 11275 11276 11277 11278 11279 11280 11281 11282 11283 11284 11285 11286 11287 11288 11289 11290 11291 11292 11293 11294 11295 11296 11297 11298 11299 11300 11301 11302 11303 11304 11305 11306 11307 11308 11309 11310 11311 11312 11313 11314 11315 11316 11317 11318 11319 11320 11321 11322 11323 11324 11325 11326 11327 11328 11329 11330 11331 11332 11333 11334 11335 11336 11337 11338 11339 11340 11341 11342 11343 11344 11345 11346 11347 11348 11349 11350 11351 11352 11353 11354 11355 11356 11357 11358 11359 11360 11361 11362 11363 11364 11365 11366 11367 11368 11369 11370 11371 11372 11373 11374 11375 11376 11377 11378 11379 11380 11381 11382 11383 11384 11385 11386 11387 11388 11389 11390 11391 11392 11393 11394 11395 11396 11397 11398 11399 11400 11401 11402 11403 11404 11405 11406 11407 11408 11409 11410 11411 11412 11413 11414 11415 11416 11417 11418 11419 11420 11421 11422 11423 11424 11425 11426 11427 11428 11429 11430 11431 11432 11433 11434 11435 11436 11437 11438 11439 11440 11441 11442 11443 11444 11445 11446 11447 11448 11449 11450 11451 11452 11453 11454 11455 11456 11457 11458 11459 11460 11461 11462 11463 11464 11465 11466 11467 11468 11469 11470 11471 11472 11473 11474 11475 11476 11477 11478 11479 11480 11481 11482 11483 11484 11485 11486 11487 11488 11489 11490 11491 11492 11493 11494 11495 11496 11497 11498 11499 11500 11501 11502 11503 11504 11505 11506 11507 11508 11509 11510 11511 11512 11513 11514 11515 11516 11517 11518 11519 11520 11521 11522 11523 11524 11525 11526 11527 11528 11529 11530 11531 11532 11533 11534 11535 11536 11537 11538 11539 11540 11541 11542 11543 11544 11545 11546 11547 11548 11549 11550 11551 11552 11553 11554 11555 11556 11557 11558 11559 11560 11561 11562 11563 11564 11565 11566 11567 11568 11569 11570 11571 11572 11573 11574 11575 11576 11577 11578 11579 11580 11581 11582 11583 11584 11585 11586 11587 11588 11589 11590 11591 11592 11593 11594 11595 11596 11597 11598 11599 11600 11601 11602 11603 11604 11605 11606 11607 11608 11609 11610 11611 11612 11613 11614 11615 11616 11617 11618 11619 11620 11621 11622 11623 11624 11625 11626 11627 11628 11629 11630 11631 11632 11633 11634 11635 11636 11637 11638 11639 11640 11641 11642 11643 11644 11645 11646 11647 11648 11649 11650 11651 11652 11653 11654 11655 11656 11657 11658 11659 11660 11661 11662 11663 11664 11665 11666 11667 11668 11669 11670 11671 11672 11673 11674 11675 11676 11677 11678 11679 11680 11681 11682 11683 11684 11685 11686 11687 11688 11689 11690 11691 11692 11693 11694 11695 11696 11697 11698 11699 11700 11701 11702 11703 11704 11705 11706 11707 11708 11709 11710 11711 11712 11713 11714 11715 11716 11717 11718 11719 11720 11721 11722 11723 11724 11725 11726 11727 11728 11729 11730 11731 11732 11733 11734 11735 11736 11737 11738 11739 11740 11741 11742 11743 11744 11745 11746 11747 11748 11749 11750 11751 11752 11753 11754 11755 11756 11757 11758 11759 11760 11761 11762 11763 11764 11765 11766 11767 11768 11769 11770 11771 11772 11773 11774 11775 11776 11777 11778 11779 11780 11781 11782 11783 11784 11785 11786 11787 11788 11789 11790 11791 11792 11793 11794 11795 11796 11797 11798 11799 11800 11801 11802 11803 11804 11805 11806 11807 11808 11809 11810 11811 11812 11813 11814 11815 11816 11817 11818 11819 11820 11821 11822 11823 11824 11825 11826 11827 11828 11829 11830 11831 11832 11833 11834 11835 11836 11837 11838 11839 11840 11841 11842 11843 11844 11845 11846 11847 11848 11849 11850 11851 11852 11853 11854 11855 11856 11857 11858 11859 11860 11861 11862 11863 11864 11865 11866 11867 11868 11869 11870 11871 11872 11873 11874 11875 11876 11877 11878 11879 11880 11881 11882 11883 11884 11885 11886 11887 11888 11889 11890 11891 11892 11893 11894 11895 11896 11897 11898 11899 11900 11901 11902 11903 11904 11905 11906 11907 11908 11909 11910 11911 11912 11913 11914 11915 11916 11917 11918 11919 11920 11921 11922 11923 11924 11925 11926 11927 11928 11929 11930 11931 11932 11933 11934 11935 11936 11937 11938 11939 11940 11941 11942 11943 11944 11945 11946 11947 11948 11949 11950 11951 11952 11953 11954 11955 11956 11957 11958 11959 11960 11961 11962 11963 11964 11965 11966 11967 11968 11969 11970 11971 11972 11973 11974 11975 11976 11977 11978 11979 11980 11981 11982 11983 11984 11985 11986 11987 11988 11989 11990 11991 11992 11993 11994 11995 11996 11997 11998 11999 12000 12001 12002 12003 12004 12005 12006 12007 12008 12009 12010 12011 12012 12013 12014 12015 12016 12017 12018 12019 12020 12021 12022 12023 12024 12025 12026 12027 12028 12029 12030 12031 12032 12033 12034 12035 12036 12037 12038 12039 12040 12041 12042 12043 12044 12045 12046 12047 12048 12049 12050 12051 12052 12053 12054 12055 12056 12057 12058 12059 12060 12061 12062 12063 12064 12065 12066 12067 12068 12069 12070 12071 12072 12073 12074 12075 12076 12077 12078 12079 12080 12081 12082 12083 12084 12085 12086 12087 12088 12089 12090 12091 12092 12093 12094 12095 12096 12097 12098 12099 12100 12101 12102 12103 12104 12105 12106 12107 12108 12109 12110 12111 12112 12113 12114 12115 12116 12117 12118 12119 12120 12121 12122 12123 12124 12125 12126 12127 12128 12129 12130 12131 12132 12133 12134 12135 12136 12137 12138 12139 12140 12141 12142 12143 12144 12145 12146 12147 12148 12149 12150 12151 12152 12153 12154 12155 12156 12157 12158 12159 12160 12161 12162 12163 12164 12165 12166 12167 12168 12169 12170 12171 12172 12173 12174 12175 12176 12177 12178 12179 12180 12181 12182 12183 12184 12185 12186 12187 12188 12189 12190 12191 12192 12193 12194 12195 12196 12197 12198 12199 12200 12201 12202 12203 12204 12205 12206 12207 12208 12209 12210 12211 12212 12213 12214 12215 12216 12217 12218 12219 12220 12221 12222 12223 12224 12225 12226 12227 12228 12229 12230 12231 12232 12233 12234 12235 12236 12237 12238 12239 12240 12241 12242 12243 12244 12245 12246 12247 12248 12249 12250 12251 12252 12253 12254 12255 12256 12257 12258 12259 12260 12261 12262 12263 12264 12265 12266 12267 12268 12269 12270 12271 12272 12273 12274 12275 12276 12277 12278 12279 12280 12281 12282 12283 12284 12285 12286 12287 12288 12289 12290 12291 12292 12293 12294 12295 12296 12297 12298 12299 12300 12301 12302 12303 12304 12305 12306 12307 12308 12309 12310 12311 12312 12313 12314 12315 12316 12317 12318 12319 12320 12321 12322 12323 12324 12325 12326 12327 12328 12329 12330 12331 12332 12333 12334 12335 12336 12337 12338 12339 12340 12341 12342 12343 12344 12345 12346 12347 12348 12349 12350 12351 12352 12353 12354 12355 12356 12357 12358 12359 12360 12361 12362 12363 12364 12365 12366 12367 12368 12369 12370 12371 12372 12373 12374 12375 12376 12377 12378 12379 12380 12381 12382 12383 12384 12385 12386 12387 12388 12389 12390 12391 12392 12393 12394 12395 12396 12397 12398 12399 12400 12401 12402 12403 12404 12405 12406 12407 12408 12409 12410 12411 12412 12413 12414 12415 12416 12417 12418 12419 12420 12421 12422 12423 12424 12425 12426 12427 12428 12429 12430 12431 12432 12433 12434 12435 12436 12437 12438 12439 12440 12441 12442 12443 12444 12445 12446 12447 12448 12449 12450 12451 12452 12453 12454 12455 12456 12457 12458 12459 12460 12461 12462 12463 12464 12465 12466 12467 12468 12469 12470 12471 12472 12473 12474 12475 12476 12477 12478 12479 12480 12481 12482 12483 12484 12485 12486 12487 12488 12489 12490 12491 12492 12493 12494 12495 12496 12497 12498 12499 12500 12501 12502 12503 12504 12505 12506 12507 12508 12509 12510 12511 12512 12513 12514 12515 12516 12517 12518 12519 12520 12521 12522 12523 12524 12525 12526 12527 12528 12529 12530 12531 12532 12533 12534 12535 12536 12537 12538 12539 12540 12541 12542 12543 12544 12545 12546 12547 12548 12549 12550 12551 12552 12553 12554 12555 12556 12557 12558 12559 12560 12561 12562 12563 12564 12565 12566 12567 12568 12569 12570 12571 12572 12573 12574 12575 12576 12577 12578 12579 12580 12581 12582 12583 12584 12585 12586 12587 12588 12589 12590 12591 12592 12593 12594 12595 12596 12597 12598 12599 12600 12601 12602 12603 12604 12605 12606 12607 12608 12609 12610 12611 12612 12613 12614 12615 12616 12617 12618 12619 12620 12621 12622 12623 12624 12625 12626 12627 12628 12629 12630 12631 12632 12633 12634 12635 12636 12637 12638 12639 12640 12641 12642 12643 12644 12645 12646 12647 12648 12649 12650 12651 12652 12653 12654 12655 12656 12657 12658 12659 12660 12661 12662 12663 12664 12665 12666 12667 12668 12669 12670 12671 12672 12673 12674 12675 12676 12677 12678 12679 12680 12681 12682 12683 12684 12685 12686 12687 12688 12689 12690 12691 12692 12693 12694 12695 12696 12697 12698 12699 12700 12701 12702 12703 12704 12705 12706 12707 12708 12709 12710 12711 12712 12713 12714 12715 12716 12717 12718 12719 12720 12721 12722 12723 12724 12725 12726 12727 12728 12729 12730 12731 12732 12733 12734 12735 12736 12737 12738 12739 12740 12741 12742 12743 12744 12745 12746 12747 12748 12749 12750 12751 12752 12753 12754 12755 12756 12757 12758 12759 12760 12761 12762 12763 12764 12765 12766 12767 12768 12769 12770 12771 12772 12773 12774 12775 12776 12777 12778 12779 12780 12781 12782 12783 12784 12785 12786 12787 12788 12789 12790 12791 12792 12793 12794 12795 12796 12797 12798 12799 12800 12801 12802 12803 12804 12805 12806 12807 12808 12809 12810 12811 12812 12813 12814 12815 12816 12817 12818 12819 12820 12821 12822 12823 12824 12825 12826 12827 12828 12829 12830 12831 12832 12833 12834 12835 12836 12837 12838 12839 12840 12841 12842 12843 12844 12845 12846 12847 12848 12849 12850 12851 12852 12853 12854 12855 12856 12857 12858 12859 12860 12861 12862 12863 12864 12865 12866 12867 12868 12869 12870 12871 12872 12873 12874 12875 12876 12877 12878 12879 12880 12881 12882 12883 12884 12885 12886 12887 12888 12889 12890 12891 12892 12893 12894 12895 12896 12897 12898 12899 12900 12901 12902 12903 12904 12905 12906 12907 12908 12909 12910 12911 12912 12913 12914 12915 12916 12917 12918 12919 12920 12921 12922 12923 12924 12925 12926 12927 12928 12929 12930 12931 12932 12933 12934 12935 12936 12937 12938 12939 12940 12941 12942 12943 12944 12945 12946 12947 12948 12949 12950 12951 12952 12953 12954 12955 12956 12957 12958 12959 12960 12961 12962 12963 12964 12965 12966 12967 12968 12969 12970 12971 12972 12973 12974 12975 12976 12977 12978 12979 12980 12981 12982 12983 12984 12985 12986 12987 12988 12989 12990 12991 12992 12993 12994 12995 12996 12997 12998 12999 13000 13001 13002 13003 13004 13005 13006 13007 13008 13009 13010 13011 13012 13013 13014 13015 13016 13017 13018 13019 13020 13021 13022 13023 13024 13025 13026 13027 13028 13029 13030 13031 13032 13033 13034 13035 13036 13037 13038 13039 13040 13041 13042 13043 13044 13045 13046 13047 13048 13049 13050 13051 13052 13053 13054 13055 13056 13057 13058 13059 13060 13061 13062 13063 13064 13065 13066 13067 13068 13069 13070 13071 13072 13073 13074 13075 13076 13077 13078 13079 13080 13081 13082 13083 13084 13085 13086 13087 13088 13089 13090 13091 13092 13093 13094 13095 13096 13097 13098 13099 13100 13101 13102 13103 13104 13105 13106 13107 13108 13109 13110 13111 13112 13113 13114 13115 13116 13117 13118 13119 13120 13121 13122 13123 13124 13125 13126 13127 13128 13129 13130 13131 13132 13133 13134 13135 13136 13137 13138 13139 13140 13141 13142 13143 13144 13145 13146 13147 13148 13149 13150 13151 13152 13153 13154 13155 13156 13157 13158 13159 13160 13161 13162 13163 13164 13165 13166 13167 13168 13169 13170 13171 13172 13173 13174 13175 13176 13177 13178 13179 13180 13181 13182 13183 13184 13185 13186 13187 13188 13189 13190 13191 13192 13193 13194 13195 13196 13197 13198 13199 13200 13201 13202 13203 13204 13205 13206 13207 13208 13209 13210 13211 13212 13213 13214 13215 13216 13217 13218 13219 13220 13221 13222 13223 13224 13225 13226 13227 13228 13229 13230 13231 13232 13233 13234 13235 13236 13237 13238 13239 13240 13241 13242 13243 13244 13245 13246 13247 13248 13249 13250 13251 13252 13253 13254 13255 13256 13257 13258 13259 13260 13261 13262 13263 13264 13265 13266 13267 13268 13269 13270 13271 13272 13273 13274 13275 13276 13277 13278 13279 13280 13281 13282 13283 13284 13285 13286 13287 13288 13289 13290 13291 13292 13293 13294 13295 13296 13297 13298 13299 13300 13301 13302 13303 13304 13305 13306 13307 13308 13309 13310 13311 13312 13313 13314 13315 13316 13317 13318 13319 13320 13321 13322 13323 13324 13325 13326 13327 13328 13329 13330 13331 13332 13333 13334 13335 13336 13337 13338 13339 13340 13341 13342 13343 13344 13345 13346 13347 13348 13349 13350 13351 13352 13353 13354 13355 13356 13357 13358 13359 13360 13361 13362 13363 13364 13365 13366 13367 13368 13369 13370 13371 13372 13373 13374 13375 13376 13377 13378 13379 13380 13381 13382 13383 13384 13385 13386 13387 13388 13389 13390 13391 13392 13393 13394 13395 13396 13397 13398 13399 13400 13401 13402 13403 13404 13405 13406 13407 13408 13409 13410 13411 13412 13413 13414 13415 13416 13417 13418 13419 13420 13421 13422 13423 13424 13425 13426 13427 13428 13429 13430 13431 13432 13433 13434 13435 13436 13437 13438 13439 13440 13441 13442 13443 13444 13445 13446 13447 13448 13449 13450 13451 13452 13453 13454 13455 13456 13457 13458 13459 13460 13461 13462 13463 13464 13465 13466 13467 13468 13469 13470 13471 13472 13473 13474 13475 13476 13477 13478 13479 13480 13481 13482 13483 13484 13485 13486 13487 13488 13489 13490 13491 13492 13493 13494 13495 13496 13497 13498 13499 13500 13501 13502 13503 13504 13505 13506 13507 13508 13509 13510 13511 13512 13513 13514 13515 13516 13517 13518 13519 13520 13521 13522 13523 13524 13525 13526 13527 13528 13529 13530 13531 13532 13533 13534 13535 13536 13537 13538 13539 13540 13541 13542 13543 13544 13545 13546 13547 13548 13549 13550 13551 13552 13553 13554 13555 13556 13557 13558 13559 13560 13561 13562 13563 13564 13565 13566 13567 13568 13569 13570 13571 13572 13573 13574 13575 13576 13577 13578 13579 13580 13581 13582 13583 13584 13585 13586 13587 13588 13589 13590 13591 13592 13593 13594 13595 13596 13597 13598 13599 13600 13601 13602 13603 13604 13605 13606 13607 13608 13609 13610 13611 13612 13613 13614 13615 13616 13617 13618 13619 13620 13621 13622 13623 13624 13625 13626 13627 13628 13629 13630 13631 13632 13633 13634 13635 13636 13637 13638 13639 13640 13641 13642 13643 13644 13645 13646 13647 13648 13649 13650 13651 13652 13653 13654 13655 13656 13657 13658 13659 13660 13661 13662 13663 13664 13665 13666 13667 13668 13669 13670 13671 13672 13673 13674 13675 13676 13677 13678 13679 13680 13681 13682 13683 13684 13685 13686 13687 13688 13689 13690 13691 13692 13693 13694 13695 13696 13697 13698 13699 13700 13701 13702 13703 13704 13705 13706 13707 13708 13709 13710 13711 13712 13713 13714 13715 13716 13717 13718 13719 13720 13721 13722 13723 13724 13725 13726 13727 13728 13729 13730 13731 13732 13733 13734 13735 13736 13737 13738 13739 13740 13741 13742 13743 13744 13745 13746 13747 13748 13749 13750 13751 13752 13753 13754 13755 13756 13757 13758 13759 13760 13761 13762 13763 13764 13765 13766 13767 13768 13769 13770 13771 13772 13773 13774 13775 13776 13777 13778 13779 13780 13781 13782 13783 13784 13785 13786 13787 13788 13789 13790 13791 13792 13793 13794 13795 13796 13797 13798 13799 13800 13801 13802 13803 13804 13805 13806 13807 13808 13809 13810 13811 13812 13813 13814 13815 13816 13817 13818 13819 13820 13821 13822 13823 13824 13825 13826 13827 13828 13829 13830 13831 13832 13833 13834 13835 13836 13837 13838 13839 13840 13841 13842 13843 13844 13845 13846 13847 13848 13849 13850 13851 13852 13853 13854 13855 13856 13857 13858 13859 13860 13861 13862 13863 13864 13865 13866 13867 13868 13869 13870 13871 13872 13873 13874 13875 13876 13877 13878 13879 13880 13881 13882 13883 13884 13885 13886 13887 13888 13889 13890 13891 13892 13893 13894 13895 13896 13897 13898 13899 13900 13901 13902 13903 13904 13905 13906 13907 13908 13909 13910 13911 13912 13913 13914 13915 13916 13917 13918 13919 13920 13921 13922 13923 13924 13925 13926 13927 13928 13929 13930 13931 13932 13933 13934 13935 13936 13937 13938 13939 13940 13941 13942 13943 13944 13945 13946 13947 13948 13949 13950 13951 13952 13953 13954 13955 13956 13957 13958 13959 13960 13961 13962 13963 13964 13965 13966 13967 13968 13969 13970 13971 13972 13973 13974 13975 13976 13977 13978 13979 13980 13981 13982 13983 13984 13985 13986 13987 13988 13989 13990 13991 13992 13993 13994 13995 13996 13997 13998 13999 14000 14001 14002 14003 14004 14005 14006 14007 14008 14009 14010 14011 14012 14013 14014 14015 14016 14017 14018 14019 14020 14021 14022 14023 14024 14025 14026 14027 14028 14029 14030 14031 14032 14033 14034 14035 14036 14037 14038 14039 14040 14041 14042 14043 14044 14045 14046 14047 14048 14049 14050 14051 14052 14053 14054 14055 14056 14057 14058 14059 14060 14061 14062 14063 14064 14065 14066 14067 14068 14069 14070 14071 14072 14073 14074 14075 14076 14077 14078 14079 14080 14081 14082 14083 14084 14085 14086 14087 14088 14089 14090 14091 14092 14093 14094 14095 14096 14097 14098 14099 14100 14101 14102 14103 14104 14105 14106 14107 14108 14109 14110 14111 14112 14113 14114 14115 14116 14117 14118 14119 14120 14121 14122 14123 14124 14125 14126 14127 14128 14129 14130 14131 14132 14133 14134 14135 14136 14137 14138 14139 14140 14141 14142 14143 14144 14145 14146 14147 14148 14149 14150 14151 14152 14153 14154 14155 14156 14157 14158 14159 14160 14161 14162 14163 14164 14165 14166 14167 14168 14169 14170 14171 14172 14173 14174 14175 14176 14177 14178 14179 14180 14181 14182 14183 14184 14185 14186 14187 14188 14189 14190 14191 14192 14193 14194 14195 14196 14197 14198 14199 14200 14201 14202 14203 14204 14205 14206 14207 14208 14209 14210 14211 14212 14213 14214 14215 14216 14217 14218 14219 14220 14221 14222 14223 14224 14225 14226 14227 14228 14229 14230 14231 14232 14233 14234 14235 14236 14237 14238 14239 14240 14241 14242 14243 14244 14245 14246 14247 14248 14249 14250 14251 14252 14253 14254 14255 14256 14257 14258 14259 14260 14261 14262 14263 14264 14265 14266 14267 14268 14269 14270 14271 14272 14273 14274 14275 14276 14277 14278 14279 14280 14281 14282 14283 14284 14285 14286 14287 14288 14289 14290 14291 14292 14293 14294 14295 14296 14297 14298 14299 14300 14301 14302 14303 14304 14305 14306 14307 14308 14309 14310 14311 14312 14313 14314 14315 14316 14317 14318 14319 14320 14321 14322 14323 14324 14325 14326 14327 14328 14329 14330 14331 14332 14333 14334 14335 14336 14337 14338 14339 14340 14341 14342 14343 14344 14345 14346 14347 14348 14349 14350 14351 14352 14353 14354 14355 14356 14357 14358 14359 14360 14361 14362 14363 14364 14365 14366 14367 14368 14369 14370 14371 14372 14373 14374 14375 14376 14377 14378 14379 14380 14381 14382 14383 14384 14385 14386 14387 14388 14389 14390 14391 14392 14393 14394 14395 14396 14397 14398 14399 14400 14401 14402 14403 14404 14405 14406 14407 14408 14409 14410 14411 14412 14413 14414 14415 14416 14417 14418 14419 14420 14421 14422 14423 14424 14425 14426 14427 14428 14429 14430 14431 14432 14433 14434 14435 14436 14437 14438 14439 14440 14441 14442 14443 14444 14445 14446 14447 14448 14449 14450 14451 14452 14453 14454 14455 14456 14457 14458 14459 14460 14461 14462 14463 14464 14465 14466 14467 14468 14469 14470 14471 14472 14473 14474 14475 14476 14477 14478 14479 14480 14481 14482 14483 14484 14485 14486 14487 14488 14489 14490 14491 14492 14493 14494 14495 14496 14497 14498 14499 14500 14501 14502 14503 14504 14505 14506 14507 14508 14509 14510 14511 14512 14513 14514 14515 14516 14517 14518 14519 14520 14521 14522 14523 14524 14525 14526 14527 14528 14529 14530 14531 14532 14533 14534 14535 14536 14537 14538 14539 14540 14541 14542 14543 14544 14545 14546 14547 14548 14549 14550 14551 14552 14553 14554 14555 14556 14557 14558 14559 14560 14561 14562 14563 14564 14565 14566 14567 14568 14569 14570 14571 14572 14573 14574 14575 14576 14577 14578 14579 14580 14581 14582 14583 14584 14585 14586 14587 14588 14589 14590 14591 14592 14593 14594 14595 14596 14597 14598 14599 14600 14601 14602 14603 14604 14605 14606 14607 14608 14609 14610 14611 14612 14613 14614 14615 14616 14617 14618 14619 14620 14621 14622 14623 14624 14625 14626 14627 14628 14629 14630 14631 14632 14633 14634 14635 14636 14637 14638 14639 14640 14641 14642 14643 14644 14645 14646 14647 14648 14649 14650 14651 14652 14653 14654 14655 14656 14657 14658 14659 14660 14661 14662 14663 14664 14665 14666 14667 14668 14669 14670 14671 14672 14673 14674 14675 14676 14677 14678 14679 14680 14681 14682 14683 14684 14685 14686 14687 14688 14689 14690 14691 14692 14693 14694 14695 14696 14697 14698 14699 14700 14701 14702 14703 14704 14705 14706 14707 14708 14709 14710 14711 14712 14713 14714 14715 14716 14717 14718 14719 14720 14721 14722 14723 14724 14725 14726 14727 14728 14729 14730 14731 14732 14733 14734 14735 14736 14737 14738 14739 14740 14741 14742 14743 14744 14745 14746 14747 14748 14749 14750 14751 14752 14753 14754 14755 14756 14757 14758 14759 14760 14761 14762 14763 14764 14765 14766 14767 14768 14769 14770 14771 14772 14773 14774 14775 14776 14777 14778 14779 14780 14781 14782 14783 14784 14785 14786 14787 14788 14789 14790 14791 14792 14793 14794 14795 14796 14797 14798 14799 14800 14801 14802 14803 14804 14805 14806 14807 14808 14809 14810 14811 14812 14813 14814 14815 14816 14817 14818 14819 14820 14821 14822 14823 14824 14825 14826 14827 14828 14829 14830 14831 14832 14833 14834 14835 14836 14837 14838 14839 14840 14841 14842 14843 14844 14845 14846 14847 14848 14849 14850 14851 14852 14853 14854 14855 14856 14857 14858 14859 14860 14861 14862 14863 14864 14865 14866 14867 14868 14869 14870 14871 14872 14873 14874 14875 14876 14877 14878 14879 14880 14881 14882 14883 14884 14885 14886 14887 14888 14889 14890 14891 14892 14893 14894 14895 14896 14897 14898 14899 14900 14901 14902 14903 14904 14905 14906 14907 14908 14909 14910 14911 14912 14913 14914 14915 14916 14917 14918 14919 14920 14921 14922 14923 14924 14925 14926 14927 14928 14929 14930 14931 14932 14933 14934 14935 14936 14937 14938 14939 14940 14941 14942 14943 14944 14945 14946 14947 14948 14949 14950 14951 14952 14953 14954 14955 14956 14957 14958 14959 14960 14961 14962 14963 14964 14965 14966 14967 14968 14969 14970 14971 14972 14973 14974 14975 14976 14977 14978 14979 14980 14981 14982 14983 14984 14985 14986 14987 14988 14989 14990 14991 14992 14993 14994 14995 14996 14997 14998 14999 15000 15001 15002 15003 15004 15005 15006 15007 15008 15009 15010 15011 15012 15013 15014 15015 15016 15017 15018 15019 15020 15021 15022 15023 15024 15025 15026 15027 15028 15029 15030 15031 15032 15033 15034 15035 15036 15037 15038 15039 15040 15041 15042 15043 15044 15045 15046 15047 15048 15049 15050 15051 15052 15053 15054 15055 15056 15057 15058 15059 15060 15061 15062 15063 15064 15065 15066 15067 15068 15069 15070 15071 15072 15073 15074 15075 15076 15077 15078 15079 15080 15081 15082 15083 15084 15085 15086 15087 15088 15089 15090 15091 15092 15093 15094 15095 15096 15097 15098 15099 15100 15101 15102 15103 15104 15105 15106 15107 15108 15109 15110 15111 15112 15113 15114 15115 15116 15117 15118 15119 15120 15121 15122 15123 15124 15125 15126 15127 15128 15129 15130 15131 15132 15133 15134 15135 15136 15137 15138 15139 15140 15141 15142 15143 15144 15145 15146 15147 15148 15149 15150 15151 15152 15153 15154 15155 15156 15157 15158 15159 15160 15161 15162 15163 15164 15165 15166 15167 15168 15169 15170 15171 15172 15173 15174 15175 15176 15177 15178 15179 15180 15181 15182 15183 15184 15185 15186 15187 15188 15189 15190 15191 15192 15193 15194 15195 15196 15197 15198 15199 15200 15201 15202 15203 15204 15205 15206 15207 15208 15209 15210 15211 15212 15213 15214 15215 15216 15217 15218 15219 15220 15221 15222 15223 15224 15225 15226 15227 15228 15229 15230 15231 15232 15233 15234 15235 15236 15237 15238 15239 15240 15241 15242 15243 15244 15245 15246 15247 15248 15249 15250 15251 15252 15253 15254 15255 15256 15257 15258 15259 15260 15261 15262 15263 15264 15265 15266 15267 15268 15269 15270 15271 15272 15273 15274 15275 15276 15277 15278 15279 15280 15281 15282 15283 15284 15285 15286 15287 15288 15289 15290 15291 15292 15293 15294 15295 15296 15297 15298 15299 15300 15301 15302 15303 15304 15305 15306 15307 15308 15309 15310 15311 15312 15313 15314 15315 15316 15317 15318 15319 15320 15321 15322 15323 15324 15325 15326 15327 15328 15329 15330 15331 15332 15333 15334 15335 15336 15337 15338 15339 15340 15341 15342 15343 15344 15345 15346 15347 15348 15349 15350 15351 15352 15353 15354 15355 15356 15357 15358 15359 15360 15361 15362 15363 15364 15365 15366 15367 15368 15369 15370 15371 15372 15373 15374 15375 15376 15377 15378 15379 15380 15381 15382 15383 15384 15385 15386 15387 15388 15389 15390 15391 15392 15393 15394 15395 15396 15397 15398 15399 15400 15401 15402 15403 15404 15405 15406 15407 15408 15409 15410 15411 15412 15413 15414 15415 15416 15417 15418 15419 15420 15421 15422 15423 15424 15425 15426 15427 15428 15429 15430 15431 15432 15433 15434 15435 15436 15437 15438 15439 15440 15441 15442 15443 15444 15445 15446 15447 15448 15449 15450 15451 15452 15453 15454 15455 15456 15457 15458 15459 15460 15461 15462 15463 15464 15465 15466 15467 15468 15469 15470 15471 15472 15473 15474 15475 15476 15477 15478 15479 15480 15481 15482 15483 15484 15485 15486 15487 15488 15489 15490 15491 15492 15493 15494 15495 15496 15497 15498 15499 15500 15501 15502 15503 15504 15505 15506 15507 15508 15509 15510 15511 15512 15513 15514 15515 15516 15517 15518 15519 15520 15521 15522 15523 15524 15525 15526 15527 15528 15529 15530 15531 15532 15533 15534 15535 15536 15537 15538 15539 15540 15541 15542 15543 15544 15545 15546 15547 15548 15549 15550 15551 15552 15553 15554 15555 15556 15557 15558 15559 15560 15561 15562 15563 15564 15565 15566 15567 15568 15569 15570 15571 15572 15573 15574 15575 15576 15577 15578 15579 15580 15581 15582 15583 15584 15585 15586 15587 15588 15589 15590 15591 15592 15593 15594 15595 15596 15597 15598 15599 15600 15601 15602 15603 15604 15605 15606 15607 15608 15609 15610 15611 15612 15613 15614 15615 15616 15617 15618 15619 15620 15621 15622 15623 15624 15625 15626 15627 15628 15629 15630 15631 15632 15633 15634 15635 15636 15637 15638 15639 15640 15641 15642 15643 15644 15645 15646 15647 15648 15649 15650 15651 15652 15653 15654 15655 15656 15657 15658 15659 15660 15661 15662 15663 15664 15665 15666 15667 15668 15669 15670 15671 15672 15673 15674 15675 15676 15677 15678 15679 15680 15681 15682 15683 15684 15685 15686 15687 15688 15689 15690 15691 15692 15693 15694 15695 15696 15697 15698 15699 15700 15701 15702 15703 15704 15705 15706 15707 15708 15709 15710 15711 15712 15713 15714 15715 15716 15717 15718 15719 15720 15721 15722 15723 15724 15725 15726 15727 15728 15729 15730 15731 15732 15733 15734 15735 15736 15737 15738 15739 15740 15741 15742 15743 15744 15745 15746 15747 15748 15749 15750 15751 15752 15753 15754 15755 15756 15757 15758 15759 15760 15761 15762 15763 15764 15765 15766 15767 15768 15769 15770 15771 15772 15773 15774 15775 15776 15777 15778 15779 15780 15781 15782 15783 15784 15785 15786 15787 15788 15789 15790 15791 15792 15793 15794 15795 15796 15797 15798 15799 15800 15801 15802 15803 15804 15805 15806 15807 15808 15809 15810 15811 15812 15813 15814 15815 15816 15817 15818 15819 15820 15821 15822 15823 15824 15825 15826 15827 15828 15829 15830 15831 15832 15833 15834 15835 15836 15837 15838 15839 15840 15841 15842 15843 15844 15845 15846 15847 15848 15849 15850 15851 15852 15853 15854 15855 15856 15857 15858 15859 15860 15861 15862 15863 15864 15865 15866 15867 15868 15869 15870 15871 15872 15873 15874 15875 15876 15877 15878 15879 15880 15881 15882 15883 15884 15885 15886 15887 15888 15889 15890 15891 15892 15893 15894 15895 15896 15897 15898 15899 15900 15901 15902 15903 15904 15905 15906 15907 15908 15909 15910 15911 15912 15913 15914 15915 15916 15917 15918 15919 15920 15921 15922 15923 15924 15925 15926 15927 15928 15929 15930 15931 15932 15933 15934 15935 15936 15937 15938 15939 15940 15941 15942 15943 15944 15945 15946 15947 15948 15949 15950 15951 15952 15953 15954 15955 15956 15957 15958 15959 15960 15961 15962 15963 15964 15965 15966 15967 15968 15969 15970 15971 15972 15973 15974 15975 15976 15977 15978 15979 15980 15981 15982 15983 15984 15985 15986 15987 15988 15989 15990 15991 15992 15993 15994 15995 15996 15997 15998 15999 16000 16001 16002 16003 16004 16005 16006 16007 16008 16009 16010 16011 16012 16013 16014 16015 16016 16017 16018 16019 16020 16021 16022 16023 16024 16025 16026 16027 16028 16029 16030 16031 16032 16033 16034 16035 16036 16037 16038 16039 16040 16041 16042 16043 16044 16045 16046 16047 16048 16049 16050 16051 16052 16053 16054 16055 16056 16057 16058 16059 16060 16061 16062 16063 16064 16065 16066 16067 16068 16069 16070 16071 16072 16073 16074 16075 16076 16077 16078 16079 16080 16081 16082 16083 16084 16085 16086 16087 16088 16089 16090 16091 16092 16093 16094 16095 16096 16097 16098 16099 16100 16101 16102 16103 16104 16105 16106 16107 16108 16109 16110 16111 16112 16113 16114 16115 16116 16117 16118 16119 16120 16121 16122 16123 16124 16125 16126 16127 16128 16129 16130 16131 16132 16133 16134 16135 16136 16137 16138 16139 16140 16141 16142 16143 16144 16145 16146 16147 16148 16149 16150 16151 16152 16153 16154 16155 16156 16157 16158 16159 16160 16161 16162 16163 16164 16165 16166 16167 16168 16169 16170 16171 16172 16173 16174 16175 16176 16177 16178 16179 16180 16181 16182 16183 16184 16185 16186 16187 16188 16189 16190 16191 16192 16193 16194 16195 16196 16197 16198 16199 16200 16201 16202 16203 16204 16205 16206 16207 16208 16209 16210 16211 16212 16213 16214 16215 16216 16217 16218 16219 16220 16221 16222 16223 16224 16225 16226 16227 16228 16229 16230 16231 16232 16233 16234 16235 16236 16237 16238 16239 16240 16241 16242 16243 16244 16245 16246 16247 16248 16249 16250 16251 16252 16253 16254 16255 16256 16257 16258 16259 16260 16261 16262 16263 16264 16265 16266 16267 16268 16269 16270 16271 16272 16273 16274 16275 16276 16277 16278 16279 16280 16281 16282 16283 16284 16285 16286 16287 16288 16289 16290 16291 16292 16293 16294 16295 16296 16297 16298 16299 16300 16301 16302 16303 16304 16305 16306 16307 16308 16309 16310 16311 16312 16313 16314 16315 16316 16317 16318 16319 16320 16321 16322 16323 16324 16325 16326 16327 16328 16329 16330 16331 16332 16333 16334 16335 16336 16337 16338 16339 16340 16341 16342 16343 16344 16345 16346 16347 16348 16349 16350 16351 16352 16353 16354 16355 16356 16357 16358 16359 16360 16361 16362 16363 16364 16365 16366 16367 16368 16369 16370 16371 16372 16373 16374 16375 16376 16377 16378 16379 16380 16381 16382 16383 16384 16385 16386 16387 16388 16389 16390 16391 16392 16393 16394 16395 16396 16397 16398 16399 16400 16401 16402 16403 16404 16405 16406 16407 16408 16409 16410 16411 16412 16413 16414 16415 16416 16417 16418 16419 16420 16421 16422 16423 16424 16425 16426 16427 16428 16429 16430 16431 16432 16433 16434 16435 16436 16437 16438 16439 16440 16441 16442 16443 16444 16445 16446 16447 16448 16449 16450 16451 16452 16453 16454 16455 16456 16457 16458 16459 16460 16461 16462 16463 16464 16465 16466 16467 16468 16469 16470 16471 16472 16473 16474 16475 16476 16477 16478 16479 16480 16481 16482 16483 16484 16485 16486 16487 16488 16489 16490 16491 16492 16493 16494 16495 16496 16497 16498 16499 16500 16501 16502 16503 16504 16505 16506 16507 16508 16509 16510 16511 16512 16513 16514 16515 16516 16517 16518 16519 16520 16521 16522 16523 16524 16525 16526 16527 16528 16529 16530 16531 16532 16533 16534 16535 16536 16537 16538 16539 16540 16541 16542 16543 16544 16545 16546 16547 16548 16549 16550 16551 16552 16553 16554 16555 16556 16557 16558 16559 16560 16561 16562 16563 16564 16565 16566 16567 16568 16569 16570 16571 16572 16573 16574 16575 16576 16577 16578 16579 16580 16581 16582 16583 16584 16585 16586 16587 16588 16589 16590 16591 16592 16593 16594 16595 16596 16597 16598 16599 16600 16601 16602 16603 16604 16605 16606 16607 16608 16609 16610 16611 16612 16613 16614 16615 16616 16617 16618 16619 16620 16621 16622 16623 16624 16625 16626 16627 16628 16629 16630 16631 16632 16633 16634 16635 16636 16637 16638 16639 16640 16641 16642 16643 16644 16645 16646 16647 16648 16649 16650 16651 16652 16653 16654 16655 16656 16657 16658 16659 16660 16661 16662 16663 16664 16665 16666 16667 16668 16669 16670 16671 16672 16673 16674 16675 16676 16677 16678 16679 16680 16681 16682 16683 16684 16685 16686 16687 16688 16689 16690 16691 16692 16693 16694 16695 16696 16697 16698 16699 16700 16701 16702 16703 16704 16705 16706 16707 16708 16709 16710 16711 16712 16713 16714 16715 16716 16717 16718 16719 16720 16721 16722 16723 16724 16725 16726 16727 16728 16729 16730 16731 16732 16733 16734 16735 16736 16737 16738 16739 16740 16741 16742 16743 16744 16745 16746 16747 16748 16749 16750 16751 16752 16753 16754 16755 16756 16757 16758 16759 16760 16761 16762 16763 16764 16765 16766 16767 16768 16769 16770 16771 16772 16773 16774 16775 16776 16777 16778 16779 16780 16781 16782 16783 16784 16785 16786 16787 16788 16789 16790 16791 16792 16793 16794 16795 16796 16797 16798 16799 16800 16801 16802 16803 16804 16805 16806 16807 16808 16809 16810 16811 16812 16813 16814 16815 16816 16817 16818 16819 16820 16821 16822 16823 16824 16825 16826 16827 16828 16829 16830 16831 16832 16833 16834 16835 16836 16837 16838 16839 16840 16841 16842 16843 16844 16845 16846 16847 16848 16849 16850 16851 16852 16853 16854 16855 16856 16857 16858 16859 16860 16861 16862 16863 16864 16865 16866 16867 16868 16869 16870 16871 16872 16873 16874 16875 16876 16877 16878 16879 16880 16881 16882 16883 16884 16885 16886 16887 16888 16889 16890 16891 16892 16893 16894 16895 16896 16897 16898 16899 16900 16901 16902 16903 16904 16905 16906 16907 16908 16909 16910 16911 16912 16913 16914 16915 16916 16917 16918 16919 16920 16921 16922 16923 16924 16925 16926 16927 16928 16929 16930 16931 16932 16933 16934 16935 16936 16937 16938 16939 16940 16941 16942 16943 16944 16945 16946 16947 16948 16949 16950 16951 16952 16953 16954 16955 16956 16957 16958 16959 16960 16961 16962 16963 16964 16965 16966 16967 16968 16969 16970 16971 16972 16973 16974 16975 16976 16977 16978 16979 16980 16981 16982 16983 16984 16985 16986 16987 16988 16989 16990 16991 16992 16993 16994 16995 16996 16997 16998 16999 17000 17001 17002 17003 17004 17005 17006 17007 17008 17009 17010 17011 17012 17013 17014 17015 17016 17017 17018 17019 17020 17021 17022 17023 17024 17025 17026 17027 17028 17029 17030 17031 17032 17033 17034 17035 17036 17037 17038 17039 17040 17041 17042 17043 17044 17045 17046 17047 17048 17049 17050 17051 17052 17053 17054 17055 17056 17057 17058 17059 17060 17061 17062 17063 17064 17065 17066 17067 17068 17069 17070 17071 17072 17073 17074 17075 17076 17077 17078 17079 17080 17081 17082 17083 17084 17085 17086 17087 17088 17089 17090 17091 17092 17093 17094 17095 17096 17097 17098 17099 17100 17101 17102 17103 17104 17105 17106 17107 17108 17109 17110 17111 17112 17113 17114 17115 17116 17117 17118 17119 17120 17121 17122 17123 17124 17125 17126 17127 17128 17129 17130 17131 17132 17133 17134 17135 17136 17137 17138 17139 17140 17141 17142 17143 17144 17145 17146 17147 17148 17149 17150 17151 17152 17153 17154 17155 17156 17157 17158 17159 17160 17161 17162 17163 17164 17165 17166 17167 17168 17169 17170 17171 17172 17173 17174 17175 17176 17177 17178 17179 17180 17181 17182 17183 17184 17185 17186 17187 17188 17189 17190 17191 17192 17193 17194 17195 17196 17197 17198 17199 17200 17201 17202 17203 17204 17205 17206 17207 17208 17209 17210 17211 17212 17213 17214 17215 17216 17217 17218 17219 17220 17221 17222 17223 17224 17225 17226 17227 17228 17229 17230 17231 17232 17233 17234 17235 17236 17237 17238 17239 17240 17241 17242 17243 17244 17245 17246 17247 17248 17249 17250 17251 17252 17253 17254 17255 17256 17257 17258 17259 17260 17261 17262 17263 17264 17265 17266 17267 17268 17269 17270 17271 17272 17273 17274 17275 17276 17277 17278 17279 17280 17281 17282 17283 17284 17285 17286 17287 17288 17289 17290 17291 17292 17293 17294 17295 17296 17297 17298 17299 17300 17301 17302 17303 17304 17305 17306 17307 17308 17309 17310 17311 17312 17313 17314 17315 17316 17317 17318 17319 17320 17321 17322 17323 17324 17325 17326 17327 17328 17329 17330 17331 17332 17333 17334 17335 17336 17337 17338 17339 17340 17341 17342 17343 17344 17345 17346 17347 17348 17349 17350 17351 17352 17353 17354 17355 17356 17357 17358 17359 17360 17361 17362 17363 17364 17365 17366 17367 17368 17369 17370 17371 17372 17373 17374 17375 17376 17377 17378 17379 17380 17381 17382 17383 17384 17385 17386 17387 17388 17389 17390 17391 17392 17393 17394 17395 17396 17397 17398 17399 17400 17401 17402 17403 17404 17405 17406 17407 17408 17409 17410 17411 17412 17413 17414 17415 17416 17417 17418 17419 17420 17421 17422 17423 17424 17425 17426 17427 17428 17429 17430 17431 17432 17433 17434 17435 17436 17437 17438 17439 17440 17441 17442 17443 17444 17445 17446 17447 17448 17449 17450 17451 17452 17453 17454 17455 17456 17457 17458 17459 17460 17461 17462 17463 17464 17465 17466 17467 17468 17469 17470 17471 17472 17473 17474 17475 17476 17477 17478 17479 17480 17481 17482 17483 17484 17485 17486 17487 17488 17489 17490 17491 17492 17493 17494 17495 17496 17497 17498 17499 17500 17501 17502 17503 17504 17505 17506 17507 17508 17509 17510 17511 17512 17513 17514 17515 17516 17517 17518 17519 17520 17521 17522 17523 17524 17525 17526 17527 17528 17529 17530 17531 17532 17533 17534 17535 17536 17537 17538 17539 17540 17541 17542 17543 17544 17545 17546 17547 17548 17549 17550 17551 17552 17553 17554 17555 17556 17557 17558 17559 17560 17561 17562 17563 17564 17565 17566 17567 17568 17569 17570 17571 17572 17573 17574 17575 17576 17577 17578 17579 17580 17581 17582 17583 17584 17585 17586 17587 17588 17589 17590 17591 17592 17593 17594 17595 17596 17597 17598 17599 17600 17601 17602 17603 17604 17605 17606 17607 17608 17609 17610 17611 17612 17613 17614 17615 17616 17617 17618 17619 17620 17621 17622 17623 17624 17625 17626 17627 17628 17629 17630 17631 17632 17633 17634 17635 17636 17637 17638 17639 17640 17641 17642 17643 17644 17645 17646 17647 17648 17649 17650 17651 17652 17653 17654 17655 17656 17657 17658 17659 17660 17661 17662 17663 17664 17665 17666 17667 17668 17669 17670 17671 17672 17673 17674 17675 17676 17677 17678 17679 17680 17681 17682 17683 17684 17685 17686 17687 17688 17689 17690 17691 17692 17693 17694 17695 17696 17697 17698 17699 17700 17701 17702 17703 17704 17705 17706 17707 17708 17709 17710 17711 17712 17713 17714 17715 17716 17717 17718 17719 17720 17721 17722 17723 17724 17725 17726 17727 17728 17729 17730 17731 17732 17733 17734 17735 17736 17737 17738 17739 17740 17741 17742 17743 17744 17745 17746 17747 17748 17749 17750 17751 17752 17753 17754 17755 17756 17757 17758 17759 17760 17761 17762 17763 17764 17765 17766 17767 17768 17769 17770 17771 17772 17773 17774 17775 17776 17777 17778 17779 17780 17781 17782 17783 17784 17785 17786 17787 17788 17789 17790 17791 17792 17793 17794 17795 17796 17797 17798 17799 17800 17801 17802 17803 17804 17805 17806 17807 17808 17809 17810 17811 17812 17813 17814 17815 17816 17817 17818 17819 17820 17821 17822 17823 17824 17825 17826 17827 17828 17829 17830 17831 17832 17833 17834 17835 17836 17837 17838 17839 17840 17841 17842 17843 17844 17845 17846 17847 17848 17849 17850 17851 17852 17853 17854 17855 17856 17857 17858 17859 17860 17861 17862 17863 17864 17865 17866 17867 17868 17869 17870 17871 17872 17873 17874 17875 17876 17877 17878 17879 17880 17881 17882 17883 17884 17885 17886 17887 17888 17889 17890 17891 17892 17893 17894 17895 17896 17897 17898 17899 17900 17901 17902 17903 17904 17905 17906 17907 17908 17909 17910 17911 17912 17913 17914 17915 17916 17917 17918 17919 17920 17921 17922 17923 17924 17925 17926 17927 17928 17929 17930 17931 17932 17933 17934 17935 17936 17937 17938 17939 17940 17941 17942 17943 17944 17945 17946 17947 17948 17949 17950 17951 17952 17953 17954 17955 17956 17957 17958 17959 17960 17961 17962 17963 17964 17965 17966 17967 17968 17969 17970 17971 17972 17973 17974 17975 17976 17977 17978 17979 17980 17981 17982 17983 17984 17985 17986 17987 17988 17989 17990 17991 17992 17993 17994 17995 17996 17997 17998 17999 18000 18001 18002 18003 18004 18005 18006 18007 18008 18009 18010 18011 18012 18013 18014 18015 18016 18017 18018 18019 18020 18021 18022 18023 18024 18025 18026 18027 18028 18029 18030 18031 18032 18033 18034 18035 18036 18037 18038 18039 18040 18041 18042 18043 18044 18045 18046 18047 18048 18049 18050 18051 18052 18053 18054 18055 18056 18057 18058 18059 18060 18061 18062 18063 18064 18065 18066 18067 18068 18069 18070 18071 18072 18073 18074 18075 18076 18077 18078 18079 18080 18081 18082 18083 18084 18085 18086 18087 18088 18089 18090 18091 18092 18093 18094 18095 18096 18097 18098 18099 18100 18101 18102 18103 18104 18105 18106 18107 18108 18109 18110 18111 18112 18113 18114 18115 18116 18117 18118 18119 18120 18121 18122 18123 18124 18125 18126 18127 18128 18129 18130 18131 18132 18133 18134 18135 18136 18137 18138 18139 18140 18141 18142 18143 18144 18145 18146 18147 18148 18149 18150 18151 18152 18153 18154 18155 18156 18157 18158 18159 18160 18161 18162 18163 18164 18165 18166 18167 18168 18169 18170 18171 18172 18173 18174 18175 18176 18177 18178 18179 18180 18181 18182 18183 18184 18185 18186 18187 18188 18189 18190 18191 18192 18193 18194 18195 18196 18197 18198 18199 18200 18201 18202 18203 18204 18205 18206 18207 18208 18209 18210 18211 18212 18213 18214 18215 18216 18217 18218 18219 18220 18221 18222 18223 18224 18225 18226 18227 18228 18229 18230 18231 18232 18233 18234 18235 18236 18237 18238 18239 18240 18241 18242 18243 18244 18245 18246 18247 18248 18249 18250 18251 18252 18253 18254 18255 18256 18257 18258 18259 18260 18261 18262 18263 18264 18265 18266 18267 18268 18269 18270 18271 18272 18273 18274 18275 18276 18277 18278 18279 18280 18281 18282 18283 18284 18285 18286 18287 18288 18289 18290 18291 18292 18293 18294 18295 18296 18297 18298 18299 18300 18301 18302 18303 18304 18305 18306 18307 18308 18309 18310 18311 18312 18313 18314 18315 18316 18317 18318 18319 18320 18321 18322 18323 18324 18325 18326 18327 18328 18329 18330 18331 18332 18333 18334 18335 18336 18337 18338 18339 18340 18341 18342 18343 18344 18345 18346 18347 18348 18349 18350 18351 18352 18353 18354 18355 18356 18357 18358 18359 18360 18361 18362 18363 18364 18365 18366 18367 18368 18369 18370 18371 18372 18373 18374 18375 18376 18377 18378 18379 18380 18381 18382 18383 18384 18385 18386 18387 18388 18389 18390 18391 18392 18393 18394 18395 18396 18397 18398 18399 18400 18401 18402 18403 18404 18405 18406 18407 18408 18409 18410 18411 18412 18413 18414 18415 18416 18417 18418 18419 18420 18421 18422 18423 18424 18425 18426 18427 18428 18429 18430 18431 18432 18433 18434 18435 18436 18437 18438 18439 18440 18441 18442 18443 18444 18445 18446 18447 18448 18449 18450 18451 18452 18453 18454 18455 18456 18457 18458 18459 18460 18461 18462 18463 18464 18465 18466 18467 18468 18469 18470 18471 18472 18473 18474 18475 18476 18477 18478 18479 18480 18481 18482 18483 18484 18485 18486 18487 18488 18489 18490 18491 18492 18493 18494 18495 18496 18497 18498 18499 18500 18501 18502 18503 18504 18505 18506 18507 18508 18509 18510 18511 18512 18513 18514 18515 18516 18517 18518 18519 18520 18521 18522 18523 18524 18525 18526 18527 18528 18529 18530 18531 18532 18533 18534 18535 18536 18537 18538 18539 18540 18541 18542 18543 18544 18545 18546 18547 18548 18549 18550 18551 18552 18553 18554 18555 18556 18557 18558 18559 18560 18561 18562 18563 18564 18565 18566 18567 18568 18569 18570 18571 18572 18573 18574 18575 18576 18577 18578 18579 18580 18581 18582 18583 18584 18585 18586 18587 18588 18589 18590 18591 18592 18593 18594 18595 18596 18597 18598 18599 18600 18601 18602 18603 18604 18605 18606 18607 18608 18609 18610 18611 18612 18613 18614 18615 18616 18617 18618 18619 18620 18621 18622 18623 18624 18625 18626 18627 18628 18629 18630 18631 18632 18633 18634 18635 18636 18637 18638 18639 18640 18641 18642 18643 18644 18645 18646 18647 18648 18649 18650 18651 18652 18653 18654 18655 18656 18657 18658 18659 18660 18661 18662 18663 18664 18665 18666 18667 18668 18669 18670 18671 18672 18673 18674 18675 18676 18677 18678 18679 18680 18681 18682 18683 18684 18685 18686 18687 18688 18689 18690 18691 18692 18693 18694 18695 18696 18697 18698 18699 18700 18701 18702 18703 18704 18705 18706 18707 18708 18709 18710 18711 18712 18713 18714 18715 18716 18717 18718 18719 18720 18721 18722 18723 18724 18725 18726 18727 18728 18729 18730 18731 18732 18733 18734 18735 18736 18737 18738 18739 18740 18741 18742 18743 18744 18745 18746 18747 18748 18749 18750 18751 18752 18753 18754 18755 18756 18757 18758 18759 18760 18761 18762 18763 18764 18765 18766 18767 18768 18769 18770 18771 18772 18773 18774 18775 18776 18777 18778 18779 18780 18781 18782 18783 18784 18785 18786 18787 18788 18789 18790 18791 18792 18793 18794 18795 18796 18797 18798 18799 18800 18801 18802 18803 18804 18805 18806 18807 18808 18809 18810 18811 18812 18813 18814 18815 18816 18817 18818 18819 18820 18821 18822 18823 18824 18825 18826 18827 18828 18829 18830 18831 18832 18833 18834 18835 18836 18837 18838 18839 18840 18841 18842 18843 18844 18845 18846 18847 18848 18849 18850 18851 18852 18853 18854 18855 18856 18857 18858 18859 18860 18861 18862 18863 18864 18865 18866 18867 18868 18869 18870 18871 18872 18873 18874 18875 18876 18877 18878 18879 18880 18881 18882 18883 18884 18885 18886 18887 18888 18889 18890 18891 18892 18893 18894 18895 18896 18897 18898 18899 18900 18901 18902 18903 18904 18905 18906 18907 18908 18909 18910 18911 18912 18913 18914 18915 18916 18917 18918 18919 18920 18921 18922 18923 18924 18925 18926 18927 18928 18929 18930 18931 18932 18933 18934 18935 18936 18937 18938 18939 18940 18941 18942 18943 18944 18945 18946 18947 18948 18949 18950 18951 18952 18953 18954 18955 18956 18957 18958 18959 18960 18961 18962 18963 18964 18965 18966 18967 18968 18969 18970 18971 18972 18973 18974 18975 18976 18977 18978 18979 18980 18981 18982 18983 18984 18985 18986 18987 18988 18989 18990 18991 18992 18993 18994 18995 18996 18997 18998 18999 19000 19001 19002 19003 19004 19005 19006 19007 19008 19009 19010 19011 19012 19013 19014 19015 19016 19017 19018 19019 19020 19021 19022 19023 19024 19025 19026 19027 19028 19029 19030 19031 19032 19033 19034 19035 19036 19037 19038 19039 19040 19041 19042 19043 19044 19045 19046 19047 19048 19049 19050 19051 19052 19053 19054 19055 19056 19057 19058 19059 19060 19061 19062 19063 19064 19065 19066 19067 19068 19069 19070 19071 19072 19073 19074 19075 19076 19077 19078 19079 19080 19081 19082 19083 19084 19085 19086 19087 19088 19089 19090 19091 19092 19093 19094 19095 19096 19097 19098 19099 19100 19101 19102 19103 19104 19105 19106 19107 19108 19109 19110 19111 19112 19113 19114 19115 19116 19117 19118 19119 19120 19121 19122 19123 19124 19125 19126 19127 19128 19129 19130 19131 19132 19133 19134 19135 19136 19137 19138 19139 19140 19141 19142 19143 19144 19145 19146 19147 19148 19149 19150 19151 19152 19153 19154 19155 19156 19157 19158 19159 19160 19161 19162 19163 19164 19165 19166 19167 19168 19169 19170 19171 19172 19173 19174 19175 19176 19177 19178 19179 19180 19181 19182 19183 19184 19185 19186 19187 19188 19189 19190 19191 19192 19193 19194 19195 19196 19197 19198 19199 19200 19201 19202 19203 19204 19205 19206 19207 19208 19209 19210 19211 19212 19213 19214 19215 19216 19217 19218 19219 19220 19221 19222 19223 19224 19225 19226 19227 19228 19229 19230 19231 19232 19233 19234 19235 19236 19237 19238 19239 19240 19241 19242 19243 19244 19245 19246 19247 19248 19249 19250 19251 19252 19253 19254 19255 19256 19257 19258 19259 19260 19261 19262 19263 19264 19265 19266 19267 19268 19269 19270 19271 19272 19273 19274 19275 19276 19277 19278 19279 19280 19281 19282 19283 19284 19285 19286 19287 19288 19289 19290 19291 19292 19293 19294 19295 19296 19297 19298 19299 19300 19301 19302 19303 19304 19305 19306 19307 19308 19309 19310 19311 19312 19313 19314 19315 19316 19317 19318 19319 19320 19321 19322 19323 19324 19325 19326 19327 19328 19329 19330 19331 19332 19333 19334 19335 19336 19337 19338 19339 19340 19341 19342 19343 19344 19345 19346 19347 19348 19349 19350 19351 19352 19353 19354 19355 19356 19357 19358 19359 19360 19361 19362 19363 19364 19365 19366 19367 19368 19369 19370 19371 19372 19373 19374 19375 19376 19377 19378 19379 19380 19381 19382 19383 19384 19385 19386 19387 19388 19389 19390 19391 19392 19393 19394 19395 19396 19397 19398 19399 19400 19401 19402 19403 19404 19405 19406 19407 19408 19409 19410 19411 19412 19413 19414 19415 19416 19417 19418 19419 19420 19421 19422 19423 19424 19425 19426 19427 19428 19429 19430 19431 19432 19433 19434 19435 19436 19437 19438 19439 19440 19441 19442 19443 19444 19445 19446 19447 19448 19449 19450 19451 19452 19453 19454 19455 19456 19457 19458 19459 19460 19461 19462 19463 19464 19465 19466 19467 19468 19469 19470 19471 19472 19473 19474 19475 19476 19477 19478 19479 19480 19481 19482 19483 19484 19485 19486 19487 19488 19489 19490 19491 19492 19493 19494 19495 19496 19497 19498 19499 19500 19501 19502 19503 19504 19505 19506 19507 19508 19509 19510 19511 19512 19513 19514 19515 19516 19517 19518 19519 19520 19521 19522 19523 19524 19525 19526 19527 19528 19529 19530 19531 19532 19533 19534 19535 19536 19537 19538 19539 19540 19541 19542 19543 19544 19545 19546 19547 19548 19549 19550 19551 19552 19553 19554 19555 19556 19557 19558 19559 19560 19561 19562 19563 19564 19565 19566 19567 19568 19569 19570 19571 19572 19573 19574 19575 19576 19577 19578 19579 19580 19581 19582 19583 19584 19585 19586 19587 19588 19589 19590 19591 19592 19593 19594 19595 19596 19597 19598 19599 19600 19601 19602 19603 19604 19605 19606 19607 19608 19609 19610 19611 19612 19613 19614 19615 19616 19617 19618 19619 19620 19621 19622 19623 19624 19625 19626 19627 19628 19629 19630 19631 19632 19633 19634 19635 19636 19637 19638 19639 19640 19641 19642 19643 19644 19645 19646 19647 19648 19649 19650 19651 19652 19653 19654 19655 19656 19657 19658 19659 19660 19661 19662 19663 19664 19665 19666 19667 19668 19669 19670 19671 19672 19673 19674 19675 19676 19677 19678 19679 19680 19681 19682 19683 19684 19685 19686 19687 19688 19689 19690 19691 19692 19693 19694 19695 19696 19697 19698 19699 19700 19701 19702 19703 19704 19705 19706 19707 19708 19709 19710 19711 19712 19713 19714 19715 19716 19717 19718 19719 19720 19721 19722 19723 19724 19725 19726 19727 19728 19729 19730 19731 19732 19733 19734 19735 19736 19737 19738 19739 19740 19741 19742 19743 19744 19745 19746 19747 19748 19749 19750 19751 19752 19753 19754 19755 19756 19757 19758 19759 19760 19761 19762 19763 19764 19765 19766 19767 19768 19769 19770 19771 19772 19773 19774 19775 19776 19777 19778 19779 19780 19781 19782 19783 19784 19785 19786 19787 19788 19789 19790 19791 19792 19793 19794 19795 19796 19797 19798 19799 19800 19801 19802 19803 19804 19805 19806 19807 19808 19809 19810 19811 19812 19813 19814 19815 19816 19817 19818 19819 19820 19821 19822 19823 19824 19825 19826 19827 19828 19829 19830 19831 19832 19833 19834 19835 19836 19837 19838 19839 19840 19841 19842 19843 19844 19845 19846 19847 19848 19849 19850 19851 19852 19853 19854 19855 19856 19857 19858 19859 19860 19861 19862 19863 19864 19865 19866 19867 19868 19869 19870 19871 19872 19873 19874 19875 19876 19877 19878 19879 19880 19881 19882 19883 19884 19885 19886 19887 19888 19889 19890 19891 19892 19893 19894 19895 19896 19897 19898 19899 19900 19901 19902 19903 19904 19905 19906 19907 19908 19909 19910 19911 19912 19913 19914 19915 19916 19917 19918 19919 19920 19921 19922 19923 19924 19925 19926 19927 19928 19929 19930 19931 19932 19933 19934 19935 19936 19937 19938 19939 19940 19941 19942 19943 19944 19945 19946 19947 19948 19949 19950 19951 19952 19953 19954 19955 19956 19957 19958 19959 19960 19961 19962 19963 19964 19965 19966 19967 19968 19969 19970 19971 19972 19973 19974 19975 19976 19977 19978 19979 19980 19981 19982 19983 19984 19985 19986 19987 19988 19989 19990 19991 19992 19993 19994 19995 19996 19997 19998 19999 20000 20001 20002 20003 20004 20005 20006 20007 20008 20009 20010 20011 20012 20013 20014 20015 20016 20017 20018 20019 20020 20021 20022 20023 20024 20025 20026 20027 20028 20029 20030 20031 20032 20033 20034 20035 20036 20037 20038 20039 20040 20041 20042 20043 20044 20045 20046 20047 20048 20049 20050 20051 20052 20053 20054 20055 20056 20057 20058 20059 20060 20061 20062 20063 20064 20065 20066 20067 20068 20069 20070 20071 20072 20073 20074 20075 20076 20077 20078 20079 20080 20081 20082 20083 20084 20085 20086 20087 20088 20089 20090 20091 20092 20093 20094 20095 20096 20097 20098 20099 20100 20101 20102 20103 20104 20105 20106 20107 20108 20109 20110 20111 20112 20113 20114 20115 20116 20117 20118 20119 20120 20121 20122 20123 20124 20125 20126 20127 20128 20129 20130 20131 20132 20133 20134 20135 20136 20137 20138 20139 20140 20141 20142 20143 20144 20145 20146 20147 20148 20149 20150 20151 20152 20153 20154 20155 20156 20157 20158 20159 20160 20161 20162 20163 20164 20165 20166 20167 20168 20169 20170 20171 20172 20173 20174 20175 20176 20177 20178 20179 20180 20181 20182 20183 20184 20185 20186 20187 20188 20189 20190 20191 20192 20193 20194 20195 20196 20197 20198 20199 20200 20201 20202 20203 20204 20205 20206 20207 20208 20209 20210 20211 20212 20213 20214 20215 20216 20217 20218 20219 20220 20221 20222 20223 20224 20225 20226 20227 20228 20229 20230 20231 20232 20233 20234 20235 20236 20237 20238 20239 20240 20241 20242 20243 20244 20245 20246 20247 20248 20249 20250 20251 20252 20253 20254 20255 20256 20257 20258 20259 20260 20261 20262 20263 20264 20265 20266 20267 20268 20269 20270 20271 20272 20273 20274 20275 20276 20277 20278 20279 20280 20281 20282 20283 20284 20285 20286 20287 20288 20289 20290 20291 20292 20293 20294 20295 20296 20297 20298 20299 20300 20301 20302 20303 20304 20305 20306 20307 20308 20309 20310 20311 20312 20313 20314 20315 20316 20317 20318 20319 20320 20321 20322 20323 20324 20325 20326 20327 20328 20329 20330 20331 20332 20333 20334 20335 20336 20337 20338 20339 20340 20341 20342 20343 20344 20345 20346 20347 20348 20349 20350 20351 20352 20353 20354 20355 20356 20357 20358 20359 20360 20361 20362 20363 20364 20365 20366 20367 20368 20369 20370 20371 20372 20373 20374 20375 20376 20377 20378 20379 20380 20381 20382 20383 20384 20385 20386 20387 20388 20389 20390 20391 20392 20393 20394 20395 20396 20397 20398 20399 20400 20401 20402 20403 20404 20405 20406 20407 20408 20409 20410 20411 20412 20413 20414 20415 20416 20417 20418 20419 20420 20421 20422 20423 20424 20425 20426 20427 20428 20429 20430 20431 20432 20433 20434 20435 20436 20437 20438 20439 20440 20441 20442 20443 20444 20445 20446 20447 20448 20449 20450 20451 20452 20453 20454 20455 20456 20457 20458 20459 20460 20461 20462 20463 20464 20465 20466 20467 20468 20469 20470 20471 20472 20473 20474 20475 20476 20477 20478 20479 20480 20481 20482 20483 20484 20485 20486 20487 20488 20489 20490 20491 20492 20493 20494 20495 20496 20497 20498 20499 20500 20501 20502 20503 20504 20505 20506 20507 20508 20509 20510 20511 20512 20513 20514 20515 20516 20517 20518 20519 20520 20521 20522 20523 20524 20525 20526 20527 20528 20529 20530 20531 20532 20533 20534 20535 20536 20537 20538 20539 20540 20541 20542 20543 20544 20545 20546 20547 20548 20549 20550 20551 20552 20553 20554 20555 20556 20557 20558 20559 20560 20561 20562 20563 20564 20565 20566 20567 20568 20569 20570 20571 20572 20573 20574 20575 20576 20577 20578 20579 20580 20581 20582 20583 20584 20585 20586 20587 20588 20589 20590 20591 20592 20593 20594 20595 20596 20597 20598 20599 20600 20601 20602 20603 20604 20605 20606 20607 20608 20609 20610 20611 20612 20613 20614 20615 20616 20617 20618 20619 20620 20621 20622 20623 20624 20625 20626 20627 20628 20629 20630 20631 20632 20633 20634 20635 20636 20637 20638 20639 20640 20641 20642 20643 20644 20645 20646 20647 20648 20649 20650 20651 20652 20653 20654 20655 20656 20657 20658 20659 20660 20661 20662 20663 20664 20665 20666 20667 20668 20669 20670 20671 20672 20673 20674 20675 20676 20677 20678 20679 20680 20681 20682 20683 20684 20685 20686 20687 20688 20689 20690 20691 20692 20693 20694 20695 20696 20697 20698 20699 20700 20701 20702 20703 20704 20705 20706 20707 20708 20709 20710 20711 20712 20713 20714 20715 20716 20717 20718 20719 20720 20721 20722 20723 20724 20725 20726 20727 20728 20729 20730 20731 20732 20733 20734 20735 20736 20737 20738 20739 20740 20741 20742 20743 20744 20745 20746 20747 20748 20749 20750 20751 20752 20753 20754 20755 20756 20757 20758 20759 20760 20761 20762 20763 20764 20765 20766 20767 20768 20769 20770 20771 20772 20773 20774 20775 20776 20777 20778 20779 20780 20781 20782 20783 20784 20785 20786 20787 20788 20789 20790 20791 20792 20793 20794 20795 20796 20797 20798 20799 20800 20801 20802 20803 20804 20805 20806 20807 20808 20809 20810 20811 20812 20813 20814 20815 20816 20817 20818 20819 20820 20821 20822 20823 20824 20825 20826 20827 20828 20829 20830 20831 20832 20833 20834 20835 20836 20837 20838 20839 20840 20841 20842 20843 20844 20845 20846 20847 20848 20849 20850 20851 20852 20853 20854 20855 20856 20857 20858 20859 20860 20861 20862 20863 20864 20865 20866 20867 20868 20869 20870 20871 20872 20873 20874 20875 20876 20877 20878 20879 20880 20881 20882 20883 20884 20885 20886 20887 20888 20889 20890 20891 20892 20893 20894 20895 20896 20897 20898 20899 20900 20901 20902 20903 20904 20905 20906 20907 20908 20909 20910 20911 20912 20913 20914 20915 20916 20917 20918 20919 20920 20921 20922 20923 20924 20925 20926 20927 20928 20929 20930 20931 20932 20933 20934 20935 20936 20937 20938 20939 20940 20941 20942 20943 20944 20945 20946 20947 20948 20949 20950 20951 20952 20953 20954 20955 20956 20957 20958 20959 20960 20961 20962 20963 20964 20965 20966 20967 20968 20969 20970 20971 20972 20973 20974 20975 20976 20977 20978 20979 20980 20981 20982 20983 20984 20985 20986 20987 20988 20989 20990 20991 20992 20993 20994 20995 20996 20997 20998 20999 21000 21001 21002 21003 21004 21005 21006 21007 21008 21009 21010 21011 21012 21013 21014 21015 21016 21017 21018 21019 21020 21021 21022 21023 21024 21025 21026 21027 21028 21029 21030 21031 21032 21033 21034 21035 21036 21037 21038 21039 21040 21041 21042 21043 21044 21045 21046 21047 21048 21049 21050 21051 21052 21053 21054 21055 21056 21057 21058 21059 21060 21061 21062 21063 21064 21065 21066 21067 21068 21069 21070 21071 21072 21073 21074 21075 21076 21077 21078 21079 21080 21081 21082 21083 21084 21085 21086 21087 21088 21089 21090 21091 21092 21093 21094 21095 21096 21097 21098 21099 21100 21101 21102 21103 21104 21105 21106 21107 21108 21109 21110 21111 21112 21113 21114 21115 21116 21117 21118 21119 21120 21121 21122 21123 21124 21125 21126 21127 21128 21129 21130 21131 21132 21133 21134 21135 21136 21137 21138 21139 21140 21141 21142 21143 21144 21145 21146 21147 21148 21149 21150 21151 21152 21153 21154 21155 21156 21157 21158 21159 21160 21161 21162 21163 21164 21165 21166 21167 21168 21169 21170 21171 21172 21173 21174 21175 21176 21177 21178 21179 21180 21181 21182 21183 21184 21185 21186 21187 21188 21189 21190 21191 21192 21193 21194 21195 21196 21197 21198 21199 21200 21201 21202 21203 21204 21205 21206 21207 21208 21209 21210 21211 21212 21213 21214 21215 21216 21217 21218 21219 21220 21221 21222 21223 21224 21225 21226 21227 21228 21229 21230 21231 21232 21233 21234 21235 21236 21237 21238 21239 21240 21241 21242 21243 21244 21245 21246 21247 21248 21249 21250 21251 21252 21253 21254 21255 21256 21257 21258 21259 21260 21261 21262 21263 21264 21265 21266 21267 21268 21269 21270 21271 21272 21273 21274 21275 21276 21277 21278 21279 21280 21281 21282 21283 21284 21285 21286 21287 21288 21289 21290 21291 21292 21293 21294 21295 21296 21297 21298 21299 21300 21301 21302 21303 21304 21305 21306 21307 21308 21309 21310 21311 21312 21313 21314 21315 21316 21317 21318 21319 21320 21321 21322 21323 21324 21325 21326 21327 21328 21329 21330 21331 21332 21333 21334 21335 21336 21337 21338 21339 21340 21341 21342 21343 21344 21345 21346 21347 21348 21349 21350 21351 21352 21353 21354 21355 21356 21357 21358 21359 21360 21361 21362 21363 21364 21365 21366 21367 21368 21369 21370 21371 21372 21373 21374 21375 21376 21377 21378 21379 21380 21381 21382 21383 21384 21385 21386 21387 21388 21389 21390 21391 21392 21393 21394 21395 21396 21397 21398 21399 21400 21401 21402 21403 21404 21405 21406 21407 21408 21409 21410 21411 21412 21413 21414 21415 21416 21417 21418 21419 21420 21421 21422 21423 21424 21425 21426 21427 21428 21429 21430 21431 21432 21433 21434 21435 21436 21437 21438 21439 21440 21441 21442 21443 21444 21445 21446 21447 21448 21449 21450 21451 21452 21453 21454 21455 21456 21457 21458 21459 21460 21461 21462 21463 21464 21465 21466 21467 21468 21469 21470 21471 21472 21473 21474 21475 21476 21477 21478 21479 21480 21481 21482 21483 21484 21485 21486 21487 21488 21489 21490 21491 21492 21493 21494 21495 21496 21497 21498 21499 21500 21501 21502 21503 21504 21505 21506 21507 21508 21509 21510 21511 21512 21513 21514 21515 21516 21517 21518 21519 21520 21521 21522 21523 21524 21525 21526 21527 21528 21529 21530 21531 21532 21533 21534 21535 21536 21537 21538 21539 21540 21541 21542 21543 21544 21545 21546 21547 21548 21549 21550 21551 21552 21553 21554 21555 21556 21557 21558 21559 21560 21561 21562 21563 21564 21565 21566 21567 21568 21569 21570 21571 21572 21573 21574 21575 21576 21577 21578 21579 21580 21581 21582 21583 21584 21585 21586 21587 21588 21589 21590 21591 21592 21593 21594 21595 21596 21597 21598 21599 21600 21601 21602 21603 21604 21605 21606 21607 21608 21609 21610 21611 21612 21613 21614 21615 21616 21617 21618 21619 21620 21621 21622 21623 21624 21625 21626 21627 21628 21629 21630 21631 21632 21633 21634 21635 21636 21637 21638 21639 21640 21641 21642 21643 21644 21645 21646 21647 21648 21649 21650 21651 21652 21653 21654 21655 21656 21657 21658 21659 21660 21661 21662 21663 21664 21665 21666 21667 21668 21669 21670 21671 21672 21673 21674 21675 21676 21677 21678 21679 21680 21681 21682 21683 21684 21685 21686 21687 21688 21689 21690 21691 21692 21693 21694 21695 21696 21697 21698 21699 21700 21701 21702 21703 21704 21705 21706 21707 21708 21709 21710 21711 21712 21713 21714 21715 21716 21717 21718 21719 21720 21721 21722 21723 21724 21725 21726 21727 21728 21729 21730 21731 21732 21733 21734 21735 21736 21737 21738 21739 21740 21741 21742 21743 21744 21745 21746 21747 21748 21749 21750 21751 21752 21753 21754 21755 21756 21757 21758 21759 21760 21761 21762 21763 21764 21765 21766 21767 21768 21769 21770 21771 21772 21773 21774 21775 21776 21777 21778 21779 21780 21781 21782 21783 21784 21785 21786 21787 21788 21789 21790 21791 21792 21793 21794 21795 21796 21797 21798 21799 21800 21801 21802 21803 21804 21805 21806 21807 21808 21809 21810 21811 21812 21813 21814 21815 21816 21817 21818 21819 21820 21821 21822 21823 21824 21825 21826 21827 21828 21829 21830 21831 21832 21833 21834 21835 21836 21837 21838 21839 21840 21841 21842 21843 21844 21845 21846 21847 21848 21849 21850 21851 21852 21853 21854 21855 21856 21857 21858 21859 21860 21861 21862 21863 21864 21865 21866 21867 21868 21869 21870 21871 21872 21873 21874 21875 21876 21877 21878 21879 21880 21881 21882 21883 21884 21885 21886 21887 21888 21889 21890 21891 21892 21893 21894 21895 21896 21897 21898 21899 21900 21901 21902 21903 21904 21905 21906 21907 21908 21909 21910 21911 21912 21913 21914 21915 21916 21917 21918 21919 21920 21921 21922 21923 21924 21925 21926 21927 21928 21929 21930 21931 21932 21933 21934 21935 21936 21937 21938 21939 21940 21941 21942 21943 21944 21945 21946 21947 21948 21949 21950 21951 21952 21953 21954 21955 21956 21957 21958 21959 21960 21961 21962 21963 21964 21965 21966 21967 21968 21969 21970 21971 21972 21973 21974 21975 21976 21977 21978 21979 21980 21981 21982 21983 21984 21985 21986 21987 21988 21989 21990 21991 21992 21993 21994 21995 21996 21997 21998 21999 22000 22001 22002 22003 22004 22005 22006 22007 22008 22009 22010 22011 22012 22013 22014 22015 22016 22017 22018 22019 22020 22021 22022 22023 22024 22025 22026 22027 22028 22029 22030 22031 22032 22033 22034 22035 22036 22037 22038 22039 22040 22041 22042 22043 22044 22045 22046 22047 22048 22049 22050 22051 22052 22053 22054 22055 22056 22057 22058 22059 22060 22061 22062 22063 22064 22065 22066 22067 22068 22069 22070 22071 22072 22073 22074 22075 22076 22077 22078 22079 22080 22081 22082 22083 22084 22085 22086 22087 22088 22089 22090 22091 22092 22093 22094 22095 22096 22097 22098 22099 22100 22101 22102 22103 22104 22105 22106 22107 22108 22109 22110 22111 22112 22113 22114 22115 22116 22117 22118 22119 22120 22121 22122 22123 22124 22125 22126 22127 22128 22129 22130 22131 22132 22133 22134 22135 22136 22137 22138 22139 22140 22141 22142 22143 22144 22145 22146 22147 22148 22149 22150 22151 22152 22153 22154 22155 22156 22157 22158 22159 22160 22161 22162 22163 22164 22165 22166 22167 22168 22169 22170 22171 22172 22173 22174 22175 22176 22177 22178 22179 22180 22181 22182 22183 22184 22185 22186 22187 22188 22189 22190 22191 22192 22193 22194 22195 22196 22197 22198 22199 22200 22201 22202 22203 22204 22205 22206 22207 22208 22209 22210 22211 22212 22213 22214 22215 22216 22217 22218 22219 22220 22221 22222 22223 22224 22225 22226 22227 22228 22229 22230 22231 22232 22233 22234 22235 22236 22237 22238 22239 22240 22241 22242 22243 22244 22245 22246 22247 22248 22249 22250 22251 22252 22253 22254 22255 22256 22257 22258 22259 22260 22261 22262 22263 22264 22265 22266 22267 22268 22269 22270 22271 22272 22273 22274 22275 22276 22277 22278 22279 22280 22281 22282 22283 22284 22285 22286 22287 22288 22289 22290 22291 22292 22293 22294 22295 22296 22297 22298 22299 22300 22301 22302 22303 22304 22305 22306 22307 22308 22309 22310 22311 22312 22313 22314 22315 22316 22317 22318 22319 22320 22321 22322 22323 22324 22325 22326 22327 22328 22329 22330 22331 22332 22333 22334 22335 22336 22337 22338 22339 22340 22341 22342 22343 22344 22345 22346 22347 22348 22349 22350 22351 22352 22353 22354 22355 22356 22357 22358 22359 22360 22361 22362 22363 22364 22365 22366 22367 22368 22369 22370 22371 22372 22373 22374 22375 22376 22377 22378 22379 22380 22381 22382 22383 22384 22385 22386 22387 22388 22389 22390 22391 22392 22393 22394 22395 22396 22397 22398 22399 22400 22401 22402 22403 22404 22405 22406 22407 22408 22409 22410 22411 22412 22413 22414 22415 22416 22417 22418 22419 22420 22421 22422 22423 22424 22425 22426 22427 22428 22429 22430 22431 22432 22433 22434 22435 22436 22437 22438 22439 22440 22441 22442 22443 22444 22445 22446 22447 22448 22449 22450 22451 22452 22453 22454 22455 22456 22457 22458 22459 22460 22461 22462 22463 22464 22465 22466 22467 22468 22469 22470 22471 22472 22473 22474 22475 22476 22477 22478 22479 22480 22481 22482 22483 22484 22485 22486 22487 22488 22489 22490 22491 22492 22493 22494 22495 22496 22497 22498 22499 22500 22501 22502 22503 22504 22505 22506 22507 22508 22509 22510 22511 22512 22513 22514 22515 22516 22517 22518 22519 22520 22521 22522 22523 22524 22525 22526 22527 22528 22529 22530 22531 22532 22533 22534 22535 22536 22537 22538 22539 22540 22541 22542 22543 22544 22545 22546 22547 22548 22549 22550 22551 22552 22553 22554 22555 22556 22557 22558 22559 22560 22561 22562 22563 22564 22565 22566 22567 22568 22569 22570 22571 22572 22573 22574 22575 22576 22577 22578 22579 22580 22581 22582 22583 22584 22585 22586 22587 22588 22589 22590 22591 22592 22593 22594 22595 22596 22597 22598 22599 22600 22601 22602 22603 22604 22605 22606 22607 22608 22609 22610 22611 22612 22613 22614 22615 22616 22617 22618 22619 22620 22621 22622 22623 22624 22625 22626 22627 22628 22629 22630 22631 22632 22633 22634 22635 22636 22637 22638 22639 22640 22641 22642 22643 22644 22645 22646 22647 22648 22649 22650 22651 22652 22653 22654 22655 22656 22657 22658 22659 22660 22661 22662 22663 22664 22665 22666 22667 22668 22669 22670 22671 22672 22673 22674 22675 22676 22677 22678 22679 22680 22681 22682 22683 22684 22685 22686 22687 22688 22689 22690 22691 22692 22693 22694 22695 22696 22697 22698 22699 22700 22701 22702 22703 22704 22705 22706 22707 22708 22709 22710 22711 22712 22713 22714 22715 22716 22717 22718 22719 22720 22721 22722 22723 22724 22725 22726 22727 22728 22729 22730 22731 22732 22733 22734 22735 22736 22737 22738 22739 22740 22741 22742 22743 22744 22745 22746 22747 22748 22749 22750 22751 22752 22753 22754 22755 22756 22757 22758 22759 22760 22761 22762 22763 22764 22765 22766 22767 22768 22769 22770 22771 22772 22773 22774 22775 22776 22777 22778 22779 22780 22781 22782 22783 22784 22785 22786 22787 22788 22789 22790 22791 22792 22793 22794 22795 22796 22797 22798 22799 22800 22801 22802 22803 22804 22805 22806 22807 22808 22809 22810 22811 22812 22813 22814 22815 22816 22817 22818 22819 22820 22821 22822 22823 22824 22825 22826 22827 22828 22829 22830 22831 22832 22833 22834 22835 22836 22837 22838 22839 22840 22841 22842 22843 22844 22845 22846 22847 22848 22849 22850 22851 22852 22853 22854 22855 22856 22857 22858 22859 22860 22861 22862 22863 22864 22865 22866 22867 22868 22869 22870 22871 22872 22873 22874 22875 22876 22877 22878 22879 22880 22881 22882 22883 22884 22885 22886 22887 22888 22889 22890 22891 22892 22893 22894 22895 22896 22897 22898 22899 22900 22901 22902 22903 22904 22905 22906 22907 22908 22909 22910 22911 22912 22913 22914 22915 22916 22917 22918 22919 22920 22921 22922 22923 22924 22925 22926 22927 22928 22929 22930 22931 22932 22933 22934 22935 22936 22937 22938 22939 22940 22941 22942 22943 22944 22945 22946 22947 22948 22949 22950 22951 22952 22953 22954 22955 22956 22957 22958 22959 22960 22961 22962 22963 22964 22965 22966 22967 22968 22969 22970 22971 22972 22973 22974 22975 22976 22977 22978 22979 22980 22981 22982 22983 22984 22985 22986 22987 22988 22989 22990 22991 22992 22993 22994 22995 22996 22997 22998 22999 23000 23001 23002 23003 23004 23005 23006 23007 23008 23009 23010 23011 23012 23013 23014 23015 23016 23017 23018 23019 23020 23021 23022 23023 23024 23025 23026 23027 23028 23029 23030 23031 23032 23033 23034 23035 23036 23037 23038 23039 23040 23041 23042 23043 23044 23045 23046 23047 23048 23049 23050 23051 23052 23053 23054 23055 23056 23057 23058 23059 23060 23061 23062 23063 23064 23065 23066 23067 23068 23069 23070 23071 23072 23073 23074 23075 23076 23077 23078 23079 23080 23081 23082 23083 23084 23085 23086 23087 23088 23089 23090 23091 23092 23093 23094 23095 23096 23097 23098 23099 23100 23101 23102 23103 23104 23105 23106 23107 23108 23109 23110 23111 23112 23113 23114 23115 23116 23117 23118 23119 23120 23121 23122 23123 23124 23125 23126 23127 23128 23129 23130 23131 23132 23133 23134 23135 23136 23137 23138 23139 23140 23141 23142 23143 23144 23145 23146 23147 23148 23149 23150 23151 23152 23153 23154 23155 23156 23157 23158 23159 23160 23161 23162 23163 23164 23165 23166 23167 23168 23169 23170 23171 23172 23173 23174 23175 23176 23177 23178 23179 23180 23181 23182 23183 23184 23185 23186 23187 23188 23189 23190 23191 23192 23193 23194 23195 23196 23197 23198 23199 23200 23201 23202 23203 23204 23205 23206 23207 23208 23209 23210 23211 23212 23213 23214 23215 23216 23217 23218 23219 23220 23221 23222 23223 23224 23225 23226 23227 23228 23229 23230 23231 23232 23233 23234 23235 23236 23237 23238 23239 23240 23241 23242 23243 23244 23245 23246 23247 23248 23249 23250 23251 23252 23253 23254 23255 23256 23257 23258 23259 23260 23261 23262 23263 23264 23265 23266 23267 23268 23269 23270 23271 23272 23273 23274 23275 23276 23277 23278 23279 23280 23281 23282 23283 23284 23285 23286 23287 23288 23289 23290 23291 23292 23293 23294 23295 23296 23297 23298 23299 23300 23301 23302 23303 23304 23305 23306 23307 23308 23309 23310 23311 23312 23313 23314 23315 23316 23317 23318 23319 23320 23321 23322 23323 23324 23325 23326 23327 23328 23329 23330 23331 23332 23333 23334 23335 23336 23337 23338 23339 23340 23341 23342 23343 23344 23345 23346 23347 23348 23349 23350 23351 23352 23353 23354 23355 23356 23357 23358 23359 23360 23361 23362 23363 23364 23365 23366 23367 23368 23369 23370 23371 23372 23373 23374 23375 23376 23377 23378 23379 23380 23381 23382 23383 23384 23385 23386 23387 23388 23389 23390 23391 23392 23393 23394 23395 23396 23397 23398 23399 23400 23401 23402 23403 23404 23405 23406 23407 23408 23409 23410 23411 23412 23413 23414 23415 23416 23417 23418 23419 23420 23421 23422 23423 23424 23425 23426 23427 23428 23429 23430 23431 23432 23433 23434 23435 23436 23437 23438 23439 23440 23441 23442 23443 23444 23445 23446 23447 23448 23449 23450 23451 23452 23453 23454 23455 23456 23457 23458 23459 23460 23461 23462 23463 23464 23465 23466 23467 23468 23469 23470 23471 23472 23473 23474 23475 23476 23477 23478 23479 23480 23481 23482 23483 23484 23485 23486 23487 23488 23489 23490 23491 23492 23493 23494 23495 23496 23497 23498 23499 23500 23501 23502 23503 23504 23505 23506 23507 23508 23509 23510 23511 23512 23513 23514 23515 23516 23517 23518 23519 23520 23521 23522 23523 23524 23525 23526 23527 23528 23529 23530 23531 23532 23533 23534 23535 23536 23537 23538 23539 23540 23541 23542 23543 23544 23545 23546 23547 23548 23549 23550 23551 23552 23553 23554 23555 23556 23557 23558 23559 23560 23561 23562 23563 23564 23565 23566 23567 23568 23569 23570 23571 23572 23573 23574 23575 23576 23577 23578 23579 23580 23581 23582 23583 23584 23585 23586 23587 23588 23589 23590 23591 23592 23593 23594 23595 23596 23597 23598 23599 23600 23601 23602 23603 23604 23605 23606 23607 23608 23609 23610 23611 23612 23613 23614 23615 23616 23617 23618 23619 23620 23621 23622 23623 23624 23625 23626 23627 23628 23629 23630 23631 23632 23633 23634 23635 23636 23637 23638 23639 23640 23641 23642 23643 23644 23645 23646 23647 23648 23649 23650 23651 23652 23653 23654 23655 23656 23657 23658 23659 23660 23661 23662 23663 23664 23665 23666 23667 23668 23669 23670 23671 23672 23673 23674 23675 23676 23677 23678 23679 23680 23681 23682 23683 23684 23685 23686 23687 23688 23689 23690 23691 23692 23693 23694 23695 23696 23697 23698 23699 23700 23701 23702 23703 23704 23705 23706 23707 23708 23709 23710 23711 23712 23713 23714 23715 23716 23717 23718 23719 23720 23721 23722 23723 23724 23725 23726 23727 23728 23729 23730 23731 23732 23733 23734 23735 23736 23737 23738 23739 23740 23741 23742 23743 23744 23745 23746 23747 23748 23749 23750 23751 23752 23753 23754 23755 23756 23757 23758 23759 23760 23761 23762 23763 23764 23765 23766 23767 23768 23769 23770 23771 23772 23773 23774 23775 23776 23777 23778 23779 23780 23781 23782 23783 23784 23785 23786 23787 23788 23789 23790 23791 23792 23793 23794 23795 23796 23797 23798 23799 23800 23801 23802 23803 23804 23805 23806 23807 23808 23809 23810 23811 23812 23813 23814 23815 23816 23817 23818 23819 23820 23821 23822 23823 23824 23825 23826 23827 23828 23829 23830 23831 23832 23833 23834 23835 23836 23837 23838 23839 23840 23841 23842 23843 23844 23845 23846 23847 23848 23849 23850 23851 23852 23853 23854 23855 23856 23857 23858 23859 23860 23861 23862 23863 23864 23865 23866 23867 23868 23869 23870 23871 23872 23873 23874 23875 23876 23877 23878 23879 23880 23881 23882 23883 23884 23885 23886 23887 23888 23889 23890 23891 23892 23893 23894 23895 23896 23897 23898 23899 23900 23901 23902 23903 23904 23905 23906 23907 23908 23909 23910 23911 23912 23913 23914 23915 23916 23917 23918 23919 23920 23921 23922 23923 23924 23925 23926 23927 23928 23929 23930 23931 23932 23933 23934 23935 23936 23937 23938 23939 23940 23941 23942 23943 23944 23945 23946 23947 23948 23949 23950 23951 23952 23953 23954 23955 23956 23957 23958 23959 23960 23961 23962 23963 23964 23965 23966 23967 23968 23969 23970 23971 23972 23973 23974 23975 23976 23977 23978 23979 23980 23981 23982 23983 23984 23985 23986 23987 23988 23989 23990 23991 23992 23993 23994 23995 23996 23997 23998 23999 24000 24001 24002 24003 24004 24005 24006 24007 24008 24009 24010 24011 24012 24013 24014 24015 24016 24017 24018 24019 24020 24021 24022 24023 24024 24025 24026 24027 24028 24029 24030 24031 24032 24033 24034 24035 24036 24037 24038 24039 24040 24041 24042 24043 24044 24045 24046 24047 24048 24049 24050 24051 24052 24053 24054 24055 24056 24057 24058 24059 24060 24061 24062 24063 24064 24065 24066 24067 24068 24069 24070 24071 24072 24073 24074 24075 24076 24077 24078 24079 24080 24081 24082 24083 24084 24085 24086 24087 24088 24089 24090 24091 24092 24093 24094 24095 24096 24097 24098 24099 24100 24101 24102 24103 24104 24105 24106 24107 24108 24109 24110 24111 24112 24113 24114 24115 24116 24117 24118 24119 24120 24121 24122 24123 24124 24125 24126 24127 24128 24129 24130 24131 24132 24133 24134 24135 24136 24137 24138 24139 24140 24141 24142 24143 24144 24145 24146 24147 24148 24149 24150 24151 24152 24153 24154 24155 24156 24157 24158 24159 24160 24161 24162 24163 24164 24165 24166 24167 24168 24169 24170 24171 24172 24173 24174 24175 24176 24177 24178 24179 24180 24181 24182 24183 24184 24185 24186 24187 24188 24189 24190 24191 24192 24193 24194 24195 24196 24197 24198 24199 24200 24201 24202 24203 24204 24205 24206 24207 24208 24209 24210 24211 24212 24213 24214 24215 24216 24217 24218 24219 24220 24221 24222 24223 24224 24225 24226 24227 24228 24229 24230 24231 24232 24233 24234 24235 24236 24237 24238 24239 24240 24241 24242 24243 24244 24245 24246 24247 24248 24249 24250 24251 24252 24253 24254 24255 24256 24257 24258 24259 24260 24261 24262 24263 24264 24265 24266 24267 24268 24269 24270 24271 24272 24273 24274 24275 24276 24277 24278 24279 24280 24281 24282 24283 24284 24285 24286 24287 24288 24289 24290 24291 24292 24293 24294 24295 24296 24297 24298 24299 24300 24301 24302 24303 24304 24305 24306 24307 24308 24309 24310 24311 24312 24313 24314 24315 24316 24317 24318 24319 24320 24321 24322 24323 24324 24325 24326 24327 24328 24329 24330 24331 24332 24333 24334 24335 24336 24337 24338 24339 24340 24341 24342 24343 24344 24345 24346 24347 24348 24349 24350 24351 24352 24353 24354 24355 24356 24357 24358 24359 24360 24361 24362 24363 24364 24365 24366 24367 24368 24369 24370 24371 24372 24373 24374 24375 24376 24377 24378 24379 24380 24381 24382 24383 24384 24385 24386 24387 24388 24389 24390 24391 24392 24393 24394 24395 24396 24397 24398 24399 24400 24401 24402 24403 24404 24405 24406 24407 24408 24409 24410 24411 24412 24413 24414 24415 24416 24417 24418 24419 24420 24421 24422 24423 24424 24425 24426 24427 24428 24429 24430 24431 24432 24433 24434 24435 24436 24437 24438 24439 24440 24441 24442 24443 24444 24445 24446 24447 24448 24449 24450 24451 24452 24453 24454 24455 24456 24457 24458 24459 24460 24461 24462 24463 24464 24465 24466 24467 24468 24469 24470 24471 24472 24473 24474 24475 24476 24477 24478 24479 24480 24481 24482 24483 24484 24485 24486 24487 24488 24489 24490 24491 24492 24493 24494 24495 24496 24497 24498 24499 24500 24501 24502 24503 24504 24505 24506 24507 24508 24509 24510 24511 24512 24513 24514 24515 24516 24517 24518 24519 24520 24521 24522 24523 24524 24525 24526 24527 24528 24529 24530 24531 24532 24533 24534 24535 24536 24537 24538 24539 24540 24541 24542 24543 24544 24545 24546 24547 24548 24549 24550 24551 24552 24553 24554 24555 24556 24557 24558 24559 24560 24561 24562 24563 24564 24565 24566 24567 24568 24569 24570 24571 24572 24573 24574 24575 24576 24577 24578 24579 24580 24581 24582 24583 24584 24585 24586 24587 24588 24589 24590 24591 24592 24593 24594 24595 24596 24597 24598 24599 24600 24601 24602 24603 24604 24605 24606 24607 24608 24609 24610 24611 24612 24613 24614 24615 24616 24617 24618 24619 24620 24621 24622 24623 24624 24625 24626 24627 24628 24629 24630 24631 24632 24633 24634 24635 24636 24637 24638 24639 24640 24641 24642 24643 24644 24645 24646 24647 24648 24649 24650 24651 24652 24653 24654 24655 24656 24657 24658 24659 24660 24661 24662 24663 24664 24665 24666 24667 24668 24669 24670 24671 24672 24673 24674 24675 24676 24677 24678 24679 24680 24681 24682 24683 24684 24685 24686 24687 24688 24689 24690 24691 24692 24693 24694 24695 24696 24697 24698 24699 24700 24701 24702 24703 24704 24705 24706 24707 24708 24709 24710 24711 24712 24713 24714 24715 24716 24717 24718 24719 24720 24721 24722 24723 24724 24725 24726 24727 24728 24729 24730 24731 24732 24733 24734 24735 24736 24737 24738 24739 24740 24741 24742 24743 24744 24745 24746 24747 24748 24749 24750 24751 24752 24753 24754 24755 24756 24757 24758 24759 24760 24761 24762 24763 24764 24765 24766 24767 24768 24769 24770 24771 24772 24773 24774 24775 24776 24777 24778 24779 24780 24781 24782 24783 24784 24785 24786 24787 24788 24789 24790 24791 24792 24793 24794 24795 24796 24797 24798 24799 24800 24801 24802 24803 24804 24805 24806 24807 24808 24809 24810 24811 24812 24813 24814 24815 24816 24817 24818 24819 24820 24821 24822 24823 24824 24825 24826 24827 24828 24829 24830 24831 24832 24833 24834 24835 24836 24837 24838 24839 24840 24841 24842 24843 24844 24845 24846 24847 24848 24849 24850 24851 24852 24853 24854 24855 24856 24857 24858 24859 24860 24861 24862 24863 24864 24865 24866 24867 24868 24869 24870 24871 24872 24873 24874 24875 24876 24877 24878 24879 24880 24881 24882 24883 24884 24885 24886 24887 24888 24889 24890 24891 24892 24893 24894 24895 24896 24897 24898 24899 24900 24901 24902 24903 24904 24905 24906 24907 24908 24909 24910 24911 24912 24913 24914 24915 24916 24917 24918 24919 24920 24921 24922 24923 24924 24925 24926 24927 24928 24929 24930 24931 24932 24933 24934 24935 24936 24937 24938 24939 24940 24941 24942 24943 24944 24945 24946 24947 24948 24949 24950 24951 24952 24953 24954 24955 24956 24957 24958 24959 24960 24961 24962 24963 24964 24965 24966 24967 24968 24969 24970 24971 24972 24973 24974 24975 24976 24977 24978 24979 24980 24981 24982 24983 24984 24985 24986 24987 24988 24989 24990 24991 24992 24993 24994 24995 24996 24997 24998 24999 25000 25001 25002 25003 25004 25005 25006 25007 25008 25009 25010 25011 25012 25013 25014 25015 25016 25017 25018 25019 25020 25021 25022 25023 25024 25025 25026 25027 25028 25029 25030 25031 25032 25033 25034 25035 25036 25037 25038 25039 25040 25041 25042 25043 25044 25045 25046 25047 25048 25049 25050 25051 25052 25053 25054 25055 25056 25057 25058 25059 25060 25061 25062 25063 25064 25065 25066 25067 25068 25069 25070 25071 25072 25073 25074 25075 25076 25077 25078 25079 25080 25081 25082 25083 25084 25085 25086 25087 25088 25089 25090 25091 25092 25093 25094 25095 25096 25097 25098 25099 25100 25101 25102 25103 25104 25105 25106 25107 25108 25109 25110 25111 25112 25113 25114 25115 25116 25117 25118 25119 25120 25121 25122 25123 25124 25125 25126 25127 25128 25129 25130 25131 25132 25133 25134 25135 25136 25137 25138 25139 25140 25141 25142 25143 25144 25145 25146 25147 25148 25149 25150 25151 25152 25153 25154 25155 25156 25157 25158 25159 25160 25161 25162 25163 25164 25165 25166 25167 25168 25169 25170 25171 25172 25173 25174 25175 25176 25177 25178 25179 25180 25181 25182 25183 25184 25185 25186 25187 25188 25189 25190 25191 25192 25193 25194 25195 25196 25197 25198 25199 25200 25201 25202 25203 25204 25205 25206 25207 25208 25209 25210 25211 25212 25213 25214 25215 25216 25217 25218 25219 25220 25221 25222 25223 25224 25225 25226 25227 25228 25229 25230 25231 25232 25233 25234 25235 25236 25237 25238 25239 25240 25241 25242 25243 25244 25245 25246 25247 25248 25249 25250 25251 25252 25253 25254 25255 25256 25257 25258 25259 25260 25261 25262 25263 25264 25265 25266 25267 25268 25269 25270 25271 25272 25273 25274 25275 25276 25277 25278 25279 25280 25281 25282 25283 25284 25285 25286 25287 25288 25289 25290 25291 25292 25293 25294 25295 25296 25297 25298 25299 25300 25301 25302 25303 25304 25305 25306 25307 25308 25309 25310 25311 25312 25313 25314 25315 25316 25317 25318 25319 25320 25321 25322 25323 25324 25325 25326 25327 25328 25329 25330 25331 25332 25333 25334 25335 25336 25337 25338 25339 25340 25341 25342 25343 25344 25345 25346 25347 25348 25349 25350 25351 25352 25353 25354 25355 25356 25357 25358 25359 25360 25361 25362 25363 25364 25365 25366 25367 25368 25369 25370 25371 25372 25373 25374 25375 25376 25377 25378 25379 25380 25381 25382 25383 25384 25385 25386 25387 25388 25389 25390 25391 25392 25393 25394 25395 25396 25397 25398 25399 25400 25401 25402 25403 25404 25405 25406 25407 25408 25409 25410 25411 25412 25413 25414 25415 25416 25417 25418 25419 25420 25421 25422 25423 25424 25425 25426 25427 25428 25429 25430 25431 25432 25433 25434 25435 25436 25437 25438 25439 25440 25441 25442 25443 25444 25445 25446 25447 25448 25449 25450 25451 25452 25453 25454 25455 25456 25457 25458 25459 25460 25461 25462 25463 25464 25465 25466 25467 25468 25469 25470 25471 25472 25473 25474 25475 25476 25477 25478 25479 25480 25481 25482 25483 25484 25485 25486 25487 25488 25489 25490 25491 25492 25493 25494 25495 25496 25497 25498 25499 25500 25501 25502 25503 25504 25505 25506 25507 25508 25509 25510 25511 25512 25513 25514 25515 25516 25517 25518 25519 25520 25521 25522 25523 25524 25525 25526 25527 25528 25529 25530 25531 25532 25533 25534 25535 25536 25537 25538 25539 25540 25541 25542 25543 25544 25545 25546 25547 25548 25549 25550 25551 25552 25553 25554 25555 25556 25557 25558 25559 25560 25561 25562 25563 25564 25565 25566 25567 25568 25569 25570 25571 25572 25573 25574 25575 25576 25577 25578 25579 25580 25581 25582 25583 25584 25585 25586 25587 25588 25589 25590 25591 25592 25593 25594 25595 25596 25597 25598 25599 25600 25601 25602 25603 25604 25605 25606 25607 25608 25609 25610 25611 25612 25613 25614 25615 25616 25617 25618 25619 25620 25621 25622 25623 25624 25625 25626 25627 25628 25629 25630 25631 25632 25633 25634 25635 25636 25637 25638 25639 25640 25641 25642 25643 25644 25645 25646 25647 25648 25649 25650 25651 25652 25653 25654 25655 25656 25657 25658 25659 25660 25661 25662 25663 25664 25665 25666 25667 25668 25669 25670 25671 25672 25673 25674 25675 25676 25677 25678 25679 25680 25681 25682 25683 25684 25685 25686 25687 25688 25689 25690 25691 25692 25693 25694 25695 25696 25697 25698 25699 25700 25701 25702 25703 25704 25705 25706 25707 25708 25709 25710 25711 25712 25713 25714 25715 25716 25717 25718 25719 25720 25721 25722 25723 25724 25725 25726 25727 25728 25729 25730 25731 25732 25733 25734 25735 25736 25737 25738 25739 25740 25741 25742 25743 25744 25745 25746 25747 25748 25749 25750 25751 25752 25753 25754 25755 25756 25757 25758 25759 25760 25761 25762 25763 25764 25765 25766 25767 25768 25769 25770 25771 25772 25773 25774 25775 25776 25777 25778 25779 25780 25781 25782 25783 25784 25785 25786 25787 25788 25789 25790 25791 25792 25793 25794 25795 25796 25797 25798 25799 25800 25801 25802 25803 25804 25805 25806 25807 25808 25809 25810 25811 25812 25813 25814 25815 25816 25817 25818 25819 25820 25821 25822 25823 25824 25825 25826 25827 25828 25829 25830 25831 25832 25833 25834 25835 25836 25837 25838 25839 25840 25841 25842 25843 25844 25845 25846 25847 25848 25849 25850 25851 25852 25853 25854 25855 25856 25857 25858 25859 25860 25861 25862 25863 25864 25865 25866 25867 25868 25869 25870 25871 25872 25873 25874 25875 25876 25877 25878 25879 25880 25881 25882 25883 25884 25885 25886 25887 25888 25889 25890 25891 25892 25893 25894 25895 25896 25897 25898 25899 25900 25901 25902 25903 25904 25905 25906 25907 25908 25909 25910 25911 25912 25913 25914 25915 25916 25917 25918 25919 25920 25921 25922 25923 25924 25925 25926 25927 25928 25929 25930 25931 25932 25933 25934 25935 25936 25937 25938 25939 25940 25941 25942 25943 25944 25945 25946 25947 25948 25949 25950 25951 25952 25953 25954 25955 25956 25957 25958 25959 25960 25961 25962 25963 25964 25965 25966 25967 25968 25969 25970 25971 25972 25973 25974 25975 25976 25977 25978 25979 25980 25981 25982 25983 25984 25985 25986 25987 25988 25989 25990 25991 25992 25993 25994 25995 25996 25997 25998 25999 26000 26001 26002 26003 26004 26005 26006 26007 26008 26009 26010 26011 26012 26013 26014 26015 26016 26017 26018 26019 26020 26021 26022 26023 26024 26025 26026 26027 26028 26029 26030 26031 26032 26033 26034 26035 26036 26037 26038 26039 26040 26041 26042 26043 26044 26045 26046 26047 26048 26049 26050 26051 26052 26053 26054 26055 26056 26057 26058 26059 26060 26061 26062 26063 26064 26065 26066 26067 26068 26069 26070 26071 26072 26073 26074 26075 26076 26077 26078 26079 26080 26081 26082 26083 26084 26085 26086 26087 26088 26089 26090 26091 26092 26093 26094 26095 26096 26097 26098 26099 26100 26101 26102 26103 26104 26105 26106 26107 26108 26109 26110 26111 26112 26113 26114 26115 26116 26117 26118 26119 26120 26121 26122 26123 26124 26125 26126 26127 26128 26129 26130 26131 26132 26133 26134 26135 26136 26137 26138 26139 26140 26141 26142 26143 26144 26145 26146 26147 26148 26149 26150 26151 26152 26153 26154 26155 26156 26157 26158 26159 26160 26161 26162 26163 26164 26165 26166 26167 26168 26169 26170 26171 26172 26173 26174 26175 26176 26177 26178 26179 26180 26181 26182 26183 26184 26185 26186 26187 26188 26189 26190 26191 26192 26193 26194 26195 26196 26197 26198 26199 26200 26201 26202 26203 26204 26205 26206 26207 26208 26209 26210 26211 26212 26213 26214 26215 26216 26217 26218 26219 26220 26221 26222 26223 26224 26225 26226 26227 26228 26229 26230 26231 26232 26233 26234 26235 26236 26237 26238 26239 26240 26241 26242 26243 26244 26245 26246 26247 26248 26249 26250 26251 26252 26253 26254 26255 26256 26257 26258 26259 26260 26261 26262 26263 26264 26265 26266 26267 26268 26269 26270 26271 26272 26273 26274 26275 26276 26277 26278 26279 26280 26281 26282 26283 26284 26285 26286 26287 26288 26289 26290 26291 26292 26293 26294 26295 26296 26297 26298 26299 26300 26301 26302 26303 26304 26305 26306 26307 26308 26309 26310 26311 26312 26313 26314 26315 26316 26317 26318 26319 26320 26321 26322 26323 26324 26325 26326 26327 26328 26329 26330 26331 26332 26333 26334 26335 26336 26337 26338 26339 26340 26341 26342 26343 26344 26345 26346 26347 26348 26349 26350 26351 26352 26353 26354 26355 26356 26357 26358 26359 26360 26361 26362 26363 26364 26365 26366 26367 26368 26369 26370 26371 26372 26373 26374 26375 26376 26377 26378 26379 26380 26381 26382 26383 26384 26385 26386 26387 26388 26389 26390 26391 26392 26393 26394 26395 26396 26397 26398 26399 26400 26401 26402 26403 26404 26405 26406 26407 26408 26409 26410 26411 26412 26413 26414 26415 26416 26417 26418 26419 26420 26421 26422 26423 26424 26425 26426 26427 26428 26429 26430 26431 26432 26433 26434 26435 26436 26437 26438 26439 26440 26441 26442 26443 26444 26445 26446 26447 26448 26449 26450 26451 26452 26453 26454 26455 26456 26457 26458 26459 26460 26461 26462 26463 26464 26465 26466 26467 26468 26469 26470 26471 26472 26473 26474 26475 26476 26477 26478 26479 26480 26481 26482 26483 26484 26485 26486 26487 26488 26489 26490 26491 26492 26493 26494 26495 26496 26497 26498 26499 26500 26501 26502 26503 26504 26505 26506 26507 26508 26509 26510 26511 26512 26513 26514 26515 26516 26517 26518 26519 26520 26521 26522 26523 26524 26525 26526 26527 26528 26529 26530 26531 26532 26533 26534 26535 26536 26537 26538 26539 26540 26541 26542 26543 26544 26545 26546 26547 26548 26549 26550 26551 26552 26553 26554 26555 26556 26557 26558 26559 26560 26561 26562 26563 26564 26565 26566 26567 26568 26569 26570 26571 26572 26573 26574 26575 26576 26577 26578 26579 26580 26581 26582 26583 26584 26585 26586 26587 26588 26589 26590 26591 26592 26593 26594 26595 26596 26597 26598 26599 26600 26601 26602 26603 26604 26605 26606 26607 26608 26609 26610 26611 26612 26613 26614 26615 26616 26617 26618 26619 26620 26621 26622 26623 26624 26625 26626 26627 26628 26629 26630 26631 26632 26633 26634 26635 26636 26637 26638 26639 26640 26641 26642 26643 26644 26645 26646 26647 26648 26649 26650 26651 26652 26653 26654 26655 26656 26657 26658 26659 26660 26661 26662 26663 26664 26665 26666 26667 26668 26669 26670 26671 26672 26673 26674 26675 26676 26677 26678 26679 26680 26681 26682 26683 26684 26685 26686 26687 26688 26689 26690 26691 26692 26693 26694 26695 26696 26697 26698 26699 26700 26701 26702 26703 26704 26705 26706 26707 26708 26709 26710 26711 26712 26713 26714 26715 26716 26717 26718 26719 26720 26721 26722 26723 26724 26725 26726 26727 26728 26729 26730 26731 26732 26733 26734 26735 26736 26737 26738 26739 26740 26741 26742 26743 26744 26745 26746 26747 26748 26749 26750 26751 26752 26753 26754 26755 26756 26757 26758 26759 26760 26761 26762 26763 26764 26765 26766 26767 26768 26769 26770 26771 26772 26773 26774 26775 26776 26777 26778 26779 26780 26781 26782 26783 26784 26785 26786 26787 26788 26789 26790 26791 26792 26793 26794 26795 26796 26797 26798 26799 26800 26801 26802 26803 26804 26805 26806 26807 26808 26809 26810 26811 26812 26813 26814 26815 26816 26817 26818 26819 26820 26821 26822 26823 26824 26825 26826 26827 26828 26829 26830 26831 26832 26833 26834 26835 26836 26837 26838 26839 26840 26841 26842 26843 26844 26845 26846 26847 26848 26849 26850 26851 26852 26853 26854 26855 26856 26857 26858 26859 26860 26861 26862 26863 26864 26865 26866 26867 26868 26869 26870 26871 26872 26873 26874 26875 26876 26877 26878 26879 26880 26881 26882 26883 26884 26885 26886 26887 26888 26889 26890 26891 26892 26893 26894 26895 26896 26897 26898 26899 26900 26901 26902 26903 26904 26905 26906 26907 26908 26909 26910 26911 26912 26913 26914 26915 26916 26917 26918 26919 26920 26921 26922 26923 26924 26925 26926 26927 26928 26929 26930 26931 26932 26933 26934 26935 26936 26937 26938 26939 26940 26941 26942 26943 26944 26945 26946 26947 26948 26949 26950 26951 26952 26953 26954 26955 26956 26957 26958 26959 26960 26961 26962 26963 26964 26965 26966 26967 26968 26969 26970 26971 26972 26973 26974 26975 26976 26977 26978 26979 26980 26981 26982 26983 26984 26985 26986 26987 26988 26989 26990 26991 26992 26993 26994 26995 26996 26997 26998 26999 27000 27001 27002 27003 27004 27005 27006 27007 27008 27009 27010 27011 27012 27013 27014 27015 27016 27017 27018 27019 27020 27021 27022 27023 27024 27025 27026 27027 27028 27029 27030 27031 27032 27033 27034 27035 27036 27037 27038 27039 27040 27041 27042 27043 27044 27045 27046 27047 27048 27049 27050 27051 27052 27053 27054 27055 27056 27057 27058 27059 27060 27061 27062 27063 27064 27065 27066 27067 27068 27069 27070 27071 27072 27073 27074 27075 27076 27077 27078 27079 27080 27081 27082 27083 27084 27085 27086 27087 27088 27089 27090 27091 27092 27093 27094 27095 27096 27097 27098 27099 27100 27101 27102 27103 27104 27105 27106 27107 27108 27109 27110 27111 27112 27113 27114 27115 27116 27117 27118 27119 27120 27121 27122 27123 27124 27125 27126 27127 27128 27129 27130 27131 27132 27133 27134 27135 27136 27137 27138 27139 27140 27141 27142 27143 27144 27145 27146 27147 27148 27149 27150 27151 27152 27153 27154 27155 27156 27157 27158 27159 27160 27161 27162 27163 27164 27165 27166 27167 27168 27169 27170 27171 27172 27173 27174 27175 27176 27177 27178 27179 27180 27181 27182 27183 27184 27185 27186 27187 27188 27189 27190 27191 27192 27193 27194 27195 27196 27197 27198 27199 27200 27201 27202 27203 27204 27205 27206 27207 27208 27209 27210 27211 27212 27213 27214 27215 27216 27217 27218 27219 27220 27221 27222 27223 27224 27225 27226 27227 27228 27229 27230 27231 27232 27233 27234 27235 27236 27237 27238 27239 27240 27241 27242 27243 27244 27245 27246 27247 27248 27249 27250 27251 27252 27253 27254 27255 27256 27257 27258 27259 27260 27261 27262 27263 27264 27265 27266 27267 27268 27269 27270 27271 27272 27273 27274 27275 27276 27277 27278 27279 27280 27281 27282 27283 27284 27285 27286 27287 27288 27289 27290 27291 27292 27293 27294 27295 27296 27297 27298 27299 27300 27301 27302 27303 27304 27305 27306 27307 27308 27309 27310 27311 27312 27313 27314 27315 27316 27317 27318 27319 27320 27321 27322 27323 27324 27325 27326 27327 27328 27329 27330 27331 27332 27333 27334 27335 27336 27337 27338 27339 27340 27341 27342 27343 27344 27345 27346 27347 27348 27349 27350 27351 27352 27353 27354 27355 27356 27357 27358 27359 27360 27361 27362 27363 27364 27365 27366 27367 27368 27369 27370 27371 27372 27373 27374 27375 27376 27377 27378 27379 27380 27381 27382 27383 27384 27385 27386 27387 27388 27389 27390 27391 27392 27393 27394 27395 27396 27397 27398 27399 27400 27401 27402 27403 27404 27405 27406 27407 27408 27409 27410 27411 27412 27413 27414 27415 27416 27417 27418 27419 27420 27421 27422 27423 27424 27425 27426 27427 27428 27429 27430 27431 27432 27433 27434 27435 27436 27437 27438 27439 27440 27441 27442 27443 27444 27445 27446 27447 27448 27449 27450 27451 27452 27453 27454 27455 27456 27457 27458 27459 27460 27461 27462 27463 27464 27465 27466 27467 27468 27469 27470 27471 27472 27473 27474 27475 27476 27477 27478 27479 27480 27481 27482 27483 27484 27485 27486 27487 27488 27489 27490 27491 27492 27493 27494 27495 27496 27497 27498 27499 27500 27501 27502 27503 27504 27505 27506 27507 27508 27509 27510 27511 27512 27513 27514 27515 27516 27517 27518 27519 27520 27521 27522 27523 27524 27525 27526 27527 27528 27529 27530 27531 27532 27533 27534 27535 27536 27537 27538 27539 27540 27541 27542 27543 27544 27545 27546 27547 27548 27549 27550 27551 27552 27553 27554 27555 27556 27557 27558 27559 27560 27561 27562 27563 27564 27565 27566 27567 27568 27569 27570 27571 27572 27573 27574 27575 27576 27577 27578 27579 27580 27581 27582 27583 27584 27585 27586 27587 27588 27589 27590 27591 27592 27593 27594 27595 27596 27597 27598 27599 27600 27601 27602 27603 27604 27605 27606 27607 27608 27609 27610 27611 27612 27613 27614 27615 27616 27617 27618 27619 27620 27621 27622 27623 27624 27625 27626 27627 27628 27629 27630 27631 27632 27633 27634 27635 27636 27637 27638 27639 27640 27641 27642 27643 27644 27645 27646 27647 27648 27649 27650 27651 27652 27653 27654 27655 27656 27657 27658 27659 27660 27661 27662 27663 27664 27665 27666 27667 27668 27669 27670 27671 27672 27673 27674 27675 27676 27677 27678 27679 27680 27681 27682 27683 27684 27685 27686 27687 27688 27689 27690 27691 27692 27693 27694 27695 27696 27697 27698 27699 27700 27701 27702 27703 27704 27705 27706 27707 27708 27709 27710 27711 27712 27713 27714 27715 27716 27717 27718 27719 27720 27721 27722 27723 27724 27725 27726 27727 27728 27729 27730 27731 27732 27733 27734 27735 27736 27737 27738 27739 27740 27741 27742 27743 27744 27745 27746 27747 27748 27749 27750 27751 27752 27753 27754 27755 27756 27757 27758 27759 27760 27761 27762 27763 27764 27765 27766 27767 27768 27769 27770 27771 27772 27773 27774 27775 27776 27777 27778 27779 27780 27781 27782 27783 27784 27785 27786 27787 27788 27789 27790 27791 27792 27793 27794 27795 27796 27797 27798 27799 27800 27801 27802 27803 27804 27805 27806 27807 27808 27809 27810 27811 27812 27813 27814 27815 27816 27817 27818 27819 27820 27821 27822 27823 27824 27825 27826 27827 27828 27829 27830 27831 27832 27833 27834 27835 27836 27837 27838 27839 27840 27841 27842 27843 27844 27845 27846 27847 27848 27849 27850 27851 27852 27853 27854 27855 27856 27857 27858 27859 27860 27861 27862 27863 27864 27865 27866 27867 27868 27869 27870 27871 27872 27873 27874 27875 27876 27877 27878 27879 27880 27881 27882 27883 27884 27885 27886 27887 27888 27889 27890 27891 27892 27893 27894 27895 27896 27897 27898 27899 27900 27901 27902 27903 27904 27905 27906 27907 27908 27909 27910 27911 27912 27913 27914 27915 27916 27917 27918 27919 27920 27921 27922 27923 27924 27925 27926 27927 27928 27929 27930 27931 27932 27933 27934 27935 27936 27937 27938 27939 27940 27941 27942 27943 27944 27945 27946 27947 27948 27949 27950 27951 27952 27953 27954 27955 27956 27957 27958 27959 27960 27961 27962 27963 27964 27965 27966 27967 27968 27969 27970 27971 27972 27973 27974 27975 27976 27977 27978 27979 27980 27981 27982 27983 27984 27985 27986 27987 27988 27989 27990 27991 27992 27993 27994 27995 27996 27997 27998 27999 28000 28001 28002 28003 28004 28005 28006 28007 28008 28009 28010 28011 28012 28013 28014 28015 28016 28017 28018 28019 28020 28021 28022 28023 28024 28025 28026 28027 28028 28029 28030 28031 28032 28033 28034 28035 28036 28037 28038 28039 28040 28041 28042 28043 28044 28045 28046 28047 28048 28049 28050 28051 28052 28053 28054 28055 28056 28057 28058 28059 28060 28061 28062 28063 28064 28065 28066 28067 28068 28069 28070 28071 28072 28073 28074 28075 28076 28077 28078 28079 28080 28081 28082 28083 28084 28085 28086 28087 28088 28089 28090 28091 28092 28093 28094 28095 28096 28097 28098 28099 28100 28101 28102 28103 28104 28105 28106 28107 28108 28109 28110 28111 28112 28113 28114 28115 28116 28117 28118 28119 28120 28121 28122 28123 28124 28125 28126 28127 28128 28129 28130 28131 28132 28133 28134 28135 28136 28137 28138 28139 28140 28141 28142 28143 28144 28145 28146 28147 28148 28149 28150 28151 28152 28153 28154 28155 28156 28157 28158 28159 28160 28161 28162 28163 28164 28165 28166 28167 28168 28169 28170 28171 28172 28173 28174 28175 28176 28177 28178 28179 28180 28181 28182 28183 28184 28185 28186 28187 28188 28189 28190 28191 28192 28193 28194 28195 28196 28197 28198 28199 28200 28201 28202 28203 28204 28205 28206 28207 28208 28209 28210 28211 28212 28213 28214 28215 28216 28217 28218 28219 28220 28221 28222 28223 28224 28225 28226 28227 28228 28229 28230 28231 28232 28233 28234 28235 28236 28237 28238 28239 28240 28241 28242 28243 28244 28245 28246 28247 28248 28249 28250 28251 28252 28253 28254 28255 28256 28257 28258 28259 28260 28261 28262 28263 28264 28265 28266 28267 28268 28269 28270 28271 28272 28273 28274 28275 28276 28277 28278 28279 28280 28281 28282 28283 28284 28285 28286 28287 28288 28289 28290 28291 28292 28293 28294 28295 28296 28297 28298 28299 28300 28301 28302 28303 28304 28305 28306 28307 28308 28309 28310 28311 28312 28313 28314 28315 28316 28317 28318 28319 28320 28321 28322 28323 28324 28325 28326 28327 28328 28329 28330 28331 28332 28333 28334 28335 28336 28337 28338 28339 28340 28341 28342 28343 28344 28345 28346 28347 28348 28349 28350 28351 28352 28353 28354 28355 28356 28357 28358 28359 28360 28361 28362 28363 28364 28365 28366 28367 28368 28369 28370 28371 28372 28373 28374 28375 28376 28377 28378 28379 28380 28381 28382 28383 28384 28385 28386 28387 28388 28389 28390 28391 28392 28393 28394 28395 28396 28397 28398 28399 28400 28401 28402 28403 28404 28405 28406 28407 28408 28409 28410 28411 28412 28413 28414 28415 28416 28417 28418 28419 28420 28421 28422 28423 28424 28425 28426 28427 28428 28429 28430 28431 28432 28433 28434 28435 28436 28437 28438 28439 28440 28441 28442 28443 28444 28445 28446 28447 28448 28449 28450 28451 28452 28453 28454 28455 28456 28457 28458 28459 28460 28461 28462 28463 28464 28465 28466 28467 28468 28469 28470 28471 28472 28473 28474 28475 28476 28477 28478 28479 28480 28481 28482 28483 28484 28485 28486 28487 28488 28489 28490 28491 28492 28493 28494 28495 28496 28497 28498 28499 28500 28501 28502 28503 28504 28505 28506 28507 28508 28509 28510 28511 28512 28513 28514 28515 28516 28517 28518 28519 28520 28521 28522 28523 28524 28525 28526 28527 28528 28529 28530 28531 28532 28533 28534 28535 28536 28537 28538 28539 28540 28541 28542 28543 28544 28545 28546 28547 28548 28549 28550 28551 28552 28553 28554 28555 28556 28557 28558 28559 28560 28561 28562 28563 28564 28565 28566 28567 28568 28569 28570 28571 28572 28573 28574 28575 28576 28577 28578 28579 28580 28581 28582 28583 28584 28585 28586 28587 28588 28589 28590 28591 28592 28593 28594 28595 28596 28597 28598 28599 28600 28601 28602 28603 28604 28605 28606 28607 28608 28609 28610 28611 28612 28613 28614 28615 28616 28617 28618 28619 28620 28621 28622 28623 28624 28625 28626 28627 28628 28629 28630 28631 28632 28633 28634 28635 28636 28637 28638 28639 28640 28641 28642 28643 28644 28645 28646 28647 28648 28649 28650 28651 28652 28653 28654 28655 28656 28657 28658 28659 28660 28661 28662 28663 28664 28665 28666 28667 28668 28669 28670 28671 28672 28673 28674 28675 28676 28677 28678 28679 28680 28681 28682 28683 28684 28685 28686 28687 28688 28689 28690 28691 28692 28693 28694 28695 28696 28697 28698 28699 28700 28701 28702 28703 28704 28705 28706 28707 28708 28709 28710 28711 28712 28713 28714 28715 28716 28717 28718 28719 28720 28721 28722 28723 28724 28725 28726 28727 28728 28729 28730 28731 28732 28733 28734 28735 28736 28737 28738 28739 28740 28741 28742 28743 28744 28745 28746 28747 28748 28749 28750 28751 28752 28753 28754 28755 28756 28757 28758 28759 28760 28761 28762 28763 28764 28765 28766 28767 28768 28769 28770 28771 28772 28773 28774 28775 28776 28777 28778 28779 28780 28781 28782 28783 28784 28785 28786 28787 28788 28789 28790 28791 28792 28793 28794 28795 28796 28797 28798 28799 28800 28801 28802 28803 28804 28805 28806 28807 28808 28809 28810 28811 28812 28813 28814 28815 28816 28817 28818 28819 28820 28821 28822 28823 28824 28825 28826 28827 28828 28829 28830 28831 28832 28833 28834 28835 28836 28837 28838 28839 28840 28841 28842 28843 28844 28845 28846 28847 28848 28849 28850 28851 28852 28853 28854 28855 28856 28857 28858 28859 28860 28861 28862 28863 28864 28865 28866 28867 28868 28869 28870 28871 28872 28873 28874 28875 28876 28877 28878 28879 28880 28881 28882 28883 28884 28885 28886 28887 28888 28889 28890 28891 28892 28893 28894 28895 28896 28897 28898 28899 28900 28901 28902 28903 28904 28905 28906 28907 28908 28909 28910 28911 28912 28913 28914 28915 28916 28917 28918 28919 28920 28921 28922 28923 28924 28925 28926 28927 28928 28929 28930 28931 28932 28933 28934 28935 28936 28937 28938 28939 28940 28941 28942 28943 28944 28945 28946 28947 28948 28949 28950 28951 28952 28953 28954 28955 28956 28957 28958 28959 28960 28961 28962 28963 28964 28965 28966 28967 28968 28969 28970 28971 28972 28973 28974 28975 28976 28977 28978 28979 28980 28981 28982 28983 28984 28985 28986 28987 28988 28989 28990 28991 28992 28993 28994 28995 28996 28997 28998 28999 29000 29001 29002 29003 29004 29005 29006 29007 29008 29009 29010 29011 29012 29013 29014 29015 29016 29017 29018 29019 29020 29021 29022 29023 29024 29025 29026 29027 29028 29029 29030 29031 29032 29033 29034 29035 29036 29037 29038 29039 29040 29041 29042 29043 29044 29045 29046 29047 29048 29049 29050 29051 29052 29053 29054 29055 29056 29057 29058 29059 29060 29061 29062 29063 29064 29065 29066 29067 29068 29069 29070 29071 29072 29073 29074 29075 29076 29077 29078 29079 29080 29081 29082 29083 29084 29085 29086 29087 29088 29089 29090 29091 29092 29093 29094 29095 29096 29097 29098 29099 29100 29101 29102 29103 29104 29105 29106 29107 29108 29109 29110 29111 29112 29113 29114 29115 29116 29117 29118 29119 29120 29121 29122 29123 29124 29125 29126 29127 29128 29129 29130 29131 29132 29133 29134 29135 29136 29137 29138 29139 29140 29141 29142 29143 29144 29145 29146 29147 29148 29149 29150 29151 29152 29153 29154 29155 29156 29157 29158 29159 29160 29161 29162 29163 29164 29165 29166 29167 29168 29169 29170 29171 29172 29173 29174 29175 29176 29177 29178 29179 29180 29181 29182 29183 29184 29185 29186 29187 29188 29189 29190 29191 29192 29193 29194 29195 29196 29197 29198 29199 29200 29201 29202 29203 29204 29205 29206 29207 29208 29209 29210 29211 29212 29213 29214 29215 29216 29217 29218 29219 29220 29221 29222 29223 29224 29225 29226 29227 29228 29229 29230 29231 29232 29233 29234 29235 29236 29237 29238 29239 29240 29241 29242 29243 29244 29245 29246 29247 29248 29249 29250 29251 29252 29253 29254 29255 29256 29257 29258 29259 29260 29261 29262 29263 29264 29265 29266 29267 29268 29269 29270 29271 29272 29273 29274 29275 29276 29277 29278 29279 29280 29281 29282 29283 29284 29285 29286 29287 29288 29289 29290 29291 29292 29293 29294 29295 29296 29297 29298 29299 29300 29301 29302 29303 29304 29305 29306 29307 29308 29309 29310 29311 29312 29313 29314 29315 29316 29317 29318 29319 29320 29321 29322 29323 29324 29325 29326 29327 29328 29329 29330 29331 29332 29333 29334 29335 29336 29337 29338 29339 29340 29341 29342 29343 29344 29345 29346 29347 29348 29349 29350 29351 29352 29353 29354 29355 29356 29357 29358 29359 29360 29361 29362 29363 29364 29365 29366 29367 29368 29369 29370 29371 29372 29373 29374 29375 29376 29377 29378 29379 29380 29381 29382 29383 29384 29385 29386 29387 29388 29389 29390 29391 29392 29393 29394 29395 29396 29397 29398 29399 29400 29401 29402 29403 29404 29405 29406 29407 29408 29409 29410 29411 29412 29413 29414 29415 29416 29417 29418 29419 29420 29421 29422 29423 29424 29425 29426 29427 29428 29429 29430 29431 29432 29433 29434 29435 29436 29437 29438 29439 29440 29441 29442 29443 29444 29445 29446 29447 29448 29449 29450 29451 29452 29453 29454 29455 29456 29457 29458 29459 29460 29461 29462 29463 29464 29465 29466 29467 29468 29469 29470 29471 29472 29473 29474 29475 29476 29477 29478 29479 29480 29481 29482 29483 29484 29485 29486 29487 29488 29489 29490 29491 29492 29493 29494 29495 29496 29497 29498 29499 29500 29501 29502 29503 29504 29505 29506 29507 29508 29509 29510 29511 29512 29513 29514 29515 29516 29517 29518 29519 29520 29521 29522 29523 29524 29525 29526 29527 29528 29529 29530 29531 29532 29533 29534 29535 29536 29537 29538 29539 29540 29541 29542 29543 29544 29545 29546 29547 29548 29549 29550 29551 29552 29553 29554 29555 29556 29557 29558 29559 29560 29561 29562 29563 29564 29565 29566 29567 29568 29569 29570 29571 29572 29573 29574 29575 29576 29577 29578 29579 29580 29581 29582 29583 29584 29585 29586 29587 29588 29589 29590 29591 29592 29593 29594 29595 29596 29597 29598 29599 29600 29601 29602 29603 29604 29605 29606 29607 29608 29609 29610 29611 29612 29613 29614 29615 29616 29617 29618 29619 29620 29621 29622 29623 29624 29625 29626 29627 29628 29629 29630 29631 29632 29633 29634 29635 29636 29637 29638 29639 29640 29641 29642 29643 29644 29645 29646 29647 29648 29649 29650 29651 29652 29653 29654 29655 29656 29657 29658 29659 29660 29661 29662 29663 29664 29665 29666 29667 29668 29669 29670 29671 29672 29673 29674 29675 29676 29677 29678 29679 29680 29681 29682 29683 29684 29685 29686 29687 29688 29689 29690 29691 29692 29693 29694 29695 29696 29697 29698 29699 29700 29701 29702 29703 29704 29705 29706 29707 29708 29709 29710 29711 29712 29713 29714 29715 29716 29717 29718 29719 29720 29721 29722 29723 29724 29725 29726 29727 29728 29729 29730 29731 29732 29733 29734 29735 29736 29737 29738 29739 29740 29741 29742 29743 29744 29745 29746 29747 29748 29749 29750 29751 29752 29753 29754 29755 29756 29757 29758 29759 29760 29761 29762 29763 29764 29765 29766 29767 29768 29769 29770 29771 29772 29773 29774 29775 29776 29777 29778 29779 29780 29781 29782 29783 29784 29785 29786 29787 29788 29789 29790 29791 29792 29793 29794 29795 29796 29797 29798 29799 29800 29801 29802 29803 29804 29805 29806 29807 29808 29809 29810 29811 29812 29813 29814 29815 29816 29817 29818 29819 29820 29821 29822 29823 29824 29825 29826 29827 29828 29829 29830 29831 29832 29833 29834 29835 29836 29837 29838 29839 29840 29841 29842 29843 29844 29845 29846 29847 29848 29849 29850 29851 29852 29853 29854 29855 29856 29857 29858 29859 29860 29861 29862 29863 29864 29865 29866 29867 29868 29869 29870 29871 29872 29873 29874 29875 29876 29877 29878 29879 29880 29881 29882 29883 29884 29885 29886 29887 29888 29889 29890 29891 29892 29893 29894 29895 29896 29897 29898 29899 29900 29901 29902 29903 29904 29905 29906 29907 29908 29909 29910 29911 29912 29913 29914 29915 29916 29917 29918 29919 29920 29921 29922 29923 29924 29925 29926 29927 29928 29929 29930 29931 29932 29933 29934 29935 29936 29937 29938 29939 29940 29941 29942 29943 29944 29945 29946 29947 29948 29949 29950 29951 29952 29953 29954 29955 29956 29957 29958 29959 29960 29961 29962 29963 29964 29965 29966 29967 29968 29969 29970 29971 29972 29973 29974 29975 29976 29977 29978 29979 29980 29981 29982 29983 29984 29985 29986 29987 29988 29989 29990 29991 29992 29993 29994 29995 29996 29997 29998 29999 30000 30001 30002 30003 30004 30005 30006 30007 30008 30009 30010 30011 30012 30013 30014 30015 30016 30017 30018 30019 30020 30021 30022 30023 30024 30025 30026 30027 30028 30029 30030 30031 30032 30033 30034 30035 30036 30037 30038 30039 30040 30041 30042 30043 30044 30045 30046 30047 30048 30049 30050 30051 30052 30053 30054 30055 30056 30057 30058 30059 30060 30061 30062 30063 30064 30065 30066 30067 30068 30069 30070 30071 30072 30073 30074 30075 30076 30077 30078 30079 30080 30081 30082 30083 30084 30085 30086 30087 30088 30089 30090 30091 30092 30093 30094 30095 30096 30097 30098 30099 30100 30101 30102 30103 30104 30105 30106 30107 30108 30109 30110 30111 30112 30113 30114 30115 30116 30117 30118 30119 30120 30121 30122 30123 30124 30125 30126 30127 30128 30129 30130 30131 30132 30133 30134 30135 30136 30137 30138 30139 30140 30141 30142 30143 30144 30145 30146 30147 30148 30149 30150 30151 30152 30153 30154 30155 30156 30157 30158 30159 30160 30161 30162 30163 30164 30165 30166 30167 30168 30169 30170 30171 30172 30173 30174 30175 30176 30177 30178 30179 30180 30181 30182 30183 30184 30185 30186 30187 30188 30189 30190 30191 30192 30193 30194 30195 30196 30197 30198 30199 30200 30201 30202 30203 30204 30205 30206 30207 30208 30209 30210 30211 30212 30213 30214 30215 30216 30217 30218 30219 30220 30221 30222 30223 30224 30225 30226 30227 30228 30229 30230 30231 30232 30233 30234 30235 30236 30237 30238 30239 30240 30241 30242 30243 30244 30245 30246 30247 30248 30249 30250 30251 30252 30253 30254 30255 30256 30257 30258 30259 30260 30261 30262 30263 30264 30265 30266 30267 30268 30269 30270 30271 30272 30273 30274 30275 30276 30277 30278 30279 30280 30281 30282 30283 30284 30285 30286 30287 30288 30289 30290 30291 30292 30293 30294 30295 30296 30297 30298 30299 30300 30301 30302 30303 30304 30305 30306 30307 30308 30309 30310 30311 30312 30313 30314 30315 30316 30317 30318 30319 30320 30321 30322 30323 30324 30325 30326 30327 30328 30329 30330 30331 30332 30333 30334 30335 30336 30337 30338 30339 30340 30341 30342 30343 30344 30345 30346 30347 30348 30349 30350 30351 30352 30353 30354 30355 30356 30357 30358 30359 30360 30361 30362 30363 30364 30365 30366 30367 30368 30369 30370 30371 30372 30373 30374 30375 30376 30377 30378 30379 30380 30381 30382 30383 30384 30385 30386 30387 30388 30389 30390 30391 30392 30393 30394 30395 30396 30397 30398 30399 30400 30401 30402 30403 30404 30405 30406 30407 30408 30409 30410 30411 30412 30413 30414 30415 30416 30417 30418 30419 30420 30421 30422 30423 30424 30425 30426 30427 30428 30429 30430 30431 30432 30433 30434 30435 30436 30437 30438 30439 30440 30441 30442 30443 30444 30445 30446 30447 30448 30449 30450 30451 30452 30453 30454 30455 30456 30457 30458 30459 30460 30461 30462 30463 30464 30465 30466 30467 30468 30469 30470 30471 30472 30473 30474 30475 30476 30477 30478 30479 30480 30481 30482 30483 30484 30485 30486 30487 30488 30489 30490 30491 30492 30493 30494 30495 30496 30497 30498 30499 30500 30501 30502 30503 30504 30505 30506 30507 30508 30509 30510 30511 30512 30513 30514 30515 30516 30517 30518 30519 30520 30521 30522 30523 30524 30525 30526 30527 30528 30529 30530 30531 30532 30533 30534 30535 30536 30537 30538 30539 30540 30541 30542 30543 30544 30545 30546 30547 30548 30549 30550 30551 30552 30553 30554 30555 30556 30557 30558 30559 30560 30561 30562 30563 30564 30565 30566 30567 30568 30569 30570 30571 30572 30573 30574 30575 30576 30577 30578 30579 30580 30581 30582 30583 30584 30585 30586 30587 30588 30589 30590 30591 30592 30593 30594 30595 30596 30597 30598 30599 30600 30601 30602 30603 30604 30605 30606 30607 30608 30609 30610 30611 30612 30613 30614 30615 30616 30617 30618 30619 30620 30621 30622 30623 30624 30625 30626 30627 30628 30629 30630 30631 30632 30633 30634 30635 30636 30637 30638 30639 30640 30641 30642 30643 30644 30645 30646 30647 30648 30649 30650 30651 30652 30653 30654 30655 30656 30657 30658 30659 30660 30661 30662 30663 30664 30665 30666 30667 30668 30669 30670 30671 30672 30673 30674 30675 30676 30677 30678 30679 30680 30681 30682 30683 30684 30685 30686 30687 30688 30689 30690 30691 30692 30693 30694 30695 30696 30697 30698 30699 30700 30701 30702 30703 30704 30705 30706 30707 30708 30709 30710 30711 30712 30713 30714 30715 30716 30717 30718 30719 30720 30721 30722 30723 30724 30725 30726 30727 30728 30729 30730 30731 30732 30733 30734 30735 30736 30737 30738 30739 30740 30741 30742 30743 30744 30745 30746 30747 30748 30749 30750 30751 30752 30753 30754 30755 30756 30757 30758 30759 30760 30761 30762 30763 30764 30765 30766 30767 30768 30769 30770 30771 30772 30773 30774 30775 30776 30777 30778 30779 30780 30781 30782 30783 30784 30785 30786 30787 30788 30789 30790 30791 30792 30793 30794 30795 30796 30797 30798 30799 30800 30801 30802 30803 30804 30805 30806 30807 30808 30809 30810 30811 30812 30813 30814 30815 30816 30817 30818 30819 30820 30821 30822 30823 30824 30825 30826 30827 30828 30829 30830 30831 30832 30833 30834 30835 30836 30837 30838 30839 30840 30841 30842 30843 30844 30845 30846 30847 30848 30849 30850 30851 30852 30853 30854 30855 30856 30857 30858 30859 30860 30861 30862 30863 30864 30865 30866 30867 30868 30869 30870 30871 30872 30873 30874 30875 30876 30877 30878 30879 30880 30881 30882 30883 30884 30885 30886 30887 30888 30889 30890 30891 30892 30893 30894 30895 30896 30897 30898 30899 30900 30901 30902 30903 30904 30905 30906 30907 30908 30909 30910 30911 30912 30913 30914 30915 30916 30917 30918 30919 30920 30921 30922 30923 30924 30925 30926 30927 30928 30929 30930 30931 30932 30933 30934 30935 30936 30937 30938 30939 30940 30941 30942 30943 30944 30945 30946 30947 30948 30949 30950 30951 30952 30953 30954 30955 30956 30957 30958 30959 30960 30961 30962 30963 30964 30965 30966 30967 30968 30969 30970 30971 30972 30973 30974 30975 30976 30977 30978 30979 30980 30981 30982 30983 30984 30985 30986 30987 30988 30989 30990 30991 30992 30993 30994 30995 30996 30997 30998 30999 31000 31001 31002 31003 31004 31005 31006 31007 31008 31009 31010 31011 31012 31013 31014 31015 31016 31017 31018 31019 31020 31021 31022 31023 31024 31025 31026 31027 31028 31029 31030 31031 31032 31033 31034 31035 31036 31037 31038 31039 31040 31041 31042 31043 31044 31045 31046 31047 31048 31049 31050 31051 31052 31053 31054 31055 31056 31057 31058 31059 31060 31061 31062 31063 31064 31065 31066 31067 31068 31069 31070 31071 31072 31073 31074 31075 31076 31077 31078 31079 31080 31081 31082 31083 31084 31085 31086 31087 31088 31089 31090 31091 31092 31093 31094 31095 31096 31097 31098 31099 31100 31101 31102 31103 31104 31105 31106 31107 31108 31109 31110 31111 31112 31113 31114 31115 31116 31117 31118 31119 31120 31121 31122 31123 31124 31125 31126 31127 31128 31129 31130 31131 31132 31133 31134 31135 31136 31137 31138 31139 31140 31141 31142 31143 31144 31145 31146 31147 31148 31149 31150 31151 31152 31153 31154 31155 31156 31157 31158 31159 31160 31161 31162 31163 31164 31165 31166 31167 31168 31169 31170 31171 31172 31173 31174 31175 31176 31177 31178 31179 31180 31181 31182 31183 31184 31185 31186 31187 31188 31189 31190 31191 31192 31193 31194 31195 31196 31197 31198 31199 31200 31201 31202 31203 31204 31205 31206 31207 31208 31209 31210 31211 31212 31213 31214 31215 31216 31217 31218 31219 31220 31221 31222 31223 31224 31225 31226 31227 31228 31229 31230 31231 31232 31233 31234 31235 31236 31237 31238 31239 31240 31241 31242 31243 31244 31245 31246 31247 31248 31249 31250 31251 31252 31253 31254 31255 31256 31257 31258 31259 31260 31261 31262 31263 31264 31265 31266 31267 31268 31269 31270 31271 31272 31273 31274 31275 31276 31277 31278 31279 31280 31281 31282 31283 31284 31285 31286 31287 31288 31289 31290 31291 31292 31293 31294 31295 31296 31297 31298 31299 31300 31301 31302 31303 31304 31305 31306 31307 31308 31309 31310 31311 31312 31313 31314 31315 31316 31317 31318 31319 31320 31321 31322 31323 31324 31325 31326 31327 31328 31329 31330 31331 31332 31333 31334 31335 31336 31337 31338 31339 31340 31341 31342 31343 31344 31345 31346 31347 31348 31349 31350 31351 31352 31353 31354 31355 31356 31357 31358 31359 31360 31361 31362 31363 31364 31365 31366 31367 31368 31369 31370 31371 31372 31373 31374 31375 31376 31377 31378 31379 31380 31381 31382 31383 31384 31385 31386 31387 31388 31389 31390 31391 31392 31393 31394 31395 31396 31397 31398 31399 31400 31401 31402 31403 31404 31405 31406 31407 31408 31409 31410 31411 31412 31413 31414 31415 31416 31417 31418 31419 31420 31421 31422 31423 31424 31425 31426 31427 31428 31429 31430 31431 31432 31433 31434 31435 31436 31437 31438 31439 31440 31441 31442 31443 31444 31445 31446 31447 31448 31449 31450 31451 31452 31453 31454 31455 31456 31457 31458 31459 31460 31461 31462 31463 31464 31465 31466 31467 31468 31469 31470 31471 31472 31473 31474 31475 31476 31477 31478 31479 31480 31481 31482 31483 31484 31485 31486 31487 31488 31489 31490 31491 31492 31493 31494 31495 31496 31497 31498 31499 31500 31501 31502 31503 31504 31505 31506 31507 31508 31509 31510 31511 31512 31513 31514 31515 31516 31517 31518 31519 31520 31521 31522 31523 31524 31525 31526 31527 31528 31529 31530 31531 31532 31533 31534 31535 31536 31537 31538 31539 31540 31541 31542 31543 31544 31545 31546 31547 31548 31549 31550 31551 31552 31553 31554 31555 31556 31557 31558 31559 31560 31561 31562 31563 31564 31565 31566 31567 31568 31569 31570 31571 31572 31573 31574 31575 31576 31577 31578 31579 31580 31581 31582 31583 31584 31585 31586 31587 31588 31589 31590 31591 31592 31593 31594 31595 31596 31597 31598 31599 31600 31601 31602 31603 31604 31605 31606 31607 31608 31609 31610 31611 31612 31613 31614 31615 31616 31617 31618 31619 31620 31621 31622 31623 31624 31625 31626 31627 31628 31629 31630 31631 31632 31633 31634 31635 31636 31637 31638 31639 31640 31641 31642 31643 31644 31645 31646 31647 31648 31649 31650 31651 31652 31653 31654 31655 31656 31657 31658 31659 31660 31661 31662 31663 31664 31665 31666 31667 31668 31669 31670 31671 31672 31673 31674 31675 31676 31677 31678 31679 31680 31681 31682 31683 31684 31685 31686 31687 31688 31689 31690 31691 31692 31693 31694 31695 31696 31697 31698 31699 31700 31701 31702 31703 31704 31705 31706 31707 31708 31709 31710 31711 31712 31713 31714 31715 31716 31717 31718 31719 31720 31721 31722 31723 31724 31725 31726 31727 31728 31729 31730 31731 31732 31733 31734 31735 31736 31737 31738 31739 31740 31741 31742 31743 31744 31745 31746 31747 31748 31749 31750 31751 31752 31753 31754 31755 31756 31757 31758 31759 31760 31761 31762 31763 31764 31765 31766 31767 31768 31769 31770 31771 31772 31773 31774 31775 31776 31777 31778 31779 31780 31781 31782 31783 31784 31785 31786 31787 31788 31789 31790 31791 31792 31793 31794 31795 31796 31797 31798 31799 31800 31801 31802 31803 31804 31805 31806 31807 31808 31809 31810 31811 31812 31813 31814 31815 31816 31817 31818 31819 31820 31821 31822 31823 31824 31825 31826 31827 31828 31829 31830 31831 31832 31833 31834 31835 31836 31837 31838 31839 31840 31841 31842 31843 31844 31845 31846 31847 31848 31849 31850 31851 31852 31853 31854 31855 31856 31857 31858 31859 31860 31861 31862 31863 31864 31865 31866 31867 31868 31869 31870 31871 31872 31873 31874 31875 31876 31877 31878 31879 31880 31881 31882 31883 31884 31885 31886 31887 31888 31889 31890 31891 31892 31893 31894 31895 31896 31897 
</DataArray>
<DataArray type="UInt32" Name="offsets" format="ascii">
3 6 9 12 15 17 20 23 26 29 32 35 38 40 43 46 49 52 54 57 60 62 65 68 71 74 76 79 82 85 88 90 93 96 99 102 105 108 111 114 117 120 123 126 129 131 134 137 139 142 145 148 151 154 156 159 162 165 168 171 174 177 179 182 185 188 191 193 196 199 202 205 208 211 214 217 220 222 225 228 230 233 236 238 241 244 247 250 252 255 258 261 264 267 270 273 275 277 279 282 285 287 290 293 296 299 302 304 307 310 313 316 319 322 325 328 331 334 337 340 343 345 348 351 354 356 359 362 365 368 371 374 376 379 382 385 388 391 394 397 400 403 406 409 412 415 418 421 424 427 430 433 436 439 442 445 448 451 453 456 459 462 464 467 470 472 475 478 481 484 487 490 493 496 499 502 505 507 510 513 516 519 522 525 528 531 533 536 539 542 545 548 551 554 557 559 562 565 568 571 574 577 580 583 586 588 591 594 597 600 603 606 609 612 615 618 621 624 627 630 633 636 639 642 645 648 651 654 657 659 662 665 668 670 673 675 678 680 683 686 688 691 694 697 699 702 704 707 709 712 714 716 719 721 724 727 729 732 734 737 740 743 745 748 750 752 755 758 760 763 766 769 771 774 776 778 780 783 785 788 791 794 796 799 801 803 805 808 811 813 815 818 821 824 827 829 832 834 837 840 842 845 848 851 853 856 858 860 862 865 868 871 873 876 878 880 882 884 887 890 893 895 897 900 903 905 907 909 912 914 917 920 923 926 928 931 934 937 940 943 946 949 951 954 957 960 963 966 969 971 973 976 979 982 984 987 990 993 995 998 1000 1003 1005 1007 1010 1013 1016 1019 1021 1024 1027 1029 1032 1035 1038 1041 1043 1046 1048 1051 1054 1057 1060 1063 1065 1067 1070 1073 1076 1079 1082 1085 1088 1091 1093 1096 1099 1102 1104 1107 1110 1112 1115 1117 1120 1123 1126 1129 1132 1135 1138 1141 1144 1147 1150 1152 1155 1157 1160 1162 1165 1168 1171 1173 1176 1178 1181 1183 1186 1189 1192 1195 1198 1201 1203 1206 1208 1211 1214 1217 1219 1222 1225 1228 1230 1233 1235 1237 1240 1243 1246 1249 1251 1254 1257 1260 1263 1265 1267 1270 1273 1275 1278 1280 1283 1285 1287 1290 1293 1296 1298 1301 1304 1307 1310 1312 1315 1318 1321 1324 1327 1330 1333 1336 1339 1342 1345 1347 1350 1353 1356 1359 1361 1364 1367 1370 1372 1375 1377 1379 1381 1384 1387 1390 1392 1394 1397 1399 1402 1405 1407 1410 1413 1416 1419 1421 1424 1427 1430 1433 1436 1439 1442 1445 1448 1451 1454 1456 1458 1461 1464 1466 1469 1472 1475 1477 1480 1483 1486 1489 1492 1495 1497 1500 1503 1506 1508 1511 1514 1517 1519 1522 1525 1528 1531 1534 1537 1540 1543 1546 1549 1552 1554 1557 1560 1563 1565 1568 1571 1574 1577 1580 1583 1586 1588 1591 1594 1597 1600 1603 1605 1608 1611 1614 1617 1620 1623 1626 1629 1632 1635 1638 1641 1644 1647 1650 1653 1656 1659 1662 1664 1667 1670 1673 1676 1678 1681 1684 1686 1689 1692 1695 1698 1701 1704 1707 1709 1712 1715 1718 1721 1724 1727 1730 1733 1735 1738 1740 1743 1746 1748 1751 1754 1757 1759 1762 1765 1767 1770 1773 1776 1778 1781 1783 1786 1789 1791 1794 1796 1799 1802 1805 1808 1811 1814 1817 1820 1823 1826 1829 1832 1835 1838 1841 1844 1847 1850 1853 1856 1859 1862 1864 1867 1869 1872 1874 1877 1880 1883 1886 1889 1892 1895 1898 1901 1904 1907 1910 1913 1916 1919 1921 1924 1927 1930 1933 1936 1939 1942 1945 1948 1950 1953 1956 1959 1962 1965 1968 1971 1974 1977 1980 1983 1986 1989 1992 1995 1998 2001 2004 2007 2010 2013 2016 2019 2022 2025 2028 2031 2034 2037 2039 2042 2045 2047 2050 2053 2056 2058 2060 2063 2065 2068 2071 2074 2077 2080 2082 2085 2088 2091 2094 2097 2099 2102 2105 2108 2111 2114 2117 2120 2123 2126 2129 2132 2135 2138 2141 2144 2147 2150 2153 2156 2159 2162 2165 2168 2171 2174 2177 2180 2183 2186 2189 2192 2195 2198 2201 2204 2207 2210 2213 2216 2219 2222 2225 2228 2231 2234 2237 2240 2243 2246 2248 2251 2254 2257 2260 2263 2266 2269 2272 2275 2278 2281 2284 2287 2290 2293 2295 2298 2301 2304 2307 2309 2312 2315 2318 2321 2324 2327 2330 2333 2336 2339 2342 2345 2348 2351 2354 2357 2360 2363 2366 2369 2372 2375 2378 2381 2384 2387 2390 2392 2395 2398 2400 2403 2405 2407 2409 2411 2414 2417 2419 2422 2425 2428 2431 2434 2437 2440 2443 2446 2449 2452 2455 2458 2461 2464 2467 2470 2472 2475 2478 2480 2483 2485 2488 2491 2494 2497 2499 2502 2504 2507 2510 2513 2516 2518 2521 2524 2527 2529 2532 2535 2538 2541 2544 2546 2549 2551 2554 2557 2559 2561 2564 2566 2569 2572 2575 2578 2581 2584 2587 2590 2593 2596 2599 2601 2604 2607 2610 2612 2615 2618 2621 2623 2626 2629 2631 2633 2635 2638 2641 2644 2647 2650 2653 2656 2659 2662 2665 2668 2670 2673 2676 2679 2682 2685 2688 2691 2694 2696 2698 2700 2703 2706 2709 2712 2715 2718 2721 2724 2726 2728 2731 2734 2737 2739 2742 2745 2747 2750 2753 2756 2759 2762 2765 2768 2771 2774 2777 2780 2782 2785 2788 2791 2794 2797 2800 2803 2806 2808 2811 2814 2817 2820 2823 2826 2829 2832 2835 2838 2840 2843 2845 2847 2849 2852 2855 2858 2861 2864 2867 2870 2872 2874 2877 2879 2882 2885 2888 2891 2894 2896 2899 2901 2903 2906 2909 2912 2914 2917 2919 2922 2925 2928 2931 2933 2936 2939 2942 2945 2948 2951 2954 2957 2960 2963 2966 2969 2972 2975 2978 2981 2984 2986 2989 2992 2995 2997 3000 3003 3006 3009 3012 3014 3017 3020 3023 3026 3029 3032 3034 3037 3039 3042 3045 3048 3051 3054 3057 3060 3063 3065 3068 3071 3074 3076 3079 3082 3085 3088 3091 3094 3097 3100 3103 3106 3109 3112 3115 3118 3121 3124 3127 3130 3133 3136 3139 3142 3145 3148 3151 3153 3155 3157 3160 3163 3166 3169 3171 3174 3177 3180 3183 3185 3188 3191 3194 3197 3200 3203 3206 3208 3211 3214 3217 3220 3223 3226 3229 3232 3234 3237 3240 3243 3246 3249 3252 3255 3258 3261 3264 3267 3270 3272 3275 3278 3281 3284 3287 3290 3292 3295 3298 3301 3304 3307 3310 3313 3316 3318 3321 3324 3327 3329 3332 3335 3338 3341 3344 3347 3350 3353 3356 3359 3362 3365 3367 3370 3373 3376 3379 3382 3385 3388 3391 3394 3397 3400 3403 3406 3409 3412 3415 3418 3421 3424 3427 3430 3433 3436 3439 3442 3445 3448 3451 3454 3457 3460 3463 3466 3469 3472 3475 3478 3481 3484 3487 3490 3493 3496 3499 3502 3505 3508 3510 3513 3516 3519 3522 3525 3528 3531 3534 3537 3540 3543 3546 3549 3552 3555 3558 3561 3564 3567 3570 3573 3576 3579 3582 3584 3587 3590 3593 3596 3599 3602 3605 3608 3611 3614 3616 3619 3622 3624 3627 3630 3633 3636 3639 3642 3645 3648 3651 3653 3656 3658 3661 3664 3667 3670 3672 3675 3678 3680 3683 3685 3688 3691 3694 3697 3700 3702 3705 3708 3711 3714 3717 3720 3723 3726 3728 3731 3734 3737 3740 3743 3746 3749 3752 3755 3758 3761 3764 3767 3770 3772 3775 3777 3779 3782 3785 3788 3791 3794 3796 3799 3802 3805 3808 3811 3814 3817 3820 3823 3826 3829 3832 3835 3838 3841 3843 3846 3849 3852 3855 3858 3861 3864 3867 3870 3873 3876 3879 3882 3885 3888 3891 3893 3896 3899 3902 3905 3908 3910 3912 3915 3918 3920 3923 3926 3929 3932 3935 3938 3941 3944 3947 3950 3952 3955 3958 3961 3964 3967 3970 3973 3976 3979 3981 3984 3986 3989 3992 3995 3998 4001 4003 4006 4009 4012 4015 4017 4020 4023 4026 4028 4031 4034 4037 4039 4042 4045 4047 4050 4053 4056 4059 4062 4065 4068 4071 4074 4077 4080 4083 4086 4089 4092 4095 4097 4100 4103 4106 4109 4112 4115 4118 4120 4123 4126 4129 4132 4135 4138 4141 4144 4147 4150 4153 4156 4159 4162 4165 4168 4171 4174 4177 4180 4183 4186 4189 4192 4195 4198 4201 4203 4206 4209 4212 4215 4217 4220 4223 4226 4228 4231 4234 4237 4240 4243 4246 4249 4252 4255 4257 4260 4262 4265 4268 4271 4274 4277 4280 4283 4286 4289 4292 4295 4298 4301 4304 4307 4310 4313 4316 4318 4320 4323 4326 4329 4331 4334 4337 4339 4342 4345 4347 4350 4353 4356 4358 4361 4364 4366 4369 4372 4375 4378 4381 4384 4387 4390 4393 4396 4399 4402 4405 4408 4411 4414 4417 4420 4423 4426 4428 4431 4433 4436 4439 4442 4445 4448 4451 4454 4457 4460 4463 4466 4468 4471 4473 4476 4479 4482 4484 4487 4490 4493 4496 4499 4501 4504 4507 4510 4513 4516 4519 4521 4524 4527 4530 4533 4536 4539 4542 4545 4548 4551 4554 4556 4559 4562 4565 4568 4571 4574 4577 4580 4582 4585 4588 4591 4593 4596 4599 4601 4604 4607 4610 4613 4616 4618 4621 4624 4627 4630 4633 4636 4639 4642 4645 4647 4650 4653 4655 4658 4660 4663 4665 4667 4669 4672 4674 4677 4680 4683 4686 4689 4692 4694 4697 4700 4703 4706 4709 4712 4714 4717 4720 4723 4726 4729 4732 4735 4737 4740 4743 4746 4749 4751 4754 4757 4760 4763 4766 4768 4771 4773 4776 4779 4782 4785 4788 4791 4794 4797 4800 4803 4805 4808 4811 4814 4817 4820 4823 4826 4828 4831 4834 4837 4840 4843 4846 4849 4851 4854 4856 4859 4862 4865 4868 4871 4874 4877 4880 4882 4885 4888 4891 4893 4895 4898 4901 4904 4907 4910 4912 4914 4917 4919 4922 4925 4927 4930 4933 4935 4938 4941 4944 4947 4950 4953 4956 4959 4961 4964 4967 4970 4973 4976 4978 4981 4984 4987 4990 4992 4995 4998 5000 5003 5006 5009 5012 5015 5018 5021 5024 5027 5030 5033 5036 5039 5042 5045 5048 5051 5054 5057 5060 5063 5066 5069 5072 5075 5078 5081 5084 5087 5090 5093 5096 5099 5102 5105 5108 5111 5114 5117 5120 5123 5125 5128 5131 5133 5136 5139 5142 5145 5148 5150 5153 5156 5159 5162 5164 5167 5170 5173 5176 5179 5182 5185 5188 5191 5194 5197 5200 5203 5206 5209 5212 5215 5218 5221 5224 5227 5230 5233 5236 5238 5241 5244 5247 5249 5252 5255 5258 5261 5264 5267 5269 5272 5275 5278 5281 5284 5287 5290 5293 5296 5299 5302 5304 5307 5309 5311 5314 5317 5319 5322 5325 5328 5331 5334 5337 5340 5343 5346 5349 5352 5354 5357 5360 5362 5365 5368 5371 5374 5377 5380 5383 5386 5389 5392 5395 5398 5401 5404 5407 5409 5412 5415 5418 5421 5424 5427 5430 5432 5435 5437 5440 5443 5446 5449 5451 5454 5456 5459 5462 5465 5468 5471 5474 5477 5480 5483 5485 5488 5491 5494 5497 5500 5503 5506 5509 5512 5515 5518 5521 5524 5527 5530 5533 5536 5538 5541 5544 5547 5550 5553 5556 5559 5562 5565 5568 5571 5574 5577 5580 5583 5586 5589 5592 5595 5598 5601 5604 5607 5610 5613 5615 5617 5620 5623 5626 5629 5632 5635 5638 5641 5644 5647 5650 5652 5655 5658 5661 5664 5666 5669 5672 5675 5678 5680 5683 5686 5689 5692 5695 5698 5701 5704 5706 5709 5712 5715 5718 5721 5724 5727 5730 5733 5735 5738 5741 5744 5747 5750 5753 5756 5759 5762 5765 5768 5771 5774 5777 5780 5783 5786 5789 5792 5795 5797 5800 5803 5806 5809 5812 5815 5818 5821 5824 5827 5830 5833 5836 5839 5841 5844 5846 5849 5852 5855 5858 5861 5864 5867 5870 5872 5875 5878 5880 5883 5886 5889 5892 5895 5898 5901 5904 5907 5910 5913 5916 5919 5922 5925 5928 5931 5934 5937 5940 5943 5946 5949 5952 5955 5958 5961 5964 5967 5970 5973 5976 5979 5982 5985 5988 5990 5993 5996 5998 6001 6004 6007 6010 6012 6015 6017 6020 6023 6025 6028 6030 6033 6036 6039 6042 6045 6047 6050 6053 6056 6059 6062 6065 6068 6071 6074 6077 6080 6083 6085 6088 6091 6094 6096 6099 6102 6105 6108 6111 6114 6117 6120 6123 6125 6128 6131 6134 6137 6139 6141 6144 6147 6150 6153 6156 6159 6162 6165 6167 6170 6173 6176 6179 6182 6184 6187 6190 6193 6195 6198 6201 6204 6206 6209 6212 6215 6218 6220 6223 6226 6229 6232 6235 6238 6241 6244 6247 6250 6253 6256 6259 6262 6264 6267 6270 6273 6276 6279 6282 6284 6287 6289 6291 6294 6296 6299 6301 6304 6307 6310 6313 6315 6318 6321 6324 6327 6329 6332 6335 6338 6341 6344 6347 6350 6353 6356 6358 6361 6364 6367 6370 6373 6376 6379 6382 6385 6388 6391 6394 6397 6400 6402 6405 6408 6411 6413 6416 6419 6422 6424 6427 6429 6432 6435 6438 6441 6444 6447 6450 6453 6456 6459 6462 6465 6468 6471 6474 6477 6479 6482 6485 6488 6491 6494 6497 6499 6502 6505 6508 6511 6514 6517 6520 6523 6526 6529 6532 6535 6538 6541 6544 6547 6550 6553 6555 6558 6561 6564 6567 6570 6573 6576 6579 6582 6585 6588 6591 6594 6597 6600 6603 6606 6609 6612 6615 6618 6621 6624 6627 6630 6633 6636 6639 6642 6645 6648 6651 6654 6657 6659 6662 6665 6668 6671 6673 6676 6679 6682 6685 6688 6691 6694 6696 6699 6702 6705 6708 6711 6714 6717 6720 6723 6725 6728 6731 6733 6736 6739 6742 6745 6748 6750 6753 6756 6759 6761 6764 6767 6769 6772 6775 6778 6781 6784 6787 6790 6793 6796 6799 6802 6805 6808 6811 6814 6817 6820 6823 6826 6829 6831 6834 6837 6840 6843 6846 6849 6852 6855 6858 6861 6863 6865 6868 6870 6873 6876 6879 6882 6885 6887 6890 6893 6896 6899 6901 6904 6907 6910 6913 6916 6918 6921 6923 6926 6929 6931 6934 6937 6940 6943 6946 6949 6952 6955 6957 6960 6963 6966 6969 6972 6975 6977 6980 6983 6986 6989 6992 6995 6997 7000 7003 7006 7009 7011 7014 7017 7019 7022 7024 7027 7030 7032 7035 7038 7041 7044 7047 7050 7052 7055 7058 7061 7064 7066 7069 7072 7075 7078 7081 7084 7087 7090 7092 7094 7097 7100 7103 7106 7109 7112 7115 7118 7120 7123 7126 7129 7132 7135 7138 7140 7143 7146 7149 7152 7155 7158 7161 7163 7166 7169 7172 7174 7177 7180 7183 7186 7189 7192 7195 7198 7201 7204 7207 7210 7212 7215 7218 7221 7224 7226 7229 7232 7234 7237 7240 7243 7246 7248 7251 7254 7257 7259 7261 7264 7267 7270 7272 7275 7278 7281 7283 7286 7289 7292 7295 7298 7301 7304 7307 7310 7312 7315 7318 7321 7323 7326 7329 7332 7335 7338 7341 7344 7347 7350 7353 7356 7359 7361 7364 7366 7369 7372 7374 7377 7380 7382 7385 7388 7391 7394 7397 7400 7403 7405 7408 7411 7414 7417 7420 7422 7425 7427 7430 7433 7436 7438 7440 7443 7445 7447 7450 7452 7455 7458 7461 7464 7467 7470 7472 7475 7477 7480 7483 7486 7489 7492 7495 7498 7501 7504 7507 7510 7513 7516 7518 7521 7524 7526 7529 7531 7534 7537 7539 7542 7545 7548 7550 7552 7555 7558 7560 7563 7566 7569 7572 7575 7578 7581 7584 7587 7590 7593 7596 7599 7602 7605 7608 7611 7614 7617 7620 7623 7626 7629 7631 7633 7636 7638 7641 7643 7646 7649 7651 7653 7656 7659 7661 7664 7667 7669 7672 7675 7677 7680 7682 7685 7688 7691 7694 7696 7699 7702 7705 7708 7710 7713 7715 7717 7720 7722 7725 7728 7730 7732 7735 7738 7741 7743 7746 7749 7752 7755 7757 7759 7762 7765 7768 7771 7774 7776 7779 7782 7785 7788 7791 7794 7797 7800 7803 7806 7809 7811 7814 7816 7819 7821 7824 7827 7829 7832 7834 7837 7840 7843 7846 7849 7852 7855 7858 7860 7863 7866 7868 7871 7874 7877 7880 7882 7885 7888 7891 7894 7897 7900 7903 7906 7909 7912 7915 7918 7920 7923 7926 7929 7932 7935 7938 7941 7944 7947 7950 7953 7955 7958 7961 7964 7967 7970 7973 7975 7978 7980 7983 7986 7988 7991 7994 7997 8000 8003 8006 8009 8012 8015 8018 8021 8024 8027 8030 8033 8036 8039 8041 8043 8046 8049 8052 8054 8057 8060 8062 8065 8068 8071 8074 8077 8080 8083 8086 8089 8092 8095 8098 8101 8104 8107 8110 8113 8116 8119 8122 8125 8128 8131 8134 8137 8139 8141 8144 8147 8150 8153 8156 8159 8162 8165 8168 8171 8174 8176 8179 8182 8185 8188 8191 8194 8197 8200 8203 8206 8209 8212 8215 8218 8221 8224 8227 8230 8233 8236 8239 8242 8245 8248 8251 8254 8257 8260 8263 8266 8269 8272 8275 8277 8280 8283 8286 8289 8292 8294 8297 8300 8302 8305 8308 8310 8312 8315 8318 8321 8324 8327 8330 8333 8336 8339 8342 8345 8348 8351 8353 8356 8359 8361 8364 8367 8370 8373 8376 8379 8381 8384 8387 8389 8392 8395 8398 8401 8404 8407 8410 8413 8416 8419 8422 8425 8428 8430 8433 8436 8439 8442 8445 8448 8451 8453 8456 8459 8462 8465 8468 8471 8474 8477 8480 8483 8486 8489 8491 8494 8497 8499 8502 8505 8508 8511 8514 8517 8520 8523 8526 8529 8532 8535 8538 8541 8544 8547 8550 8553 8556 8559 8561 8564 8567 8569 8572 8574 8577 8580 8583 8585 8588 8591 8593 8596 8598 8601 8604 8607 8609 8612 8615 8618 8621 8623 8626 8629 8632 8635 8638 8641 8644 8646 8649 8652 8655 8657 8660 8663 8666 8669 8672 8675 8678 8681 8684 8687 8690 8693 8695 8698 8701 8704 8707 8710 8713 8716 8719 8721 8724 8727 8730 8733 8736 8739 8742 8745 8748 8751 8754 8756 8759 8762 8765 8768 8771 8774 8777 8780 8783 8786 8789 8792 8795 8798 8801 8804 8807 8810 8813 8815 8817 8820 8823 8826 8828 8831 8834 8837 8840 8843 8846 8849 8852 8855 8858 8861 8864 8866 8869 8872 8875 8878 8881 8884 8887 8890 8893 8895 8898 8901 8904 8907 8910 8913 8916 8919 8922 8925 8928 8931 8934 8937 8940 8943 8945 8948 8950 8953 8956 8959 8962 8965 8967 8970 8973 8976 8979 8981 8984 8987 8990 8992 8995 8998 9001 9003 9006 9009 9012 9015 9018 9021 9024 9027 9030 9032 9035 9038 9041 9043 9046 9049 9051 9054 9057 9060 9063 9066 9069 9071 9074 9077 9080 9083 9086 9089 9092 9095 9097 9100 9103 9106 9108 9111 9114 9117 9120 9123 9126 9129 9132 9135 9138 9141 9144 9147 9150 9153 9156 9159 9162 9165 9168 9171 9174 9177 9180 9183 9186 9189 9191 9194 9197 9200 9203 9206 9209 9212 9214 9217 9220 9223 9226 9229 9232 9235 9238 9241 9244 9247 9250 9253 9256 9259 9262 9265 9268 9271 9274 9277 9280 9283 9286 9289 9291 9294 9296 9299 9302 9305 9308 9311 9314 9316 9319 9322 9325 9327 9330 9333 9335 9338 9341 9344 9347 9350 9353 9356 9359 9362 9365 9368 9371 9373 9376 9379 9382 9385 9388 9390 9393 9396 9399 9402 9405 9408 9411 9414 9417 9420 9423 9426 9429 9431 9434 9437 9440 9442 9445 9448 9451 9454 9457 9460 9463 9466 9469 9472 9475 9478 9480 9482 9485 9488 9491 9494 9496 9499 9502 9505 9508 9511 9514 9517 9520 9523 9525 9527 9530 9533 9536 9539 9542 9544 9547 9550 9553 9556 9559 9561 9564 9567 9570 9573 9576 9578 9581 9583 9586 9589 9592 9595 9597 9600 9602 9605 9607 9609 9612 9615 9618 9621 9624 9627 9630 9632 9634 9637 9640 9643 9646 9649 9652 9654 9656 9658 9661 9663 9665 9668 9671 9674 9676 9679 9682 9685 9688 9691 9693 9695 9697 9700 9702 9705 9708 9711 9713 9716 9718 9720 9723 9726 9729 9732 9735 9738 9741 9743 9745 9748 9751 9753 9755 9757 9760 9763 9766 9769 9772 9775 9778 9781 9784 9787 9790 9793 9796 9799 9802 9805 9808 9811 9814 9817 9820 9823 9826 9829 9832 9835 9838 9841 9844 9847 9850 9853 9856 9859 9862 9865 9868 9871 9874 9877 9879 9882 9885 9888 9891 9894 9897 9900 9903 9906 9909 9911 9914 9917 9920 9923 9926 9929 9931 9934 9937 9939 9942 9945 9948 9951 9954 9957 9960 9963 9966 9969 9972 9975 9978 9980 9983 9985 9988 9991 9994 9997 9999 10002 10005 10008 10010 10013 10016 10018 10021 10024 10027 10029 10032 10035 10037 10040 10043 10046 10049 10052 10054 10057 10060 10063 10066 10069 10072 10075 10077 10080 10083 10086 10089 10092 10095 10098 10100 10103 10106 10108 10111 10114 10117 10120 10122 10125 10127 10130 10133 10136 10139 10142 10144 10147 10150 10153 10156 10158 10161 10164 10167 10170 10173 10176 10178 10180 10183 10186 10189 10192 10195 10197 10200 10203 10205 10208 10211 10214 10217 10220 10223 10226 10229 10232 10235 10237 10240 10243 10246 10249 10252 10255 10258 10261 10264 10267 10270 10273 10276 10279 10282 10285 10288 10291 10293 10296 10299 10302 10305 10308 10311 10313 10316 10319 10322 10325 10328 10331 10334 10336 10338 10341 10344 10347 10350 10352 10355 10358 10361 10364 10367 10370 10373 10375 10378 10381 10383 10386 10388 10390 10392 10395 10398 10401 10404 10407 10410 10412 10415 10418 10421 10424 10427 10429 10432 10435 10438 10441 10443 10446 10449 10452 10454 10457 10460 10463 10465 10468 10471 10474 10477 10480 10483 10486 10489 10492 10495 10498 10501 10504 10507 10510 10513 10516 10519 10522 10525 10528 10531 10534 10537 10540 10542 10545 10548 10551 10554 10557 10560 10563 10565 10568 10570 10573 10576 10579 10582 10585 10588 10590 10593 10596 10598 10601 10604 10607 10609 10612 10615 10617 10620 10623 10626 10629 10632 10634 10637 10640 10643 10645 10647 10650 10653 10656 10659 10662 10665 10668 10671 10674 10677 10680 10683 10685 10688 10691 10694 10697 10700 10703 10706 10709 10712 10714 10717 10720 10723 10726 10729 10731 10733 10736 10739 10742 10745 10748 10751 10754 10757 10760 10762 10765 10768 10771 10774 10777 10780 10783 10786 10788 10791 10794 10797 10800 10803 10806 10809 10812 10815 10818 10821 10824 10827 10830 10833 10836 10839 10842 10844 10847 10850 10853 10856 10858 10861 10863 10866 10868 10871 10874 10877 10880 10883 10886 10889 10892 10895 10898 10901 10904 10907 10910 10913 10916 10919 10921 10924 10927 10930 10933 10936 10938 10941 10944 10947 10949 10951 10954 10957 10960 10963 10966 10968 10971 10974 10977 10980 10982 10985 10988 10991 10994 10997 11000 11003 11006 11008 11011 11014 11017 11020 11023 11026 11029 11031 11034 11037 11040 11043 11046 11049 11052 11055 11058 11060 11063 11066 11069 11072 11075 11078 11081 11084 11087 11090 11093 11096 11099 11102 11105 11108 11111 11114 11116 11119 11122 11125 11128 11131 11134 11137 11140 11143 11146 11149 11152 11155 11157 11160 11163 11166 11169 11172 11175 11177 11180 11183 11185 11188 11191 11193 11196 11199 11202 11205 11208 11211 11214 11217 11220 11223 11226 11229 11232 11235 11238 11241 11244 11247 11250 11253 11256 11259 11262 11265 11268 11271 11273 11276 11278 11281 11283 11285 11288 11291 11294 11296 11299 11302 11305 11308 11311 11314 11317 11320 11323 11325 11327 11330 11332 11335 11338 11341 11344 11347 11350 11353 11356 11359 11362 11365 11368 11371 11374 11376 11379 11381 11383 11386 11388 11391 11394 11397 11400 11403 11406 11409 11412 11415 11417 11419 11422 11425 11428 11431 11434 11437 11440 11443 11446 11449 11452 11455 11458 11461 11464 11467 11470 11473 11476 11479 11482 11485 11487 11490 11493 11496 11499 11502 11504 11507 11510 11513 11516 11519 11521 11524 11527 11530 11532 11535 11538 11541 11544 11547 11550 11553 11556 11559 11561 11564 11567 11570 11573 11575 11578 11581 11584 11587 11590 11593 11595 11598 11601 11604 11607 11610 11613 11616 11618 11621 11624 11627 11630 11632 11635 11638 11641 11644 11647 11650 11653 11656 11659 11662 11664 11667 11670 11673 11676 11678 11681 11684 11687 11689 11692 11695 11698 11701 11704 11706 11709 11712 11715 11718 11721 11724 11727 11730 11733 11736 11739 11742 11745 11748 11750 11752 11755 11758 11760 11763 11766 11769 11772 11775 11778 11781 11783 11786 11789 11792 11795 11798 11801 11803 11806 11809 11812 11815 11818 11821 11824 11827 11830 11833 11836 11839 11842 11845 11848 11851 11854 11857 11860 11863 11866 11869 11872 11874 11877 11880 11883 11886 11889 11892 11895 11898 11900 11903 11906 11909 11912 11914 11917 11920 11923 11926 11929 11931 11934 11936 11939 11941 11944 11947 11950 11953 11956 11959 11962 11964 11967 11970 11973 11975 11978 11981 11984 11987 11990 11992 11995 11998 12001 12004 12007 12009 12012 12014 12017 12020 12022 12025 12027 12030 12033 12036 12039 12042 12044 12047 12050 12053 12055 12058 12061 12064 12067 12070 12073 12076 12079 12082 12085 12087 12090 12093 12096 12099 12102 12105 12108 12111 12114 12117 12120 12123 12126 12129 12132 12135 12138 12141 12144 12147 12150 12153 12155 12158 12161 12164 12167 12170 12173 12176 12179 12182 12185 12188 12191 12194 12197 12200 12203 12206 12209 12211 12214 12217 12220 12222 12225 12228 12231 12234 12237 12240 12242 12245 12248 12251 12253 12255 12258 12260 12263 12265 12267 12270 12272 12275 12278 12280 12283 12286 12288 12290 12293 12296 12299 12302 12305 12308 12311 12314 12316 12319 12321 12324 12327 12330 12333 12336 12339 12342 12345 12348 12351 12354 12357 12360 12363 12366 12369 12372 12375 12378 12381 12384 12387 12389 12392 12395 12398 12401 12404 12407 12410 12413 12415 12418 12421 12423 12426 12429 12431 12433 12436 12439 12441 12444 12447 12450 12453 12456 12459 12462 12465 12468 12471 12474 12477 12480 12483 12486 12489 12492 12495 12498 12501 12504 12507 12510 12513 12516 12519 12522 12525 12528 12531 12534 12537 12540 12543 12546 12549 12552 12555 12558 12560 12563 12565 12568 12571 12574 12577 12580 12583 12586 12589 12592 12595 12598 12601 12604 12607 12610 12613 12616 12619 12622 12625 12628 12631 12634 12637 12640 12643 12646 12649 12652 12655 12658 12661 12664 12667 12670 12673 12676 12679 12682 12685 12687 12690 12693 12695 12698 12701 12704 12707 12710 12712 12715 12717 12720 12723 12725 12728 12731 12734 12737 12740 12743 12745 12748 12751 12754 12757 12760 12763 12766 12769 12772 12775 12778 12780 12783 12786 12788 12790 12793 12795 12798 12801 12803 12806 12809 12812 12815 12817 12820 12823 12826 12829 12832 12835 12838 12841 12844 12846 12849 12851 12854 12857 12860 12863 12866 12869 12872 12874 12877 12879 12882 12885 12888 12891 12894 12897 12900 12903 12906 12908 12911 12913 12916 12919 12922 12925 12928 12931 12934 12937 12940 12943 12945 12948 12951 12954 12956 12959 12962 12964 12967 12970 12972 12975 12978 12981 12984 12986 12989 12992 12995 12997 13000 13003 13006 13009 13012 13015 13018 13021 13024 13027 13030 13033 13036 13039 13041 13044 13047 13050 13053 13056 13059 13061 13064 13066 13069 13071 13074 13077 13080 13082 13085 13088 13091 13094 13097 13100 13103 13106 13108 13111 13114 13117 13120 13123 13125 13128 13131 13133 13136 13139 13142 13145 13148 13151 13154 13157 13160 13162 13165 13168 13171 13173 13176 13179 13182 13185 13188 13191 13193 13196 13199 13202 13205 13208 13211 13214 13217 13220 13223 13226 13229 13232 13235 13238 13241 13244 13247 13250 13253 13256 13259 13262 13265 13268 13271 13274 13277 13280 13283 13286 13288 13291 13294 13297 13300 13303 13305 13308 13311 13313 13315 13318 13321 13324 13327 13329 13332 13335 13338 13341 13344 13346 13349 13352 13355 13358 13361 13364 13367 13370 13373 13376 13379 13382 13385 13388 13391 13394 13396 13399 13402 13405 13408 13411 13414 13417 13420 13422 13424 13427 13430 13433 13436 13439 13442 13444 13447 13450 13453 13456 13458 13461 13464 13467 13470 13473 13476 13479 13482 13485 13488 13491 13494 13497 13500 13503 13506 13509 13512 13515 13518 13521 13524 13527 13530 13532 13535 13538 13540 13543 13546 13549 13552 13555 13558 13561 13564 13567 13570 13573 13576 13579 13582 13585 13588 13591 13594 13597 13600 13603 13606 13609 13612 13615 13618 13621 13623 13626 13628 13631 13634 13637 13640 13643 13645 13648 13651 13654 13657 13660 13663 13666 13669 13672 13675 13678 13681 13684 13687 13690 13693 13696 13699 13702 13705 13707 13709 13712 13714 13717 13720 13723 13726 13729 13732 13735 13738 13741 13744 13747 13750 13753 13756 13759 13762 13764 13767 13770 13773 13775 13778 13781 13784 13787 13790 13793 13796 13799 13802 13805 13808 13811 13814 13816 13819 13822 13825 13828 13831 13834 13837 13840 13843 13846 13849 13852 13855 13858 13861 13864 13867 13870 13873 13876 13879 13882 13884 13887 13890 13893 13896 13899 13902 13905 13908 13911 13914 13917 13920 13923 13925 13928 13930 13933 13936 13938 13940 13943 13946 13949 13952 13955 13958 13961 13964 13967 13970 13973 13976 13979 13982 13985 13988 13991 13994 13997 14000 14002 14005 14008 14010 14013 14016 14019 14021 14024 14027 14030 14033 14036 14039 14041 14044 14047 14050 14052 14055 14058 14061 14064 14067 14070 14073 14076 14078 14081 14084 14086 14089 14092 14094 14097 14099 14102 14105 14108 14111 14113 14115 14118 14121 14123 14125 14128 14131 14133 14136 14139 14142 14145 14147 14150 14153 14155 14157 14160 14162 14165 14168 14171 14174 14177 14180 14183 14186 14189 14192 14195 14198 14201 14204 14207 14210 14213 14216 14219 14222 14224 14227 14230 14233 14236 14238 14241 14244 14247 14250 14252 14254 14257 14260 14263 14266 14269 14272 14275 14278 14281 14284 14287 14290 14292 14295 14298 14301 14303 14306 14309 14312 14315 14318 14321 14324 14326 14329 14332 14335 14337 14340 14343 14345 14347 14350 14353 14356 14358 14361 14364 14367 14369 14372 14375 14378 14381 14384 14387 14390 14393 14396 14399 14402 14405 14408 14411 14414 14417 14420 14423 14425 14428 14431 14434 14437 14440 14443 14446 14449 14452 14455 14458 14461 14464 14467 14470 14473 14476 14479 14481 14483 14486 14489 14492 14495 14498 14500 14502 14505 14507 14510 14513 14516 14519 14522 14525 14528 14531 14534 14536 14539 14542 14545 14547 14550 14553 14556 14559 14562 14565 14568 14571 14574 14577 14580 14583 14586 14589 14591 14594 14597 14600 14603 14606 14609 14612 14614 14617 14620 14622 14625 14628 14631 14634 14637 14640 14642 14645 14648 14651 14654 14656 14659 14662 14665 14668 14671 14674 14676 14679 14682 14685 14688 14691 14694 14697 14700 14702 14704 14707 14710 14713 14715 14717 14720 14723 14726 14729 14732 14734 14737 14740 14743 14746 14749 14752 14754 14757 14760 14763 14766 14768 14771 14774 14777 14780 14783 14785 14788 14791 14794 14797 14799 14802 14805 14808 14811 14814 14817 14820 14823 14826 14829 14832 14835 14838 14841 14844 14847 14850 14853 14856 14859 14862 14865 14868 14871 14874 14876 14879 14882 14885 14888 14890 14893 14895 14898 14900 14903 14906 14908 14911 14914 14916 14919 14922 14924 14927 14930 14933 14936 14939 14942 14944 14947 14950 14952 14955 14957 14959 14961 14964 14967 14969 14972 14974 14976 14979 14982 14985 14987 14990 14992 14995 14998 15001 15004 15007 15010 15012 15015 15018 15021 15023 15026 15029 15032 15035 15038 15041 15044 15046 15049 15052 15055 15057 15060 15062 15064 15067 15070 15073 15076 15079 15082 15085 15087 15090 15093 15096 15099 15102 15105 15108 15111 15113 15115 15118 15121 15124 15127 15129 15132 15135 15137 15140 15143 15146 15148 15151 15154 15157 15159 15161 15164 15167 15170 15173 15175 15178 15181 15184 15187 15190 15192 15194 15197 15200 15203 15206 15209 15212 15215 15218 15221 15224 15227 15230 15233 15236 15239 15242 15245 15248 15251 15254 15257 15260 15263 15266 15269 15272 15275 15278 15281 15284 15287 15289 15292 15295 15298 15300 15303 15306 15309 15312 15315 15318 15321 15324 15327 15330 15333 15336 15339 15342 15345 15347 15350 15352 15354 15357 15360 15362 15365 15368 15371 15374 15377 15380 15383 15386 15389 15392 15395 15398 15401 15404 15407 15410 15413 15416 15419 15422 15425 15428 15431 15433 15436 15439 15441 15443 15446 15449 15452 15455 15458 15461 15464 15466 15469 15472 15475 15477 15480 15483 15486 15489 15491 15493 15496 15499 15502 15505 15508 15511 15514 15516 15519 15522 15525 15528 15530 15533 15536 15539 15542 15544 15547 15550 15553 15556 15559 15562 15565 15568 15571 15574 15577 15580 15583 15586 15589 15592 15595 15598 15601 15603 15606 15609 15612 15615 15618 15621 15624 15627 15630 15633 15636 15639 15642 15645 15648 15651 15653 15656 15659 15662 15664 15667 15670 15673 15676 15679 15682 15685 15688 15691 15693 15696 15699 15702 15705 15708 15711 15714 15717 15720 15723 15726 15729 15732 15735 15738 15741 15744 15747 15750 15753 15756 15758 15761 15764 15767 15770 15773 15776 15779 15782 15785 15788 15791 15794 15797 15800 15803 15806 15809 15811 15814 15817 15820 15823 15826 15828 15831 15834 15837 15840 15843 15846 15849 15852 15855 15858 15861 15864 15867 15870 15873 15876 15879 15882 15885 15888 15891 15894 15897 15900 15903 15906 15909 15911 15914 15917 15919 15922 15925 15928 15930 15933 15936 15939 15942 15945 15948 15951 15954 15957 15960 15963 15966 15969 15972 15975 15977 15980 15982 15985 15988 15991 15994 15997 16000 16003 16006 16009 16011 16014 16017 16020 16023 16026 16029 16032 16035 16038 16040 16042 16045 16048 16051 16054 16057 16060 16063 16066 16069 16072 16075 16078 16081 16084 16087 16090 16093 16096 16099 16102 16105 16108 16111 16114 16117 16120 16123 16126 16129 16132 16135 16138 16141 16144 16147 16150 16153 16156 16159 16162 16165 16168 16171 16174 16177 16180 16183 16186 16189 16192 16195 16198 16201 16204 16207 16210 16213 16216 16219 16222 16225 16228 16231 16234 16237 16240 16243 16246 16249 16252 16255 16257 16260 16263 16266 16269 16272 16275 16277 16280 16283 16286 16289 16292 16295 16298 16301 16304 16306 16309 16311 16314 16317 16320 16323 16326 16329 16332 16335 16338 16341 16344 16347 16350 16353 16356 16359 16362 16365 16368 16371 16374 16377 16380 16383 16386 16389 16392 16395 16398 16401 16404 16407 16410 16413 16415 16418 16421 16424 16426 16428 16431 16434 16437 16440 16443 16446 16449 16452 16455 16458 16461 16464 16467 16470 16473 16476 16479 16482 16485 16488 16491 16494 16496 16498 16501 16504 16507 16510 16513 16516 16519 16522 16524 16527 16530 16533 16536 16539 16542 16544 16547 16550 16553 16556 16559 16561 16564 16567 16570 16573 16575 16578 16581 16584 16586 16589 16592 16595 16597 16600 16603 16605 16608 16611 16614 16617 16620 16623 16626 16629 16632 16635 16638 16641 16644 16646 16649 16652 16655 16658 16661 16664 16667 16670 16672 16675 16678 16681 16684 16687 16690 16693 16696 16699 16702 16705 16707 16710 16713 16716 16718 16721 16724 16727 16730 16732 16735 16738 16741 16744 16747 16750 16753 16756 16758 16761 16763 16766 16769 16771 16774 16777 16780 16783 16786 16788 16791 16794 16797 16800 16803 16806 16809 16812 16815 16818 16821 16824 16826 16829 16832 16835 16838 16841 16844 16847 16850 16853 16855 16858 16861 16864 16867 16870 16873 16875 16878 16881 16884 16887 16890 16893 16896 16898 16901 16904 16907 16910 16913 16915 16918 16921 16924 16927 16930 16933 16936 16939 16942 16945 16948 16951 16954 16957 16960 16963 16966 16969 16972 16975 16978 16981 16984 16987 16990 16993 16996 16999 17002 17005 17008 17011 17014 17017 17020 17023 17026 17029 17032 17035 17038 17041 17044 17047 17050 17053 17056 17058 17061 17063 17066 17069 17072 17075 17078 17081 17084 17087 17090 17093 17096 17099 17102 17105 17107 17110 17113 17116 17119 17122 17125 17128 17131 17134 17137 17140 17143 17146 17149 17152 17154 17157 17160 17162 17165 17167 17170 17173 17176 17179 17182 17184 17187 17190 17193 17196 17199 17202 17205 17208 17211 17214 17217 17220 17223 17226 17229 17232 17235 17238 17241 17244 17246 17249 17252 17255 17258 17261 17264 17267 17270 17273 17276 17279 17281 17284 17286 17289 17292 17294 17297 17299 17302 17305 17308 17311 17314 17317 17320 17322 17325 17327 17330 17333 17336 17339 17341 17344 17347 17350 17353 17355 17357 17360 17363 17365 17368 17371 17374 17377 17380 17383 17386 17389 17392 17395 17398 17401 17404 17407 17410 17413 17415 17418 17421 17424 17427 17430 17433 17436 17439 17442 17445 17448 17451 17454 17457 17459 17462 17464 17467 17470 17473 17476 17479 17482 17485 17487 17490 17492 17495 17498 17501 17504 17507 17510 17513 17516 17519 17521 17523 17526 17529 17532 17534 17537 17540 17543 17546 17548 17551 17553 17556 17559 17561 17564 17566 17568 17570 17573 17576 17578 17581 17584 17587 17589 17591 17593 17596 17599 17602 17605 17608 17611 17614 17617 17620 17623 17626 17628 17631 17634 17637 17640 17643 17646 17648 17651 17654 17657 17659 17662 17665 17668 17671 17674 17677 17680 17683 17685 17688 17691 17694 17696 17699 17702 17705 17708 17711 17714 17717 17720 17723 17726 17729 17732 17735 17738 17741 17744 17747 17750 17753 17756 17759 17762 17765 17768 17771 17774 17777 17780 17783 17786 17789 17792 17795 17798 17801 17804 17807 17810 17813 17816 17819 17822 17825 17828 17831 17834 17837 17840 17843 17846 17849 17852 17855 17858 17861 17864 17867 17870 17873 17876 17878 17881 17884 17887 17890 17893 17895 17898 17901 17904 17907 17909 17912 17915 17918 17920 17923 17926 17929 17932 17935 17938 17941 17944 17947 17950 17953 17956 17959 17962 17965 17968 17971 17974 17977 17980 17983 17986 17989 17992 17995 17998 18001 18004 18007 18010 18013 18016 18019 18022 18025 18028 18031 18034 18037 18040 18042 18045 18048 18050 18053 18056 18059 18062 18065 18068 18071 18073 18076 18079 18082 18085 18088 18091 18094 18097 18100 18103 18106 18108 18111 18114 18116 18119 18121 18124 18127 18130 18132 18135 18138 18141 18144 18147 18150 18153 18156 18158 18161 18164 18167 18170 18172 18175 18178 18181 18184 18186 18189 18191 18194 18197 18200 18203 18206 18209 18212 18215 18218 18221 18224 18227 18229 18232 18234 18237 18240 18243 18246 18249 18252 18255 18258 18261 18264 18267 18270 18273 18275 18278 18281 18284 18287 18290 18293 18296 18299 18302 18304 18307 18310 18313 18315 18318 18321 18324 18327 18330 18333 18336 18339 18342 18345 18348 18351 18354 18357 18360 18363 18366 18369 18372 18375 18378 18381 18384 18387 18390 18393 18396 18399 18402 18405 18408 18411 18414 18417 18420 18422 18425 18428 18430 18433 18436 18439 18442 18444 18447 18450 18453 18456 18459 18462 18465 18468 18471 18474 18477 18480 18483 18486 18489 18491 18494 18497 18500 18503 18506 18509 18512 18515 18518 18520 18523 18525 18528 18531 18534 18537 18540 18543 18546 18548 18551 18554 18557 18560 18563 18566 18569 18572 18575 18578 18581 18584 18587 18590 18592 18595 18598 18601 18604 18607 18610 18613 18616 18619 18622 18625 18627 18630 18633 18636 18639 18642 18645 18648 18651 18654 18657 18660 18663 18666 18669 18672 18675 18678 18681 18684 18687 18690 18693 18696 18698 18701 18703 18706 18709 18712 18715 18718 18721 18723 18726 18728 18731 18734 18737 18739 18742 18745 18748 18750 18753 18756 18759 18761 18764 18767 18769 18772 18775 18778 18781 18784 18787 18790 18792 18795 18798 18801 18804 18807 18810 18813 18815 18818 18821 18824 18827 18830 18833 18836 18839 18842 18845 18848 18851 18854 18856 18859 18862 18865 18868 18871 18874 18877 18880 18882 18885 18888 18891 18894 18897 18900 18903 18906 18909 18912 18915 18918 18921 18924 18927 18930 18933 18936 18939 18942 18944 18947 18950 18953 18956 18959 18962 18965 18968 18971 18974 18977 18980 18983 18986 18989 18992 18995 18998 19001 19004 19007 19010 19013 19016 19019 19022 19025 19028 19031 19034 19037 19040 19043 19046 19049 19052 19055 19058 19061 19064 19067 19070 19073 19076 19079 19082 19085 19088 19091 19094 19096 19099 19101 19104 19107 19110 19112 19115 19118 19120 19122 19125 19127 19130 19133 19136 19139 19142 19145 19148 19151 19154 19157 19160 19163 19166 19169 19172 19175 19178 19181 19184 19187 19190 19193 19196 19199 19202 19205 19208 19211 19214 19217 19220 19223 19226 19229 19232 19234 19237 19240 19243 19246 19248 19251 19254 19256 19259 19262 19265 19267 19270 19273 19276 19279 19281 19284 19286 19288 19291 19294 19297 19300 19302 19305 19308 19311 19313 19316 19319 19322 19324 19327 19330 19333 19336 19339 19342 19344 19347 19350 19353 19356 19359 19362 19365 19368 19371 19374 19377 19380 19383 19386 19389 19392 19395 19398 19401 19404 19406 19409 19412 19415 19418 19421 19424 19427 19430 19433 19436 19439 19442 19445 19448 19451 19454 19457 19460 19462 19465 19468 19470 19473 19476 19478 19481 19484 19487 19490 19493 19496 19499 19502 19505 19508 19511 19513 19516 19519 19522 19525 19527 19530 19533 19536 19539 19541 19544 19547 19550 19552 19555 19558 19561 19564 19567 19570 19573 19576 19579 19582 19585 19588 19591 19594 19597 19600 19603 19606 19609 19612 19615 19618 19621 19624 19627 19629 19632 19635 19638 19641 19644 19647 19650 19653 19655 19658 19661 19664 19666 19669 19672 19675 19678 19681 19684 19687 19690 19693 19696 19699 19702 19705 19708 19711 19714 19717 19720 19723 19726 19729 19732 19735 19738 19740 19743 19746 19749 19751 19754 19757 19760 19763 19766 19769 19772 19775 19777 19780 19783 19785 19788 19791 19794 19797 19799 19802 19805 19808 19811 19814 19817 19820 19822 19825 19827 19830 19833 19835 19838 19841 19843 19845 19848 19851 19854 19857 19860 19863 19866 19869 19872 19875 19878 19881 19884 19887 19890 19893 19896 19899 19902 19905 19908 19910 19913 19916 19919 19922 19924 19927 19930 19933 19936 19939 19942 19945 19948 19951 19954 19957 19960 19963 19965 19968 19971 19973 19976 19979 19982 19985 19988 19991 19994 19997 20000 20003 20006 20009 20012 20015 20018 20021 20024 20027 20030 20033 20036 20039 20042 20045 20048 20051 20054 20057 20060 20063 20066 20069 20072 20075 20078 20081 20084 20087 20090 20093 20096 20099 20102 20105 20108 20111 20114 20117 20120 20123 20126 20129 20132 20135 20138 20141 20144 20147 20150 20153 20156 20159 20162 20165 20168 20171 20174 20177 20180 20183 20186 20189 20192 20195 20198 20201 20204 20207 20210 20213 20216 20219 20222 20225 20228 20231 20234 20237 20240 20243 20246 20249 20252 20255 20258 20261 20264 20267 20270 20273 20276 20279 20282 20285 20288 20291 20294 20297 20300 20303 20306 20309 20312 20315 20318 20321 20324 20327 20330 20333 20336 20339 20342 20345 20348 20351 20354 20357 20359 20362 20365 20368 20371 20374 20377 20380 20382 20385 20388 20391 20394 20397 20400 20403 20406 20409 20411 20414 20416 20419 20422 20425 20427 20430 20433 20435 20438 20441 20444 20447 20450 20453 20456 20459 20462 20465 20468 20471 20474 20477 20480 20483 20486 20489 20492 20495 20498 20501 20504 20507 20510 20513 20516 20519 20522 20525 20528 20531 20534 20537 20540 20543 20546 20548 20551 20554 20556 20558 20561 20564 20566 20569 20572 20574 20577 20580 20583 20585 20588 20591 20594 20597 20600 20603 20606 20609 20612 20614 20617 20620 20623 20626 20629 20632 20634 20637 20640 20643 20646 20649 20652 20655 20658 20661 20664 20667 20670 20673 20676 20679 20682 20685 20688 20691 20694 20697 20700 20703 20706 20709 20712 20715 20718 20721 20724 20727 20729 20732 20735 20738 20741 20744 20747 20750 20753 20756 20759 20762 20765 20768 20771 20774 20777 20780 20783 20786 20789 20792 20795 20798 20801 20804 20807 20810 20813 20816 20819 20822 20825 20828 20831 20834 20837 20840 20843 20846 20849 20852 20855 20858 20861 20864 20867 20869 20872 20874 20877 20880 20883 20886 20888 20891 20894 20897 20900 20902 20905 20908 20911 20914 20916 20919 20922 20925 20928 20931 20934 20937 20940 20942 20945 20948 20950 20953 20955 20958 20961 20964 20967 20969 20972 20975 20977 20979 20982 20985 20988 20991 20994 20997 20999 21002 21005 21008 21011 21014 21017 21020 21023 21026 21029 21031 21033 21036 21039 21042 21045 21048 21050 21053 21056 21058 21061 21064 21067 21070 21072 21075 21078 21080 21083 21086 21089 21092 21095 21098 21101 21104 21107 21110 21113 21116 21119 21122 21125 21128 21131 21134 21137 21140 21143 21146 21149 21152 21155 21158 21161 21164 21167 21169 21172 21174 21177 21180 21183 21186 21189 21192 21195 21198 21201 21204 21207 21210 21213 21215 21218 21221 21224 21227 21229 21231 21234 21237 21240 21243 21246 21249 21252 21255 21258 21261 21264 21267 21270 21273 21276 21279 21282 21285 21288 21291 21294 21297 21300 21303 21306 21309 21312 21315 21318 21321 21324 21327 21330 21333 21336 21339 21342 21345 21348 21351 21354 21357 21359 21362 21365 21368 21370 21373 21376 21379 21382 21385 21388 21391 21394 21397 21400 21403 21406 21409 21412 21415 21418 21421 21424 21427 21430 21432 21435 21438 21440 21443 21446 21449 21452 21455 21458 21461 21464 21467 21469 21472 21475 21478 21481 21484 21486 21489 21492 21495 21498 21501 21503 21506 21508 21511 21514 21517 21520 21523 21526 21529 21532 21535 21538 21541 21544 21547 21549 21552 21555 21558 21560 21562 21565 21568 21571 21574 21577 21580 21583 21586 21588 21591 21594 21596 21599 21602 21604 21606 21609 21612 21615 21618 21621 21623 21626 21629 21632 21635 21638 21641 21644 21646 21649 21652 21654 21656 21659 21662 21665 21668 21671 21674 21676 21678 21681 21684 21687 21689 21692 21695 21698 21701 21704 21707 21710 21712 21715 21718 21721 21724 21727 21730 21733 21736 21739 21742 21745 21748 21751 21754 21757 21760 21763 21766 21769 21772 21775 21778 21781 21784 21787 21790 21792 21795 21798 21801 21804 21807 21810 21813 21815 21818 21821 21824 21827 21830 21833 21836 21839 21842 21845 21848 21850 21853 21856 21859 21862 21865 21868 21871 21874 21876 21879 21882 21885 21888 21891 21894 21897 21900 21903 21906 21909 21912 21915 21918 21921 21924 21926 21929 21932 21935 21937 21940 21943 21946 21949 21952 21954 21957 21960 21963 21966 21969 21972 21975 21978 21981 21984 21987 21990 21993 21996 21998 22001 22004 22007 22010 22012 22015 22018 22020 22023 22026 22029 22032 22035 22037 22040 22043 22046 22049 22052 22055 22058 22061 22064 22067 22070 22073 22076 22079 22081 22084 22086 22089 22092 22095 22097 22100 22102 22105 22107 22110 22113 22116 22119 22122 22125 22127 22129 22132 22135 22138 22141 22144 22147 22149 22152 22154 22157 22160 22163 22166 22169 22172 22175 22178 22181 22184 22187 22190 22193 22196 22199 22202 22205 22207 22210 22213 22216 22218 22220 22223 22226 22229 22232 22235 22237 22240 22243 22245 22247 22250 22253 22256 22259 22262 22265 22268 22271 22274 22277 22280 22283 22286 22289 22292 22295 22298 22301 22304 22307 22310 22313 22316 22319 22322 22325 22328 22331 22334 22337 22340 22343 22346 22349 22352 22355 22358 22361 22364 22367 22370 22373 22376 22379 22381 22384 22387 22389 22391 22393 22396 22399 22402 22405 22408 22411 22413 22416 22419 22422 22425 22428 22431 22434 22437 22440 22442 22445 22448 22451 22453 22456 22459 22462 22465 22468 22471 22474 22477 22480 22483 22486 22489 22492 22495 22498 22501 22504 22507 22510 22513 22515 22518 22521 22524 22527 22529 22532 22535 22538 22541 22544 22547 22550 22553 22556 22559 22562 22565 22568 22571 22574 22577 22580 22583 22586 22589 22592 22595 22598 22601 22604 22607 22610 22613 22616 22619 22622 22625 22628 22631 22633 22636 22638 22641 22644 22647 22650 22653 22656 22659 22662 22664 22667 22670 22673 22675 22678 22680 22683 22686 22689 22692 22695 22698 22701 22704 22706 22709 22712 22715 22718 22720 22723 22726 22729 22732 22734 22737 22740 22743 22746 22749 22752 22755 22757 22760 22763 22766 22769 22771 22774 22777 22780 22783 22786 22789 22792 22795 22798 22801 22804 22807 22810 22813 22816 22819 22822 22825 22828 22831 22834 22837 22840 22843 22846 22849 22852 22855 22858 22861 22864 22867 22870 22873 22876 22879 22882 22885 22888 22891 22894 22897 22900 22903 22906 22909 22911 22914 22917 22920 22923 22925 22927 22930 22933 22935 22937 22940 22943 22946 22949 22952 22955 22958 22961 22964 22967 22970 22973 22976 22979 22982 22985 22988 22991 22994 22996 22999 23002 23005 23007 23009 23012 23015 23018 23021 23024 23027 23030 23033 23036 23039 23042 23045 23048 23051 23054 23057 23060 23063 23066 23069 23072 23075 23078 23081 23084 23087 23090 23092 23095 23098 23101 23104 23107 23110 23113 23115 23118 23121 23124 23127 23130 23133 23136 23139 23142 23145 23148 23151 23154 23157 23160 23162 23165 23168 23171 23174 23177 23180 23183 23186 23188 23191 23193 23195 23198 23201 23204 23207 23210 23213 23216 23219 23222 23225 23228 23231 23233 23236 23239 23242 23245 23248 23251 23254 23257 23260 23263 23266 23269 23272 23275 23278 23281 23284 23287 23289 23292 23295 23298 23300 23303 23306 23309 23312 23315 23318 23321 23324 23326 23329 23332 23335 23338 23341 23344 23347 23350 23353 23356 23359 23362 23365 23368 23371 23373 23376 23379 23382 23384 23387 23390 23393 23396 23399 23402 23405 23408 23411 23414 23417 23420 23423 23426 23429 23432 23435 23438 23441 23444 23447 23450 23453 23456 23459 23462 23465 23468 23471 23474 23477 23480 23483 23485 23488 23490 23493 23496 23499 23502 23505 23508 23511 23514 23516 23519 23522 23525 23528 23531 23534 23537 23540 23543 23545 23548 23551 23553 23556 23559 23562 23565 23568 23570 23573 23576 23579 23582 23584 23587 23590 23593 23596 23598 23601 23604 23607 23609 23612 23614 23617 23620 23622 23625 23628 23631 23634 23637 23640 23643 23646 23649 23652 23655 23658 23661 23664 23666 23669 23672 23674 23677 23679 23682 23685 23688 23690 23693 23696 23698 23701 23704 23707 23710 23712 23715 23717 23720 23723 23726 23729 23732 23735 23737 23740 23742 23745 23748 23751 23754 23757 23759 23762 23765 23768 23771 23773 23776 23779 23782 23785 23788 23791 23793 23796 23799 23802 23805 23808 23811 23814 23817 23820 23823 23826 23829 23832 23835 23838 23841 23844 23847 23850 23853 23856 23859 23862 23865 23868 23871 23874 23877 23880 23883 23886 23889 23892 23894 23896 23899 23902 23905 23908 23911 23914 23917 23920 23923 23926 23928 23931 23934 23936 23938 23941 23943 23946 23949 23952 23955 23958 23961 23964 23966 23969 23972 23975 23978 23981 23984 23987 23990 23993 23996 23999 24002 24004 24007 24010 24013 24016 24018 24021 24024 24027 24030 24033 24036 24039 24042 24045 24048 24051 24054 24056 24059 24062 24065 24068 24071 24074 24077 24080 24083 24086 24089 24092 24095 24098 24101 24104 24107 24109 24112 24115 24118 24121 24124 24126 24129 24132 24135 24137 24140 24143 24146 24149 24152 24155 24157 24160 24162 24165 24168 24171 24173 24176 24179 24182 24185 24188 24191 24194 24197 24200 24202 24205 24208 24210 24213 24216 24219 24222 24225 24228 24231 24233 24236 24239 24242 24245 24248 24251 24254 24257 24260 24263 24266 24269 24272 24274 24277 24280 24282 24285 24288 24291 24294 24297 24300 24302 24305 24308 24311 24314 24317 24320 24322 24325 24328 24331 24334 24337 24340 24343 24345 24348 24351 24354 24357 24360 24363 24366 24369 24372 24375 24378 24381 24384 24387 24390 24393 24396 24399 24402 24405 24408 24411 24413 24416 24419 24422 24425 24428 24431 24434 24437 24440 24443 24445 24448 24451 24454 24457 24459 24461 24464 24467 24470 24473 24475 24478 24481 24484 24487 24490 24493 24496 24499 24502 24504 24507 24510 24513 24516 24519 24522 24525 24528 24531 24534 24537 24539 24542 24545 24548 24550 24553 24556 24559 24561 24564 24567 24570 24573 24576 24579 24582 24585 24588 24591 24594 24597 24599 24602 24605 24608 24611 24614 24616 24619 24622 24624 24627 24630 24633 24636 24639 24642 24645 24648 24651 24654 24657 24660 24663 24666 24668 24671 24674 24677 24680 24683 24686 24689 24691 24694 24697 24700 24702 24705 24708 24711 24714 24717 24719 24722 24725 24728 24731 24734 24737 24740 24743 24746 24748 24751 24754 24757 24760 24763 24766 24769 24772 24774 24777 24780 24783 24786 24789 24791 24794 24797 24800 24803 24806 24809 24812 24814 24817 24820 24823 24826 24829 24832 24835 24838 24841 24844 24847 24850 24853 24856 24859 24862 24865 24868 24871 24874 24877 24880 24883 24886 24889 24892 24895 24898 24901 24904 24907 24910 24913 24916 24919 24922 24925 24928 24931 24934 24937 24940 24943 24946 24949 24952 24955 24958 24960 24963 24966 24969 24972 24975 24978 24981 24983 24986 24989 24992 24995 24998 25001 25004 25007 25010 25013 25016 25019 25022 25025 25028 25031 25034 25037 25040 25043 25046 25049 25051 25053 25056 25059 25061 25063 25066 25069 25072 25075 25078 25081 25084 25086 25089 25092 25095 25098 25101 25104 25107 25110 25113 25116 25119 25122 25125 25128 25130 25133 25136 25139 25142 25145 25148 25151 25154 25156 25159 25162 25164 25167 25170 25173 25175 25178 25181 25184 25187 25190 25193 25196 25199 25202 25205 25208 25211 25214 25217 25220 25223 25226 25229 25232 25235 25238 25241 25244 25247 25250 25253 25256 25259 25261 25264 25267 25270 25273 25276 25279 25282 25285 25287 25290 25293 25296 25299 25302 25305 25307 25309 25312 25315 25318 25321 25323 25326 25329 25331 25334 25337 25339 25342 25345 25348 25351 25354 25357 25359 25362 25365 25368 25371 25374 25377 25380 25383 25385 25388 25391 25394 25397 25400 25403 25406 25409 25412 25415 25418 25420 25423 25426 25428 25431 25434 25437 25440 25443 25446 25449 25451 25454 25457 25460 25462 25465 25467 25470 25472 25475 25478 25481 25484 25487 25490 25493 25496 25499 25502 25505 25508 25511 25514 25517 25520 25523 25525 25528 25530 25533 25536 25539 25542 25545 25548 25551 25554 25557 25560 25562 25565 25568 25571 25574 25577 25580 25583 25585 25588 25591 25594 25596 25599 25601 25603 25606 25609 25611 25614 25617 25620 25623 25625 25628 25631 25634 25636 25639 25642 25645 25647 25650 25652 25654 25657 25660 25663 25666 25669 25672 25674 25677 25680 25683 25686 25689 25692 25695 25698 25700 25702 25704 25707 25709 25712 25715 25717 25719 25722 25725 25727 25730 25733 25736 25739 25742 25745 25748 25751 25754 25757 25760 25762 25765 25768 25771 25774 25777 25780 25783 25786 25789 25792 25795 25798 25801 25803 25805 25808 25811 25814 25817 25819 25822 25825 25828 25830 25833 25836 25839 25842 25845 25847 25849 25852 25855 25858 25860 25863 25866 25869 25872 25875 25878 25881 25884 25887 25890 25893 25896 25899 25902 25905 25907 25910 25913 25916 25918 25921 25924 25927 25929 25932 25935 25938 25941 25944 25947 25949 25952 25955 25958 25961 25964 25966 25969 25972 25975 25978 25981 25984 25987 25990 25992 25995 25998 26001 26004 26007 26010 26013 26016 26019 26021 26024 26027 26030 26033 26035 26038 26040 26043 26046 26048 26051 26053 26056 26059 26062 26065 26068 26071 26073 26076 26078 26080 26083 26086 26089 26092 26095 26098 26101 26104 26106 26109 26111 26114 26116 26119 26121 26124 26127 26130 26133 26136 26139 26142 26145 26148 26151 26154 26156 26159 26162 26165 26167 26170 26173 26176 26179 26182 26185 26188 26191 26193 26196 26199 26202 26205 26208 26211 26214 26217 26220 26222 26225 26228 26231 26234 26236 26239 26242 26244 26247 26250 26253 26256 26259 26262 26265 26268 26271 26273 26276 26279 26282 26284 26287 26290 26293 26296 26299 26302 26305 26308 26311 26314 26317 26320 26323 26326 26329 26332 26335 26338 26341 26343 26346 26349 26352 26355 26358 26361 26364 26367 26370 26373 26375 26378 26381 26384 26387 26390 26393 26396 26399 26402 26405 26408 26411 26414 26417 26420 26423 26426 26429 26432 26435 26438 26441 26444 26447 26450 26453 26456 26459 26462 26465 26468 26471 26474 26477 26480 26483 26486 26489 26492 26495 26498 26501 26504 26507 26510 26512 26514 26517 26520 26523 26526 26529 26532 26535 26538 26541 26544 26547 26550 26553 26555 26557 26560 26563 26566 26568 26571 26574 26576 26579 26582 26585 26587 26590 26593 26596 26598 26601 26604 26607 26610 26613 26616 26619 26622 26624 26627 26630 26632 26635 26637 26639 26642 26645 26648 26651 26654 26657 26659 26662 26664 26666 26668 26671 26674 26676 26679 26682 26684 26686 26689 26692 26695 26698 26701 26704 26707 26710 26713 26716 26719 26722 26725 26728 26731 26734 26737 26740 26743 26746 26749 26751 26754 26757 26760 26763 26766 26769 26772 26775 26778 26780 26783 26786 26789 26792 26795 26798 26801 26803 26805 26808 26811 26814 26817 26820 26823 26826 26829 26832 26835 26838 26841 26844 26847 26850 26853 26856 26859 26862 26865 26868 26871 26874 26876 26879 26881 26884 26887 26890 26893 26896 26899 26902 26904 26907 26910 26913 26915 26917 26920 26923 26925 26928 26931 26934 26937 26939 26942 26945 26948 26950 26953 26956 26959 26961 26964 26967 26970 26973 26976 26979 26982 26985 26988 26990 26992 26995 26998 27001 27004 27007 27009 27012 27015 27017 27019 27021 27024 27027 27030 27033 27036 27038 27041 27044 27047 27050 27053 27056 27059 27062 27065 27067 27070 27072 27075 27078 27081 27084 27087 27090 27093 27096 27099 27102 27105 27108 27111 27114 27117 27120 27123 27126 27129 27132 27135 27138 27141 27144 27146 27149 27152 27155 27158 27160 27162 27165 27168 27171 27173 27176 27179 27182 27185 27188 27191 27194 27197 27200 27203 27206 27209 27212 27215 27218 27221 27223 27226 27229 27232 27234 27237 27240 27242 27245 27248 27251 27254 27257 27260 27263 27266 27269 27272 27275 27278 27281 27283 27286 27289 27291 27294 27297 27300 27302 27305 27307 27310 27312 27315 27317 27319 27321 27324 27327 27330 27333 27336 27339 27342 27345 27347 27350 27353 27356 27359 27362 27365 27368 27371 27373 27376 27379 27381 27384 27387 27390 27393 27396 27399 27402 27405 27408 27411 27414 27417 27420 27423 27426 27429 27432 27435 27438 27441 27444 27446 27449 27452 27455 27458 27461 27464 27467 27470 27473 27476 27478 27481 27483 27486 27489 27491 27494 27496 27499 27501 27504 27507 27509 27512 27514 27517 27520 27522 27525 27528 27531 27533 27536 27539 27542 27545 27548 27551 27554 27557 27560 27563 27566 27569 27572 27575 27578 27581 27584 27587 27590 27593 27596 27599 27602 27605 27608 27611 27614 27617 27620 27623 27626 27629 27632 27635 27638 27641 27644 27647 27650 27653 27656 27659 27662 27665 27668 27671 27674 27677 27680 27683 27686 27689 27692 27695 27698 27701 27704 27707 27710 27713 27716 27718 27721 27724 27726 27729 27732 27735 27738 27741 27744 27746 27748 27751 27754 27757 27760 27763 27766 27769 27772 27775 27778 27781 27784 27787 27790 27793 27796 27799 27802 27804 27807 27810 27813 27815 27818 27821 27824 27827 27830 27833 27836 27839 27842 27845 27848 27851 27854 27857 27860 27863 27865 27868 27871 27874 27877 27880 27883 27886 27888 27891 27894 27897 27900 27903 27906 27909 27912 27914 27917 27919 27922 27925 27928 27931 27934 27937 27940 27943 27946 27949 27952 27955 27958 27961 27964 27967 27969 27972 27975 27978 27981 27984 27987 27990 27992 27995 27998 28001 28004 28006 28009 28012 28015 28018 28021 28024 28027 28029 28032 28035 28037 28039 28042 28045 28047 28050 28053 28056 28059 28062 28065 28067 28070 28073 28076 28079 28082 28085 28088 28091 28094 28096 28099 28102 28104 28107 28110 28112 28115 28118 28120 28123 28126 28129 28132 28135 28137 28140 28143 28146 28149 28152 28155 28158 28161 28163 28166 28169 28172 28175 28178 28181 28184 28186 28189 28192 28195 28198 28201 28204 28207 28210 28213 28216 28219 28222 28224 28227 28230 28233 28236 28239 28242 28245 28247 28249 28252 28254 28257 28259 28262 28265 28268 28271 28274 28277 28280 28283 28286 28289 28292 28295 28298 28301 28304 28306 28309 28311 28314 28317 28320 28323 28326 28329 28332 28335 28337 28340 28342 28345 28347 28350 28352 28355 28357 28360 28363 28365 28368 28371 28374 28377 28380 28382 28385 28388 28391 28394 28397 28400 28403 28406 28408 28411 28414 28417 28420 28423 28425 28428 28431 28433 28436 28438 28440 28443 28446 28449 28452 28455 28458 28461 28464 28466 28469 28472 28475 28478 28481 28484 28487 28490 28493 28496 28499 28502 28505 28507 28510 28513 28516 28519 28522 28525 28528 28530 28533 28536 28539 28541 28544 28547 28550 28553 28556 28559 28562 28565 28568 28571 28574 28577 28580 28583 28586 28589 28592 28594 28597 28600 28603 28606 28609 28612 28615 28617 28620 28623 28625 28628 28631 28634 28637 28640 28643 28646 28649 28652 28655 28658 28661 28664 28667 28670 28672 28675 28678 28681 28684 28686 28689 28692 28695 28698 28701 28704 28707 28710 28713 28716 28719 28722 28725 28728 28731 28734 28737 28740 28743 28746 28749 28752 28755 28758 28761 28763 28766 28769 28772 28775 28778 28781 28783 28786 28789 28792 28795 28798 28801 28804 28807 28810 28812 28814 28817 28820 28823 28825 28828 28830 28833 28836 28839 28842 28845 28848 28851 28854 28857 28860 28863 28866 28869 28872 28875 28877 28880 28883 28886 28889 28892 28895 28898 28901 28904 28907 28910 28913 28915 28917 28920 28923 28926 28929 28932 28935 28938 28941 28943 28946 28949 28951 28954 28957 28959 28961 28964 28967 28970 28973 28976 28979 28982 28984 28987 28990 28993 28996 28999 29002 29005 29008 29011 29013 29016 29019 29022 29024 29027 29030 29033 29036 29039 29041 29044 29047 29050 29053 29056 29059 29062 29065 29068 29071 29074 29077 29079 29082 29085 29088 29090 29093 29096 29099 29101 29104 29107 29110 29113 29116 29119 29122 29125 29128 29131 29134 29137 29140 29143 29146 29149 29152 29155 29158 29161 29164 29167 29170 29173 29176 29179 29182 29185 29188 29191 29194 29197 29199 29202 29205 29208 29211 29214 29217 29220 29223 29226 29229 29232 29235 29238 29241 29244 29247 29250 29253 29256 29259 29262 29265 29268 29271 29273 29276 29278 29281 29284 29286 29289 29292 29295 29298 29301 29304 29307 29310 29313 29315 29318 29321 29324 29327 29330 29333 29336 29339 29342 29345 29348 29351 29354 29357 29359 29362 29365 29368 29371 29373 29376 29379 29382 29384 29387 29390 29393 29396 29399 29402 29405 29408 29411 29414 29417 29420 29423 29426 29429 29432 29435 29438 29441 29444 29447 29450 29453 29456 29459 29462 29465 29468 29471 29474 29477 29480 29483 29486 29489 29492 29495 29498 29501 29504 29507 29510 29513 29516 29519 29522 29525 29528 29531 29534 29537 29540 29543 29546 29549 29552 29555 29558 29561 29564 29567 29570 29573 29576 29579 29582 29585 29588 29591 29594 29597 29600 29603 29606 29609 29612 29615 29618 29621 29624 29627 29630 29633 29636 29639 29642 29645 29648 29651 29654 29657 29660 29663 29666 29669 29672 29675 29678 29681 29684 29687 29690 29693 29696 29699 29702 29705 29708 29711 29714 29717 29720 29723 29726 29729 29732 29735 29738 29741 29744 29747 29750 29753 29756 29759 29762 29765 29768 29771 29774 29777 29780 29783 29786 29789 29792 29795 29798 29801 29804 29807 29810 29813 29816 29819 29822 29825 29828 29831 29834 29837 29840 29843 29846 29849 29852 29855 29858 29861 29864 29867 29870 29873 29876 29879 29882 29885 29888 29891 29894 29897 29900 29903 29906 29909 29912 29915 29918 29921 29924 29927 29930 29933 29936 29939 29942 29945 29948 29951 29953 29956 29959 29962 29965 29968 29971 29974 29977 29980 29983 29986 29989 29992 29995 29998 30001 30003 30006 30009 30012 30015 30018 30021 30024 30027 30029 30032 30035 30038 30041 30043 30046 30049 30052 30055 30058 30061 30064 30067 30070 30073 30076 30079 30082 30085 30088 30091 30094 30097 30100 30103 30106 30109 30111 30114 30117 30120 30123 30126 30129 30132 30135 30138 30141 30144 30147 30150 30152 30154 30157 30160 30163 30166 30169 30171 30174 30176 30179 30182 30185 30188 30191 30194 30197 30200 30203 30206 30209 30211 30214 30217 30220 30223 30226 30229 30232 30234 30237 30240 30243 30246 30249 30252 30255 30258 30261 30264 30267 30270 30273 30276 30279 30281 30283 30286 30289 30292 30295 30298 30301 30304 30307 30310 30313 30316 30319 30321 30324 30327 30330 30333 30336 30339 30342 30345 30348 30351 30354 30357 30360 30363 30366 30369 30371 30374 30377 30380 30383 30386 30389 30392 30394 30397 30400 30403 30406 30409 30412 30415 30418 30421 30424 30426 30428 30431 30434 30437 30440 30443 30446 30449 30452 30455 30458 30461 30464 30467 30470 30473 30476 30479 30482 30485 30488 30491 30494 30497 30500 30503 30506 30509 30512 30515 30518 30520 30523 30526 30529 30532 30535 30537 30540 30543 30546 30549 30552 30555 30558 30561 30564 30567 30569 30572 30575 30578 30581 30583 30586 30589 30592 30595 30598 30601 30604 30607 30610 30613 30615 30618 30620 30623 30626 30629 30632 30635 30638 30641 30644 30647 30650 30653 30656 30659 30662 30665 30668 30671 30674 30677 30680 30683 30686 30689 30692 30695 30698 30701 30704 30707 30710 30713 30715 30718 30721 30724 30727 30730 30732 30735 30738 30741 30744 30747 30750 30753 30756 30759 30762 30765 30768 30771 30774 30777 30780 30783 30786 30788 30791 30794 30796 30799 30802 30805 30807 30810 30813 30816 30819 30822 30824 30827 30830 30833 30836 30839 30842 30845 30848 30851 30854 30856 30859 30862 30865 30868 30871 30874 30876 30879 30882 30885 30888 30891 30893 30895 30898 30901 30903 30906 30909 30911 30914 30917 30920 30923 30926 30929 30932 30935 30938 30941 30943 30946 30949 30951 30954 30957 30959 30962 30965 30967 30970 30973 30975 30978 30981 30983 30986 30989 30992 30995 30998 31001 31003 31006 31009 31012 31015 31018 31021 31024 31027 31030 31033 31036 31038 31041 31044 31047 31050 31053 31056 31059 31061 31064 31067 31070 31073 31075 31078 31081 31084 31086 31089 31092 31095 31098 31101 31104 31107 31110 31113 31116 31119 31121 31124 31127 31130 31133 31136 31139 31142 31145 31148 31151 31154 31157 31160 31163 31166 31169 31172 31175 31178 31181 31184 31187 31190 31193 31195 31198 31201 31204 31207 31210 31212 31215 31218 31221 31224 31227 31230 31233 31236 31239 31242 31245 31248 31251 31254 31256 31259 31262 31264 31267 31269 31272 31275 31278 31281 31283 31286 31288 31290 31293 31295 31298 31301 31304 31307 31310 31313 31316 31318 31321 31323 31326 31329 31332 31335 31338 31341 31343 31346 31349 31352 31355 31358 31361 31363 31366 31369 31372 31375 31377 31380 31383 31386 31389 31392 31394 31397 31400 31402 31405 31408 31411 31414 31416 31419 31422 31425 31428 31430 31433 31436 31439 31442 31445 31448 31450 31453 31456 31459 31462 31465 31468 31471 31474 31477 31479 31482 31485 31488 31491 31494 31497 31499 31502 31505 31508 31511 31513 31516 31519 31522 31525 31528 31531 31534 31537 31540 31543 31546 31549 31552 31555 31558 31561 31563 31566 31569 31572 31574 31577 31580 31582 31585 31588 31591 31594 31597 31600 31603 31606 31609 31612 31615 31618 31621 31624 31627 31630 31632 31635 31637 31640 31643 31646 31649 31652 31655 31658 31661 31664 31667 31670 31673 31676 31679 31682 31685 31688 31691 31694 31697 31700 31703 31706 31709 31712 31715 31717 31720 31723 31725 31728 31731 31734 31737 31740 31743 31746 31749 31752 31755 31757 31760 31763 31766 31769 31771 31774 31777 31780 31783 31785 31788 31791 31794 31797 31800 31803 31806 31809 31812 31814 31817 31820 31823 31826 31829 31832 31835 31838 31841 31844 31847 31850 31853 31856 31859 31862 31865 31868 31871 31874 31877 31880 31883 31886 31889 31892 31895 31898 
</DataArray>
<DataArray type="UInt32" Name="types" format="ascii">
5 5 5 5 5 3 5 5 5 5 5 5 5 3 5 5 5 5 3 5 5 3 5 5 5 5 3 5 5 5 5 3 5 5 5 5 5 5 5 5 5 5 5 5 5 3 5 5 3 5 5 5 5 5 3 5 5 5 5 5 5 5 3 5 5 5 5 3 5 5 5 5 5 5 5 5 5 3 5 5 3 5 5 3 5 5 5 5 3 5 5 5 5 5 5 5 3 3 3 5 5 3 5 5 5 5 5 3 5 5 5 5 5 5 5 5 5 5 5 5 5 3 5 5 5 3 5 5 5 5 5 5 3 5 5 5 5 5 5 5 5 5 5 5 5 5 5 5 5 5 5 5 5 5 5 5 5 5 3 5 5 5 3 5 5 3 5 5 5 5 5 5 5 5 5 5 5 3 5 5 5 5 5 5 5 5 3 5 5 5 5 5 5 5 5 3 5 5 5 5 5 5 5 5 5 3 5 5 5 5 5 5 5 5 5 5 5 5 5 5 5 5 5 5 5 5 5 5 5 3 5 5 5 3 5 3 5 3 5 5 3 5 5 5 3 5 3 5 3 5 3 3 5 3 5 5 3 5 3 5 5 5 3 5 3 3 5 5 3 5 5 5 3 5 3 3 3 5 3 5 5 5 3 5 3 3 3 5 5 3 3 5 5 5 5 3 5 3 5 5 3 5 5 5 3 5 3 3 3 5 5 5 3 5 3 3 3 3 5 5 5 3 3 5 5 3 3 3 5 3 5 5 5 5 3 5 5 5 5 5 5 5 3 5 5 5 5 5 5 3 3 5 5 5 3 5 5 5 3 5 3 5 3 3 5 5 5 5 3 5 5 3 5 5 5 5 3 5 3 5 5 5 5 5 3 3 5 5 5 5 5 5 5 5 3 5 5 5 3 5 5 3 5 3 5 5 5 5 5 5 5 5 5 5 5 3 5 3 5 3 5 5 5 3 5 3 5 3 5 5 5 5 5 5 3 5 3 5 5 5 3 5 5 5 3 5 3 3 5 5 5 5 3 5 5 5 5 3 3 5 5 3 5 3 5 3 3 5 5 5 3 5 5 5 5 3 5 5 5 5 5 5 5 5 5 5 5 3 5 5 5 5 3 5 5 5 3 5 3 3 3 5 5 5 3 3 5 3 5 5 3 5 5 5 5 3 5 5 5 5 5 5 5 5 5 5 5 3 3 5 5 3 5 5 5 3 5 5 5 5 5 5 3 5 5 5 3 5 5 5 3 5 5 5 5 5 5 5 5 5 5 5 3 5 5 5 3 5 5 5 5 5 5 5 3 5 5 5 5 5 3 5 5 5 5 5 5 5 5 5 5 5 5 5 5 5 5 5 5 5 3 5 5 5 5 3 5 5 3 5 5 5 5 5 5 5 3 5 5 5 5 5 5 5 5 3 5 3 5 5 3 5 5 5 3 5 5 3 5 5 5 3 5 3 5 5 3 5 3 5 5 5 5 5 5 5 5 5 5 5 5 5 5 5 5 5 5 5 5 5 5 3 5 3 5 3 5 5 5 5 5 5 5 5 5 5 5 5 5 5 5 3 5 5 5 5 5 5 5 5 5 3 5 5 5 5 5 5 5 5 5 5 5 5 5 5 5 5 5 5 5 5 5 5 5 5 5 5 5 5 5 3 5 5 3 5 5 5 3 3 5 3 5 5 5 5 5 3 5 5 5 5 5 3 5 5 5 5 5 5 5 5 5 5 5 5 5 5 5 5 5 5 5 5 5 5 5 5 5 5 5 5 5 5 5 5 5 5 5 5 5 5 5 5 5 5 5 5 5 5 5 5 5 3 5 5 5 5 5 5 5 5 5 5 5 5 5 5 5 3 5 5 5 5 3 5 5 5 5 5 5 5 5 5 5 5 5 5 5 5 5 5 5 5 5 5 5 5 5 5 5 5 3 5 5 3 5 3 3 3 3 5 5 3 5 5 5 5 5 5 5 5 5 5 5 5 5 5 5 5 5 3 5 5 3 5 3 5 5 5 5 3 5 3 5 5 5 5 3 5 5 5 3 5 5 5 5 5 3 5 3 5 5 3 3 5 3 5 5 5 5 5 5 5 5 5 5 5 3 5 5 5 3 5 5 5 3 5 5 3 3 3 5 5 5 5 5 5 5 5 5 5 5 3 5 5 5 5 5 5 5 5 3 3 3 5 5 5 5 5 5 5 5 3 3 5 5 5 3 5 5 3 5 5 5 5 5 5 5 5 5 5 5 3 5 5 5 5 5 5 5 5 3 5 5 5 5 5 5 5 5 5 5 3 5 3 3 3 5 5 5 5 5 5 5 3 3 5 3 5 5 5 5 5 3 5 3 3 5 5 5 3 5 3 5 5 5 5 3 5 5 5 5 5 5 5 5 5 5 5 5 5 5 5 5 5 3 5 5 5 3 5 5 5 5 5 3 5 5 5 5 5 5 3 5 3 5 5 5 5 5 5 5 5 3 5 5 5 3 5 5 5 5 5 5 5 5 5 5 5 5 5 5 5 5 5 5 5 5 5 5 5 5 5 3 3 3 5 5 5 5 3 5 5 5 5 3 5 5 5 5 5 5 5 3 5 5 5 5 5 5 5 5 3 5 5 5 5 5 5 5 5 5 5 5 5 3 5 5 5 5 5 5 3 5 5 5 5 5 5 5 5 3 5 5 5 3 5 5 5 5 5 5 5 5 5 5 5 5 3 5 5 5 5 5 5 5 5 5 5 5 5 5 5 5 5 5 5 5 5 5 5 5 5 5 5 5 5 5 5 5 5 5 5 5 5 5 5 5 5 5 5 5 5 5 5 5 3 5 5 5 5 5 5 5 5 5 5 5 5 5 5 5 5 5 5 5 5 5 5 5 5 3 5 5 5 5 5 5 5 5 5 5 3 5 5 3 5 5 5 5 5 5 5 5 5 3 5 3 5 5 5 5 3 5 5 3 5 3 5 5 5 5 5 3 5 5 5 5 5 5 5 5 3 5 5 5 5 5 5 5 5 5 5 5 5 5 5 3 5 3 3 5 5 5 5 5 3 5 5 5 5 5 5 5 5 5 5 5 5 5 5 5 3 5 5 5 5 5 5 5 5 5 5 5 5 5 5 5 5 3 5 5 5 5 5 3 3 5 5 3 5 5 5 5 5 5 5 5 5 5 3 5 5 5 5 5 5 5 5 5 3 5 3 5 5 5 5 5 3 5 5 5 5 3 5 5 5 3 5 5 5 3 5 5 3 5 5 5 5 5 5 5 5 5 5 5 5 5 5 5 5 3 5 5 5 5 5 5 5 3 5 5 5 5 5 5 5 5 5 5 5 5 5 5 5 5 5 5 5 5 5 5 5 5 5 5 5 3 5 5 5 5 3 5 5 5 3 5 5 5 5 5 5 5 5 5 3 5 3 5 5 5 5 5 5 5 5 5 5 5 5 5 5 5 5 5 5 3 3 5 5 5 3 5 5 3 5 5 3 5 5 5 3 5 5 3 5 5 5 5 5 5 5 5 5 5 5 5 5 5 5 5 5 5 5 5 3 5 3 5 5 5 5 5 5 5 5 5 5 5 3 5 3 5 5 5 3 5 5 5 5 5 3 5 5 5 5 5 5 3 5 5 5 5 5 5 5 5 5 5 5 3 5 5 5 5 5 5 5 5 3 5 5 5 3 5 5 3 5 5 5 5 5 3 5 5 5 5 5 5 5 5 5 3 5 5 3 5 3 5 3 3 3 5 3 5 5 5 5 5 5 3 5 5 5 5 5 5 3 5 5 5 5 5 5 5 3 5 5 5 5 3 5 5 5 5 5 3 5 3 5 5 5 5 5 5 5 5 5 5 3 5 5 5 5 5 5 5 3 5 5 5 5 5 5 5 3 5 3 5 5 5 5 5 5 5 5 3 5 5 5 3 3 5 5 5 5 5 3 3 5 3 5 5 3 5 5 3 5 5 5 5 5 5 5 5 3 5 5 5 5 5 3 5 5 5 5 3 5 5 3 5 5 5 5 5 5 5 5 5 5 5 5 5 5 5 5 5 5 5 5 5 5 5 5 5 5 5 5 5 5 5 5 5 5 5 5 5 5 5 5 5 3 5 5 3 5 5 5 5 5 3 5 5 5 5 3 5 5 5 5 5 5 5 5 5 5 5 5 5 5 5 5 5 5 5 5 5 5 5 5 3 5 5 5 3 5 5 5 5 5 5 3 5 5 5 5 5 5 5 5 5 5 5 3 5 3 3 5 5 3 5 5 5 5 5 5 5 5 5 5 5 3 5 5 3 5 5 5 5 5 5 5 5 5 5 5 5 5 5 5 3 5 5 5 5 5 5 5 3 5 3 5 5 5 5 3 5 3 5 5 5 5 5 5 5 5 5 3 5 5 5 5 5 5 5 5 5 5 5 5 5 5 5 5 5 3 5 5 5 5 5 5 5 5 5 5 5 5 5 5 5 5 5 5 5 5 5 5 5 5 5 3 3 5 5 5 5 5 5 5 5 5 5 5 3 5 5 5 5 3 5 5 5 5 3 5 5 5 5 5 5 5 5 3 5 5 5 5 5 5 5 5 5 3 5 5 5 5 5 5 5 5 5 5 5 5 5 5 5 5 5 5 5 5 3 5 5 5 5 5 5 5 5 5 5 5 5 5 5 3 5 3 5 5 5 5 5 5 5 5 3 5 5 3 5 5 5 5 5 5 5 5 5 5 5 5 5 5 5 5 5 5 5 5 5 5 5 5 5 5 5 5 5 5 5 5 5 5 5 5 3 5 5 3 5 5 5 5 3 5 3 5 5 3 5 3 5 5 5 5 5 3 5 5 5 5 5 5 5 5 5 5 5 5 3 5 5 5 3 5 5 5 5 5 5 5 5 5 3 5 5 5 5 3 3 5 5 5 5 5 5 5 5 3 5 5 5 5 5 3 5 5 5 3 5 5 5 3 5 5 5 5 3 5 5 5 5 5 5 5 5 5 5 5 5 5 5 3 5 5 5 5 5 5 3 5 3 3 5 3 5 3 5 5 5 5 3 5 5 5 5 3 5 5 5 5 5 5 5 5 5 3 5 5 5 5 5 5 5 5 5 5 5 5 5 5 3 5 5 5 3 5 5 5 3 5 3 5 5 5 5 5 5 5 5 5 5 5 5 5 5 5 5 3 5 5 5 5 5 5 3 5 5 5 5 5 5 5 5 5 5 5 5 5 5 5 5 5 5 3 5 5 5 5 5 5 5 5 5 5 5 5 5 5 5 5 5 5 5 5 5 5 5 5 5 5 5 5 5 5 5 5 5 5 3 5 5 5 5 3 5 5 5 5 5 5 5 3 5 5 5 5 5 5 5 5 5 3 5 5 3 5 5 5 5 5 3 5 5 5 3 5 5 3 5 5 5 5 5 5 5 5 5 5 5 5 5 5 5 5 5 5 5 5 3 5 5 5 5 5 5 5 5 5 5 3 3 5 3 5 5 5 5 5 3 5 5 5 5 3 5 5 5 5 5 3 5 3 5 5 3 5 5 5 5 5 5 5 5 3 5 5 5 5 5 5 3 5 5 5 5 5 5 3 5 5 5 5 3 5 5 3 5 3 5 5 3 5 5 5 5 5 5 3 5 5 5 5 3 5 5 5 5 5 5 5 5 3 3 5 5 5 5 5 5 5 5 3 5 5 5 5 5 5 3 5 5 5 5 5 5 5 3 5 5 5 3 5 5 5 5 5 5 5 5 5 5 5 5 3 5 5 5 5 3 5 5 3 5 5 5 5 3 5 5 5 3 3 5 5 5 3 5 5 5 3 5 5 5 5 5 5 5 5 5 3 5 5 5 3 5 5 5 5 5 5 5 5 5 5 5 5 3 5 3 5 5 3 5 5 3 5 5 5 5 5 5 5 3 5 5 5 5 5 3 5 3 5 5 5 3 3 5 3 3 5 3 5 5 5 5 5 5 3 5 3 5 5 5 5 5 5 5 5 5 5 5 5 5 3 5 5 3 5 3 5 5 3 5 5 5 3 3 5 5 3 5 5 5 5 5 5 5 5 5 5 5 5 5 5 5 5 5 5 5 5 5 5 5 3 3 5 3 5 3 5 5 3 3 5 5 3 5 5 3 5 5 3 5 3 5 5 5 5 3 5 5 5 5 3 5 3 3 5 3 5 5 3 3 5 5 5 3 5 5 5 5 3 3 5 5 5 5 5 3 5 5 5 5 5 5 5 5 5 5 5 3 5 3 5 3 5 5 3 5 3 5 5 5 5 5 5 5 5 3 5 5 3 5 5 5 5 3 5 5 5 5 5 5 5 5 5 5 5 5 3 5 5 5 5 5 5 5 5 5 5 5 3 5 5 5 5 5 5 3 5 3 5 5 3 5 5 5 5 5 5 5 5 5 5 5 5 5 5 5 5 5 3 3 5 5 5 3 5 5 3 5 5 5 5 5 5 5 5 5 5 5 5 5 5 5 5 5 5 5 5 5 5 5 5 5 3 3 5 5 5 5 5 5 5 5 5 5 5 3 5 5 5 5 5 5 5 5 5 5 5 5 5 5 5 5 5 5 5 5 5 5 5 5 5 5 5 5 5 5 5 5 5 3 5 5 5 5 5 3 5 5 3 5 5 3 3 5 5 5 5 5 5 5 5 5 5 5 5 5 3 5 5 3 5 5 5 5 5 5 3 5 5 3 5 5 5 5 5 5 5 5 5 5 5 5 5 3 5 5 5 5 5 5 5 3 5 5 5 5 5 5 5 5 5 5 5 5 3 5 5 3 5 5 5 5 5 5 5 5 5 5 5 5 5 5 5 5 5 5 5 5 3 5 5 3 5 3 5 5 5 3 5 5 3 5 3 5 5 5 3 5 5 5 5 3 5 5 5 5 5 5 5 3 5 5 5 3 5 5 5 5 5 5 5 5 5 5 5 5 3 5 5 5 5 5 5 5 5 3 5 5 5 5 5 5 5 5 5 5 5 3 5 5 5 5 5 5 5 5 5 5 5 5 5 5 5 5 5 5 5 3 3 5 5 5 3 5 5 5 5 5 5 5 5 5 5 5 5 3 5 5 5 5 5 5 5 5 5 3 5 5 5 5 5 5 5 5 5 5 5 5 5 5 5 5 3 5 3 5 5 5 5 5 3 5 5 5 5 3 5 5 5 3 5 5 5 3 5 5 5 5 5 5 5 5 5 3 5 5 5 3 5 5 3 5 5 5 5 5 5 3 5 5 5 5 5 5 5 5 3 5 5 5 3 5 5 5 5 5 5 5 5 5 5 5 5 5 5 5 5 5 5 5 5 5 5 5 5 5 5 5 3 5 5 5 5 5 5 5 3 5 5 5 5 5 5 5 5 5 5 5 5 5 5 5 5 5 5 5 5 5 5 5 5 5 3 5 3 5 5 5 5 5 5 3 5 5 5 3 5 5 3 5 5 5 5 5 5 5 5 5 5 5 5 3 5 5 5 5 5 3 5 5 5 5 5 5 5 5 5 5 5 5 5 3 5 5 5 3 5 5 5 5 5 5 5 5 5 5 5 5 3 3 5 5 5 5 3 5 5 5 5 5 5 5 5 5 3 3 5 5 5 5 5 3 5 5 5 5 5 3 5 5 5 5 5 3 5 3 5 5 5 5 3 5 3 5 3 3 5 5 5 5 5 5 5 3 3 5 5 5 5 5 5 3 3 3 5 3 3 5 5 5 3 5 5 5 5 5 3 3 3 5 3 5 5 5 3 5 3 3 5 5 5 5 5 5 5 3 3 5 5 3 3 3 5 5 5 5 5 5 5 5 5 5 5 5 5 5 5 5 5 5 5 5 5 5 5 5 5 5 5 5 5 5 5 5 5 5 5 5 5 5 5 5 3 5 5 5 5 5 5 5 5 5 5 3 5 5 5 5 5 5 3 5 5 3 5 5 5 5 5 5 5 5 5 5 5 5 5 3 5 3 5 5 5 5 3 5 5 5 3 5 5 3 5 5 5 3 5 5 3 5 5 5 5 5 3 5 5 5 5 5 5 5 3 5 5 5 5 5 5 5 3 5 5 3 5 5 5 5 3 5 3 5 5 5 5 5 3 5 5 5 5 3 5 5 5 5 5 5 3 3 5 5 5 5 5 3 5 5 3 5 5 5 5 5 5 5 5 5 5 3 5 5 5 5 5 5 5 5 5 5 5 5 5 5 5 5 5 5 3 5 5 5 5 5 5 3 5 5 5 5 5 5 5 3 3 5 5 5 5 3 5 5 5 5 5 5 5 3 5 5 3 5 3 3 3 5 5 5 5 5 5 3 5 5 5 5 5 3 5 5 5 5 3 5 5 5 3 5 5 5 3 5 5 5 5 5 5 5 5 5 5 5 5 5 5 5 5 5 5 5 5 5 5 5 5 5 3 5 5 5 5 5 5 5 3 5 3 5 5 5 5 5 5 3 5 5 3 5 5 5 3 5 5 3 5 5 5 5 5 3 5 5 5 3 3 5 5 5 5 5 5 5 5 5 5 5 5 3 5 5 5 5 5 5 5 5 5 3 5 5 5 5 5 3 3 5 5 5 5 5 5 5 5 5 3 5 5 5 5 5 5 5 5 3 5 5 5 5 5 5 5 5 5 5 5 5 5 5 5 5 5 5 3 5 5 5 5 3 5 3 5 3 5 5 5 5 5 5 5 5 5 5 5 5 5 5 5 5 5 3 5 5 5 5 5 3 5 5 5 3 3 5 5 5 5 5 3 5 5 5 5 3 5 5 5 5 5 5 5 5 3 5 5 5 5 5 5 5 3 5 5 5 5 5 5 5 5 5 3 5 5 5 5 5 5 5 5 5 5 5 5 5 5 5 5 5 5 3 5 5 5 5 5 5 5 5 5 5 5 5 5 3 5 5 5 5 5 5 3 5 5 3 5 5 3 5 5 5 5 5 5 5 5 5 5 5 5 5 5 5 5 5 5 5 5 5 5 5 5 5 5 3 5 3 5 3 3 5 5 5 3 5 5 5 5 5 5 5 5 5 3 3 5 3 5 5 5 5 5 5 5 5 5 5 5 5 5 5 3 5 3 3 5 3 5 5 5 5 5 5 5 5 5 3 3 5 5 5 5 5 5 5 5 5 5 5 5 5 5 5 5 5 5 5 5 5 5 3 5 5 5 5 5 3 5 5 5 5 5 3 5 5 5 3 5 5 5 5 5 5 5 5 5 3 5 5 5 5 3 5 5 5 5 5 5 3 5 5 5 5 5 5 5 3 5 5 5 5 3 5 5 5 5 5 5 5 5 5 5 3 5 5 5 5 3 5 5 5 3 5 5 5 5 5 3 5 5 5 5 5 5 5 5 5 5 5 5 5 5 3 3 5 5 3 5 5 5 5 5 5 5 3 5 5 5 5 5 5 3 5 5 5 5 5 5 5 5 5 5 5 5 5 5 5 5 5 5 5 5 5 5 5 3 5 5 5 5 5 5 5 5 3 5 5 5 5 3 5 5 5 5 5 3 5 3 5 3 5 5 5 5 5 5 5 3 5 5 5 3 5 5 5 5 5 3 5 5 5 5 5 3 5 3 5 5 3 5 3 5 5 5 5 5 3 5 5 5 3 5 5 5 5 5 5 5 5 5 5 3 5 5 5 5 5 5 5 5 5 5 5 5 5 5 5 5 5 5 5 5 5 5 3 5 5 5 5 5 5 5 5 5 5 5 5 5 5 5 5 5 5 3 5 5 5 3 5 5 5 5 5 5 3 5 5 5 3 3 5 3 5 3 3 5 3 5 5 3 5 5 3 3 5 5 5 5 5 5 5 5 3 5 3 5 5 5 5 5 5 5 5 5 5 5 5 5 5 5 5 5 5 5 5 5 5 3 5 5 5 5 5 5 5 5 3 5 5 3 5 5 3 3 5 5 3 5 5 5 5 5 5 5 5 5 5 5 5 5 5 5 5 5 5 5 5 5 5 5 5 5 5 5 5 5 5 5 5 5 5 5 5 5 5 5 3 5 3 5 5 5 5 5 5 5 5 5 5 5 5 5 5 5 5 5 5 5 5 5 5 5 5 5 5 5 5 5 5 5 5 5 5 5 5 5 5 5 5 3 5 5 3 5 5 5 5 5 3 5 3 5 5 3 5 5 5 5 5 5 3 5 5 5 5 5 5 5 5 5 5 5 3 5 5 3 3 5 3 5 5 3 5 5 5 5 3 5 5 5 5 5 5 5 5 5 3 5 3 5 5 5 5 5 5 5 3 5 3 5 5 5 5 5 5 5 5 5 3 5 3 5 5 5 5 5 5 5 5 5 5 3 5 5 5 3 5 5 3 5 5 3 5 5 5 5 3 5 5 5 3 5 5 5 5 5 5 5 5 5 5 5 5 5 5 3 5 5 5 5 5 5 3 5 3 5 3 5 5 5 3 5 5 5 5 5 5 5 5 3 5 5 5 5 5 3 5 5 3 5 5 5 5 5 5 5 5 5 3 5 5 5 3 5 5 5 5 5 5 3 5 5 5 5 5 5 5 5 5 5 5 5 5 5 5 5 5 5 5 5 5 5 5 5 5 5 5 5 5 5 5 3 5 5 5 5 5 3 5 5 3 3 5 5 5 5 3 5 5 5 5 5 3 5 5 5 5 5 5 5 5 5 5 5 5 5 5 5 5 3 5 5 5 5 5 5 5 5 3 3 5 5 5 5 5 5 3 5 5 5 5 3 5 5 5 5 5 5 5 5 5 5 5 5 5 5 5 5 5 5 5 5 5 5 5 5 3 5 5 3 5 5 5 5 5 5 5 5 5 5 5 5 5 5 5 5 5 5 5 5 5 5 5 5 5 5 5 3 5 3 5 5 5 5 5 3 5 5 5 5 5 5 5 5 5 5 5 5 5 5 5 5 5 5 5 5 3 3 5 3 5 5 5 5 5 5 5 5 5 5 5 5 5 5 5 5 3 5 5 5 3 5 5 5 5 5 5 5 5 5 5 5 5 5 3 5 5 5 5 5 5 5 5 5 5 5 5 5 5 5 5 5 5 5 5 5 5 3 5 5 5 5 5 5 5 5 5 5 5 5 5 3 5 3 5 5 3 3 5 5 5 5 5 5 5 5 5 5 5 5 5 5 5 5 5 5 5 5 3 5 5 3 5 5 5 3 5 5 5 5 5 5 3 5 5 5 3 5 5 5 5 5 5 5 5 3 5 5 3 5 5 3 5 3 5 5 5 5 3 3 5 5 3 3 5 5 3 5 5 5 5 3 5 5 3 3 5 3 5 5 5 5 5 5 5 5 5 5 5 5 5 5 5 5 5 5 5 5 3 5 5 5 5 3 5 5 5 5 3 3 5 5 5 5 5 5 5 5 5 5 5 5 3 5 5 5 3 5 5 5 5 5 5 5 3 5 5 5 3 5 5 3 3 5 5 5 3 5 5 5 3 5 5 5 5 5 5 5 5 5 5 5 5 5 5 5 5 5 5 3 5 5 5 5 5 5 5 5 5 5 5 5 5 5 5 5 5 5 3 3 5 5 5 5 5 3 3 5 3 5 5 5 5 5 5 5 5 5 3 5 5 5 3 5 5 5 5 5 5 5 5 5 5 5 5 5 5 3 5 5 5 5 5 5 5 3 5 5 3 5 5 5 5 5 5 3 5 5 5 5 3 5 5 5 5 5 5 3 5 5 5 5 5 5 5 5 3 3 5 5 5 3 3 5 5 5 5 5 3 5 5 5 5 5 5 3 5 5 5 5 3 5 5 5 5 5 3 5 5 5 5 3 5 5 5 5 5 5 5 5 5 5 5 5 5 5 5 5 5 5 5 5 5 5 5 5 5 3 5 5 5 5 3 5 3 5 3 5 5 3 5 5 3 5 5 3 5 5 5 5 5 5 3 5 5 3 5 3 3 3 5 5 3 5 3 3 5 5 5 3 5 3 5 5 5 5 5 5 3 5 5 5 3 5 5 5 5 5 5 5 3 5 5 5 3 5 3 3 5 5 5 5 5 5 5 3 5 5 5 5 5 5 5 5 3 3 5 5 5 5 3 5 5 3 5 5 5 3 5 5 5 3 3 5 5 5 5 3 5 5 5 5 5 3 3 5 5 5 5 5 5 5 5 5 5 5 5 5 5 5 5 5 5 5 5 5 5 5 5 5 5 5 5 5 5 5 3 5 5 5 3 5 5 5 5 5 5 5 5 5 5 5 5 5 5 5 3 5 3 3 5 5 3 5 5 5 5 5 5 5 5 5 5 5 5 5 5 5 5 5 5 5 5 5 5 5 3 5 5 3 3 5 5 5 5 5 5 5 3 5 5 5 3 5 5 5 5 3 3 5 5 5 5 5 5 5 3 5 5 5 5 3 5 5 5 5 3 5 5 5 5 5 5 5 5 5 5 5 5 5 5 5 5 5 5 5 3 5 5 5 5 5 5 5 5 5 5 5 5 5 5 5 5 3 5 5 5 3 5 5 5 5 5 5 5 5 5 3 5 5 5 5 5 5 5 5 5 5 5 5 5 5 5 5 5 5 5 5 5 3 5 5 5 5 5 5 5 5 5 5 5 5 5 5 5 5 5 3 5 5 5 5 5 3 5 5 5 5 5 5 5 5 5 5 5 5 5 5 5 5 5 5 5 5 5 5 5 5 5 5 5 3 5 5 3 5 5 5 3 5 5 5 5 5 5 5 5 5 5 5 5 5 5 5 3 5 3 5 5 5 5 5 5 5 5 5 3 5 5 5 5 5 5 5 5 5 3 3 5 5 5 5 5 5 5 5 5 5 5 5 5 5 5 5 5 5 5 5 5 5 5 5 5 5 5 5 5 5 5 5 5 5 5 5 5 5 5 5 5 5 5 5 5 5 5 5 5 5 5 5 5 5 5 5 5 5 5 5 5 5 5 5 5 5 5 5 5 5 5 3 5 5 5 5 5 5 3 5 5 5 5 5 5 5 5 5 3 5 3 5 5 5 5 5 5 5 5 5 5 5 5 5 5 5 5 5 5 5 5 5 5 5 5 5 5 5 5 5 5 5 5 5 5 3 5 5 5 3 3 5 5 5 5 5 5 5 5 5 5 5 5 5 5 5 5 5 5 5 5 5 5 3 3 5 5 5 5 5 5 5 5 3 5 5 5 5 5 5 3 5 5 5 5 5 3 5 5 5 5 3 5 5 5 3 5 5 5 3 5 5 3 5 5 5 5 5 5 5 5 5 5 5 5 5 3 5 5 5 5 5 5 5 5 3 5 5 5 5 5 5 5 5 5 5 5 3 5 5 5 3 5 5 5 5 3 5 5 5 5 5 5 5 5 3 5 3 5 5 3 5 5 5 5 5 3 5 5 5 5 5 5 5 5 5 5 5 5 3 5 5 5 5 5 5 5 5 5 3 5 5 5 5 5 5 3 5 5 5 5 5 5 5 3 5 5 5 5 5 3 5 5 5 5 5 5 5 5 5 5 5 5 5 5 5 5 5 5 5 5 5 5 5 5 5 5 5 5 5 5 5 5 5 5 5 5 5 5 5 5 5 5 5 5 5 5 5 3 5 3 5 5 5 5 5 5 5 5 5 5 5 5 5 5 3 5 5 5 5 5 5 5 5 5 5 5 5 5 5 5 3 5 5 3 5 3 5 5 5 5 5 3 5 5 5 5 5 5 5 5 5 5 5 5 5 5 5 5 5 5 5 5 3 5 5 5 5 5 5 5 5 5 5 5 3 5 3 5 5 3 5 3 5 5 5 5 5 5 5 3 5 3 5 5 5 5 3 5 5 5 5 3 3 5 5 3 5 5 5 5 5 5 5 5 5 5 5 5 5 5 5 5 3 5 5 5 5 5 5 5 5 5 5 5 5 5 5 3 5 3 5 5 5 5 5 5 5 3 5 3 5 5 5 5 5 5 5 5 5 3 3 5 5 5 3 5 5 5 5 3 5 3 5 5 3 5 3 3 3 5 5 3 5 5 5 3 3 3 5 5 5 5 5 5 5 5 5 5 5 3 5 5 5 5 5 5 3 5 5 5 3 5 5 5 5 5 5 5 5 3 5 5 5 3 5 5 5 5 5 5 5 5 5 5 5 5 5 5 5 5 5 5 5 5 5 5 5 5 5 5 5 5 5 5 5 5 5 5 5 5 5 5 5 5 5 5 5 5 5 5 5 5 5 5 5 5 5 5 5 5 5 5 5 5 3 5 5 5 5 5 3 5 5 5 5 3 5 5 5 3 5 5 5 5 5 5 5 5 5 5 5 5 5 5 5 5 5 5 5 5 5 5 5 5 5 5 5 5 5 5 5 5 5 5 5 5 5 5 5 5 3 5 5 3 5 5 5 5 5 5 5 3 5 5 5 5 5 5 5 5 5 5 5 3 5 5 3 5 3 5 5 5 3 5 5 5 5 5 5 5 5 3 5 5 5 5 3 5 5 5 5 3 5 3 5 5 5 5 5 5 5 5 5 5 5 5 3 5 3 5 5 5 5 5 5 5 5 5 5 5 5 5 3 5 5 5 5 5 5 5 5 5 3 5 5 5 3 5 5 5 5 5 5 5 5 5 5 5 5 5 5 5 5 5 5 5 5 5 5 5 5 5 5 5 5 5 5 5 5 5 5 5 3 5 5 3 5 5 5 5 3 5 5 5 5 5 5 5 5 5 5 5 5 5 5 5 3 5 5 5 5 5 5 5 5 5 3 5 3 5 5 5 5 5 5 5 3 5 5 5 5 5 5 5 5 5 5 5 5 5 5 3 5 5 5 5 5 5 5 5 5 5 5 3 5 5 5 5 5 5 5 5 5 5 5 5 5 5 5 5 5 5 5 5 5 5 5 3 5 3 5 5 5 5 5 5 3 5 3 5 5 5 3 5 5 5 3 5 5 5 3 5 5 3 5 5 5 5 5 5 5 3 5 5 5 5 5 5 5 3 5 5 5 5 5 5 5 5 5 5 5 5 5 3 5 5 5 5 5 5 5 5 3 5 5 5 5 5 5 5 5 5 5 5 5 5 5 5 5 5 5 5 5 3 5 5 5 5 5 5 5 5 5 5 5 5 5 5 5 5 5 5 5 5 5 5 5 5 5 5 5 5 5 5 5 5 5 5 5 5 5 5 5 5 5 5 5 5 5 5 5 5 5 5 3 5 3 5 5 5 3 5 5 3 3 5 3 5 5 5 5 5 5 5 5 5 5 5 5 5 5 5 5 5 5 5 5 5 5 5 5 5 5 5 5 5 5 5 5 5 5 5 3 5 5 5 5 3 5 5 3 5 5 5 3 5 5 5 5 3 5 3 3 5 5 5 5 3 5 5 5 3 5 5 5 3 5 5 5 5 5 5 3 5 5 5 5 5 5 5 5 5 5 5 5 5 5 5 5 5 5 5 5 3 5 5 5 5 5 5 5 5 5 5 5 5 5 5 5 5 5 5 3 5 5 3 5 5 3 5 5 5 5 5 5 5 5 5 5 5 3 5 5 5 5 3 5 5 5 5 3 5 5 5 3 5 5 5 5 5 5 5 5 5 5 5 5 5 5 5 5 5 5 5 5 5 5 5 5 5 3 5 5 5 5 5 5 5 5 3 5 5 5 3 5 5 5 5 5 5 5 5 5 5 5 5 5 5 5 5 5 5 5 5 5 5 5 5 3 5 5 5 3 5 5 5 5 5 5 5 5 3 5 5 3 5 5 5 5 3 5 5 5 5 5 5 5 3 5 3 5 5 3 5 5 3 3 5 5 5 5 5 5 5 5 5 5 5 5 5 5 5 5 5 5 5 5 5 3 5 5 5 5 3 5 5 5 5 5 5 5 5 5 5 5 5 5 3 5 5 3 5 5 5 5 5 5 5 5 5 5 5 5 5 5 5 5 5 5 5 5 5 5 5 5 5 5 5 5 5 5 5 5 5 5 5 5 5 5 5 5 5 5 5 5 5 5 5 5 5 5 5 5 5 5 5 5 5 5 5 5 5 5 5 5 5 5 5 5 5 5 5 5 5 5 5 5 5 5 5 5 5 5 5 5 5 5 5 5 5 5 5 5 5 5 5 5 5 5 5 5 5 5 5 5 5 5 5 5 5 5 5 5 5 5 5 5 5 5 5 5 5 5 5 5 5 5 5 5 3 5 5 5 5 5 5 5 3 5 5 5 5 5 5 5 5 5 3 5 3 5 5 5 3 5 5 3 5 5 5 5 5 5 5 5 5 5 5 5 5 5 5 5 5 5 5 5 5 5 5 5 5 5 5 5 5 5 5 5 5 5 5 5 5 3 5 5 3 3 5 5 3 5 5 3 5 5 5 3 5 5 5 5 5 5 5 5 5 3 5 5 5 5 5 5 3 5 5 5 5 5 5 5 5 5 5 5 5 5 5 5 5 5 5 5 5 5 5 5 5 5 5 5 5 5 5 5 3 5 5 5 5 5 5 5 5 5 5 5 5 5 5 5 5 5 5 5 5 5 5 5 5 5 5 5 5 5 5 5 5 5 5 5 5 5 5 5 5 5 5 5 5 5 5 3 5 3 5 5 5 5 3 5 5 5 5 3 5 5 5 5 3 5 5 5 5 5 5 5 5 3 5 5 3 5 3 5 5 5 5 3 5 5 3 3 5 5 5 5 5 5 3 5 5 5 5 5 5 5 5 5 5 3 3 5 5 5 5 5 3 5 5 3 5 5 5 5 3 5 5 3 5 5 5 5 5 5 5 5 5 5 5 5 5 5 5 5 5 5 5 5 5 5 5 5 5 5 5 5 5 3 5 3 5 5 5 5 5 5 5 5 5 5 5 5 5 3 5 5 5 5 3 3 5 5 5 5 5 5 5 5 5 5 5 5 5 5 5 5 5 5 5 5 5 5 5 5 5 5 5 5 5 5 5 5 5 5 5 5 5 5 5 5 5 5 3 5 5 5 3 5 5 5 5 5 5 5 5 5 5 5 5 5 5 5 5 5 5 5 5 3 5 5 3 5 5 5 5 5 5 5 5 5 3 5 5 5 5 5 3 5 5 5 5 5 3 5 3 5 5 5 5 5 5 5 5 5 5 5 5 5 3 5 5 5 3 3 5 5 5 5 5 5 5 5 3 5 5 3 5 5 3 3 5 5 5 5 5 3 5 5 5 5 5 5 5 3 5 5 3 3 5 5 5 5 5 5 3 3 5 5 5 3 5 5 5 5 5 5 5 3 5 5 5 5 5 5 5 5 5 5 5 5 5 5 5 5 5 5 5 5 5 5 5 5 5 5 3 5 5 5 5 5 5 5 3 5 5 5 5 5 5 5 5 5 5 5 3 5 5 5 5 5 5 5 5 3 5 5 5 5 5 5 5 5 5 5 5 5 5 5 5 5 3 5 5 5 3 5 5 5 5 5 3 5 5 5 5 5 5 5 5 5 5 5 5 5 5 3 5 5 5 5 3 5 5 3 5 5 5 5 5 3 5 5 5 5 5 5 5 5 5 5 5 5 5 5 3 5 3 5 5 5 3 5 3 5 3 5 5 5 5 5 5 3 3 5 5 5 5 5 5 3 5 3 5 5 5 5 5 5 5 5 5 5 5 5 5 5 5 5 5 3 5 5 5 3 3 5 5 5 5 5 3 5 5 3 3 5 5 5 5 5 5 5 5 5 5 5 5 5 5 5 5 5 5 5 5 5 5 5 5 5 5 5 5 5 5 5 5 5 5 5 5 5 5 5 5 5 5 5 5 3 5 5 3 3 3 5 5 5 5 5 5 3 5 5 5 5 5 5 5 5 5 3 5 5 5 3 5 5 5 5 5 5 5 5 5 5 5 5 5 5 5 5 5 5 5 5 3 5 5 5 5 3 5 5 5 5 5 5 5 5 5 5 5 5 5 5 5 5 5 5 5 5 5 5 5 5 5 5 5 5 5 5 5 5 5 5 3 5 3 5 5 5 5 5 5 5 5 3 5 5 5 3 5 3 5 5 5 5 5 5 5 5 3 5 5 5 5 3 5 5 5 5 3 5 5 5 5 5 5 5 3 5 5 5 5 3 5 5 5 5 5 5 5 5 5 5 5 5 5 5 5 5 5 5 5 5 5 5 5 5 5 5 5 5 5 5 5 5 5 5 5 5 5 5 5 5 5 5 5 5 5 5 3 5 5 5 5 3 3 5 5 3 3 5 5 5 5 5 5 5 5 5 5 5 5 5 5 5 5 5 5 5 3 5 5 5 3 3 5 5 5 5 5 5 5 5 5 5 5 5 5 5 5 5 5 5 5 5 5 5 5 5 5 5 5 3 5 5 5 5 5 5 5 3 5 5 5 5 5 5 5 5 5 5 5 5 5 5 5 3 5 5 5 5 5 5 5 5 3 5 3 3 5 5 5 5 5 5 5 5 5 5 5 5 3 5 5 5 5 5 5 5 5 5 5 5 5 5 5 5 5 5 5 3 5 5 5 3 5 5 5 5 5 5 5 5 3 5 5 5 5 5 5 5 5 5 5 5 5 5 5 5 3 5 5 5 3 5 5 5 5 5 5 5 5 5 5 5 5 5 5 5 5 5 5 5 5 5 5 5 5 5 5 5 5 5 5 5 5 5 3 5 3 5 5 5 5 5 5 5 5 3 5 5 5 5 5 5 5 5 5 3 5 5 3 5 5 5 5 5 3 5 5 5 5 3 5 5 5 5 3 5 5 5 3 5 3 5 5 3 5 5 5 5 5 5 5 5 5 5 5 5 5 5 3 5 5 3 5 3 5 5 5 3 5 5 3 5 5 5 5 3 5 3 5 5 5 5 5 5 3 5 3 5 5 5 5 5 3 5 5 5 5 3 5 5 5 5 5 5 3 5 5 5 5 5 5 5 5 5 5 5 5 5 5 5 5 5 5 5 5 5 5 5 5 5 5 5 5 5 5 5 5 5 3 3 5 5 5 5 5 5 5 5 5 5 3 5 5 3 3 5 3 5 5 5 5 5 5 5 3 5 5 5 5 5 5 5 5 5 5 5 5 3 5 5 5 5 3 5 5 5 5 5 5 5 5 5 5 5 5 3 5 5 5 5 5 5 5 5 5 5 5 5 5 5 5 5 5 3 5 5 5 5 5 3 5 5 5 3 5 5 5 5 5 5 3 5 3 5 5 5 3 5 5 5 5 5 5 5 5 5 3 5 5 3 5 5 5 5 5 5 5 3 5 5 5 5 5 5 5 5 5 5 5 5 5 3 5 5 3 5 5 5 5 5 5 3 5 5 5 5 5 5 3 5 5 5 5 5 5 5 3 5 5 5 5 5 5 5 5 5 5 5 5 5 5 5 5 5 5 5 5 5 5 3 5 5 5 5 5 5 5 5 5 5 3 5 5 5 5 3 3 5 5 5 5 3 5 5 5 5 5 5 5 5 5 3 5 5 5 5 5 5 5 5 5 5 5 3 5 5 5 3 5 5 5 3 5 5 5 5 5 5 5 5 5 5 5 5 3 5 5 5 5 5 3 5 5 3 5 5 5 5 5 5 5 5 5 5 5 5 5 5 3 5 5 5 5 5 5 5 3 5 5 5 3 5 5 5 5 5 3 5 5 5 5 5 5 5 5 5 3 5 5 5 5 5 5 5 5 3 5 5 5 5 5 3 5 5 5 5 5 5 5 3 5 5 5 5 5 5 5 5 5 5 5 5 5 5 5 5 5 5 5 5 5 5 5 5 5 5 5 5 5 5 5 5 5 5 5 5 5 5 5 5 5 5 5 5 5 5 5 5 3 5 5 5 5 5 5 5 3 5 5 5 5 5 5 5 5 5 5 5 5 5 5 5 5 5 5 5 5 5 5 3 3 5 5 3 3 5 5 5 5 5 5 5 3 5 5 5 5 5 5 5 5 5 5 5 5 5 5 3 5 5 5 5 5 5 5 5 3 5 5 3 5 5 5 3 5 5 5 5 5 5 5 5 5 5 5 5 5 5 5 5 5 5 5 5 5 5 5 5 5 5 5 5 3 5 5 5 5 5 5 5 5 3 5 5 5 5 5 5 3 3 5 5 5 5 3 5 5 3 5 5 3 5 5 5 5 5 5 3 5 5 5 5 5 5 5 5 3 5 5 5 5 5 5 5 5 5 5 5 3 5 5 3 5 5 5 5 5 5 5 3 5 5 5 3 5 3 5 3 5 5 5 5 5 5 5 5 5 5 5 5 5 5 5 5 5 3 5 3 5 5 5 5 5 5 5 5 5 5 3 5 5 5 5 5 5 5 3 5 5 5 3 5 3 3 5 5 3 5 5 5 5 3 5 5 5 3 5 5 5 3 5 3 3 5 5 5 5 5 5 3 5 5 5 5 5 5 5 5 3 3 3 5 3 5 5 3 3 5 5 3 5 5 5 5 5 5 5 5 5 5 5 3 5 5 5 5 5 5 5 5 5 5 5 5 5 3 3 5 5 5 5 3 5 5 5 3 5 5 5 5 5 3 3 5 5 5 3 5 5 5 5 5 5 5 5 5 5 5 5 5 5 5 3 5 5 5 3 5 5 5 3 5 5 5 5 5 5 3 5 5 5 5 5 3 5 5 5 5 5 5 5 5 3 5 5 5 5 5 5 5 5 5 3 5 5 5 5 3 5 3 5 5 3 5 3 5 5 5 5 5 5 3 5 3 3 5 5 5 5 5 5 5 5 3 5 3 5 3 5 3 5 5 5 5 5 5 5 5 5 5 5 3 5 5 5 3 5 5 5 5 5 5 5 5 3 5 5 5 5 5 5 5 5 5 3 5 5 5 5 3 5 5 3 5 5 5 5 5 5 5 5 5 3 5 5 5 3 5 5 5 5 5 5 5 5 5 5 5 5 5 5 5 5 5 5 5 3 5 5 5 5 5 5 5 5 5 5 3 5 5 5 5 5 5 5 5 5 5 5 5 5 5 5 5 5 5 5 5 5 5 5 5 5 5 5 5 5 5 5 5 5 5 5 5 5 5 5 5 5 5 5 5 5 3 3 5 5 5 5 5 5 5 5 5 5 5 5 5 3 3 5 5 5 3 5 5 3 5 5 5 3 5 5 5 3 5 5 5 5 5 5 5 5 3 5 5 3 5 3 3 5 5 5 5 5 5 3 5 3 3 3 5 5 3 5 5 3 3 5 5 5 5 5 5 5 5 5 5 5 5 5 5 5 5 5 5 5 5 5 3 5 5 5 5 5 5 5 5 5 3 5 5 5 5 5 5 5 3 3 5 5 5 5 5 5 5 5 5 5 5 5 5 5 5 5 5 5 5 5 5 5 5 3 5 3 5 5 5 5 5 5 5 3 5 5 5 3 3 5 5 3 5 5 5 5 3 5 5 5 3 5 5 5 3 5 5 5 5 5 5 5 5 5 3 3 5 5 5 5 5 3 5 5 3 3 3 5 5 5 5 5 3 5 5 5 5 5 5 5 5 5 3 5 3 5 5 5 5 5 5 5 5 5 5 5 5 5 5 5 5 5 5 5 5 5 5 5 5 3 5 5 5 5 3 3 5 5 5 3 5 5 5 5 5 5 5 5 5 5 5 5 5 5 5 5 3 5 5 5 3 5 5 3 5 5 5 5 5 5 5 5 5 5 5 5 5 3 5 5 3 5 5 5 3 5 3 5 3 5 3 3 3 5 5 5 5 5 5 5 5 3 5 5 5 5 5 5 5 5 3 5 5 3 5 5 5 5 5 5 5 5 5 5 5 5 5 5 5 5 5 5 5 5 5 3 5 5 5 5 5 5 5 5 5 5 3 5 3 5 5 3 5 3 5 3 5 5 3 5 3 5 5 3 5 5 5 3 5 5 5 5 5 5 5 5 5 5 5 5 5 5 5 5 5 5 5 5 5 5 5 5 5 5 5 5 5 5 5 5 5 5 5 5 5 5 5 5 5 5 5 5 5 5 5 5 5 5 5 5 5 5 5 5 5 5 5 5 5 3 5 5 3 5 5 5 5 5 5 3 3 5 5 5 5 5 5 5 5 5 5 5 5 5 5 5 5 5 5 3 5 5 5 3 5 5 5 5 5 5 5 5 5 5 5 5 5 5 5 5 3 5 5 5 5 5 5 5 3 5 5 5 5 5 5 5 5 3 5 3 5 5 5 5 5 5 5 5 5 5 5 5 5 5 5 5 3 5 5 5 5 5 5 5 3 5 5 5 5 3 5 5 5 5 5 5 5 3 5 5 3 3 5 5 3 5 5 5 5 5 5 3 5 5 5 5 5 5 5 5 5 3 5 5 3 5 5 3 5 5 3 5 5 5 5 5 3 5 5 5 5 5 5 5 5 3 5 5 5 5 5 5 5 3 5 5 5 5 5 5 5 5 5 5 5 5 3 5 5 5 5 5 5 5 3 3 5 3 5 3 5 5 5 5 5 5 5 5 5 5 5 5 5 5 5 3 5 3 5 5 5 5 5 5 5 5 3 5 3 5 3 5 3 5 3 5 5 3 5 5 5 5 5 3 5 5 5 5 5 5 5 5 3 5 5 5 5 5 3 5 5 3 5 3 3 5 5 5 5 5 5 5 5 3 5 5 5 5 5 5 5 5 5 5 5 5 5 3 5 5 5 5 5 5 5 3 5 5 5 3 5 5 5 5 5 5 5 5 5 5 5 5 5 5 5 5 5 3 5 5 5 5 5 5 5 3 5 5 3 5 5 5 5 5 5 5 5 5 5 5 5 5 5 5 3 5 5 5 5 3 5 5 5 5 5 5 5 5 5 5 5 5 5 5 5 5 5 5 5 5 5 5 5 5 5 3 5 5 5 5 5 5 3 5 5 5 5 5 5 5 5 5 3 3 5 5 5 3 5 3 5 5 5 5 5 5 5 5 5 5 5 5 5 5 5 3 5 5 5 5 5 5 5 5 5 5 5 5 3 3 5 5 5 5 5 5 5 5 3 5 5 3 5 5 3 3 5 5 5 5 5 5 5 3 5 5 5 5 5 5 5 5 5 3 5 5 5 3 5 5 5 5 5 3 5 5 5 5 5 5 5 5 5 5 5 5 3 5 5 5 3 5 5 5 3 5 5 5 5 5 5 5 5 5 5 5 5 5 5 5 5 5 5 5 5 5 5 5 5 5 5 5 5 5 5 5 5 3 5 5 5 5 5 5 5 5 5 5 5 5 5 5 5 5 5 5 5 5 5 5 5 5 3 5 3 5 5 3 5 5 5 5 5 5 5 5 5 3 5 5 5 5 5 5 5 5 5 5 5 5 5 5 3 5 5 5 5 3 5 5 5 3 5 5 5 5 5 5 5 5 5 5 5 5 5 5 5 5 5 5 5 5 5 5 5 5 5 5 5 5 5 5 5 5 5 5 5 5 5 5 5 5 5 5 5 5 5 5 5 5 5 5 5 5 5 5 5 5 5 5 5 5 5 5 5 5 5 5 5 5 5 5 5 5 5 5 5 5 5 5 5 5 5 5 5 5 5 5 5 5 5 5 5 5 5 5 5 5 5 5 5 5 5 5 5 5 5 5 5 5 5 5 5 5 5 5 5 5 5 5 5 5 5 5 5 5 5 5 5 5 5 5 5 5 5 5 5 5 5 5 5 5 5 5 5 5 5 5 5 5 5 5 5 5 5 5 5 5 5 5 5 5 5 5 5 5 5 5 5 5 5 5 5 5 5 5 5 5 5 5 5 5 5 5 5 5 5 5 5 5 5 3 5 5 5 5 5 5 5 5 5 5 5 5 5 5 5 5 3 5 5 5 5 5 5 5 5 3 5 5 5 5 3 5 5 5 5 5 5 5 5 5 5 5 5 5 5 5 5 5 5 5 5 5 5 3 5 5 5 5 5 5 5 5 5 5 5 5 5 3 3 5 5 5 5 5 3 5 3 5 5 5 5 5 5 5 5 5 5 5 3 5 5 5 5 5 5 5 3 5 5 5 5 5 5 5 5 5 5 5 5 5 5 5 3 3 5 5 5 5 5 5 5 5 5 5 5 5 3 5 5 5 5 5 5 5 5 5 5 5 5 5 5 5 5 3 5 5 5 5 5 5 5 3 5 5 5 5 5 5 5 5 5 5 3 3 5 5 5 5 5 5 5 5 5 5 5 5 5 5 5 5 5 5 5 5 5 5 5 5 5 5 5 5 5 5 3 5 5 5 5 5 3 5 5 5 5 5 5 5 5 5 5 3 5 5 5 5 3 5 5 5 5 5 5 5 5 5 5 3 5 3 5 5 5 5 5 5 5 5 5 5 5 5 5 5 5 5 5 5 5 5 5 5 5 5 5 5 5 5 5 5 5 3 5 5 5 5 5 3 5 5 5 5 5 5 5 5 5 5 5 5 5 5 5 5 5 5 3 5 5 3 5 5 5 3 5 5 5 5 5 3 5 5 5 5 5 5 5 5 5 5 3 5 5 5 5 5 5 3 5 5 5 5 5 3 3 5 5 3 5 5 3 5 5 5 5 5 5 5 5 5 5 3 5 5 3 5 5 3 5 5 3 5 5 3 5 5 3 5 5 5 5 5 5 3 5 5 5 5 5 5 5 5 5 5 5 3 5 5 5 5 5 5 5 3 5 5 5 5 3 5 5 5 3 5 5 5 5 5 5 5 5 5 5 5 3 5 5 5 5 5 5 5 5 5 5 5 5 5 5 5 5 5 5 5 5 5 5 5 5 3 5 5 5 5 5 3 5 5 5 5 5 5 5 5 5 5 5 5 5 5 3 5 5 3 5 3 5 5 5 5 3 5 3 3 5 3 5 5 5 5 5 5 5 3 5 3 5 5 5 5 5 5 3 5 5 5 5 5 5 3 5 5 5 5 3 5 5 5 5 5 3 5 5 3 5 5 5 5 3 5 5 5 5 3 5 5 5 5 5 5 3 5 5 5 5 5 5 5 5 5 3 5 5 5 5 5 5 3 5 5 5 5 3 5 5 5 5 5 5 5 5 5 5 5 5 5 5 5 5 3 5 5 5 3 5 5 3 5 5 5 5 5 5 5 5 5 5 5 5 5 5 5 5 3 5 3 5 5 5 5 5 5 5 5 5 5 5 5 5 5 5 5 5 5 5 5 5 5 5 5 5 5 3 5 5 3 5 5 5 5 5 5 5 5 5 5 3 5 5 5 5 3 5 5 5 5 3 5 5 5 5 5 5 5 5 5 3 5 5 5 5 5 5 5 5 5 5 5 5 5 5 5 5 5 5 5 5 5 5 5 5 5 5 5 5 
</DataArray>
</Cells>
<PointData Scalars="" Vectors="displacement," Tensors="">
<DataArray type="Float64" Name="displacement" NumberOfComponents="3" format="ascii">
-2.6705657589753741e-06 -0.05499497084297849 0 -0.00026763663131748453 -0.05142038478341443 0 5.6542397226226555e-06 -0.046358457432590226 0 -2.6705657589753741e-06 -0.05499497084297849 0 -0.00024648392431383899 -0.053744043342344922 0 -0.00026763663131748453 -0.05142038478341443 0 -2.6705657589753741e-06 -0.05499497084297849 0 -0.00024648392431383899 -0.053744043342344922 0 9.6055510053992884e-09 -0.054998656124491528 0 -0.00024648392431383899 -0.053744043342344922 0 9.6055510053992884e-09 -0.054998656124491528 0 -0.00013568759122291863 -0.053744410389177946 0 9.6055510053992884e-09 -0.054998656124491528 0 -0.00013568759122291863 -0.053744410389177946 0 -0.00010699488426388728 -0.054630766532892734 0 -0.00046942073790251238 -0.050374498293164392 0 1.8410353362694938e-05 -0.048942525151220599 0 -0.00013568759122291863 -0.053744410389177946 0 0.00061949656947962403 -0.053696615186355795 0 0.00066801704650576031 -0.054001837950249744 0 -0.00013568759122291863 -0.053744410389177946 0 0.00066801704650576031 -0.054001837950249744 0 0.00032773572858010597 -0.054347941342072943 0 -0.00024648392431383899 -0.053744043342344922 0 -0.00013568759122291863 -0.053744410389177946 0 -0.00026763663131748453 -0.05142038478341443 0 -0.00013568759122291863 -0.053744410389177946 0 -0.00026763663131748453 -0.05142038478341443 0 0.00097929993202596388 -0.052451649294700885 0 -0.00026763663131748453 -0.05142038478341443 0 0.0020811629269395083 -0.049695814803500583 0 0.00097929993202596388 -0.052451649294700885 0 -0.00026763663131748453 -0.05142038478341443 0 5.6542397226226555e-06 -0.046358457432590226 0 0.0020811629269395083 -0.049695814803500583 0 3.1119472619315686e-06 -0.046340884176202246 0 0.00047345844571556933 -0.042733691532586347 0 -1.3132272355749005e-06 -0.043327502874403831 0 1.9397793419485905e-06 -0.046343830552429008 0 0.00081742745902922524 -0.045514386271592815 0 -1.3132272355749005e-06 -0.043327502874403831 0 -0.00012478364813540497 -0.04162540657425335 0 -0.00026340520902528339 -0.040513807572354309 0 -1.3132272355749005e-06 -0.043327502874403831 0 -4.0045047763636378e-07 -0.040308987135311287 0 -0.00026340520902528339 -0.040513807572354309 0 0.00047345844571556933 -0.042733691532586347 0 -1.3132272355749005e-06 -0.043327502874403831 0 -0.00012478364813540497 -0.04162540657425335 0 0.00047345844571556933 -0.042733691532586347 0 -0.00012478364813540497 -0.04162540657425335 0 0.00020766395254949839 -0.041219602397479523 0 0.00081742745902922524 -0.045514386271592815 0 0.0012039383593011946 -0.043846082355890499 0 -0.00012478364813540497 -0.04162540657425335 0 -0.00032415269672283451 -0.040862471389881673 0 0.00020766395254949839 -0.041219602397479523 0 -0.00012478364813540497 -0.04162540657425335 0 -0.00032415269672283451 -0.040862471389881673 0 -0.00026340520902528339 -0.040513807572354309 0 0.00086547004693132235 -0.039826416744370825 0 0.0012039383593011946 -0.043846082355890499 0 0.0012656559503369949 -0.0320403232062757 0 0.00084665582710119231 -0.032464690537480016 0 0.00030182014775587503 -0.032256632522746867 0 0.0012656559503369949 -0.0320403232062757 0 0.00084665582710119231 -0.032464690537480016 0 0.0012940133574311651 -0.032536043419539896 0 0.00084665582710119231 -0.032464690537480016 0 0.00030182014775587503 -0.032256632522746867 0 0.00072184604648091249 -0.033015410604312109 0 0.00088164827947493523 -0.053811978166322466 0 0.00077863153429078729 -0.053947903273741556 0 0.00083645511506246417 -0.053886350682876297 0 0.0012039383593011946 -0.043846082355890499 0 0.0010445333439438255 -0.043378206610270469 0 0.00077863153429078729 -0.053947903273741556 0 0.00083645511506246417 -0.053886350682876297 0 0.00085422128447163001 -0.053940435280823533 0 0.00072184604648091249 -0.033015410604312109 0 0.0012940133574311651 -0.032536043419539896 0 0.0014290747923686323 -0.03303422571728195 0 0.00084665582710119231 -0.032464690537480016 0 0.00072184604648091249 -0.033015410604312109 0 0.0012940133574311651 -0.032536043419539896 0 0.00088164827947493523 -0.053811978166322466 0 0.00061949656947962403 -0.053696615186355795 0 0.00083645511506246417 -0.053886350682876297 0 0.0012039383593011946 -0.043846082355890499 0 1.8410353362694938e-05 -0.048942525151220599 0 0.0020811629269395083 -0.049695814803500583 0 0.003212052931255989 -0.051538355198720215 0 0.00097929993202596388 -0.052451649294700885 0 0.00083645511506246417 -0.053886350682876297 0 0.00066801704650576031 -0.054001837950249744 0 0.00084337824119312525 -0.05397828952777025 0 0.00083645511506246417 -0.053886350682876297 0 0.00084337824119312525 -0.05397828952777025 0 0.00085422128447163001 -0.053940435280823533 0 0.00061949656947962403 -0.053696615186355795 0 0.00083645511506246417 -0.053886350682876297 0 0.00066801704650576031 -0.054001837950249744 0 0.00066801704650576031 -0.054001837950249744 0 0.00063903794333100377 -0.054237997707721787 0 0.00032773572858010597 -0.054347941342072943 0 0.00063903794333100377 -0.054237997707721787 0 0.00057625496985573305 -0.054505252142373985 0 0.00032773572858010597 -0.054347941342072943 0 0.00063903794333100377 -0.054237997707721787 0 0.00075881004517393117 -0.054205059967823481 0 0.00074284041896369244 -0.054349176547664718 0 0.00063903794333100377 -0.054237997707721787 0 0.00078731689436384322 -0.054080810113067541 0 0.00075881004517393117 -0.054205059967823481 0 0.00066801704650576031 -0.054001837950249744 0 0.00063903794333100377 -0.054237997707721787 0 0.00078731689436384322 -0.054080810113067541 0 0.00066801704650576031 -0.054001837950249744 0 0.00084337824119312525 -0.05397828952777025 0 0.00078731689436384322 -0.054080810113067541 0 0.00084337824119312525 -0.05397828952777025 0 0.00078731689436384322 -0.054080810113067541 0 0.00093368162611269837 -0.054013027813380819 0 0.00084337824119312525 -0.05397828952777025 0 0.00093368162611269837 -0.054013027813380819 0 0.00085422128447163001 -0.053940435280823533 0 0.00093368162611269837 -0.054013027813380819 0 0.00085422128447163001 -0.053940435280823533 0 0.00086793813189721977 -0.053831667436289816 0 0.0020040758496676528 -0.052826689488070594 0 0.002024411988911914 -0.052680641924927489 0 0.00093368162611269837 -0.054013027813380819 0 0.0008689501995969084 -0.054156052432840787 0 0.0010451906564815734 -0.054440149459592115 0 0.00093368162611269837 -0.054013027813380819 0 0.0010213232921951947 -0.053746797624810987 0 0.00086793813189721977 -0.053831667436289816 0 0.0020237435479763719 -0.052753814576704458 0 0.002024411988911914 -0.052680641924927489 0 0.0008689501995969084 -0.054156052432840787 0 0.00074284041896369244 -0.054349176547664718 0 0.00096590702866481998 -0.05436394555850859 0 0.00078731689436384322 -0.054080810113067541 0 0.00075881004517393117 -0.054205059967823481 0 0.0008689501995969084 -0.054156052432840787 0 0.00078731689436384322 -0.054080810113067541 0 0.00093368162611269837 -0.054013027813380819 0 0.0008689501995969084 -0.054156052432840787 0 0.00075881004517393117 -0.054205059967823481 0 0.0008689501995969084 -0.054156052432840787 0 0.00074284041896369244 -0.054349176547664718 0 0.00074284041896369244 -0.054349176547664718 0 0.00096590702866481998 -0.05436394555850859 0 0.00077325848923867906 -0.054596507986780451 0 0.002024411988911914 -0.052680641924927489 0 0.0016836617501489583 -0.052357963458494292 0 0.00096590702866481998 -0.05436394555850859 0 0.00077325848923867906 -0.054596507986780451 0 0.0010014886270848034 -0.054845166628967032 0 0.00077325848923867906 -0.054596507986780451 0 0.00057625496985573305 -0.054505252142373985 0 0.00059902365836726453 -0.054881473821852864 0 0.00057625496985573305 -0.054505252142373985 0 0.00059902365836726453 -0.054881473821852864 0 0.00031973801546606199 -0.054620343672394489 0 0.00074284041896369244 -0.054349176547664718 0 0.00077325848923867906 -0.054596507986780451 0 0.00057625496985573305 -0.054505252142373985 0 0.00063903794333100377 -0.054237997707721787 0 0.00074284041896369244 -0.054349176547664718 0 0.00057625496985573305 -0.054505252142373985 0 0.00077863153429078729 -0.053947903273741556 0 0.00043909899696935691 -0.053738028805096739 0 0.00073476824508918247 -0.053806412755388916 0 0.00072184604648091249 -0.033015410604312109 0 0.0011256722432937108 -0.033803263698621189 0 0.0014290747923686323 -0.03303422571728195 0 0.0010445333439438255 -0.043378206610270469 0 0.0011395668615376909 -0.04309220700510713 0 0.00043909899696935691 -0.053738028805096739 0 0.00073476824508918247 -0.053806412755388916 0 0.00060775982935659515 -0.053608015247228573 0 0.00077863153429078729 -0.053947903273741556 0 0.00073476824508918247 -0.053806412755388916 0 0.00085422128447163001 -0.053940435280823533 0 0.00073476824508918247 -0.053806412755388916 0 0.00085422128447163001 -0.053940435280823533 0 0.00086793813189721977 -0.053831667436289816 0 0.0010213232921951947 -0.053746797624810987 0 0.00080335265362907612 -0.053558393358290268 0 0.00087255707821787959 -0.053164204636232906 0 0.002024411988911914 -0.052680641924927489 0 0.0021254339903101411 -0.050992231682696142 0 0.00073476824508918247 -0.053806412755388916 0 0.00086793813189721977 -0.053831667436289816 0 0.00080335265362907612 -0.053558393358290268 0 0.0010213232921951947 -0.053746797624810987 0 0.00086793813189721977 -0.053831667436289816 0 0.00080335265362907612 -0.053558393358290268 0 0.00073476824508918247 -0.053806412755388916 0 0.00080335265362907612 -0.053558393358290268 0 0.00060775982935659515 -0.053608015247228573 0 0.00080335265362907612 -0.053558393358290268 0 0.00060775982935659515 -0.053608015247228573 0 0.00044602263536369587 -0.053313572946767383 0 0.00043909899696935691 -0.053738028805096739 0 0.00044602263536369587 -0.053313572946767383 0 0.00014368322275146276 -0.053288560628020627 0 0.00043909899696935691 -0.053738028805096739 0 0.00060775982935659515 -0.053608015247228573 0 0.00044602263536369587 -0.053313572946767383 0 0.00044602263536369587 -0.053313572946767383 0 0.00053464745017140543 -0.05297460308320287 0 0.00087255707821787959 -0.053164204636232906 0 0.00044602263536369587 -0.053313572946767383 0 0.00053464745017140543 -0.05297460308320287 0 0.00023732001121338044 -0.052915978444544667 0 0.00080335265362907612 -0.053558393358290268 0 0.00044602263536369587 -0.053313572946767383 0 0.00087255707821787959 -0.053164204636232906 0 0.0021254339903101411 -0.050992231682696142 0 0.001953802633969829 -0.047541464896908955 0 0.0020231407954584167 -0.050869732786968547 0 0.0024003028365431485 -0.049498871388675487 0 0.0012539971357930059 -0.049511948898028332 0 0.0020231407954584167 -0.050869732786968547 0 0.0024003028365431485 -0.049498871388675487 0 0.0025974533303418845 -0.050862617125068857 0 0.0011626135222543002 -0.050927044444571856 0 0.001953802633969829 -0.047541464896908955 0 0.00057395298790954992 -0.052489897682741864 0 0.00023732001121338044 -0.052915978444544667 0 7.5359292783140581e-05 -0.052471294434517972 0 0.00053464745017140543 -0.05297460308320287 0 0.00057395298790954992 -0.052489897682741864 0 0.00023732001121338044 -0.052915978444544667 0 0.001953802633969829 -0.047541464896908955 0 0.0013563566055161973 -0.044565377932448184 0 0.00053464745017140543 -0.05297460308320287 0 0.00087255707821787959 -0.053164204636232906 0 0.00057395298790954992 -0.052489897682741864 0 0.0027931901933596457 -0.052228847285714017 0 0.0020231407954584167 -0.050869732786968547 0 0.0025974533303418845 -0.050862617125068857 0 0.00077325848923867906 -0.054596507986780451 0 0.00059902365836726453 -0.054881473821852864 0 0.0010014886270848034 -0.054845166628967032 0 0.0010560505371068271 -0.055266146451468157 0 0.00059902365836726453 -0.054881473821852864 0 0.0010014886270848034 -0.054845166628967032 0 0.0011626135222543002 -0.050927044444571856 0 0.0016836617501489583 -0.052357963458494292 0 0.0010560505371068271 -0.055266146451468157 0 0.00059902365836726453 -0.054881473821852864 0 0.00047747943614937795 -0.05527293703984764 0 0.00059902365836726453 -0.054881473821852864 0 0.00027380130682701454 -0.054939321525812303 0 0.00047747943614937795 -0.05527293703984764 0 0.00027380130682701454 -0.054939321525812303 0 -6.6819705014296981e-05 -0.05527496497471663 0 0.00047747943614937795 -0.05527293703984764 0 0.00059902365836726453 -0.054881473821852864 0 0.00027380130682701454 -0.054939321525812303 0 0.00031973801546606199 -0.054620343672394489 0 0.00027380130682701454 -0.054939321525812303 0 8.0247418157096507e-05 -0.054749623596858657 0 0.00031973801546606199 -0.054620343672394489 0 7.4985119298002237e-05 -0.054794652942386474 0 -3.3856115536548159e-05 -0.054924456570205935 0 -3.4851308134578558e-05 -0.054745834008782572 0 8.1266634146241795e-06 -0.054991070277262806 0 6.5647638098664805e-06 -0.054995896566118502 0 1.4601429776716376e-06 -0.054995937353447363 0 0.00010519510008616518 -0.054832423799586846 0 9.4834816435404438e-06 -0.054941301728159364 0 0.00010519510008616518 -0.054832423799586846 0 0.00010528077877843042 -0.054831731737484082 0 0.00010519510008616518 -0.054832423799586846 0 0.0001147890641053112 -0.054762449303087352 0 0.00027380130682701454 -0.054939321525812303 0 8.0247418157096507e-05 -0.054749623596858657 0 6.5305306448808738e-06 -0.055009351899491313 0 0.00027380130682701454 -0.054939321525812303 0 6.5305306448808738e-06 -0.055009351899491313 0 -6.6819705014296981e-05 -0.05527496497471663 0 0.0001147890641053112 -0.054762449303087352 0 0.00019141995071560991 -0.054476395290248093 0 6.5647638098664805e-06 -0.054995896566118502 0 3.3139234503719376e-06 -0.054997383731751164 0 5.1715296751952332e-06 -0.054999534515865291 0 3.3139234503719376e-06 -0.054997383731751164 0 1.4601429776716376e-06 -0.054995937353447363 0 1.1388035627579541e-06 -0.054999402887485845 0 1.4601429776716376e-06 -0.054995937353447363 0 5.6417894814077032e-07 -0.054999586556586287 0 1.1388035627579541e-06 -0.054999402887485845 0 3.3139234503719376e-06 -0.054997383731751164 0 1.1388035627579541e-06 -0.054999402887485845 0 5.1715296751952332e-06 -0.054999534515865291 0 6.5647638098664805e-06 -0.054995896566118502 0 3.3139234503719376e-06 -0.054997383731751164 0 1.4601429776716376e-06 -0.054995937353447363 0 -3.9390032859449809e-08 -0.054999911553296664 0 9.4834816435404438e-06 -0.054941301728159364 0 -2.3881708743977446e-09 -0.054999996365308459 0 1.4601429776716376e-06 -0.054995937353447363 0 5.6417894814077032e-07 -0.054999586556586287 0 8.9341397037218194e-08 -0.054999974666965629 0 -3.3856115536548159e-05 -0.054924456570205935 0 -2.2134708434003269e-07 -0.054999812931366847 0 -3.3856115536548159e-05 -0.054924456570205935 0 -3.4851308134578558e-05 -0.054745834008782572 0 -2.2134708434003269e-07 -0.054999812931366847 0 -3.4851308134578558e-05 -0.054745834008782572 0 -2.2134708434003269e-07 -0.054999812931366847 0 -0.00010699488426388728 -0.054630766532892734 0 9.6055510053992884e-09 -0.054998656124491528 0 -2.2134708434003269e-07 -0.054999812931366847 0 -0.00010699488426388728 -0.054630766532892734 0 -3.4851308134578558e-05 -0.054745834008782572 0 -0.00010699488426388728 -0.054630766532892734 0 3.1465538336840979e-06 -0.054455956740021537 0 -0.00013568759122291863 -0.053744410389177946 0 -0.00010699488426388728 -0.054630766532892734 0 3.1465538336840979e-06 -0.054455956740021537 0 -0.00013568759122291863 -0.053744410389177946 0 3.1465538336840979e-06 -0.054455956740021537 0 0.00032773572858010597 -0.054347941342072943 0 3.1465538336840979e-06 -0.054455956740021537 0 0.00032773572858010597 -0.054347941342072943 0 0.00012592866357573075 -0.054590945119249765 0 0.00032773572858010597 -0.054347941342072943 0 0.00031973801546606199 -0.054620343672394489 0 0.00012592866357573075 -0.054590945119249765 0 0.00057625496985573305 -0.054505252142373985 0 0.00032773572858010597 -0.054347941342072943 0 0.00031973801546606199 -0.054620343672394489 0 7.5996606386615883e-05 -0.05481570750784124 0 0.00031973801546606199 -0.054620343672394489 0 8.6928496147402017e-05 -0.054763238902243612 0 0.00031973801546606199 -0.054620343672394489 0 8.6928496147402017e-05 -0.054763238902243612 0 0.00012592866357573075 -0.054590945119249765 0 0.00010519510008616518 -0.054832423799586846 0 0.00015046909642541239 -0.054799658602024258 0 -3.4851308134578558e-05 -0.054745834008782572 0 8.6928496147402017e-05 -0.054763238902243612 0 0.00012592866357573075 -0.054590945119249765 0 7.4985119298002237e-05 -0.054794652942386474 0 -3.4851308134578558e-05 -0.054745834008782572 0 8.6928496147402017e-05 -0.054763238902243612 0 -3.4851308134578558e-05 -0.054745834008782572 0 3.1465538336840979e-06 -0.054455956740021537 0 0.00012592866357573075 -0.054590945119249765 0 0.0017891757422844946 -0.028314029323886897 0 0.0025318493970523052 -0.026931245175305894 0 0.00079350001811621267 -0.027599305335570219 0 0.00094263861327043951 -0.026722745600582909 0 0.00052798866903475497 -0.027312300159484496 0 -0.00018940415170901073 -0.030788426573002087 0 0.00023080693840406448 -0.03072119963456222 0 0.00012299874867458343 -0.030921452457323296 0 -0.00018940415170901073 -0.030788426573002087 0 -0.00011065198864174748 -0.030837109705811806 0 0.00012299874867458343 -0.030921452457323296 0 -0.00018940415170901073 -0.030788426573002087 0 -0.00010883338828727629 -0.03068717992625037 0 -0.00011065198864174748 -0.030837109705811806 0 -0.00018940415170901073 -0.030788426573002087 0 -0.00017532524717615549 -0.030357266069526687 0 -0.00028386521667794274 -0.030895858872675583 0 -0.00018940415170901073 -0.030788426573002087 0 -0.00017532524717615549 -0.030357266069526687 0 0.00023080693840406448 -0.03072119963456222 0 0.0017891757422844946 -0.028314029323886897 0 0.0015416057582937149 -0.028565561980890483 0 -0.00017532524717615549 -0.030357266069526687 0 0.00023080693840406448 -0.03072119963456222 0 0.00022461191366217862 -0.029081951562014954 0 0.00079350001811621267 -0.027599305335570219 0 0.00022461191366217862 -0.029081951562014954 0 8.4622017619242332e-05 -0.028004013749790058 0 0.00022461191366217862 -0.029081951562014954 0 -6.4376373309949781e-07 -0.028236361293318545 0 -0.00019255381926973467 -0.030276316794079581 0 0.00022461191366217862 -0.029081951562014954 0 -6.4376373309949781e-07 -0.028236361293318545 0 -3.417699792731412e-05 -0.027603769585877021 0 -6.4376373309949781e-07 -0.028236361293318545 0 -0.00019255381926973467 -0.030276316794079581 0 -5.6941980333802623e-07 -0.03125488353848907 0 -0.00017532524717615549 -0.030357266069526687 0 0.00022461191366217862 -0.029081951562014954 0 -0.00019255381926973467 -0.030276316794079581 0 -0.00017532524717615549 -0.030357266069526687 0 -0.00019255381926973467 -0.030276316794079581 0 -0.00028386521667794274 -0.030895858872675583 0 -0.00028386521667794274 -0.030895858872675583 0 -0.00011934360249464131 -0.0318542101471447 0 -3.5494004482877302e-05 -0.03166373921846756 0 -0.00019255381926973467 -0.030276316794079581 0 -0.00028386521667794274 -0.030895858872675583 0 -0.00011934360249464131 -0.0318542101471447 0 -5.6941980333802623e-07 -0.03125488353848907 0 -0.00011934360249464131 -0.0318542101471447 0 7.2107439498478098e-07 -0.034272827735902643 0 -0.00019255381926973467 -0.030276316794079581 0 -5.6941980333802623e-07 -0.03125488353848907 0 -0.00011934360249464131 -0.0318542101471447 0 -0.00011934360249464131 -0.0318542101471447 0 7.2107439498478098e-07 -0.034272827735902643 0 0.00023275515578267912 -0.033074148326930647 0 0.00023275515578267912 -0.033074148326930647 0 -3.5494004482877302e-05 -0.03166373921846756 0 0.00086355229851887397 -0.03203637305990939 0 -0.00011934360249464131 -0.0318542101471447 0 0.00023275515578267912 -0.033074148326930647 0 -3.5494004482877302e-05 -0.03166373921846756 0 -3.5494004482877302e-05 -0.03166373921846756 0 0.00040542487020100792 -0.031302153949721953 0 0.00086355229851887397 -0.03203637305990939 0 0.00040542487020100792 -0.031302153949721953 0 0.00028909276982809593 -0.03079293631499834 0 0.0007719934004471841 -0.030991741426761053 0 0.00040542487020100792 -0.031302153949721953 0 -0.00012300011680415715 -0.030981595380354828 0 0.00028909276982809593 -0.03079293631499834 0 -3.5494004482877302e-05 -0.03166373921846756 0 0.00040542487020100792 -0.031302153949721953 0 -0.00012300011680415715 -0.030981595380354828 0 -0.00018940415170901073 -0.030788426573002087 0 -0.00028386521667794274 -0.030895858872675583 0 -0.00012300011680415715 -0.030981595380354828 0 -0.00028386521667794274 -0.030895858872675583 0 -3.5494004482877302e-05 -0.03166373921846756 0 -0.00012300011680415715 -0.030981595380354828 0 -0.00018940415170901073 -0.030788426573002087 0 -0.00012300011680415715 -0.030981595380354828 0 -0.00010883338828727629 -0.03068717992625037 0 -0.00012300011680415715 -0.030981595380354828 0 -0.00010883338828727629 -0.03068717992625037 0 0.00028909276982809593 -0.03079293631499834 0 -0.00010883338828727629 -0.03068717992625037 0 0.00028909276982809593 -0.03079293631499834 0 0.00035455762735371891 -0.030346846474103826 0 0.00028909276982809593 -0.03079293631499834 0 0.00094854710991370682 -0.030485075970453877 0 0.00035455762735371891 -0.030346846474103826 0 0.00028909276982809593 -0.03079293631499834 0 0.0007719934004471841 -0.030991741426761053 0 0.00094854710991370682 -0.030485075970453877 0 0.0020373253519525331 -0.03021671026299699 0 0.0019921586015284724 -0.0303943359360133 0 0.00098545648019487692 -0.030188507952962247 0 0.0019999972602763641 -0.030124835148009791 0 0.0014461301469079341 -0.031201177532837885 0 0.0007719934004471841 -0.030991741426761053 0 0.00094854710991370682 -0.030485075970453877 0 0.0014461301469079341 -0.031201177532837885 0 0.0017702922476482501 -0.031947561049000005 0 0.0017564175727681896 -0.031967105043790973 0 0.0016236624957832861 -0.031967224629895249 0 0.0024819959890230881 -0.031736691187381899 0 0.0023197000983205865 -0.031875952662362983 0 0.0017702922476482501 -0.031947561049000005 0 0.0017564175727681896 -0.031967105043790973 0 0.0017902996946904707 -0.031998296987966503 0 0.0017564175727681896 -0.031967105043790973 0 0.0016236624957832861 -0.031967224629895249 0 0.0017141548180600575 -0.031979957734492692 0 0.0024819959890230881 -0.031736691187381899 0 0.0022414328947602796 -0.031783810217939065 0 0.0019999972602763641 -0.030124835148009791 0 0.0016236624957832861 -0.031967224629895249 0 0.0014461301469079341 -0.031201177532837885 0 0.0017564175727681896 -0.031967105043790973 0 0.0017541530336366551 -0.031988605298790718 0 0.0017742446509559392 -0.032012133196941669 0 0.0017564175727681896 -0.031967105043790973 0 0.0017541530336366551 -0.031988605298790718 0 0.0017141548180600575 -0.031979957734492692 0 0.0017541530336366551 -0.031988605298790718 0 0.001784722903169995 -0.032016385854249201 0 0.0017742446509559392 -0.032012133196941669 0 0.0017541530336366551 -0.031988605298790718 0 0.001784722903169995 -0.032016385854249201 0 0.0017141548180600575 -0.031979957734492692 0 0.0016236624957832861 -0.031967224629895249 0 0.001006738689432215 -0.031483741238747025 0 0.00086355229851887397 -0.03203637305990939 0 0.0016236624957832861 -0.031967224629895249 0 0.0014461301469079341 -0.031201177532837885 0 0.001006738689432215 -0.031483741238747025 0 0.00040542487020100792 -0.031302153949721953 0 0.0007719934004471841 -0.030991741426761053 0 0.001006738689432215 -0.031483741238747025 0 0.0007719934004471841 -0.030991741426761053 0 0.0014461301469079341 -0.031201177532837885 0 0.001006738689432215 -0.031483741238747025 0 0.00040542487020100792 -0.031302153949721953 0 0.001006738689432215 -0.031483741238747025 0 0.00086355229851887397 -0.03203637305990939 0 0.00023275515578267912 -0.033074148326930647 0 0.00086355229851887397 -0.03203637305990939 0 0.0017088151658473032 -0.032257216261829397 0 -2.5257745376876214e-05 -0.035808044051885535 0 0.00024904174390325625 -0.036280189596869468 0 0.00023275515578267912 -0.033074148326930647 0 0.0001678855810470723 -0.035121007378714882 0 0.00012713611220223811 -0.036883011251607159 0 0.0016236624957832861 -0.031967224629895249 0 0.00086355229851887397 -0.03203637305990939 0 0.0017088151658473032 -0.032257216261829397 0 7.2107439498478098e-07 -0.034272827735902643 0 -5.7604019256843187e-08 -0.037291388740172272 0 8.9194613453911164e-05 -0.036307780580370215 0 7.2107439498478098e-07 -0.034272827735902643 0 0.0001678855810470723 -0.035121007378714882 0 8.9194613453911164e-05 -0.036307780580370215 0 7.2107439498478098e-07 -0.034272827735902643 0 0.00023275515578267912 -0.033074148326930647 0 0.0001678855810470723 -0.035121007378714882 0 0.0001678855810470723 -0.035121007378714882 0 8.9194613453911164e-05 -0.036307780580370215 0 0.00012713611220223811 -0.036883011251607159 0 8.9194613453911164e-05 -0.036307780580370215 0 0.00012713611220223811 -0.036883011251607159 0 -0.0001065526639936508 -0.038378377644272911 0 -5.7604019256843187e-08 -0.037291388740172272 0 8.9194613453911164e-05 -0.036307780580370215 0 -0.0001065526639936508 -0.038378377644272911 0 0.00024904174390325625 -0.036280189596869468 0 0.00057976244797029578 -0.037570037491820869 0 0.00012713611220223811 -0.036883011251607159 0 -0.00018132441744820289 -0.039316664333897779 0 -0.0001065526639936508 -0.038378377644272911 0 0.001784722903169995 -0.032016385854249201 0 0.0017088151658473032 -0.032257216261829397 0 0.0018477397322297865 -0.032021380163126188 0 0.0016236624957832861 -0.031967224629895249 0 0.0017141548180600575 -0.031979957734492692 0 0.0017088151658473032 -0.032257216261829397 0 0.001784722903169995 -0.032016385854249201 0 0.0017141548180600575 -0.031979957734492692 0 0.0017088151658473032 -0.032257216261829397 0 -0.00018132441744820289 -0.039316664333897779 0 -0.0001065526639936508 -0.038378377644272911 0 -0.00026340520902528339 -0.040513807572354309 0 -5.7604019256843187e-08 -0.037291388740172272 0 -0.0001065526639936508 -0.038378377644272911 0 -4.0045047763636378e-07 -0.040308987135311287 0 -0.0001065526639936508 -0.038378377644272911 0 -4.0045047763636378e-07 -0.040308987135311287 0 -0.00026340520902528339 -0.040513807572354309 0 -0.00032415269672283451 -0.040862471389881673 0 -0.00018132441744820289 -0.039316664333897779 0 -0.00026340520902528339 -0.040513807572354309 0 0.00086547004693132235 -0.039826416744370825 0 0.00057976244797029578 -0.037570037491820869 0 0.0012656559503369949 -0.0320403232062757 0 0.0012940133574311651 -0.032536043419539896 0 0.0016886767182827643 -0.032171794667494376 0 0.0012656559503369949 -0.0320403232062757 0 0.0018477397322297865 -0.032021380163126188 0 0.0016886767182827643 -0.032171794667494376 0 0.0012940133574311651 -0.032536043419539896 0 0.0016886767182827643 -0.032171794667494376 0 0.0017013823930871216 -0.032620205033933494 0 0.0018477397322297865 -0.032021380163126188 0 0.0016886767182827643 -0.032171794667494376 0 0.0017868156866397652 -0.032059673801041917 0 0.001784722903169995 -0.032016385854249201 0 0.0018477397322297865 -0.032021380163126188 0 0.0017868156866397652 -0.032059673801041917 0 0.001784722903169995 -0.032016385854249201 0 0.0017868156866397652 -0.032059673801041917 0 0.0017742446509559392 -0.032012133196941669 0 0.0017868156866397652 -0.032059673801041917 0 0.0017742446509559392 -0.032012133196941669 0 0.0017902996946904707 -0.031998296987966503 0 0.0016886767182827643 -0.032171794667494376 0 0.0023077569434636837 -0.032659621917346705 0 0.0017013823930871216 -0.032620205033933494 0 0.0016886767182827643 -0.032171794667494376 0 0.0017868156866397652 -0.032059673801041917 0 0.0017902996946904707 -0.031998296987966503 0 0.0022099320283790989 -0.031873980302887711 0 0.0023197000983205865 -0.031875952662362983 0 0.0023077569434636837 -0.032659621917346705 0 0.0019472154973918627 -0.032896902468905038 0 0.0017013823930871216 -0.032620205033933494 0 0.0017564175727681896 -0.031967105043790973 0 0.0017742446509559392 -0.032012133196941669 0 0.0017902996946904707 -0.031998296987966503 0 0.0023077569434636837 -0.032659621917346705 0 0.0023752534764476009 -0.032929597990441054 0 0.0019472154973918627 -0.032896902468905038 0 0.0028387809507499084 -0.033115042014017604 0 0.0023077569434636837 -0.032659621917346705 0 0.0023752534764476009 -0.032929597990441054 0 0.0023752534764476009 -0.032929597990441054 0 0.0021100970171583815 -0.033171092684231199 0 0.0022475356117311533 -0.033471747511113176 0 0.0023752534764476009 -0.032929597990441054 0 0.0021100970171583815 -0.033171092684231199 0 0.0019472154973918627 -0.032896902468905038 0 0.0021100970171583815 -0.033171092684231199 0 0.0019472154973918627 -0.032896902468905038 0 0.0017585220350456851 -0.03341034565015303 0 0.0019472154973918627 -0.032896902468905038 0 0.0014290747923686323 -0.03303422571728195 0 0.0017585220350456851 -0.03341034565015303 0 0.0012940133574311651 -0.032536043419539896 0 0.0014290747923686323 -0.03303422571728195 0 0.0017013823930871216 -0.032620205033933494 0 0.0019472154973918627 -0.032896902468905038 0 0.0014290747923686323 -0.03303422571728195 0 0.0017013823930871216 -0.032620205033933494 0 0.0011256722432937108 -0.033803263698621189 0 0.0014290747923686323 -0.03303422571728195 0 0.0017585220350456851 -0.03341034565015303 0 0.0011256722432937108 -0.033803263698621189 0 0.0017585220350456851 -0.03341034565015303 0 0.001704009655782336 -0.033986096227052655 0 0.0017585220350456851 -0.03341034565015303 0 0.0020797427498405407 -0.0338435033815353 0 0.001704009655782336 -0.033986096227052655 0 0.0023752534764476009 -0.032929597990441054 0 0.0022475356117311533 -0.033471747511113176 0 0.0027302767605903466 -0.033746580165235684 0 0.0021100970171583815 -0.033171092684231199 0 0.0017585220350456851 -0.03341034565015303 0 0.0022475356117311533 -0.033471747511113176 0 0.0022475356117311533 -0.033471747511113176 0 0.0024182888522606399 -0.033820605043153172 0 0.0020797427498405407 -0.0338435033815353 0 0.0022475356117311533 -0.033471747511113176 0 0.0024182888522606399 -0.033820605043153172 0 0.0027302767605903466 -0.033746580165235684 0 0.0017585220350456851 -0.03341034565015303 0 0.0022475356117311533 -0.033471747511113176 0 0.0020797427498405407 -0.0338435033815353 0 0.0020797427498405407 -0.0338435033815353 0 0.0020213725098498733 -0.034244261735982634 0 0.001704009655782336 -0.033986096227052655 0 0.0020213725098498733 -0.034244261735982634 0 0.0015618916314167645 -0.034610656428082281 0 0.0025215849503617866 -0.034630833644533066 0 0.0020797427498405407 -0.0338435033815353 0 0.0023630841324970915 -0.034049206035459169 0 0.0020213725098498733 -0.034244261735982634 0 0.0024182888522606399 -0.033820605043153172 0 0.0020797427498405407 -0.0338435033815353 0 0.0023630841324970915 -0.034049206035459169 0 0.0024182888522606399 -0.033820605043153172 0 0.0023630841324970915 -0.034049206035459169 0 0.0026730816695570859 -0.033990860941763727 0 0.0026382168730766727 -0.033048461346290206 0 0.0026671029735228714 -0.033020884299901257 0 0.0023630841324970915 -0.034049206035459169 0 0.0020213725098498733 -0.034244261735982634 0 0.0025215849503617866 -0.034630833644533066 0 0.0023630841324970915 -0.034049206035459169 0 0.0025215849503617866 -0.034630833644533066 0 0.0026683727211522222 -0.033991667743116662 0 0.0011256722432937108 -0.033803263698621189 0 0.001704009655782336 -0.033986096227052655 0 0.0015618916314167645 -0.034610656428082281 0 0.0011395668615376909 -0.04309220700510713 0 0.0010679790468463184 -0.041960289294798434 0 0.0020213725098498733 -0.034244261735982634 0 0.001704009655782336 -0.033986096227052655 0 0.0015618916314167645 -0.034610656428082281 0 0.00093273307749960866 -0.04279501822557967 0 0.0010679790468463184 -0.041960289294798434 0 0.00044602263536369587 -0.053313572946767383 0 2.4479278428925109e-05 -0.053292333389302601 0 0.00023732001121338044 -0.052915978444544667 0 0.0010679790468463184 -0.041960289294798434 0 0.0016197849525180523 -0.042620100103923066 0 2.4479278428925109e-05 -0.053292333389302601 0 0.00023732001121338044 -0.052915978444544667 0 -0.00020626578923677618 -0.052881096854623347 0 0.00023732001121338044 -0.052915978444544667 0 -0.00020626578923677618 -0.052881096854623347 0 7.5359292783140581e-05 -0.052471294434517972 0 0.0013563566055161973 -0.044565377932448184 0 0.0014305937848901442 -0.040716398854065979 0 -0.00020626578923677618 -0.052881096854623347 0 7.5359292783140581e-05 -0.052471294434517972 0 -0.00043584466867450315 -0.0524557902683798 0 0.001108197254929634 -0.040048984903615061 0 0.00095050842364662296 -0.039818970703998778 0 0.00084848216493972693 -0.040264244725762816 0 0.002993026304630796 -0.035801262040527672 0 0.0029727409421646048 -0.035891460985355443 0 0.0029494850482995245 -0.03584000048030609 0 0.0015286575186322234 -0.040164964455230691 0 0.00247874530178579 -0.036308329355861882 0 0.0010443568854818508 -0.038529780678778942 0 0.0016521610939559345 -0.038519761208947109 0 0.0010093537623008153 -0.03867899743326534 0 0.0015286575186322234 -0.040164964455230691 0 0.002249385297830126 -0.03784606963737229 0 8.556737775444444e-05 -0.041145879488050117 0 0.00021803402429004866 -0.041144107733903069 0 0.00012458130625074511 -0.040977244403827495 0 0.0015286575186322234 -0.040164964455230691 0 0.0014305937848901442 -0.040716398854065979 0 0.001108197254929634 -0.040048984903615061 0 0.00095050842364662296 -0.039818970703998778 0 0.00097725304969159999 -0.039818828868972901 0 0.0016197849525180523 -0.042620100103923066 0 0.0014305937848901442 -0.040716398854065979 0 0.0010679790468463184 -0.041960289294798434 0 0.00247874530178579 -0.036308329355861882 0 0.001238841725995455 -0.04028096010062774 0 0.001108197254929634 -0.040048984903615061 0 0.00084848216493972693 -0.040264244725762816 0 0.00247874530178579 -0.036308329355861882 0 0.0031780515441334123 -0.033556082842677887 0 0.002922154234539362 -0.035887628611599533 0 0.0029494850482995245 -0.03584000048030609 0 0.0028947266151148504 -0.035821605994636865 0 0.0029727409421646048 -0.035891460985355443 0 0.002922154234539362 -0.035887628611599533 0 0.0029494850482995245 -0.03584000048030609 0 0.002249385297830126 -0.03784606963737229 0 0.0034557605472874601 -0.032062433180820901 0 0.0029494850482995245 -0.03584000048030609 0 0.0029639365131835763 -0.035799023756282806 0 0.0028947266151148504 -0.035821605994636865 0 0.002249385297830126 -0.03784606963737229 0 0.0034533643788791 -0.033105206030057642 0 0.002993026304630796 -0.035801262040527672 0 0.0029494850482995245 -0.03584000048030609 0 0.0029639365131835763 -0.035799023756282806 0 0.0024722716576029199 -0.035178774090686739 0 0.0040919657364128989 -0.035144738713680179 0 0.0038561674181182715 -0.034594801867253298 0 0.0035518935735161239 -0.029991756232692759 0 0.0034369117774035946 -0.029724286390252177 0 0.0041275610778536316 -0.029726246516911782 0 0.0034557605472874601 -0.032062433180820901 0 0.0034533643788791 -0.033105206030057642 0 0.003285826116314886 -0.031493712127203949 0 0.0032815547047770747 -0.031482227708859355 0 0.0032702820490728996 -0.031487012465789395 0 0.0031780515441334123 -0.033556082842677887 0 0.0034533643788791 -0.033105206030057642 0 0.0031780515441334123 -0.033556082842677887 0 0.0032520387143569747 -0.029675954057030898 0 0.0032716300003449014 -0.031274409945218309 0 0.0031074521022893876 -0.031412249487065252 0 0.0028616514011437989 -0.031258613376425839 0 0.0031074521022893876 -0.031412249487065252 0 0.003372330823557014 -0.031511145774403802 0 0.0030796325503613482 -0.031562996109722526 0 0.0028023300074553449 -0.032693784084382033 0 0.0025347570005656798 -0.030679652311577828 0 0.0031074521022893876 -0.031412249487065252 0 0.0030796325503613482 -0.031562996109722526 0 0.0029515777954835947 -0.031453516626950354 0 0.0040302340104245091 -0.033731249727943662 0 0.0034744006354128563 -0.034974559760852945 0 0.0037524932978051152 -0.034923243157992986 0 0.0040302340104245091 -0.033731249727943662 0 0.002927936726390845 -0.033700003742278321 0 0.0034744006354128563 -0.034974559760852945 0 0.0031780515441334123 -0.033556082842677887 0 0.0028023300074553449 -0.032693784084382033 0 0.0032716300003449014 -0.031274409945218309 0 0.0031074521022893876 -0.031412249487065252 0 0.003372330823557014 -0.031511145774403802 0 0.00247874530178579 -0.036308329355861882 0 0.0026671029735228714 -0.033020884299901257 0 0.0026671029735228714 -0.033020884299901257 0 0.0026918445300538464 -0.032693366155984317 0 0.0028023300074553449 -0.032693784084382033 0 0.0026918445300538464 -0.032693366155984317 0 0.0027041672792736124 -0.032420238490288106 0 0.0032299075305094638 -0.032322546431697352 0 0.0030300304308553405 -0.033181535120404226 0 0.0028023300074553449 -0.032693784084382033 0 0.0026671029735228714 -0.033020884299901257 0 0.0028387809507499084 -0.033115042014017604 0 0.0023752534764476009 -0.032929597990441054 0 0.002703287640492511 -0.033690320128241628 0 0.0029768921059220043 -0.031852448599561156 0 0.0030389133533435479 -0.031586347274770832 0 0.0026310597415213671 -0.031559005228339071 0 0.0029986995524589363 -0.031492642354074576 0 0.0030389133533435479 -0.031586347274770832 0 0.0026310597415213671 -0.031559005228339071 0 0.0027079754265288808 -0.032889545599063416 0 0.0026918445300538464 -0.032693366155984317 0 0.0024182888522606399 -0.033820605043153172 0 0.0026730816695570859 -0.033990860941763727 0 0.0027302767605903466 -0.033746580165235684 0 0.0024819959890230881 -0.031736691187381899 0 0.0026918445300538464 -0.032693366155984317 0 0.0024819959890230881 -0.031736691187381899 0 0.0025347570005656798 -0.030679652311577828 0 0.0020373253519525331 -0.03021671026299699 0 0.002483814401218649 -0.030253232950156344 0 0.00098545648019487692 -0.030188507952962247 0 0.0019999972602763641 -0.030124835148009791 0 0.00083321313723207506 -0.029153079227184537 0 0.00098545648019487692 -0.030188507952962247 0 0.00083321313723207506 -0.029153079227184537 0 0.00053330079205332972 -0.029209470520002265 0 0.0025347570005656798 -0.030679652311577828 0 0.002483814401218649 -0.030253232950156344 0 0.002483814401218649 -0.030253232950156344 0 0.0024660466012935379 -0.029357419518359799 0 0.00094854710991370682 -0.030485075970453877 0 0.00062771301564066792 -0.029881807627124505 0 0.00035455762735371891 -0.030346846474103826 0 0.0026725919840840623 -0.029778003178258287 0 0.0026642570333198336 -0.029778875090863896 0 0.0026707379790074769 -0.029773534280804054 0 0.00062771301564066792 -0.029881807627124505 0 0.00035455762735371891 -0.030346846474103826 0 -6.8371728419599093e-05 -0.030015579975174851 0 -0.00010883338828727629 -0.03068717992625037 0 0.00035455762735371891 -0.030346846474103826 0 -6.8371728419599093e-05 -0.030015579975174851 0 0.0024660466012935379 -0.029357419518359799 0 0.0021307074060813763 -0.028289616057239047 0 0.0031745338774381701 -0.026854510619940868 0 0.0033563306329008314 -0.027026065595528156 0 0.0035114114571518592 -0.02678861482573815 0 0.0022390924683634034 -0.029732190627530089 0 0.0024660466012935379 -0.029357419518359799 0 -0.00010883338828727629 -0.03068717992625037 0 -0.00012670111934941466 -0.030762850777612819 0 -0.00011065198864174748 -0.030837109705811806 0 0.0031745338774381701 -0.026854510619940868 0 0.0033563306329008314 -0.027026065595528156 0 0.0031417209288524036 -0.027209578654366934 0 0.0024660466012935379 -0.029357419518359799 0 0.0030185522145254086 -0.029287348164290974 0 0.0033563306329008314 -0.027026065595528156 0 0.0033374734279238141 -0.027194797321834403 0 0.0031417209288524036 -0.027209578654366934 0 0.0031790321559279147 -0.029468166935295966 0 0.0032528907189480062 -0.029624897885101399 0 0.003306306412992109 -0.029574486387668995 0 0.0026642570333198336 -0.029778875090863896 0 0.0026707379790074769 -0.029773534280804054 0 0.0026655203969985853 -0.029768424445802116 0 0.0028173245057663207 -0.030100140461027138 0 0.0030185522145254086 -0.029287348164290974 0 0.0031074521022893876 -0.031412249487065252 0 0.0029515777954835947 -0.031453516626950354 0 0.0028616514011437989 -0.031258613376425839 0 0.0028173245057663207 -0.030100140461027138 0 0.0032520387143569747 -0.029675954057030898 0 0.0025347570005656798 -0.030679652311577828 0 0.0028173245057663207 -0.030100140461027138 0 0.002483814401218649 -0.030253232950156344 0 0.0028173245057663207 -0.030100140461027138 0 0.0025684945794032387 -0.030457769059885901 0 0.0025328107322679983 -0.030464272771093193 0 0.0025045753119996091 -0.030403210258374336 0 0.0032815547047770747 -0.031482227708859355 0 0.0032702820490728996 -0.031487012465789395 0 0.0032684722214214017 -0.031482345577868685 0 0.0032528907189480062 -0.029624897885101399 0 0.0033015033630110942 -0.029626104347821761 0 0.003306306412992109 -0.029574486387668995 0 0.0032520387143569747 -0.029675954057030898 0 0.0032790621525932702 -0.029047262776571169 0 0.0028941700505917436 -0.029520595050525195 0 0.0028190988515094102 -0.029361089841738332 0 0.0028039149210907885 -0.029518020076911525 0 0.0032520387143569747 -0.029675954057030898 0 0.0034083592647894678 -0.029334891945846125 0 0.0034083592647894678 -0.029334891945846125 0 0.0032790621525932702 -0.029047262776571169 0 0.0034557605472874601 -0.032062433180820901 0 0.0039425332514592248 -0.026800345617890773 0 0.0034533643788791 -0.033105206030057642 0 0.0034083592647894678 -0.029334891945846125 0 0.0034369117774035946 -0.029724286390252177 0 0.0042551960961811379 -0.029382270822459564 0 0.0041275610778536316 -0.029726246516911782 0 0.0035518935735161239 -0.029991756232692759 0 0.0041275610778536316 -0.029726246516911782 0 0.0041982456278883461 -0.029976183299712317 0 0.0042551960961811379 -0.029382270822459564 0 0.0041275610778536316 -0.029726246516911782 0 0.0042073261844955065 -0.029889040735544038 0 0.0034083592647894678 -0.029334891945846125 0 0.0039607133220287529 -0.02682776988724956 0 0.0040037336556253715 -0.026947011997470932 0 0.0039607133220287529 -0.02682776988724956 0 0.0041275610778536316 -0.029726246516911782 0 0.0042064911246301809 -0.029889540657247572 0 0.0041982456278883461 -0.029976183299712317 0 0.0048229148691614557 -0.02583900397951127 0 0.0047561541289147021 -0.026535883600850584 0 0.0051560163926306357 -0.026529998138431279 0 0.0039607133220287529 -0.02682776988724956 0 0.0039437110642440085 -0.02638980148879359 0 0.0039607133220287529 -0.02682776988724956 0 0.0039425332514592248 -0.026800345617890773 0 0.0039425332514592248 -0.026800345617890773 0 0.0039437110642440085 -0.02638980148879359 0 0.0041096928793554616 -0.025003961898874355 0 0.0040988760037427218 -0.025012533678575418 0 0.0040920289549427058 -0.025007676360585027 0 0.0039437110642440085 -0.02638980148879359 0 0.0044081591109072149 -0.021428426977734255 0 0.0041096928793554616 -0.025003961898874355 0 0.0040920289549427058 -0.025007676360585027 0 0.0040875089882414697 -0.024999036164308912 0 0.0041119664409817727 -0.025006908961022246 0 0.0041096928793554616 -0.025003961898874355 0 0.0041046377788922601 -0.025014414081445759 0 0.0041096928793554616 -0.025003961898874355 0 0.0041046377788922601 -0.025014414081445759 0 0.0040988760037427218 -0.025012533678575418 0 0.0041110112699726505 -0.025039676763561086 0 0.0041119664409817727 -0.025006908961022246 0 0.0041046377788922601 -0.025014414081445759 0 0.0034083592647894678 -0.029334891945846125 0 0.0032560976149588242 -0.028742131242519439 0 0.0041147320872842582 -0.025027005093861042 0 0.0041046377788922601 -0.025014414081445759 0 0.0041034400588783127 -0.025020631354427652 0 0.0041046377788922601 -0.025014414081445759 0 0.0040988760037427218 -0.025012533678575418 0 0.0041034400588783127 -0.025020631354427652 0 0.0040988760037427218 -0.025012533678575418 0 0.0040952038188263725 -0.025014342019462704 0 0.0041034400588783127 -0.025020631354427652 0 0.0040952038188263725 -0.025014342019462704 0 0.0040880777033245235 -0.025012062143688684 0 0.0040920289549427058 -0.025007676360585027 0 0.0040988760037427218 -0.025012533678575418 0 0.0040952038188263725 -0.025014342019462704 0 0.0040920289549427058 -0.025007676360585027 0 0.0040981251467247411 -0.025024631594098283 0 0.0041154439990048865 -0.025038630010588425 0 0.0040850746004136209 -0.025038271611646519 0 0.0040952038188263725 -0.025014342019462704 0 0.0040981251467247411 -0.025024631594098283 0 0.0040880777033245235 -0.025012062143688684 0 0.0032790621525932702 -0.029047262776571169 0 0.0037490985739549662 -0.026129480414222798 0 0.0031347391203022535 -0.027286232448968169 0 0.0032015533293732463 -0.027259812103261827 0 0.0034521132379897912 -0.027288545708418505 0 0.0040952038188263725 -0.025014342019462704 0 0.0040981251467247411 -0.025024631594098283 0 0.0041034400588783127 -0.025020631354427652 0 0.0040981251467247411 -0.025024631594098283 0 0.0041034400588783127 -0.025020631354427652 0 0.0041154439990048865 -0.025038630010588425 0 0.0041147320872842582 -0.025027005093861042 0 0.0041034400588783127 -0.025020631354427652 0 0.0041154439990048865 -0.025038630010588425 0 0.0033374734279238141 -0.027194797321834403 0 0.0032015533293732463 -0.027259812103261827 0 0.0031417209288524036 -0.027209578654366934 0 0.0031347391203022535 -0.027286232448968169 0 0.0032015533293732463 -0.027259812103261827 0 0.0031420322060522849 -0.027211699860024283 0 0.0032790621525932702 -0.029047262776571169 0 0.0030185522145254086 -0.029287348164290974 0 0.0029975498560205999 -0.029251317457305383 0 0.0030185522145254086 -0.029287348164290974 0 0.0033374734279238141 -0.027194797321834403 0 0.0032015533293732463 -0.027259812103261827 0 0.0034521132379897912 -0.027288545708418505 0 0.0040880777033245235 -0.025012062143688684 0 0.0040525453957648908 -0.024915683979456007 0 0.0039991940774307113 -0.025038547004825155 0 0.0040850746004136209 -0.025038271611646519 0 0.0040880777033245235 -0.025012062143688684 0 0.0039991940774307113 -0.025038547004825155 0 0.0037490985739549662 -0.026129480414222798 0 0.0042012738773849999 -0.023201409391330089 0 0.0034521132379897912 -0.027288545708418505 0 0.0037694266190019584 -0.027291657400268707 0 0.0035780052046525219 -0.027081211568289677 0 0.0040981251467247411 -0.025024631594098283 0 0.0040850746004136209 -0.025038271611646519 0 0.0040880777033245235 -0.025012062143688684 0 0.0040880777033245235 -0.025012062143688684 0 0.0040525453957648908 -0.024915683979456007 0 0.0040753560105605199 -0.024914532151928698 0 0.0045316017376326968 -0.022694762080070891 0 0.0044081591109072149 -0.021428426977734255 0 0.0040880777033245235 -0.025012062143688684 0 0.0040920289549427058 -0.025007676360585027 0 0.0040875089882414697 -0.024999036164308912 0 0.0043380396514323596 -0.020648853959914067 0 0.0044081591109072149 -0.021428426977734255 0 0.0084441139557461554 -0.015222675304901297 0 0.006685028523179753 -0.016354414084766049 0 0.0068699774659250765 -0.018449822253108077 0 0.0043380396514323596 -0.020648853959914067 0 0.0038663526814964495 -0.018116071264986988 0 0.0043380396514323596 -0.020648853959914067 0 0.0042012738773849999 -0.023201409391330089 0 0.0084441139557461554 -0.015222675304901297 0 0.006685028523179753 -0.016354414084766049 0 0.0048827642947312224 -0.015242068774033822 0 0.006685028523179753 -0.016354414084766049 0 0.0056191134231447244 -0.017504914370189587 0 0.0048827642947312224 -0.015242068774033822 0 0.006685028523179753 -0.016354414084766049 0 0.0056191134231447244 -0.017504914370189587 0 0.0068699774659250765 -0.018449822253108077 0 0.0078571723196953543 -0.018564117532258249 0 0.0065908270148272831 -0.018927181454180212 0 0.0046155316417409884 -0.018480997149177013 0 0.0042012738773849999 -0.023201409391330089 0 0.0040318378557136986 -0.0217866190742479 0 0.0056191134231447244 -0.017504914370189587 0 0.0068699774659250765 -0.018449822253108077 0 0.0043175972774432293 -0.01841210578028573 0 0.0078571723196953543 -0.018564117532258249 0 0.0065908270148272831 -0.018927181454180212 0 0.0067409242849941998 -0.020856517222854757 0 0.0042012738773849999 -0.023201409391330089 0 0.0038923256227401401 -0.023895113320615443 0 0.0037694266190019584 -0.027291657400268707 0 0.0038781021020764229 -0.02706997699197046 0 0.0035780052046525219 -0.027081211568289677 0 0.0038781021020764229 -0.02706997699197046 0 0.0035780052046525219 -0.027081211568289677 0 0.003704145786216429 -0.026915955620889876 0 0.0067946587815171386 -0.0208029480606578 0 0.0065454137579832195 -0.021326967423298576 0 0.0071442860805055967 -0.024485120004268439 0 0.0065908270148272831 -0.018927181454180212 0 0.0067783312743436531 -0.020815382069291833 0 0.005834907227700018 -0.019918629236604559 0 0.0039819995812056504 -0.023179503695082853 0 0.0038923256227401401 -0.023895113320615443 0 0.0067783312743436531 -0.020815382069291833 0 0.0065454137579832195 -0.021326967423298576 0 0.0056160875555029193 -0.021231615638590308 0 0.0038923256227401401 -0.023895113320615443 0 0.0039241586282652164 -0.023842159783431186 0 0.0033563306329008314 -0.027026065595528156 0 0.0035780052046525219 -0.027081211568289677 0 0.0035114114571518592 -0.02678861482573815 0 0.0033374734279238141 -0.027194797321834403 0 0.0034521132379897912 -0.027288545708418505 0 0.0035780052046525219 -0.027081211568289677 0 0.0033563306329008314 -0.027026065595528156 0 0.0033374734279238141 -0.027194797321834403 0 0.0035780052046525219 -0.027081211568289677 0 0.0035780052046525219 -0.027081211568289677 0 0.0035114114571518592 -0.02678861482573815 0 0.003704145786216429 -0.026915955620889876 0 0.0035114114571518592 -0.02678861482573815 0 0.003704145786216429 -0.026915955620889876 0 0.0038485042275323259 -0.026724011812483933 0 0.0038923256227401401 -0.023895113320615443 0 0.0025318493970523052 -0.026931245175305894 0 0.0021307074060813763 -0.028289616057239047 0 0.0025318493970523052 -0.026931245175305894 0 0.0038781021020764229 -0.02706997699197046 0 0.003704145786216429 -0.026915955620889876 0 0.0038485042275323259 -0.026724011812483933 0 0.0065454137579832195 -0.021326967423298576 0 0.0071442860805055967 -0.024485120004268439 0 0.0060789842819945292 -0.022495746052174179 0 0.0040591183535447495 -0.011749342591577125 0 0.0045812932802791898 -0.012389679997817211 0 0.0039245682501390716 -0.011241460703314315 0 0.0040591183535447495 -0.011749342591577125 0 0.0037269944324555796 -0.012017445657552431 0 0.0034691722103351065 -0.011435577656426631 0 0.0040591183535447495 -0.011749342591577125 0 0.0037704986376490891 -0.011356146239246389 0 0.0034691722103351065 -0.011435577656426631 0 0.0037704986376490891 -0.011356146239246389 0 0.0036146062550799288 -0.011020712329057256 0 0.0034691722103351065 -0.011435577656426631 0 0.0040591183535447495 -0.011749342591577125 0 0.0037704986376490891 -0.011356146239246389 0 0.0039245682501390716 -0.011241460703314315 0 0.0041126857226568654 -0.011571561957199548 0 0.0043179114100123824 -0.011266474360870159 0 0.0041288011401164589 -0.011064156076627892 0 0.0039361393355976382 -0.013952320461846175 0 0.0038263873071867054 -0.012484876216525938 0 0.0048720997372049824 -0.012681962081396332 0 0.0039245682501390716 -0.011241460703314315 0 0.0038909239545137186 -0.010901233520483319 0 0.0041126857226568654 -0.011571561957199548 0 0.0041288011401164589 -0.011064156076627892 0 0.0038909239545137186 -0.010901233520483319 0 0.0047285939687297758 -0.012717501105627504 0 0.0048720997372049824 -0.012681962081396332 0 0.0039245682501390716 -0.011241460703314315 0 0.0029305728173240342 -0.019495421955621539 0 0.0019679752098342379 -0.01460640067349467 0 0.0047285939687297758 -0.012717501105627504 0 0.0043007215680698468 -0.013391520169244114 0 0.0039245682501390716 -0.011241460703314315 0 0.0048842642931089184 -0.012686879989427371 0 0.0043007215680698468 -0.013391520169244114 0 0.005597153018643752 -0.014077880591377712 0 0.0029305728173240342 -0.019495421955621539 0 0.0033685256669464601 -0.020569781419351368 0 0.0047285939687297758 -0.012717501105627504 0 0.0048842642931089184 -0.012686879989427371 0 0.0043007215680698468 -0.013391520169244114 0 0.0029475546708262537 -0.019482077018202901 0 0.0029305728173240342 -0.019495421955621539 0 0.0045812932802791898 -0.012389679997817211 0 0.0040938452633423675 -0.012172325854984281 0 0.0039879008827150174 -0.012598622855968071 0 0.0040591183535447495 -0.011749342591577125 0 0.0045812932802791898 -0.012389679997817211 0 0.0040938452633423675 -0.012172325854984281 0 0.0040591183535447495 -0.011749342591577125 0 0.0040938452633423675 -0.012172325854984281 0 0.0037269944324555796 -0.012017445657552431 0 0.0040938452633423675 -0.012172325854984281 0 0.0037269944324555796 -0.012017445657552431 0 0.0039879008827150174 -0.012598622855968071 0 0.0037269944324555796 -0.012017445657552431 0 0.0039879008827150174 -0.012598622855968071 0 0.0032657060862974273 -0.012523702288116664 0 0.0045812932802791898 -0.012389679997817211 0 0.0039879008827150174 -0.012598622855968071 0 0.0043428701946994028 -0.013387482180197776 0 0.0039879008827150174 -0.012598622855968071 0 0.0036642493016626515 -0.013467164730133685 0 0.0032657060862974273 -0.012523702288116664 0 0.0039879008827150174 -0.012598622855968071 0 0.0043428701946994028 -0.013387482180197776 0 0.0036642493016626515 -0.013467164730133685 0 0.0048933163037842573 -0.014621267454503871 0 0.0042700257282021377 -0.014091585046345998 0 0.0033629653324045222 -0.014748274540612803 0 0.0036642493016626515 -0.013467164730133685 0 0.0042700257282021377 -0.014091585046345998 0 0.0033629653324045222 -0.014748274540612803 0 0.0043428701946994028 -0.013387482180197776 0 0.0036642493016626515 -0.013467164730133685 0 0.0042700257282021377 -0.014091585046345998 0 0.0043101709234959883 -0.019820772208380556 0 0.0033685256669464601 -0.020569781419351368 0 0.0042233782244736357 -0.020088945939742916 0 0.0028360447545639502 -0.020109040699111187 0 0.0032133900363827059 -0.022150916331634737 0 0.0044081591109072149 -0.021428426977734255 0 0.0043101709234959883 -0.019820772208380556 0 0.0048933163037842573 -0.014621267454503871 0 0.0042700257282021377 -0.014091585046345998 0 0.0050850225942498557 -0.014236706093525583 0 0.0043380396514323596 -0.020648853959914067 0 0.0043101709234959883 -0.019820772208380556 0 0.0043428701946994028 -0.013387482180197776 0 0.0042700257282021377 -0.014091585046345998 0 0.0050850225942498557 -0.014236706093525583 0 0.0045812932802791898 -0.012389679997817211 0 0.0043428701946994028 -0.013387482180197776 0 0.0050850225942498557 -0.014236706093525583 0 0.0043007215680698468 -0.013391520169244114 0 0.0047379115727154766 -0.015863582739672213 0 0.005597153018643752 -0.014077880591377712 0 0.0039361393355976382 -0.013952320461846175 0 0.0043101709234959883 -0.019820772208380556 0 0.0036385227335359871 -0.023330907130816158 0 0.004537373680024325 -0.023811177262731156 0 0.0038910116125667779 -0.022814349776688243 0 0.0033685256669464601 -0.020569781419351368 0 0.0032879249188499902 -0.020875845831453847 0 0.0034229028153626622 -0.022774890103902608 0 0.0031072673425513835 -0.022687488436213564 0 0.0032434483817445066 -0.022399408496929282 0 0.0039437110642440085 -0.02638980148879359 0 0.0033685256669464601 -0.020569781419351368 0 0.0034229028153626622 -0.022774890103902608 0 0.0031236642587026877 -0.022772555923554403 0 0.0031072673425513835 -0.022687488436213564 0 0.0043611770456668981 -0.024833425061727209 0 0.0036385227335359871 -0.023330907130816158 0 0.004537373680024325 -0.023811177262731156 0 0.0044429492106292144 -0.024832495197683855 0 0.0043611770456668981 -0.024833425061727209 0 0.004537373680024325 -0.023811177262731156 0 0.0036075764292467227 -0.029542766744357619 0 0.0027438700124150475 -0.029550238302751514 0 0.0030446168576142704 -0.029160992538364419 0 0.0036075764292467227 -0.029542766744357619 0 0.0030446168576142704 -0.029160992538364419 0 0.0032539861285952863 -0.028714065360595641 0 0.0027438700124150475 -0.029550238302751514 0 0.0030446168576142704 -0.029160992538364419 0 0.0028207670344444075 -0.028718727161902616 0 0.0039425332514592248 -0.026800345617890773 0 0.0038911370724518737 -0.026578482494756639 0 0.0030446168576142704 -0.029160992538364419 0 0.0032539861285952863 -0.028714065360595641 0 0.0028207670344444075 -0.028718727161902616 0 0.003785411981225032 -0.030453317864143417 0 0.0038719482201933705 -0.026756718254939995 0 0.002046222004021392 -0.03587753831407834 0 0.0017506889943403137 -0.03521899238230148 0 0.0021213500147128674 -0.035425654369569494 0 0.004537373680024325 -0.023811177262731156 0 0.0046263413726348552 -0.022796167504763945 0 0.0038910116125667779 -0.022814349776688243 0 0.0032539861285952863 -0.028714065360595641 0 0.0028207670344444075 -0.028718727161902616 0 0.0028969837252027352 -0.027882312454786663 0 0.0038911370724518737 -0.026578482494756639 0 0.0038719482201933705 -0.026756718254939995 0 0.0020705663125194615 -0.035116654240752616 0 0.0017506889943403137 -0.03521899238230148 0 0.0021213500147128674 -0.035425654369569494 0 0.0020705663125194615 -0.035116654240752616 0 0.0017506889943403137 -0.03521899238230148 0 0.0017940499634615842 -0.034746463568868763 0 0.0020705663125194615 -0.035116654240752616 0 0.002012748115309835 -0.034706849860503992 0 0.0017940499634615842 -0.034746463568868763 0 0.0038719482201933705 -0.026756718254939995 0 0.0036593271186717317 -0.025949691809281993 0 0.0047482234569727793 -0.024575484653375307 0 0.0049711666697123437 -0.025096440531048824 0 0.00502359206256671 -0.024524404305665493 0 0.0038935582084381067 -0.023601990503252408 0 0.0038719482201933705 -0.026756718254939995 0 0.0029305728173240342 -0.019495421955621539 0 0.0038935582084381067 -0.023601990503252408 0 0.0031990286336248952 -0.02239035358230879 0 0.0043554267454624287 -0.022175913872495321 0 0.0038910116125667779 -0.022814349776688243 0 0.0031990286336248952 -0.02239035358230879 0 0.0036464789738979743 -0.023311387219392098 0 0.0038910116125667779 -0.022814349776688243 0 0.0043554267454624287 -0.022175913872495321 0 0.0046263413726348552 -0.022796167504763945 0 0.0038910116125667779 -0.022814349776688243 0 0.0046408953274266196 -0.011491203720479329 0 0.0043179114100123824 -0.011266474360870159 0 0.0044832515829226907 -0.011115875197723548 0 0.0038935582084381067 -0.023601990503252408 0 0.0027365074332105521 -0.019262591993666842 0 0.0041126857226568654 -0.011571561957199548 0 0.0046408953274266196 -0.011491203720479329 0 0.0043179114100123824 -0.011266474360870159 0 0.0043179114100123824 -0.011266474360870159 0 0.0044832515829226907 -0.011115875197723548 0 0.0042887073887710484 -0.01101553756232959 0 0.0043179114100123824 -0.011266474360870159 0 0.0042887073887710484 -0.01101553756232959 0 0.0041288011401164589 -0.011064156076627892 0 0.0015705540676428412 -0.034360522516262822 0 0.0017597953028687424 -0.034583502079336213 0 0.0020840098572041609 -0.034120543781741224 0 0.003814731873374349 -0.025363532120793366 0 0.0039712357583881822 -0.027751886398950602 0 0.0039712357583881822 -0.027751886398950602 0 0.0036593271186717317 -0.025949691809281993 0 0.0034321173029139614 -0.02822690036905174 0 0.0022399035838231362 -0.026838232935976647 0 0.0035897793673539224 -0.026584092877528446 0 0.0033638409341698607 -0.024179872091413757 0 0.0023493425900191953 -0.021810797137381495 0 0.0044415666126203105 -0.022866193673011976 0 0.0038935582084381067 -0.023601990503252408 0 0.0036593271186717317 -0.025949691809281993 0 0.0033638409341698607 -0.024179872091413757 0 0.0044415666126203105 -0.022866193673011976 0 0.0043338006711371169 -0.023998559564632541 0 0.003814731873374349 -0.025363532120793366 0 0.0036593271186717317 -0.025949691809281993 0 0.0017597953028687424 -0.034583502079336213 0 0.0020840098572041609 -0.034120543781741224 0 0.0025651979586346473 -0.034456275515579442 0 0.0039712357583881822 -0.027751886398950602 0 0.0027930372202263801 -0.03523028416718367 0 0.0027930372202263801 -0.03523028416718367 0 0.0016860234777568502 -0.04297413884913074 0 0.0027554940497990952 -0.034741063543350069 0 0.0032026738214331468 -0.035470043360529412 0 0.0034437463316645805 -0.034628543443301824 0 0.0027554940497990952 -0.034741063543350069 0 0.0026110247506664131 -0.035485620654369047 0 0.0032026738214331468 -0.035470043360529412 0 0.0020705663125194615 -0.035116654240752616 0 0.002012748115309835 -0.034706849860503992 0 0.0026110247506664131 -0.035485620654369047 0 0.0039712357583881822 -0.027751886398950602 0 0.0048402650704356164 -0.030977445056351294 0 0.0020871630028863929 -0.03485163466949303 0 0.0027554940497990952 -0.034741063543350069 0 0.0026110247506664131 -0.035485620654369047 0 0.0020705663125194615 -0.035116654240752616 0 0.0021213500147128674 -0.035425654369569494 0 0.0026110247506664131 -0.035485620654369047 0 0.002046222004021392 -0.03587753831407834 0 0.0021213500147128674 -0.035425654369569494 0 0.0026110247506664131 -0.035485620654369047 0 0.002046222004021392 -0.03587753831407834 0 0.0026110247506664131 -0.035485620654369047 0 0.0028037569972536145 -0.03582088334224863 0 0.0034557605472874601 -0.032062433180820901 0 0.003785411981225032 -0.030453317864143417 0 0.0023134457038933337 -0.036487737547307726 0 0.002046222004021392 -0.03587753831407834 0 0.0026959785644860364 -0.036189214776521601 0 0.002046222004021392 -0.03587753831407834 0 0.0026959785644860364 -0.036189214776521601 0 0.0028037569972536145 -0.03582088334224863 0 0.0030809121775724336 -0.036482715848716707 0 0.0023134457038933337 -0.036487737547307726 0 0.0026959785644860364 -0.036189214776521601 0 0.0030809121775724336 -0.036482715848716707 0 0.0031162948654278738 -0.036249571320680497 0 0.0026959785644860364 -0.036189214776521601 0 0.0026959785644860364 -0.036189214776521601 0 0.0031334325906607701 -0.03600109872005644 0 0.0028037569972536145 -0.03582088334224863 0 0.0031162948654278738 -0.036249571320680497 0 0.0026959785644860364 -0.036189214776521601 0 0.0031334325906607701 -0.03600109872005644 0 0.0026110247506664131 -0.035485620654369047 0 0.0028037569972536145 -0.03582088334224863 0 0.0032026738214331468 -0.035470043360529412 0 0.0031334325906607701 -0.03600109872005644 0 0.0028037569972536145 -0.03582088334224863 0 0.0032026738214331468 -0.035470043360529412 0 0.0031334325906607701 -0.03600109872005644 0 0.0032026738214331468 -0.035470043360529412 0 0.0033767831507946085 -0.035946044648511977 0 0.0032026738214331468 -0.035470043360529412 0 0.0036280894016846241 -0.035808028080947775 0 0.0038392530925602832 -0.035317279538579362 0 0.0032026738214331468 -0.035470043360529412 0 0.0036280894016846241 -0.035808028080947775 0 0.0033767831507946085 -0.035946044648511977 0 0.0014937057077800107 -0.039312365560819976 0 0.0015950326136583977 -0.039881376270949717 0 0.0031334325906607701 -0.03600109872005644 0 0.0033767831507946085 -0.035946044648511977 0 0.0033867204583576727 -0.036293493536101958 0 0.0015453657689545308 -0.043628256508062312 0 0.0021429514141352761 -0.043612218486236941 0 0.0021689245563463852 -0.043739460920809679 0 0.0036280894016846241 -0.035808028080947775 0 0.0033767831507946085 -0.035946044648511977 0 0.0033867204583576727 -0.036293493536101958 0 0.0030809121775724336 -0.036482715848716707 0 0.0031162948654278738 -0.036249571320680497 0 0.0033754236901300748 -0.036362083775743542 0 0.002249385297830126 -0.03784606963737229 0 0.0015950326136583977 -0.039881376270949717 0 0.0016521610939559345 -0.038519761208947109 0 0.0010093537623008153 -0.03867899743326534 0 0.0009811456746257512 -0.038799329874111631 0 0.0021429514141352761 -0.043612218486236941 0 0.0021824393956945119 -0.043682084273826541 0 0.0021689245563463852 -0.043739460920809679 0 0.0031162948654278738 -0.036249571320680497 0 0.0031334325906607701 -0.03600109872005644 0 0.0033754236901300748 -0.036362083775743542 0 0.0014305937848901442 -0.040716398854065979 0 0.0014722598434284326 -0.040284940913209888 0 0.0031334325906607701 -0.03600109872005644 0 0.0033867204583576727 -0.036293493536101958 0 0.0033670106667666108 -0.036373679358369854 0 0.0015286575186322234 -0.040164964455230691 0 0.0014722598434284326 -0.040284940913209888 0 0.0014722598434284326 -0.040284940913209888 0 0.0015950326136583977 -0.039881376270949717 0 0.0016056984490671199 -0.03984550680774139 0 0.0015950326136583977 -0.039881376270949717 0 0.0015453657689545308 -0.043628256508062312 0 0.0021689245563463852 -0.043739460920809679 0 0.0012325451583995121 -0.044139214571989285 0 0.0036280894016846241 -0.035808028080947775 0 0.0033867204583576727 -0.036293493536101958 0 0.0042358482133531819 -0.0360227187288173 0 0.0033867204583576727 -0.036293493536101958 0 0.0033684583268746202 -0.036370781267457103 0 0.0042358482133531819 -0.0360227187288173 0 0.0015950326136583977 -0.039881376270949717 0 0.0019348859793968511 -0.044944851471553367 0 0.00205464113698021 -0.044492721117614889 0 0.0019348859793968511 -0.044944851471553367 0 0.0036280894016846241 -0.035808028080947775 0 0.0038392530925602832 -0.035317279538579362 0 0.0042358482133531819 -0.0360227187288173 0 0.00205464113698021 -0.044492721117614889 0 0.0016860234777568502 -0.04297413884913074 0 0.00032708713340473479 -0.054544715070713387 0 0.0003731968345430079 -0.054611533714826049 0 0.00029174252717075242 -0.054597050634099156 0 0.0032026738214331468 -0.035470043360529412 0 0.0038392530925602832 -0.035317279538579362 0 0.0034437463316645805 -0.034628543443301824 0 0.0016860234777568502 -0.04297413884913074 0 -5.8279915698015944e-05 -0.048163102127716302 0 0.0003731968345430079 -0.054611533714826049 0 0.0002909455857664794 -0.054651785675098034 0 0.00029174252717075242 -0.054597050634099156 0 -1.6799394687568706e-05 -0.054712233656158973 0 -5.5082685648070986e-05 -0.054671611825211151 0 6.3045739784076846e-06 -0.054676027955947337 0 -7.2851918881377032e-05 -0.054704562650667012 0 -1.6799394687568706e-05 -0.054712233656158973 0 -5.5082685648070986e-05 -0.054671611825211151 0 -7.2851918881377032e-05 -0.054704562650667012 0 -5.5082685648070986e-05 -0.054671611825211151 0 -0.00011905016390391937 -0.054639064134970904 0 0.0016860234777568502 -0.04297413884913074 0 0.0022702289627177176 -0.042869120348767671 0 -5.5082685648070986e-05 -0.054671611825211151 0 -4.5692838375190874e-05 -0.054632971872938398 0 -0.00011905016390391937 -0.054639064134970904 0 -5.5082685648070986e-05 -0.054671611825211151 0 -4.5692838375190874e-05 -0.054632971872938398 0 6.3045739784076846e-06 -0.054676027955947337 0 -4.5692838375190874e-05 -0.054632971872938398 0 -7.0641046034905085e-05 -0.054586071404983817 0 -0.0001068137557732566 -0.054581804441350447 0 -4.5692838375190874e-05 -0.054632971872938398 0 -7.0641046034905085e-05 -0.054586071404983817 0 -2.4941064209407021e-05 -0.054611266605291184 0 -7.0641046034905085e-05 -0.054586071404983817 0 -5.3183277355095802e-05 -0.054581915614592275 0 -9.7473183675529572e-05 -0.054555089626036592 0 -7.0641046034905085e-05 -0.054586071404983817 0 -2.4941064209407021e-05 -0.054611266605291184 0 -5.3183277355095802e-05 -0.054581915614592275 0 -7.0641046034905085e-05 -0.054586071404983817 0 -0.0001068137557732566 -0.054581804441350447 0 -0.0001018368465147663 -0.054537922932983478 0 -0.0001068137557732566 -0.054581804441350447 0 -0.0001018368465147663 -0.054537922932983478 0 -0.00014053882427952653 -0.054526355523321975 0 -4.5692838375190874e-05 -0.054632971872938398 0 -0.0001068137557732566 -0.054581804441350447 0 -0.00011905016390391937 -0.054639064134970904 0 0.0023152456681190454 -0.032441589405202219 0 0.002120650015793779 -0.032716186077311325 0 0.0028524765373879866 -0.033383348102886116 0 -0.0001068137557732566 -0.054581804441350447 0 -0.00016251120229595058 -0.054560642981803853 0 -0.00011905016390391937 -0.054639064134970904 0 0.0024635192438829212 -0.040063712785791475 0 0.0022702289627177176 -0.042869120348767671 0 0.0024635192438829212 -0.040063712785791475 0 0.00081181500007686388 -0.043377440645042446 0 -0.0001068137557732566 -0.054581804441350447 0 -0.00016251120229595058 -0.054560642981803853 0 -0.00014053882427952653 -0.054526355523321975 0 0.0019562228525121747 -0.036432495532373918 0 0.0025887262183192502 -0.035503429523256899 0 0.0018811596971540765 -0.035264950660755266 0 0.0024635192438829212 -0.040063712785791475 0 0.0012350149637356195 -0.026331848670191001 0 0.0023298488307229056 -0.032416096993022295 0 0.0017007223538367216 -0.032477616114679787 0 0.0017719574033702615 -0.031445414801153461 0 0.0019562228525121747 -0.036432495532373918 0 0.0018811596971540765 -0.035264950660755266 0 0.0012954957885452523 -0.035276048650111767 0 0.0023298488307229056 -0.032416096993022295 0 0.002120650015793779 -0.032716186077311325 0 0.0017007223538367216 -0.032477616114679787 0 0.0024635192438829212 -0.040063712785791475 0 0.0027607198944779826 -0.039377361733841695 0 0.002120650015793779 -0.032716186077311325 0 0.0021753991264217365 -0.033415226806946648 0 0.0016450551769243511 -0.033435616878043452 0 0.002120650015793779 -0.032716186077311325 0 0.0021753991264217365 -0.033415226806946648 0 0.0028524765373879866 -0.033383348102886116 0 0.0020840098572041609 -0.034120543781741224 0 0.0025651979586346473 -0.034456275515579442 0 0.0028524765373879866 -0.033383348102886116 0 0.0025651979586346473 -0.034456275515579442 0 0.0033804138581201432 -0.034322805462199742 0 0.0028524765373879866 -0.033383348102886116 0 0.0020840098572041609 -0.034120543781741224 0 0.0021753991264217365 -0.033415226806946648 0 0.0028524765373879866 -0.033383348102886116 0 0.0020840098572041609 -0.034120543781741224 0 0.0021753991264217365 -0.033415226806946648 0 0.0016450551769243511 -0.033435616878043452 0 0.003814731873374349 -0.025363532120793366 0 0.0033757628154655588 -0.023206117938041539 0 0.0015705540676428412 -0.034360522516262822 0 0.0020840098572041609 -0.034120543781741224 0 0.0016450551769243511 -0.033435616878043452 0 0.0053707784965858121 -0.012897050924423788 0 0.0050839911661927379 -0.01232005057170045 0 0.0054538879300231975 -0.011801835557884388 0 0.0050839911661927379 -0.01232005057170045 0 0.004984020349897653 -0.011938795146394785 0 0.0054538879300231975 -0.011801835557884388 0 0.003814731873374349 -0.025363532120793366 0 0.0021163788154213332 -0.017128504772456431 0 0.0053707784965858121 -0.012897050924423788 0 0.0050839911661927379 -0.01232005057170045 0 0.0045687135674541725 -0.011938026711901594 0 0.0023493425900191953 -0.021810797137381495 0 0.0044415666126203105 -0.022866193673011976 0 0.0013352735948334749 -0.01944039249488063 0 0.0044832515829226907 -0.011115875197723548 0 0.0042887073887710484 -0.01101553756232959 0 0.0043187249474385958 -0.010762609062991965 0 0.0027365074332105521 -0.019262591993666842 0 0.0021163788154213332 -0.017128504772456431 0 0.0042887073887710484 -0.01101553756232959 0 0.0043187249474385958 -0.010762609062991965 0 0.0041978943576203966 -0.010876045003859186 0 0.0050839911661927379 -0.01232005057170045 0 0.0048668929136262079 -0.011994349710392207 0 0.004984020349897653 -0.011938795146394785 0 0.0050839911661927379 -0.01232005057170045 0 0.0045687135674541725 -0.011938026711901594 0 0.0048668929136262079 -0.011994349710392207 0 0.0048668929136262079 -0.011994349710392207 0 0.004984020349897653 -0.011938795146394785 0 0.004801280166027243 -0.011801051524944305 0 0.0045687135674541725 -0.011938026711901594 0 0.0048668929136262079 -0.011994349710392207 0 0.004801280166027243 -0.011801051524944305 0 0.004801280166027243 -0.011801051524944305 0 0.0049554622145127885 -0.011660928299593412 0 0.0046213854647434941 -0.011423323457591604 0 0.004984020349897653 -0.011938795146394785 0 0.004801280166027243 -0.011801051524944305 0 0.0049554622145127885 -0.011660928299593412 0 0.0045687135674541725 -0.011938026711901594 0 0.004801280166027243 -0.011801051524944305 0 0.0046213854647434941 -0.011423323457591604 0 0.0049554622145127885 -0.011660928299593412 0 0.0046213854647434941 -0.011423323457591604 0 0.0049663202771232694 -0.011199292564029495 0 0.0049554622145127885 -0.011660928299593412 0 0.0054538879300231975 -0.011801835557884388 0 0.0049663202771232694 -0.011199292564029495 0 0.0054538879300231975 -0.011801835557884388 0 0.0054677243134933053 -0.010831273486048586 0 0.0049663202771232694 -0.011199292564029495 0 0.0033757628154655588 -0.023206117938041539 0 0.00270298138081204 -0.022849809499088852 0 0.004984020349897653 -0.011938795146394785 0 0.0049554622145127885 -0.011660928299593412 0 0.0054538879300231975 -0.011801835557884388 0 0.002120650015793779 -0.032716186077311325 0 0.0016450551769243511 -0.033435616878043452 0 0.0017007223538367216 -0.032477616114679787 0 0.0054677243134933053 -0.010831273486048586 0 0.0048926739621278281 -0.010492640460888257 0 0.0049663202771232694 -0.011199292564029495 0 0.00270298138081204 -0.022849809499088852 0 0.0012350149637356195 -0.026331848670191001 0 0.0054677243134933053 -0.010831273486048586 0 0.0048926739621278281 -0.010492640460888257 0 0.0054824864302319741 -0.0099869269996201385 0 0.0048926739621278281 -0.010492640460888257 0 0.0045441045261459629 -0.010852466025694139 0 0.004275326182213204 -0.010182990428050532 0 0.0048926739621278281 -0.010492640460888257 0 0.004275326182213204 -0.010182990428050532 0 0.0049183558074004392 -0.0099361319969923818 0 0.0048926739621278281 -0.010492640460888257 0 0.0045441045261459629 -0.010852466025694139 0 0.0049663202771232694 -0.011199292564029495 0 0.0046213854647434941 -0.011423323457591604 0 0.0045441045261459629 -0.010852466025694139 0 0.0049663202771232694 -0.011199292564029495 0 0.0045441045261459629 -0.010852466025694139 0 0.0039778918791371154 -0.010999031763891588 0 0.004275326182213204 -0.010182990428050532 0 0.0046213854647434941 -0.011423323457591604 0 0.0045441045261459629 -0.010852466025694139 0 0.0039778918791371154 -0.010999031763891588 0 0.0021902103482269245 -0.012862153998839084 0 0.0023123730026842959 -0.011850332471583236 0 0.0039778918791371154 -0.010999031763891588 0 0.004275326182213204 -0.010182990428050532 0 0.0034562236936692952 -0.010071642753154133 0 0.0038255165530829438 -0.010309753490109963 0 0.0033097148589395038 -0.010293927253496831 0 0.0034562236936692952 -0.010071642753154133 0 0.0038255165530829438 -0.010309753490109963 0 0.0035086728410438348 -0.010579447636633274 0 0.0033097148589395038 -0.010293927253496831 0 0.0038255165530829438 -0.010309753490109963 0 0.0035086728410438348 -0.010579447636633274 0 0.0038057228689498553 -0.010676582763359116 0 0.0045687135674541725 -0.011938026711901594 0 0.0046213854647434941 -0.011423323457591604 0 0.0039778918791371154 -0.010999031763891588 0 0.0021163788154213332 -0.017128504772456431 0 0.0021902103482269245 -0.012862153998839084 0 0.0038255165530829438 -0.010309753490109963 0 0.0038057228689498553 -0.010676582763359116 0 0.004049375456640047 -0.010783235049102981 0 0.0043187249474385958 -0.010762609062991965 0 0.0038255165530829438 -0.010309753490109963 0 0.004049375456640047 -0.010783235049102981 0 0.0038057228689498553 -0.010676582763359116 0 0.004049375456640047 -0.010783235049102981 0 0.0039374334033302092 -0.010820273609460723 0 0.0039374334033302092 -0.010820273609460723 0 0.0040867929153149078 -0.01088344331216257 0 0.0040117662688277742 -0.010916998237303664 0 0.004049375456640047 -0.010783235049102981 0 0.0039374334033302092 -0.010820273609460723 0 0.0040867929153149078 -0.01088344331216257 0 0.0039374334033302092 -0.010820273609460723 0 0.0040117662688277742 -0.010916998237303664 0 0.0038909239545137186 -0.010901233520483319 0 0.0043187249474385958 -0.010762609062991965 0 0.004049375456640047 -0.010783235049102981 0 0.0041978943576203966 -0.010876045003859186 0 0.004049375456640047 -0.010783235049102981 0 0.0040867929153149078 -0.01088344331216257 0 0.0041978943576203966 -0.010876045003859186 0 0.0042887073887710484 -0.01101553756232959 0 0.0041978943576203966 -0.010876045003859186 0 0.0041288011401164589 -0.011064156076627892 0 0.0040867929153149078 -0.01088344331216257 0 0.0041978943576203966 -0.010876045003859186 0 0.0041288011401164589 -0.011064156076627892 0 0.0040867929153149078 -0.01088344331216257 0 0.0041288011401164589 -0.011064156076627892 0 0.0040117662688277742 -0.010916998237303664 0 0.0041288011401164589 -0.011064156076627892 0 0.0040117662688277742 -0.010916998237303664 0 0.0038909239545137186 -0.010901233520483319 0 0.0037704986376490891 -0.011356146239246389 0 0.0039245682501390716 -0.011241460703314315 0 0.0036146062550799288 -0.011020712329057256 0 0.0035086728410438348 -0.010579447636633274 0 0.0038057228689498553 -0.010676582763359116 0 0.0036146062550799288 -0.011020712329057256 0 0.0039245682501390716 -0.011241460703314315 0 0.0038909239545137186 -0.010901233520483319 0 0.0036146062550799288 -0.011020712329057256 0 0.0038057228689498553 -0.010676582763359116 0 0.0039374334033302092 -0.010820273609460723 0 0.0038909239545137186 -0.010901233520483319 0 0.0038057228689498553 -0.010676582763359116 0 0.0038909239545137186 -0.010901233520483319 0 0.0036146062550799288 -0.011020712329057256 0 0.00015352195140523036 -0.05485735316917692 0 0.00032567196582195782 -0.054932506399065238 0 0.00037220558326040928 -0.054634475040974441 0 0.00015352195140523036 -0.05485735316917692 0 0.00032567196582195782 -0.054932506399065238 0 2.1499232218528392e-05 -0.055027793822236042 0 -2.6816915163861964e-05 -0.054117568445339485 0 -7.2686568225266483e-05 -0.053093436137737038 0 0.00032567196582195782 -0.054932506399065238 0 0.00037220558326040928 -0.054634475040974441 0 0.00065737323618133225 -0.054788203210918034 0 6.8583696811029535e-05 -0.054729830441627575 0 8.1543211629097305e-05 -0.054764363513428019 0 9.221647147478826e-05 -0.054716653747572751 0 6.8583696811029535e-05 -0.054729830441627575 0 8.1543211629097305e-05 -0.054764363513428019 0 5.0867951523513112e-05 -0.054820823419536931 0 8.1543211629097305e-05 -0.054764363513428019 0 5.0867951523513112e-05 -0.054820823419536931 0 6.5188597411226581e-05 -0.054846234402022451 0 -2.6816915163861964e-05 -0.054117568445339485 0 -1.4717448966466279e-05 -0.054653948254162234 0 6.8583696811029535e-05 -0.054729830441627575 0 5.0867951523513112e-05 -0.054820823419536931 0 8.8941800724449939e-06 -0.054860189860750551 0 2.1499232218528392e-05 -0.055027793822236042 0 5.0158832981466931e-07 -0.054992990653976941 0 9.4269840496225995e-06 -0.054969285040023859 0 -1.4717448966466279e-05 -0.054653948254162234 0 -1.0258297604186149e-07 -0.054999434788270421 0 5.0158832981466931e-07 -0.054992990653976941 0 6.8870548232107881e-09 -0.054999975659226971 0 -2.1209238363521677e-08 -0.055000021286290494 0 2.1499232218528392e-05 -0.055027793822236042 0 5.0158832981466931e-07 -0.054992990653976941 0 -2.1209238363521677e-08 -0.055000021286290494 0 5.0158832981466931e-07 -0.054992990653976941 0 4.6422714958099346e-06 -0.054991731153421389 0 6.8870548232107881e-09 -0.054999975659226971 0 0.00015352195140523036 -0.05485735316917692 0 9.4269840496225995e-06 -0.054969285040023859 0 5.8365337970900169e-05 -0.054658227298312718 0 4.6422714958099346e-06 -0.054991731153421389 0 9.4269840496225995e-06 -0.054969285040023859 0 -3.0650393693791487e-06 -0.054996092392157164 0 5.0158832981466931e-07 -0.054992990653976941 0 4.6422714958099346e-06 -0.054991731153421389 0 9.4269840496225995e-06 -0.054969285040023859 0 0.00015352195140523036 -0.05485735316917692 0 2.1499232218528392e-05 -0.055027793822236042 0 9.4269840496225995e-06 -0.054969285040023859 0 6.1025802208190588e-05 -0.054844512822828123 0 9.1559175354478871e-05 -0.054753159268523546 0 4.6422714958099346e-06 -0.054991731153421389 0 -3.0650393693791487e-06 -0.054996092392157164 0 1.0834038324192218e-06 -0.054998460031115304 0 4.6422714958099346e-06 -0.054991731153421389 0 4.386859411885092e-09 -0.054999997503460935 0 1.0834038324192218e-06 -0.054998460031115304 0 4.6422714958099346e-06 -0.054991731153421389 0 6.8870548232107881e-09 -0.054999975659226971 0 4.386859411885092e-09 -0.054999997503460935 0 -2.3881708743977446e-09 -0.054999996365308459 0 4.386859411885092e-09 -0.054999997503460935 0 5.6417894814077032e-07 -0.054999586556586287 0 4.386859411885092e-09 -0.054999997503460935 0 1.0834038324192218e-06 -0.054998460031115304 0 5.6417894814077032e-07 -0.054999586556586287 0 -3.0650393693791487e-06 -0.054996092392157164 0 1.0834038324192218e-06 -0.054998460031115304 0 1.1388035627579541e-06 -0.054999402887485845 0 -3.0650393693791487e-06 -0.054996092392157164 0 1.1388035627579541e-06 -0.054999402887485845 0 -1.1302673612295447e-06 -0.054998935942495421 0 1.0834038324192218e-06 -0.054998460031115304 0 5.6417894814077032e-07 -0.054999586556586287 0 1.1388035627579541e-06 -0.054999402887485845 0 0.00015379379445428295 -0.054504702684722198 0 0.00019141995071560991 -0.054476395290248093 0 5.8365337970900169e-05 -0.054658227298312718 0 0.00013671061599647227 -0.054351649058263653 0 0.00037220558326040928 -0.054634475040974441 0 9.1559175354478871e-05 -0.054753159268523546 0 0.00019141995071560991 -0.054476395290248093 0 0.00015352195140523036 -0.05485735316917692 0 5.8365337970900169e-05 -0.054658227298312718 0 0.00037220558326040928 -0.054634475040974441 0 0.00013671061599647227 -0.054351649058263653 0 0.00037220558326040928 -0.054634475040974441 0 0.00053791552329590458 -0.054337943026430011 0 0.00019141995071560991 -0.054476395290248093 0 0.00054266995932018911 -0.053317435922308518 0 0.00037220558326040928 -0.054634475040974441 0 0.00053791552329590458 -0.054337943026430011 0 0.00074116460269165493 -0.05452019282628362 0 0.00093976023784469987 -0.054321941489330464 0 0.00053791552329590458 -0.054337943026430011 0 0.00074116460269165493 -0.05452019282628362 0 0.00093976023784469987 -0.054321941489330464 0 0.00074116460269165493 -0.05452019282628362 0 0.00098537959675833306 -0.05464254882832232 0 0.0011626135222543002 -0.050927044444571856 0 0.00054266995932018911 -0.053317435922308518 0 0.00074116460269165493 -0.05452019282628362 0 0.00098537959675833306 -0.05464254882832232 0 0.00065737323618133225 -0.054788203210918034 0 0.0001771517963491546 -0.054540900103135025 0 0.00017522554660693278 -0.054527489799000427 0 9.7306208703308168e-05 -0.054628906691790421 0 0.00010404603239956072 -0.050852346320625359 0 -7.2686568225266483e-05 -0.053093436137737038 0 0.00037220558326040928 -0.054634475040974441 0 0.00074116460269165493 -0.05452019282628362 0 0.00065737323618133225 -0.054788203210918034 0 0.001300671724662715 -0.048085280531224295 0 0.0013252365468260966 -0.048125443684119057 0 0.001250577851494441 -0.048161874763788873 0 0.00094911583613291719 -0.043644202840194712 0 0.0015453657689545308 -0.043628256508062312 0 0.0012325451583995121 -0.044139214571989285 0 0.001953802633969829 -0.047541464896908955 0 0.0019348859793968511 -0.044944851471553367 0 0.001242002668075034 -0.048091204835853246 0 0.001300671724662715 -0.048085280531224295 0 0.001250577851494441 -0.048161874763788873 0 0.0011626135222543002 -0.050927044444571856 0 0.00010404603239956072 -0.050852346320625359 0 0.00017618777512873785 -0.054523073834330742 0 0.00024841901053679111 -0.05452995645093104 0 0.00021119647838238799 -0.054555093470179498 0 0.0001771517963491546 -0.054540900103135025 0 0.00017618777512873785 -0.054523073834330742 0 0.00021119647838238799 -0.054555093470179498 0 0.00011003522601466637 -0.050905586614106497 0 0.00010404603239956072 -0.050852346320625359 0 0.00032708713340473479 -0.054544715070713387 0 0.00028210552066446212 -0.054452518940157596 0 0.00024841901053679111 -0.05452995645093104 0 0.0019348859793968511 -0.044944851471553367 0 0.00010404603239956072 -0.050852346320625359 0 0.00028210552066446212 -0.054452518940157596 0 0.00017618777512873785 -0.054523073834330742 0 0.00024841901053679111 -0.05452995645093104 0 0.00032708713340473479 -0.054544715070713387 0 0.00029174252717075242 -0.054597050634099156 0 0.00024841901053679111 -0.05452995645093104 0 0.00029174252717075242 -0.054597050634099156 0 0.00024841901053679111 -0.05452995645093104 0 0.00023059226682540699 -0.054608185870798985 0 0.00024841901053679111 -0.05452995645093104 0 0.00023059226682540699 -0.054608185870798985 0 0.00021119647838238799 -0.054555093470179498 0 0.0001771517963491546 -0.054540900103135025 0 0.00018842380467858869 -0.054599305452292433 0 0.00013821877303757962 -0.054645212885336386 0 0.00023059226682540699 -0.054608185870798985 0 0.00021119647838238799 -0.054555093470179498 0 0.00018842380467858869 -0.054599305452292433 0 0.00023059226682540699 -0.054608185870798985 0 0.00018842380467858869 -0.054599305452292433 0 0.00018223374475881551 -0.054644080078294001 0 0.0001771517963491546 -0.054540900103135025 0 0.00021119647838238799 -0.054555093470179498 0 0.00018842380467858869 -0.054599305452292433 0 0.00018842380467858869 -0.054599305452292433 0 0.00018223374475881551 -0.054644080078294001 0 0.00013821877303757962 -0.054645212885336386 0 0.00023059226682540699 -0.054608185870798985 0 0.00018223374475881551 -0.054644080078294001 0 0.00019796896723506962 -0.054692804048705863 0 0.00018223374475881551 -0.054644080078294001 0 0.00010014896654037668 -0.05471352859188771 0 0.00019796896723506962 -0.054692804048705863 0 0.0002909455857664794 -0.054651785675098034 0 0.00023059226682540699 -0.054608185870798985 0 0.00019796896723506962 -0.054692804048705863 0 0.0002909455857664794 -0.054651785675098034 0 0.00029174252717075242 -0.054597050634099156 0 0.00023059226682540699 -0.054608185870798985 0 9.7306208703308168e-05 -0.054628906691790421 0 0.00013821877303757962 -0.054645212885336386 0 9.221647147478826e-05 -0.054716653747572751 0 6.8583696811029535e-05 -0.054729830441627575 0 9.7306208703308168e-05 -0.054628906691790421 0 9.221647147478826e-05 -0.054716653747572751 0 0.0001771517963491546 -0.054540900103135025 0 9.7306208703308168e-05 -0.054628906691790421 0 0.00013821877303757962 -0.054645212885336386 0 0.00013821877303757962 -0.054645212885336386 0 9.221647147478826e-05 -0.054716653747572751 0 0.00010014896654037668 -0.05471352859188771 0 0.00018223374475881551 -0.054644080078294001 0 0.00013821877303757962 -0.054645212885336386 0 0.00010014896654037668 -0.05471352859188771 0 9.221647147478826e-05 -0.054716653747572751 0 0.00010014896654037668 -0.05471352859188771 0 0.00010260725622562678 -0.054707999827316278 0 0.00010014896654037668 -0.05471352859188771 0 8.3297623501749998e-05 -0.054683837925648945 0 5.7083402015861297e-05 -0.054690073313486298 0 0.00010014896654037668 -0.05471352859188771 0 8.3297623501749998e-05 -0.054683837925648945 0 0.00010260725622562678 -0.054707999827316278 0 8.3297623501749998e-05 -0.054683837925648945 0 0.00010260725622562678 -0.054707999827316278 0 9.0684358112799791e-05 -0.054670235357639818 0 8.8477211375027534e-05 -0.054770599826598154 0 9.0654696994118403e-05 -0.054765051693248579 0 8.7771097105790989e-05 -0.054888361562529756 0 6.7313770831425014e-05 -0.054855628229947676 0 7.3043228758373204e-05 -0.054889711249139557 0 -5.8279915698015944e-05 -0.048163102127716302 0 -0.00035445424833586536 -0.050547136671813049 0 -1.6799394687568706e-05 -0.054712233656158973 0 4.0243673168831456e-05 -0.054717684570774749 0 6.3045739784076846e-06 -0.054676027955947337 0 -0.00038040644343732583 -0.051240238763468407 0 -0.00035445424833586536 -0.050547136671813049 0 0.00010014896654037668 -0.05471352859188771 0 4.0243673168831456e-05 -0.054717684570774749 0 5.7083402015861297e-05 -0.054690073313486298 0 4.0243673168831456e-05 -0.054717684570774749 0 5.7083402015861297e-05 -0.054690073313486298 0 6.3045739784076846e-06 -0.054676027955947337 0 8.3297623501749998e-05 -0.054683837925648945 0 5.7083402015861297e-05 -0.054690073313486298 0 4.9609340309756333e-05 -0.054670120694214196 0 5.7083402015861297e-05 -0.054690073313486298 0 6.3045739784076846e-06 -0.054676027955947337 0 4.9609340309756333e-05 -0.054670120694214196 0 -4.5692838375190874e-05 -0.054632971872938398 0 6.3045739784076846e-06 -0.054676027955947337 0 7.7670788907642406e-06 -0.054641435804487735 0 6.3045739784076846e-06 -0.054676027955947337 0 7.7670788907642406e-06 -0.054641435804487735 0 4.9609340309756333e-05 -0.054670120694214196 0 -4.5692838375190874e-05 -0.054632971872938398 0 7.7670788907642406e-06 -0.054641435804487735 0 -2.4941064209407021e-05 -0.054611266605291184 0 8.3297623501749998e-05 -0.054683837925648945 0 4.9609340309756333e-05 -0.054670120694214196 0 7.8307212384141111e-05 -0.054659955303692158 0 7.7670788907642406e-06 -0.054641435804487735 0 4.9609340309756333e-05 -0.054670120694214196 0 7.8307212384141111e-05 -0.054659955303692158 0 7.8307212384141111e-05 -0.054659955303692158 0 1.7387971997178639e-05 -0.05461687797540165 0 9.0592615991844991e-05 -0.054637026695434125 0 7.8307212384141111e-05 -0.054659955303692158 0 0.00010241119134273714 -0.054698637744827715 0 9.0592615991844991e-05 -0.054637026695434125 0 7.7670788907642406e-06 -0.054641435804487735 0 7.8307212384141111e-05 -0.054659955303692158 0 1.7387971997178639e-05 -0.05461687797540165 0 7.7670788907642406e-06 -0.054641435804487735 0 1.7387971997178639e-05 -0.05461687797540165 0 -2.4941064209407021e-05 -0.054611266605291184 0 1.7387971997178639e-05 -0.05461687797540165 0 -2.4941064209407021e-05 -0.054611266605291184 0 -5.3183277355095802e-05 -0.054581915614592275 0 8.3297623501749998e-05 -0.054683837925648945 0 7.8307212384141111e-05 -0.054659955303692158 0 9.0684358112799791e-05 -0.054670235357639818 0 9.0654696994118403e-05 -0.054765051693248579 0 9.1067705875277948e-05 -0.054752912688518937 0 7.8307212384141111e-05 -0.054659955303692158 0 9.0684358112799791e-05 -0.054670235357639818 0 0.00010241119134273714 -0.054698637744827715 0 6.7313770831425014e-05 -0.054855628229947676 0 7.8582681589605557e-05 -0.054850350814700764 0 0.00010241119134273714 -0.054698637744827715 0 7.8582681589605557e-05 -0.054850350814700764 0 4.4323621549836436e-05 -0.054920879985239444 0 3.5398642106744466e-05 -0.05492523269498726 0 7.8582681589605557e-05 -0.054850350814700764 0 4.4323621549836436e-05 -0.054920879985239444 0 7.3043228758373204e-05 -0.054889711249139557 0 6.7313770831425014e-05 -0.054855628229947676 0 7.8582681589605557e-05 -0.054850350814700764 0 7.3043228758373204e-05 -0.054889711249139557 0 8.7771097105790989e-05 -0.054888361562529756 0 7.3043228758373204e-05 -0.054889711249139557 0 4.3637209763626413e-05 -0.054890746183941262 0 4.4323621549836436e-05 -0.054920879985239444 0 7.3043228758373204e-05 -0.054889711249139557 0 4.3637209763626413e-05 -0.054890746183941262 0 5.0867951523513112e-05 -0.054820823419536931 0 4.3637209763626413e-05 -0.054890746183941262 0 6.5188597411226581e-05 -0.054846234402022451 0 5.0867951523513112e-05 -0.054820823419536931 0 8.8941800724449939e-06 -0.054860189860750551 0 4.3637209763626413e-05 -0.054890746183941262 0 8.2999362633956036e-05 -0.054761010507476823 0 8.8477211375027534e-05 -0.054770599826598154 0 8.1543211629097305e-05 -0.054764363513428019 0 9.221647147478826e-05 -0.054716653747572751 0 0.00010260725622562678 -0.054707999827316278 0 8.1543211629097305e-05 -0.054764363513428019 0 8.7771097105790989e-05 -0.054888361562529756 0 6.5188597411226581e-05 -0.054846234402022451 0 8.7771097105790989e-05 -0.054888361562529756 0 4.3637209763626413e-05 -0.054890746183941262 0 6.5188597411226581e-05 -0.054846234402022451 0 8.8941800724449939e-06 -0.054860189860750551 0 -3.5399431994110014e-08 -0.054999778209084582 0 1.2195638936337546e-05 -0.054947623193759593 0 8.8941800724449939e-06 -0.054860189860750551 0 4.3637209763626413e-05 -0.054890746183941262 0 1.2195638936337546e-05 -0.054947623193759593 0 4.4323621549836436e-05 -0.054920879985239444 0 4.3637209763626413e-05 -0.054890746183941262 0 1.2195638936337546e-05 -0.054947623193759593 0 1.2195638936337546e-05 -0.054947623193759593 0 2.1987911126629119e-08 -0.054999959354320532 0 1.8532362872222357e-05 -0.05496149133518001 0 -3.5399431994110014e-08 -0.054999778209084582 0 1.2195638936337546e-05 -0.054947623193759593 0 2.1987911126629119e-08 -0.054999959354320532 0 2.1987911126629119e-08 -0.054999959354320532 0 1.8532362872222357e-05 -0.05496149133518001 0 1.753089546674343e-08 -0.054999918474084412 0 4.4323621549836436e-05 -0.054920879985239444 0 1.2195638936337546e-05 -0.054947623193759593 0 1.8532362872222357e-05 -0.05496149133518001 0 4.4323621549836436e-05 -0.054920879985239444 0 1.8532362872222357e-05 -0.05496149133518001 0 3.5398642106744466e-05 -0.05492523269498726 0 1.8532362872222357e-05 -0.05496149133518001 0 3.5398642106744466e-05 -0.05492523269498726 0 1.753089546674343e-08 -0.054999918474084412 0 1.753089546674343e-08 -0.054999918474084412 0 2.1626717775328075e-05 -0.054944264132803323 0 9.3580743994647272e-09 -0.054999928615853434 0 3.5398642106744466e-05 -0.05492523269498726 0 1.753089546674343e-08 -0.054999918474084412 0 2.1626717775328075e-05 -0.054944264132803323 0 3.5398642106744466e-05 -0.05492523269498726 0 2.1626717775328075e-05 -0.054944264132803323 0 5.2113972912541851e-05 -0.054880519173279997 0 2.1626717775328075e-05 -0.054944264132803323 0 5.2113972912541851e-05 -0.054880519173279997 0 1.9008935438442291e-05 -0.054950998924230422 0 2.1626717775328075e-05 -0.054944264132803323 0 9.3580743994647272e-09 -0.054999928615853434 0 1.9008935438442291e-05 -0.054950998924230422 0 7.8582681589605557e-05 -0.054850350814700764 0 5.2113972912541851e-05 -0.054880519173279997 0 9.3052288513828974e-05 -0.054775215480923976 0 7.8582681589605557e-05 -0.054850350814700764 0 3.5398642106744466e-05 -0.05492523269498726 0 5.2113972912541851e-05 -0.054880519173279997 0 5.2113972912541851e-05 -0.054880519173279997 0 6.2798605550750945e-05 -0.054874234782662019 0 1.9008935438442291e-05 -0.054950998924230422 0 5.2113972912541851e-05 -0.054880519173279997 0 6.2798605550750945e-05 -0.054874234782662019 0 9.3052288513828974e-05 -0.054775215480923976 0 6.2798605550750945e-05 -0.054874234782662019 0 6.7408816065468608e-05 -0.054942316674980035 0 0.00012604433978423202 -0.054831591626264602 0 6.2798605550750945e-05 -0.054874234782662019 0 6.7408816065468608e-05 -0.054942316674980035 0 1.9008935438442291e-05 -0.054950998924230422 0 6.7408816065468608e-05 -0.054942316674980035 0 1.9008935438442291e-05 -0.054950998924230422 0 2.7778464910885764e-05 -0.054990878623728881 0 9.3580743994647272e-09 -0.054999928615853434 0 1.9008935438442291e-05 -0.054950998924230422 0 7.378577286517839e-10 -0.054999957874752023 0 1.9008935438442291e-05 -0.054950998924230422 0 7.2618877621294505e-06 -0.054994252626574786 0 2.7778464910885764e-05 -0.054990878623728881 0 1.9008935438442291e-05 -0.054950998924230422 0 7.378577286517839e-10 -0.054999957874752023 0 7.2618877621294505e-06 -0.054994252626574786 0 7.378577286517839e-10 -0.054999957874752023 0 7.2618877621294505e-06 -0.054994252626574786 0 3.6007993389049024e-09 -0.05500002062656717 0 7.2618877621294505e-06 -0.054994252626574786 0 3.6007993389049024e-09 -0.05500002062656717 0 4.3557281946492034e-06 -0.0550057442188275 0 7.7948724352183466e-07 -0.054998752914200519 0 0.00015606026201950588 -0.054718201283132956 0 1.801289141157042e-10 -0.054999999919271104 0 1.0081196266364185e-08 -0.05499965195873293 0 -2.395359390617574e-10 -0.054999999237026205 0 8.2259416675411765e-07 -0.05500052042303466 0 1.2046031656160219e-08 -0.054999980870234839 0 6.4990831561855502e-07 -0.054999446351617118 0 0.00015606026201950588 -0.054718201283132956 0 1.4754988843101172e-07 -0.054999081205678653 0 0.001777448374687417 -0.053363816009336991 0 0.0014595082035870771 -0.053367224538044614 0 0.0014250809354817624 -0.053604569303892589 0 0.001777448374687417 -0.053363816009336991 0 0.0014595082035870771 -0.053367224538044614 0 0.0014462465712855737 -0.05312884071448884 0 8.2259416675411765e-07 -0.05500052042303466 0 6.4990831561855502e-07 -0.054999446351617118 0 -3.6604862036947953e-06 -0.054999253898552966 0 0.00015606026201950588 -0.054718201283132956 0 0.00041121000790829713 -0.054395640610459484 0 0.00015606026201950588 -0.054718201283132956 0 0.00059245581449233987 -0.054403196976023784 0 7.2618877621294505e-06 -0.054994252626574786 0 4.3557281946492034e-06 -0.0550057442188275 0 2.7778464910885764e-05 -0.054990878623728881 0 0.00053759281046018663 -0.054427612934775965 0 0.00059245581449233987 -0.054403196976023784 0 0.0010857348262102342 -0.053857942764717823 0 0.0014250809354817624 -0.053604569303892589 0 0.0011872680605980173 -0.053371842629205052 0 0.0010857348262102342 -0.053857942764717823 0 0.0011872680605980173 -0.053371842629205052 0 0.00086055365497023583 -0.053528903542754754 0 0.0011872680605980173 -0.053371842629205052 0 0.00086437105241440654 -0.053229428709382243 0 0.00086055365497023583 -0.053528903542754754 0 0.0014595082035870771 -0.053367224538044614 0 0.0011872680605980173 -0.053371842629205052 0 0.0014462465712855737 -0.05312884071448884 0 0.0014595082035870771 -0.053367224538044614 0 0.0014250809354817624 -0.053604569303892589 0 0.0011872680605980173 -0.053371842629205052 0 0.00037723774945329878 -0.054165136628017738 0 0.00041121000790829713 -0.054395640610459484 0 -1.7925175595052427e-05 -0.05499118414471358 0 -3.5663154733677196e-06 -0.054991598407536049 0 -3.6604862036947953e-06 -0.054999253898552966 0 0.0011872680605980173 -0.053371842629205052 0 0.001097322476531564 -0.052891587297209115 0 0.0014462465712855737 -0.05312884071448884 0 0.001097322476531564 -0.052891587297209115 0 0.00079506902451852428 -0.052917361699722561 0 0.00086437105241440654 -0.053229428709382243 0 0.0011872680605980173 -0.053371842629205052 0 0.001097322476531564 -0.052891587297209115 0 0.00086437105241440654 -0.053229428709382243 0 0.001097322476531564 -0.052891587297209115 0 0.00079506902451852428 -0.052917361699722561 0 0.00074311686993326761 -0.052680488945286909 0 0.00037723774945329878 -0.054165136628017738 0 0.00023510683510433609 -0.054038741965750481 0 -1.7925175595052427e-05 -0.05499118414471358 0 -3.5663154733677196e-06 -0.054991598407536049 0 -9.5179740393441314e-06 -0.054978429225098185 0 -3.5663154733677196e-06 -0.054991598407536049 0 3.7215523896905305e-06 -0.054991531787820923 0 1.3674536016302706e-06 -0.054998159132579313 0 -3.5663154733677196e-06 -0.054991598407536049 0 3.7215523896905305e-06 -0.054991531787820923 0 -9.5179740393441314e-06 -0.054978429225098185 0 -1.5661105923836526e-08 -0.055000029650617531 0 3.7215523896905305e-06 -0.054991531787820923 0 1.3674536016302706e-06 -0.054998159132579313 0 1.2046031656160219e-08 -0.054999980870234839 0 -1.5661105923836526e-08 -0.055000029650617531 0 1.3674536016302706e-06 -0.054998159132579313 0 1.2046031656160219e-08 -0.054999980870234839 0 1.3674536016302706e-06 -0.054998159132579313 0 6.4990831561855502e-07 -0.054999446351617118 0 1.3674536016302706e-06 -0.054998159132579313 0 6.4990831561855502e-07 -0.054999446351617118 0 -3.6604862036947953e-06 -0.054999253898552966 0 -3.5663154733677196e-06 -0.054991598407536049 0 1.3674536016302706e-06 -0.054998159132579313 0 -3.6604862036947953e-06 -0.054999253898552966 0 0.00035715575266550837 -0.053126836845174073 0 0.00011453244306075576 -0.053061681561472444 0 0.00026121162441398896 -0.052933200415809629 0 0.00011453244306075576 -0.053061681561472444 0 0.00010494173851672097 -0.052899412208381597 0 0.00026121162441398896 -0.052933200415809629 0 0.00035715575266550837 -0.053126836845174073 0 0.00026121162441398896 -0.052933200415809629 0 0.00043841364254445961 -0.052938016288308617 0 0.00011453244306075576 -0.053061681561472444 0 0.00010494173851672097 -0.052899412208381597 0 -7.3375763223083713e-05 -0.052928050528553899 0 0.00011453244306075576 -0.053061681561472444 0 -5.5971532656442537e-05 -0.053118489643776974 0 -7.3375763223083713e-05 -0.052928050528553899 0 0.00010494173851672097 -0.052899412208381597 0 3.2802067053479823e-05 -0.052788524918377606 0 -7.3375763223083713e-05 -0.052928050528553899 0 0.00010494173851672097 -0.052899412208381597 0 3.2802067053479823e-05 -0.052788524918377606 0 0.0002174863369228529 -0.05277975011742287 0 0.00010494173851672097 -0.052899412208381597 0 0.0002174863369228529 -0.05277975011742287 0 0.00026121162441398896 -0.052933200415809629 0 0.00026121162441398896 -0.052933200415809629 0 0.00034409596786885341 -0.052800590717700033 0 0.00043841364254445961 -0.052938016288308617 0 0.0002174863369228529 -0.05277975011742287 0 0.00026121162441398896 -0.052933200415809629 0 0.00034409596786885341 -0.052800590717700033 0 0.0002174863369228529 -0.05277975011742287 0 0.00034409596786885341 -0.052800590717700033 0 0.00033694333307956038 -0.052700451854736104 0 0.00034409596786885341 -0.052800590717700033 0 0.00049263338630307451 -0.052795714737517367 0 0.00042598633524237233 -0.052701981423292146 0 0.00049263338630307451 -0.052795714737517367 0 0.00054380197560671781 -0.0527027791631315 0 0.00042598633524237233 -0.052701981423292146 0 0.00049263338630307451 -0.052795714737517367 0 0.0005942885912479473 -0.0529014467933826 0 0.00062368371904230116 -0.052783160848273253 0 0.00049263338630307451 -0.052795714737517367 0 0.00062368371904230116 -0.052783160848273253 0 0.00054380197560671781 -0.0527027791631315 0 0.00049263338630307451 -0.052795714737517367 0 0.0005942885912479473 -0.0529014467933826 0 0.00043841364254445961 -0.052938016288308617 0 0.00034409596786885341 -0.052800590717700033 0 0.00049263338630307451 -0.052795714737517367 0 0.00043841364254445961 -0.052938016288308617 0 0.00062368371904230116 -0.052783160848273253 0 0.00079506902451852428 -0.052917361699722561 0 0.00074311686993326761 -0.052680488945286909 0 0.0005942885912479473 -0.0529014467933826 0 0.00062368371904230116 -0.052783160848273253 0 0.00079506902451852428 -0.052917361699722561 0 0.00079506902451852428 -0.052917361699722561 0 0.00059489189386091905 -0.053081867069927235 0 0.00086437105241440654 -0.053229428709382243 0 0.0005942885912479473 -0.0529014467933826 0 0.00079506902451852428 -0.052917361699722561 0 0.00059489189386091905 -0.053081867069927235 0 0.00035715575266550837 -0.053126836845174073 0 0.00043841364254445961 -0.052938016288308617 0 0.00059489189386091905 -0.053081867069927235 0 0.0005942885912479473 -0.0529014467933826 0 0.00043841364254445961 -0.052938016288308617 0 0.00059489189386091905 -0.053081867069927235 0 0.00035715575266550837 -0.053126836845174073 0 0.00059489189386091905 -0.053081867069927235 0 0.00054362228040130678 -0.053415310657764316 0 0.00059489189386091905 -0.053081867069927235 0 0.00054362228040130678 -0.053415310657764316 0 0.00086437105241440654 -0.053229428709382243 0 0.00054362228040130678 -0.053415310657764316 0 0.00086437105241440654 -0.053229428709382243 0 0.00086055365497023583 -0.053528903542754754 0 0.0010857348262102342 -0.053857942764717823 0 0.00086055365497023583 -0.053528903542754754 0 0.00065581682149007349 -0.053777322378332909 0 0.00054362228040130678 -0.053415310657764316 0 0.00086055365497023583 -0.053528903542754754 0 0.00065581682149007349 -0.053777322378332909 0 0.00054362228040130678 -0.053415310657764316 0 0.00029623694772201747 -0.053689894933830036 0 0.00065581682149007349 -0.053777322378332909 0 0.00029623694772201747 -0.053689894933830036 0 0.00017382915086894374 -0.053341678854387849 0 9.9722612329667946e-05 -0.053603677846401299 0 0.00054362228040130678 -0.053415310657764316 0 0.00029623694772201747 -0.053689894933830036 0 0.00017382915086894374 -0.053341678854387849 0 0.00029623694772201747 -0.053689894933830036 0 9.9722612329667946e-05 -0.053603677846401299 0 0.00011235602719286559 -0.053861332001032047 0 0.00035715575266550837 -0.053126836845174073 0 0.00054362228040130678 -0.053415310657764316 0 0.00017382915086894374 -0.053341678854387849 0 0.00035715575266550837 -0.053126836845174073 0 0.00011453244306075576 -0.053061681561472444 0 0.00017382915086894374 -0.053341678854387849 0 -5.5971532656442537e-05 -0.053118489643776974 0 -2.0786044880477024e-05 -0.053442886137805394 0 -0.00018677104403362244 -0.053143027615590581 0 0.00017382915086894374 -0.053341678854387849 0 -5.5971532656442537e-05 -0.053118489643776974 0 -2.0786044880477024e-05 -0.053442886137805394 0 0.00011453244306075576 -0.053061681561472444 0 0.00017382915086894374 -0.053341678854387849 0 -5.5971532656442537e-05 -0.053118489643776974 0 -2.0786044880477024e-05 -0.053442886137805394 0 -0.00018677104403362244 -0.053143027615590581 0 -0.00018916111336863677 -0.053667763990289191 0 0.00017382915086894374 -0.053341678854387849 0 -2.0786044880477024e-05 -0.053442886137805394 0 9.9722612329667946e-05 -0.053603677846401299 0 -2.0786044880477024e-05 -0.053442886137805394 0 9.9722612329667946e-05 -0.053603677846401299 0 -9.0541548257899786e-05 -0.053728266592183861 0 -2.0786044880477024e-05 -0.053442886137805394 0 -9.0541548257899786e-05 -0.053728266592183861 0 -0.00018916111336863677 -0.053667763990289191 0 -0.001431687213705853 -0.050531715231194839 0 -0.0011879819538863302 -0.049661683982950074 0 -9.0541548257899786e-05 -0.053728266592183861 0 -0.00021981424711144988 -0.053854479331383938 0 -0.00018916111336863677 -0.053667763990289191 0 -9.0541548257899786e-05 -0.053728266592183861 0 -4.7742092042384658e-05 -0.053990207237550721 0 -0.00022813898378275862 -0.054066940973000847 0 -4.7742092042384658e-05 -0.053990207237550721 0 -6.0598209333796531e-05 -0.054163340458433337 0 -0.00022813898378275862 -0.054066940973000847 0 -4.7742092042384658e-05 -0.053990207237550721 0 0.00011235602719286559 -0.053861332001032047 0 9.3428974552006952e-05 -0.054144487126633195 0 -9.0541548257899786e-05 -0.053728266592183861 0 -4.7742092042384658e-05 -0.053990207237550721 0 0.00011235602719286559 -0.053861332001032047 0 9.9722612329667946e-05 -0.053603677846401299 0 -9.0541548257899786e-05 -0.053728266592183861 0 0.00011235602719286559 -0.053861332001032047 0 0.00029623694772201747 -0.053689894933830036 0 0.00011235602719286559 -0.053861332001032047 0 0.00036485401487580628 -0.05403808286197935 0 0.00011235602719286559 -0.053861332001032047 0 9.3428974552006952e-05 -0.054144487126633195 0 0.00036485401487580628 -0.05403808286197935 0 9.3428974552006952e-05 -0.054144487126633195 0 9.2919024688317999e-06 -0.054316247776709022 0 0.00020254110950526983 -0.054570010291645918 0 9.3428974552006952e-05 -0.054144487126633195 0 0.00036485401487580628 -0.05403808286197935 0 0.00020254110950526983 -0.054570010291645918 0 9.2919024688317999e-06 -0.054316247776709022 0 -6.0598209333796531e-05 -0.054163340458433337 0 -0.00013366839711191153 -0.054280317204579785 0 9.2919024688317999e-06 -0.054316247776709022 0 -2.6784265787059513e-05 -0.054443570255506911 0 -0.00013366839711191153 -0.054280317204579785 0 -6.0598209333796531e-05 -0.054163340458433337 0 -0.00022813898378275862 -0.054066940973000847 0 -0.00013366839711191153 -0.054280317204579785 0 9.3428974552006952e-05 -0.054144487126633195 0 9.2919024688317999e-06 -0.054316247776709022 0 -6.0598209333796531e-05 -0.054163340458433337 0 -4.7742092042384658e-05 -0.053990207237550721 0 9.3428974552006952e-05 -0.054144487126633195 0 -6.0598209333796531e-05 -0.054163340458433337 0 0.00053759281046018663 -0.054427612934775965 0 0.00039701241406831585 -0.054510408264554243 0 0.0010857348262102342 -0.053857942764717823 0 0.00065581682149007349 -0.053777322378332909 0 0.00073212123482904561 -0.054169784935892876 0 0.00065581682149007349 -0.053777322378332909 0 0.00036485401487580628 -0.05403808286197935 0 0.00073212123482904561 -0.054169784935892876 0 0.00029623694772201747 -0.053689894933830036 0 0.00065581682149007349 -0.053777322378332909 0 0.00036485401487580628 -0.05403808286197935 0 0.00036485401487580628 -0.05403808286197935 0 0.00073212123482904561 -0.054169784935892876 0 0.00020254110950526983 -0.054570010291645918 0 0.00039701241406831585 -0.054510408264554243 0 0.00030240385849198472 -0.054563720753419059 0 6.2798605550750945e-05 -0.054874234782662019 0 0.00012604433978423202 -0.054831591626264602 0 9.3052288513828974e-05 -0.054775215480923976 0 0.00012604433978423202 -0.054831591626264602 0 9.3052288513828974e-05 -0.054775215480923976 0 0.00020254110950526983 -0.054570010291645918 0 9.3052288513828974e-05 -0.054775215480923976 0 0.00010241119134273714 -0.054698637744827715 0 0.00020254110950526983 -0.054570010291645918 0 7.8582681589605557e-05 -0.054850350814700764 0 9.3052288513828974e-05 -0.054775215480923976 0 0.00010241119134273714 -0.054698637744827715 0 -2.6784265787059513e-05 -0.054443570255506911 0 2.6879956415604816e-05 -0.054562604120428328 0 -9.7669079768792377e-05 -0.054475264050735009 0 -2.6784265787059513e-05 -0.054443570255506911 0 -0.00014777117895226275 -0.054390278840860715 0 -0.00013366839711191153 -0.054280317204579785 0 -2.6784265787059513e-05 -0.054443570255506911 0 -9.7669079768792377e-05 -0.054475264050735009 0 -0.00014777117895226275 -0.054390278840860715 0 0.00020254110950526983 -0.054570010291645918 0 9.0592615991844991e-05 -0.054637026695434125 0 2.6879956415604816e-05 -0.054562604120428328 0 9.2919024688317999e-06 -0.054316247776709022 0 -2.6784265787059513e-05 -0.054443570255506911 0 0.00020254110950526983 -0.054570010291645918 0 -2.6784265787059513e-05 -0.054443570255506911 0 0.00020254110950526983 -0.054570010291645918 0 2.6879956415604816e-05 -0.054562604120428328 0 0.00010241119134273714 -0.054698637744827715 0 0.00020254110950526983 -0.054570010291645918 0 9.0592615991844991e-05 -0.054637026695434125 0 1.7387971997178639e-05 -0.05461687797540165 0 9.0592615991844991e-05 -0.054637026695434125 0 2.6879956415604816e-05 -0.054562604120428328 0 1.7387971997178639e-05 -0.05461687797540165 0 2.6879956415604816e-05 -0.054562604120428328 0 -3.709807583122377e-05 -0.054562937474164123 0 2.6879956415604816e-05 -0.054562604120428328 0 -3.709807583122377e-05 -0.054562937474164123 0 -9.7669079768792377e-05 -0.054475264050735009 0 1.7387971997178639e-05 -0.05461687797540165 0 -3.709807583122377e-05 -0.054562937474164123 0 -5.3183277355095802e-05 -0.054581915614592275 0 -5.3183277355095802e-05 -0.054581915614592275 0 -9.7473183675529572e-05 -0.054555089626036592 0 -9.5108168847889729e-05 -0.054536924293511854 0 -3.709807583122377e-05 -0.054562937474164123 0 -5.3183277355095802e-05 -0.054581915614592275 0 -9.5108168847889729e-05 -0.054536924293511854 0 -7.0641046034905085e-05 -0.054586071404983817 0 -9.7473183675529572e-05 -0.054555089626036592 0 -0.0001018368465147663 -0.054537922932983478 0 -9.7473183675529572e-05 -0.054555089626036592 0 -0.00011843059908279325 -0.054541133376734108 0 -0.0001018368465147663 -0.054537922932983478 0 -9.7473183675529572e-05 -0.054555089626036592 0 -0.00011843059908279325 -0.054541133376734108 0 -0.00011949754510526111 -0.05453427134130294 0 -0.00011843059908279325 -0.054541133376734108 0 -0.00011949754510526111 -0.05453427134130294 0 -0.00016004516332888993 -0.054526650715286999 0 -9.7473183675529572e-05 -0.054555089626036592 0 -0.00011949754510526111 -0.05453427134130294 0 -9.5108168847889729e-05 -0.054536924293511854 0 -0.00011949754510526111 -0.05453427134130294 0 -9.5108168847889729e-05 -0.054536924293511854 0 -0.00014429890465816528 -0.054497298976177895 0 -0.00011949754510526111 -0.05453427134130294 0 -0.00014429890465816528 -0.054497298976177895 0 -0.00016004516332888993 -0.054526650715286999 0 -3.709807583122377e-05 -0.054562937474164123 0 -9.5108168847889729e-05 -0.054536924293511854 0 -9.7669079768792377e-05 -0.054475264050735009 0 -0.00014429890465816528 -0.054497298976177895 0 -0.00014777117895226275 -0.054390278840860715 0 -0.00026270683127242207 -0.054297456858999733 0 -9.7669079768792377e-05 -0.054475264050735009 0 -0.00014429890465816528 -0.054497298976177895 0 -0.00014777117895226275 -0.054390278840860715 0 0.00080138243693958727 -0.047611226417299063 0 -0.00047192881548097689 -0.047804819078070111 0 -9.5108168847889729e-05 -0.054536924293511854 0 -9.7669079768792377e-05 -0.054475264050735009 0 -0.00014429890465816528 -0.054497298976177895 0 -0.00014429890465816528 -0.054497298976177895 0 -0.00016004516332888993 -0.054526650715286999 0 -0.00026270683127242207 -0.054297456858999733 0 0.00017938383968805493 -0.044160300611665107 0 -0.0001761214070066779 -0.043850496511153463 0 0.00066955441517470835 -0.045463650388403144 0 3.3562096305187778e-05 -0.044700087103235107 0 -0.00034292733098627846 -0.046919090618719329 0 0.00017938383968805493 -0.044160300611665107 0 0.00037233141722152236 -0.041439702600267983 0 0.00017938383968805493 -0.044160300611665107 0 -0.00047192881548097689 -0.047804819078070111 0 0.00017938383968805493 -0.044160300611665107 0 0.00080138243693958727 -0.047611226417299063 0 0.00017938383968805493 -0.044160300611665107 0 0.00081181500007686388 -0.043377440645042446 0 -0.00011755408307393728 -0.05445379261554098 0 -9.1808091023231391e-05 -0.054490058179777978 0 -0.0001018368465147663 -0.054537922932983478 0 -0.00011755408307393728 -0.05445379261554098 0 -0.0001018368465147663 -0.054537922932983478 0 -0.00014053882427952653 -0.054526355523321975 0 0.00080138243693958727 -0.047611226417299063 0 0.00065571466235068868 -0.048541789566017679 0 -0.00011843059908279325 -0.054541133376734108 0 -0.00016004516332888993 -0.054526650715286999 0 -0.0001018368465147663 -0.054537922932983478 0 0.0032434449532406403 -0.034556607833456099 0 0.0025887262183192502 -0.035503429523256899 0 0.0024004836114030503 -0.03470892879220009 0 0.0025887262183192502 -0.035503429523256899 0 0.0018811596971540765 -0.035264950660755266 0 0.0024004836114030503 -0.03470892879220009 0 0.0016404091583427738 -0.03487145959481136 0 0.0013746518887493009 -0.034464284091390053 0 0.0012954957885452523 -0.035276048650111767 0 0.0018811596971540765 -0.035264950660755266 0 0.001955510843727189 -0.034820237126069999 0 0.0016404091583427738 -0.03487145959481136 0 0.0018811596971540765 -0.035264950660755266 0 0.001955510843727189 -0.034820237126069999 0 0.0024004836114030503 -0.03470892879220009 0 0.0018811596971540765 -0.035264950660755266 0 0.0016404091583427738 -0.03487145959481136 0 0.0012954957885452523 -0.035276048650111767 0 0.0013746518887493009 -0.034464284091390053 0 0.0016804834897682882 -0.034049556591554682 0 0.0012298439793976754 -0.033646861245986495 0 0.0016404091583427738 -0.03487145959481136 0 0.0013746518887493009 -0.034464284091390053 0 0.0018362991810937836 -0.034491135931745263 0 0.001955510843727189 -0.034820237126069999 0 0.0018362991810937836 -0.034491135931745263 0 0.0024004836114030503 -0.03470892879220009 0 0.001955510843727189 -0.034820237126069999 0 0.0016404091583427738 -0.03487145959481136 0 0.0018362991810937836 -0.034491135931745263 0 0.0018362991810937836 -0.034491135931745263 0 0.0016804834897682882 -0.034049556591554682 0 0.0021250946509514339 -0.034192831633824465 0 0.0013746518887493009 -0.034464284091390053 0 0.0018362991810937836 -0.034491135931745263 0 0.0016804834897682882 -0.034049556591554682 0 0.0032434449532406403 -0.034556607833456099 0 0.0024004836114030503 -0.03470892879220009 0 0.0026453139524154519 -0.034100409954149397 0 0.0015150735108936878 -0.042522001485245778 0 0.00067961938563272672 -0.041901256564266874 0 0.00042654121060410643 -0.041209010193419209 0 0.0018362991810937836 -0.034491135931745263 0 0.0024004836114030503 -0.03470892879220009 0 0.0021250946509514339 -0.034192831633824465 0 0.0024004836114030503 -0.03470892879220009 0 0.0021250946509514339 -0.034192831633824465 0 0.0026453139524154519 -0.034100409954149397 0 0.00037233141722152236 -0.041439702600267983 0 0.00075249979393164884 -0.039767365806223691 0 0.0021250946509514339 -0.034192831633824465 0 0.0026453139524154519 -0.034100409954149397 0 0.0020611884927395703 -0.033613471559598145 0 0.00067961938563272672 -0.041901256564266874 0 0.00042654121060410643 -0.041209010193419209 0 -0.00012920336246915527 -0.041241870392503086 0 -0.0001761214070066779 -0.043850496511153463 0 0.00075249979393164884 -0.039767365806223691 0 0.0037842144451420991 -0.031768785334995199 0 0.0029858842240496632 -0.031804155075182979 0 0.0027646310931925618 -0.030916495511527028 0 0.00075249979393164884 -0.039767365806223691 0 0.0018110275221846751 -0.032253264539216689 0 -0.0031178665742937358 -0.049388968040257254 0 -0.0025903831332725444 -0.049361245497257872 0 -0.0021184858922615032 -0.050521888678714127 0 0.0016804834897682882 -0.034049556591554682 0 0.0020611884927395703 -0.033613471559598145 0 0.0012298439793976754 -0.033646861245986495 0 0.0016804834897682882 -0.034049556591554682 0 0.0021250946509514339 -0.034192831633824465 0 0.0020611884927395703 -0.033613471559598145 0 -0.00046404788370460177 -0.047060526941886761 0 -9.0784484170107114e-05 -0.047579649486541226 0 -2.158007663436296e-06 -0.047641124744453436 0 0.00075249979393164884 -0.039767365806223691 0 0.0021977313607890233 -0.038472850532603721 0 -0.0025903831332725444 -0.049361245497257872 0 -0.0021184858922615032 -0.050521888678714127 0 -0.0012352810424450262 -0.050531546232505692 0 -0.0001761214070066779 -0.043850496511153463 0 3.9220118264753134e-05 -0.047549413029158931 0 -6.7981829911141543e-05 -0.047696627718735778 0 -0.00024859308002743582 -0.047865998101204149 0 -4.600623726657775e-05 -0.047926785597458686 0 -9.0784484170107114e-05 -0.047579649486541226 0 -2.158007663436296e-06 -0.047641124744453436 0 0.00027235748315544982 -0.048070245338255671 0 -0.0003646251084785529 -0.047353867490332838 0 -0.00041938068627391678 -0.047697786353347128 0 -0.00071316873478793549 -0.047678501923432343 0 -0.0003646251084785529 -0.047353867490332838 0 -6.7981829911141543e-05 -0.047696627718735778 0 -0.00041938068627391678 -0.047697786353347128 0 -0.0001761214070066779 -0.043850496511153463 0 0.0005635546747775373 -0.045935362642757695 0 -6.7981829911141543e-05 -0.047696627718735778 0 -0.00041938068627391678 -0.047697786353347128 0 -0.00024859308002743582 -0.047865998101204149 0 -0.00041938068627391678 -0.047697786353347128 0 -0.00060064029324760322 -0.047997007716569451 0 -0.00024859308002743582 -0.047865998101204149 0 -0.00041938068627391678 -0.047697786353347128 0 -0.00071316873478793549 -0.047678501923432343 0 -0.00060064029324760322 -0.047997007716569451 0 -0.0005170004867799964 -0.048123467107794402 0 -0.00098460784824578478 -0.050700439197948692 0 -0.00071316873478793549 -0.047678501923432343 0 -0.00098492474046120936 -0.047400879160736403 0 -0.0010716482906025511 -0.047927602105724242 0 -0.00021981424711144988 -0.053854479331383938 0 -0.00026980041746710949 -0.053653836838115879 0 -0.00018916111336863677 -0.053667763990289191 0 -0.00021981424711144988 -0.053854479331383938 0 -0.00031345950987117619 -0.053927763004681092 0 -0.00026980041746710949 -0.053653836838115879 0 -0.00021981424711144988 -0.053854479331383938 0 -0.00031345950987117619 -0.053927763004681092 0 -0.00027477424025886254 -0.05392827433411964 0 -0.00046211813806101788 -0.04774313701774275 0 -3.7976482635262088e-06 -0.047748151460540525 0 -0.00060705344458579155 -0.048619784474759974 0 -0.0005170004867799964 -0.048123467107794402 0 -0.00076891070291128531 -0.048358574985097845 0 -0.00022813898378275862 -0.054066940973000847 0 -0.00024830766053624741 -0.054194204510667525 0 -0.00013366839711191153 -0.054280317204579785 0 -0.0011879819538863302 -0.049661683982950074 0 -0.00076891070291128531 -0.048358574985097845 0 -0.00024830766053624741 -0.054194204510667525 0 -0.00013366839711191153 -0.054280317204579785 0 -0.00026270683127242207 -0.054297456858999733 0 -0.00014777117895226275 -0.054390278840860715 0 -0.00013366839711191153 -0.054280317204579785 0 -0.00026270683127242207 -0.054297456858999733 0 -0.0005170004867799964 -0.048123467107794402 0 -0.00047192881548097689 -0.047804819078070111 0 -0.00076891070291128531 -0.048358574985097845 0 -0.00047192881548097689 -0.047804819078070111 0 -0.0003646251084785529 -0.047353867490332838 0 -0.00071316873478793549 -0.047678501923432343 0 -0.00098492474046120936 -0.047400879160736403 0 -0.0001761214070066779 -0.043850496511153463 0 -0.0005170004867799964 -0.048123467107794402 0 -8.6348930654681636e-05 -0.045611446906891645 0 0.00059948940645009356 -0.04557419435251308 0 0.00057418147537852083 -0.045729113538970897 0 0.00031847573029080014 -0.046096671401468538 0 -8.6348930654681636e-05 -0.045611446906891645 0 0.00057418147537852083 -0.045729113538970897 0 0.0038497047914066505 -0.0095889298576738117 0 0.0037693973031390294 -0.0091121225682617105 0 0.0033072244432615422 -0.0094524665506473936 0 0.0038497047914066505 -0.0095889298576738117 0 0.0042873335636228497 -0.0090482403153403692 0 0.0037693973031390294 -0.0091121225682617105 0 0.004275326182213204 -0.010182990428050532 0 0.0038497047914066505 -0.0095889298576738117 0 0.0034562236936692952 -0.010071642753154133 0 0.004275326182213204 -0.010182990428050532 0 0.0038497047914066505 -0.0095889298576738117 0 0.0045384836062894521 -0.0095423071636210246 0 0.0038497047914066505 -0.0095889298576738117 0 0.0045384836062894521 -0.0095423071636210246 0 0.0042873335636228497 -0.0090482403153403692 0 0.0045384836062894521 -0.0095423071636210246 0 0.0048474360447366043 -0.0090086639000206848 0 0.0042873335636228497 -0.0090482403153403692 0 0.0045384836062894521 -0.0095423071636210246 0 0.0049183558074004392 -0.0099361319969923818 0 0.0051514399602190994 -0.0094821912344083721 0 0.0045384836062894521 -0.0095423071636210246 0 0.0051514399602190994 -0.0094821912344083721 0 0.0048474360447366043 -0.0090086639000206848 0 0.004275326182213204 -0.010182990428050532 0 0.0045384836062894521 -0.0095423071636210246 0 0.0049183558074004392 -0.0099361319969923818 0 0.0012350149637356195 -0.026331848670191001 0 0.0017027542221674863 -0.024455366627016788 0 0.0049183558074004392 -0.0099361319969923818 0 0.0054824864302319741 -0.0099869269996201385 0 0.0051514399602190994 -0.0094821912344083721 0 0.0048926739621278281 -0.010492640460888257 0 0.0049183558074004392 -0.0099361319969923818 0 0.0054824864302319741 -0.0099869269996201385 0 0.0013746518887493009 -0.034464284091390053 0 0.0012954957885452523 -0.035276048650111767 0 0.00084132259721945762 -0.034482854573874969 0 0.0017027542221674863 -0.024455366627016788 0 0.0025723742572800307 -0.024639156996722773 0 0.0013746518887493009 -0.034464284091390053 0 0.00084132259721945762 -0.034482854573874969 0 0.0012298439793976754 -0.033646861245986495 0 0.00084132259721945762 -0.034482854573874969 0 0.0012298439793976754 -0.033646861245986495 0 0.00039167195405208143 -0.033683137080891531 0 0.0029858842240496632 -0.031804155075182979 0 0.0027646310931925618 -0.030916495511527028 0 0.002182518216987128 -0.031842483519038088 0 0.0018110275221846751 -0.032253264539216689 0 0.0025723742572800307 -0.024639156996722773 0 0.0027646310931925618 -0.030916495511527028 0 0.0016870177400461347 -0.030968137230585481 0 0.002182518216987128 -0.031842483519038088 0 0.0042843697768632852 -0.0087223814762774285 0 0.0045065814724106644 -0.0091289342333492618 0 0.0041274780152608364 -0.0091225723614462972 0 0.0022979837293063466 -0.021849470306490933 0 0.0025723742572800307 -0.024639156996722773 0 0.0025723742572800307 -0.024639156996722773 0 0.0038999832026771577 -0.020155882122182871 0 0.0038999832026771577 -0.020155882122182871 0 0.0041024260254064557 -0.018800228568300072 0 0.0042843697768632852 -0.0087223814762774285 0 0.0041274780152608364 -0.0091225723614462972 0 0.003854917755021026 -0.0087433529835682037 0 0.0042843697768632852 -0.0087223814762774285 0 0.003854917755021026 -0.0087433529835682037 0 0.0040536006995592526 -0.0083407482726599261 0 0.003854917755021026 -0.0087433529835682037 0 0.0034711974646333206 -0.0089041906546211743 0 0.0035563789747469457 -0.0085527013579406556 0 0.003854917755021026 -0.0087433529835682037 0 0.0037370354319713728 -0.0084712282105854544 0 0.0035563789747469457 -0.0085527013579406556 0 0.003854917755021026 -0.0087433529835682037 0 0.0037693973031390294 -0.0091121225682617105 0 0.0034711974646333206 -0.0089041906546211743 0 0.0041274780152608364 -0.0091225723614462972 0 0.003854917755021026 -0.0087433529835682037 0 0.0037693973031390294 -0.0091121225682617105 0 0.0038386763901500187 -0.0080505926331729104 0 0.0037952324486230939 -0.0081291635652379519 0 0.0040536006995592526 -0.0083407482726599261 0 0.003662133299715961 -0.0080400423972146126 0 0.0037952324486230939 -0.0081291635652379519 0 0.0037442082440129424 -0.0079358305946014146 0 0.003662133299715961 -0.0080400423972146126 0 0.0037952324486230939 -0.0081291635652379519 0 0.0036478496510775503 -0.0081729727237488965 0 0.003662133299715961 -0.0080400423972146126 0 0.0036478496510775503 -0.0081729727237488965 0 0.0035251522265790148 -0.0080434810103018391 0 0.0038386763901500187 -0.0080505926331729104 0 0.0037952324486230939 -0.0081291635652379519 0 0.0037803775417711888 -0.0080172571489930088 0 0.0046863555440786976 -0.020174345849131376 0 0.0050611953990260068 -0.022270498134417338 0 0.0037952324486230939 -0.0081291635652379519 0 0.0038060463328290395 -0.0082989336956715461 0 0.0040536006995592526 -0.0083407482726599261 0 0.0037952324486230939 -0.0081291635652379519 0 0.0036478496510775503 -0.0081729727237488965 0 0.0038060463328290395 -0.0082989336956715461 0 0.0036478496510775503 -0.0081729727237488965 0 0.0036193105555009648 -0.008337708989347551 0 0.0038060463328290395 -0.0082989336956715461 0 0.003854917755021026 -0.0087433529835682037 0 0.0037370354319713728 -0.0084712282105854544 0 0.0040536006995592526 -0.0083407482726599261 0 0.0036193105555009648 -0.008337708989347551 0 0.0037370354319713728 -0.0084712282105854544 0 0.0038060463328290395 -0.0082989336956715461 0 0.0037370354319713728 -0.0084712282105854544 0 0.0038060463328290395 -0.0082989336956715461 0 0.0040536006995592526 -0.0083407482726599261 0 0.0036193105555009648 -0.008337708989347551 0 0.0037370354319713728 -0.0084712282105854544 0 0.0035563789747469457 -0.0085527013579406556 0 0.0016870177400461347 -0.030968137230585481 0 0.0011853397660549993 -0.030089012737104268 0 0.0017318554638958844 -0.030060818151683971 0 0.0022979837293063466 -0.021849470306490933 0 0.0027932903723460667 -0.021622637300880005 0 0.0049431292761825249 -0.025092434443495074 0 0.0039648970536146329 -0.03504088468678411 0 0.0049431292761825249 -0.025092434443495074 0 0.0027932903723460667 -0.021622637300880005 0 0.00068304819292562449 -0.02920038264780633 0 0.0011853397660549993 -0.030089012737104268 0 0.0017318554638958844 -0.030060818151683971 0 0.00031331748088234178 -0.052441406006384562 0 1.9659887410406415e-05 -0.052305226304994984 0 -9.1140159142881719e-05 -0.051698619198210082 0 1.9659887410406415e-05 -0.052305226304994984 0 -0.00049698535084900558 -0.052216643889226644 0 2.1740980123276195e-05 -0.052649085710763148 0 2.1103573234434485e-06 -0.052780937061081182 0 -3.2388174003979095e-05 -0.052805393731746933 0 2.8683086291779799e-05 -0.052735571848366108 0 -0.00049698535084900558 -0.052216643889226644 0 -9.1140159142881719e-05 -0.051698619198210082 0 -0.00063934185501586386 -0.051705121724106552 0 1.9659887410406415e-05 -0.052305226304994984 0 -0.00049698535084900558 -0.052216643889226644 0 -9.1140159142881719e-05 -0.051698619198210082 0 0.0027646310931925618 -0.030916495511527028 0 0.0016870177400461347 -0.030968137230585481 0 0.0017318554638958844 -0.030060818151683971 0 -0.0012352810424450262 -0.050531546232505692 0 -9.1140159142881719e-05 -0.051698619198210082 0 -0.00063934185501586386 -0.051705121724106552 0 0.0021977313607890233 -0.038472850532603721 0 0.0039648970536146329 -0.03504088468678411 0 0.00016866127411530594 -0.050031935316688696 0 0.00028247060220313642 -0.049983973608814229 0 -0.0021184858922615032 -0.050521888678714127 0 -0.0012352810424450262 -0.050531546232505692 0 -0.0011719437063703987 -0.051604980717264763 0 -0.0012352810424450262 -0.050531546232505692 0 -0.00063934185501586386 -0.051705121724106552 0 -0.0011719437063703987 -0.051604980717264763 0 -2.158007663436296e-06 -0.047641124744453436 0 0.00043466968909895096 -0.048184175314910919 0 0.00027235748315544982 -0.048070245338255671 0 3.9220118264753134e-05 -0.047549413029158931 0 0.00028247060220313642 -0.049983973608814229 0 -4.5473877304431599e-05 -0.052799596085571381 0 -3.2388174003979095e-05 -0.052805393731746933 0 -8.3001567123551883e-05 -0.052841990855100669 0 2.1103573234434485e-06 -0.052780937061081182 0 -4.5473877304431599e-05 -0.052799596085571381 0 -3.2388174003979095e-05 -0.052805393731746933 0 0.00050060982132463412 -0.051045774066534141 0 0.00028247060220313642 -0.049983973608814229 0 -0.00049698535084900558 -0.052216643889226644 0 -0.00063934185501586386 -0.051705121724106552 0 -0.0010671039925435335 -0.051641250219486429 0 -1.1453879988633674e-05 -0.052808632700829528 0 -8.6987596639657384e-05 -0.052851486221144071 0 -7.9595170518335887e-05 -0.05291308109575131 0 -3.2388174003979095e-05 -0.052805393731746933 0 -1.1453879988633674e-05 -0.052808632700829528 0 -8.6987596639657384e-05 -0.052851486221144071 0 -3.2388174003979095e-05 -0.052805393731746933 0 -1.1453879988633674e-05 -0.052808632700829528 0 2.8683086291779799e-05 -0.052735571848366108 0 -1.1453879988633674e-05 -0.052808632700829528 0 2.2239951418331707e-05 -0.052904099759665459 0 -7.9595170518335887e-05 -0.05291308109575131 0 2.2239951418331707e-05 -0.052904099759665459 0 -7.9595170518335887e-05 -0.05291308109575131 0 -6.6880165516557811e-06 -0.053075574273113817 0 2.2239951418331707e-05 -0.052904099759665459 0 0.00014059422015319167 -0.052749523548777981 0 0.00012568639499640517 -0.053071857313292566 0 -1.1453879988633674e-05 -0.052808632700829528 0 2.2239951418331707e-05 -0.052904099759665459 0 0.00014059422015319167 -0.052749523548777981 0 0.00014059422015319167 -0.052749523548777981 0 2.8683086291779799e-05 -0.052735571848366108 0 2.1740980123276195e-05 -0.052649085710763148 0 -1.1453879988633674e-05 -0.052808632700829528 0 0.00014059422015319167 -0.052749523548777981 0 2.8683086291779799e-05 -0.052735571848366108 0 2.1103573234434485e-06 -0.052780937061081182 0 2.8683086291779799e-05 -0.052735571848366108 0 2.1740980123276195e-05 -0.052649085710763148 0 0.00050060982132463412 -0.051045774066534141 0 0.00056912712744026678 -0.051367152567084011 0 0.00031331748088234178 -0.052441406006384562 0 1.9659887410406415e-05 -0.052305226304994984 0 0.00014454798596778642 -0.052570566817055894 0 1.9659887410406415e-05 -0.052305226304994984 0 2.1740980123276195e-05 -0.052649085710763148 0 0.00014454798596778642 -0.052570566817055894 0 0.00031331748088234178 -0.052441406006384562 0 0.00014454798596778642 -0.052570566817055894 0 0.00017986515198068645 -0.052570369066594944 0 0.00014454798596778642 -0.052570566817055894 0 0.00013442468136430649 -0.052610871415389823 0 0.00017986515198068645 -0.052570369066594944 0 0.00014454798596778642 -0.052570566817055894 0 0.00011484754699259394 -0.052663424358688447 0 0.00013442468136430649 -0.052610871415389823 0 2.1740980123276195e-05 -0.052649085710763148 0 0.00014454798596778642 -0.052570566817055894 0 0.00011484754699259394 -0.052663424358688447 0 0.00014059422015319167 -0.052749523548777981 0 2.1740980123276195e-05 -0.052649085710763148 0 0.00011484754699259394 -0.052663424358688447 0 0.00014059422015319167 -0.052749523548777981 0 0.00011484754699259394 -0.052663424358688447 0 0.00014280173944518796 -0.052568067434854683 0 0.0015840740938869835 -0.051378201147113285 0 0.0018309756103639487 -0.05089434033386192 0 0.00014059422015319167 -0.052749523548777981 0 0.00014280173944518796 -0.052568067434854683 0 0.00025778716425793136 -0.052272310756157826 0 0.00014280173944518796 -0.052568067434854683 0 9.1145861194406622e-05 -0.052552257046559428 0 6.6331260480123987e-05 -0.052439227600364707 0 0.00014280173944518796 -0.052568067434854683 0 6.6331260480123987e-05 -0.052439227600364707 0 0.00025778716425793136 -0.052272310756157826 0 0.00014280173944518796 -0.052568067434854683 0 0.00013442468136430649 -0.052610871415389823 0 9.1145861194406622e-05 -0.052552257046559428 0 0.00011484754699259394 -0.052663424358688447 0 0.00014280173944518796 -0.052568067434854683 0 0.00013442468136430649 -0.052610871415389823 0 0.00013442468136430649 -0.052610871415389823 0 9.4713309267002781e-05 -0.052565774346318248 0 9.1145861194406622e-05 -0.052552257046559428 0 9.4713309267002781e-05 -0.052565774346318248 0 9.1145861194406622e-05 -0.052552257046559428 0 -1.0105306603580175e-05 -0.052524532327945787 0 6.6331260480123987e-05 -0.052439227600364707 0 -1.0105306603580175e-05 -0.052524532327945787 0 -5.2803176296173653e-05 -0.052254811060809654 0 9.1145861194406622e-05 -0.052552257046559428 0 6.6331260480123987e-05 -0.052439227600364707 0 -1.0105306603580175e-05 -0.052524532327945787 0 -1.0105306603580175e-05 -0.052524532327945787 0 -0.00011350408025662454 -0.052556856470122343 0 -5.2803176296173653e-05 -0.052254811060809654 0 0.0045337583641726527 -0.025243664344083493 0 0.0048240603245726377 -0.024963760152807962 0 0.0067465446441233382 -0.018780885725183032 0 0.0080799906838774412 -0.025041927869630918 0 0.0049178997767619506 -0.019493234579417974 0 0.0048240603245726377 -0.024963760152807962 0 0.0058254732097354749 -0.024711973017032322 0 0.0048240603245726377 -0.024963760152807962 0 0.0069217301614751441 -0.021170619501140533 0 0.0058254732097354749 -0.024711973017032322 0 0.0069217301614751441 -0.021170619501140533 0 9.4713309267002781e-05 -0.052565774346318248 0 1.911927679802108e-06 -0.052524380608925336 0 0.00015244772838299357 -0.052566323245838056 0 9.4713309267002781e-05 -0.052565774346318248 0 -1.0105306603580175e-05 -0.052524532327945787 0 1.911927679802108e-06 -0.052524380608925336 0 0.0073806987292914204 -0.020999297885688408 0 0.007544054232639914 -0.021767730625057238 0 0.0055957205195907083 -0.020178664050778443 0 0.00013442468136430649 -0.052610871415389823 0 9.4713309267002781e-05 -0.052565774346318248 0 0.00017986515198068645 -0.052570369066594944 0 9.4713309267002781e-05 -0.052565774346318248 0 0.00015244772838299357 -0.052566323245838056 0 0.00017986515198068645 -0.052570369066594944 0 0.0044502216958559439 -0.023995496674122589 0 0.0044103630761515716 -0.023946522060472236 0 0.0044226203924485289 -0.023978704153510787 0 0.00031331748088234178 -0.052441406006384562 0 0.00015244772838299357 -0.052566323245838056 0 0.00017986515198068645 -0.052570369066594944 0 0.0049431292761825249 -0.025092434443495074 0 0.0058254732097354749 -0.024711973017032322 0 0.0049431292761825249 -0.025092434443495074 0 0.0050611953990260068 -0.022270498134417338 0 0.003662133299715961 -0.0080400423972146126 0 0.0037442082440129424 -0.0079358305946014146 0 0.0035514894974422776 -0.0079213839218685855 0 0.0058254732097354749 -0.024711973017032322 0 0.0050611953990260068 -0.022270498134417338 0 -0.00016625542919455763 -0.053034242463760081 0 -0.0001715673076414811 -0.05296989971830722 0 -0.00016991963878979383 -0.05303202100100838 0 -0.00016625542919455763 -0.053034242463760081 0 -0.0001715673076414811 -0.05296989971830722 0 -0.00014518290555856877 -0.052958209889361535 0 -0.00016625542919455763 -0.053034242463760081 0 -0.00018677104403362244 -0.053143027615590581 0 -0.00016991963878979383 -0.05303202100100838 0 -5.5971532656442537e-05 -0.053118489643776974 0 -0.00018677104403362244 -0.053143027615590581 0 -0.00016991963878979383 -0.05303202100100838 0 -0.00016625542919455763 -0.053034242463760081 0 -0.00018677104403362244 -0.053143027615590581 0 -0.00020450210952308452 -0.052976933934315934 0 -0.00099416385897418296 -0.051669431032064443 0 -0.00098460784824578478 -0.050700439197948692 0 -0.00018677104403362244 -0.053143027615590581 0 -0.00035188767095129984 -0.053638489134577395 0 -0.00018916111336863677 -0.053667763990289191 0 -0.00098460784824578478 -0.050700439197948692 0 -0.0009118794326672938 -0.050761544692709056 0 -0.00098460784824578478 -0.050700439197948692 0 -0.00044550893529081805 -0.050496003653089941 0 -0.00071316873478793549 -0.047678501923432343 0 -0.0010716482906025511 -0.047927602105724242 0 -0.00060064029324760322 -0.047997007716569451 0 -0.00016625542919455763 -0.053034242463760081 0 -0.00020450210952308452 -0.052976933934315934 0 -0.00014518290555856877 -0.052958209889361535 0 -0.00014518290555856877 -0.052958209889361535 0 -0.00011589423431248925 -0.052862133360936037 0 -0.00013606675832794686 -0.05289704461700101 0 -0.00044550893529081805 -0.050496003653089941 0 -6.9406701975220498e-05 -0.050280242945651636 0 -0.00060064029324760322 -0.047997007716569451 0 -0.00024859308002743582 -0.047865998101204149 0 -0.00012409129219356202 -0.048077721427216578 0 0.00028247060220313642 -0.049983973608814229 0 -6.9406701975220498e-05 -0.050280242945651636 0 0.00043466968909895096 -0.048184175314910919 0 0.00027235748315544982 -0.048070245338255671 0 -0.00012409129219356202 -0.048077721427216578 0 -4.5473877304431599e-05 -0.052799596085571381 0 -0.00011589423431248925 -0.052862133360936037 0 -8.3001567123551883e-05 -0.052841990855100669 0 -6.7981829911141543e-05 -0.047696627718735778 0 0.00027235748315544982 -0.048070245338255671 0 -4.600623726657775e-05 -0.047926785597458686 0 0.00027235748315544982 -0.048070245338255671 0 -4.600623726657775e-05 -0.047926785597458686 0 -0.00012409129219356202 -0.048077721427216578 0 0.0005635546747775373 -0.045935362642757695 0 0.00075686466053917479 -0.046526945689413707 0 -0.00024859308002743582 -0.047865998101204149 0 -4.600623726657775e-05 -0.047926785597458686 0 -0.00012409129219356202 -0.048077721427216578 0 -0.00011589423431248925 -0.052862133360936037 0 -8.3001567123551883e-05 -0.052841990855100669 0 -0.00013606675832794686 -0.05289704461700101 0 -8.3001567123551883e-05 -0.052841990855100669 0 -0.00013606675832794686 -0.05289704461700101 0 -8.6987596639657384e-05 -0.052851486221144071 0 -3.2388174003979095e-05 -0.052805393731746933 0 -8.3001567123551883e-05 -0.052841990855100669 0 -8.6987596639657384e-05 -0.052851486221144071 0 -0.0001715673076414811 -0.05296989971830722 0 -0.00014518290555856877 -0.052958209889361535 0 -0.00013606675832794686 -0.05289704461700101 0 -0.0001715673076414811 -0.05296989971830722 0 -0.00013606675832794686 -0.05289704461700101 0 -0.00016883241403544671 -0.052910929579346851 0 -0.00016883241403544671 -0.052910929579346851 0 -8.6987596639657384e-05 -0.052851486221144071 0 -7.9595170518335887e-05 -0.05291308109575131 0 -0.00013606675832794686 -0.05289704461700101 0 -0.00016883241403544671 -0.052910929579346851 0 -8.6987596639657384e-05 -0.052851486221144071 0 -0.00016883241403544671 -0.052910929579346851 0 -7.9595170518335887e-05 -0.05291308109575131 0 -0.00022124278382501341 -0.052946162932596214 0 -0.00016883241403544671 -0.052910929579346851 0 -0.00022124278382501341 -0.052946162932596214 0 -0.00019327276890879349 -0.052940865678596828 0 -0.00022124278382501341 -0.052946162932596214 0 -0.00019327276890879349 -0.052940865678596828 0 -0.00016596181678560275 -0.052806904613661707 0 -0.0001715673076414811 -0.05296989971830722 0 -0.00019327276890879349 -0.052940865678596828 0 -0.00016991963878979383 -0.05303202100100838 0 -0.0001715673076414811 -0.05296989971830722 0 -0.00016883241403544671 -0.052910929579346851 0 -0.00019327276890879349 -0.052940865678596828 0 -0.00019327276890879349 -0.052940865678596828 0 -0.00016991963878979383 -0.05303202100100838 0 -7.3375763223083713e-05 -0.052928050528553899 0 -5.5971532656442537e-05 -0.053118489643776974 0 -0.00016991963878979383 -0.05303202100100838 0 -7.3375763223083713e-05 -0.052928050528553899 0 3.2802067053479823e-05 -0.052788524918377606 0 -7.3375763223083713e-05 -0.052928050528553899 0 -0.00016596181678560275 -0.052806904613661707 0 -0.00019327276890879349 -0.052940865678596828 0 -7.3375763223083713e-05 -0.052928050528553899 0 -0.00016596181678560275 -0.052806904613661707 0 -0.00016895113619598697 -0.053236939000792655 0 -0.0001100676425403629 -0.053455093484490623 0 -0.00046998725388912565 -0.0530293666620665 0 -0.00051361280662594582 -0.053145652667637613 0 -0.0006722151219501056 -0.053101816454970849 0 3.2802067053479823e-05 -0.052788524918377606 0 -0.00016596181678560275 -0.052806904613661707 0 3.8077289151778735e-05 -0.052643035677302968 0 -0.00051361280662594582 -0.053145652667637613 0 -0.00042926537632568027 -0.053266265205047514 0 -0.00065491772351093322 -0.053205815620347444 0 6.0461070205765161e-06 -0.053612833832465005 0 -6.8082472138397581e-05 -0.053705872359599741 0 0.0004682700540335113 -0.053778812349358732 0 0.00046635537301799524 -0.053797077411125653 0 0.00047352787079815907 -0.05381553693058088 0 -0.00042926537632568027 -0.053266265205047514 0 -0.00032697943759611736 -0.053134425717225514 0 -0.00020403399174281204 -0.053342034594830792 0 -0.00051361280662594582 -0.053145652667637613 0 -0.00042926537632568027 -0.053266265205047514 0 -0.00032697943759611736 -0.053134425717225514 0 -0.00046998725388912565 -0.0530293666620665 0 -0.00051361280662594582 -0.053145652667637613 0 -0.00032697943759611736 -0.053134425717225514 0 -0.00022124278382501341 -0.052946162932596214 0 -0.00046998725388912565 -0.0530293666620665 0 -0.00032697943759611736 -0.053134425717225514 0 -0.00016632723241566104 -0.053173523906351015 0 -0.00016895113619598697 -0.053236939000792655 0 -0.00022124278382501341 -0.052946162932596214 0 -0.00032697943759611736 -0.053134425717225514 0 -0.00014293608812748638 -0.053111506721752869 0 -7.9595170518335887e-05 -0.05291308109575131 0 -0.00022124278382501341 -0.052946162932596214 0 -0.00014293608812748638 -0.053111506721752869 0 -7.9595170518335887e-05 -0.05291308109575131 0 -0.00014293608812748638 -0.053111506721752869 0 -6.6880165516557811e-06 -0.053075574273113817 0 -0.00014293608812748638 -0.053111506721752869 0 -2.1539712172056165e-05 -0.053231673772055871 0 -6.6880165516557811e-06 -0.053075574273113817 0 -0.00014293608812748638 -0.053111506721752869 0 -2.1539712172056165e-05 -0.053231673772055871 0 -0.00020403399174281204 -0.053342034594830792 0 -0.00032697943759611736 -0.053134425717225514 0 -0.00014293608812748638 -0.053111506721752869 0 -0.00020403399174281204 -0.053342034594830792 0 6.0461070205765161e-06 -0.053612833832465005 0 8.3358859474016111e-05 -0.05357402678096481 0 0.0004682700540335113 -0.053778812349358732 0 0.00034193592036811025 -0.053690533163979738 0 0.00038390440497441058 -0.053616836561858019 0 8.3358859474016111e-05 -0.05357402678096481 0 0.00012228625150033072 -0.053561463997417215 0 0.00034193592036811025 -0.053690533163979738 0 0.00038390440497441058 -0.053616836561858019 0 0.0001276897468427638 -0.053464640444871807 0 -2.1539712172056165e-05 -0.053231673772055871 0 -0.00020403399174281204 -0.053342034594830792 0 0.0001276897468427638 -0.053464640444871807 0 0.00038390440497441058 -0.053616836561858019 0 0.0001276897468427638 -0.053464640444871807 0 0.00030305452454771828 -0.053513441955209656 0 0.00038390440497441058 -0.053616836561858019 0 0.00047628752758060788 -0.053724839466658306 0 0.00047779099352152922 -0.053645560481208256 0 0.00047628752758060788 -0.053724839466658306 0 0.00047779099352152922 -0.053645560481208256 0 0.00049533732888999585 -0.053763799310957178 0 0.00047628752758060788 -0.053724839466658306 0 0.00049533732888999585 -0.053763799310957178 0 0.00047352787079815907 -0.05381553693058088 0 0.0004682700540335113 -0.053778812349358732 0 0.00047628752758060788 -0.053724839466658306 0 0.00047352787079815907 -0.05381553693058088 0 0.0004682700540335113 -0.053778812349358732 0 0.00038390440497441058 -0.053616836561858019 0 0.00047628752758060788 -0.053724839466658306 0 0.0023636215731760173 -0.048797462888142296 0 0.0018309756103639487 -0.05089434033386192 0 -3.4479889905433949e-05 -0.051596301883451885 0 -5.2803176296173653e-05 -0.052254811060809654 0 -0.00036808107417300528 -0.051992977800414418 0 -0.00011350408025662454 -0.052556856470122343 0 -5.2803176296173653e-05 -0.052254811060809654 0 -0.00036808107417300528 -0.051992977800414418 0 -3.4479889905433949e-05 -0.051596301883451885 0 -5.2803176296173653e-05 -0.052254811060809654 0 0.00025778716425793136 -0.052272310756157826 0 0.0048240603245726377 -0.024963760152807962 0 0.0039217437132510876 -0.036069865988844617 0 6.6331260480123987e-05 -0.052439227600364707 0 -5.2803176296173653e-05 -0.052254811060809654 0 0.00025778716425793136 -0.052272310756157826 0 0.00029737706470125183 -0.053276538368115106 0 0.00030720342179307717 -0.053096610630355021 0 0.00024459101423160597 -0.053320070130270396 0 0.00030720342179307717 -0.053096610630355021 0 0.00019801646333854304 -0.053290305734690638 0 0.00024459101423160597 -0.053320070130270396 0 0.00019801646333854304 -0.053290305734690638 0 0.00010056271620971635 -0.05322236965208671 0 0.0001276897468427638 -0.053464640444871807 0 0.00019801646333854304 -0.053290305734690638 0 0.00012568639499640517 -0.053071857313292566 0 0.00010056271620971635 -0.05322236965208671 0 0.00014059422015319167 -0.052749523548777981 0 0.00030720342179307717 -0.053096610630355021 0 0.00012568639499640517 -0.053071857313292566 0 0.00030720342179307717 -0.053096610630355021 0 0.00019801646333854304 -0.053290305734690638 0 0.00012568639499640517 -0.053071857313292566 0 0.00012568639499640517 -0.053071857313292566 0 -6.6880165516557811e-06 -0.053075574273113817 0 0.00010056271620971635 -0.05322236965208671 0 2.2239951418331707e-05 -0.052904099759665459 0 0.00012568639499640517 -0.053071857313292566 0 -6.6880165516557811e-06 -0.053075574273113817 0 -2.1539712172056165e-05 -0.053231673772055871 0 0.00010056271620971635 -0.05322236965208671 0 0.0001276897468427638 -0.053464640444871807 0 -2.1539712172056165e-05 -0.053231673772055871 0 -6.6880165516557811e-06 -0.053075574273113817 0 0.00010056271620971635 -0.05322236965208671 0 0.0001276897468427638 -0.053464640444871807 0 0.00018960414297699877 -0.053452039598147663 0 0.00018488953804423838 -0.053410455218684191 0 0.0001276897468427638 -0.053464640444871807 0 0.00018960414297699877 -0.053452039598147663 0 0.00030305452454771828 -0.053513441955209656 0 0.00018960414297699877 -0.053452039598147663 0 0.00018488953804423838 -0.053410455218684191 0 0.00018807877508420482 -0.05340337013230697 0 0.00018488953804423838 -0.053410455218684191 0 0.00020434935163527604 -0.053381195321077532 0 0.00018807877508420482 -0.05340337013230697 0 0.00019801646333854304 -0.053290305734690638 0 0.0001276897468427638 -0.053464640444871807 0 0.00018488953804423838 -0.053410455218684191 0 0.00019801646333854304 -0.053290305734690638 0 0.00018488953804423838 -0.053410455218684191 0 0.00024459101423160597 -0.053320070130270396 0 0.00018488953804423838 -0.053410455218684191 0 0.00024459101423160597 -0.053320070130270396 0 0.00020434935163527604 -0.053381195321077532 0 0.00024459101423160597 -0.053320070130270396 0 0.00020434935163527604 -0.053381195321077532 0 0.00023957940780152838 -0.053339755766358084 0 0.00020434935163527604 -0.053381195321077532 0 0.00019994897752974964 -0.053361180254677017 0 0.00017769953133082829 -0.053365313624818542 0 0.00020434935163527604 -0.053381195321077532 0 0.00019994897752974964 -0.053361180254677017 0 0.00023957940780152838 -0.053339755766358084 0 0.00019994897752974964 -0.053361180254677017 0 0.00023957940780152838 -0.053339755766358084 0 0.000244959966067461 -0.053335304778161591 0 0.00019994897752974964 -0.053361180254677017 0 0.00017104724029680385 -0.05335911395121147 0 0.000244959966067461 -0.053335304778161591 0 0.00029737706470125183 -0.053276538368115106 0 0.00023957940780152838 -0.053339755766358084 0 0.000244959966067461 -0.053335304778161591 0 0.00029737706470125183 -0.053276538368115106 0 0.00024459101423160597 -0.053320070130270396 0 0.00023957940780152838 -0.053339755766358084 0 0.0023636215731760173 -0.048797462888142296 0 0.0020170737686053546 -0.042027929934464067 0 0.00066715300600780512 -0.042306397234519025 0 0.0018011518083907649 -0.039240516419959119 0 0.0001989019262302572 -0.049369524962649639 0 0.0010080791571692772 -0.044831985006246959 0 0.0011831797463694451 -0.048426201076180168 0 0.0016328162229257801 -0.047842754806560236 0 0.001898021705434427 -0.046580652588796255 0 0.0011313313418988631 -0.042163834848565354 0 0.00099644860016250827 -0.042554885750205031 0 0.0012492459352448026 -0.04194253082342371 0 6.9084340898748078e-05 -0.053241372996463962 0 0.00014460253391238221 -0.053326603975316002 0 0.00017104724029680385 -0.05335911395121147 0 0.0011831797463694451 -0.048426201076180168 0 0.0016328162229257801 -0.047842754806560236 0 0.0013672417061626125 -0.049082826817437565 0 0.00083068090320349169 -0.043992456855615911 0 0.00066715300600780512 -0.042306397234519025 0 6.9084340898748078e-05 -0.053241372996463962 0 0.00012292623995132157 -0.05327457848491219 0 0.00017468880364027265 -0.053037835342949549 0 0.00012292623995132157 -0.05327457848491219 0 0.00014460253391238221 -0.053326603975316002 0 0.00015465398633383864 -0.053331580399825898 0 6.9084340898748078e-05 -0.053241372996463962 0 0.00012292623995132157 -0.05327457848491219 0 0.00014460253391238221 -0.053326603975316002 0 0.00017264259714599902 -0.05335627750387837 0 0.00014460253391238221 -0.053326603975316002 0 0.00017104724029680385 -0.05335911395121147 0 0.00083068090320349169 -0.043992456855615911 0 0.0010080791571692772 -0.044831985006246959 0 0.00019994897752974964 -0.053361180254677017 0 0.00017264259714599902 -0.05335627750387837 0 0.00017104724029680385 -0.05335911395121147 0 0.00019994897752974964 -0.053361180254677017 0 0.00017264259714599902 -0.05335627750387837 0 0.00017769953133082829 -0.053365313624818542 0 0.00017264259714599902 -0.05335627750387837 0 0.00014460253391238221 -0.053326603975316002 0 0.00017769953133082829 -0.053365313624818542 0 0.00014460253391238221 -0.053326603975316002 0 0.00017769953133082829 -0.053365313624818542 0 0.00015465398633383864 -0.053331580399825898 0 0.00017769953133082829 -0.053365313624818542 0 0.0001710992738176951 -0.053347802245710271 0 0.00015465398633383864 -0.053331580399825898 0 0.00017769953133082829 -0.053365313624818542 0 0.0001710992738176951 -0.053347802245710271 0 0.00018807877508420482 -0.05340337013230697 0 0.00020434935163527604 -0.053381195321077532 0 0.00017769953133082829 -0.053365313624818542 0 0.00018807877508420482 -0.05340337013230697 0 0.00023107804390108734 -0.053266817805880468 0 0.00035318242555334989 -0.053255784306268351 0 0.00012292623995132157 -0.05327457848491219 0 0.00056737849189726023 -0.053141679290032551 0 0.00017468880364027265 -0.053037835342949549 0 0.00012292623995132157 -0.05327457848491219 0 0.0001710992738176951 -0.053347802245710271 0 0.00019513855463612726 -0.053347583648757517 0 0.00012292623995132157 -0.05327457848491219 0 0.0001710992738176951 -0.053347802245710271 0 0.00015465398633383864 -0.053331580399825898 0 0.0001710992738176951 -0.053347802245710271 0 0.00019513855463612726 -0.053347583648757517 0 0.00018807877508420482 -0.05340337013230697 0 0.00019513855463612726 -0.053347583648757517 0 0.00018807877508420482 -0.05340337013230697 0 0.00021974965420952074 -0.053414822143245694 0 0.00018960414297699877 -0.053452039598147663 0 0.00021974965420952074 -0.053414822143245694 0 0.00030305452454771828 -0.053513441955209656 0 0.00018960414297699877 -0.053452039598147663 0 0.00018807877508420482 -0.05340337013230697 0 0.00021974965420952074 -0.053414822143245694 0 0.00019513855463612726 -0.053347583648757517 0 0.00021974965420952074 -0.053414822143245694 0 0.00027856588133084 -0.05334373580038438 0 0.00035318242555334989 -0.053255784306268351 0 0.00052046065941399231 -0.053246744574694048 0 0.00056737849189726023 -0.053141679290032551 0 0.00066658179504589334 -0.052945301922757627 0 0.00079319180168251568 -0.053089082221139255 0 0.00066658179504589334 -0.052945301922757627 0 0.00077554297859205976 -0.052887334339667136 0 0.00079319180168251568 -0.053089082221139255 0 0.00066658179504589334 -0.052945301922757627 0 0.00077554297859205976 -0.052887334339667136 0 0.00061766206606785209 -0.05269013304487552 0 0.00077554297859205976 -0.052887334339667136 0 0.00061766206606785209 -0.05269013304487552 0 0.00070663644039542072 -0.052573049347902134 0 0.00066658179504589334 -0.052945301922757627 0 0.00061766206606785209 -0.05269013304487552 0 0.00040845874688661755 -0.052870805981368757 0 0.00061766206606785209 -0.05269013304487552 0 0.00040920704585246237 -0.052443502898127096 0 0.00057718018126362873 -0.052236644708416352 0 0.00061766206606785209 -0.05269013304487552 0 0.00040845874688661755 -0.052870805981368757 0 0.00040920704585246237 -0.052443502898127096 0 0.00056737849189726023 -0.053141679290032551 0 0.00066658179504589334 -0.052945301922757627 0 0.00040845874688661755 -0.052870805981368757 0 0.00056737849189726023 -0.053141679290032551 0 0.00017468880364027265 -0.053037835342949549 0 0.00040845874688661755 -0.052870805981368757 0 0.00017468880364027265 -0.053037835342949549 0 0.00023295366678044189 -0.052843939878656765 0 5.5988892078123983e-05 -0.052753356227245841 0 0.00017468880364027265 -0.053037835342949549 0 0.00023295366678044189 -0.052843939878656765 0 0.00040845874688661755 -0.052870805981368757 0 0.00040845874688661755 -0.052870805981368757 0 0.00028077789339653921 -0.052731829524825517 0 0.00040920704585246237 -0.052443502898127096 0 5.8937525324770184e-05 -0.05080920144240049 0 4.5810948911179129e-05 -0.051178593606456213 0 0.00040920704585246237 -0.052443502898127096 0 5.5988892078123983e-05 -0.052753356227245841 0 0.00036977085458331899 -0.05178719894290891 0 0.00023295366678044189 -0.052843939878656765 0 0.00040845874688661755 -0.052870805981368757 0 0.00028077789339653921 -0.052731829524825517 0 0.00028077789339653921 -0.052731829524825517 0 0.00040920704585246237 -0.052443502898127096 0 5.5988892078123983e-05 -0.052753356227245841 0 0.00023295366678044189 -0.052843939878656765 0 0.00028077789339653921 -0.052731829524825517 0 5.5988892078123983e-05 -0.052753356227245841 0 0.00077096037263149186 -0.050454470575936522 0 0.0008538256911246097 -0.050757815651883413 0 0.00074586367618049954 -0.051262771904291918 0 0.00055369355008507717 -0.050204170124719547 0 0.0010873931414263171 -0.050102921711939911 0 0.00074586367618049954 -0.051262771904291918 0 -0.00046228015349746574 -0.043377115467508533 0 -0.0007978636823053652 -0.046280097402596788 0 0.00091746385997527478 -0.050892323245502503 0 0.0008538256911246097 -0.050757815651883413 0 0.00074586367618049954 -0.051262771904291918 0 0.0009538161323938871 -0.050654459108029896 0 0.001049294936098971 -0.050520486753528236 0 0.0010612862433495953 -0.050760398037350739 0 0.00091746385997527478 -0.050892323245502503 0 0.0009538161323938871 -0.050654459108029896 0 0.0010612862433495953 -0.050760398037350739 0 0.00091746385997527478 -0.050892323245502503 0 0.0008538256911246097 -0.050757815651883413 0 0.0009538161323938871 -0.050654459108029896 0 0.0008538256911246097 -0.050757815651883413 0 0.0009538161323938871 -0.050654459108029896 0 0.00089720065013023775 -0.050578290773428174 0 0.0009538161323938871 -0.050654459108029896 0 0.00089720065013023775 -0.050578290773428174 0 0.001049294936098971 -0.050520486753528236 0 0.00077096037263149186 -0.050454470575936522 0 0.00089720065013023775 -0.050578290773428174 0 0.001049294936098971 -0.050520486753528236 0 0.00077096037263149186 -0.050454470575936522 0 0.0008538256911246097 -0.050757815651883413 0 0.00089720065013023775 -0.050578290773428174 0 -0.00046228015349746574 -0.043377115467508533 0 0.00066715300600780512 -0.042306397234519025 0 0.0011831797463694451 -0.048426201076180168 0 0.00055369355008507717 -0.050204170124719547 0 0.0013672417061626125 -0.049082826817437565 0 0.0019278728192236613 -0.036051919711016484 0 0.0022150124557564644 -0.03496479148780568 0 0.0035550600966324742 -0.035125506871114605 0 6.9084340898748078e-05 -0.053241372996463962 0 0.00017468880364027265 -0.053037835342949549 0 5.5988892078123983e-05 -0.052753356227245841 0 0.0001989019262302572 -0.049369524962649639 0 5.8937525324770184e-05 -0.05080920144240049 0 0.00055369355008507717 -0.050204170124719547 0 0.0010873931414263171 -0.050102921711939911 0 0.0013672417061626125 -0.049082826817437565 0 0.00054134950634034378 -0.05358860784364318 0 0.00045165116532384296 -0.053523579033620455 0 0.00061641710446615845 -0.053327109365918987 0 0.00054134950634034378 -0.05358860784364318 0 0.00061641710446615845 -0.053327109365918987 0 0.00058522567141125188 -0.053540418733491073 0 0.00054134950634034378 -0.05358860784364318 0 0.00058522567141125188 -0.053540418733491073 0 0.00051445469492890307 -0.05372227750703458 0 0.00049533732888999585 -0.053763799310957178 0 0.00054134950634034378 -0.05358860784364318 0 0.00051445469492890307 -0.05372227750703458 0 0.00047779099352152922 -0.053645560481208256 0 0.00049533732888999585 -0.053763799310957178 0 0.00054134950634034378 -0.05358860784364318 0 0.00047779099352152922 -0.053645560481208256 0 0.00054134950634034378 -0.05358860784364318 0 0.00045165116532384296 -0.053523579033620455 0 0.00038390440497441058 -0.053616836561858019 0 0.00047779099352152922 -0.053645560481208256 0 0.00045165116532384296 -0.053523579033620455 0 0.00038390440497441058 -0.053616836561858019 0 0.00045165116532384296 -0.053523579033620455 0 0.00030305452454771828 -0.053513441955209656 0 0.00045165116532384296 -0.053523579033620455 0 0.00030305452454771828 -0.053513441955209656 0 0.00027856588133084 -0.05334373580038438 0 0.00021974965420952074 -0.053414822143245694 0 0.00030305452454771828 -0.053513441955209656 0 0.00027856588133084 -0.05334373580038438 0 0.00045165116532384296 -0.053523579033620455 0 0.00027856588133084 -0.05334373580038438 0 0.00061641710446615845 -0.053327109365918987 0 0.00052046065941399231 -0.053246744574694048 0 0.00059525386012844342 -0.053251893243339482 0 0.00079319180168251568 -0.053089082221139255 0 0.00082343271704206551 -0.053084648537849069 0 0.00061641710446615845 -0.053327109365918987 0 0.00077554297859205976 -0.052887334339667136 0 0.00079319180168251568 -0.053089082221139255 0 0.00082343271704206551 -0.053084648537849069 0 0.00077554297859205976 -0.052887334339667136 0 0.00082343271704206551 -0.053084648537849069 0 0.00078081355764984394 -0.052625352593395638 0 0.00082343271704206551 -0.053084648537849069 0 0.00072420101715022877 -0.053327550215383226 0 0.00061641710446615845 -0.053327109365918987 0 0.00072420101715022877 -0.053327550215383226 0 0.00061641710446615845 -0.053327109365918987 0 0.00058522567141125188 -0.053540418733491073 0 0.00072420101715022877 -0.053327550215383226 0 0.00058522567141125188 -0.053540418733491073 0 0.000553339787570878 -0.053601578825512489 0 0.000553339787570878 -0.053601578825512489 0 0.00040582047274343428 -0.053875723244780904 0 0.00047765047006807478 -0.053769733401030223 0 0.000553339787570878 -0.053601578825512489 0 0.00040582047274343428 -0.053875723244780904 0 0.00047750927397606285 -0.053722516718423846 0 0.00040582047274343428 -0.053875723244780904 0 0.00047765047006807478 -0.053769733401030223 0 0.00036379093523881625 -0.053967255822111496 0 0.00058522567141125188 -0.053540418733491073 0 0.000553339787570878 -0.053601578825512489 0 0.00047765047006807478 -0.053769733401030223 0 0.00047765047006807478 -0.053769733401030223 0 0.00044028797348138663 -0.053884549887476013 0 0.00051445469492890307 -0.05372227750703458 0 0.00058522567141125188 -0.053540418733491073 0 0.00047765047006807478 -0.053769733401030223 0 0.00051445469492890307 -0.05372227750703458 0 0.00047765047006807478 -0.053769733401030223 0 0.00044028797348138663 -0.053884549887476013 0 0.00036379093523881625 -0.053967255822111496 0 0.00044028797348138663 -0.053884549887476013 0 0.00045962389556690236 -0.053871291885328569 0 0.00040737322180425199 -0.053982638236505474 0 0.00044028797348138663 -0.053884549887476013 0 0.00051445469492890307 -0.05372227750703458 0 0.00045962389556690236 -0.053871291885328569 0 0.00049533732888999585 -0.053763799310957178 0 0.00051445469492890307 -0.05372227750703458 0 0.00045962389556690236 -0.053871291885328569 0 0.00028255101921943065 -0.054180649777586964 0 0.00024257901047963488 -0.054192748901630977 0 0.00020138399728221028 -0.054337303216212572 0 0.00028255101921943065 -0.054180649777586964 0 0.00034562069171602055 -0.054057071152674878 0 0.00033677688030778522 -0.054108085106229262 0 0.00028255101921943065 -0.054180649777586964 0 0.00020138399728221028 -0.054337303216212572 0 0.00026387626625418305 -0.054236270873518413 0 0.00034562069171602055 -0.054057071152674878 0 0.00040737322180425199 -0.053982638236505474 0 0.00033677688030778522 -0.054108085106229262 0 0.00044028797348138663 -0.053884549887476013 0 0.00034562069171602055 -0.054057071152674878 0 0.00040737322180425199 -0.053982638236505474 0 0.00044028797348138663 -0.053884549887476013 0 0.00034562069171602055 -0.054057071152674878 0 0.00036379093523881625 -0.053967255822111496 0 0.00034562069171602055 -0.054057071152674878 0 0.00024257901047963488 -0.054192748901630977 0 0.00036379093523881625 -0.053967255822111496 0 0.00028255101921943065 -0.054180649777586964 0 0.00034562069171602055 -0.054057071152674878 0 0.00024257901047963488 -0.054192748901630977 0 0.00024257901047963488 -0.054192748901630977 0 0.0002729746528951185 -0.054067533714879559 0 0.00019982373857333703 -0.054205565555261716 0 0.00024257901047963488 -0.054192748901630977 0 0.0002729746528951185 -0.054067533714879559 0 0.00036379093523881625 -0.053967255822111496 0 0.00040582047274343428 -0.053875723244780904 0 0.0002729746528951185 -0.054067533714879559 0 0.00036379093523881625 -0.053967255822111496 0 0.00040582047274343428 -0.053875723244780904 0 0.0002729746528951185 -0.054067533714879559 0 0.00029661948305571807 -0.054077907279886477 0 0.0002729746528951185 -0.054067533714879559 0 0.00015487310713425265 -0.05420311054940119 0 0.00029661948305571807 -0.054077907279886477 0 0.00015487310713425265 -0.05420311054940119 0 0.0001041745677480465 -0.054261121878087626 0 0.00010873478347451152 -0.054351667176664661 0 0.0001041745677480465 -0.054261121878087626 0 0.00010873478347451152 -0.054351667176664661 0 0.00011630956188019253 -0.054399258242558396 0 0.00015487310713425265 -0.05420311054940119 0 0.00010873478347451152 -0.054351667176664661 0 0.00014032969587384272 -0.054354289045297502 0 0.00010873478347451152 -0.054351667176664661 0 0.00011131385031783377 -0.054482922852642057 0 0.00010019941691496968 -0.054558126029890235 0 0.00010873478347451152 -0.054351667176664661 0 0.00011131385031783377 -0.054482922852642057 0 0.00014032969587384272 -0.054354289045297502 0 0.00024257901047963488 -0.054192748901630977 0 0.00014032969587384272 -0.054354289045297502 0 0.00019982373857333703 -0.054205565555261716 0 0.0002729746528951185 -0.054067533714879559 0 0.00015487310713425265 -0.05420311054940119 0 0.00019982373857333703 -0.054205565555261716 0 0.00015487310713425265 -0.05420311054940119 0 0.00014032969587384272 -0.054354289045297502 0 0.00019982373857333703 -0.054205565555261716 0 -8.6478519658215233e-11 -0.055000067307724519 0 1.9531865530275103e-05 -0.05499814202464811 0 5.455663327517957e-06 -0.055002025076615932 0 0.00025709579435352061 -0.054371089235083048 0 0.00015085786593786054 -0.054267054687582979 0 0.00011630956188019253 -0.054399258242558396 0 0.00025709579435352061 -0.054371089235083048 0 0.00011630956188019253 -0.054399258242558396 0 0.00012167651802541188 -0.054599455284717734 0 0.0001041745677480465 -0.054261121878087626 0 0.00015085786593786054 -0.054267054687582979 0 0.00011630956188019253 -0.054399258242558396 0 0.00010873478347451152 -0.054351667176664661 0 0.00011630956188019253 -0.054399258242558396 0 0.00010019941691496968 -0.054558126029890235 0 0.00010019941691496968 -0.054558126029890235 0 0.00012167651802541188 -0.054599455284717734 0 9.2357469529308822e-05 -0.05473308265921116 0 0.00011630956188019253 -0.054399258242558396 0 0.00010019941691496968 -0.054558126029890235 0 0.00012167651802541188 -0.054599455284717734 0 -8.6478519658215233e-11 -0.055000067307724519 0 1.9531865530275103e-05 -0.05499814202464811 0 7.225115010398375e-05 -0.054910562418621849 0 0.00025709579435352061 -0.054371089235083048 0 0.00012167651802541188 -0.054599455284717734 0 7.225115010398375e-05 -0.054910562418621849 0 -8.6478519658215233e-11 -0.055000067307724519 0 1.8306859325225874e-07 -0.05499944375294151 0 7.225115010398375e-05 -0.054910562418621849 0 8.0482983426503703e-05 -0.054669434096284997 0 8.4576354099742988e-05 -0.054708675202506087 0 0.00012167651802541188 -0.054599455284717734 0 7.225115010398375e-05 -0.054910562418621849 0 9.2357469529308822e-05 -0.05473308265921116 0 1.8306859325225874e-07 -0.05499944375294151 0 6.7904249372664695e-05 -0.054842795548026138 0 4.1748621127845765e-05 -0.054865186049014698 0 1.8306859325225874e-07 -0.05499944375294151 0 7.225115010398375e-05 -0.054910562418621849 0 6.7904249372664695e-05 -0.054842795548026138 0 7.225115010398375e-05 -0.054910562418621849 0 6.7904249372664695e-05 -0.054842795548026138 0 9.2357469529308822e-05 -0.05473308265921116 0 6.7904249372664695e-05 -0.054842795548026138 0 9.2224791849738642e-05 -0.054683125990373213 0 4.1748621127845765e-05 -0.054865186049014698 0 6.7904249372664695e-05 -0.054842795548026138 0 9.2224791849738642e-05 -0.054683125990373213 0 9.2357469529308822e-05 -0.05473308265921116 0 0.00010019941691496968 -0.054558126029890235 0 9.2224791849738642e-05 -0.054683125990373213 0 9.2357469529308822e-05 -0.05473308265921116 0 0.00011131385031783377 -0.054482922852642057 0 0.00010019941691496968 -0.054558126029890235 0 9.2224791849738642e-05 -0.054683125990373213 0 9.2224791849738642e-05 -0.054683125990373213 0 8.8330288221299085e-05 -0.054644718348395856 0 0.0001213590593130405 -0.054507190478176246 0 9.2224791849738642e-05 -0.054683125990373213 0 8.8330288221299085e-05 -0.054644718348395856 0 4.1748621127845765e-05 -0.054865186049014698 0 8.8330288221299085e-05 -0.054644718348395856 0 4.1748621127845765e-05 -0.054865186049014698 0 4.7448148663847885e-05 -0.054744305297795705 0 1.8306859325225874e-07 -0.05499944375294151 0 4.1748621127845765e-05 -0.054865186049014698 0 1.4586759398133601e-08 -0.054999641912764331 0 0.00024257901047963488 -0.054192748901630977 0 0.00014032969587384272 -0.054354289045297502 0 0.00016826160439486652 -0.054367202143138289 0 0.00024257901047963488 -0.054192748901630977 0 0.00016826160439486652 -0.054367202143138289 0 0.00020138399728221028 -0.054337303216212572 0 0.00014032969587384272 -0.054354289045297502 0 0.00016826160439486652 -0.054367202143138289 0 0.0001213590593130405 -0.054507190478176246 0 0.00011131385031783377 -0.054482922852642057 0 0.00014032969587384272 -0.054354289045297502 0 0.0001213590593130405 -0.054507190478176246 0 0.00011131385031783377 -0.054482922852642057 0 9.2224791849738642e-05 -0.054683125990373213 0 0.0001213590593130405 -0.054507190478176246 0 0.00016826160439486652 -0.054367202143138289 0 0.0001213590593130405 -0.054507190478176246 0 0.0001364291244349709 -0.054482193442399414 0 8.8330288221299085e-05 -0.054644718348395856 0 0.0001364291244349709 -0.054482193442399414 0 0.00012180248670943599 -0.054493351908258554 0 8.8330288221299085e-05 -0.054644718348395856 0 0.0001213590593130405 -0.054507190478176246 0 0.0001364291244349709 -0.054482193442399414 0 0.0001364291244349709 -0.054482193442399414 0 0.00020138399728221028 -0.054337303216212572 0 0.00012180248670943599 -0.054493351908258554 0 0.00016826160439486652 -0.054367202143138289 0 0.0001364291244349709 -0.054482193442399414 0 0.00020138399728221028 -0.054337303216212572 0 0.00020138399728221028 -0.054337303216212572 0 0.00012180248670943599 -0.054493351908258554 0 0.00026387626625418305 -0.054236270873518413 0 0.00012180248670943599 -0.054493351908258554 0 1.7853980673454037e-05 -0.054722298502444838 0 0.00015452960712656686 -0.054296522517260006 0 4.7772121202843697e-05 -0.054427938883399217 0 3.0609623774622651e-05 -0.054380443005110253 0 0.00012180248670943599 -0.054493351908258554 0 0.00015452960712656686 -0.054296522517260006 0 0.00026387626625418305 -0.054236270873518413 0 0.00015452960712656686 -0.054296522517260006 0 0.00030396707970232795 -0.054057355295853142 0 0.00026387626625418305 -0.054236270873518413 0 4.1748621127845765e-05 -0.054865186049014698 0 1.4586759398133601e-08 -0.054999641912764331 0 4.7448148663847885e-05 -0.054744305297795705 0 8.8330288221299085e-05 -0.054644718348395856 0 0.00012180248670943599 -0.054493351908258554 0 4.7448148663847885e-05 -0.054744305297795705 0 0.00012180248670943599 -0.054493351908258554 0 4.7448148663847885e-05 -0.054744305297795705 0 1.7853980673454037e-05 -0.054722298502444838 0 1.4586759398133601e-08 -0.054999641912764331 0 4.7448148663847885e-05 -0.054744305297795705 0 1.7853980673454037e-05 -0.054722298502444838 0 1.4586759398133601e-08 -0.054999641912764331 0 1.7853980673454037e-05 -0.054722298502444838 0 7.9819253537924935e-08 -0.054999808261220647 0 1.7853980673454037e-05 -0.054722298502444838 0 7.9819253537924935e-08 -0.054999808261220647 0 -1.1268093083644352e-05 -0.054930904169971879 0 1.7853980673454037e-05 -0.054722298502444838 0 -1.1268093083644352e-05 -0.054930904169971879 0 -9.0676386759266293e-05 -0.054877818111060836 0 3.7215523896905305e-06 -0.054991531787820923 0 -1.1268093083644352e-05 -0.054930904169971879 0 -9.966581822732246e-05 -0.054984642188433561 0 3.8977034565376593e-07 -0.054800483398702027 0 -2.1231997073090112e-05 -0.054736465034094781 0 3.7215523896905305e-06 -0.054991531787820923 0 7.9819253537924935e-08 -0.054999808261220647 0 -1.1268093083644352e-05 -0.054930904169971879 0 -1.5661105923836526e-08 -0.055000029650617531 0 3.7215523896905305e-06 -0.054991531787820923 0 7.9819253537924935e-08 -0.054999808261220647 0 3.0609623774622651e-05 -0.054380443005110253 0 7.7214867370466632e-06 -0.054254837749928668 0 -0.0001965810203492434 -0.054891641548422826 0 -0.00028305570932120387 -0.054943383193878322 0 -0.00032155913295448256 -0.054850855143709291 0 -0.0001965810203492434 -0.054891641548422826 0 -0.00017970514964666659 -0.054803452371758779 0 -0.00032155913295448256 -0.054850855143709291 0 1.7853980673454037e-05 -0.054722298502444838 0 -0.00017970514964666659 -0.054803452371758779 0 -9.0676386759266293e-05 -0.054877818111060836 0 -0.0001965810203492434 -0.054891641548422826 0 -0.00017970514964666659 -0.054803452371758779 0 -9.0676386759266293e-05 -0.054877818111060836 0 -1.1268093083644352e-05 -0.054930904169971879 0 -9.0676386759266293e-05 -0.054877818111060836 0 -9.966581822732246e-05 -0.054984642188433561 0 -0.0001965810203492434 -0.054891641548422826 0 -9.0676386759266293e-05 -0.054877818111060836 0 -9.966581822732246e-05 -0.054984642188433561 0 -1.7925175595052427e-05 -0.05499118414471358 0 -9.5179740393441314e-06 -0.054978429225098185 0 -3.3171691436663247e-05 -0.054965533986416855 0 -0.0001965810203492434 -0.054891641548422826 0 -9.966581822732246e-05 -0.054984642188433561 0 -0.00028305570932120387 -0.054943383193878322 0 -1.7925175595052427e-05 -0.05499118414471358 0 -3.9495699007197008e-05 -0.054974355749994083 0 -3.3171691436663247e-05 -0.054965533986416855 0 -2.1231997073090112e-05 -0.054736465034094781 0 -4.3433584466141611e-05 -0.054516953983008466 0 -3.9495699007197008e-05 -0.054974355749994083 0 -3.3171691436663247e-05 -0.054965533986416855 0 -6.4629874757233901e-05 -0.054952001520854506 0 -4.3433584466141611e-05 -0.054516953983008466 0 4.8082670263241229e-05 -0.054037203845886721 0 0.00062368371904230116 -0.052783160848273253 0 0.00074311686993326761 -0.052680488945286909 0 0.00054380197560671781 -0.0527027791631315 0 -0.00028305570932120387 -0.054943383193878322 0 -0.00032155913295448256 -0.054850855143709291 0 -0.00044601668987759166 -0.054900422143496816 0 0.00030396707970232795 -0.054057355295853142 0 0.00037414649661538684 -0.054029006629454764 0 0.00040887136242026545 -0.0539591892589859 0 -0.00032155913295448256 -0.054850855143709291 0 -0.00046182792828127351 -0.054889119667765066 0 -0.00044601668987759166 -0.054900422143496816 0 7.7214867370466632e-06 -0.054254837749928668 0 5.7989076577106083e-05 -0.054013269306756123 0 0.00037414649661538684 -0.054029006629454764 0 0.00040887136242026545 -0.0539591892589859 0 0.00041543826854468005 -0.053981027415794344 0 0.00041785098987459336 -0.052505885736895179 0 0.00037582797153762137 -0.052538777444590776 0 0.00034503772780884831 -0.052492861454999984 0 4.8082670263241229e-05 -0.054037203845886721 0 4.2475679711929877e-05 -0.053952624004964464 0 5.6908869537717042e-05 -0.053956970374857055 0 5.874840772033935e-05 -0.053958260632566458 0 5.5241024146450147e-05 -0.053957425001760699 0 5.7989076577106083e-05 -0.054013269306756123 0 4.8082670263241229e-05 -0.054037203845886721 0 0.00074311686993326761 -0.052680488945286909 0 0.00048036920231751823 -0.052611625031550924 0 0.00054380197560671781 -0.0527027791631315 0 0.00041785098987459336 -0.052505885736895179 0 0.00040907927327639594 -0.052563900381701507 0 0.00048036920231751823 -0.052611625031550924 0 0.00040907927327639594 -0.052563900381701507 0 0.00037582797153762137 -0.052538777444590776 0 0.00036225605955251459 -0.052599848848746723 0 0.00074311686993326761 -0.052680488945286909 0 0.00041785098987459336 -0.052505885736895179 0 0.00048036920231751823 -0.052611625031550924 0 0.00041785098987459336 -0.052505885736895179 0 0.00040907927327639594 -0.052563900381701507 0 0.00037582797153762137 -0.052538777444590776 0 0.00023510683510433609 -0.054038741965750481 0 4.8082670263241229e-05 -0.054037203845886721 0 0.00040907927327639594 -0.052563900381701507 0 0.00048036920231751823 -0.052611625031550924 0 0.00036225605955251459 -0.052599848848746723 0 0.00042598633524237233 -0.052701981423292146 0 0.00033694333307956038 -0.052700451854736104 0 0.00036225605955251459 -0.052599848848746723 0 0.00048036920231751823 -0.052611625031550924 0 0.00042598633524237233 -0.052701981423292146 0 0.00036225605955251459 -0.052599848848746723 0 0.00048036920231751823 -0.052611625031550924 0 0.00054380197560671781 -0.0527027791631315 0 0.00042598633524237233 -0.052701981423292146 0 0.0002174863369228529 -0.05277975011742287 0 0.00033694333307956038 -0.052700451854736104 0 0.00027010996407558888 -0.052668994013084308 0 0.0002638875361899069 -0.052587586305427474 0 3.8077289151778735e-05 -0.052643035677302968 0 0.00034503772780884831 -0.052492861454999984 0 0.00034409596786885341 -0.052800590717700033 0 0.00042598633524237233 -0.052701981423292146 0 0.00033694333307956038 -0.052700451854736104 0 0.00017324504050231441 -0.052672217204279122 0 0.0002638875361899069 -0.052587586305427474 0 3.8077289151778735e-05 -0.052643035677302968 0 -0.0001100676425403629 -0.053455093484490623 0 4.2475679711929877e-05 -0.053952624004964464 0 0.00033694333307956038 -0.052700451854736104 0 0.00027010996407558888 -0.052668994013084308 0 0.00036225605955251459 -0.052599848848746723 0 0.0002174863369228529 -0.05277975011742287 0 0.00027010996407558888 -0.052668994013084308 0 0.00017324504050231441 -0.052672217204279122 0 0.00027010996407558888 -0.052668994013084308 0 0.00017324504050231441 -0.052672217204279122 0 0.0002638875361899069 -0.052587586305427474 0 0.00037582797153762137 -0.052538777444590776 0 0.00033672025946580381 -0.052555164635001948 0 0.00034503772780884831 -0.052492861454999984 0 0.00037582797153762137 -0.052538777444590776 0 0.00033672025946580381 -0.052555164635001948 0 0.00036225605955251459 -0.052599848848746723 0 0.0002638875361899069 -0.052587586305427474 0 0.00033672025946580381 -0.052555164635001948 0 0.00036225605955251459 -0.052599848848746723 0 0.0002638875361899069 -0.052587586305427474 0 0.00033672025946580381 -0.052555164635001948 0 0.00034503772780884831 -0.052492861454999984 0 0.00027010996407558888 -0.052668994013084308 0 0.0002638875361899069 -0.052587586305427474 0 0.00036225605955251459 -0.052599848848746723 0 3.2802067053479823e-05 -0.052788524918377606 0 0.00017324504050231441 -0.052672217204279122 0 3.8077289151778735e-05 -0.052643035677302968 0 3.2802067053479823e-05 -0.052788524918377606 0 0.0002174863369228529 -0.05277975011742287 0 0.00017324504050231441 -0.052672217204279122 0 -0.0006722151219501056 -0.053101816454970849 0 -0.00065491772351093322 -0.053205815620347444 0 -0.0008565246676229773 -0.053159577784632123 0 0.00046635537301799524 -0.053797077411125653 0 0.00044971908981612416 -0.053804775521144557 0 0.00047352787079815907 -0.05381553693058088 0 -0.00051361280662594582 -0.053145652667637613 0 -0.0006722151219501056 -0.053101816454970849 0 -0.00065491772351093322 -0.053205815620347444 0 0.00046635537301799524 -0.053797077411125653 0 0.00042897200804546117 -0.053787328677908142 0 0.00044971908981612416 -0.053804775521144557 0 -6.8082472138397581e-05 -0.053705872359599741 0 4.2475679711929877e-05 -0.053952624004964464 0 0.00042532503693208071 -0.053788390100898316 0 0.00042897200804546117 -0.053787328677908142 0 0.00044971908981612416 -0.053804775521144557 0 5.7989076577106083e-05 -0.054013269306756123 0 4.2475679711929877e-05 -0.053952624004964464 0 5.7989076577106083e-05 -0.054013269306756123 0 0.00025632349821715571 -0.054021451411703308 0 0.00040887136242026545 -0.0539591892589859 0 0.00044151497825644878 -0.053938024693114192 0 0.00041543826854468005 -0.053981027415794344 0 0.00041543826854468005 -0.053981027415794344 0 0.00044108297150882567 -0.053927741932988126 0 0.00038836589258945948 -0.054029283519912923 0 0.00044151497825644878 -0.053938024693114192 0 0.00041543826854468005 -0.053981027415794344 0 0.00044108297150882567 -0.053927741932988126 0 0.00044151497825644878 -0.053938024693114192 0 0.00044108297150882567 -0.053927741932988126 0 0.00047352787079815907 -0.05381553693058088 0 0.00044108297150882567 -0.053927741932988126 0 0.00047352787079815907 -0.05381553693058088 0 0.00046756051721098861 -0.053844105437056984 0 0.00025632349821715571 -0.054021451411703308 0 0.00031096628883795706 -0.054016394871189727 0 0.00044108297150882567 -0.053927741932988126 0 0.00045962389556690236 -0.053871291885328569 0 0.00046756051721098861 -0.053844105437056984 0 0.00049533732888999585 -0.053763799310957178 0 0.00047352787079815907 -0.05381553693058088 0 0.00046756051721098861 -0.053844105437056984 0 0.00049533732888999585 -0.053763799310957178 0 0.00045962389556690236 -0.053871291885328569 0 0.00046756051721098861 -0.053844105437056984 0 0.00044108297150882567 -0.053927741932988126 0 0.00040737322180425199 -0.053982638236505474 0 0.00038836589258945948 -0.054029283519912923 0 0.00044108297150882567 -0.053927741932988126 0 0.00045962389556690236 -0.053871291885328569 0 0.00040737322180425199 -0.053982638236505474 0 0.00033677688030778522 -0.054108085106229262 0 0.0003372375013746762 -0.05410853121791704 0 0.00038836589258945948 -0.054029283519912923 0 0.00040737322180425199 -0.053982638236505474 0 0.00033677688030778522 -0.054108085106229262 0 0.00038836589258945948 -0.054029283519912923 0 0.00033677688030778522 -0.054108085106229262 0 0.00026387626625418305 -0.054236270873518413 0 0.0003372375013746762 -0.05410853121791704 0 0.00028255101921943065 -0.054180649777586964 0 0.00033677688030778522 -0.054108085106229262 0 0.00026387626625418305 -0.054236270873518413 0 0.00030396707970232795 -0.054057355295853142 0 0.00026387626625418305 -0.054236270873518413 0 0.0003372375013746762 -0.05410853121791704 0 0.00030396707970232795 -0.054057355295853142 0 0.00037414649661538684 -0.054029006629454764 0 0.0003372375013746762 -0.05410853121791704 0 0.00037414649661538684 -0.054029006629454764 0 0.0003372375013746762 -0.05410853121791704 0 0.00038836589258945948 -0.054029283519912923 0 0.00037414649661538684 -0.054029006629454764 0 0.00041543826854468005 -0.053981027415794344 0 0.00038836589258945948 -0.054029283519912923 0 0.0047623324484404343 0.0077640457638305325 0 0.0056475439286718917 0.0053883380248024174 0 0.002996538459089496 0.0053548599092180117 0 0.0047623324484404343 0.0077640457638305325 0 0.0078687751654990187 0.0055231886629014421 0 0.0056475439286718917 0.0053883380248024174 0 0.0016267536972715026 0.0058733718279008985 0 -4.4250804886095529e-05 0.007122669748071811 0 0.0047623324484404343 0.0077640457638305325 0 0.002146903712979922 0.0083223300873766573 0 0.002996538459089496 0.0053548599092180117 0 0.002146903712979922 0.0083223300873766573 0 0.002996538459089496 0.0053548599092180117 0 0.00047446358444639319 0.0080947467173460748 0 0.0047623324484404343 0.0077640457638305325 0 0.003280250299629874 0.0091622135431581909 0 0.002146903712979922 0.0083223300873766573 0 0.003280250299629874 0.0091622135431581909 0 0.002146903712979922 0.0083223300873766573 0 0.0022280282677649781 0.010135945794920815 0 0.002146903712979922 0.0083223300873766573 0 0.0022280282677649781 0.010135945794920815 0 0.0003814329733856251 0.0095617284655584688 0 0.002146903712979922 0.0083223300873766573 0 0.00047446358444639319 0.0080947467173460748 0 0.0003814329733856251 0.0095617284655584688 0 0.0022280282677649781 0.010135945794920815 0 0.0003814329733856251 0.0095617284655584688 0 0.0010482662894157444 0.011263661859893647 0 0.003280250299629874 0.0091622135431581909 0 0.0022280282677649781 0.010135945794920815 0 0.0039632412124017439 0.010740521195303814 0 0.0022280282677649781 0.010135945794920815 0 0.0039632412124017439 0.010740521195303814 0 0.0025881704651919174 0.011767763792104844 0 0.0047623324484404343 0.0077640457638305325 0 0.0039632412124017439 0.010740521195303814 0 0.0072256840872735638 0.010300269710549922 0 0.0047623324484404343 0.0077640457638305325 0 0.003280250299629874 0.0091622135431581909 0 0.0039632412124017439 0.010740521195303814 0 0.0071438410077166239 0.0088196179707046678 0 0.0090330573978158416 0.0084763748746583319 0 0.0078687751654990187 0.0055231886629014421 0 0.0071438410077166239 0.0088196179707046678 0 0.0090330573978158416 0.0084763748746583319 0 0.0089535405775637272 0.010660007763061721 0 0.010206154557020874 0.0075021189190141516 0 0.0090330573978158416 0.0084763748746583319 0 0.010969650013089289 0.0096688301150589084 0 0.010206154557020874 0.0075021189190141516 0 0.010012032193704612 0.0056393526383590152 0 0.0078687751654990187 0.0055231886629014421 0 0.010206154557020874 0.0075021189190141516 0 0.0090330573978158416 0.0084763748746583319 0 0.0078687751654990187 0.0055231886629014421 0 0.0070917274408638584 0.010240967831872255 0 0.0075129680960292896 0.0079197191376560207 0 0.0047623324484404343 0.0077640457638305325 0 0.0072256840872735638 0.010300269710549922 0 0.0078687751654990187 0.0055231886629014421 0 0.0078687751654990187 0.0055231886629014421 0 0.010148528369235556 0.0039916155850632917 0 0.006876470294005569 0.0031215062068116152 0 0.0078687751654990187 0.0055231886629014421 0 0.006876470294005569 0.0031215062068116152 0 0.0056475439286718917 0.0053883380248024174 0 0.010012032193704612 0.0056393526383590152 0 0.0078687751654990187 0.0055231886629014421 0 0.010148528369235556 0.0039916155850632917 0 0.010148528369235556 0.0039916155850632917 0 0.006876470294005569 0.0031215062068116152 0 0.0097409579813270211 0.0012930728715226097 0 0.0043805414884546187 0.0038064731528428572 0 0.0070443448315626418 0.0016122938367080773 0 0.0010207808036197892 0.0030461146199252218 0 0.0020937768300043598 0.0015762259162376148 0 0.002390633452239548 0.0046709839287545967 0 0.00023436125684994782 0.0046976365252453332 0 0.0022253606412446819 0.002390687605532819 0 0.002390633452239548 0.0046709839287545967 0 0.00010813288335297348 0.0063662074650735513 0 0.00023436125684994782 0.0046976365252453332 0 0.0043805414884546187 0.0038064731528428572 0 0.0016267536972715026 0.0058733718279008985 0 0.006876470294005569 0.0031215062068116152 0 0.0056475439286718917 0.0053883380248024174 0 0.002996538459089496 0.0053548599092180117 0 0.00010813288335297348 0.0063662074650735513 0 -0.00071817160323805161 0.0056709196591123012 0 0.00023436125684994782 0.0046976365252453332 0 0.00010813288335297348 0.0063662074650735513 0 -0.00071817160323805161 0.0056709196591123012 0 -0.001083466732204283 0.006868931927353438 0 -0.00071817160323805161 0.0056709196591123012 0 0.00023436125684994782 0.0046976365252453332 0 -0.0012119941240173984 0.0044290858780962668 0 0.00023436125684994782 0.0046976365252453332 0 -0.0012119941240173984 0.0044290858780962668 0 0.00018945036144432751 0.0023213874287297299 0 -0.0021151398649834115 0.0050941365304557696 0 -0.0035085013993691678 0.0051859284661559197 0 -0.0038066569820992668 0.0059492878373768286 0 -0.0021151398649834115 0.0050941365304557696 0 -0.0035085013993691678 0.0051859284661559197 0 -0.0035352521436878589 0.0035991689178120254 0 -0.0043719811992628064 0.0059299904605197911 0 -0.0043008417735828147 0.0063410777804668427 0 -0.0048753391969187107 0.0063472084612891961 0 -0.0043999309614279484 0.0060069586673651143 0 -0.0035085013993691678 0.0051859284661559197 0 -0.0035352521436878589 0.0035991689178120254 0 -0.0043999309614279484 0.0060069586673651143 0 -0.0043719811992628064 0.0059299904605197911 0 -0.0048753391969187107 0.0063472084612891961 0 -0.0041847564022425019 0.0050990801684877634 0 -0.0039708929236314952 0.0047502277422936268 0 -0.0043719811992628064 0.0059299904605197911 0 -0.0038078959212304148 0.0062233479398286252 0 -0.0043008417735828147 0.0063410777804668427 0 -0.0043999309614279484 0.0060069586673651143 0 -0.0035085013993691678 0.0051859284661559197 0 -0.0038066569820992668 0.0059492878373768286 0 -0.0043999309614279484 0.0060069586673651143 0 -0.0043719811992628064 0.0059299904605197911 0 -0.0046421604982990134 0.006462854098931145 0 -0.0043999309614279484 0.0060069586673651143 0 -0.0038066569820992668 0.0059492878373768286 0 -0.0046421604982990134 0.006462854098931145 0 -0.0038066569820992668 0.0059492878373768286 0 -0.0037351822715918259 0.0066500703831376346 0 -0.0046421604982990134 0.006462854098931145 0 -0.0021151398649834115 0.0050941365304557696 0 -0.0038066569820992668 0.0059492878373768286 0 -0.0037351822715918259 0.0066500703831376346 0 -0.00071817160323805161 0.0056709196591123012 0 -0.0012119941240173984 0.0044290858780962668 0 -0.0015570159222525473 0.0059872115701884712 0 -0.0012119941240173984 0.0044290858780962668 0 -0.0027055455071800512 0.0062017886021756008 0 -0.0015570159222525473 0.0059872115701884712 0 -0.0027055455071800512 0.0062017886021756008 0 -0.0015570159222525473 0.0059872115701884712 0 -0.0020726237042410431 0.006814756531070618 0 -0.0017196557933328457 0.0047411930999567264 0 -0.0031036406022053463 0.0062583930901564683 0 -0.00071817160323805161 0.0056709196591123012 0 -0.0015570159222525473 0.0059872115701884712 0 -0.001083466732204283 0.006868931927353438 0 -0.0020483987044108277 0.019273614791370654 0 -0.001979316132782738 0.019065520730250505 0 -0.0030918581631373711 0.0063172854297404947 0 -0.0035147630148689812 0.0056311107442869488 0 -0.0028456472646175182 0.0051980849481181625 0 -0.0030918581631373711 0.0063172854297404947 0 -0.0028456472646175182 0.0051980849481181625 0 -0.0020475029399541164 0.0065337928329505055 0 -0.0030918581631373711 0.0063172854297404947 0 -0.0035147630148689812 0.0056311107442869488 0 -0.0038078959212304148 0.0062233479398286252 0 -0.0043719811992628064 0.0059299904605197911 0 -0.0038078959212304148 0.0062233479398286252 0 -0.0038975796382293088 0.0056729407599516064 0 -0.0035147630148689812 0.0056311107442869488 0 -0.0038078959212304148 0.0062233479398286252 0 -0.0038975796382293088 0.0056729407599516064 0 -0.0011596952030178396 0.0094046319217741207 0 -0.0010982999554480872 0.011365440164276657 0 -0.0035147630148689812 0.0056311107442869488 0 -0.0038781543501309338 0.0049093288081870695 0 -0.0028456472646175182 0.0051980849481181625 0 -0.0043719811992628064 0.0059299904605197911 0 -0.0038975796382293088 0.0056729407599516064 0 -0.0038781543501309338 0.0049093288081870695 0 -0.0035147630148689812 0.0056311107442869488 0 -0.0038975796382293088 0.0056729407599516064 0 -0.0038781543501309338 0.0049093288081870695 0 -0.0013173065421126953 0.032860985513478942 0 -0.0014802393136556051 0.033696728560130063 0 -0.00075947930072963995 0.034050982473980855 0 -0.0020483987044108277 0.019273614791370654 0 -0.0017504917531008645 0.020327774154545189 0 -0.0013173065421126953 0.032860985513478942 0 -0.0014802393136556051 0.033696728560130063 0 -0.0020743503759034563 0.033439619235241691 0 -0.0014802393136556051 0.033696728560130063 0 -0.0014004014351610304 0.034289533709666274 0 -0.001814237346242835 0.034056196820009224 0 -0.0014802393136556051 0.033696728560130063 0 -0.00075947930072963995 0.034050982473980855 0 -0.0014004014351610304 0.034289533709666274 0 -0.0010982999554480872 0.011365440164276657 0 -0.0017504917531008645 0.020327774154545189 0 -0.0046421604982990134 0.006462854098931145 0 -0.0051256208731844111 0.0080950629282952758 0 -0.0048165821874190159 0.0081888827001173198 0 -0.0038781543501309338 0.0049093288081870695 0 -0.0028456472646175182 0.0051980849481181625 0 -0.0035338483853229298 0.0039870948984977199 0 -4.7269311511331098e-05 0.03162795444436025 0 0.0012117526457151358 0.034130311452449623 0 -0.00080267916660778816 0.033828971616057434 0 -0.0017504917531008645 0.020327774154545189 0 -0.00066066065747643959 0.02133912413123229 0 -0.0048165821874190159 0.0081888827001173198 0 -0.0038137913676205685 0.008479271456332026 0 -0.0037792880977073388 0.010872999881735599 0 -0.0051256208731844111 0.0080950629282952758 0 -0.0048165821874190159 0.0081888827001173198 0 -0.0037792880977073388 0.010872999881735599 0 -0.0017504917531008645 0.020327774154545189 0 -0.0030250286050621778 0.029849007747433862 0 -0.00075947930072963995 0.034050982473980855 0 -0.0014004014351610304 0.034289533709666274 0 -0.001108160757926635 0.035031200661820354 0 -0.0014004014351610304 0.034289533709666274 0 -0.001108160757926635 0.035031200661820354 0 -0.0019176256050448296 0.034562057987437798 0 -0.0014004014351610304 0.034289533709666274 0 -0.001814237346242835 0.034056196820009224 0 -0.0019176256050448296 0.034562057987437798 0 0.00010813288335297348 0.0063662074650735513 0 -0.001083466732204283 0.006868931927353438 0 -0.0016120819987577421 0.0082483318584683323 0 0.002996538459089496 0.0053548599092180117 0 0.00047446358444639319 0.0080947467173460748 0 -0.0016120819987577421 0.0082483318584683323 0 -0.0015465525417392334 0.0074309940490227102 0 -0.001083466732204283 0.006868931927353438 0 -0.0016120819987577421 0.0082483318584683323 0 -0.0015465525417392334 0.0074309940490227102 0 -0.0018746770615002111 0.007848815284245263 0 -0.0023369443147541261 0.0076455376410048317 0 -0.0018746770615002111 0.007848815284245263 0 -0.0019944898719177202 0.0080954549345291678 0 -0.0023369443147541261 0.0076455376410048317 0 -0.0018746770615002111 0.007848815284245263 0 -0.0019944898719177202 0.0080954549345291678 0 -0.0016120819987577421 0.0082483318584683323 0 -0.0015465525417392334 0.0074309940490227102 0 -0.0018746770615002111 0.007848815284245263 0 -0.0016120819987577421 0.0082483318584683323 0 -0.0015465525417392334 0.0074309940490227102 0 -0.0020726237042410431 0.006814756531070618 0 -0.0023369443147541261 0.0076455376410048317 0 -0.0015465525417392334 0.0074309940490227102 0 -0.001083466732204283 0.006868931927353438 0 -0.0020726237042410431 0.006814756531070618 0 -0.0015570159222525473 0.0059872115701884712 0 -0.001083466732204283 0.006868931927353438 0 -0.0020726237042410431 0.006814756531070618 0 -0.0027055455071800512 0.0062017886021756008 0 -0.0026049196181803032 0.0070547204938942046 0 -0.0033257889513372257 0.0075826421309853707 0 -0.0037351822715918259 0.0066500703831376346 0 -0.0046421604982990134 0.006462854098931145 0 -0.0048165821874190159 0.0081888827001173198 0 -0.0027055455071800512 0.0062017886021756008 0 -0.0048165821874190159 0.0081888827001173198 0 -0.0033257889513372257 0.0075826421309853707 0 -0.0031036406022053463 0.0062583930901564683 0 -0.0039205701760564888 0.0071437429007721156 0 -0.0020726237042410431 0.006814756531070618 0 -0.0026049196181803032 0.0070547204938942046 0 -0.0023369443147541261 0.0076455376410048317 0 -0.0027055455071800512 0.0062017886021756008 0 -0.0020726237042410431 0.006814756531070618 0 -0.0026049196181803032 0.0070547204938942046 0 -0.0048165821874190159 0.0081888827001173198 0 -0.0033257889513372257 0.0075826421309853707 0 -0.0038137913676205685 0.008479271456332026 0 -0.0033257889513372257 0.0075826421309853707 0 -0.0023369443147541261 0.0076455376410048317 0 -0.0029407844249894522 0.0085451432135645201 0 -0.0026049196181803032 0.0070547204938942046 0 -0.0033257889513372257 0.0075826421309853707 0 -0.0023369443147541261 0.0076455376410048317 0 -0.0023369443147541261 0.0076455376410048317 0 -0.0023084012649302872 0.0081929508108118422 0 -0.0029407844249894522 0.0085451432135645201 0 -0.0019944898719177202 0.0080954549345291678 0 -0.0023369443147541261 0.0076455376410048317 0 -0.0023084012649302872 0.0081929508108118422 0 0.00085211782611969067 0.016077791858822309 0 -0.00066066065747643959 0.02133912413123229 0 -0.0023084012649302872 0.0081929508108118422 0 -0.0029407844249894522 0.0085451432135645201 0 -0.0019419606896472871 0.0085051735990678643 0 -0.0029407844249894522 0.0085451432135645201 0 -0.0038137913676205685 0.008479271456332026 0 -0.0037792880977073388 0.010872999881735599 0 -0.0019419606896472871 0.0085051735990678643 0 -0.0022593735553856089 0.011144322933462696 0 -0.0046397591489981821 0.012306604165604336 0 -0.0029407844249894522 0.0085451432135645201 0 -0.0019419606896472871 0.0085051735990678643 0 -0.0037792880977073388 0.010872999881735599 0 -0.0033257889513372257 0.0075826421309853707 0 -0.0029407844249894522 0.0085451432135645201 0 -0.0038137913676205685 0.008479271456332026 0 -0.0012354386523555961 0.010365884993372239 0 -0.0019419606896472871 0.0085051735990678643 0 -0.0022593735553856089 0.011144322933462696 0 -0.0012354386523555961 0.010365884993372239 0 -0.0012631273732792122 0.0090787735940955523 0 -0.00068815284532988078 0.0096240667028628917 0 -0.0012354386523555961 0.010365884993372239 0 -0.0012631273732792122 0.0090787735940955523 0 -0.0019419606896472871 0.0085051735990678643 0 -0.0012631273732792122 0.0090787735940955523 0 -0.00056519731540564954 0.0089257230439406671 0 -0.00068815284532988078 0.0096240667028628917 0 -0.0012631273732792122 0.0090787735940955523 0 -0.0016120819987577421 0.0082483318584683323 0 -0.00056519731540564954 0.0089257230439406671 0 -0.0019944898719177202 0.0080954549345291678 0 -0.0016120819987577421 0.0082483318584683323 0 -0.0019419606896472871 0.0085051735990678643 0 -0.0012631273732792122 0.0090787735940955523 0 -0.0016120819987577421 0.0082483318584683323 0 -0.0019419606896472871 0.0085051735990678643 0 -0.0019944898719177202 0.0080954549345291678 0 -0.0023084012649302872 0.0081929508108118422 0 -0.0019419606896472871 0.0085051735990678643 0 0.00047446358444639319 0.0080947467173460748 0 -0.00056519731540564954 0.0089257230439406671 0 0.0003814329733856251 0.0095617284655584688 0 0.00047446358444639319 0.0080947467173460748 0 -0.0016120819987577421 0.0082483318584683323 0 -0.00056519731540564954 0.0089257230439406671 0 -0.00056519731540564954 0.0089257230439406671 0 0.0003814329733856251 0.0095617284655584688 0 -0.00068815284532988078 0.0096240667028628917 0 0.0003814329733856251 0.0095617284655584688 0 -0.00022687255402522598 0.010616691344889184 0 0.0010482662894157444 0.011263661859893647 0 0.0003814329733856251 0.0095617284655584688 0 -0.00068815284532988078 0.0096240667028628917 0 -0.00022687255402522598 0.010616691344889184 0 -0.0012354386523555961 0.010365884993372239 0 -0.00068815284532988078 0.0096240667028628917 0 -0.00022687255402522598 0.010616691344889184 0 -0.00022687255402522598 0.010616691344889184 0 -0.00044023458352832241 0.012132906020169436 0 0.0010482662894157444 0.011263661859893647 0 -0.0012354386523555961 0.010365884993372239 0 -0.00022687255402522598 0.010616691344889184 0 -0.00044023458352832241 0.012132906020169436 0 -0.00044023458352832241 0.012132906020169436 0 -0.00010295695501830818 0.014775342737552743 0 0.0016152572419295829 0.0132926316754578 0 -0.00044023458352832241 0.012132906020169436 0 -0.0018313744340832162 0.013256839981418772 0 -0.00010295695501830818 0.014775342737552743 0 -0.00044023458352832241 0.012132906020169436 0 -0.0018313744340832162 0.013256839981418772 0 -0.0022593735553856089 0.011144322933462696 0 -0.0012354386523555961 0.010365884993372239 0 -0.00044023458352832241 0.012132906020169436 0 -0.0022593735553856089 0.011144322933462696 0 -0.0018313744340832162 0.013256839981418772 0 -0.0022593735553856089 0.011144322933462696 0 -0.0046397591489981821 0.012306604165604336 0 -0.0018313744340832162 0.013256839981418772 0 -0.0046397591489981821 0.012306604165604336 0 -0.0024776527366297692 0.016382414826225836 0 -0.00066066065747643959 0.02133912413123229 0 0.00010933851828470557 0.020687277227378752 0 0.0019363713074351644 0.021852786841045371 0 0.0026652906441187079 0.02325580228981762 0 0.0018141080230070019 0.023326747370812317 0 -0.0018313744340832162 0.013256839981418772 0 -0.0024776527366297692 0.016382414826225836 0 -0.00010295695501830818 0.014775342737552743 0 -0.0024776527366297692 0.016382414826225836 0 -0.00010295695501830818 0.014775342737552743 0 0.00034095817819356769 0.017360376243480326 0 -0.001108160757926635 0.035031200661820354 0 -0.002112484580794475 0.035070571329919538 0 -0.0020484503036614335 0.035707988898605353 0 -0.0030250286050621778 0.029849007747433862 0 -0.003245100286639364 0.032228209868734779 0 -0.001108160757926635 0.035031200661820354 0 -0.0019176256050448296 0.034562057987437798 0 -0.002112484580794475 0.035070571329919538 0 0.0012117526457151358 0.034130311452449623 0 -0.00080267916660778816 0.033828971616057434 0 -0.0003255880845857977 0.036108750421319016 0 0.0019363713074351644 0.021852786841045371 0 0.0010537631346981271 0.023018582144374328 0 0.0018141080230070019 0.023326747370812317 0 -0.00066066065747643959 0.02133912413123229 0 -0.0014660026835499437 0.026881880955901979 0 -0.00080267916660778816 0.033828971616057434 0 -0.0003255880845857977 0.036108750421319016 0 -0.0014050790990833063 0.035974915946741758 0 -0.001108160757926635 0.035031200661820354 0 -0.0014050790990833063 0.035974915946741758 0 -0.0020484503036614335 0.035707988898605353 0 -0.0003255880845857977 0.036108750421319016 0 -0.0014050790990833063 0.035974915946741758 0 -0.001331216215437866 0.036586900263660328 0 -0.0014050790990833063 0.035974915946741758 0 -0.0017426496125304014 0.036561332104153056 0 -0.001331216215437866 0.036586900263660328 0 -0.0014050790990833063 0.035974915946741758 0 -0.0017426496125304014 0.036561332104153056 0 -0.0018667640366518462 0.036146627107026291 0 -0.0014050790990833063 0.035974915946741758 0 -0.0018667640366518462 0.036146627107026291 0 -0.0020484503036614335 0.035707988898605353 0 0.0010537631346981271 0.023018582144374328 0 0.00014622907641021179 0.024174711909160398 0 0.00024397924903714438 0.024123083556328341 0 -0.0003255880845857977 0.036108750421319016 0 -0.0015028002782736902 0.037373887594557516 0 -0.001331216215437866 0.036586900263660328 0 0.0010537631346981271 0.023018582144374328 0 0.00024397924903714438 0.024123083556328341 0 0.0012135777089077699 0.02404270905813791 0 -0.0014660026835499437 0.026881880955901979 0 -0.0019951022875116155 0.029596102249380019 0 0.00014095182921243984 0.024171368536219241 0 0.00024397924903714438 0.024123083556328341 0 0.00021573992624363691 0.024412654876359081 0 -0.0019951022875116155 0.029596102249380019 0 -0.0019775356700966434 0.029581263464825428 0 -0.0015028002782736902 0.037373887594557516 0 -0.0016072154832399859 0.036894243042999264 0 -0.0019593137529862574 0.037115824763318435 0 -0.0016072154832399859 0.036894243042999264 0 -0.0017426496125304014 0.036561332104153056 0 -0.0019593137529862574 0.037115824763318435 0 -0.0015028002782736902 0.037373887594557516 0 -0.0016072154832399859 0.036894243042999264 0 -0.001331216215437866 0.036586900263660328 0 -0.0016072154832399859 0.036894243042999264 0 -0.0017426496125304014 0.036561332104153056 0 -0.001331216215437866 0.036586900263660328 0 0.00024397924903714438 0.024123083556328341 0 0.0012135777089077699 0.02404270905813791 0 0.00052635392323412264 0.024576497423105637 0 0.0010537631346981271 0.023018582144374328 0 0.0012135777089077699 0.02404270905813791 0 0.0018141080230070019 0.023326747370812317 0 0.0012135777089077699 0.02404270905813791 0 0.0018141080230070019 0.023326747370812317 0 0.0021456898084770528 0.024268060035274298 0 0.0013080248011668569 0.024792714850535587 0 0.00071221234336315891 0.025216638768469805 0 0.0019680944581699691 0.025366125262909024 0 0.0013080248011668569 0.024792714850535587 0 0.0021456898084770528 0.024268060035274298 0 0.0019680944581699691 0.025366125262909024 0 0.0012135777089077699 0.02404270905813791 0 0.0013080248011668569 0.024792714850535587 0 0.0021456898084770528 0.024268060035274298 0 0.0012135777089077699 0.02404270905813791 0 0.0013080248011668569 0.024792714850535587 0 0.00052635392323412264 0.024576497423105637 0 0.00052635392323412264 0.024576497423105637 0 0.00071221234336315891 0.025216638768469805 0 6.7999138173068281e-05 0.024812689590783692 0 0.0013080248011668569 0.024792714850535587 0 0.00052635392323412264 0.024576497423105637 0 0.00071221234336315891 0.025216638768469805 0 0.00071221234336315891 0.025216638768469805 0 6.7999138173068281e-05 0.024812689590783692 0 -0.00013342313552808165 0.025376131976532334 0 6.7999138173068281e-05 0.024812689590783692 0 0.00021573992624363691 0.024412654876359081 0 -5.8373205241771771e-05 0.024394074277871103 0 0.00052635392323412264 0.024576497423105637 0 6.7999138173068281e-05 0.024812689590783692 0 0.00021573992624363691 0.024412654876359081 0 0.00024397924903714438 0.024123083556328341 0 0.00052635392323412264 0.024576497423105637 0 0.00021573992624363691 0.024412654876359081 0 0.00014095182921243984 0.024171368536219241 0 0.00021573992624363691 0.024412654876359081 0 -5.8373205241771771e-05 0.024394074277871103 0 -0.0019951022875116155 0.029596102249380019 0 -0.0018936368844088402 0.029438977271222803 0 0.00010933851828470557 0.020687277227378752 0 0.0018423421633411113 0.022381460379733518 0 -0.0024776527366297692 0.016382414826225836 0 0.00034095817819356769 0.017360376243480326 0 -0.00032029513193848808 0.020517721936799925 0 0.0026652906441187079 0.02325580228981762 0 0.0018141080230070019 0.023326747370812317 0 0.0021456898084770528 0.024268060035274298 0 0.0026652906441187079 0.02325580228981762 0 0.0021456898084770528 0.024268060035274298 0 0.0033944315672932257 0.024663678910040555 0 0.0018423421633411113 0.022381460379733518 0 0.0014306971880131336 0.023950706402656393 0 0.0021456898084770528 0.024268060035274298 0 0.0033944315672932257 0.024663678910040555 0 0.0019680944581699691 0.025366125262909024 0 0.0033186213052138953 0.024700375342529918 0 0.0020736609664522613 0.025299584544823211 0 0.0030662869965560665 0.025560840090211701 0 0.0018423421633411113 0.022381460379733518 0 0.0024815628787023475 0.023493393026209151 0 0.00075274778912079628 0.020138849172876002 0 0.0032265041038138736 0.020981207850627622 0 0.0020583040582148617 0.022649360702747295 0 0.0032265041038138736 0.020981207850627622 0 0.0056616941036658599 0.02008466058491858 0 0.0030561302831850472 0.019031215194557128 0 0.0018423421633411113 0.022381460379733518 0 0.0029040384333080729 0.021201863168086463 0 0.00075274778912079628 0.020138849172876002 0 0.0032265041038138736 0.020981207850627622 0 0.0030561302831850472 0.019031215194557128 0 0.0056616941036658599 0.02008466058491858 0 0.0078177647370262053 0.021465390669009002 0 0.0048604906503883815 0.022448521576027853 0 0.0032265041038138736 0.020981207850627622 0 0.0056616941036658599 0.02008466058491858 0 0.0048604906503883815 0.022448521576027853 0 0.0058981742587012123 0.017094472005720618 0 0.0063382669369889217 0.014473761159952522 0 0.0056616941036658599 0.02008466058491858 0 0.0050515442473857801 0.017872756118967697 0 0.0030561302831850472 0.019031215194557128 0 0.0056616941036658599 0.02008466058491858 0 0.0050515442473857801 0.017872756118967697 0 0.0063896750502509553 0.015455406078296426 0 0.0035476690369476891 0.020680239300332342 0 0.0029040384333080729 0.021201863168086463 0 0.0050515442473857801 0.017872756118967697 0 0.0023165472595001431 0.019251766656482098 0 0.0023055074506843679 0.0158944975106768 0 0.00034095817819356769 0.017360376243480326 0 0.0023165472595001431 0.019251766656482098 0 0.0023055074506843679 0.0158944975106768 0 0.00034095817819356769 0.017360376243480326 0 -0.00032029513193848808 0.020517721936799925 0 0.0023165472595001431 0.019251766656482098 0 -0.00010295695501830818 0.014775342737552743 0 0.00034095817819356769 0.017360376243480326 0 0.0023055074506843679 0.0158944975106768 0 -0.00010295695501830818 0.014775342737552743 0 0.0023055074506843679 0.0158944975106768 0 0.0016152572419295829 0.0132926316754578 0 0.0023055074506843679 0.0158944975106768 0 0.0040798928325921288 0.013416647385143766 0 0.0016152572419295829 0.0132926316754578 0 0.0050515442473857801 0.017872756118967697 0 0.0023055074506843679 0.0158944975106768 0 0.0044690072252330116 0.015669022372697659 0 0.0050515442473857801 0.017872756118967697 0 0.0044690072252330116 0.015669022372697659 0 0.0063896750502509553 0.015455406078296426 0 0.0044690072252330116 0.015669022372697659 0 0.0040798928325921288 0.013416647385143766 0 0.0063896750502509553 0.015455406078296426 0 0.0023055074506843679 0.0158944975106768 0 0.0044690072252330116 0.015669022372697659 0 0.0040798928325921288 0.013416647385143766 0 0.0039632412124017439 0.010740521195303814 0 0.0072256840872735638 0.010300269710549922 0 0.0040798928325921288 0.013416647385143766 0 0.0072256840872735638 0.010300269710549922 0 0.0040798928325921288 0.013416647385143766 0 0.0063896750502509553 0.015455406078296426 0 0.0039632412124017439 0.010740521195303814 0 0.0040798928325921288 0.013416647385143766 0 0.0025881704651919174 0.011767763792104844 0 -0.00044023458352832241 0.012132906020169436 0 0.0010482662894157444 0.011263661859893647 0 0.0016152572419295829 0.0132926316754578 0 0.0025881704651919174 0.011767763792104844 0 0.0010482662894157444 0.011263661859893647 0 0.0016152572419295829 0.0132926316754578 0 0.0022280282677649781 0.010135945794920815 0 0.0025881704651919174 0.011767763792104844 0 0.0010482662894157444 0.011263661859893647 0 0.0040798928325921288 0.013416647385143766 0 0.0025881704651919174 0.011767763792104844 0 0.0016152572419295829 0.0132926316754578 0 0.0090330573978158416 0.0084763748746583319 0 0.0089535405775637272 0.010660007763061721 0 0.010969650013089289 0.0096688301150589084 0 0.0089535405775637272 0.010660007763061721 0 0.010969650013089289 0.0096688301150589084 0 0.010941375419407973 0.012175252998385859 0 0.0071438410077166239 0.0088196179707046678 0 0.0089535405775637272 0.010660007763061721 0 0.0059814616960300587 0.014260506119655163 0 0.0070917274408638584 0.010240967831872255 0 0.0063382669369889217 0.014473761159952522 0 0.0089535405775637272 0.010660007763061721 0 0.0059814616960300587 0.014260506119655163 0 0.0092382919147499035 0.014713545977547491 0 0.011678803595052658 0.010926333108029608 0 0.013331575856727541 0.011793384180762 0 0.0089535405775637272 0.010660007763061721 0 0.0092382919147499035 0.014713545977547491 0 0.012684813030156578 0.015457427273864259 0 0.0093543647928408438 0.018330651031551844 0 0.012219470649659073 0.019126113999908878 0 0.012684813030156578 0.015457427273864259 0 0.0092382919147499035 0.014713545977547491 0 0.0093543647928408438 0.018330651031551844 0 0.012684813030156578 0.015457427273864259 0 0.0056616941036658599 0.02008466058491858 0 0.0059814616960300587 0.014260506119655163 0 0.0093543647928408438 0.018330651031551844 0 0.0059814616960300587 0.014260506119655163 0 0.0092382919147499035 0.014713545977547491 0 0.0093543647928408438 0.018330651031551844 0 0.0093543647928408438 0.018330651031551844 0 0.0078177647370262053 0.021465390669009002 0 0.010075214175124594 0.02225971096135403 0 0.0056616941036658599 0.02008466058491858 0 0.0093543647928408438 0.018330651031551844 0 0.0078177647370262053 0.021465390669009002 0 0.0093543647928408438 0.018330651031551844 0 0.012219470649659073 0.019126113999908878 0 0.010075214175124594 0.02225971096135403 0 0.012219470649659073 0.019126113999908878 0 0.012743343898298435 0.021731859301956754 0 0.010075214175124594 0.02225971096135403 0 0.012835827261015309 0.014105635896808936 0 0.014396649091442646 0.011945768236775751 0 0.010941375419407973 0.012175252998385859 0 0.012219470649659073 0.019126113999908878 0 0.01539523329809228 0.019416142155929416 0 0.012743343898298435 0.021731859301956754 0 0.01557200160689858 0.010545608427838362 0 0.013331575856727541 0.011793384180762 0 0.012219470649659073 0.019126113999908878 0 0.01539523329809228 0.019416142155929416 0 0.012684813030156578 0.015457427273864259 0 0.01557200160689858 0.010545608427838362 0 0.0099118542264967219 -0.0054482258542646557 0 0.012835827261015309 0.014105635896808936 0 0.015684426067306027 0.014326314623949905 0 0.014644004305113036 0.016069851010592193 0 0.0022085539677304286 -0.050398271904243994 0 0.0020683687967833772 -0.050464049280929554 0 0.0021633591644049203 -0.050061697453002131 0 0.0022085539677304286 -0.050398271904243994 0 0.0020683687967833772 -0.050464049280929554 0 0.0021013393993383426 -0.050603878055276552 0 0.011408045464402857 -0.013379095418908644 0 0.011775216313121832 -0.015835416694089263 0 0.015684426067306027 0.014326314623949905 0 0.014396649091442646 0.011945768236775751 0 0.016783054464017604 0.012510957188272878 0 0.012835827261015309 0.014105635896808936 0 0.015684426067306027 0.014326314623949905 0 0.014396649091442646 0.011945768236775751 0 0.014396649091442646 0.011945768236775751 0 0.016085638506226796 0.01108130834772089 0 0.016783054464017604 0.012510957188272878 0 0.014396649091442646 0.011945768236775751 0 0.016085638506226796 0.01108130834772089 0 0.015285382280904885 0.0092189779590067782 0 0.016085638506226796 0.01108130834772089 0 0.015285382280904885 0.0092189779590067782 0 0.017850060794310531 0.010646165627115107 0 0.019349891392164913 -0.0046110921958321194 0 0.011985758466845091 -0.015305423200119182 0 0.014396649091442646 0.011945768236775751 0 0.015285382280904885 0.0092189779590067782 0 0.012884488293704468 0.010239295072083161 0 0.015285382280904885 0.0092189779590067782 0 0.012884488293704468 0.010239295072083161 0 0.012927470848502967 0.0079951300609020937 0 0.012884488293704468 0.010239295072083161 0 0.010969650013089289 0.0096688301150589084 0 0.012927470848502967 0.0079951300609020937 0 0.014396649091442646 0.011945768236775751 0 0.012884488293704468 0.010239295072083161 0 0.010941375419407973 0.012175252998385859 0 0.012884488293704468 0.010239295072083161 0 0.010969650013089289 0.0096688301150589084 0 0.010941375419407973 0.012175252998385859 0 0.0022150124557564644 -0.03496479148780568 0 0.0035550600966324742 -0.035125506871114605 0 0.0031684377237872121 -0.034129003459137663 0 -0.00046228015349746574 -0.043377115467508533 0 0.00095185089412906253 -0.038604636462123157 0 0.00077096037263149186 -0.050454470575936522 0 0.0012979759490154101 -0.050167939745851452 0 0.001049294936098971 -0.050520486753528236 0 0.0012979759490154101 -0.050167939745851452 0 0.0012540227160285744 -0.050588572501003175 0 0.0014593189889852047 -0.050478897985133671 0 0.0012979759490154101 -0.050167939745851452 0 0.001049294936098971 -0.050520486753528236 0 0.0012540227160285744 -0.050588572501003175 0 0.001049294936098971 -0.050520486753528236 0 0.0010612862433495953 -0.050760398037350739 0 0.0012540227160285744 -0.050588572501003175 0 0.0010612862433495953 -0.050760398037350739 0 0.0012540227160285744 -0.050588572501003175 0 0.0011756560048637439 -0.050852505853280737 0 0.0012540227160285744 -0.050588572501003175 0 0.0011756560048637439 -0.050852505853280737 0 0.0013712298774852436 -0.050733939538736457 0 0.0012540227160285744 -0.050588572501003175 0 0.0014593189889852047 -0.050478897985133671 0 0.0013712298774852436 -0.050733939538736457 0 0.0014593189889852047 -0.050478897985133671 0 0.001646745056036949 -0.050569978670229651 0 0.0016486504096869319 -0.050259408953799829 0 0.0014593189889852047 -0.050478897985133671 0 0.001646745056036949 -0.050569978670229651 0 0.0013712298774852436 -0.050733939538736457 0 0.0012979759490154101 -0.050167939745851452 0 0.0014593189889852047 -0.050478897985133671 0 0.0016486504096869319 -0.050259408953799829 0 0.0012979759490154101 -0.050167939745851452 0 0.0016486504096869319 -0.050259408953799829 0 0.0016634483914757983 -0.049929096124814325 0 0.00095185089412906253 -0.038604636462123157 0 0.0028223385644389411 -0.03141277156267458 0 0.0016486504096869319 -0.050259408953799829 0 0.0018969893169569489 -0.050070502184288837 0 0.0016634483914757983 -0.049929096124814325 0 0.0016486504096869319 -0.050259408953799829 0 0.0018969893169569489 -0.050070502184288837 0 0.0018739368576566405 -0.050371065018006617 0 0.001646745056036949 -0.050569978670229651 0 0.0016486504096869319 -0.050259408953799829 0 0.0018739368576566405 -0.050371065018006617 0 0.001646745056036949 -0.050569978670229651 0 0.0018739368576566405 -0.050371065018006617 0 0.0018401014492615444 -0.05062683105575725 0 0.0018739368576566405 -0.050371065018006617 0 0.0020683687967833772 -0.050464049280929554 0 0.0018401014492615444 -0.05062683105575725 0 0.0018739368576566405 -0.050371065018006617 0 0.0020683687967833772 -0.050464049280929554 0 0.0021633591644049203 -0.050061697453002131 0 0.0018969893169569489 -0.050070502184288837 0 0.0018739368576566405 -0.050371065018006617 0 0.0021633591644049203 -0.050061697453002131 0 0.016085638506226796 0.01108130834772089 0 0.016783054464017604 0.012510957188272878 0 0.017850060794310531 0.010646165627115107 0 0.011775216313121832 -0.015835416694089263 0 0.011985758466845091 -0.015305423200119182 0 0.0018969893169569489 -0.050070502184288837 0 0.0021633591644049203 -0.050061697453002131 0 0.0020259944861702722 -0.049683639886481536 0 0.018157647083644753 0.010691382881759821 0 0.019565449546620164 0.0083234019567771968 0 0.017720651412927342 0.008875198866229209 0 0.015285382280904885 0.0092189779590067782 0 0.018157647083644753 0.010691382881759821 0 0.017720651412927342 0.008875198866229209 0 0.011985758466845091 -0.015305423200119182 0 0.011318016976848854 -0.013272964084848531 0 0.0066700510333145375 -0.033308566327561268 0 0.0049982703552580807 -0.032656018491193248 0 0.0056931222837981032 -0.031638457033586399 0 0.0066700510333145375 -0.033308566327561268 0 0.0051262990508093471 -0.034205034070416453 0 0.0049982703552580807 -0.032656018491193248 0 0.011985758466845091 -0.015305423200119182 0 0.0028223385644389411 -0.03141277156267458 0 0.0018969893169569489 -0.050070502184288837 0 0.0020259944861702722 -0.049683639886481536 0 0.0016634483914757983 -0.049929096124814325 0 0.0051262990508093471 -0.034205034070416453 0 0.004041082286203603 -0.033481109405673858 0 0.0049982703552580807 -0.032656018491193248 0 0.0035550600966324742 -0.035125506871114605 0 0.0051262990508093471 -0.034205034070416453 0 0.004041082286203603 -0.033481109405673858 0 0.004041082286203603 -0.033481109405673858 0 0.0049982703552580807 -0.032656018491193248 0 0.0040209816799572909 -0.032153594301678759 0 0.0040209816799572909 -0.032153594301678759 0 0.0027705848165947475 -0.033018520099955651 0 0.003233804368932878 -0.031369901407087807 0 0.0018011518083907649 -0.039240516419959119 0 0.001833242107455532 -0.040599507352968758 0 0.0012645270247539162 -0.041772163766657357 0 0.0012492459352448026 -0.04194253082342371 0 0.0014667414092191715 -0.041401986843680225 0 0.004041082286203603 -0.033481109405673858 0 0.0040209816799572909 -0.032153594301678759 0 0.0027705848165947475 -0.033018520099955651 0 0.0011313313418988631 -0.042163834848565354 0 0.0012645270247539162 -0.041772163766657357 0 0.0012492459352448026 -0.04194253082342371 0 0.004041082286203603 -0.033481109405673858 0 0.0027705848165947475 -0.033018520099955651 0 0.0031684377237872121 -0.034129003459137663 0 0.0035550600966324742 -0.035125506871114605 0 0.004041082286203603 -0.033481109405673858 0 0.0031684377237872121 -0.034129003459137663 0 0.0022150124557564644 -0.03496479148780568 0 0.0027705848165947475 -0.033018520099955651 0 0.0031684377237872121 -0.034129003459137663 0 -3.4479889905433949e-05 -0.051596301883451885 0 -0.00060216176064451041 -0.051193134441548743 0 -0.0005277364484063715 -0.050823745901099858 0 0.0032553223158009528 -0.030209174362991233 0 0.0036170244563871147 -0.030158559456522564 0 0.0035252572036205345 -0.029159051089800849 0 0.0036170244563871147 -0.030158559456522564 0 0.0033434282450025702 -0.031156935229274062 0 0.0044442889032234581 -0.031194736861528422 0 0.0024397250258776722 -0.037908945906340016 0 0.0018588706090918283 -0.04036283703651429 0 0.0036170244563871147 -0.030158559456522564 0 0.0030548963486706224 -0.031165392503319091 0 0.00329600853428652 -0.031511632629782675 0 0.0032553223158009528 -0.030209174362991233 0 0.0036170244563871147 -0.030158559456522564 0 0.0030548963486706224 -0.031165392503319091 0 0.003008357384667505 -0.039397962726116349 0 0.0020170737686053546 -0.042027929934464067 0 0.00086822577262697621 -0.044207226147251588 0 0.0016823491537780494 -0.040241197928730918 0 0.0019839648093965476 -0.041441862649842259 0 0.0010080791571692772 -0.044831985006246959 0 0.0020170737686053546 -0.042027929934464067 0 0.0016823491537780494 -0.040241197928730918 0 0.0019839648093965476 -0.041441862649842259 0 0.0021328174388581013 -0.040886109143429987 0 0.0020170737686053546 -0.042027929934464067 0 0.0018588706090918283 -0.04036283703651429 0 0.001833242107455532 -0.040599507352968758 0 0.0018588706090918283 -0.04036283703651429 0 0.0010080791571692772 -0.044831985006246959 0 0.001833242107455532 -0.040599507352968758 0 0.0040209816799572909 -0.032153594301678759 0 0.003233804368932878 -0.031369901407087807 0 0.0032924034401293398 -0.03114657535297375 0 0.0012735594733646073 -0.038421694294977889 0 0.0018588706090918283 -0.04036283703651429 0 0.0044442889032234581 -0.031194736861528422 0 0.0047598872939425526 -0.02999571868296529 0 0.0056931222837981032 -0.031638457033586399 0 0.0049982703552580807 -0.032656018491193248 0 0.0040209816799572909 -0.032153594301678759 0 0.0044442889032234581 -0.031194736861528422 0 0.0049982703552580807 -0.032656018491193248 0 0.0044442889032234581 -0.031194736861528422 0 0.0056931222837981032 -0.031638457033586399 0 0.0040209816799572909 -0.032153594301678759 0 0.0033434282450025702 -0.031156935229274062 0 0.0044442889032234581 -0.031194736861528422 0 0.0036170244563871147 -0.030158559456522564 0 0.0044442889032234581 -0.031194736861528422 0 0.0047598872939425526 -0.02999571868296529 0 0.0036170244563871147 -0.030158559456522564 0 0.0047598872939425526 -0.02999571868296529 0 0.0035252572036205345 -0.029159051089800849 0 0.010800861498553568 -0.013714067863499213 0 0.011318016976848854 -0.013272964084848531 0 0.02112733631820601 0.0057965337166225907 0 0.019157649661377379 0.0064755288235832245 0 0.018361050467313587 0.0047287217170481968 0 0.02112733631820601 0.0057965337166225907 0 0.019157649661377379 0.0064755288235832245 0 0.019565449546620164 0.0083234019567771968 0 0.019157649661377379 0.0064755288235832245 0 0.019565449546620164 0.0083234019567771968 0 0.017624557022094995 0.0070026376007778328 0 0.019565449546620164 0.0083234019567771968 0 0.017720651412927342 0.008875198866229209 0 0.017624557022094995 0.0070026376007778328 0 0.017624557022094995 0.0070026376007778328 0 0.018361050467313587 0.0047287217170481968 0 0.015469489337378782 0.0059697553376309017 0 0.019157649661377379 0.0064755288235832245 0 0.017624557022094995 0.0070026376007778328 0 0.018361050467313587 0.0047287217170481968 0 0.016655509825161091 0.0036254414023461708 0 0.015482378798490157 0.0027014914606072506 0 0.018827975006705824 0.0017449215358202562 0 0.015687579421894131 0.0024875996080575462 0 0.01659169120247149 -0.00013958500317824606 0 0.018361050467313587 0.0047287217170481968 0 0.018827975006705824 0.0017449215358202562 0 0.015687579421894131 0.0024875996080575462 0 0.018827975006705824 0.0017449215358202562 0 0.020450114851547026 0.0035418051092585721 0 0.020904193618209801 0.0018841096358168255 0 0.018827975006705824 0.0017449215358202562 0 0.020904193618209801 0.0018841096358168255 0 0.020378603081421722 0.00042504988971252581 0 0.02112733631820601 0.0057965337166225907 0 0.018361050467313587 0.0047287217170481968 0 0.020450114851547026 0.0035418051092585721 0 0.018361050467313587 0.0047287217170481968 0 0.018827975006705824 0.0017449215358202562 0 0.020450114851547026 0.0035418051092585721 0 0.0047598872939425526 -0.02999571868296529 0 0.0038367732052708805 -0.028268144199442406 0 0.0035252572036205345 -0.029159051089800849 0 0.010800861498553568 -0.013714067863499213 0 0.0094595360644678782 -0.015729621063744242 0 0.02112733631820601 0.0057965337166225907 0 0.020450114851547026 0.0035418051092585721 0 0.022808819773160828 0.0029445032890627158 0 0.020904193618209801 0.0018841096358168255 0 0.022808819773160828 0.0029445032890627158 0 0.021991793074214179 0.00081671584318268131 0 0.020450114851547026 0.0035418051092585721 0 0.020904193618209801 0.0018841096358168255 0 0.022808819773160828 0.0029445032890627158 0 0.0025644668675514526 -0.026640542986625427 0 0.0030463272886191131 -0.027459955558057643 0 0.0029056441576919435 -0.028413206079695927 0 0.0094595360644678782 -0.015729621063744242 0 0.0069217301614751441 -0.021170619501140533 0 0.0038367732052708805 -0.028268144199442406 0 0.0030463272886191131 -0.027459955558057643 0 0.0028794593882624227 -0.026515486888893727 0 0.022808819773160828 0.0029445032890627158 0 0.024434933544285411 -1.1309326501072439e-07 0 0.021991793074214179 0.00081671584318268131 0 0.0038367732052708805 -0.028268144199442406 0 0.0030463272886191131 -0.027459955558057643 0 0.0029056441576919435 -0.028413206079695927 0 -3.4479889905433949e-05 -0.051596301883451885 0 -0.00060216176064451041 -0.051193134441548743 0 -0.00036808107417300528 -0.051992977800414418 0 0.0033010102621001654 -0.030226101132525898 0 0.0029056441576919435 -0.028413206079695927 0 0.0035252572036205345 -0.029159051089800849 0 0.003008357384667505 -0.039397962726116349 0 0.0039217437132510876 -0.036069865988844617 0 0.0038367732052708805 -0.028268144199442406 0 0.0029056441576919435 -0.028413206079695927 0 0.0035252572036205345 -0.029159051089800849 0 0.003008357384667505 -0.039397962726116349 0 0.0033691166785355304 -0.037084894121597413 0 0.012927470848502967 0.0079951300609020937 0 0.015469489337378782 0.0059697553376309017 0 0.012194679912153164 0.0052998972689134215 0 0.010206154557020874 0.0075021189190141516 0 0.010012032193704612 0.0056393526383590152 0 0.012194679912153164 0.0052998972689134215 0 0.010206154557020874 0.0075021189190141516 0 0.012927470848502967 0.0079951300609020937 0 0.012194679912153164 0.0052998972689134215 0 0.010206154557020874 0.0075021189190141516 0 0.010969650013089289 0.0096688301150589084 0 0.012927470848502967 0.0079951300609020937 0 0.015285382280904885 0.0092189779590067782 0 0.012927470848502967 0.0079951300609020937 0 0.015469489337378782 0.0059697553376309017 0 0.015285382280904885 0.0092189779590067782 0 0.017624557022094995 0.0070026376007778328 0 0.015469489337378782 0.0059697553376309017 0 0.015285382280904885 0.0092189779590067782 0 0.017720651412927342 0.008875198866229209 0 0.017624557022094995 0.0070026376007778328 0 0.015469489337378782 0.0059697553376309017 0 0.014165894702796977 0.0036229773497573389 0 0.012194679912153164 0.0052998972689134215 0 0.018361050467313587 0.0047287217170481968 0 0.015469489337378782 0.0059697553376309017 0 0.016444491229658936 0.0030871585245175605 0 0.015469489337378782 0.0059697553376309017 0 0.016444491229658936 0.0030871585245175605 0 0.014165894702796977 0.0036229773497573389 0 0.015482378798490157 0.0027014914606072506 0 0.013124300288261384 0.00098331514720600738 0 0.016444491229658936 0.0030871585245175605 0 0.014165894702796977 0.0036229773497573389 0 0.01444097448847708 0.0012514876099158766 0 0.014165894702796977 0.0036229773497573389 0 0.012217120849354229 0.0024803901318709879 0 0.01444097448847708 0.0012514876099158766 0 0.014165894702796977 0.0036229773497573389 0 0.012217120849354229 0.0024803901318709879 0 0.012194679912153164 0.0052998972689134215 0 0.010148528369235556 0.0039916155850632917 0 0.012217120849354229 0.0024803901318709879 0 0.012194679912153164 0.0052998972689134215 0 0.010012032193704612 0.0056393526383590152 0 0.010148528369235556 0.0039916155850632917 0 0.012194679912153164 0.0052998972689134215 0 0.010148528369235556 0.0039916155850632917 0 0.012217120849354229 0.0024803901318709879 0 0.0097409579813270211 0.0012930728715226097 0 0.012217120849354229 0.0024803901318709879 0 0.012363736575264806 -0.00061607005926739755 0 0.0097409579813270211 0.0012930728715226097 0 0.0098089965669816495 -0.0011360944124058575 0 0.0070443448315626418 0.0016122938367080773 0 0.0071902871560825558 0.00063213308064307436 0 0.0074269452239828851 0.00083742837920135693 0 0.004904181281611855 0.0027749773721093703 0 0.0057875926442796802 0.00024112695365259559 0 0.0071902871560825558 0.00063213308064307436 0 0.004904181281611855 0.0027749773721093703 0 0.0057875926442796802 0.00024112695365259559 0 0.0071902871560825558 0.00063213308064307436 0 0.0068951436042416492 -1.9443670459295633e-05 0 0.0075039118404665673 0.00020595313575401018 0 0.0074239330644278335 0.00083363581486513207 0 0.0081912401123379261 -0.00029026920974970747 0 0.0072584045593519827 0.00011410445568529965 0 0.0071902871560825558 0.00063213308064307436 0 0.0068951436042416492 -1.9443670459295633e-05 0 0.0075039118404665673 0.00020595313575401018 0 0.0072584045593519827 0.00011410445568529965 0 0.0071902871560825558 0.00063213308064307436 0 0.0075039118404665673 0.00020595313575401018 0 0.0071902871560825558 0.00063213308064307436 0 0.0074239330644278335 0.00083363581486513207 0 0.0097950753357733851 -0.0011345858902601135 0 0.0098089965669816495 -0.0011360944124058575 0 0.012217120849354229 0.0024803901318709879 0 0.012363736575264806 -0.00061607005926739755 0 0.01444097448847708 0.0012514876099158766 0 0.0098089965669816495 -0.0011360944124058575 0 0.013124300288261384 0.00098331514720600738 0 0.013126346880567248 0.00026818575293578766 0 0.0148723852968337 -0.0018292600044057645 0 0.01659169120247149 -0.00013958500317824606 0 0.015687579421894131 0.0024875996080575462 0 0.013126346880567248 0.00026818575293578766 0 0.01659169120247149 -0.00013958500317824606 0 0.0148723852968337 -0.0018292600044057645 0 0.013606697159600417 -0.0042581591983668352 0 0.01728374948757393 -0.0028201375773734185 0 0.0148723852968337 -0.0018292600044057645 0 0.01659169120247149 -0.00013958500317824606 0 0.01728374948757393 -0.0028201375773734185 0 0.0148723852968337 -0.0018292600044057645 0 0.013124146784720453 -0.00196958734616002 0 0.013606697159600417 -0.0042581591983668352 0 0.010579852305118398 -0.0019470210061152337 0 0.013126346880567248 0.00026818575293578766 0 0.013124146784720453 -0.00196958734616002 0 0.010579852305118398 -0.0019470210061152337 0 0.013124146784720453 -0.00196958734616002 0 0.013606697159600417 -0.0042581591983668352 0 0.013126346880567248 0.00026818575293578766 0 0.0148723852968337 -0.0018292600044057645 0 0.013124146784720453 -0.00196958734616002 0 0.0082447423307351608 -0.00447500177752784 0 0.0060545202420143121 -0.0048874175351866717 0 0.0098158103778371482 -0.0010045867681318093 0 0.0081912401123379261 -0.00029026920974970747 0 0.0081493300924184407 -0.001651712806243969 0 0.0024772149195528615 -0.0080266567184444776 0 0.002588272219246698 -0.008113287109627082 0 0.0027158167919296055 -0.0080859168866039485 0 0.0024772149195528615 -0.0080266567184444776 0 0.0027387958721059287 -0.0079353128895622745 0 0.0027158167919296055 -0.0080859168866039485 0 0.0082447423307351608 -0.00447500177752784 0 0.010268025494735948 -0.0070556153714727132 0 0.0082447423307351608 -0.00447500177752784 0 0.0072179801817583416 -0.0044998081753539294 0 0.002588272219246698 -0.008113287109627082 0 0.0023684385228352959 -0.0081333074824924793 0 0.0026374374370817955 -0.0083017544154428968 0 0.0024098446362100447 -0.0079323878889569713 0 0.002588272219246698 -0.008113287109627082 0 0.0023684385228352959 -0.0081333074824924793 0 0.0024098446362100447 -0.0079323878889569713 0 0.0023684385228352959 -0.0081333074824924793 0 0.0022093315198918385 -0.0079899990571893134 0 0.0023684385228352959 -0.0081333074824924793 0 0.0022093315198918385 -0.0079899990571893134 0 0.0021395307444322781 -0.0081163777750784451 0 0.0020811780966764875 -0.0080297448954361628 0 0.0022093315198918385 -0.0079899990571893134 0 0.0021395307444322781 -0.0081163777750784451 0 0.0046766368666766494 -0.0050781058773286267 0 0.0060545202420143121 -0.0048874175351866717 0 0.0046766368666766494 -0.0050781058773286267 0 0.0044990526204516362 -0.0054278662192172814 0 0.001996605130065381 -0.0078418917058720779 0 0.0019285180855238362 -0.0081560283601859133 0 0.0017701800089490298 -0.0077796195924147013 0 0.0046766368666766494 -0.0050781058773286267 0 0.0035576875814117013 -0.0059730434382421231 0 0.0057875926442796802 0.00024112695365259559 0 0.0067818517525983762 -0.00082374301167328185 0 0.0043481326382066709 3.0299790728972465e-05 0 0.0064771784377167319 -0.0023074955719783966 0 0.0067818517525983762 -0.00082374301167328185 0 0.0043481326382066709 3.0299790728972465e-05 0 0.0046766368666766494 -0.0050781058773286267 0 0.0038602771223395535 -0.0014456313685110326 0 0.0057875926442796802 0.00024112695365259559 0 0.0067818517525983762 -0.00082374301167328185 0 0.0068951436042416492 -1.9443670459295633e-05 0 0.0067818517525983762 -0.00082374301167328185 0 0.0068951436042416492 -1.9443670459295633e-05 0 0.0074444320217112846 -0.00036196369828541189 0 0.0098089965669816495 -0.0011360944124058575 0 0.0082447423307351608 -0.00447500177752784 0 0.0074239330644278335 0.00083363581486513207 0 0.0098158103778371482 -0.0010045867681318093 0 0.0081912401123379261 -0.00029026920974970747 0 0.0072584045593519827 0.00011410445568529965 0 0.0068951436042416492 -1.9443670459295633e-05 0 0.0074444320217112846 -0.00036196369828541189 0 0.0075039118404665673 0.00020595313575401018 0 0.0072584045593519827 0.00011410445568529965 0 0.0074444320217112846 -0.00036196369828541189 0 0.0075039118404665673 0.00020595313575401018 0 0.0074444320217112846 -0.00036196369828541189 0 0.0081912401123379261 -0.00029026920974970747 0 0.0074444320217112846 -0.00036196369828541189 0 0.0081912401123379261 -0.00029026920974970747 0 0.0081493300924184407 -0.001651712806243969 0 0.0064771784377167319 -0.0023074955719783966 0 0.0067818517525983762 -0.00082374301167328185 0 0.0081493300924184407 -0.001651712806243969 0 0.0067818517525983762 -0.00082374301167328185 0 0.0074444320217112846 -0.00036196369828541189 0 0.0081493300924184407 -0.001651712806243969 0 0.0037442082440129424 -0.0079358305946014146 0 0.0035514894974422776 -0.0079213839218685855 0 0.0033939940965747018 -0.0076665189439243534 0 0.0050611953990260068 -0.022270498134417338 0 0.0076104291297907512 -0.017796876207895253 0 0.003410146387211945 -0.0079258633691114255 0 0.0033939940965747018 -0.0076665189439243534 0 0.0032133709558917066 -0.0079326430120768773 0 0.0035514894974422776 -0.0079213839218685855 0 0.003410146387211945 -0.0079258633691114255 0 0.0035251522265790148 -0.0080434810103018391 0 0.0035514894974422776 -0.0079213839218685855 0 0.003410146387211945 -0.0079258633691114255 0 0.0033939940965747018 -0.0076665189439243534 0 0.0073806987292914204 -0.020999297885688408 0 0.0066751773346075093 -0.019760285873502568 0 0.0055957205195907083 -0.020178664050778443 0 0.024434933544285411 -1.1309326501072439e-07 0 0.023054513045092252 -0.00052621511022227316 0 0.021991793074214179 0.00081671584318268131 0 0.0069217301614751441 -0.021170619501140533 0 0.0076104291297907512 -0.017796876207895253 0 0.0025644668675514526 -0.026640542986625427 0 0.0030463272886191131 -0.027459955558057643 0 0.0028794593882624227 -0.026515486888893727 0 0.021991793074214179 0.00081671584318268131 0 0.020902720031015488 -0.0013747139108547634 0 0.020378603081421722 0.00042504988971252581 0 0.023054513045092252 -0.00052621511022227316 0 0.021991793074214179 0.00081671584318268131 0 0.020902720031015488 -0.0013747139108547634 0 0.020904193618209801 0.0018841096358168255 0 0.021991793074214179 0.00081671584318268131 0 0.020378603081421722 0.00042504988971252581 0 0.0076104291297907512 -0.017796876207895253 0 0.011016710440839803 -0.011505229526353951 0 0.0031134745337137249 -0.0077783496703056707 0 0.0032133709558917066 -0.0079326430120768773 0 0.0030002857590659864 -0.0080681468322173471 0 0.0033939940965747018 -0.0076665189439243534 0 0.0031134745337137249 -0.0077783496703056707 0 0.0032133709558917066 -0.0079326430120768773 0 0.011016710440839803 -0.011505229526353951 0 0.010268025494735948 -0.0070556153714727132 0 0.020902720031015488 -0.0013747139108547634 0 0.018811900284562501 -0.0004451218711117707 0 0.01728374948757393 -0.0028201375773734185 0 0.0031134745337137249 -0.0077783496703056707 0 0.0027387958721059287 -0.0079353128895622745 0 0.0030002857590659864 -0.0080681468322173471 0 0.020902720031015488 -0.0013747139108547634 0 0.018811900284562501 -0.0004451218711117707 0 0.020378603081421722 0.00042504988971252581 0 0.018827975006705824 0.0017449215358202562 0 0.018811900284562501 -0.0004451218711117707 0 0.020378603081421722 0.00042504988971252581 0 0.018827975006705824 0.0017449215358202562 0 0.018811900284562501 -0.0004451218711117707 0 0.01659169120247149 -0.00013958500317824606 0 0.018811900284562501 -0.0004451218711117707 0 0.01659169120247149 -0.00013958500317824606 0 0.01728374948757393 -0.0028201375773734185 0 0.0027158167919296055 -0.0080859168866039485 0 0.0028161228745903735 -0.0082478517502709587 0 0.0030002857590659864 -0.0080681468322173471 0 0.0027387958721059287 -0.0079353128895622745 0 0.0027158167919296055 -0.0080859168866039485 0 0.0030002857590659864 -0.0080681468322173471 0 0.002588272219246698 -0.008113287109627082 0 0.0027158167919296055 -0.0080859168866039485 0 0.0028161228745903735 -0.0082478517502709587 0 0.002588272219246698 -0.008113287109627082 0 0.0028161228745903735 -0.0082478517502709587 0 0.0026374374370817955 -0.0083017544154428968 0 0.0028161228745903735 -0.0082478517502709587 0 0.0030025616273120421 -0.0082776989953661523 0 0.0030002857590659864 -0.0080681468322173471 0 0.0028161228745903735 -0.0082478517502709587 0 0.0028910160447066383 -0.0083941446730030952 0 0.0028006977018385708 -0.008378668387906376 0 0.0028161228745903735 -0.0082478517502709587 0 0.0030025616273120421 -0.0082776989953661523 0 0.0028910160447066383 -0.0083941446730030952 0 0.0030025616273120421 -0.0082776989953661523 0 0.0029912688479883428 -0.0085027197396828919 0 0.0028910160447066383 -0.0083941446730030952 0 0.0032133709558917066 -0.0079326430120768773 0 0.0030002857590659864 -0.0080681468322173471 0 0.003160088616660599 -0.0081522164827814384 0 0.0032133709558917066 -0.0079326430120768773 0 0.003160088616660599 -0.0081522164827814384 0 0.0033432947222220562 -0.0080807503336491112 0 0.003410146387211945 -0.0079258633691114255 0 0.0032133709558917066 -0.0079326430120768773 0 0.0033432947222220562 -0.0080807503336491112 0 0.003160088616660599 -0.0081522164827814384 0 0.0032409015769735822 -0.0083062655604668294 0 0.0033432947222220562 -0.0080807503336491112 0 0.0030025616273120421 -0.0082776989953661523 0 0.0030002857590659864 -0.0080681468322173471 0 0.003160088616660599 -0.0081522164827814384 0 0.0030025616273120421 -0.0082776989953661523 0 0.003160088616660599 -0.0081522164827814384 0 0.0032409015769735822 -0.0083062655604668294 0 0.0030025616273120421 -0.0082776989953661523 0 0.0032409015769735822 -0.0083062655604668294 0 0.0029912688479883428 -0.0085027197396828919 0 0.0032409015769735822 -0.0083062655604668294 0 0.0034377975527717713 -0.0083844909299700711 0 0.0032694116402372038 -0.0086210856227909704 0 0.0032409015769735822 -0.0083062655604668294 0 0.0034377975527717713 -0.0083844909299700711 0 0.0034765996590914406 -0.0081976977064616117 0 0.0036193105555009648 -0.008337708989347551 0 0.0034377975527717713 -0.0083844909299700711 0 0.0035563789747469457 -0.0085527013579406556 0 0.0036193105555009648 -0.008337708989347551 0 0.0034377975527717713 -0.0083844909299700711 0 0.0034765996590914406 -0.0081976977064616117 0 0.0036478496510775503 -0.0081729727237488965 0 0.0036193105555009648 -0.008337708989347551 0 0.0034765996590914406 -0.0081976977064616117 0 0.0036478496510775503 -0.0081729727237488965 0 0.0034765996590914406 -0.0081976977064616117 0 0.0035251522265790148 -0.0080434810103018391 0 0.0032409015769735822 -0.0083062655604668294 0 0.0034765996590914406 -0.0081976977064616117 0 0.0033432947222220562 -0.0080807503336491112 0 0.0034765996590914406 -0.0081976977064616117 0 0.0033432947222220562 -0.0080807503336491112 0 0.0035251522265790148 -0.0080434810103018391 0 0.003410146387211945 -0.0079258633691114255 0 0.0033432947222220562 -0.0080807503336491112 0 0.0035251522265790148 -0.0080434810103018391 0 0.003662133299715961 -0.0080400423972146126 0 0.0035514894974422776 -0.0079213839218685855 0 0.0035251522265790148 -0.0080434810103018391 0 0.0034711974646333206 -0.0089041906546211743 0 0.0032694116402372038 -0.0086210856227909704 0 0.0031469868623943951 -0.0090513085783884197 0 0.0037693973031390294 -0.0091121225682617105 0 0.0034711974646333206 -0.0089041906546211743 0 0.0033072244432615422 -0.0094524665506473936 0 0.0034711974646333206 -0.0089041906546211743 0 0.0031469868623943951 -0.0090513085783884197 0 0.0033072244432615422 -0.0094524665506473936 0 0.0034711974646333206 -0.0089041906546211743 0 0.0035563789747469457 -0.0085527013579406556 0 0.0032694116402372038 -0.0086210856227909704 0 0.0034377975527717713 -0.0083844909299700711 0 0.0035563789747469457 -0.0085527013579406556 0 0.0032694116402372038 -0.0086210856227909704 0 0.0032409015769735822 -0.0083062655604668294 0 0.0032694116402372038 -0.0086210856227909704 0 0.0029912688479883428 -0.0085027197396828919 0 0.0032694116402372038 -0.0086210856227909704 0 0.0029912688479883428 -0.0085027197396828919 0 0.0029548205454431398 -0.0088575762729189676 0 0.0031469868623943951 -0.0090513085783884197 0 0.0029548205454431398 -0.0088575762729189676 0 0.0027555710227453868 -0.0093989023392908686 0 0.0032694116402372038 -0.0086210856227909704 0 0.0031469868623943951 -0.0090513085783884197 0 0.0029548205454431398 -0.0088575762729189676 0 0.0024117231889425072 -0.0088335673246394165 0 0.0021916218675523168 -0.0090152856338008222 0 0.0024762156607761182 -0.0091414186856759432 0 0.0026301968243360833 -0.0088304493586951575 0 0.0026651910348204052 -0.0092673691429927974 0 0.0029548205454431398 -0.0088575762729189676 0 0.0026384618875413247 -0.0087820062572283482 0 0.0027555710227453868 -0.0093989023392908686 0 0.0029912688479883428 -0.0085027197396828919 0 0.0029548205454431398 -0.0088575762729189676 0 0.0026384618875413247 -0.0087820062572283482 0 0.0027314743766345567 -0.0087427973176755196 0 0.0026301968243360833 -0.0088304493586951575 0 0.0029912688479883428 -0.0085027197396828919 0 0.0028910160447066383 -0.0083941446730030952 0 0.0028799712423426302 -0.0084708022683027719 0 0.0028910160447066383 -0.0083941446730030952 0 0.0028799712423426302 -0.0084708022683027719 0 0.0028006977018385708 -0.008378668387906376 0 0.0028161228745903735 -0.0082478517502709587 0 0.0028006977018385708 -0.008378668387906376 0 0.0026374374370817955 -0.0083017544154428968 0 0.0028799712423426302 -0.0084708022683027719 0 0.0028006977018385708 -0.008378668387906376 0 0.0027606541537504381 -0.0084550898600943714 0 0.0028006977018385708 -0.008378668387906376 0 0.0027606541537504381 -0.0084550898600943714 0 0.0026374374370817955 -0.0083017544154428968 0 0.0026301968243360833 -0.0088304493586951575 0 0.0024757410035827487 -0.0088953529198744254 0 0.0027606541537504381 -0.0084550898600943714 0 0.0027252441881957259 -0.008598354719183951 0 0.0026069833453252473 -0.0084442358981007843 0 0.0028799712423426302 -0.0084708022683027719 0 0.0027606541537504381 -0.0084550898600943714 0 0.0027252441881957259 -0.008598354719183951 0 0.0021916218675523168 -0.0090152856338008222 0 0.0022555452219280374 -0.0092588326120673515 0 0.0024762156607761182 -0.0091414186856759432 0 0.0022555452219280374 -0.0092588326120673515 0 0.0025741857292014645 -0.0094755700407055318 0 0.0021152387217630714 -0.0095049038495399717 0 0.0026651910348204052 -0.0092673691429927974 0 0.0027281164116133559 -0.009712969087278563 0 0.0022555452219280374 -0.0092588326120673515 0 0.0024762156607761182 -0.0091414186856759432 0 0.0025741857292014645 -0.0094755700407055318 0 0.0031469868623943951 -0.0090513085783884197 0 0.0027555710227453868 -0.0093989023392908686 0 0.0033072244432615422 -0.0094524665506473936 0 0.0027555710227453868 -0.0093989023392908686 0 0.0033072244432615422 -0.0094524665506473936 0 0.0028623065917727101 -0.009950103852680886 0 0.0033072244432615422 -0.0094524665506473936 0 0.0034562236936692952 -0.010071642753154133 0 0.0028623065917727101 -0.009950103852680886 0 0.0038497047914066505 -0.0095889298576738117 0 0.0033072244432615422 -0.0094524665506473936 0 0.0034562236936692952 -0.010071642753154133 0 0.0021501304843154936 -0.0084079243717967763 0 0.0020656863077980455 -0.0087952589450332914 0 0.0018643820557248244 -0.0085941044045703321 0 0.0021501304843154936 -0.0084079243717967763 0 0.0019285180855238362 -0.0081560283601859133 0 0.0018643820557248244 -0.0085941044045703321 0 0.0019285180855238362 -0.0081560283601859133 0 0.0018643820557248244 -0.0085941044045703321 0 0.0016219067128259773 -0.0082501265559353602 0 0.001996605130065381 -0.0078418917058720779 0 0.0019285180855238362 -0.0081560283601859133 0 0.0021395307444322781 -0.0081163777750784451 0 0.0021501304843154936 -0.0084079243717967763 0 0.0021395307444322781 -0.0081163777750784451 0 0.0022844984498469794 -0.0082317819106381418 0 0.0021501304843154936 -0.0084079243717967763 0 0.0019285180855238362 -0.0081560283601859133 0 0.0021395307444322781 -0.0081163777750784451 0 0.0021501304843154936 -0.0084079243717967763 0 0.0022844984498469794 -0.0082317819106381418 0 0.002443213335743715 -0.0083451119187010463 0 0.0023684385228352959 -0.0081333074824924793 0 0.0021395307444322781 -0.0081163777750784451 0 0.0022844984498469794 -0.0082317819106381418 0 0.0023684385228352959 -0.0081333074824924793 0 0.0022844984498469794 -0.0082317819106381418 0 0.002443213335743715 -0.0083451119187010463 0 0.0023684385228352959 -0.0081333074824924793 0 0.002443213335743715 -0.0083451119187010463 0 0.0026374374370817955 -0.0083017544154428968 0 0.002443213335743715 -0.0083451119187010463 0 0.0026374374370817955 -0.0083017544154428968 0 0.0026069833453252473 -0.0084442358981007843 0 0.0027606541537504381 -0.0084550898600943714 0 0.0026374374370817955 -0.0083017544154428968 0 0.0026069833453252473 -0.0084442358981007843 0 0.0027252441881957259 -0.008598354719183951 0 0.0026069833453252473 -0.0084442358981007843 0 0.0024334362274707928 -0.0085595983947540453 0 0.002443213335743715 -0.0083451119187010463 0 0.0026069833453252473 -0.0084442358981007843 0 0.0024334362274707928 -0.0085595983947540453 0 0.0021501304843154936 -0.0084079243717967763 0 0.0024334362274707928 -0.0085595983947540453 0 0.0020656863077980455 -0.0087952589450332914 0 0.0021501304843154936 -0.0084079243717967763 0 0.002443213335743715 -0.0083451119187010463 0 0.0024334362274707928 -0.0085595983947540453 0 0.0024886642957645646 -0.0088543238977976078 0 0.0019985443166456686 -0.0092461421880656817 0 0.0020656863077980455 -0.0087952589450332914 0 0.0024334362274707928 -0.0085595983947540453 0 0.0024886642957645646 -0.0088543238977976078 0 0.0020656863077980455 -0.0087952589450332914 0 0.0027252441881957259 -0.008598354719183951 0 0.0024334362274707928 -0.0085595983947540453 0 0.0024886642957645646 -0.0088543238977976078 0 0.0024757410035827487 -0.0088953529198744254 0 0.0022942242573384839 -0.0090223381812555344 0 0.0021916218675523168 -0.0090152856338008222 0 0.0022555452219280374 -0.0092588326120673515 0 0.0019993307481365398 -0.0091996678408445033 0 0.0022555452219280374 -0.0092588326120673515 0 0.0019993307481365398 -0.0091996678408445033 0 0.0021152387217630714 -0.0095049038495399717 0 0.0019993307481365398 -0.0091996678408445033 0 0.0021152387217630714 -0.0095049038495399717 0 0.0019409330158366464 -0.0094790304390252132 0 0.0022942242573384839 -0.0090223381812555344 0 0.0021928679684774057 -0.0091009546878544605 0 0.0019993307481365398 -0.0091996678408445033 0 0.0019985443166456686 -0.0092461421880656817 0 0.0019409330158366464 -0.0094790304390252132 0 0.0019985443166456686 -0.0092461421880656817 0 0.0020656863077980455 -0.0087952589450332914 0 0.0017552488727565043 -0.0091278726041301664 0 0.0020656863077980455 -0.0087952589450332914 0 0.0018643820557248244 -0.0085941044045703321 0 0.0017552488727565043 -0.0091278726041301664 0 0.0018643820557248244 -0.0085941044045703321 0 0.0017552488727565043 -0.0091278726041301664 0 0.0016036233195066774 -0.008814167576773637 0 0.0017552488727565043 -0.0091278726041301664 0 0.0013741146448982013 -0.0091886291941231605 0 0.0016036233195066774 -0.008814167576773637 0 0.0013741146448982013 -0.0091886291941231605 0 0.0012913861620483407 -0.0088149630335724437 0 0.0016036233195066774 -0.008814167576773637 0 0.0011223453313924535 -0.0089925831064844638 0 0.00098220088402124002 -0.0091702023721925308 0 0.0013741146448982013 -0.0091886291941231605 0 0.0012913861620483407 -0.0088149630335724437 0 0.00095942389881953285 -0.0092346788125243322 0 0.0012913861620483407 -0.0088149630335724437 0 0.0016219067128259773 -0.0082501265559353602 0 0.001283580604504764 -0.0084428788362226372 0 0.0012913861620483407 -0.0088149630335724437 0 0.0009725073576874239 -0.0086090685543029032 0 0.001283580604504764 -0.0084428788362226372 0 0.0012913861620483407 -0.0088149630335724437 0 0.0016036233195066774 -0.008814167576773637 0 0.0016219067128259773 -0.0082501265559353602 0 0.0018643820557248244 -0.0085941044045703321 0 0.0016036233195066774 -0.008814167576773637 0 0.0016219067128259773 -0.0082501265559353602 0 0.00084351663890032706 -0.0088076464076791792 0 0.00059661648351380376 -0.0089460720262966188 0 0.00075333905048461909 -0.0091404813334062477 0 0.00084351663890032706 -0.0088076464076791792 0 0.00075333905048461909 -0.0091404813334062477 0 0.00095715695915986245 -0.0090903672371791724 0 0.0012913861620483407 -0.0088149630335724437 0 0.00084351663890032706 -0.0088076464076791792 0 0.00095715695915986245 -0.0090903672371791724 0 0.0012913861620483407 -0.0088149630335724437 0 0.0009725073576874239 -0.0086090685543029032 0 0.00084351663890032706 -0.0088076464076791792 0 0.0009725073576874239 -0.0086090685543029032 0 0.00084351663890032706 -0.0088076464076791792 0 0.00078037389140553652 -0.0085981437015693468 0 0.00084351663890032706 -0.0088076464076791792 0 0.00064873163540506227 -0.0085451374441075142 0 0.00059661648351380376 -0.0089460720262966188 0 -0.0029439104885012235 0.0051543522109898281 0 -0.0018891871116643564 0.0024411037308714779 0 0.00084351663890032706 -0.0088076464076791792 0 0.00078037389140553652 -0.0085981437015693468 0 0.00064873163540506227 -0.0085451374441075142 0 -0.002510974346480573 0.004690320042585976 0 -0.0016216846190255153 0.0044301709956937416 0 -0.0029439104885012235 0.0051543522109898281 0 -0.0016216846190255153 0.0044301709956937416 0 -0.0026303461205409284 0.0049732737536272841 0 -0.0026825686685046368 0.0047342340414118301 0 -0.0022408911449334091 0.0048357480757354352 0 0.00078037389140553652 -0.0085981437015693468 0 0.00064873163540506227 -0.0085451374441075142 0 0.00081875609901158075 -0.0084884716397146884 0 -0.002510974346480573 0.004690320042585976 0 -0.0029439104885012235 0.0051543522109898281 0 -0.0058400912901846232 0.01118439613729175 0 -0.0057019950992294385 0.011842242765404298 0 -0.0052167665740419497 0.011345338035480913 0 -0.001380865457459753 -0.0081452994940461373 0 0.00081875609901158075 -0.0084884716397146884 0 0.00053696559358114 -0.0075738884247682102 0 0.0009725073576874239 -0.0086090685543029032 0 0.00078037389140553652 -0.0085981437015693468 0 0.00081875609901158075 -0.0084884716397146884 0 0.0009725073576874239 -0.0086090685543029032 0 0.00081875609901158075 -0.0084884716397146884 0 0.001283580604504764 -0.0084428788362226372 0 0.00081875609901158075 -0.0084884716397146884 0 0.00053696559358114 -0.0075738884247682102 0 0.0013368341545841084 -0.008076247589095583 0 0.00081875609901158075 -0.0084884716397146884 0 0.001283580604504764 -0.0084428788362226372 0 0.0013368341545841084 -0.008076247589095583 0 0.00053696559358114 -0.0075738884247682102 0 0.00084089353071649159 -0.0053329215694107243 0 -0.0011887987273392863 -0.0057007828987123794 0 0.00053696559358114 -0.0075738884247682102 0 0.0017517045593534071 -0.007339651291078675 0 0.00084089353071649159 -0.0053329215694107243 0 0.00053696559358114 -0.0075738884247682102 0 0.0013368341545841084 -0.008076247589095583 0 0.0017517045593534071 -0.007339651291078675 0 -0.001380865457459753 -0.0081452994940461373 0 0.00053696559358114 -0.0075738884247682102 0 -0.0011887987273392863 -0.0057007828987123794 0 -0.0061555161165956955 0.010930196357880747 0 -0.0064223477814474616 0.0097568778459857612 0 -0.0055593324884996905 0.0099751461572654687 0 -0.002510974346480573 0.004690320042585976 0 -0.0028084737556059291 0.0029556929068653408 0 0.0016219067128259773 -0.0082501265559353602 0 0.001283580604504764 -0.0084428788362226372 0 0.0013368341545841084 -0.008076247589095583 0 0.0016219067128259773 -0.0082501265559353602 0 0.0013368341545841084 -0.008076247589095583 0 0.0017517045593534071 -0.007339651291078675 0 0.002875253856973094 -0.0063579434517439404 0 0.0035576875814117013 -0.0059730434382421231 0 0.0016219067128259773 -0.0082501265559353602 0 0.0017517045593534071 -0.007339651291078675 0 0.0017701800089490298 -0.0077796195924147013 0 0.0019285180855238362 -0.0081560283601859133 0 0.0016219067128259773 -0.0082501265559353602 0 0.0017701800089490298 -0.0077796195924147013 0 0.0055227751225334952 -0.0059972993152292813 0 0.0030427325611038008 -0.0040714222233151961 0 0.0054738575367304695 -0.00097562401274720306 0 0.0088495470772075591 -0.004695019726545996 0 0.0055227751225334952 -0.0059972993152292813 0 0.0054738575367304695 -0.00097562401274720306 0 0.0030244476610189956 -0.0017535064283345538 0 0.0030427325611038008 -0.0040714222233151961 0 0.0054738575367304695 -0.00097562401274720306 0 0.0030244476610189956 -0.0017535064283345538 0 0.0015155602097250106 -0.002957855549782634 0 0.001452389660259462 -0.001132994127537702 0 0.0030244476610189956 -0.0017535064283345538 0 0.0030427325611038008 -0.0040714222233151961 0 0.0015155602097250106 -0.002957855549782634 0 0.0030427325611038008 -0.0040714222233151961 0 0.00084089353071649159 -0.0053329215694107243 0 0.0015155602097250106 -0.002957855549782634 0 0.0017517045593534071 -0.007339651291078675 0 0.0055227751225334952 -0.0059972993152292813 0 0.0030427325611038008 -0.0040714222233151961 0 0.0017517045593534071 -0.007339651291078675 0 0.0030427325611038008 -0.0040714222233151961 0 0.00084089353071649159 -0.0053329215694107243 0 0.00084089353071649159 -0.0053329215694107243 0 -0.0011887987273392863 -0.0057007828987123794 0 -8.4203336613984807e-05 -0.0033383919732246341 0 0.00084089353071649159 -0.0053329215694107243 0 0.0015155602097250106 -0.002957855549782634 0 -8.4203336613984807e-05 -0.0033383919732246341 0 -0.0064223477814474616 0.0097568778459857612 0 -0.0061459387262253282 0.0089426932847509483 0 -0.0066931738265185135 0.0085604021982420425 0 -0.0011887987273392863 -0.0057007828987123794 0 -0.00077059019206954401 -0.0025133659925639694 0 -8.4203336613984807e-05 -0.0033383919732246341 0 -0.0064223477814474616 0.0097568778459857612 0 -0.005569773360253185 0.0090480671696018204 0 -0.0055593324884996905 0.0099751461572654687 0 -0.0028084737556059291 0.0029556929068653408 0 -0.0024622542829942453 0.0028573265697117837 0 -0.0064223477814474616 0.0097568778459857612 0 -0.0061459387262253282 0.0089426932847509483 0 -0.005569773360253185 0.0090480671696018204 0 -0.0066931738265185135 0.0085604021982420425 0 -0.0058968541420821932 0.0084005967013248851 0 -0.0058435998041884612 0.0074920112308952949 0 -0.0061459387262253282 0.0089426932847509483 0 -0.0058968541420821932 0.0084005967013248851 0 -0.005569773360253185 0.0090480671696018204 0 -0.0061459387262253282 0.0089426932847509483 0 -0.0066931738265185135 0.0085604021982420425 0 -0.0058968541420821932 0.0084005967013248851 0 -0.00082920882840246252 -0.0023187580936970013 0 0.00045501494853725314 -0.001830012659894568 0 0.00023460381930965821 0.00049374941083814294 0 0.0015155602097250106 -0.002957855549782634 0 -8.4203336613984807e-05 -0.0033383919732246341 0 0.00045501494853725314 -0.001830012659894568 0 -0.00082920882840246252 -0.0023187580936970013 0 -8.4203336613984807e-05 -0.0033383919732246341 0 0.00045501494853725314 -0.001830012659894568 0 -0.0024622542829942453 0.0028573265697117837 0 -0.0022180049897048203 0.0024964474738493996 0 0.0015155602097250106 -0.002957855549782634 0 0.00045501494853725314 -0.001830012659894568 0 0.001452389660259462 -0.001132994127537702 0 -0.0024622542829942453 0.0028573265697117837 0 -0.0023576873533951172 0.0019203141541209571 0 0.00023460381930965821 0.00049374941083814294 0 0.00018945036144432751 0.0023213874287297299 0 0.0020370453502958708 0.00026908024035842516 0 0.001452389660259462 -0.001132994127537702 0 0.00023460381930965821 0.00049374941083814294 0 0.0020370453502958708 0.00026908024035842516 0 0.00045501494853725314 -0.001830012659894568 0 0.001452389660259462 -0.001132994127537702 0 0.00023460381930965821 0.00049374941083814294 0 -0.00017780959817329751 -0.0013736856528218206 0 0.00023460381930965821 0.00049374941083814294 0 -0.0019079150406650155 0.00090053218446750226 0 -0.0024622542829942453 0.0028573265697117837 0 -0.0034758662409400307 0.0040539382009150563 0 0.00023460381930965821 0.00049374941083814294 0 0.00018945036144432751 0.0023213874287297299 0 -0.0019079150406650155 0.00090053218446750226 0 -0.0017196557933328457 0.0047411930999567264 0 -0.00082783062661450344 0.003742436241713823 0 -0.0021151398649834115 0.0050941365304557696 0 0.00018945036144432751 0.0023213874287297299 0 -0.0018608215077169778 0.0029896534870582328 0 0.00018945036144432751 0.0023213874287297299 0 -0.0018608215077169778 0.0029896534870582328 0 -0.0019079150406650155 0.00090053218446750226 0 0.00023436125684994782 0.0046976365252453332 0 0.00018945036144432751 0.0023213874287297299 0 0.0023321567940337981 0.0023479240100141322 0 0.00018945036144432751 0.0023213874287297299 0 0.0023321567940337981 0.0023479240100141322 0 0.0020370453502958708 0.00026908024035842516 0 0.002390633452239548 0.0046709839287545967 0 0.0022253606412446819 0.002390687605532819 0 0.004904181281611855 0.0027749773721093703 0 0.0022253606412446819 0.002390687605532819 0 0.004904181281611855 0.0027749773721093703 0 0.0043481326382066709 3.0299790728972465e-05 0 0.0057875926442796802 0.00024112695365259559 0 0.004904181281611855 0.0027749773721093703 0 0.0043481326382066709 3.0299790728972465e-05 0 0.0023321567940337981 0.0023479240100141322 0 0.0054738575367304695 -0.00097562401274720306 0 0.0020370453502958708 0.00026908024035842516 0 0.0030244476610189956 -0.0017535064283345538 0 0.0054738575367304695 -0.00097562401274720306 0 0.0020370453502958708 0.00026908024035842516 0 0.0020937768300043598 0.0015762259162376148 0 0.0038602771223395535 -0.0014456313685110326 0 0.0030244476610189956 -0.0017535064283345538 0 0.001452389660259462 -0.001132994127537702 0 0.0020370453502958708 0.00026908024035842516 0 -0.003461157820603254 0.0075038033272841241 0 -0.0040290010392896669 0.0078500216182785208 0 -0.0036064003313894706 0.0084447441689009407 0 -0.003461157820603254 0.0075038033272841241 0 -0.0040611157515615046 0.0068595984462050535 0 -0.0040290010392896669 0.0078500216182785208 0 -0.003461157820603254 0.0075038033272841241 0 -0.0030248792682555483 0.0079949928066193991 0 -0.0036064003313894706 0.0084447441689009407 0 -0.0027204238441665895 0.0073118572289619758 0 -0.0024257486957571196 0.0082737095710778471 0 -0.0020578198064481398 0.0077167134090682828 0 -0.0030248792682555483 0.0079949928066193991 0 -0.0027204238441665895 0.0073118572289619758 0 -0.0024257486957571196 0.0082737095710778471 0 -0.003461157820603254 0.0075038033272841241 0 -0.0030248792682555483 0.0079949928066193991 0 -0.0027204238441665895 0.0073118572289619758 0 -0.0030918581631373711 0.0063172854297404947 0 -0.0027204238441665895 0.0073118572289619758 0 -0.0020475029399541164 0.0065337928329505055 0 -0.0027204238441665895 0.0073118572289619758 0 -0.0020475029399541164 0.0065337928329505055 0 -0.0020578198064481398 0.0077167134090682828 0 -0.0030918581631373711 0.0063172854297404947 0 -0.0027204238441665895 0.0073118572289619758 0 -0.0034507172673962881 0.0068867333713891303 0 -0.0030918581631373711 0.0063172854297404947 0 -0.0038078959212304148 0.0062233479398286252 0 -0.0034507172673962881 0.0068867333713891303 0 -0.003461157820603254 0.0075038033272841241 0 -0.0027204238441665895 0.0073118572289619758 0 -0.0034507172673962881 0.0068867333713891303 0 -0.003461157820603254 0.0075038033272841241 0 -0.0034507172673962881 0.0068867333713891303 0 -0.0040611157515615046 0.0068595984462050535 0 -0.0038078959212304148 0.0062233479398286252 0 -0.0043008417735828147 0.0063410777804668427 0 -0.0040611157515615046 0.0068595984462050535 0 -0.0038078959212304148 0.0062233479398286252 0 -0.0034507172673962881 0.0068867333713891303 0 -0.0040611157515615046 0.0068595984462050535 0 -0.0043008417735828147 0.0063410777804668427 0 -0.0040611157515615046 0.0068595984462050535 0 -0.0048753391969187107 0.0063472084612891961 0 -0.0040611157515615046 0.0068595984462050535 0 -0.0048753391969187107 0.0063472084612891961 0 -0.0046546768299288244 0.0075169472154664021 0 -0.0039708929236314952 0.0047502277422936268 0 -0.0034758662409400307 0.0040539382009150563 0 -0.0048753391969187107 0.0063472084612891961 0 -0.0058435998041884612 0.0074920112308952949 0 -0.0046546768299288244 0.0075169472154664021 0 -0.0018608215077169778 0.0029896534870582328 0 -0.0035352521436878589 0.0035991689178120254 0 -0.0019079150406650155 0.00090053218446750226 0 -0.0021151398649834115 0.0050941365304557696 0 -0.0018608215077169778 0.0029896534870582328 0 -0.0035352521436878589 0.0035991689178120254 0 -0.0058435998041884612 0.0074920112308952949 0 -0.0046546768299288244 0.0075169472154664021 0 -0.0052529821429853144 0.0081622315269967143 0 -0.0058968541420821932 0.0084005967013248851 0 -0.0058435998041884612 0.0074920112308952949 0 -0.0052529821429853144 0.0081622315269967143 0 -0.0040290010392896669 0.0078500216182785208 0 -0.0046546768299288244 0.0075169472154664021 0 -0.0045798816207932424 0.0085917400556860066 0 -0.0040611157515615046 0.0068595984462050535 0 -0.0040290010392896669 0.0078500216182785208 0 -0.0046546768299288244 0.0075169472154664021 0 -0.0046546768299288244 0.0075169472154664021 0 -0.0045798816207932424 0.0085917400556860066 0 -0.0052529821429853144 0.0081622315269967143 0 -0.0040290010392896669 0.0078500216182785208 0 -0.0045798816207932424 0.0085917400556860066 0 -0.0036064003313894706 0.0084447441689009407 0 -0.0045798816207932424 0.0085917400556860066 0 -0.0039609088062978895 0.0092042563649669881 0 -0.0036064003313894706 0.0084447441689009407 0 -0.0045798816207932424 0.0085917400556860066 0 -0.0052529821429853144 0.0081622315269967143 0 -0.005569773360253185 0.0090480671696018204 0 -0.0058968541420821932 0.0084005967013248851 0 -0.0052529821429853144 0.0081622315269967143 0 -0.005569773360253185 0.0090480671696018204 0 -0.0045798816207932424 0.0085917400556860066 0 -0.005569773360253185 0.0090480671696018204 0 -0.0047357505553766374 0.0096198348938066874 0 -0.005569773360253185 0.0090480671696018204 0 -0.0047357505553766374 0.0096198348938066874 0 -0.0055593324884996905 0.0099751461572654687 0 -0.0047357505553766374 0.0096198348938066874 0 -0.0039609088062978895 0.0092042563649669881 0 -0.0036632405632097665 0.010120029803736663 0 -0.0045798816207932424 0.0085917400556860066 0 -0.0047357505553766374 0.0096198348938066874 0 -0.0039609088062978895 0.0092042563649669881 0 -0.0039609088062978895 0.0092042563649669881 0 -0.0030182898331791133 0.0093073118410462678 0 -0.0036632405632097665 0.010120029803736663 0 -0.0036064003313894706 0.0084447441689009407 0 -0.0029321631947846405 0.0085987084371027169 0 -0.0030182898331791133 0.0093073118410462678 0 -0.0039609088062978895 0.0092042563649669881 0 -0.0036064003313894706 0.0084447441689009407 0 -0.0030182898331791133 0.0093073118410462678 0 -0.0030248792682555483 0.0079949928066193991 0 -0.0036064003313894706 0.0084447441689009407 0 -0.0029321631947846405 0.0085987084371027169 0 -0.0024257486957571196 0.0082737095710778471 0 -0.002387785468103885 0.0088273555098186199 0 -0.0018370541844754326 0.0085305124845291031 0 -0.0024257486957571196 0.0082737095710778471 0 -0.0029321631947846405 0.0085987084371027169 0 -0.002387785468103885 0.0088273555098186199 0 -0.0030248792682555483 0.0079949928066193991 0 -0.0024257486957571196 0.0082737095710778471 0 -0.0029321631947846405 0.0085987084371027169 0 -0.0029321631947846405 0.0085987084371027169 0 -0.002387785468103885 0.0088273555098186199 0 -0.0030182898331791133 0.0093073118410462678 0 -0.0030182898331791133 0.0093073118410462678 0 -0.0022291666547781439 0.0097790166201578571 0 -0.0036632405632097665 0.010120029803736663 0 -0.0034024791965911057 0.0087654720527613073 0 -0.0039172144578930018 0.0086286605442347161 0 -0.0022588804880803921 0.014483829083490838 0 -0.0018403413467028256 0.015560607675880272 0 -0.0030182898331791133 0.0093073118410462678 0 -0.0022291666547781439 0.0097790166201578571 0 -0.0015122014561583309 0.00943171874591835 0 -0.002387785468103885 0.0088273555098186199 0 -0.0030182898331791133 0.0093073118410462678 0 -0.0018076396470975487 0.0093328471397291553 0 -0.0022291666547781439 0.0097790166201578571 0 -0.002227792587244661 0.010361443581367121 0 -0.0034203384757686868 0.010315555713010134 0 -0.0022291666547781439 0.0097790166201578571 0 -0.002227792587244661 0.010361443581367121 0 -0.0015805546449582776 0.010145809787753412 0 -0.002227792587244661 0.010361443581367121 0 -0.0024408551958871329 0.010868304600425059 0 -0.0034203384757686868 0.010315555713010134 0 -0.002227792587244661 0.010361443581367121 0 -0.0024408551958871329 0.010868304600425059 0 -0.0013595240285637529 0.010722262423362985 0 -0.0024408551958871329 0.010868304600425059 0 -0.0030711585830781409 0.010990721794570613 0 -0.0026580068258006016 0.01134315664929241 0 -0.0034203384757686868 0.010315555713010134 0 -0.0030711585830781409 0.010990721794570613 0 -0.0035754375933377469 0.011541709463238809 0 -0.0024408551958871329 0.010868304600425059 0 -0.0034203384757686868 0.010315555713010134 0 -0.0030711585830781409 0.010990721794570613 0 -0.0030711585830781409 0.010990721794570613 0 -0.0035754375933377469 0.011541709463238809 0 -0.0026580068258006016 0.01134315664929241 0 -0.0035754375933377469 0.011541709463238809 0 -0.0023916282416801054 0.012122108587660912 0 -0.0030245773195184747 0.012089161155737771 0 -0.0029535449308977636 0.012391299020739531 0 -0.0023777117674667427 0.012727188486447006 0 -0.0035754375933377469 0.011541709463238809 0 -0.0040745530588008338 0.012259546950844984 0 -0.0030245773195184747 0.012089161155737771 0 -0.0035754375933377469 0.011541709463238809 0 -0.0022213904045896718 0.011945480258551326 0 -0.0026580068258006016 0.01134315664929241 0 -0.0024408551958871329 0.010868304600425059 0 -0.0026580068258006016 0.01134315664929241 0 -0.0019523379832967209 0.011361992044504728 0 -0.0022213904045896718 0.011945480258551326 0 -0.0026580068258006016 0.01134315664929241 0 -0.0019523379832967209 0.011361992044504728 0 -0.002510974346480573 0.004690320042585976 0 -0.0044235388684145671 0.0077151732991028628 0 -0.0061555161165956955 0.010930196357880747 0 -0.0055593324884996905 0.0099751461572654687 0 -0.0049138754499716709 0.010507619464642258 0 -0.0058400912901846232 0.01118439613729175 0 -0.0046247996380156114 0.010761242093150943 0 -0.0052167665740419497 0.011345338035480913 0 -0.0047357505553766374 0.0096198348938066874 0 -0.0055593324884996905 0.0099751461572654687 0 -0.0049138754499716709 0.010507619464642258 0 -0.0047357505553766374 0.0096198348938066874 0 -0.0036632405632097665 0.010120029803736663 0 -0.0049138754499716709 0.010507619464642258 0 -0.0039172144578930018 0.0086286605442347161 0 -0.0044235388684145671 0.0077151732991028628 0 -0.0034203384757686868 0.010315555713010134 0 -0.0035754375933377469 0.011541709463238809 0 -0.0046247996380156114 0.010761242093150943 0 -0.0035754375933377469 0.011541709463238809 0 -0.0046993646274152059 0.011594066307641138 0 -0.0040745530588008338 0.012259546950844984 0 -0.0035754375933377469 0.011541709463238809 0 -0.0046247996380156114 0.010761242093150943 0 -0.0046993646274152059 0.011594066307641138 0 -0.0057019950992294385 0.011842242765404298 0 -0.0046993646274152059 0.011594066307641138 0 -0.0040745530588008338 0.012259546950844984 0 -0.0057019950992294385 0.011842242765404298 0 -0.0046993646274152059 0.011594066307641138 0 -0.0052167665740419497 0.011345338035480913 0 -0.0046247996380156114 0.010761242093150943 0 -0.0046993646274152059 0.011594066307641138 0 -0.0052167665740419497 0.011345338035480913 0 -0.0026888208040372914 0.012461140896188275 0 -0.00262403908616087 0.012538461607407358 0 -0.0026490695455136729 0.012616507470382699 0 -0.0026888208040372914 0.012461140896188275 0 -0.00262403908616087 0.012538461607407358 0 -0.0025439622232003279 0.012530325954940033 0 -0.0029439104885012235 0.0051543522109898281 0 -0.0026588018304220199 0.0089738721392151541 0 -0.00262403908616087 0.012538461607407358 0 -0.0025439622232003279 0.012530325954940033 0 -0.0025704714805596094 0.012599203625009631 0 -0.0025439622232003279 0.012530325954940033 0 -0.0025704714805596094 0.012599203625009631 0 -0.0025074314883009857 0.012621164795923992 0 -0.0025704714805596094 0.012599203625009631 0 -0.0025074314883009857 0.012621164795923992 0 -0.0025410538335074347 0.012692519512270265 0 -0.0025704714805596094 0.012599203625009631 0 -0.0026490695455136729 0.012616507470382699 0 -0.0025410538335074347 0.012692519512270265 0 -0.00262403908616087 0.012538461607407358 0 -0.0025704714805596094 0.012599203625009631 0 -0.0026490695455136729 0.012616507470382699 0 -0.0025008077585735602 0.012569689216700894 0 -0.002258806482317164 0.01252468872636125 0 -0.0023158310360615569 0.012680967356406836 0 -0.0023916282416801054 0.012122108587660912 0 -0.0025008077585735602 0.012569689216700894 0 -0.002258806482317164 0.01252468872636125 0 -0.0023916282416801054 0.012122108587660912 0 -0.0025008077585735602 0.012569689216700894 0 -0.0030245773195184747 0.012089161155737771 0 -0.0040745530588008338 0.012259546950844984 0 -0.0025008077585735602 0.012569689216700894 0 -0.0030245773195184747 0.012089161155737771 0 -0.0026588018304220199 0.0089738721392151541 0 -0.0024018586612892792 0.010028570479475351 0 -0.0025439622232003279 0.012530325954940033 0 -0.0025008077585735602 0.012569689216700894 0 -0.0025074314883009857 0.012621164795923992 0 -0.0025008077585735602 0.012569689216700894 0 -0.0025074314883009857 0.012621164795923992 0 -0.0024419967459830606 0.012660344806804705 0 -0.0025074314883009857 0.012621164795923992 0 -0.0024419967459830606 0.012660344806804705 0 -0.0024463803259311169 0.012726385534538224 0 -0.0025008077585735602 0.012569689216700894 0 -0.0024419967459830606 0.012660344806804705 0 -0.0023158310360615569 0.012680967356406836 0 -0.0024419967459830606 0.012660344806804705 0 -0.0023542199749795813 0.012720846686085339 0 -0.0023158310360615569 0.012680967356406836 0 -0.0023542199749795813 0.012720846686085339 0 -0.0024463803259311169 0.012726385534538224 0 -0.0023434521813772329 0.012783388309399974 0 -0.0024419967459830606 0.012660344806804705 0 -0.0023542199749795813 0.012720846686085339 0 -0.0024463803259311169 0.012726385534538224 0 -0.0024463803259311169 0.012726385534538224 0 -0.002473192132176929 0.012773860618951917 0 -0.0025410538335074347 0.012692519512270265 0 -0.0025074314883009857 0.012621164795923992 0 -0.0024463803259311169 0.012726385534538224 0 -0.0025410538335074347 0.012692519512270265 0 -0.0024463803259311169 0.012726385534538224 0 -0.002473192132176929 0.012773860618951917 0 -0.0024207253137475291 0.012808072547484076 0 -0.002473192132176929 0.012773860618951917 0 -0.0024207253137475291 0.012808072547484076 0 -0.0024845037642512754 0.012815422642117458 0 -0.0024207253137475291 0.012808072547484076 0 -0.0023434521813772329 0.012783388309399974 0 -0.0023561131310182505 0.012875255852852723 0 -0.0024463803259311169 0.012726385534538224 0 -0.0024207253137475291 0.012808072547484076 0 -0.0023434521813772329 0.012783388309399974 0 -0.0024207253137475291 0.012808072547484076 0 -0.0023561131310182505 0.012875255852852723 0 -0.0024367166886864675 0.012858152831945193 0 -0.0024207253137475291 0.012808072547484076 0 -0.0024367166886864675 0.012858152831945193 0 -0.0024845037642512754 0.012815422642117458 0 -0.0024367166886864675 0.012858152831945193 0 -0.0024775157385430705 0.012869118194663283 0 -0.0024845037642512754 0.012815422642117458 0 -0.0024367166886864675 0.012858152831945193 0 -0.0024418883145644996 0.012909649270782159 0 -0.0024775157385430705 0.012869118194663283 0 -0.0024418883145644996 0.012909649270782159 0 -0.0024790290681220833 0.012896322936137529 0 -0.0024775157385430705 0.012869118194663283 0 0.0042425528151388506 0.030512439412829231 0 0.0054898361479050256 0.029299132207178856 0 0.0039019522616751102 0.029337628934219016 0 -0.0023561131310182505 0.012875255852852723 0 -0.0024367166886864675 0.012858152831945193 0 -0.0024418883145644996 0.012909649270782159 0 -0.00013480445609407121 0.020094889479552628 0 -0.00039076612470715299 0.017030971988326621 0 0.00064806236970030447 -0.0097693857268770709 0 0.00060059975252186324 -0.0097731976844743582 0 0.00063621134752970003 -0.0097090143712931631 0 0.00070512830606615231 -0.0097497179756282516 0 0.00068070641713905095 -0.0097934619825804561 0 0.00072819623269200289 -0.0098148022122661153 0 0.00064806236970030447 -0.0097693857268770709 0 0.00070512830606615231 -0.0097497179756282516 0 0.00068070641713905095 -0.0097934619825804561 0 0.00064806236970030447 -0.0097693857268770709 0 0.00063621134752970003 -0.0097090143712931631 0 0.00070512830606615231 -0.0097497179756282516 0 0.00068070641713905095 -0.0097934619825804561 0 0.00072819623269200289 -0.0098148022122661153 0 0.0006901360833692613 -0.0098221178077234697 0 0.00064806236970030447 -0.0097693857268770709 0 0.00060059975252186324 -0.0097731976844743582 0 0.00064333462343220437 -0.0097986249939997164 0 0.00068070641713905095 -0.0097934619825804561 0 0.00064333462343220437 -0.0097986249939997164 0 0.0006901360833692613 -0.0098221178077234697 0 0.00064806236970030447 -0.0097693857268770709 0 0.00068070641713905095 -0.0097934619825804561 0 0.00064333462343220437 -0.0097986249939997164 0 -0.0025220866444206928 0.012868912026680822 0 -0.0024790290681220833 0.012896322936137529 0 -0.0024775157385430705 0.012869118194663283 0 -0.0025220866444206928 0.012868912026680822 0 -0.0024775157385430705 0.012869118194663283 0 -0.0025074408346053441 0.012837167489075424 0 -0.0024775157385430705 0.012869118194663283 0 -0.0025074408346053441 0.012837167489075424 0 -0.0024845037642512754 0.012815422642117458 0 -0.0025220866444206928 0.012868912026680822 0 -0.0025074408346053441 0.012837167489075424 0 -0.0025326225514284493 0.012804410024178441 0 -0.0025074408346053441 0.012837167489075424 0 -0.0024845037642512754 0.012815422642117458 0 -0.0025326225514284493 0.012804410024178441 0 -0.0025220866444206928 0.012868912026680822 0 -0.0025326225514284493 0.012804410024178441 0 -0.0025937006420850002 0.012754616921972621 0 -0.00032795945746265723 0.0023829081319982916 0 -0.0011407082598062254 0.0019320436931106301 0 0.00063621134752970003 -0.0097090143712931631 0 0.0005649641924715896 -0.0093361480495450268 0 0.00076443447322448513 -0.0093578322284451256 0 0.00069091002606462516 -0.0095705422274753142 0 0.00078720452540695504 -0.0094327479366750327 0 0.00060059975252186324 -0.0097731976844743582 0 0.00063621134752970003 -0.0097090143712931631 0 0.0005649641924715896 -0.0093361480495450268 0 0.00063621134752970003 -0.0097090143712931631 0 0.00070512830606615231 -0.0097497179756282516 0 0.00074345333553155137 -0.0095621702686806767 0 -0.002473192132176929 0.012773860618951917 0 -0.0025270599580955017 0.012766671411661159 0 -0.0025410538335074347 0.012692519512270265 0 -0.0025937006420850002 0.012754616921972621 0 -0.0025270599580955017 0.012766671411661159 0 -0.0025410538335074347 0.012692519512270265 0 -0.0024845037642512754 0.012815422642117458 0 -0.0025326225514284493 0.012804410024178441 0 -0.0025270599580955017 0.012766671411661159 0 -0.002473192132176929 0.012773860618951917 0 -0.0024845037642512754 0.012815422642117458 0 -0.0025270599580955017 0.012766671411661159 0 -0.0025326225514284493 0.012804410024178441 0 -0.0025937006420850002 0.012754616921972621 0 -0.0025270599580955017 0.012766671411661159 0 0.00059661648351380376 -0.0089460720262966188 0 0.0005649641924715896 -0.0093361480495450268 0 0.00075333905048461909 -0.0091404813334062477 0 -0.0018891871116643564 0.0024411037308714779 0 -0.0011407082598062254 0.0019320436931106301 0 -0.0026490695455136729 0.012616507470382699 0 -0.0025937006420850002 0.012754616921972621 0 -0.0025410538335074347 0.012692519512270265 0 0.00075333905048461909 -0.0091404813334062477 0 0.00095715695915986245 -0.0090903672371791724 0 0.00076443447322448513 -0.0093578322284451256 0 0.00098220088402124002 -0.0091702023721925308 0 0.00078720452540695504 -0.0094327479366750327 0 0.00095942389881953285 -0.0092346788125243322 0 0.00094460140926712615 -0.0095277317021569604 0 0.0011893531309723831 -0.0094735811179778393 0 0.00094460140926712615 -0.0095277317021569604 0 0.0011893531309723831 -0.0094735811179778393 0 0.001005320636789607 -0.009664544851574558 0 0.00095942389881953285 -0.0092346788125243322 0 0.00094460140926712615 -0.0095277317021569604 0 0.00074345333553155137 -0.0095621702686806767 0 0.0005649641924715896 -0.0093361480495450268 0 0.00075333905048461909 -0.0091404813334062477 0 0.00076443447322448513 -0.0093578322284451256 0 0.00094460140926712615 -0.0095277317021569604 0 0.00074345333553155137 -0.0095621702686806767 0 0.00085064534594055596 -0.0096655491845762456 0 0.0017552488727565043 -0.0091278726041301664 0 0.0013741146448982013 -0.0091886291941231605 0 0.0015451354308097214 -0.0094506165087540062 0 0.0013741146448982013 -0.0091886291941231605 0 0.0015451354308097214 -0.0094506165087540062 0 0.0011893531309723831 -0.0094735811179778393 0 0.0013741146448982013 -0.0091886291941231605 0 0.00095942389881953285 -0.0092346788125243322 0 0.0011893531309723831 -0.0094735811179778393 0 0.0011893531309723831 -0.0094735811179778393 0 0.001331212690033104 -0.0097193043611841709 0 0.001005320636789607 -0.009664544851574558 0 0.0015451354308097214 -0.0094506165087540062 0 0.001331212690033104 -0.0097193043611841709 0 0.0016364417572093139 -0.0096996737145744628 0 0.0015451354308097214 -0.0094506165087540062 0 0.0011893531309723831 -0.0094735811179778393 0 0.001331212690033104 -0.0097193043611841709 0 0.001331212690033104 -0.0097193043611841709 0 0.0016364417572093139 -0.0096996737145744628 0 0.0016066557806633617 -0.010010226213482389 0 0.001331212690033104 -0.0097193043611841709 0 0.0010345042577229 -0.0098173507468283985 0 0.001005320636789607 -0.009664544851574558 0 0.0012051847355635651 -0.0099905779211960227 0 0.0010345042577229 -0.0098173507468283985 0 0.00084013312555912989 -0.0099334939463192329 0 0.0012051847355635651 -0.0099905779211960227 0 0.00084013312555912989 -0.0099334939463192329 0 0.00088836736009188354 -0.010250725336542272 0 0.001331212690033104 -0.0097193043611841709 0 0.0012051847355635651 -0.0099905779211960227 0 0.0010345042577229 -0.0098173507468283985 0 0.001331212690033104 -0.0097193043611841709 0 0.0012051847355635651 -0.0099905779211960227 0 0.0016066557806633617 -0.010010226213482389 0 0.00070512830606615231 -0.0097497179756282516 0 0.00074345333553155137 -0.0095621702686806767 0 0.00077193467437708743 -0.009746911056324345 0 0.00074345333553155137 -0.0095621702686806767 0 0.00077193467437708743 -0.009746911056324345 0 0.00085064534594055596 -0.0096655491845762456 0 0.00077193467437708743 -0.009746911056324345 0 0.00085064534594055596 -0.0096655491845762456 0 0.00084689654800815695 -0.0098049959712632681 0 0.00094460140926712615 -0.0095277317021569604 0 0.00085064534594055596 -0.0096655491845762456 0 0.001005320636789607 -0.009664544851574558 0 0.0010345042577229 -0.0098173507468283985 0 0.001005320636789607 -0.009664544851574558 0 0.00084689654800815695 -0.0098049959712632681 0 0.00085064534594055596 -0.0096655491845762456 0 0.001005320636789607 -0.009664544851574558 0 0.00084689654800815695 -0.0098049959712632681 0 0.00084689654800815695 -0.0098049959712632681 0 0.00084013312555912989 -0.0099334939463192329 0 0.00078462373194235864 -0.0098452811077522438 0 0.0010345042577229 -0.0098173507468283985 0 0.00084689654800815695 -0.0098049959712632681 0 0.00084013312555912989 -0.0099334939463192329 0 0.00084013312555912989 -0.0099334939463192329 0 0.00078462373194235864 -0.0098452811077522438 0 0.00078752794293853086 -0.0098775689780742672 0 0.00078462373194235864 -0.0098452811077522438 0 0.00075412551782969028 -0.0098514059390537086 0 0.00078752794293853086 -0.0098775689780742672 0 0.00077193467437708743 -0.009746911056324345 0 0.00084689654800815695 -0.0098049959712632681 0 0.00078462373194235864 -0.0098452811077522438 0 0.00077193467437708743 -0.009746911056324345 0 0.00078462373194235864 -0.0098452811077522438 0 0.00072819623269200289 -0.0098148022122661153 0 0.00070512830606615231 -0.0097497179756282516 0 0.00077193467437708743 -0.009746911056324345 0 0.00072819623269200289 -0.0098148022122661153 0 0.00078462373194235864 -0.0098452811077522438 0 0.00072819623269200289 -0.0098148022122661153 0 0.00075412551782969028 -0.0098514059390537086 0 0.00072819623269200289 -0.0098148022122661153 0 0.00072345771908866735 -0.0098408015611453886 0 0.00075412551782969028 -0.0098514059390537086 0 0.00072345771908866735 -0.0098408015611453886 0 0.00075412551782969028 -0.0098514059390537086 0 0.00074510091574434879 -0.0098581236364180206 0 0.00072345771908866735 -0.0098408015611453886 0 0.00074510091574434879 -0.0098581236364180206 0 0.00071015100016821571 -0.0098437206894258951 0 0.00074510091574434879 -0.0098581236364180206 0 0.00076617222232816258 -0.0098657940862710378 0 0.00078752794293853086 -0.0098775689780742672 0 0.00075412551782969028 -0.0098514059390537086 0 0.00074510091574434879 -0.0098581236364180206 0 0.00078752794293853086 -0.0098775689780742672 0 0.00011550774012688383 -0.0085680181161106699 0 0.0001168801430200655 -0.0077354001856566957 0 0.00084013312555912989 -0.0099334939463192329 0 0.00088836736009188354 -0.010250725336542272 0 0.00068563581751887874 -0.01041743125409335 0 0.00084013312555912989 -0.0099334939463192329 0 0.00078752794293853086 -0.0098775689780742672 0 0.00077714329638068334 -0.0098687134534759229 0 5.3792743991805313e-05 -0.0079079459098087956 0 0.0001168801430200655 -0.0077354001856566957 0 0.00076617222232816258 -0.0098657940862710378 0 0.00078752794293853086 -0.0098775689780742672 0 0.00077714329638068334 -0.0098687134534759229 0 0.00088836736009188354 -0.010250725336542272 0 0.00061771577934936837 -0.010489063754951188 0 0.00069304946860724713 -0.010945709364237553 0 0.00061771577934936837 -0.010489063754951188 0 0.00069304946860724713 -0.010945709364237553 0 0.00057272735847650367 -0.011106396428212456 0 0.00059001801713199926 -0.0057364252240204713 0 0.001026772410846443 -0.0053489976020786936 0 0.00070153400492467088 -0.0050196333548041495 0 0.0001168801430200655 -0.0077354001856566957 0 0.0006800395941153793 -0.0075377205877174697 0 0.00075113230352228733 -0.0098655571872426732 0 0.00072204771815661878 -0.0098666839017335292 0 0.000718321929793261 -0.0098534651562179002 0 0.00070642254202750931 -0.0052794892515149938 0 0.0021821507498414089 -0.0014218644752942019 0 0.00074510091574434879 -0.0098581236364180206 0 0.00075113230352228733 -0.0098655571872426732 0 0.000718321929793261 -0.0098534651562179002 0 0.00076617222232816258 -0.0098657940862710378 0 0.00077714329638068334 -0.0098687134534759229 0 0.00075113230352228733 -0.0098655571872426732 0 0.0001168801430200655 -0.0077354001856566957 0 0.00070642254202750931 -0.0052794892515149938 0 0.00074510091574434879 -0.0098581236364180206 0 0.00076617222232816258 -0.0098657940862710378 0 0.00075113230352228733 -0.0098655571872426732 0 0.00099029000244326456 -0.010629094165093866 0 0.0012426402047351138 -0.010389606377097193 0 0.0012051847355635651 -0.0099905779211960227 0 0.0013068170858872167 -0.010357425537475132 0 0.0016066557806633617 -0.010010226213482389 0 0.00073065287655972469 -0.010992521676168852 0 0.00079521918848787267 -0.011086530140185423 0 0.00084258410735968566 -0.010781431060223964 0 0.0012051847355635651 -0.0099905779211960227 0 0.00088836736009188354 -0.010250725336542272 0 0.0013068170858872167 -0.010357425537475132 0 0.00069304946860724713 -0.010945709364237553 0 0.00073065287655972469 -0.010992521676168852 0 0.00075130505024562587 -0.011063201610134627 0 0.00088836736009188354 -0.010250725336542272 0 0.00069304946860724713 -0.010945709364237553 0 0.0013068170858872167 -0.010357425537475132 0 0.00083325348371665229 -0.010766334338416434 0 0.00099029000244326456 -0.010629094165093866 0 0.00073065287655972469 -0.010992521676168852 0 0.00075130505024562587 -0.011063201610134627 0 0.00079521918848787267 -0.011086530140185423 0 0.00079521918848787267 -0.011086530140185423 0 0.00083556351118465287 -0.011165677901017738 0 0.00090092859465139372 -0.011153470486035251 0 0.00075130505024562587 -0.011063201610134627 0 0.00083556351118465287 -0.011165677901017738 0 0.00075181013475954543 -0.01117111585073113 0 0.00075130505024562587 -0.011063201610134627 0 0.00079521918848787267 -0.011086530140185423 0 0.00083556351118465287 -0.011165677901017738 0 0.00075130505024562587 -0.011063201610134627 0 0.00075181013475954543 -0.01117111585073113 0 0.00070264858520851159 -0.011102833984603875 0 0.00069304946860724713 -0.010945709364237553 0 0.00075130505024562587 -0.011063201610134627 0 0.00070264858520851159 -0.011102833984603875 0 0.00075181013475954543 -0.01117111585073113 0 0.00070264858520851159 -0.011102833984603875 0 0.00067256443408769228 -0.011182018599449482 0 0.00075181013475954543 -0.01117111585073113 0 0.0007293552496548466 -0.011249081261996779 0 0.00081359417179399348 -0.011244197995994566 0 0.00075181013475954543 -0.01117111585073113 0 0.0007293552496548466 -0.011249081261996779 0 0.00067256443408769228 -0.011182018599449482 0 0.00083556351118465287 -0.011165677901017738 0 0.00081359417179399348 -0.011244197995994566 0 0.00086849267829495049 -0.011239007817513219 0 0.00083556351118465287 -0.011165677901017738 0 0.00075181013475954543 -0.01117111585073113 0 0.00081359417179399348 -0.011244197995994566 0 0.00099878908858479589 -0.0049109887589942579 0 0.00070153400492467088 -0.0050196333548041495 0 0.00081074327963663215 -0.004315970361641391 0 0.0013673489467107937 -0.0064052345542445375 0 0.0021821507498414089 -0.0014218644752942019 0 0.00099878908858479589 -0.0049109887589942579 0 0.00081074327963663215 -0.004315970361641391 0 0.0014565105232326981 -0.0049636726216784246 0 0.001026772410846443 -0.0053489976020786936 0 0.00099878908858479589 -0.0049109887589942579 0 0.0014565105232326981 -0.0049636726216784246 0 0.001026772410846443 -0.0053489976020786936 0 0.00099878908858479589 -0.0049109887589942579 0 0.00070153400492467088 -0.0050196333548041495 0 0.0006800395941153793 -0.0075377205877174697 0 0.0013673489467107937 -0.0064052345542445375 0 0.00057272735847650367 -0.011106396428212456 0 0.00067256443408769228 -0.011182018599449482 0 0.00059388537882688907 -0.011220526428039328 0 0.00069304946860724713 -0.010945709364237553 0 0.00057272735847650367 -0.011106396428212456 0 0.00070264858520851159 -0.011102833984603875 0 0.00057272735847650367 -0.011106396428212456 0 0.00070264858520851159 -0.011102833984603875 0 0.00067256443408769228 -0.011182018599449482 0 0.0007293552496548466 -0.011249081261996779 0 0.00067256443408769228 -0.011182018599449482 0 0.00059388537882688907 -0.011220526428039328 0 0.002033354882204466 -0.0030632779942674701 0 0.0025668154913000064 -0.0030641461618243944 0 0.0025416908019171855 -0.0035738339631016264 0 0.002033354882204466 -0.0030632779942674701 0 0.0025668154913000064 -0.0030641461618243944 0 0.0023120541652525257 -0.0027861238890140136 0 0.0025668154913000064 -0.0030641461618243944 0 0.0025416908019171855 -0.0035738339631016264 0 0.0028912835126937257 -0.0032695970063016549 0 0.0025668154913000064 -0.0030641461618243944 0 0.0028899819040414053 -0.0029321114312932262 0 0.002697466855032948 -0.0027241868728864558 0 0.0025668154913000064 -0.0030641461618243944 0 0.0028912835126937257 -0.0032695970063016549 0 0.0028899819040414053 -0.0029321114312932262 0 0.0021821507498414089 -0.0014218644752942019 0 0.0024230867702997733 1.5910536834628673e-05 0 0.0028427076258417698 0.0018819012721099462 0 0.0027624329539628041 0.0019125659586205291 0 0.0027580860489061399 0.0018076947480934582 0 0.0039227267840497597 0.0068831150125885738 0 0.0027818260095571925 0.0066767333151270779 0 0.004298639863397619 0.0086545264326335827 0 0.0027624329539628041 0.0019125659586205291 0 0.0026988252057836455 0.001859987391846488 0 0.0027216704782989155 0.0019942094929087813 0 0.0027624329539628041 0.0019125659586205291 0 0.0026988252057836455 0.001859987391846488 0 0.0027580860489061399 0.0018076947480934582 0 0.0024230867702997733 1.5910536834628673e-05 0 0.0026935142135294144 0.0017674965662736481 0 0.0026236000888204404 0.0045737599023951397 0 0.0026935142135294144 0.0017674965662736481 0 0.0026988252057836455 0.001859987391846488 0 0.0027580860489061399 0.0018076947480934582 0 0.0026764735800443923 0.0017306863255164367 0 0.0028912835126937257 -0.0032695970063016549 0 0.0028899819040414053 -0.0029321114312932262 0 0.0032498222260868271 -0.0029603455935933816 0 0.0035514115547282217 0.0050962841292600328 0 0.002840322614386341 0.0049502125790777994 0 0.0024916952496400785 0.0055319508004753925 0 0.0035514115547282217 0.0050962841292600328 0 0.0024916952496400785 0.0055319508004753925 0 0.0027818260095571925 0.0066767333151270779 0 0.0024916952496400785 0.0055319508004753925 0 0.0016042831407422136 0.0064002234119424515 0 0.0022097661962493234 0.0040967309101926945 0 0.0039227267840497597 0.0068831150125885738 0 0.0035514115547282217 0.0050962841292600328 0 0.0027818260095571925 0.0066767333151270779 0 0.002840322614386341 0.0049502125790777994 0 0.0024916952496400785 0.0055319508004753925 0 0.0022097661962493234 0.0040967309101926945 0 0.0024916952496400785 0.0055319508004753925 0 0.0016042831407422136 0.0064002234119424515 0 0.0027818260095571925 0.0066767333151270779 0 0.001873452134754776 0.0048729756581662384 0 0.0021590679808864595 0.0036946708416287473 0 0.0013593838683469024 0.0051310824891260378 0 0.0016042831407422136 0.0064002234119424515 0 0.0021893751797681968 0.0042223155657926861 0 0.00085745842363750243 0.0049603465181218024 0 0.0013593838683469024 0.0051310824891260378 0 0.00072001423855629792 0.0059955030837199469 0 0.0013593838683469024 0.0051310824891260378 0 0.00072001423855629792 0.0059955030837199469 0 0.0016042831407422136 0.0064002234119424515 0 0.00072001423855629792 0.0059955030837199469 0 0.0018931330582224691 0.0074192903299568269 0 -0.00045270756664321906 0.0062180564812002754 0 0.00072001423855629792 0.0059955030837199469 0 0.0016042831407422136 0.0064002234119424515 0 0.0018931330582224691 0.0074192903299568269 0 0.0041499032067751256 0.013548936124574872 0 0.002132209614814163 0.014407557731189589 0 0.0018931330582224691 0.0074192903299568269 0 0.0027818260095571925 0.0066767333151270779 0 0.004298639863397619 0.0086545264326335827 0 0.0016042831407422136 0.0064002234119424515 0 0.0018931330582224691 0.0074192903299568269 0 0.0027818260095571925 0.0066767333151270779 0 0.005056580090823124 0.027103047073444995 0 0.005677694466120169 0.028123038420239665 0 0.0066485447902918703 0.027888385580196198 0 0.0041499032067751256 0.013548936124574872 0 0.0023413509160136875 0.0075145346118586816 0 0.005056580090823124 0.027103047073444995 0 0.0045148146449623151 0.028283837307787957 0 0.0038589885878976592 0.0275271117728495 0 0.005056580090823124 0.027103047073444995 0 0.005677694466120169 0.028123038420239665 0 0.0045148146449623151 0.028283837307787957 0 0.0054898361479050256 0.029299132207178856 0 0.0045148146449623151 0.028283837307787957 0 0.0039019522616751102 0.029337628934219016 0 -0.00039076612470715299 0.017030971988326621 0 0.001821789452311892 0.0073522961429569001 0 0.0054898361479050256 0.029299132207178856 0 0.005677694466120169 0.028123038420239665 0 0.0045148146449623151 0.028283837307787957 0 0.0054898361479050256 0.029299132207178856 0 0.005677694466120169 0.028123038420239665 0 0.006683304462403959 0.028042450638083818 0 -0.0025220866444206928 0.012868912026680822 0 -0.0024790290681220833 0.012896322936137529 0 -0.0024745661757873214 0.012932446169476293 0 0.00060059975252186324 -0.0097731976844743582 0 0.00064333462343220437 -0.0097986249939997164 0 0.0006863283094783435 -0.0098303270107896398 0 -0.00032795945746265723 0.0023829081319982916 0 0.001821789452311892 0.0073522961429569001 0 -0.0024418883145644996 0.012909649270782159 0 -0.0024790290681220833 0.012896322936137529 0 -0.0024745661757873214 0.012932446169476293 0 0.00064333462343220437 -0.0097986249939997164 0 0.0006677575178755538 -0.009817058212845382 0 0.0006863283094783435 -0.0098303270107896398 0 0.00064333462343220437 -0.0097986249939997164 0 0.0006677575178755538 -0.009817058212845382 0 0.0006901360833692613 -0.0098221178077234697 0 0.0006677575178755538 -0.009817058212845382 0 0.0006901360833692613 -0.0098221178077234697 0 0.00069002786128879166 -0.0098295811265419909 0 0.00072345771908866735 -0.0098408015611453886 0 0.00069002786128879166 -0.0098295811265419909 0 0.00071015100016821571 -0.0098437206894258951 0 0.00072819623269200289 -0.0098148022122661153 0 0.00072345771908866735 -0.0098408015611453886 0 0.0006901360833692613 -0.0098221178077234697 0 0.00072345771908866735 -0.0098408015611453886 0 0.0006901360833692613 -0.0098221178077234697 0 0.00069002786128879166 -0.0098295811265419909 0 0.0006677575178755538 -0.009817058212845382 0 0.00068561344344574937 -0.0098308634563778838 0 0.0006863283094783435 -0.0098303270107896398 0 0.00069002786128879166 -0.0098295811265419909 0 0.00071015100016821571 -0.0098437206894258951 0 0.00068561344344574937 -0.0098308634563778838 0 0.0006677575178755538 -0.009817058212845382 0 0.00069002786128879166 -0.0098295811265419909 0 0.00068561344344574937 -0.0098308634563778838 0 0.00071015100016821571 -0.0098437206894258951 0 0.000698385107949642 -0.0098391517497572502 0 0.00068561344344574937 -0.0098308634563778838 0 0.000698385107949642 -0.0098391517497572502 0 0.00068561344344574937 -0.0098308634563778838 0 0.00069060975620300767 -0.0098325064755847204 0 0.0028427076258417698 0.0018819012721099462 0 0.0027624329539628041 0.0019125659586205291 0 0.0027349887596404047 0.0020009622996530049 0 0.00069060975620300767 -0.0098325064755847204 0 0.000718321929793261 -0.0098534651562179002 0 0.0006823812702760881 -0.0098286587867278848 0 0.0021821507498414089 -0.0014218644752942019 0 0.001928045372254683 0.0067463139186009699 0 0.000698385107949642 -0.0098391517497572502 0 0.00069060975620300767 -0.0098325064755847204 0 0.000718321929793261 -0.0098534651562179002 0 0.00072204771815661878 -0.0098666839017335292 0 0.000718321929793261 -0.0098534651562179002 0 0.0006823812702760881 -0.0098286587867278848 0 0.00074510091574434879 -0.0098581236364180206 0 0.00071015100016821571 -0.0098437206894258951 0 0.000718321929793261 -0.0098534651562179002 0 0.00071015100016821571 -0.0098437206894258951 0 0.000698385107949642 -0.0098391517497572502 0 0.000718321929793261 -0.0098534651562179002 0 0.0027624329539628041 0.0019125659586205291 0 0.0027216704782989155 0.0019942094929087813 0 0.0027349887596404047 0.0020009622996530049 0 0.005677694466120169 0.028123038420239665 0 0.006683304462403959 0.028042450638083818 0 0.0066485447902918703 0.027888385580196198 0 0.0026236000888204404 0.0045737599023951397 0 0.0023413509160136875 0.0075145346118586816 0 0.00068561344344574937 -0.0098308634563778838 0 0.00069060975620300767 -0.0098325064755847204 0 0.0006863283094783435 -0.0098303270107896398 0 0.001821789452311892 0.0073522961429569001 0 0.001928045372254683 0.0067463139186009699 0 0.0015399154709541864 0.006283079366994339 0 0.001928045372254683 0.0067463139186009699 0 0.00069060975620300767 -0.0098325064755847204 0 0.0006863283094783435 -0.0098303270107896398 0 0.00068741752949935263 -0.0098282895440995645 0 0.001821789452311892 0.0073522961429569001 0 0.0023413509160136875 0.0075145346118586816 0 0.0012806691394012372 0.0058878255017644548 0 0.00099220147812323399 0.0045530080605164225 0 0.0020614435597191023 0.0050985832908696099 0 0.0023413509160136875 0.0075145346118586816 0 0.001928045372254683 0.0067463139186009699 0 0.0035086728410438348 -0.010579447636633274 0 0.0036146062550799288 -0.011020712329057256 0 0.003254575307321662 -0.010962558492420957 0 0.003254575307321662 -0.010962558492420957 0 0.0028106851353001919 -0.01070703350654245 0 0.002857966906378284 -0.01135714313043497 0 0.0035086728410438348 -0.010579447636633274 0 0.003254575307321662 -0.010962558492420957 0 0.0028106851353001919 -0.01070703350654245 0 0.0036146062550799288 -0.011020712329057256 0 0.003254575307321662 -0.010962558492420957 0 0.0034691722103351065 -0.011435577656426631 0 0.0028302955217239887 -0.010391003798652435 0 0.0027940498111542855 -0.010139423870198939 0 0.0028106851353001919 -0.01070703350654245 0 0.0033097148589395038 -0.010293927253496831 0 0.002923567878862937 -0.010341027435504611 0 0.0028106851353001919 -0.01070703350654245 0 0.0026900485169218356 -0.0099719293147618321 0 0.0023352936332475351 -0.01048570375100376 0 0.0035086728410438348 -0.010579447636633274 0 0.0028106851353001919 -0.01070703350654245 0 0.0033097148589395038 -0.010293927253496831 0 0.0033097148589395038 -0.010293927253496831 0 0.0034562236936692952 -0.010071642753154133 0 0.0028623065917727101 -0.009950103852680886 0 0.0027940498111542855 -0.010139423870198939 0 0.0027281164116133559 -0.009712969087278563 0 0.0033097148589395038 -0.010293927253496831 0 0.002923567878862937 -0.010341027435504611 0 0.0028623065917727101 -0.009950103852680886 0 0.0026900485169218356 -0.0099719293147618321 0 0.0025741857292014645 -0.0094755700407055318 0 0.0022006271129199014 -0.0099725905930911941 0 0.0025741857292014645 -0.0094755700407055318 0 0.0021152387217630714 -0.0095049038495399717 0 0.0022006271129199014 -0.0099725905930911941 0 0.0022006271129199014 -0.0099725905930911941 0 0.0023352936332475351 -0.01048570375100376 0 0.0019741797970064079 -0.010629194381984716 0 0.0023352936332475351 -0.01048570375100376 0 0.0019741797970064079 -0.010629194381984716 0 0.0020385686651716362 -0.011386392704229252 0 0.0028106851353001919 -0.01070703350654245 0 0.0023352936332475351 -0.01048570375100376 0 0.0020385686651716362 -0.011386392704229252 0 0.0026900485169218356 -0.0099719293147618321 0 0.0022006271129199014 -0.0099725905930911941 0 0.0023352936332475351 -0.01048570375100376 0 0.0019741797970064079 -0.010629194381984716 0 0.0015463610176555762 -0.010718525980563552 0 0.001835917948245524 -0.011075054882369324 0 0.0015463610176555762 -0.010718525980563552 0 0.0011589244376698617 -0.010394055253933785 0 0.0011905302594329946 -0.010965005486796124 0 0.0016510658947565412 -0.010019448998184468 0 0.0014987733805746299 -0.010150098289706064 0 0.0015463610176555762 -0.010718525980563552 0 0.0018052762362422291 -0.0098467594627083526 0 0.0011589244376698617 -0.010394055253933785 0 0.0022006271129199014 -0.0099725905930911941 0 0.0019741797970064079 -0.010629194381984716 0 0.0018052762362422291 -0.0098467594627083526 0 0.0019741797970064079 -0.010629194381984716 0 0.0015463610176555762 -0.010718525980563552 0 0.0018052762362422291 -0.0098467594627083526 0 0.0021152387217630714 -0.0095049038495399717 0 0.0022006271129199014 -0.0099725905930911941 0 0.0018052762362422291 -0.0098467594627083526 0 0.0021152387217630714 -0.0095049038495399717 0 0.0019409330158366464 -0.0094790304390252132 0 0.0018052762362422291 -0.0098467594627083526 0 0.0019985443166456686 -0.0092461421880656817 0 0.0019409330158366464 -0.0094790304390252132 0 0.0018090103812858519 -0.0095708412409039878 0 0.0018052762362422291 -0.0098467594627083526 0 0.0018090103812858519 -0.0095708412409039878 0 0.0018037665609898917 -0.0097952524321651205 0 0.0019409330158366464 -0.0094790304390252132 0 0.0018052762362422291 -0.0098467594627083526 0 0.0018090103812858519 -0.0095708412409039878 0 0.0019985443166456686 -0.0092461421880656817 0 0.0017552488727565043 -0.0091278726041301664 0 0.0018090103812858519 -0.0095708412409039878 0 0.0017552488727565043 -0.0091278726041301664 0 0.0015451354308097214 -0.0094506165087540062 0 0.0018090103812858519 -0.0095708412409039878 0 0.0015451354308097214 -0.0094506165087540062 0 0.0018090103812858519 -0.0095708412409039878 0 0.0016364417572093139 -0.0096996737145744628 0 0.0016364417572093139 -0.0096996737145744628 0 0.0018037665609898917 -0.0097952524321651205 0 0.0016066557806633617 -0.010010226213482389 0 0.0018090103812858519 -0.0095708412409039878 0 0.0016364417572093139 -0.0096996737145744628 0 0.0018037665609898917 -0.0097952524321651205 0 0.0011589244376698617 -0.010394055253933785 0 0.00084258410735968566 -0.010781431060223964 0 0.0011905302594329946 -0.010965005486796124 0 0.0014987733805746299 -0.010150098289706064 0 0.0012426402047351138 -0.010389606377097193 0 0.00079521918848787267 -0.011086530140185423 0 0.00084258410735968566 -0.010781431060223964 0 0.00090092859465139372 -0.011153470486035251 0 0.00084258410735968566 -0.010781431060223964 0 0.0011905302594329946 -0.010965005486796124 0 0.00090092859465139372 -0.011153470486035251 0 0.0011905302594329946 -0.010965005486796124 0 0.00090092859465139372 -0.011153470486035251 0 0.0012560572479918123 -0.011365437315305066 0 6.1024356256601473e-05 -0.011891947183505476 0 -4.0827207961011829e-05 -0.012440997493727098 0 0.00083556351118465287 -0.011165677901017738 0 0.00090092859465139372 -0.011153470486035251 0 0.00089757861630278648 -0.011192067229961496 0 0.00083556351118465287 -0.011165677901017738 0 0.00089757861630278648 -0.011192067229961496 0 0.00086849267829495049 -0.011239007817513219 0 0.00089757861630278648 -0.011192067229961496 0 0.00086849267829495049 -0.011239007817513219 0 0.00093179119205386539 -0.011290258518315523 0 -4.0827207961011829e-05 -0.012440997493727098 0 -0.00021281530101432524 -0.014550468874750894 0 0.00096667637406148792 -0.011646319296485083 0 0.0012946048048577494 -0.011767587765367146 0 0.0010730255824342224 -0.012045528179557775 0 0.00052347202922656906 -0.013515519908817745 0 -0.00021281530101432524 -0.014550468874750894 0 0.0012946048048577494 -0.011767587765367146 0 0.0013397347141845192 -0.011988834628230168 0 0.0010813339491911481 -0.012027026473329818 0 0.00090092859465139372 -0.011153470486035251 0 0.00096667637406148792 -0.011646319296485083 0 0.0012560572479918123 -0.011365437315305066 0 0.00096667637406148792 -0.011646319296485083 0 0.0012560572479918123 -0.011365437315305066 0 0.0012946048048577494 -0.011767587765367146 0 0.0012560572479918123 -0.011365437315305066 0 0.0014784689667690178 -0.011554320276452236 0 0.0012946048048577494 -0.011767587765367146 0 0.0012946048048577494 -0.011767587765367146 0 0.0015749703864406971 -0.011907910631031051 0 0.0013397347141845192 -0.011988834628230168 0 0.0014784689667690178 -0.011554320276452236 0 0.0012946048048577494 -0.011767587765367146 0 0.0015749703864406971 -0.011907910631031051 0 0.0015749703864406971 -0.011907910631031051 0 0.0017628567683815181 -0.011558125535795204 0 0.0018712446639071573 -0.011822449337681257 0 0.0014784689667690178 -0.011554320276452236 0 0.0015749703864406971 -0.011907910631031051 0 0.0017628567683815181 -0.011558125535795204 0 0.0014784689667690178 -0.011554320276452236 0 0.0017628567683815181 -0.011558125535795204 0 0.0015704966550599575 -0.01124938451609103 0 0.0017628567683815181 -0.011558125535795204 0 0.0015704966550599575 -0.01124938451609103 0 0.0018955722280359845 -0.011350146463931024 0 0.0015704966550599575 -0.01124938451609103 0 0.001835917948245524 -0.011075054882369324 0 0.0018955722280359845 -0.011350146463931024 0 0.0011905302594329946 -0.010965005486796124 0 0.0012560572479918123 -0.011365437315305066 0 0.0015704966550599575 -0.01124938451609103 0 0.0012560572479918123 -0.011365437315305066 0 0.0014784689667690178 -0.011554320276452236 0 0.0015704966550599575 -0.01124938451609103 0 0.0015463610176555762 -0.010718525980563552 0 0.0011905302594329946 -0.010965005486796124 0 0.0015704966550599575 -0.01124938451609103 0 0.0015463610176555762 -0.010718525980563552 0 0.0015704966550599575 -0.01124938451609103 0 0.001835917948245524 -0.011075054882369324 0 0.0019741797970064079 -0.010629194381984716 0 0.001835917948245524 -0.011075054882369324 0 0.0020385686651716362 -0.011386392704229252 0 0.0015760362930426789 -0.01223588577151871 0 0.0014698162495615631 -0.012719920777300211 0 0.0020385686651716362 -0.011386392704229252 0 0.0018955722280359845 -0.011350146463931024 0 0.0020918472907720804 -0.01152446394024007 0 0.0020385686651716362 -0.011386392704229252 0 0.0011060753016682442 -0.0127845090193369 0 0.002506653272605804 -0.012069887095187607 0 0.001835917948245524 -0.011075054882369324 0 0.0020385686651716362 -0.011386392704229252 0 0.0018955722280359845 -0.011350146463931024 0 0.0017628567683815181 -0.011558125535795204 0 0.0018712446639071573 -0.011822449337681257 0 0.0020918472907720804 -0.01152446394024007 0 0.0017628567683815181 -0.011558125535795204 0 0.0018955722280359845 -0.011350146463931024 0 0.0020918472907720804 -0.01152446394024007 0 0.0018712446639071573 -0.011822449337681257 0 0.0021106194803361721 -0.011903546554520852 0 0.0020918472907720804 -0.01152446394024007 0 0.0012649312085020804 -0.013907583547582264 0 0.0014698162495615631 -0.012719920777300211 0 0.00010082907178241551 -0.014672694948806936 0 0.0011060753016682442 -0.0127845090193369 0 0.0014410232465327914 -0.014007871542749198 0 0.00010082907178241551 -0.014672694948806936 0 0.0014410232465327914 -0.014007871542749198 0 0.0013387279161770893 -0.015176045776147016 0 0.0011060753016682442 -0.0127845090193369 0 0.0024777517418186168 -0.01340167576992712 0 0.002506653272605804 -0.012069887095187607 0 0.0011060753016682442 -0.0127845090193369 0 0.0024777517418186168 -0.01340167576992712 0 0.0014410232465327914 -0.014007871542749198 0 0.0024777517418186168 -0.01340167576992712 0 0.0014410232465327914 -0.014007871542749198 0 0.0021753581171984637 -0.01432536936117134 0 0.0014410232465327914 -0.014007871542749198 0 0.0021753581171984637 -0.01432536936117134 0 0.0013387279161770893 -0.015176045776147016 0 0.0024777517418186168 -0.01340167576992712 0 0.0021753581171984637 -0.01432536936117134 0 0.0033629653324045222 -0.014748274540612803 0 0.0036642493016626515 -0.013467164730133685 0 0.0024777517418186168 -0.01340167576992712 0 0.0033629653324045222 -0.014748274540612803 0 0.0024777517418186168 -0.01340167576992712 0 0.0032657060862974273 -0.012523702288116664 0 0.002506653272605804 -0.012069887095187607 0 0.0036642493016626515 -0.013467164730133685 0 0.0024777517418186168 -0.01340167576992712 0 0.0032657060862974273 -0.012523702288116664 0 0.0037269944324555796 -0.012017445657552431 0 0.0032657060862974273 -0.012523702288116664 0 0.0031447022215315367 -0.011856801420328907 0 0.0037269944324555796 -0.012017445657552431 0 0.0031447022215315367 -0.011856801420328907 0 0.0034691722103351065 -0.011435577656426631 0 0.0032657060862974273 -0.012523702288116664 0 0.0031447022215315367 -0.011856801420328907 0 0.002506653272605804 -0.012069887095187607 0 0.0020385686651716362 -0.011386392704229252 0 0.002506653272605804 -0.012069887095187607 0 0.002857966906378284 -0.01135714313043497 0 0.0031447022215315367 -0.011856801420328907 0 0.002506653272605804 -0.012069887095187607 0 0.002857966906378284 -0.01135714313043497 0 0.0028106851353001919 -0.01070703350654245 0 0.0020385686651716362 -0.011386392704229252 0 0.002857966906378284 -0.01135714313043497 0 0.003254575307321662 -0.010962558492420957 0 0.002857966906378284 -0.01135714313043497 0 0.0034691722103351065 -0.011435577656426631 0 0.0031447022215315367 -0.011856801420328907 0 0.002857966906378284 -0.01135714313043497 0 0.0034691722103351065 -0.011435577656426631 0 0.0025318493970523052 -0.026931245175305894 0 0.0018640551913069777 -0.02667294330113652 0 0.0071442860805055967 -0.024485120004268439 0 0.0050121810611567811 -0.022941628982903629 0 0.00371714141034978 -0.02521787639145414 0 0.0050121810611567811 -0.022941628982903629 0 0.0032926161454170377 -0.022815878041114009 0 0.0042674559098646774 -0.021338669419138184 0 0.0071442860805055967 -0.024485120004268439 0 0.0050121810611567811 -0.022941628982903629 0 0.0060789842819945292 -0.022495746052174179 0 0.0050121810611567811 -0.022941628982903629 0 0.0032926161454170377 -0.022815878041114009 0 0.00371714141034978 -0.02521787639145414 0 0.002045225184759831 -0.023812446898932957 0 0.0032926161454170377 -0.022815878041114009 0 0.00371714141034978 -0.02521787639145414 0 0.002045225184759831 -0.023812446898932957 0 -0.0005028535423349809 -0.026043335137855173 0 0.00371714141034978 -0.02521787639145414 0 0.002045225184759831 -0.023812446898932957 0 0.000483817258277324 -0.023892388014812627 0 -0.0005028535423349809 -0.026043335137855173 0 0.000483817258277324 -0.023892388014812627 0 0.0017261203963458715 -0.022405920095644086 0 0.0006409194364320475 -0.022409294971878289 0 0.002045225184759831 -0.023812446898932957 0 0.000483817258277324 -0.023892388014812627 0 0.0017261203963458715 -0.022405920095644086 0 0.002045225184759831 -0.023812446898932957 0 0.0017261203963458715 -0.022405920095644086 0 0.0032926161454170377 -0.022815878041114009 0 0.0017261203963458715 -0.022405920095644086 0 0.0032926161454170377 -0.022815878041114009 0 0.0029160439733405129 -0.021380440854400311 0 0.0017261203963458715 -0.022405920095644086 0 0.0029160439733405129 -0.021380440854400311 0 0.0018613642080726859 -0.020492627248105619 0 0.0029160439733405129 -0.021380440854400311 0 0.00324623664824527 -0.019791441091197428 0 0.0042674559098646774 -0.021338669419138184 0 0.0017261203963458715 -0.022405920095644086 0 0.0018613642080726859 -0.020492627248105619 0 0.00056541404359457649 -0.021292431439835967 0 0.0017261203963458715 -0.022405920095644086 0 0.00056541404359457649 -0.021292431439835967 0 0.0006409194364320475 -0.022409294971878289 0 0.0018613642080726859 -0.020492627248105619 0 0.00324623664824527 -0.019791441091197428 0 0.0015577186950757034 -0.018407428287976479 0 0.0018613642080726859 -0.020492627248105619 0 0.00046028775144496244 -0.019800813348840464 0 0.00056541404359457649 -0.021292431439835967 0 0.0018613642080726859 -0.020492627248105619 0 0.0015577186950757034 -0.018407428287976479 0 0.00046028775144496244 -0.019800813348840464 0 0.0029160439733405129 -0.021380440854400311 0 0.0018613642080726859 -0.020492627248105619 0 0.00324623664824527 -0.019791441091197428 0 0.00324623664824527 -0.019791441091197428 0 0.0046904808092239191 -0.020110122635466677 0 0.0042674559098646774 -0.021338669419138184 0 0.0032926161454170377 -0.022815878041114009 0 0.0029160439733405129 -0.021380440854400311 0 0.0042674559098646774 -0.021338669419138184 0 0.0046904808092239191 -0.020110122635466677 0 0.0042674559098646774 -0.021338669419138184 0 0.0056160875555029193 -0.021231615638590308 0 0.0050121810611567811 -0.022941628982903629 0 0.0060789842819945292 -0.022495746052174179 0 0.0056160875555029193 -0.021231615638590308 0 0.0050121810611567811 -0.022941628982903629 0 0.0042674559098646774 -0.021338669419138184 0 0.0056160875555029193 -0.021231615638590308 0 0.0065454137579832195 -0.021326967423298576 0 0.0060789842819945292 -0.022495746052174179 0 0.0056160875555029193 -0.021231615638590308 0 0.0067783312743436531 -0.020815382069291833 0 0.0056160875555029193 -0.021231615638590308 0 0.005834907227700018 -0.019918629236604559 0 0.0046904808092239191 -0.020110122635466677 0 0.0056160875555029193 -0.021231615638590308 0 0.005834907227700018 -0.019918629236604559 0 0.0065908270148272831 -0.018927181454180212 0 0.005834907227700018 -0.019918629236604559 0 0.0046155316417409884 -0.018480997149177013 0 0.0046904808092239191 -0.020110122635466677 0 0.005834907227700018 -0.019918629236604559 0 0.0046155316417409884 -0.018480997149177013 0 0.00324623664824527 -0.019791441091197428 0 0.0046904808092239191 -0.020110122635466677 0 0.0046155316417409884 -0.018480997149177013 0 0.0043175972774432293 -0.01841210578028573 0 0.0043493393388494561 -0.017015200505718607 0 0.0030051476273088404 -0.016613992531423101 0 0.0056191134231447244 -0.017504914370189587 0 0.0043175972774432293 -0.01841210578028573 0 0.0043493393388494561 -0.017015200505718607 0 0.0056191134231447244 -0.017504914370189587 0 0.0043493393388494561 -0.017015200505718607 0 0.0048827642947312224 -0.015242068774033822 0 0.0043493393388494561 -0.017015200505718607 0 0.0048827642947312224 -0.015242068774033822 0 0.0030051476273088404 -0.016613992531423101 0 0.0038663526814964495 -0.018116071264986988 0 0.0027996753423775223 -0.017437827800881066 0 0.0048827642947312224 -0.015242068774033822 0 0.0013387279161770893 -0.015176045776147016 0 0.0030051476273088404 -0.016613992531423101 0 0.0021753581171984637 -0.01432536936117134 0 0.0033629653324045222 -0.014748274540612803 0 0.0013387279161770893 -0.015176045776147016 0 0.0013387279161770893 -0.015176045776147016 0 0.0030051476273088404 -0.016613992531423101 0 0.000883433039695559 -0.016619501408506012 0 0.00324623664824527 -0.019791441091197428 0 0.0046155316417409884 -0.018480997149177013 0 0.0015577186950757034 -0.018407428287976479 0 0.0040318378557136986 -0.0217866190742479 0 0.0033845318706324005 -0.021342981690291366 0 0.0030051476273088404 -0.016613992531423101 0 0.0015577186950757034 -0.018407428287976479 0 0.000883433039695559 -0.016619501408506012 0 0.0043175972774432293 -0.01841210578028573 0 0.0030051476273088404 -0.016613992531423101 0 0.0015577186950757034 -0.018407428287976479 0 0.0015577186950757034 -0.018407428287976479 0 -0.00095845648114653754 -0.018012941752711276 0 0.00046028775144496244 -0.019800813348840464 0 0.0015577186950757034 -0.018407428287976479 0 -0.00095845648114653754 -0.018012941752711276 0 0.000883433039695559 -0.016619501408506012 0 -0.00095845648114653754 -0.018012941752711276 0 -0.00041769879086867278 -0.020636270000311804 0 0.00046028775144496244 -0.019800813348840464 0 0.0021106194803361721 -0.011903546554520852 0 0.0021015840892142819 -0.012316406199245265 0 0.001945784811914223 -0.012076147381849561 0 0.00010082907178241551 -0.014672694948806936 0 -0.00095845648114653754 -0.018012941752711276 0 0.000883433039695559 -0.016619501408506012 0 0.0012649312085020804 -0.013907583547582264 0 0.0011027010849997796 -0.01575266889553633 0 0.00010082907178241551 -0.014672694948806936 0 0.0013387279161770893 -0.015176045776147016 0 0.000883433039695559 -0.016619501408506012 0 0.0018712446639071573 -0.011822449337681257 0 0.001945784811914223 -0.012076147381849561 0 0.0017871922981126259 -0.012067620731224193 0 0.0018712446639071573 -0.011822449337681257 0 0.0021106194803361721 -0.011903546554520852 0 0.001945784811914223 -0.012076147381849561 0 0.001945784811914223 -0.012076147381849561 0 0.0018619266918242473 -0.012282830936172167 0 0.0017871922981126259 -0.012067620731224193 0 0.0021015840892142819 -0.012316406199245265 0 0.001945784811914223 -0.012076147381849561 0 0.0018619266918242473 -0.012282830936172167 0 0.0021015840892142819 -0.012316406199245265 0 0.0018619266918242473 -0.012282830936172167 0 0.0019382936653354209 -0.012461999346224708 0 0.0018619266918242473 -0.012282830936172167 0 0.0019382936653354209 -0.012461999346224708 0 0.0017258936978507883 -0.012492043811690914 0 0.0021015840892142819 -0.012316406199245265 0 0.0019382936653354209 -0.012461999346224708 0 0.0020675210549384393 -0.012746897887812886 0 -0.0034956566143931837 -0.021785109925060667 0 -0.0028378048233487219 -0.021922150834549087 0 -0.003268330658335988 -0.022105574884106905 0 0.0011275379796412603 -0.018481319339848722 0 0.00016022706305943756 -0.017273487331967544 0 0.0019382936653354209 -0.012461999346224708 0 0.0020675210549384393 -0.012746897887812886 0 0.0017258936978507883 -0.012492043811690914 0 -0.00095845648114653754 -0.018012941752711276 0 -0.00041769879086867278 -0.020636270000311804 0 -0.0016685137179260952 -0.021900660850304361 0 0.0011027010849997796 -0.01575266889553633 0 0.0011275379796412603 -0.018481319339848722 0 -0.00041769879086867278 -0.020636270000311804 0 0.00046028775144496244 -0.019800813348840464 0 0.00056541404359457649 -0.021292431439835967 0 -0.00041769879086867278 -0.020636270000311804 0 0.00056541404359457649 -0.021292431439835967 0 -0.0001975454222248586 -0.02207648079721786 0 0.00056541404359457649 -0.021292431439835967 0 -0.0001975454222248586 -0.02207648079721786 0 0.0006409194364320475 -0.022409294971878289 0 -0.00041769879086867278 -0.020636270000311804 0 -0.0001975454222248586 -0.02207648079721786 0 -0.0016685137179260952 -0.021900660850304361 0 -0.002508894313808463 -0.022691117624327396 0 -0.0014900567497366619 -0.024396414771420821 0 -0.0025176682949622602 -0.025788238219151691 0 0.0011275379796412603 -0.018481319339848722 0 0.0010889515516189004 -0.018625469788581175 0 0.000483817258277324 -0.023892388014812627 0 -0.002433483984312518 -0.021856800954003365 0 -0.002508894313808463 -0.022691117624327396 0 0.000483817258277324 -0.023892388014812627 0 -0.002508894313808463 -0.022691117624327396 0 -0.0014900567497366619 -0.024396414771420821 0 0.000483817258277324 -0.023892388014812627 0 -0.0001975454222248586 -0.02207648079721786 0 0.0006409194364320475 -0.022409294971878289 0 0.0013159899747542316 -0.019353605352501219 0 0.0011275379796412603 -0.018481319339848722 0 0.000483817258277324 -0.023892388014812627 0 -0.0001975454222248586 -0.02207648079721786 0 -0.0016685137179260952 -0.021900660850304361 0 0.000483817258277324 -0.023892388014812627 0 -0.0014900567497366619 -0.024396414771420821 0 -0.0005028535423349809 -0.026043335137855173 0 -0.002577053436891243 -0.021937117469784707 0 -0.0022549987222427086 -0.022092876634555038 0 -0.0034956566143931837 -0.021785109925060667 0 -0.0029183525355323818 -0.020383195262169883 0 -0.0037029315245703321 -0.019585083330543599 0 -0.0034956566143931837 -0.021785109925060667 0 -0.002508894313808463 -0.022691117624327396 0 -0.0025176682949622602 -0.025788238219151691 0 -0.0034956566143931837 -0.021785109925060667 0 -0.0037029315245703321 -0.019585083330543599 0 -0.0049940870158534222 -0.019189845566174438 0 -0.0034956566143931837 -0.021785109925060667 0 -0.0028378048233487219 -0.021922150834549087 0 -0.002508894313808463 -0.022691117624327396 0 -0.0021000398533355317 -0.020783781214865762 0 -0.0029183525355323818 -0.020383195262169883 0 -0.0028916881018614701 -0.021523434808487292 0 -0.0034956566143931837 -0.021785109925060667 0 -0.0029183525355323818 -0.020383195262169883 0 -0.0028916881018614701 -0.021523434808487292 0 -0.0029183525355323818 -0.020383195262169883 0 -0.0022091322879489272 -0.019851301269873306 0 -0.0029735128598284252 -0.018848594602757455 0 -0.0021000398533355317 -0.020783781214865762 0 -0.0029183525355323818 -0.020383195262169883 0 -0.0022091322879489272 -0.019851301269873306 0 -0.0021000398533355317 -0.020783781214865762 0 -0.0022091322879489272 -0.019851301269873306 0 -0.0014877871082411805 -0.020151671016177007 0 -0.0022091322879489272 -0.019851301269873306 0 -0.0014877871082411805 -0.020151671016177007 0 -0.0015687882633999139 -0.018966733619525767 0 -0.0014877871082411805 -0.020151671016177007 0 -0.00032935572381235302 -0.020141461498904514 0 -0.0015687882633999139 -0.018966733619525767 0 -0.0014877871082411805 -0.020151671016177007 0 -0.0010852752913864973 -0.021080177104102659 0 -0.00032935572381235302 -0.020141461498904514 0 -0.0021000398533355317 -0.020783781214865762 0 -0.0014877871082411805 -0.020151671016177007 0 -0.0010852752913864973 -0.021080177104102659 0 -0.0021000398533355317 -0.020783781214865762 0 -0.0010852752913864973 -0.021080177104102659 0 -0.0016057204722521392 -0.021961152675155894 0 -0.0010852752913864973 -0.021080177104102659 0 -0.0016057204722521392 -0.021961152675155894 0 -5.3371807984071843e-06 -0.022377364903847816 0 -0.0016057204722521392 -0.021961152675155894 0 -0.0028916881018614701 -0.021523434808487292 0 -0.003268330658335988 -0.022105574884106905 0 -0.0021000398533355317 -0.020783781214865762 0 -0.0016057204722521392 -0.021961152675155894 0 -0.0028916881018614701 -0.021523434808487292 0 -0.0034956566143931837 -0.021785109925060667 0 -0.0028916881018614701 -0.021523434808487292 0 -0.003268330658335988 -0.022105574884106905 0 0.0018619266918242473 -0.012282830936172167 0 0.0017258936978507883 -0.012492043811690914 0 0.0016527126652347501 -0.012233735222449072 0 0.0017258936978507883 -0.012492043811690914 0 0.0016527126652347501 -0.012233735222449072 0 0.001409536060643152 -0.012254076178428745 0 0.00016022706305943756 -0.017273487331967544 0 0.00033060935125041682 -0.016534997993795496 0 0.0015749703864406971 -0.011907910631031051 0 0.0018712446639071573 -0.011822449337681257 0 0.0017871922981126259 -0.012067620731224193 0 0.0015749703864406971 -0.011907910631031051 0 0.0016527126652347501 -0.012233735222449072 0 0.0017871922981126259 -0.012067620731224193 0 0.0015749703864406971 -0.011907910631031051 0 0.0016527126652347501 -0.012233735222449072 0 0.001409536060643152 -0.012254076178428745 0 0.0018619266918242473 -0.012282830936172167 0 0.0016527126652347501 -0.012233735222449072 0 0.0017871922981126259 -0.012067620731224193 0 0.0015749703864406971 -0.011907910631031051 0 0.0013397347141845192 -0.011988834628230168 0 0.001409536060643152 -0.012254076178428745 0 0.0013397347141845192 -0.011988834628230168 0 0.001409536060643152 -0.012254076178428745 0 0.0010813339491911481 -0.012027026473329818 0 -0.0016057204722521392 -0.021961152675155894 0 -0.0013545853765450607 -0.023520293122954929 0 -5.3371807984071843e-06 -0.022377364903847816 0 -0.0016057204722521392 -0.021961152675155894 0 -0.003268330658335988 -0.022105574884106905 0 -0.0013545853765450607 -0.023520293122954929 0 -0.0013545853765450607 -0.023520293122954929 0 0.00038962242837839922 -0.024675902845893691 0 -5.3371807984071843e-06 -0.022377364903847816 0 -0.00082254059487322432 -0.01579279140912181 0 -0.0011007987820426278 -0.016143256881271585 0 -0.00072311409666270623 -0.016372318287752725 0 -0.00021281530101432524 -0.014550468874750894 0 -7.0034743940149136e-05 -0.018284545504757325 0 0.00033060935125041682 -0.016534997993795496 0 -0.00021281530101432524 -0.014550468874750894 0 0.00093179119205386539 -0.011290258518315523 0 0.00086327406093395962 -0.011298798513254755 0 0.00087579915215026984 -0.011366251225028656 0 -0.00021281530101432524 -0.014550468874750894 0 2.9236227815327444e-05 -0.013362002817742158 0 0.00081359417179399348 -0.011244197995994566 0 0.00086849267829495049 -0.011239007817513219 0 0.00086327406093395962 -0.011298798513254755 0 0.00086849267829495049 -0.011239007817513219 0 0.00093179119205386539 -0.011290258518315523 0 0.00086327406093395962 -0.011298798513254755 0 0.00086327406093395962 -0.011298798513254755 0 0.00087579915215026984 -0.011366251225028656 0 0.00080831110124939974 -0.011335453654331614 0 -0.0011007987820426278 -0.016143256881271585 0 -0.0011168918539220824 -0.016396534751597139 0 -0.00072311409666270623 -0.016372318287752725 0 -0.0011007987820426278 -0.016143256881271585 0 -0.0011168918539220824 -0.016396534751597139 0 -0.0013497914185313287 -0.016455164321632638 0 2.9236227815327444e-05 -0.013362002817742158 0 0.00055688777338770039 -0.011828683028194453 0 -0.0011168918539220824 -0.016396534751597139 0 -0.001180557903873034 -0.016629941821988868 0 -0.0013497914185313287 -0.016455164321632638 0 -0.001180557903873034 -0.016629941821988868 0 -0.00093876127147621594 -0.016550710859166685 0 -0.00083815326961479556 -0.016807728751196793 0 -0.0011168918539220824 -0.016396534751597139 0 -0.00093876127147621594 -0.016550710859166685 0 -0.00072311409666270623 -0.016372318287752725 0 -0.0011168918539220824 -0.016396534751597139 0 -0.001180557903873034 -0.016629941821988868 0 -0.00093876127147621594 -0.016550710859166685 0 -7.0034743940149136e-05 -0.018284545504757325 0 -0.00031995143015832943 -0.018205061965164287 0 -0.0010852752913864973 -0.021080177104102659 0 -5.3371807984071843e-06 -0.022377364903847816 0 -0.00032935572381235302 -0.020141461498904514 0 -0.00093876127147621594 -0.016550710859166685 0 -0.00072311409666270623 -0.016372318287752725 0 -0.00083815326961479556 -0.016807728751196793 0 -0.00072311409666270623 -0.016372318287752725 0 -0.00083815326961479556 -0.016807728751196793 0 -0.00064806283221947544 -0.016906489993608942 0 -0.00064806283221947544 -0.016906489993608942 0 -0.00083488938094206241 -0.016946037630195834 0 -0.00075743617182477978 -0.017038464383355396 0 -0.00083815326961479556 -0.016807728751196793 0 -0.00064806283221947544 -0.016906489993608942 0 -0.00083488938094206241 -0.016946037630195834 0 0.00066662001618787465 -0.012557384009796746 0 0.00085953173429777435 -0.013799297561365539 0 -0.0011216328814897811 -0.016649526574131678 0 -0.00083815326961479556 -0.016807728751196793 0 -0.00083488938094206241 -0.016946037630195834 0 0.00066662001618787465 -0.012557384009796746 0 0.00057631309081885575 -0.013113181930958284 0 -0.00099270171798105907 -0.016737346784679436 0 -0.00083488938094206241 -0.016946037630195834 0 -0.00093031091662242353 -0.016926709938034107 0 -0.00099270171798105907 -0.016737346784679436 0 -0.00093031091662242353 -0.016926709938034107 0 -0.0011167633779035362 -0.016672474923655544 0 0.0010153925790210639 -0.014913594621911767 0 0.0006175735791689197 -0.011250567436134874 0 8.659871497646673e-05 -0.01778994450531236 0 0.00077506162023385165 -0.017884569010388648 0 0.00054809090169694855 -0.017481072904883158 0 8.659871497646673e-05 -0.01778994450531236 0 0.00012260783351489494 -0.017153766639984067 0 -0.00072780975709474209 -0.017074052407165433 0 0.00012260783351489494 -0.017153766639984067 0 0.00045758957128786592 -0.016660632959455739 0 0.00074664573681135595 -0.017064310581968601 0 0.00012260783351489494 -0.017153766639984067 0 0.00074664573681135595 -0.017064310581968601 0 0.00054809090169694855 -0.017481072904883158 0 8.659871497646673e-05 -0.01778994450531236 0 0.00012260783351489494 -0.017153766639984067 0 0.00054809090169694855 -0.017481072904883158 0 -0.00083488938094206241 -0.016946037630195834 0 -0.00093031091662242353 -0.016926709938034107 0 -0.00072780975709474209 -0.017074052407165433 0 -0.00083488938094206241 -0.016946037630195834 0 -0.00075743617182477978 -0.017038464383355396 0 -0.00072780975709474209 -0.017074052407165433 0 0.00012260783351489494 -0.017153766639984067 0 -0.00072780975709474209 -0.017074052407165433 0 -0.00023386965105887662 -0.016814446559030145 0 0.0010153925790210639 -0.014913594621911767 0 0.00078096579642609988 -0.015563062641943601 0 -0.00075743617182477978 -0.017038464383355396 0 -0.00072780975709474209 -0.017074052407165433 0 -0.0009260572145780747 -0.017183159596026464 0 -0.00072780975709474209 -0.017074052407165433 0 -0.00023386965105887662 -0.016814446559030145 0 -0.00061080918599833991 -0.016301161273731993 0 -0.00072780975709474209 -0.017074052407165433 0 -0.00061080918599833991 -0.016301161273731993 0 -0.0009260572145780747 -0.017183159596026464 0 -0.00023386965105887662 -0.016814446559030145 0 -0.00061080918599833991 -0.016301161273731993 0 -0.00022233881319387141 -0.015920199290106893 0 -0.00023386965105887662 -0.016814446559030145 0 -0.00022233881319387141 -0.015920199290106893 0 0.00027538917911291234 -0.015206773054884706 0 -0.00023386965105887662 -0.016814446559030145 0 0.00045758957128786592 -0.016660632959455739 0 0.00064031508567261096 -0.015765532141348685 0 -0.00086368425363183491 -0.015263234621991502 0 -0.00064564738556202529 -0.014270072807425826 0 0.00012260783351489494 -0.017153766639984067 0 -0.00023386965105887662 -0.016814446559030145 0 0.00045758957128786592 -0.016660632959455739 0 -0.00022233881319387141 -0.015920199290106893 0 -0.0002847025262245635 -0.015541222972641698 0 0.00027538917911291234 -0.015206773054884706 0 -4.9247834429255666e-07 -0.013912797270056664 0 -0.0002847025262245635 -0.015541222972641698 0 -1.2730594451178918e-06 -0.016549290058544271 0 -4.9247834429255666e-07 -0.013912797270056664 0 -0.0002847025262245635 -0.015541222972641698 0 0.00027538917911291234 -0.015206773054884706 0 -0.0002847025262245635 -0.015541222972641698 0 -1.2730594451178918e-06 -0.016549290058544271 0 -0.0003271221968501724 -0.016872832915130361 0 -0.00061080918599833991 -0.016301161273731993 0 -0.00022233881319387141 -0.015920199290106893 0 -0.0002847025262245635 -0.015541222972641698 0 -0.00056498317265566865 -0.017580898257587033 0 -0.00067974899476559237 -0.01790241193185349 0 -0.00061080918599833991 -0.016301161273731993 0 -0.0002847025262245635 -0.015541222972641698 0 -0.00103336011361984 -0.015677766077245761 0 -0.00103336011361984 -0.015677766077245761 0 -0.0017228191134791477 -0.016563476961377829 0 -0.0010575748042648844 -0.016399816616318081 0 -0.00061080918599833991 -0.016301161273731993 0 -0.00103336011361984 -0.015677766077245761 0 -0.0010575748042648844 -0.016399816616318081 0 -0.00103336011361984 -0.015677766077245761 0 -0.0023772067316497679 -0.015914542046581298 0 -0.0017228191134791477 -0.016563476961377829 0 -0.00067974899476559237 -0.01790241193185349 0 -0.0011372271379413823 -0.018900903445825155 0 -1.2730594451178918e-06 -0.016549290058544271 0 -0.0003271221968501724 -0.016872832915130361 0 1.9431177531813218e-06 -0.0191774239459328 0 -0.0003271221968501724 -0.016872832915130361 0 1.9431177531813218e-06 -0.0191774239459328 0 0.00099035154967858975 -0.016545420794721401 0 -1.9055462683995422e-06 -0.019182028286731441 0 -0.0011372271379413823 -0.018900903445825155 0 2.3934025112016579e-06 -0.019186334615646165 0 0.00051720755198242342 -0.022086473581083777 0 -0.00021555640012620782 -0.021545157151807912 0 -0.0011372271379413823 -0.018900903445825155 0 -0.001333866628860448 -0.02063889594573096 0 -0.0024959600525595875 -0.015844040112533833 0 -0.0027333709002681501 -0.017351853617418051 0 -0.0042073182319441833 -0.016397287442242323 0 -0.0027396244773546016 -0.01712495852749019 0 -0.0017228191134791477 -0.016563476961377829 0 -0.0019250302505111237 -0.017772952691246534 0 -0.0011372271379413823 -0.018900903445825155 0 -0.001439199699841044 -0.018279133912505619 0 -0.0023772067316497679 -0.015914542046581298 0 -0.0027396244773546016 -0.01712495852749019 0 -0.0017228191134791477 -0.016563476961377829 0 -0.0017228191134791477 -0.016563476961377829 0 -0.0010575748042648844 -0.016399816616318081 0 -0.0009260572145780747 -0.017183159596026464 0 -0.00061080918599833991 -0.016301161273731993 0 -0.0010575748042648844 -0.016399816616318081 0 -0.0009260572145780747 -0.017183159596026464 0 -0.0017228191134791477 -0.016563476961377829 0 -0.0009260572145780747 -0.017183159596026464 0 -0.0019250302505111237 -0.017772952691246534 0 -0.0009260572145780747 -0.017183159596026464 0 -0.0019250302505111237 -0.017772952691246534 0 -0.0015687882633999139 -0.018966733619525767 0 -0.00032935572381235302 -0.020141461498904514 0 -0.0009260572145780747 -0.017183159596026464 0 -0.0015687882633999139 -0.018966733619525767 0 -0.00031995143015832943 -0.018205061965164287 0 -0.00049463190279187689 -0.01776172317776975 0 -0.00064806283221947544 -0.016906489993608942 0 -0.00075743617182477978 -0.017038464383355396 0 -0.0009260572145780747 -0.017183159596026464 0 -0.0022091322879489272 -0.019851301269873306 0 -0.0015687882633999139 -0.018966733619525767 0 -0.0029735128598284252 -0.018848594602757455 0 -0.0029183525355323818 -0.020383195262169883 0 -0.0029735128598284252 -0.018848594602757455 0 -0.0037029315245703321 -0.019585083330543599 0 -0.0027333709002681501 -0.017351853617418051 0 -0.0029735128598284252 -0.018848594602757455 0 -0.0040998217286988209 -0.01791291665603565 0 -0.001439199699841044 -0.018279133912505619 0 -0.0015725478277579298 -0.018329767591102268 0 -0.0027396244773546016 -0.01712495852749019 0 -0.0019250302505111237 -0.017772952691246534 0 -0.0029735128598284252 -0.018848594602757455 0 -0.0019250302505111237 -0.017772952691246534 0 -0.0015687882633999139 -0.018966733619525767 0 -0.0029735128598284252 -0.018848594602757455 0 -0.0029735128598284252 -0.018848594602757455 0 -0.0037029315245703321 -0.019585083330543599 0 -0.0040998217286988209 -0.01791291665603565 0 -0.0037029315245703321 -0.019585083330543599 0 -0.0049940870158534222 -0.019189845566174438 0 -0.0040998217286988209 -0.01791291665603565 0 -0.0049940870158534222 -0.019189845566174438 0 -0.0059513367372129901 -0.016957656584003208 0 -0.0040998217286988209 -0.01791291665603565 0 -0.0025176682949622602 -0.025788238219151691 0 -0.0010388938396724084 -0.028251866729533719 0 -0.00037478594234839158 -0.027250494642282679 0 -0.0014900567497366619 -0.024396414771420821 0 -0.0025176682949622602 -0.025788238219151691 0 -0.0005028535423349809 -0.026043335137855173 0 -0.0025176682949622602 -0.025788238219151691 0 -0.0005028535423349809 -0.026043335137855173 0 -0.00037478594234839158 -0.027250494642282679 0 -0.0022549987222427086 -0.022092876634555038 0 -0.0010113889536802797 -0.022633481734568424 0 -0.0010113889536802797 -0.022633481734568424 0 -0.001333866628860448 -0.02063889594573096 0 -0.0059513367372129901 -0.016957656584003208 0 -0.0040998217286988209 -0.01791291665603565 0 -0.0042073182319441833 -0.016397287442242323 0 -0.0027333709002681501 -0.017351853617418051 0 -0.0040998217286988209 -0.01791291665603565 0 -0.0042073182319441833 -0.016397287442242323 0 0.00051720755198242342 -0.022086473581083777 0 -0.00020657701258890499 -0.022221820784480463 0 -0.00021555640012620782 -0.021545157151807912 0 -0.00020657701258890499 -0.022221820784480463 0 -0.00021555640012620782 -0.021545157151807912 0 -0.00019802639398218275 -0.022164440084285888 0 -2.3373640905040585e-06 -0.022200638367462857 0 -0.00021555640012620782 -0.021545157151807912 0 -0.00019802639398218275 -0.022164440084285888 0 2.3934025112016579e-06 -0.019186334615646165 0 -2.3373640905040585e-06 -0.022200638367462857 0 -0.00021555640012620782 -0.021545157151807912 0 -2.3373640905040585e-06 -0.022200638367462857 0 -5.0415213900694369e-05 -0.022710231838090785 0 2.2702234449652633e-06 -0.025112639259599973 0 -2.3373640905040585e-06 -0.022200638367462857 0 -0.00019802639398218275 -0.022164440084285888 0 -5.0415213900694369e-05 -0.022710231838090785 0 -0.0010113889536802797 -0.022633481734568424 0 -0.0002999446729073516 -0.024113232371389778 0 -0.00016454568897447084 -0.022197715264009283 0 -0.00019802639398218275 -0.022164440084285888 0 -5.0415213900694369e-05 -0.022710231838090785 0 -0.00016454568897447084 -0.022197715264009283 0 -0.00020657701258890499 -0.022221820784480463 0 -0.00019802639398218275 -0.022164440084285888 0 0.0005869572505684676 -0.027872748634696569 0 0.00080025238357941952 -0.027503918358461051 0 0.00043319366830027396 -0.027806474712772516 0 0.00080025238357941952 -0.027503918358461051 0 9.6527805675282409e-05 -0.026896983802025813 0 8.4622017619242332e-05 -0.028004013749790058 0 0.00080025238357941952 -0.027503918358461051 0 8.4622017619242332e-05 -0.028004013749790058 0 0.00043319366830027396 -0.027806474712772516 0 0.00080025238357941952 -0.027503918358461051 0 9.6527805675282409e-05 -0.026896983802025813 0 2.0481173619421413e-06 -0.025122520181956071 0 -0.0002999446729073516 -0.024113232371389778 0 -0.00017756340704095242 -0.024391678135051394 0 9.6527805675282409e-05 -0.026896983802025813 0 2.0481173619421413e-06 -0.025122520181956071 0 -3.417699792731412e-05 -0.027603769585877021 0 -6.4376373309949781e-07 -0.028236361293318545 0 2.0481173619421413e-06 -0.025122520181956071 0 -3.417699792731412e-05 -0.027603769585877021 0 9.6527805675282409e-05 -0.026896983802025813 0 -3.417699792731412e-05 -0.027603769585877021 0 8.4622017619242332e-05 -0.028004013749790058 0 0.00022461191366217862 -0.029081951562014954 0 -3.417699792731412e-05 -0.027603769585877021 0 8.4622017619242332e-05 -0.028004013749790058 0 0.00079350001811621267 -0.027599305335570219 0 8.4622017619242332e-05 -0.028004013749790058 0 0.00052798866903475497 -0.027312300159484496 0 8.4622017619242332e-05 -0.028004013749790058 0 0.0002595473009120108 -0.027623209487855575 0 0.00052798866903475497 -0.027312300159484496 0 0.0005869572505684676 -0.027872748634696569 0 0.00043319366830027396 -0.027806474712772516 0 0.0002595473009120108 -0.027623209487855575 0 -0.0010113889536802797 -0.022633481734568424 0 -0.00099392025625616464 -0.023370031902919142 0 8.4622017619242332e-05 -0.028004013749790058 0 0.00043319366830027396 -0.027806474712772516 0 0.0002595473009120108 -0.027623209487855575 0 -0.0010388938396724084 -0.028251866729533719 0 -0.00037478594234839158 -0.027250494642282679 0 0.0002595473009120108 -0.027623209487855575 0 -0.00037478594234839158 -0.027250494642282679 0 0.0002595473009120108 -0.027623209487855575 0 0.00038517901467411872 -0.02664378106554869 0 0.0011408225387473385 -0.026673952958701362 0 0.0018640551913069777 -0.02667294330113652 0 -0.0005028535423349809 -0.026043335137855173 0 -0.00037478594234839158 -0.027250494642282679 0 0.00038517901467411872 -0.02664378106554869 0 0.0002595473009120108 -0.027623209487855575 0 0.00052798866903475497 -0.027312300159484496 0 0.00038517901467411872 -0.02664378106554869 0 0.00094263861327043951 -0.026722745600582909 0 0.00052798866903475497 -0.027312300159484496 0 0.00038517901467411872 -0.02664378106554869 0 0.003081288010780637 -0.0018501512164113684 0 0.0026102290053539052 -0.0019491545372214401 0 0.0029067825252354924 -0.0015387236207408882 0 0.003081288010780637 -0.0018501512164113684 0 0.0026102290053539052 -0.0019491545372214401 0 0.0028586170223741584 -0.0022466375030345802 0 0.003081288010780637 -0.0018501512164113684 0 0.0034759767856163515 -0.002008276772123441 0 0.0031946492365191557 -0.0022037088323898081 0 0.0026102290053539052 -0.0019491545372214401 0 0.0025066071560481138 -0.0015521013471282406 0 0.0022694872938070847 -0.0018493280436751747 0 0.0026102290053539052 -0.0019491545372214401 0 0.0025066071560481138 -0.0015521013471282406 0 0.0029067825252354924 -0.0015387236207408882 0 0.0025066071560481138 -0.0015521013471282406 0 0.0029067825252354924 -0.0015387236207408882 0 0.0028833052380717421 -0.001073273321540547 0 0.0025066071560481138 -0.0015521013471282406 0 0.0028833052380717421 -0.001073273321540547 0 0.0026184699340440986 -0.00093757987012403979 0 0.003081288010780637 -0.0018501512164113684 0 0.0029067825252354924 -0.0015387236207408882 0 0.0033130020483884506 -0.0013702637117667296 0 0.0029067825252354924 -0.0015387236207408882 0 0.0033130020483884506 -0.0013702637117667296 0 0.0028833052380717421 -0.001073273321540547 0 0.0042873674538716627 0.0063693408923498505 0 0.0051131555582195577 0.0039930011813931561 0 0.0062397179804351112 0.0085687218481535401 0 0.006544732077175517 0.010436143598361222 0 0.0082261578063350781 0.0068300968474510216 0 0.0030190856138094637 0.00045632322916220361 0 0.0024839360657276425 0.0013693968811298992 0 0.0026826959426378945 -0.0001011666175291346 0 0.0017548524508161599 0.0016320553204037047 0 0.0024839360657276425 0.0013693968811298992 0 0.0026826959426378945 -0.0001011666175291346 0 0.0066170845195709579 0.007080444969836037 0 0.0062397179804351112 0.0085687218481535401 0 0.0082261578063350781 0.0068300968474510216 0 0.0022234702407538101 0.0039683534931877779 0 0.0023572459878081469 0.0069419391708008182 0 0.0020910235532474305 0.00070140712690135686 0 0.0019518765261253869 0.00036990038981403315 0 0.0012889482139979078 0.0013054179047148355 0 0.0066170845195709579 0.007080444969836037 0 0.0062397179804351112 0.0085687218481535401 0 0.0044129138291503596 0.0086811062480632948 0 0.0041639908689022681 0.004808474111819826 0 0.0023572459878081469 0.0069419391708008182 0 0.0062397179804351112 0.0085687218481535401 0 0.0053888811896831267 0.0098180796170963761 0 0.0044129138291503596 0.0086811062480632948 0 0.0062397179804351112 0.0085687218481535401 0 0.0053888811896831267 0.0098180796170963761 0 0.006544732077175517 0.010436143598361222 0 0.0053888811896831267 0.0098180796170963761 0 0.006544732077175517 0.010436143598361222 0 0.0053421161111429725 0.011179893637988257 0 0.0053888811896831267 0.0098180796170963761 0 0.0053421161111429725 0.011179893637988257 0 0.0043835588309498108 0.01071950296002871 0 0.003030226876579261 -1.9835561311726119e-05 0 0.0027333915130919521 0.0011329925175828229 0 0.003081288010780637 -0.0018501512164113684 0 0.0033130020483884506 -0.0013702637117667296 0 0.0034759767856163515 -0.002008276772123441 0 0.0030190856138094637 0.00045632322916220361 0 0.0024839360657276425 0.0013693968811298992 0 0.0026318960613119424 0.0020093651274920472 0 0.0017548524508161599 0.0016320553204037047 0 0.0024839360657276425 0.0013693968811298992 0 0.0027091127818324109 0.0020971905319539562 0 0.0027362840306521972 0.0011928945147422795 0 0.0027333915130919521 0.0011329925175828229 0 0.0027333915130919521 0.0011329925175828229 0 0.0027348088614032157 0.0011187338629073153 0 0.0028534623672464812 0.0017710756683064941 0 0.0032115958206250482 0.0034370651655503412 0 0.0022097661962493234 0.0040967309101926945 0 0.0034759767856163515 -0.002008276772123441 0 0.0033606907345901317 -0.0024896052262557314 0 0.0031946492365191557 -0.0022037088323898081 0 0.0027091127818324109 0.0020971905319539562 0 0.0017615688640304254 0.0031203604480608232 0 0.0021893751797681968 0.0042223155657926861 0 0.0027333915130919521 0.0011329925175828229 0 0.0021590679808864595 0.0036946708416287473 0 0.0017548524508161599 0.0016320553204037047 0 0.0027091127818324109 0.0020971905319539562 0 0.0017615688640304254 0.0031203604480608232 0 0.006544732077175517 0.010436143598361222 0 0.0053421161111429725 0.011179893637988257 0 0.0048496795325392271 0.014087548159232223 0 0.0017548524508161599 0.0016320553204037047 0 0.0017615688640304254 0.0031203604480608232 0 0.0006515910193935796 0.0038916485066588526 0 0.0042873674538716627 0.0063693408923498505 0 0.0032766429257877236 0.0095983626010285039 0 0.0053421161111429725 0.011179893637988257 0 0.0048496795325392271 0.014087548159232223 0 0.004654677103273705 0.01193972518409506 0 0.0017615688640304254 0.0031203604480608232 0 0.0014006927759443899 0.004049014654253248 0 0.0006515910193935796 0.0038916485066588526 0 0.0017615688640304254 0.0031203604480608232 0 0.0014006927759443899 0.004049014654253248 0 0.0021893751797681968 0.0042223155657926861 0 0.0014006927759443899 0.004049014654253248 0 0.0014536101113783737 0.0044830723464154764 0 0.0021893751797681968 0.0042223155657926861 0 0.0013593838683469024 0.0051310824891260378 0 0.0014536101113783737 0.0044830723464154764 0 0.0021893751797681968 0.0042223155657926861 0 0.00085745842363750243 0.0049603465181218024 0 0.0014006927759443899 0.004049014654253248 0 0.0006515910193935796 0.0038916485066588526 0 0.00085745842363750243 0.0049603465181218024 0 0.0014006927759443899 0.004049014654253248 0 0.0014536101113783737 0.0044830723464154764 0 0.00085745842363750243 0.0049603465181218024 0 0.0013593838683469024 0.0051310824891260378 0 0.0014536101113783737 0.0044830723464154764 0 0.0035622128074171001 0.0050883161404429375 0 0.0032115958206250482 0.0034370651655503412 0 0.0027615692986307692 0.0043834310839175258 0 0.0026935142135294144 0.0017674965662736481 0 0.0027348088614032157 0.0011187338629073153 0 0.0032115958206250482 0.0034370651655503412 0 0.0022097661962493234 0.0040967309101926945 0 0.0027615692986307692 0.0043834310839175258 0 0.002840322614386341 0.0049502125790777994 0 0.0022097661962493234 0.0040967309101926945 0 0.0027615692986307692 0.0043834310839175258 0 0.0035514115547282217 0.0050962841292600328 0 0.002840322614386341 0.0049502125790777994 0 0.0027615692986307692 0.0043834310839175258 0 0.0026935142135294144 0.0017674965662736481 0 0.0029214009687103639 0.0020970573721769193 0 0.0030501647161894048 -0.0026368604396835764 0 0.0028586170223741584 -0.0022466375030345802 0 0.002697466855032948 -0.0027241868728864558 0 0.0028899819040414053 -0.0029321114312932262 0 0.0032498222260868271 -0.0029603455935933816 0 0.0030501647161894048 -0.0026368604396835764 0 0.0032498222260868271 -0.0029603455935933816 0 0.0033606907345901317 -0.0024896052262557314 0 0.0030501647161894048 -0.0026368604396835764 0 0.0028899819040414053 -0.0029321114312932262 0 0.0030501647161894048 -0.0026368604396835764 0 0.002697466855032948 -0.0027241868728864558 0 0.0030501647161894048 -0.0026368604396835764 0 0.0028586170223741584 -0.0022466375030345802 0 0.0031946492365191557 -0.0022037088323898081 0 0.0033606907345901317 -0.0024896052262557314 0 0.0030501647161894048 -0.0026368604396835764 0 0.0031946492365191557 -0.0022037088323898081 0 0.003081288010780637 -0.0018501512164113684 0 0.0028586170223741584 -0.0022466375030345802 0 0.0031946492365191557 -0.0022037088323898081 0 0.0028586170223741584 -0.0022466375030345802 0 0.0024654720710939738 -0.0023235286083301389 0 0.002697466855032948 -0.0027241868728864558 0 0.0026102290053539052 -0.0019491545372214401 0 0.0024654720710939738 -0.0023235286083301389 0 0.0023123810712363702 -0.0020853499800917311 0 0.0026102290053539052 -0.0019491545372214401 0 0.0028586170223741584 -0.0022466375030345802 0 0.0024654720710939738 -0.0023235286083301389 0 0.0025668154913000064 -0.0030641461618243944 0 0.002697466855032948 -0.0027241868728864558 0 0.0023120541652525257 -0.0027861238890140136 0 0.002697466855032948 -0.0027241868728864558 0 0.0023120541652525257 -0.0027861238890140136 0 0.0021249309879142263 -0.0024533479980099336 0 0.0013673489467107937 -0.0064052345542445375 0 0.001736783365197785 -0.0057190824623222303 0 0.0024654720710939738 -0.0023235286083301389 0 0.002697466855032948 -0.0027241868728864558 0 0.0020984346635465659 -0.0024239062732628811 0 0.0016617545346896904 -0.0049512648103115005 0 0.001736783365197785 -0.0057190824623222303 0 0.002033354882204466 -0.0030632779942674701 0 0.0023120541652525257 -0.0027861238890140136 0 0.0021249309879142263 -0.0024533479980099336 0 -7.8610637927450957e-05 -0.0076952907053917611 0 -0.00023007874919273795 -0.0087218579551089949 0 0.00082282650322656797 -0.0086157543509481158 0 0.0013673489467107937 -0.0064052345542445375 0 0.001054025200202903 -0.0095127221755737894 0 0.0007293552496548466 -0.011249081261996779 0 0.00059388537882688907 -0.011220526428039328 0 0.00071658495065136452 -0.011332412801639165 0 -0.00023007874919273795 -0.0087218579551089949 0 0.00082282650322656797 -0.0086157543509481158 0 0.00082047266377820768 -0.0088406278663459275 0 0.001736783365197785 -0.0057190824623222303 0 0.00077967564704054491 -0.0075015769286441072 0 -0.00023007874919273795 -0.0087218579551089949 0 0.00082047266377820768 -0.0088406278663459275 0 0.00064413506658574202 -0.0091647234914976027 0 0.0018820911045955295 -0.0021236324927699475 0 0.0020996890482850826 -0.0024146213602725558 0 0.0015996310505081964 -0.002126936230937911 0 0.0018820911045955295 -0.0021236324927699475 0 0.0021243998422253458 -0.0022573898929888264 0 0.0021038548787299855 -0.0020413033258626367 0 0.0021243998422253458 -0.0022573898929888264 0 0.0023123810712363702 -0.0020853499800917311 0 0.0021038548787299855 -0.0020413033258626367 0 0.0024654720710939738 -0.0023235286083301389 0 0.0021243998422253458 -0.0022573898929888264 0 0.0023123810712363702 -0.0020853499800917311 0 0.0024654720710939738 -0.0023235286083301389 0 0.0021243998422253458 -0.0022573898929888264 0 0.0020984346635465659 -0.0024239062732628811 0 0.0018820911045955295 -0.0021236324927699475 0 0.0021243998422253458 -0.0022573898929888264 0 0.0020996890482850826 -0.0024146213602725558 0 0.0017639154499327527 -0.0055223035248308057 0 0.001736783365197785 -0.0057190824623222303 0 0.00081359417179399348 -0.011244197995994566 0 0.00086327406093395962 -0.011298798513254755 0 0.00080831110124939974 -0.011335453654331614 0 0.0007293552496548466 -0.011249081261996779 0 0.00081359417179399348 -0.011244197995994566 0 0.00080831110124939974 -0.011335453654331614 0 0.0007293552496548466 -0.011249081261996779 0 0.00080831110124939974 -0.011335453654331614 0 0.00071658495065136452 -0.011332412801639165 0 0.00082047266377820768 -0.0088406278663459275 0 0.00064413506658574202 -0.0091647234914976027 0 0.001499524280509195 -0.0095946272227011922 0 0.00082282650322656797 -0.0086157543509481158 0 0.00082047266377820768 -0.0088406278663459275 0 0.0017545082451059686 -0.0095727495899723923 0 0.00040873988352432079 -0.010043501149209476 0 0.00043876901783177055 -0.010490187480237239 0 0.00087579915215026984 -0.011366251225028656 0 0.00080831110124939974 -0.011335453654331614 0 0.00082018259405173578 -0.011437691701738971 0 0.001054025200202903 -0.0095127221755737894 0 0.00055688777338770039 -0.011828683028194453 0 0.00080831110124939974 -0.011335453654331614 0 0.00071658495065136452 -0.011332412801639165 0 0.00082018259405173578 -0.011437691701738971 0 0.00082047266377820768 -0.0088406278663459275 0 0.0017545082451059686 -0.0095727495899723923 0 0.0015379409295163907 -0.0096463609039420337 0 0.00075928577167449249 -0.012013156121826329 0 0.000173340730140163 -0.011420241331699343 0 -4.5746451817026045e-05 -0.011691503694796584 0 0.00066662001618787465 -0.012557384009796746 0 0.00055688777338770039 -0.011828683028194453 0 0.00066662001618787465 -0.012557384009796746 0 0.0006175735791689197 -0.011250567436134874 0 0.0017545082451059686 -0.0095727495899723923 0 0.0015379409295163907 -0.0096463609039420337 0 0.0016212430486449651 -0.0097383759092361643 0 0.00055688777338770039 -0.011828683028194453 0 0.0006175735791689197 -0.011250567436134874 0 0.00043876901783177055 -0.010490187480237239 0 0.0006175735791689197 -0.011250567436134874 0 0.0014344541198069705 -0.0019628290358448494 0 0.0014508511207353223 -0.0019642814263395123 0 0.0014692240097465472 -0.0019574418070573891 0 0.00077967564704054491 -0.0075015769286441072 0 0.00043876901783177055 -0.010490187480237239 0 0.0014508511207353223 -0.0019642814263395123 0 0.0014692240097465472 -0.0019574418070573891 0 0.0014693253701975307 -0.0021456968182857372 0 0.0015996310505081964 -0.002126936230937911 0 0.0014344541198069705 -0.0019628290358448494 0 0.0014692240097465472 -0.0019574418070573891 0 0.0014692240097465472 -0.0019574418070573891 0 0.0017116375987296891 -0.0019115714492414448 0 0.001786338286525097 -0.0014770788461330618 0 0.0015996310505081964 -0.002126936230937911 0 0.0014692240097465472 -0.0019574418070573891 0 0.0017116375987296891 -0.0019115714492414448 0 0.0014693253701975307 -0.0021456968182857372 0 0.0012151044675892252 -0.0021546297867069989 0 0.0012900599977836574 -0.002449662370845269 0 0.0014692240097465472 -0.0019574418070573891 0 0.0014693253701975307 -0.0021456968182857372 0 0.0012151044675892252 -0.0021546297867069989 0 0.0016972755967408042 -0.0023033820240084008 0 0.0016458029410995401 -0.0024871477947302312 0 0.00085539804009337832 -0.018612537677308357 0 0.0014293966476456455 -0.017926496007242294 0 0.00077506162023385165 -0.017884569010388648 0 0.0006175735791689197 -0.011250567436134874 0 0.0010891228927619994 -0.010127632899114274 0 8.659871497646673e-05 -0.01778994450531236 0 0.00085539804009337832 -0.018612537677308357 0 0.00077506162023385165 -0.017884569010388648 0 0.0014293966476456455 -0.017926496007242294 0 0.00077506162023385165 -0.017884569010388648 0 0.0010239299186496629 -0.017506934525279239 0 0.00077506162023385165 -0.017884569010388648 0 0.00054809090169694855 -0.017481072904883158 0 0.0010239299186496629 -0.017506934525279239 0 0.0022694872938070847 -0.0018493280436751747 0 0.0019675160992713944 -0.0018409734468505701 0 0.0021346674913558421 -0.0015576068524007398 0 0.0025066071560481138 -0.0015521013471282406 0 0.0022694872938070847 -0.0018493280436751747 0 0.0021346674913558421 -0.0015576068524007398 0 0.0026102290053539052 -0.0019491545372214401 0 0.0023123810712363702 -0.0020853499800917311 0 0.0022694872938070847 -0.0018493280436751747 0 0.0023123810712363702 -0.0020853499800917311 0 0.0022694872938070847 -0.0018493280436751747 0 0.0021038548787299855 -0.0020413033258626367 0 0.0022694872938070847 -0.0018493280436751747 0 0.0021038548787299855 -0.0020413033258626367 0 0.0019675160992713944 -0.0018409734468505701 0 0.0017116375987296891 -0.0019115714492414448 0 0.0019675160992713944 -0.0018409734468505701 0 0.001786338286525097 -0.0014770788461330618 0 0.0018820911045955295 -0.0021236324927699475 0 0.0017116375987296891 -0.0019115714492414448 0 0.0019675160992713944 -0.0018409734468505701 0 0.0018820911045955295 -0.0021236324927699475 0 0.0021038548787299855 -0.0020413033258626367 0 0.0019675160992713944 -0.0018409734468505701 0 0.0018820911045955295 -0.0021236324927699475 0 0.0015996310505081964 -0.002126936230937911 0 0.0017116375987296891 -0.0019115714492414448 0 0.0019675160992713944 -0.0018409734468505701 0 0.001786338286525097 -0.0014770788461330618 0 0.0021346674913558421 -0.0015576068524007398 0 0.0011894623151557301 -0.0026299857322375961 0 0.0011477233862364582 -0.0034457402680185805 0 0.001786338286525097 -0.0014770788461330618 0 0.0021346674913558421 -0.0015576068524007398 0 0.0022084289493789029 -0.0010652561089714431 0 0.0025066071560481138 -0.0015521013471282406 0 0.0021346674913558421 -0.0015576068524007398 0 0.0022084289493789029 -0.0010652561089714431 0 0.0011477233862364582 -0.0034457402680185805 0 0.0014811072689126972 -0.0030869823906076563 0 0.00089909360335033411 -0.002449608865564027 0 0.0012900599977836574 -0.002449662370845269 0 0.0010598917896344486 -0.0027584120634878613 0 0.0016458029410995401 -0.0024871477947302312 0 0.0011477233862364582 -0.0034457402680185805 0 0.0012151044675892252 -0.0021546297867069989 0 0.00089909360335033411 -0.002449608865564027 0 0.0012900599977836574 -0.002449662370845269 0 0.0020269295421329074 -0.017209601431020696 0 0.0020451726045716484 -0.01627397858746021 0 0.0026227400482258952 -0.016470289507507761 0 0.0012336225563918091 -0.0092918296975643324 0 0.001368690152798911 -0.0081054023396835654 0 0.0020451726045716484 -0.01627397858746021 0 0.0026227400482258952 -0.016470289507507761 0 0.0022462415420220604 -0.01576778811417438 0 0.00061874670715229905 -0.0058937866338689129 0 0.00026439113332540334 -0.0052359159402717509 0 0.0012012116885488048 -0.0053547231416546746 0 0.00026439113332540334 -0.0052359159402717509 0 0.00069978985209980091 -0.0046967777790132177 0 0.0012012116885488048 -0.0053547231416546746 0 0.001368690152798911 -0.0081054023396835654 0 0.0014878261992051756 -0.0071794582493365337 0 0.0011477233862364582 -0.0034457402680185805 0 0.001368690152798911 -0.0081054023396835654 0 0.00074664573681135595 -0.017064310581968601 0 0.00054809090169694855 -0.017481072904883158 0 0.0010239299186496629 -0.017506934525279239 0 0.00074664573681135595 -0.017064310581968601 0 0.0010239299186496629 -0.017506934525279239 0 0.0014203247850559778 -0.01708036781617631 0 0.0010891228927619994 -0.010127632899114274 0 0.0012336225563918091 -0.0092918296975643324 0 0.0014293966476456455 -0.017926496007242294 0 0.0020269295421329074 -0.017209601431020696 0 0.0014203247850559778 -0.01708036781617631 0 0.0014293966476456455 -0.017926496007242294 0 0.0010239299186496629 -0.017506934525279239 0 0.0014203247850559778 -0.01708036781617631 0 0.0020269295421329074 -0.017209601431020696 0 0.0014203247850559778 -0.01708036781617631 0 0.001554919695698722 -0.016507400827431129 0 0.0020269295421329074 -0.017209601431020696 0 0.0020451726045716484 -0.01627397858746021 0 0.001554919695698722 -0.016507400827431129 0 0.0020451726045716484 -0.01627397858746021 0 0.001554919695698722 -0.016507400827431129 0 0.0017193448913181951 -0.016055594063617454 0 0.001554919695698722 -0.016507400827431129 0 0.0010130332469469052 -0.016489563372334645 0 0.0013554326746801392 -0.015908288466898558 0 0.0014203247850559778 -0.01708036781617631 0 0.001554919695698722 -0.016507400827431129 0 0.0010130332469469052 -0.016489563372334645 0 0.00045758957128786592 -0.016660632959455739 0 0.0010130332469469052 -0.016489563372334645 0 0.00064031508567261096 -0.015765532141348685 0 0.00074664573681135595 -0.017064310581968601 0 0.0014203247850559778 -0.01708036781617631 0 0.0010130332469469052 -0.016489563372334645 0 0.00045758957128786592 -0.016660632959455739 0 0.00074664573681135595 -0.017064310581968601 0 0.0010130332469469052 -0.016489563372334645 0 0.00064031508567261096 -0.015765532141348685 0 0.0013554326746801392 -0.015908288466898558 0 0.0015997703679574476 -0.015314213027269694 0 0.0010130332469469052 -0.016489563372334645 0 0.00064031508567261096 -0.015765532141348685 0 0.0013554326746801392 -0.015908288466898558 0 0.0013554326746801392 -0.015908288466898558 0 0.0016599176877312941 -0.015754491133918403 0 0.0015997703679574476 -0.015314213027269694 0 0.001554919695698722 -0.016507400827431129 0 0.0013554326746801392 -0.015908288466898558 0 0.0017193448913181951 -0.016055594063617454 0 0.0020451726045716484 -0.01627397858746021 0 0.0017193448913181951 -0.016055594063617454 0 0.0019650640359511482 -0.015738354323278622 0 0.0013554326746801392 -0.015908288466898558 0 0.0017193448913181951 -0.016055594063617454 0 0.0016599176877312941 -0.015754491133918403 0 0.0017193448913181951 -0.016055594063617454 0 0.0016599176877312941 -0.015754491133918403 0 0.0019650640359511482 -0.015738354323278622 0 0.0016599176877312941 -0.015754491133918403 0 0.0015997703679574476 -0.015314213027269694 0 0.0019650640359511482 -0.015738354323278622 0 0.0015997703679574476 -0.015314213027269694 0 0.0019650640359511482 -0.015738354323278622 0 0.00225021076026626 -0.015767794295362417 0 0.00064031508567261096 -0.015765532141348685 0 0.0015997703679574476 -0.015314213027269694 0 0.0015486630934900736 -0.014748330596286094 0 0.0015997703679574476 -0.015314213027269694 0 0.0017121389673780106 -0.014757530341204533 0 0.00225021076026626 -0.015767794295362417 0 0.0015997703679574476 -0.015314213027269694 0 0.0017121389673780106 -0.014757530341204533 0 0.0015486630934900736 -0.014748330596286094 0 2.1566577046364498e-07 -0.010943437619175579 0 3.865911902028407e-05 -0.011014918754833765 0 -2.1546317935732621e-07 -0.011228046661438186 0 0.00019253136102043278 -0.010765677395449149 0 0.00014629097079399262 -0.011059932552971849 0 5.6376061762316478e-06 -0.010938971041144281 0 0.00019253136102043278 -0.010765677395449149 0 -4.9247834429255666e-07 -0.013912797270056664 0 0.00027538917911291234 -0.015206773054884706 0 1.7423881153863768e-06 -0.011233083254631846 0 -0.00064564738556202529 -0.014270072807425826 0 0.00014629097079399262 -0.011059932552971849 0 0.000976152801659086 -0.0070143359717579415 0 0.0011148801579864984 -0.0070355029511213482 0 0.0010306479643994039 -0.0070906617984606585 0 0.0014878261992051756 -0.0071794582493365337 0 0.0012871990215584867 -0.0091985936743917453 0 0.00094783152071925764 -0.0070471030538513321 0 0.0010306479643994039 -0.0070906617984606585 0 0.00094225177396378072 -0.0071103225162728861 0 0.00094783152071925764 -0.0070471030538513321 0 0.000976152801659086 -0.0070143359717579415 0 0.0010306479643994039 -0.0070906617984606585 0 0.0014739608672443662 -0.0071847434592065126 0 0.0014878261992051756 -0.0071794582493365337 0 0.001368690152798911 -0.0081054023396835654 0 0.0012871990215584867 -0.0091985936743917453 0 0.0010398188663520934 -0.0081488064468022599 0 0.0010425335658915897 -0.0081452261819446332 0 0.0010385273987338606 -0.0081469217876526962 0 0.0020451726045716484 -0.01627397858746021 0 0.0019650640359511482 -0.015738354323278622 0 0.0022462415420220604 -0.01576778811417438 0 0.0013622145472931124 -0.0093023560149001587 0 0.0012871990215584867 -0.0091985936743917453 0 0.0011995576333120592 -0.0072022002382842081 0 0.00102844975958568 -0.0071844039321837319 0 0.0010306479643994039 -0.0070906617984606585 0 1.4076937286248209e-07 -0.010942593220427076 0 2.0659610818872577e-06 -0.010806058287786554 0 -1.4057992127355655e-07 -0.0085828507275418041 0 0.00019253136102043278 -0.010765677395449149 0 4.3421095768915222e-05 -0.0083872751957414608 0 2.0659610818872577e-06 -0.010806058287786554 0 -1.4057992127355655e-07 -0.0085828507275418041 0 -6.1888553686140218e-06 -0.008289058869477256 0 0.0011995576333120592 -0.0072022002382842081 0 0.0011148801579864984 -0.0070355029511213482 0 0.0010306479643994039 -0.0070906617984606585 0 0.00019253136102043278 -0.010765677395449149 0 0.0012871990215584867 -0.0091985936743917453 0 -1.4057992127355655e-07 -0.0085828507275418041 0 -6.1888553686140218e-06 -0.008289058869477256 0 1.4119661494814731e-07 -0.0062250782096953125 0 4.3421095768915222e-05 -0.0083872751957414608 0 0.00039631770582018879 -0.0063360058683032969 0 0.00102844975958568 -0.0071844039321837319 0 0.00094225177396378072 -0.0071103225162728861 0 0.00085672654211202111 -0.0071671102654978147 0 0.00102844975958568 -0.0071844039321837319 0 0.0010306479643994039 -0.0070906617984606585 0 0.00094225177396378072 -0.0071103225162728861 0 -6.1888553686140218e-06 -0.008289058869477256 0 1.4119661494814731e-07 -0.0062250782096953125 0 1.2420171182775567e-05 -0.0059728256915844739 0 0.00085672654211202111 -0.0071671102654978147 0 0.00073221684008587819 -0.0070193061113599398 0 0.00084564114776324614 -0.0070618276425461193 0 2.4434494013212132e-06 -0.0062234541996339697 0 0.00039631770582018879 -0.0063360058683032969 0 6.4390168342767981e-09 -0.0062222961187122046 0 -1.4947524354428202e-09 -0.0058929323257806551 0 -1.0890980161454751e-05 -0.0058122005287045992 0 0.00094225177396378072 -0.0071103225162728861 0 0.00085672654211202111 -0.0071671102654978147 0 0.00084564114776324614 -0.0070618276425461193 0 -1.4947524354428202e-09 -0.0058929323257806551 0 -1.0890980161454751e-05 -0.0058122005287045992 0 -0.00048379141142027124 -0.0056143032826102991 0 -1.0890980161454751e-05 -0.0058122005287045992 0 -0.00031261486217768522 -0.0054564092428503299 0 -0.00048379141142027124 -0.0056143032826102991 0 4.4149135368535421e-07 -0.0058869033578457805 0 0.00045127808336850475 -0.0030992485575359048 0 6.7221448343021949e-07 -0.0058897956914276987 0 0.0003040069263378028 -0.0016826513629226952 0 7.691357675802016e-07 -0.002766406209994709 0 0.00039631770582018879 -0.0063360058683032969 0 0.0011556670468839787 -0.0029839871687338784 0 0.0011556670468839787 -0.0029839871687338784 0 0.00045127808336850475 -0.0030992485575359048 0 0.00073221684008587819 -0.0070193061113599398 0 0.00077806623316839085 -0.0069779854880188726 0 0.00084564114776324614 -0.0070618276425461193 0 0.0011556670468839787 -0.0029839871687338784 0 0.0014014465188615817 -0.0030121421229640432 0 0.0016730430414972468 -0.0013656662246858179 0 0.0011132617338434911 -0.0018851241334458895 0 0.0022529994314984645 -0.0020127955578517504 0 0.0029987994873283729 -0.00053992603398004884 0 0.0030260396065370006 -0.00059010377104976659 0 0.0028858961671351232 -0.00067882655957176164 0 0.0014014465188615817 -0.0030121421229640432 0 0.0015961037317889937 -0.0011263093823778983 0 0.0011556670468839787 -0.0029839871687338784 0 0.0015961037317889937 -0.0011263093823778983 0 0.0010037526512684696 -0.0010426940145894471 0 0.00085899493812488991 -0.00087853655810250764 0 0.00082281943092173593 -0.0010408119526516982 0 0.00094783152071925764 -0.0070471030538513321 0 0.00097771868781962074 -0.0070105685164849234 0 0.00077806623316839085 -0.0069779854880188726 0 0.00094783152071925764 -0.0070471030538513321 0 0.00077806623316839085 -0.0069779854880188726 0 0.00084564114776324614 -0.0070618276425461193 0 0.0014878261992051756 -0.0071794582493365337 0 0.0014014465188615817 -0.0030121421229640432 0 0.00094783152071925764 -0.0070471030538513321 0 0.00094225177396378072 -0.0071103225162728861 0 0.00084564114776324614 -0.0070618276425461193 0 0.00069978985209980091 -0.0046967777790132177 0 0.0017819749469054381 -0.0048140742628136101 0 0.0012012116885488048 -0.0053547231416546746 0 0.0026568471263015083 -0.00060448080776335513 0 0.0028940334587427533 -0.00063899122730496879 0 0.0026184699340440986 -0.00093757987012403979 0 0.0029987994873283729 -0.00053992603398004884 0 0.0026568471263015083 -0.00060448080776335513 0 0.0028940334587427533 -0.00063899122730496879 0 0.0014014465188615817 -0.0030121421229640432 0 0.0014811072689126972 -0.0030869823906076563 0 0.0052488432005396097 0.0024111192312180176 0 0.0052396470609916762 0.0035029086752109621 0 0.0030260396065370006 -0.00059010377104976659 0 0.0030613056705043589 -0.00067700584717703843 0 0.0028580723408327311 -0.00056299129472154284 0 0.0030260396065370006 -0.00059010377104976659 0 0.0028287642794171367 0.00012817810998710707 0 0.0028184794848950157 -0.00042798220116373989 0 0.0029987994873283729 -0.00053992603398004884 0 0.0030260396065370006 -0.00059010377104976659 0 0.0028940334587427533 -0.00063899122730496879 0 0.0030260396065370006 -0.00059010377104976659 0 0.0028184794848950157 -0.00042798220116373989 0 0.0028858961671351232 -0.00067882655957176164 0 0.0030260396065370006 -0.00059010377104976659 0 0.0028940334587427533 -0.00063899122730496879 0 0.0030613056705043589 -0.00067700584717703843 0 0.003030226876579261 -1.9835561311726119e-05 0 0.0030901723805033922 -0.00030098610546615317 0 0.0028940334587427533 -0.00063899122730496879 0 0.0030613056705043589 -0.00067700584717703843 0 0.0028833052380717421 -0.001073273321540547 0 0.0033130020483884506 -0.0013702637117667296 0 0.0030613056705043589 -0.00067700584717703843 0 0.0028833052380717421 -0.001073273321540547 0 0.0028940334587427533 -0.00063899122730496879 0 0.0028833052380717421 -0.001073273321540547 0 0.0026184699340440986 -0.00093757987012403979 0 0.0025066071560481138 -0.0015521013471282406 0 0.002220031828218668 -0.00092818564471279952 0 0.0026184699340440986 -0.00093757987012403979 0 0.002220031828218668 -0.00092818564471279952 0 0.0026568471263015083 -0.00060448080776335513 0 0.0026184699340440986 -0.00093757987012403979 0 0.0031794176914750295 0.0077204457809043388 0 0.0023810526728436231 0.006829319384591955 0 0.0018167619863121297 0.0074864506945151819 0 0.0031794176914750295 0.0077204457809043388 0 0.0037880659116138085 0.0067260704239985912 0 0.0031295994591835326 0.006787426983136842 0 0.0031794176914750295 0.0077204457809043388 0 0.0031295994591835326 0.006787426983136842 0 0.0023810526728436231 0.006829319384591955 0 0.0020910235532474305 0.00070140712690135686 0 0.0019518765261253869 0.00036990038981403315 0 0.0028287642794171367 0.00012817810998710707 0 0.0030190856138094637 0.00045632322916220361 0 0.0030613056705043589 -0.00067700584717703843 0 0.0026826959426378945 -0.0001011666175291346 0 0.0019518765261253869 0.00036990038981403315 0 0.0028287642794171367 0.00012817810998710707 0 0.0025621862441939348 -0.00045886011249228709 0 0.0041639908689022681 0.004808474111819826 0 0.0052396470609916762 0.0035029086752109621 0 0.0066170845195709579 0.007080444969836037 0 0.0082261578063350781 0.0068300968474510216 0 0.008849585240344458 0.0055008838611082158 0 0.0051131555582195577 0.0039930011813931561 0 0.0052396470609916762 0.0035029086752109621 0 0.0030613056705043589 -0.00067700584717703843 0 0.0026826959426378945 -0.0001011666175291346 0 0.0028580723408327311 -0.00056299129472154284 0 0.0022234702407538101 0.0039683534931877779 0 0.0018226122444987127 0.0011232609611436153 0 0.0041635213098551041 0.0063006479328086276 0 0.0031694910681578574 0.0058800385081095568 0 0.0046961916154534275 0.0056875984460950805 0 0.0031794176914750295 0.0077204457809043388 0 0.0037880659116138085 0.0067260704239985912 0 0.0041638825943089717 0.0062942869304634125 0 0.0017578809938472465 0.0013666964226902211 0 0.0018226122444987127 0.0011232609611436153 0 0.0028287642794171367 0.00012817810998710707 0 0.0028184794848950157 -0.00042798220116373989 0 0.0025621862441939348 -0.00045886011249228709 0 0.0018226122444987127 0.0011232609611436153 0 0.0015961037317889937 -0.0011263093823778983 0 0.0028184794848950157 -0.00042798220116373989 0 0.0025621862441939348 -0.00045886011249228709 0 0.0028858961671351232 -0.00067882655957176164 0 0.0037880659116138085 0.0067260704239985912 0 0.0041635213098551041 0.0063006479328086276 0 0.0031694910681578574 0.0058800385081095568 0 0.0037880659116138085 0.0067260704239985912 0 0.0031694910681578574 0.0058800385081095568 0 0.0031295994591835326 0.006787426983136842 0 0.0031694910681578574 0.0058800385081095568 0 0.0031295994591835326 0.006787426983136842 0 0.0023810526728436231 0.006829319384591955 0 0.00038067068976117575 -0.00081808055299998023 0 0.00034508176223936832 -0.0010022762035931138 0 -0.00010593381580706588 -0.00075711659848501746 0 0.00038067068976117575 -0.00081808055299998023 0 0.00034508176223936832 -0.0010022762035931138 0 0.00063901335039835249 -0.0010001598620221965 0 0.00034151686228872554 0.0013007426098935076 0 0.00013351662407022939 -0.00021558716896527918 0 0.00013441019078388051 0.0016683902130428688 0 0.00034508176223936832 -0.0010022762035931138 0 0.00063901335039835249 -0.0010001598620221965 0 0.00078889857039037708 -0.0012419728234545865 0 -0.00017505774695506087 -0.0006225996079227545 0 0.00045127808336850475 -0.0030992485575359048 0 0.00038067068976117575 -0.00081808055299998023 0 0.00085899493812488991 -0.00087853655810250764 0 0.00063901335039835249 -0.0010001598620221965 0 0.00034151686228872554 0.0013007426098935076 0 0.00060400579011345417 -0.0012590502730425923 0 0.00030838086652587631 -0.0015251976432713282 0 0.0011167597545146952 0.00034351182087080998 0 0.0015961037317889937 -0.0011263093823778983 0 0.00085899493812488991 -0.00087853655810250764 0 0.00063901335039835249 -0.0010001598620221965 0 0.00082281943092173593 -0.0010408119526516982 0 0.00063901335039835249 -0.0010001598620221965 0 0.00082281943092173593 -0.0010408119526516982 0 0.00078889857039037708 -0.0012419728234545865 0 0.0010037526512684696 -0.0010426940145894471 0 0.00082281943092173593 -0.0010408119526516982 0 0.00078889857039037708 -0.0012419728234545865 0 0.0003040069263378028 -0.0016826513629226952 0 0.00030838086652587631 -0.0015251976432713282 0 7.691357675802016e-07 -0.002766406209994709 0 0.00045127808336850475 -0.0030992485575359048 0 0.000467654963836135 -0.0030677864909064169 0 0.00030838086652587631 -0.0015251976432713282 0 7.691357675802016e-07 -0.002766406209994709 0 0.00013351662407022939 -0.00021558716896527918 0 0.00013351662407022939 -0.00021558716896527918 0 -1.719166500528828e-08 0.00035707745069960147 0 0.00013441019078388051 0.0016683902130428688 0 7.691357675802016e-07 -0.002766406209994709 0 0.00013351662407022939 -0.00021558716896527918 0 -1.719166500528828e-08 0.00035707745069960147 0 0.00034151686228872554 0.0013007426098935076 0 0.00030838086652587631 -0.0015251976432713282 0 0.00013351662407022939 -0.00021558716896527918 0 -1.719166500528828e-08 0.00035707745069960147 0 -4.8464745007305754e-05 0.0024118175295848223 0 0.00013441019078388051 0.0016683902130428688 0 -4.8464745007305754e-05 0.0024118175295848223 0 -0.00012961741365952938 0.0038347835918388995 0 -4.5088202006373467e-07 0.0034803796430347886 0 -1.719166500528828e-08 0.00035707745069960147 0 -4.8464745007305754e-05 0.0024118175295848223 0 -4.5088202006373467e-07 0.0034803796430347886 0 -4.8464745007305754e-05 0.0024118175295848223 0 -0.00012961741365952938 0.0038347835918388995 0 0.0001022515920709387 0.0031256674216384775 0 -0.00012961741365952938 0.0038347835918388995 0 9.4959350103023378e-05 0.0037972032572278023 0 0.0001022515920709387 0.0031256674216384775 0 0.00034151686228872554 0.0013007426098935076 0 0.00013441019078388051 0.0016683902130428688 0 0.00029360439216015276 0.0035874234910236512 0 0.0001022515920709387 0.0031256674216384775 0 0.00013441019078388051 0.0016683902130428688 0 0.00029360439216015276 0.0035874234910236512 0 9.4959350103023378e-05 0.0037972032572278023 0 0.0001022515920709387 0.0031256674216384775 0 0.00029360439216015276 0.0035874234910236512 0 -0.00017505774695506087 -0.0006225996079227545 0 -0.00014900683942891042 0.001107474159020185 0 -4.8464745007305754e-05 0.0024118175295848223 0 0.0001022515920709387 0.0031256674216384775 0 0.00013441019078388051 0.0016683902130428688 0 -1.6045572842582588e-06 0.006603191346195381 0 -0.00050549763746578886 0.0050505432690302523 0 -0.00055871945038749797 0.0063033441767043636 0 -0.00012961741365952938 0.0038347835918388995 0 -4.5088202006373467e-07 0.0034803796430347886 0 -0.00050549763746578886 0.0050505432690302523 0 -1.6045572842582588e-06 0.006603191346195381 0 -4.5088202006373467e-07 0.0034803796430347886 0 -0.00050549763746578886 0.0050505432690302523 0 -0.00012961741365952938 0.0038347835918388995 0 -0.00050549763746578886 0.0050505432690302523 0 -0.00037589207060651907 0.0052488882942610332 0 -0.00050549763746578886 0.0050505432690302523 0 -0.00085529422422773462 0.0058798232509589396 0 -0.00055871945038749797 0.0063033441767043636 0 -0.00085529422422773462 0.0058798232509589396 0 -0.00097968598348495244 0.0058565146021967596 0 -0.00055871945038749797 0.0063033441767043636 0 -0.00085529422422773462 0.0058798232509589396 0 -0.0010217496266966253 0.008248646071733463 0 -0.00097968598348495244 0.0058565146021967596 0 -0.00050549763746578886 0.0050505432690302523 0 -0.00085529422422773462 0.0058798232509589396 0 -0.00037589207060651907 0.0052488882942610332 0 -0.00085529422422773462 0.0058798232509589396 0 -0.00037589207060651907 0.0052488882942610332 0 -0.00037078603490257151 0.0069972312673275919 0 -0.00037589207060651907 0.0052488882942610332 0 -0.00037078603490257151 0.0069972312673275919 0 0.00017274079735824503 0.0051504099876196509 0 -0.0012264169266980227 0.0033353660805191159 0 -0.00090647824172884468 0.0027483565864794982 0 -0.00085529422422773462 0.0058798232509589396 0 -0.00037078603490257151 0.0069972312673275919 0 -0.0010217496266966253 0.008248646071733463 0 -0.00037078603490257151 0.0069972312673275919 0 -0.00018863635704826029 0.0081841327226951175 0 0.00068680106403582201 0.0076088422029088731 0 -0.00037078603490257151 0.0069972312673275919 0 -0.00018863635704826029 0.0081841327226951175 0 -0.0010217496266966253 0.008248646071733463 0 -0.00018863635704826029 0.0081841327226951175 0 -0.0010217496266966253 0.008248646071733463 0 -0.00074405361226677206 0.0089164950344175486 0 -0.0010217496266966253 0.008248646071733463 0 -0.0011004673450031501 0.0094038072167340961 0 -0.0013074929420492493 0.010626771801832085 0 -0.0010217496266966253 0.008248646071733463 0 -0.0011004673450031501 0.0094038072167340961 0 -0.0010336197857227353 0.0092459174406438142 0 -0.00059110048752661478 0.0089768632722019813 0 -0.00066889682820883548 0.008987420633907452 0 0.0031694910681578574 0.0058800385081095568 0 0.0023810526728436231 0.006829319384591955 0 0.00164440706529243 0.0060777095171744627 0 0.0011167597545146952 0.00034351182087080998 0 -0.00014900683942891042 0.001107474159020185 0 0.0013618288812636357 0.0068234862213601265 0 0.0023810526728436231 0.006829319384591955 0 0.00164440706529243 0.0060777095171744627 0 9.4959350103023378e-05 0.0037972032572278023 0 0.00029360439216015276 0.0035874234910236512 0 0.00017274079735824503 0.0051504099876196509 0 -0.00014900683942891042 0.001107474159020185 0 -0.00090647824172884468 0.0027483565864794982 0 -0.00012961741365952938 0.0038347835918388995 0 9.4959350103023378e-05 0.0037972032572278023 0 0.00017274079735824503 0.0051504099876196509 0 -0.00012961741365952938 0.0038347835918388995 0 -0.00037589207060651907 0.0052488882942610332 0 0.00017274079735824503 0.0051504099876196509 0 0.0013618288812636357 0.0068234862213601265 0 0.00164440706529243 0.0060777095171744627 0 0.00060490137329449625 0.0066440872969160802 0 0.0013618288812636357 0.0068234862213601265 0 0.00060490137329449625 0.0066440872969160802 0 0.00068680106403582201 0.0076088422029088731 0 -0.00037078603490257151 0.0069972312673275919 0 0.00060490137329449625 0.0066440872969160802 0 0.00068680106403582201 0.0076088422029088731 0 -0.00018863635704826029 0.0081841327226951175 0 0.00068680106403582201 0.0076088422029088731 0 0.00043976771432961036 0.0084528054823997147 0 0.00068680106403582201 0.0076088422029088731 0 0.0016091948360875718 0.008370724443864214 0 0.00043976771432961036 0.0084528054823997147 0 0.0031794176914750295 0.0077204457809043388 0 0.0018167619863121297 0.0074864506945151819 0 0.0016091948360875718 0.008370724443864214 0 0.00068680106403582201 0.0076088422029088731 0 0.0018167619863121297 0.0074864506945151819 0 0.0016091948360875718 0.008370724443864214 0 0.0013618288812636357 0.0068234862213601265 0 0.00068680106403582201 0.0076088422029088731 0 0.0018167619863121297 0.0074864506945151819 0 0.0013618288812636357 0.0068234862213601265 0 0.0023810526728436231 0.006829319384591955 0 0.0018167619863121297 0.0074864506945151819 0 0.0031794176914750295 0.0077204457809043388 0 0.0016091948360875718 0.008370724443864214 0 0.0021594794445903617 0.0091775882311933201 0 0.0021594794445903617 0.0091775882311933201 0 0.0010756278755255681 0.0099575527852643012 0 0.0008489629119821508 0.0089504824860842606 0 0.0016091948360875718 0.008370724443864214 0 0.0021594794445903617 0.0091775882311933201 0 0.0008489629119821508 0.0089504824860842606 0 0.0053888811896831267 0.0098180796170963761 0 0.0044129138291503596 0.0086811062480632948 0 0.0043835588309498108 0.01071950296002871 0 0.0043817493842467784 0.0087082798602212078 0 0.0026972838744654909 0.01108651804893742 0 0.0025788642945201909 0.010027195067326107 0 0.0044129138291503596 0.0086811062480632948 0 0.0027045543725310031 0.011072132512724825 0 0.0043835588309498108 0.01071950296002871 0 0.0023572459878081469 0.0069419391708008182 0 0.0016650321416963266 0.009537735361742853 0 0.0023572459878081469 0.0069419391708008182 0 0.0015643903369630474 0.008934097247477131 0 0.0027045543725310031 0.011072132512724825 0 0.0043835588309498108 0.01071950296002871 0 0.003625671513877621 0.011892659852266852 0 0.0053421161111429725 0.011179893637988257 0 0.0043835588309498108 0.01071950296002871 0 0.004654677103273705 0.01193972518409506 0 1.4621392174264103e-05 0.010726698948245517 0 0.0010756278755255681 0.0099575527852643012 0 0.0008489629119821508 0.0089504824860842606 0 0.00096417044717933456 0.01051186213785045 0 0.0010455823754293161 0.0099308641172853231 0 -0.00010991451871018648 0.0098262475345921169 0 1.6457382291745737e-05 0.009325594141535179 0 0.0008489629119821508 0.0089504824860842606 0 0.0026972838744654909 0.01108651804893742 0 0.00076176691490309684 0.011347753332863104 0 0.0025788642945201909 0.010027195067326107 0 0.00096417044717933456 0.01051186213785045 0 0.0015643903369630474 0.008934097247477131 0 1.6457382291745737e-05 0.009325594141535179 0 0.00015954772116896182 0.0089375694709592692 0 0.0008489629119821508 0.0089504824860842606 0 0.0016091948360875718 0.008370724443864214 0 0.0008489629119821508 0.0089504824860842606 0 0.00043976771432961036 0.0084528054823997147 0 0.00015954772116896182 0.0089375694709592692 0 0.0008489629119821508 0.0089504824860842606 0 0.00043976771432961036 0.0084528054823997147 0 0.00015954772116896182 0.0089375694709592692 0 0.00043976771432961036 0.0084528054823997147 0 -0.00010513065532043568 0.0087237196649638041 0 -0.00018863635704826029 0.0081841327226951175 0 -0.00010513065532043568 0.0087237196649638041 0 -0.00074405361226677206 0.0089164950344175486 0 -0.00010513065532043568 0.0087237196649638041 0 -0.00074405361226677206 0.0089164950344175486 0 -0.00031942481672611459 0.0091484450749060742 0 -0.00018863635704826029 0.0081841327226951175 0 0.00043976771432961036 0.0084528054823997147 0 -0.00010513065532043568 0.0087237196649638041 0 -0.00074405361226677206 0.0089164950344175486 0 -0.00031942481672611459 0.0091484450749060742 0 -0.00067421611860486274 0.0093849781345702668 0 0.00015954772116896182 0.0089375694709592692 0 -0.00010513065532043568 0.0087237196649638041 0 -0.00031942481672611459 0.0091484450749060742 0 1.6457382291745737e-05 0.009325594141535179 0 0.00015954772116896182 0.0089375694709592692 0 -0.00031942481672611459 0.0091484450749060742 0 -0.00074405361226677206 0.0089164950344175486 0 -0.0010336197857227353 0.0092459174406438142 0 -0.00086312252063203707 0.0092685428266712725 0 -0.0010217496266966253 0.008248646071733463 0 -0.00074405361226677206 0.0089164950344175486 0 -0.0010336197857227353 0.0092459174406438142 0 -0.00074405361226677206 0.0089164950344175486 0 -0.00086312252063203707 0.0092685428266712725 0 -0.00067421611860486274 0.0093849781345702668 0 -0.0010336197857227353 0.0092459174406438142 0 -0.00090126464467125045 0.0094646449146423717 0 -0.00096361944642918548 0.0095427934001177314 0 -0.0010336197857227353 0.0092459174406438142 0 -0.00086312252063203707 0.0092685428266712725 0 -0.00090126464467125045 0.0094646449146423717 0 -0.00090126464467125045 0.0094646449146423717 0 -0.00065377511349291124 0.0096444608011763463 0 -0.00077131773985800948 0.0096946178207691185 0 -0.00086312252063203707 0.0092685428266712725 0 -0.00090126464467125045 0.0094646449146423717 0 -0.00067421611860486274 0.0093849781345702668 0 -0.00090126464467125045 0.0094646449146423717 0 -0.00065377511349291124 0.0096444608011763463 0 -0.00067421611860486274 0.0093849781345702668 0 1.6457382291745737e-05 0.009325594141535179 0 -0.00031942481672611459 0.0091484450749060742 0 -0.00038044974012252933 0.0096081832032031984 0 -0.00031942481672611459 0.0091484450749060742 0 -0.00067421611860486274 0.0093849781345702668 0 -0.00038044974012252933 0.0096081832032031984 0 -0.00065377511349291124 0.0096444608011763463 0 -0.00038044974012252933 0.0096081832032031984 0 -0.00049046592296822153 0.0097161672221206911 0 -0.00065377511349291124 0.0096444608011763463 0 -0.00067421611860486274 0.0093849781345702668 0 -0.00038044974012252933 0.0096081832032031984 0 -0.00038044974012252933 0.0096081832032031984 0 -0.00036214080039627362 0.0098110214543930974 0 -0.00049046592296822153 0.0097161672221206911 0 -0.00010991451871018648 0.0098262475345921169 0 -0.00038044974012252933 0.0096081832032031984 0 -0.00036214080039627362 0.0098110214543930974 0 -0.00010991451871018648 0.0098262475345921169 0 1.6457382291745737e-05 0.009325594141535179 0 -0.00038044974012252933 0.0096081832032031984 0 0.00096417044717933456 0.01051186213785045 0 0.00092374457413248645 0.010512959981614585 0 0.00096417044717933456 0.01051186213785045 0 0.00088540093814601871 0.013906636460776875 0 0.00076176691490309684 0.011347753332863104 0 -0.00042156213971586756 0.013862455988818483 0 0.00099832696895018019 0.013482505159873802 0 -0.0002962451077182731 0.0097994848028771821 0 -0.00036214080039627362 0.0098110214543930974 0 -0.00049201565855575523 0.0098603814149329973 0 -0.00036214080039627362 0.0098110214543930974 0 -0.00049046592296822153 0.0097161672221206911 0 -0.00055950498255975573 0.009788564746666728 0 -0.00065377511349291124 0.0096444608011763463 0 -0.00049046592296822153 0.0097161672221206911 0 -0.00055950498255975573 0.009788564746666728 0 -0.00036214080039627362 0.0098110214543930974 0 -0.00055950498255975573 0.009788564746666728 0 -0.00049201565855575523 0.0098603814149329973 0 -0.00065377511349291124 0.0096444608011763463 0 -0.00055950498255975573 0.009788564746666728 0 -0.00077131773985800948 0.0096946178207691185 0 -0.00055950498255975573 0.009788564746666728 0 -0.00077131773985800948 0.0096946178207691185 0 -0.0006421804140929366 0.0098526092431645701 0 -0.00077131773985800948 0.0096946178207691185 0 -0.0006421804140929366 0.0098526092431645701 0 -0.00075214283254418867 0.0097967707784546824 0 -0.0006421804140929366 0.0098526092431645701 0 -0.00059287244193386877 0.0099704890634173919 0 -0.00068249482892624011 0.0099547905132607323 0 -0.0006421804140929366 0.0098526092431645701 0 -0.00075214283254418867 0.0097967707784546824 0 -0.00068249482892624011 0.0099547905132607323 0 -0.00042156213971586756 0.013862455988818483 0 -0.00033680525895121873 0.01523670977479552 0 -0.0016117696612286446 0.016390540580812161 0 0.00088540093814601871 0.013906636460776875 0 0.00053152901671831227 0.019530088206809786 0 -0.0006421804140929366 0.0098526092431645701 0 -0.00049201565855575523 0.0098603814149329973 0 -0.00059287244193386877 0.0099704890634173919 0 -0.00042156213971586756 0.013862455988818483 0 0.00016910300983228932 0.014616571087997863 0 0.00099832696895018019 0.013482505159873802 0 -0.00042156213971586756 0.013862455988818483 0 0.00016910300983228932 0.014616571087997863 0 -0.00033680525895121873 0.01523670977479552 0 -0.00055950498255975573 0.009788564746666728 0 -0.0006421804140929366 0.0098526092431645701 0 -0.00049201565855575523 0.0098603814149329973 0 -0.00033680525895121873 0.01523670977479552 0 0.00042448867352300722 0.015547468082951288 0 -0.0016117696612286446 0.016390540580812161 0 0.00016910300983228932 0.014616571087997863 0 0.00042448867352300722 0.015547468082951288 0 0.00094555773442046875 0.014838695272926054 0 0.00016910300983228932 0.014616571087997863 0 -0.00033680525895121873 0.01523670977479552 0 0.00042448867352300722 0.015547468082951288 0 0.00042448867352300722 0.015547468082951288 0 0.00094555773442046875 0.014838695272926054 0 0.0017846981310335446 0.015111485284929236 0 0.0017846981310335446 0.015111485284929236 0 0.0040579106824888619 0.015058010034844907 0 0.0011132132500590729 0.016279285983897718 0 0.00042448867352300722 0.015547468082951288 0 0.0017846981310335446 0.015111485284929236 0 0.0011132132500590729 0.016279285983897718 0 0.00094555773442046875 0.014838695272926054 0 0.0017246401864290004 0.014310544229091853 0 0.0017846981310335446 0.015111485284929236 0 0.00094555773442046875 0.014838695272926054 0 0.0017246401864290004 0.014310544229091853 0 0.00099832696895018019 0.013482505159873802 0 0.00016910300983228932 0.014616571087997863 0 0.00094555773442046875 0.014838695272926054 0 0.00099832696895018019 0.013482505159873802 0 0.0023612687920485619 0.013582382606561371 0 0.0017246401864290004 0.014310544229091853 0 0.00099832696895018019 0.013482505159873802 0 0.0017246401864290004 0.014310544229091853 0 0.0025332806116702597 0.014537137828615784 0 0.0017846981310335446 0.015111485284929236 0 0.0023612687920485619 0.013582382606561371 0 0.0017246401864290004 0.014310544229091853 0 0.0025332806116702597 0.014537137828615784 0 0.0025332806116702597 0.014537137828615784 0 0.0017846981310335446 0.015111485284929236 0 0.0040579106824888619 0.015058010034844907 0 0.0040579106824888619 0.015058010034844907 0 0.0048496795325392271 0.014087548159232223 0 0.0031144580758730809 0.017795860384273221 0 0.0040579106824888619 0.015058010034844907 0 0.0048496795325392271 0.014087548159232223 0 0.003991615566454703 0.013789612205654585 0 0.0048496795325392271 0.014087548159232223 0 0.003991615566454703 0.013789612205654585 0 0.0040903182729414064 0.012951394166091146 0 0.0040579106824888619 0.015058010034844907 0 0.003991615566454703 0.013789612205654585 0 0.0032193876850251683 0.01401253303299029 0 0.0025332806116702597 0.014537137828615784 0 0.0040579106824888619 0.015058010034844907 0 0.0032193876850251683 0.01401253303299029 0 0.003991615566454703 0.013789612205654585 0 0.0032193876850251683 0.01401253303299029 0 0.0033003060148332148 0.013064431650908407 0 0.0023612687920485619 0.013582382606561371 0 0.0025332806116702597 0.014537137828615784 0 0.0032193876850251683 0.01401253303299029 0 0.0023612687920485619 0.013582382606561371 0 0.0033003060148332148 0.013064431650908407 0 0.0025979610842218953 0.012618745136541083 0 0.0023612687920485619 0.013582382606561371 0 0.0032193876850251683 0.01401253303299029 0 0.0033003060148332148 0.013064431650908407 0 0.0033003060148332148 0.013064431650908407 0 0.0040903182729414064 0.012951394166091146 0 0.003625671513877621 0.011892659852266852 0 0.0033003060148332148 0.013064431650908407 0 0.003625671513877621 0.011892659852266852 0 0.0025979610842218953 0.012618745136541083 0 0.0048496795325392271 0.014087548159232223 0 0.0040903182729414064 0.012951394166091146 0 0.004654677103273705 0.01193972518409506 0 0.003991615566454703 0.013789612205654585 0 0.0033003060148332148 0.013064431650908407 0 0.0040903182729414064 0.012951394166091146 0 0.0043835588309498108 0.01071950296002871 0 0.004654677103273705 0.01193972518409506 0 0.003625671513877621 0.011892659852266852 0 0.0040903182729414064 0.012951394166091146 0 0.004654677103273705 0.01193972518409506 0 0.003625671513877621 0.011892659852266852 0 0.0027045543725310031 0.011072132512724825 0 0.003625671513877621 0.011892659852266852 0 0.0025979610842218953 0.012618745136541083 0 0.0016650321416963266 0.009537735361742853 0 0.0011533704237676006 0.010735533518665255 0 0.0026972838744654909 0.01108651804893742 0 0.00076176691490309684 0.011347753332863104 0 0.00099832696895018019 0.013482505159873802 0 0.0027045543725310031 0.011072132512724825 0 0.00099832696895018019 0.013482505159873802 0 0.0025979610842218953 0.012618745136541083 0 0.0023612687920485619 0.013582382606561371 0 0.00099832696895018019 0.013482505159873802 0 0.0025979610842218953 0.012618745136541083 0 0.0023191043592192375 0.029367802674974405 0 0.0028818706971754557 0.029281010836047824 0 0.0023669319984481606 0.028948476266974769 0 0.0023191043592192375 0.029367802674974405 0 0.0026668887002455669 0.029791230287141316 0 0.0028818706971754557 0.029281010836047824 0 0.0019901588874838227 0.02702295490622119 0 0.0023144847472108942 0.02794724334483174 0 0.0025318585525135051 0.030235004431771892 0 0.0018235186894208562 0.030103724462810493 0 0.0020111198756690733 0.03051404681443691 0 0.002292632530414708 0.02966856322832551 0 0.0027423707861373649 0.030275956248154726 0 0.0018235186894208562 0.030103724462810493 0 0.0025199492485270484 0.028614444676904997 0 0.0019901588874838227 0.02702295490622119 0 0.0026668887002455669 0.029791230287141316 0 0.0028818706971754557 0.029281010836047824 0 0.0030683946447261834 0.029854335645236426 0 -0.00080734327969267893 0.0096709496282054684 0 -0.00076236430584528635 0.0095615263778178229 0 -0.00086290610726242646 0.0098530126129960094 0 0.0019901588874838227 0.02702295490622119 0 -1.0914830471512704e-05 0.023417757517644109 0 0.00045109665132796688 0.020295522874264876 0 -1.0914830471512704e-05 0.023417757517644109 0 -0.00075214283254418867 0.0097967707784546824 0 -0.00068249482892624011 0.0099547905132607323 0 -0.00086290610726242646 0.0098530126129960094 0 -0.00075214283254418867 0.0097967707784546824 0 -0.00080734327969267893 0.0096709496282054684 0 -0.00086290610726242646 0.0098530126129960094 0 -0.00077131773985800948 0.0096946178207691185 0 -0.00080734327969267893 0.0096709496282054684 0 -0.00087008545514650115 0.0095764223013054504 0 -0.00077131773985800948 0.0096946178207691185 0 -0.00075214283254418867 0.0097967707784546824 0 -0.00080734327969267893 0.0096709496282054684 0 -0.00080734327969267893 0.0096709496282054684 0 -0.00076236430584528635 0.0095615263778178229 0 -0.00087008545514650115 0.0095764223013054504 0 -0.00076236430584528635 0.0095615263778178229 0 -0.00087008545514650115 0.0095764223013054504 0 -0.00071323133674880976 0.0097624233900384903 0 -0.00090126464467125045 0.0094646449146423717 0 -0.00087008545514650115 0.0095764223013054504 0 -0.00096361944642918548 0.0095427934001177314 0 -0.00090126464467125045 0.0094646449146423717 0 -0.00077131773985800948 0.0096946178207691185 0 -0.00087008545514650115 0.0095764223013054504 0 -0.00096361944642918548 0.0095427934001177314 0 -0.00071323133674880976 0.0097624233900384903 0 -0.00091322555664708285 0.010013640432670921 0 -0.00087008545514650115 0.0095764223013054504 0 -0.00096361944642918548 0.0095427934001177314 0 -0.00071323133674880976 0.0097624233900384903 0 -0.0011004673450031501 0.0094038072167340961 0 -0.0010336197857227353 0.0092459174406438142 0 -0.00096361944642918548 0.0095427934001177314 0 -0.00071323133674880976 0.0097624233900384903 0 -0.00027303325427609822 0.0097871324606595596 0 -0.00035907145208087282 0.010504650034569693 0 0.0028818706971754557 0.029281010836047824 0 0.0027166344855733627 0.028557586962919893 0 0.0023669319984481606 0.028948476266974769 0 0.00045109665132796688 0.020295522874264876 0 0.0011102597270897826 0.01950530939284599 0 -0.00076236430584528635 0.0095615263778178229 0 -0.00071323133674880976 0.0097624233900384903 0 -0.00027303325427609822 0.0097871324606595596 0 0.0023191043592192375 0.029367802674974405 0 0.0023669319984481606 0.028948476266974769 0 0.0018498452149920284 0.028942999332614929 0 0.0025199492485270484 0.028614444676904997 0 0.0024207156502418594 0.028731427080359376 0 0.0023669319984481606 0.028948476266974769 0 0.0021671579316606868 0.028601819354790132 0 0.0018498452149920284 0.028942999332614929 0 0.0027166344855733627 0.028557586962919893 0 0.0023669319984481606 0.028948476266974769 0 0.0021671579316606868 0.028601819354790132 0 0.0027166344855733627 0.028557586962919893 0 0.0021671579316606868 0.028601819354790132 0 0.0021935329803652167 0.028157192083767005 0 0.0021671579316606868 0.028601819354790132 0 0.0021935329803652167 0.028157192083767005 0 0.0017718528551640138 0.028352391109846758 0 0.0021935329803652167 0.028157192083767005 0 0.0024560761311242388 0.027576476617193122 0 0.0018437082241215339 0.027741607111871982 0 0.0027166344855733627 0.028557586962919893 0 0.0021935329803652167 0.028157192083767005 0 0.0024560761311242388 0.027576476617193122 0 0.0018520953534415232 0.01943303647273464 0 0.0019184607513910432 0.019493219835319032 0 -0.00027303325427609822 0.0097871324606595596 0 0.00011409251130410427 0.011173194615272684 0 -0.00035907145208087282 0.010504650034569693 0 -0.00027303325427609822 0.0097871324606595596 0 0.00011409251130410427 0.011173194615272684 0 0.0002718305602547853 0.011248578415729012 0 0.0011102597270897826 0.01950530939284599 0 0.0019184607513910432 0.019493219835319032 0 -0.00035907145208087282 0.010504650034569693 0 -0.00035625232574769189 0.010853913702962801 0 -0.0001674698645113743 0.011131623847408059 0 -0.00035907145208087282 0.010504650034569693 0 -0.00035625232574769189 0.010853913702962801 0 -0.00056117899785166649 0.0104734972661396 0 0.00011409251130410427 0.011173194615272684 0 -0.00035907145208087282 0.010504650034569693 0 -0.0001674698645113743 0.011131623847408059 0 0.00011409251130410427 0.011173194615272684 0 -0.0001674698645113743 0.011131623847408059 0 2.2026163139295051e-05 0.011572379359618919 0 -0.0001674698645113743 0.011131623847408059 0 -0.00012221043068889474 0.011666534537346063 0 2.2026163139295051e-05 0.011572379359618919 0 -0.0001674698645113743 0.011131623847408059 0 -0.00012221043068889474 0.011666534537346063 0 -0.00025056142313032061 0.011334690045508661 0 -0.00012221043068889474 0.011666534537346063 0 -2.1678235130933626e-05 0.012037242407840701 0 2.2026163139295051e-05 0.011572379359618919 0 -0.00025056142313032061 0.011334690045508661 0 -0.00021960059448083985 0.011760830150064943 0 -0.00043026395257915673 0.011019588441345275 0 -0.00035625232574769189 0.010853913702962801 0 -0.00025056142313032061 0.011334690045508661 0 -0.00043026395257915673 0.011019588441345275 0 -0.00035625232574769189 0.010853913702962801 0 -0.0001674698645113743 0.011131623847408059 0 -0.00025056142313032061 0.011334690045508661 0 -0.00012221043068889474 0.011666534537346063 0 -0.00025056142313032061 0.011334690045508661 0 -0.00021960059448083985 0.011760830150064943 0 -0.00012221043068889474 0.011666534537346063 0 -0.00021960059448083985 0.011760830150064943 0 -0.00011222300989592545 0.012014401426899976 0 -0.00012221043068889474 0.011666534537346063 0 -0.00011222300989592545 0.012014401426899976 0 -2.1678235130933626e-05 0.012037242407840701 0 0.0019184607513910432 0.019493219835319032 0 0.00072933997901729851 0.020574677587199299 0 -2.1678235130933626e-05 0.012037242407840701 0 7.8408649871726459e-05 0.011779097010491681 0 -5.4838388501567809e-05 0.012579066573014852 0 -0.00011222300989592545 0.012014401426899976 0 -2.1678235130933626e-05 0.012037242407840701 0 -8.834006649994254e-05 0.012360401816538814 0 -2.1678235130933626e-05 0.012037242407840701 0 -5.4838388501567809e-05 0.012579066573014852 0 -8.834006649994254e-05 0.012360401816538814 0 7.8408649871726459e-05 0.011779097010491681 0 8.9465620304916778e-05 0.011631871041441394 0 0.00013123624296192157 0.012929408495720596 0 7.8408649871726459e-05 0.011779097010491681 0 -5.4838388501567809e-05 0.012579066573014852 0 0.00013123624296192157 0.012929408495720596 0 0.00011409251130410427 0.011173194615272684 0 2.2026163139295051e-05 0.011572379359618919 0 0.00017253161680040911 0.011419532308828875 0 7.8408649871726459e-05 0.011779097010491681 0 2.2026163139295051e-05 0.011572379359618919 0 0.00017253161680040911 0.011419532308828875 0 0.0018744430312120602 0.019363826656843261 0 0.0019184607513910432 0.019493219835319032 0 -2.1678235130933626e-05 0.012037242407840701 0 7.8408649871726459e-05 0.011779097010491681 0 2.2026163139295051e-05 0.011572379359618919 0 -0.0011004673450031501 0.0094038072167340961 0 -0.00091322555664708285 0.010013640432670921 0 -0.0013074929420492493 0.010626771801832085 0 -0.0011004673450031501 0.0094038072167340961 0 -0.00096361944642918548 0.0095427934001177314 0 -0.00091322555664708285 0.010013640432670921 0 -0.00071323133674880976 0.0097624233900384903 0 -0.00035907145208087282 0.010504650034569693 0 -0.00056117899785166649 0.0104734972661396 0 -0.00071323133674880976 0.0097624233900384903 0 -0.00091322555664708285 0.010013640432670921 0 -0.00056117899785166649 0.0104734972661396 0 -0.00091322555664708285 0.010013640432670921 0 -0.00056117899785166649 0.0104734972661396 0 -0.0006106354213325434 0.011019546281351851 0 -0.00035625232574769189 0.010853913702962801 0 -0.00056117899785166649 0.0104734972661396 0 -0.00043026395257915673 0.011019588441345275 0 -0.00056117899785166649 0.0104734972661396 0 -0.00043026395257915673 0.011019588441345275 0 -0.0006106354213325434 0.011019546281351851 0 -0.00021960059448083985 0.011760830150064943 0 -0.00043026395257915673 0.011019588441345275 0 -0.0006106354213325434 0.011019546281351851 0 -0.0006106354213325434 0.011019546281351851 0 -0.0013074929420492493 0.010626771801832085 0 -0.00041498906803072498 0.012041170310155501 0 -0.00091322555664708285 0.010013640432670921 0 -0.0006106354213325434 0.011019546281351851 0 -0.0013074929420492493 0.010626771801832085 0 -0.00097968598348495244 0.0058565146021967596 0 -0.00055871945038749797 0.0063033441767043636 0 0.00013719829288812046 0.0071593995076363517 0 -0.00066889682820883548 0.008987420633907452 0 -0.00056607629820972709 0.0093190220117982669 0 -0.00021960059448083985 0.011760830150064943 0 -0.0006106354213325434 0.011019546281351851 0 -0.00041498906803072498 0.012041170310155501 0 -0.00055871945038749797 0.0063033441767043636 0 0.00013719829288812046 0.0071593995076363517 0 7.2645704306366742e-07 0.009726860404463725 0 -0.00056607629820972709 0.0093190220117982669 0 -0.00046268489232924602 0.0096187425613697038 0 0.00013719829288812046 0.0071593995076363517 0 7.2645704306366742e-07 0.009726860404463725 0 6.2987694680449217e-05 0.011275988831428942 0 -1.6045572842582588e-06 0.006603191346195381 0 -0.00055871945038749797 0.0063033441767043636 0 7.2645704306366742e-07 0.009726860404463725 0 -0.00015281726802061666 0.012715325387508882 0 -0.00015359417597865426 0.012459184797732791 0 -0.00015830698558424978 0.013728405123487568 0 -0.00015281726802061666 0.012715325387508882 0 -0.00013807967600552848 0.012286485771566888 0 -0.00015359417597865426 0.012459184797732791 0 -0.00015281726802061666 0.012715325387508882 0 -5.4838388501567809e-05 0.012579066573014852 0 -0.00015830698558424978 0.013728405123487568 0 -0.00015281726802061666 0.012715325387508882 0 -8.834006649994254e-05 0.012360401816538814 0 -0.00013807967600552848 0.012286485771566888 0 -0.00011222300989592545 0.012014401426899976 0 -8.834006649994254e-05 0.012360401816538814 0 -0.00013807967600552848 0.012286485771566888 0 -0.00015281726802061666 0.012715325387508882 0 -5.4838388501567809e-05 0.012579066573014852 0 -8.834006649994254e-05 0.012360401816538814 0 -0.00021960059448083985 0.011760830150064943 0 -0.00013807967600552848 0.012286485771566888 0 -0.00016907520639287857 0.012119903820811399 0 -0.00021960059448083985 0.011760830150064943 0 -0.00041498906803072498 0.012041170310155501 0 -0.00016907520639287857 0.012119903820811399 0 -0.00021960059448083985 0.011760830150064943 0 -0.00011222300989592545 0.012014401426899976 0 -0.00013807967600552848 0.012286485771566888 0 -0.00013807967600552848 0.012286485771566888 0 -0.00016907520639287857 0.012119903820811399 0 -0.00015359417597865426 0.012459184797732791 0 -0.00016907520639287857 0.012119903820811399 0 6.2987694680449217e-05 0.011275988831428942 0 -0.00015359417597865426 0.012459184797732791 0 -0.00041498906803072498 0.012041170310155501 0 -0.00016907520639287857 0.012119903820811399 0 6.2987694680449217e-05 0.011275988831428942 0 7.2645704306366742e-07 0.009726860404463725 0 6.2987694680449217e-05 0.011275988831428942 0 -3.8579390785195521e-07 0.012851555931593464 0 6.2987694680449217e-05 0.011275988831428942 0 -3.8579390785195521e-07 0.012851555931593464 0 -0.00015359417597865426 0.012459184797732791 0 -3.8579390785195521e-07 0.012851555931593464 0 -0.00015359417597865426 0.012459184797732791 0 -0.00015830698558424978 0.013728405123487568 0 -3.8579390785195521e-07 0.012851555931593464 0 -0.00015830698558424978 0.013728405123487568 0 -8.05379916961117e-07 0.015975402407574928 0 -5.4838388501567809e-05 0.012579066573014852 0 -0.00015830698558424978 0.013728405123487568 0 0.00013123624296192157 0.012929408495720596 0 -0.00015830698558424978 0.013728405123487568 0 0.00057971912271253406 0.014616358956688823 0 0.00013123624296192157 0.012929408495720596 0 0.00046772815317304412 0.022410828419645173 0 0.00072933997901729851 0.020574677587199299 0 -0.00015830698558424978 0.013728405123487568 0 -8.05379916961117e-07 0.015975402407574928 0 0.00057971912271253406 0.014616358956688823 0 -8.05379916961117e-07 0.015975402407574928 0 2.9046217316725919e-06 0.019093828049494187 0 0.00057971912271253406 0.014616358956688823 0 -1.0416337211357041e-06 0.019100650434518647 0 0.00046772815317304412 0.022410828419645173 0 7.8486207406652126e-07 0.019101668824309487 0 -7.7719970091063102e-06 0.020144179178800743 0 0.0022369020816913185 0.022417045692833242 0 0.0008933681392137516 0.02398835143410967 0 0.00044500000782031707 0.023516824921248621 0 -0.00011688329541685791 0.020359476617665413 0 7.8486207406652126e-07 0.019101668824309487 0 -7.8325395031268328e-07 0.021205862586648458 0 -0.00011688329541685791 0.020359476617665413 0 -9.3933131281524494e-05 0.02019215085810629 0 1.0737614628959342e-06 0.020840632369295741 0 -0.00011688329541685791 0.020359476617665413 0 7.8486207406652126e-07 0.019101668824309487 0 -7.7719970091063102e-06 0.020144179178800743 0 0.00092868329670874191 0.023596175437794745 0 0.0008933681392137516 0.02398835143410967 0 -0.00011688329541685791 0.020359476617665413 0 -7.7719970091063102e-06 0.020144179178800743 0 -9.3933131281524494e-05 0.02019215085810629 0 0.0041430581620947446 0.025996778549714127 0 0.0033666155730846586 0.028529569983359655 0 0.0025448295811043523 0.02703766037661914 0 0.0008933681392137516 0.02398835143410967 0 0.00087019332870693559 0.027344210812946457 0 -7.7719970091063102e-06 0.020144179178800743 0 -0.0002656100640850438 0.021291164087261772 0 0.0022369020816913185 0.022417045692833242 0 0.0008933681392137516 0.02398835143410967 0 0.00046772815317304412 0.022410828419645173 0 -4.540399028914439e-06 0.026273975513600476 0 0.00074819472962711078 0.026629431123356546 0 0.0005035849927579742 0.0273531901995735 0 -4.540399028914439e-06 0.026273975513600476 0 0.0005035849927579742 0.0273531901995735 0 -0.00026207114007404801 0.027407136870913701 0 -0.00026207114007404801 0.027407136870913701 0 8.697256860499453e-05 0.028059542618042138 0 -0.00051613244762428506 0.028528327593767763 0 0.00087019332870693559 0.027344210812946457 0 0.00067577700142000443 0.02885813948356258 0 0.0005035849927579742 0.0273531901995735 0 -0.00026207114007404801 0.027407136870913701 0 8.697256860499453e-05 0.028059542618042138 0 0.0005035849927579742 0.0273531901995735 0 8.697256860499453e-05 0.028059542618042138 0 0.00068921507314249452 0.028100392720757029 0 0.00068921507314249452 0.028100392720757029 0 0.0012548985145229082 0.028142678485930786 0 0.0012777412765019867 0.027496830867938075 0 0.0005035849927579742 0.0273531901995735 0 0.00068921507314249452 0.028100392720757029 0 0.0012777412765019867 0.027496830867938075 0 0.0017233084798115312 0.026060984076699545 0 0.0020226295511595054 0.027004681410809826 0 0.0021935329803652167 0.028157192083767005 0 0.0018437082241215339 0.027741607111871982 0 0.0017718528551640138 0.028352391109846758 0 0.0012548985145229082 0.028142678485930786 0 0.0012777412765019867 0.027496830867938075 0 0.0017718528551640138 0.028352391109846758 0 0.0018437082241215339 0.027741607111871982 0 0.0012216802136016851 0.027546896134662151 0 0.0017718528551640138 0.028352391109846758 0 0.0024560761311242388 0.027576476617193122 0 0.0018437082241215339 0.027741607111871982 0 0.0016067749467101344 0.027125361775307583 0 0.0018437082241215339 0.027741607111871982 0 0.0016067749467101344 0.027125361775307583 0 0.0012216802136016851 0.027546896134662151 0 0.00074819472962711078 0.026629431123356546 0 0.0005035849927579742 0.0273531901995735 0 0.0012777412765019867 0.027496830867938075 0 0.00067840705332071808 0.026663730070349202 0 0.0016067749467101344 0.027125361775307583 0 0.0012216802136016851 0.027546896134662151 0 0.00046772815317304412 0.022410828419645173 0 0.0017233084798115312 0.026060984076699545 0 -0.00071918728874688039 0.02734580166598008 0 -0.00099283667274785046 0.028097554685061261 0 -0.0011259322564730547 0.02854432834146696 0 -0.00070936640877979171 0.027797531753433677 0 -0.00099283667274785046 0.028097554685061261 0 -0.0010851504441826171 0.028401699862986175 0 -0.00070936640877979171 0.027797531753433677 0 -0.00071918728874688039 0.02734580166598008 0 -0.00099283667274785046 0.028097554685061261 0 -0.0002549478206665885 0.028563695507998473 0 -0.0004187952881380615 0.029188827096497845 0 -1.8694677947170285e-06 0.02619109610841738 0 -0.0002360939341546497 0.025831631852164666 0 -1.4035474666909262e-05 0.028140515966161669 0 -0.00071918728874688039 0.02734580166598008 0 -0.0002360939341546497 0.025831631852164666 0 -0.0011259322564730547 0.02854432834146696 0 -1.8694677947170285e-06 0.02619109610841738 0 -0.0002360939341546497 0.025831631852164666 0 3.280151615735277e-06 0.023319147807160913 0 -0.0002360939341546497 0.025831631852164666 0 -8.5851069320040148e-05 0.026840431379872663 0 0.00041274772066274057 0.025624937811292131 0 -0.00071918728874688039 0.02734580166598008 0 -0.0002360939341546497 0.025831631852164666 0 -8.5851069320040148e-05 0.026840431379872663 0 -0.00070936640877979171 0.027797531753433677 0 -0.00071918728874688039 0.02734580166598008 0 -8.5851069320040148e-05 0.026840431379872663 0 -0.00070936640877979171 0.027797531753433677 0 -8.5851069320040148e-05 0.026840431379872663 0 -0.00013913551906096712 0.027795900232342807 0 -8.5851069320040148e-05 0.026840431379872663 0 0.00092522681158194978 0.027093846867600913 0 -0.00013913551906096712 0.027795900232342807 0 0.00092522681158194978 0.027093846867600913 0 0.00041274772066274057 0.025624937811292131 0 0.0025614609926866822 0.025082206145446553 0 -8.5851069320040148e-05 0.026840431379872663 0 0.00092522681158194978 0.027093846867600913 0 0.00041274772066274057 0.025624937811292131 0 -0.0002360939341546497 0.025831631852164666 0 3.280151615735277e-06 0.023319147807160913 0 0.00041274772066274057 0.025624937811292131 0 3.280151615735277e-06 0.023319147807160913 0 0.00041274772066274057 0.025624937811292131 0 0.0025614609926866822 0.025082206145446553 0 1.1466109598437181e-07 0.023314065995855341 0 0.00044500000782031707 0.023516824921248621 0 7.7962127544910387e-07 0.023313093055837949 0 -7.8325395031268328e-07 0.021205862586648458 0 1.0737614628959342e-06 0.020840632369295741 0 -0.00011688329541685791 0.020359476617665413 0 -7.8325395031268328e-07 0.021205862586648458 0 1.0737614628959342e-06 0.020840632369295741 0 0.0041430581620947446 0.025996778549714127 0 0.0025614609926866822 0.025082206145446553 0 0.0025448295811043523 0.02703766037661914 0 0.00092522681158194978 0.027093846867600913 0 0.0025614609926866822 0.025082206145446553 0 0.0025448295811043523 0.02703766037661914 0 0.00092522681158194978 0.027093846867600913 0 0.0025448295811043523 0.02703766037661914 0 0.0015121598324580288 0.028333700971908096 0 0.0033666155730846586 0.028529569983359655 0 0.0025448295811043523 0.02703766037661914 0 0.0015121598324580288 0.028333700971908096 0 0.0033666155730846586 0.028529569983359655 0 0.0012812698789733377 0.030183486813280064 0 0.0027552455349092821 0.030779839697904078 0 0.0033666155730846586 0.028529569983359655 0 0.0015121598324580288 0.028333700971908096 0 0.0012812698789733377 0.030183486813280064 0 0.00059090907103101823 0.029178038775768717 0 0.00074117785093083153 0.029160178123901669 0 0.00052167024043720661 0.02891164697598925 0 -8.6642196016948077e-05 0.029400906622449659 0 0.0012812698789733377 0.030183486813280064 0 0.00052167024043720661 0.02891164697598925 0 0.0015121598324580288 0.028333700971908096 0 0.0012812698789733377 0.030183486813280064 0 0.00052167024043720661 0.02891164697598925 0 0.00048991343488908982 0.028149389554140532 0 -0.00020074297343178557 0.028516260947654089 0 0.00052167024043720661 0.02891164697598925 0 0.0015121598324580288 0.028333700971908096 0 0.00048991343488908982 0.028149389554140532 0 0.00092522681158194978 0.027093846867600913 0 0.0015121598324580288 0.028333700971908096 0 0.00048991343488908982 0.028149389554140532 0 0.00092522681158194978 0.027093846867600913 0 0.00048991343488908982 0.028149389554140532 0 -0.00013913551906096712 0.027795900232342807 0 -0.00070936640877979171 0.027797531753433677 0 -0.00013913551906096712 0.027795900232342807 0 -0.00083280812880393766 0.028369823055364118 0 -0.00013913551906096712 0.027795900232342807 0 -0.00020074297343178557 0.028516260947654089 0 -0.00083280812880393766 0.028369823055364118 0 0.00048991343488908982 0.028149389554140532 0 -0.00013913551906096712 0.027795900232342807 0 -0.00020074297343178557 0.028516260947654089 0 0.00052167024043720661 0.02891164697598925 0 -0.00020074297343178557 0.028516260947654089 0 -8.6642196016948077e-05 0.029400906622449659 0 -8.6642196016948077e-05 0.029400906622449659 0 -0.00063622037196251261 0.029414587042337261 0 -0.00033029557329724229 0.029592139107803526 0 -0.00034256459787218428 0.028813207302290426 0 -0.00053918235851742476 0.029031533403888223 0 -0.00020074297343178557 0.028516260947654089 0 -8.6642196016948077e-05 0.029400906622449659 0 -0.00063622037196251261 0.029414587042337261 0 -0.00084218652030537027 0.028644608065262957 0 -0.00092764207023882659 0.028495235385615349 0 -0.00095317452513176781 0.028499804348129983 0 -0.00084218652030537027 0.028644608065262957 0 -0.00092764207023882659 0.028495235385615349 0 -0.00083280812880393766 0.028369823055364118 0 -0.00020074297343178557 0.028516260947654089 0 -0.00084218652030537027 0.028644608065262957 0 -0.00083280812880393766 0.028369823055364118 0 -0.00092764207023882659 0.028495235385615349 0 -0.00083280812880393766 0.028369823055364118 0 -0.0010255105485621669 0.028427578003523905 0 -0.00083280812880393766 0.028369823055364118 0 -0.0010851504441826171 0.028401699862986175 0 -0.0010255105485621669 0.028427578003523905 0 -0.00070936640877979171 0.027797531753433677 0 -0.00083280812880393766 0.028369823055364118 0 -0.0010851504441826171 0.028401699862986175 0 -0.00049483197091974515 0.029781689093191368 0 -0.00049553432422382536 0.030071670968854537 0 -0.00074970470390256538 0.030011857006537343 0 -0.00049483197091974515 0.029781689093191368 0 -0.00024874160815873455 0.029977723563907609 0 -0.00049553432422382536 0.030071670968854537 0 -0.00063622037196251261 0.029414587042337261 0 -0.00049483197091974515 0.029781689093191368 0 -0.00080489787791671063 0.029698660095958406 0 -0.00063622037196251261 0.029414587042337261 0 -0.00049483197091974515 0.029781689093191368 0 -0.00033029557329724229 0.029592139107803526 0 -0.00049483197091974515 0.029781689093191368 0 -0.00033029557329724229 0.029592139107803526 0 -0.0001378453955768066 0.029703012655060517 0 -8.6642196016948077e-05 0.029400906622449659 0 -0.00033029557329724229 0.029592139107803526 0 -0.0001378453955768066 0.029703012655060517 0 -0.00049483197091974515 0.029781689093191368 0 -0.0001378453955768066 0.029703012655060517 0 -0.00024874160815873455 0.029977723563907609 0 -0.0001378453955768066 0.029703012655060517 0 1.2202048363676099e-05 0.029926403262416169 0 -0.00024874160815873455 0.029977723563907609 0 -0.0001378453955768066 0.029703012655060517 0 1.2202048363676099e-05 0.029926403262416169 0 0.00011081741253071246 0.029733510967555634 0 -8.6642196016948077e-05 0.029400906622449659 0 -0.0001378453955768066 0.029703012655060517 0 7.3528722698684376e-05 0.029533649050203985 0 -0.0001378453955768066 0.029703012655060517 0 7.3528722698684376e-05 0.029533649050203985 0 0.00011081741253071246 0.029733510967555634 0 7.3528722698684376e-05 0.029533649050203985 0 0.00028765748986553429 0.029634085522239874 0 0.00011081741253071246 0.029733510967555634 0 0.00074117785093083153 0.029160178123901669 0 0.00067577700142000443 0.02885813948356258 0 0.00067577700142000443 0.02885813948356258 0 0.00045262657528626711 0.029473310971367579 0 0.00028765748986553429 0.029634085522239874 0 0.00011081741253071246 0.029733510967555634 0 0.00021259478540286054 0.029891351671409223 0 1.2202048363676099e-05 0.029926403262416169 0 0.00011081741253071246 0.029733510967555634 0 0.00021259478540286054 0.029891351671409223 0 1.2202048363676099e-05 0.029926403262416169 0 0.00021259478540286054 0.029891351671409223 0 0.00015235950656727589 0.030091918587297692 0 0.00045262657528626711 0.029473310971367579 0 0.00037928851748053681 0.029690399683109485 0 0.0002203579059811451 0.029525948551434165 0 0.00015235950656727589 0.030091918587297692 0 0.00059877872206620393 0.029861941179745301 0 -7.414163563782755e-05 0.030137054481168699 0 -0.00030479634259297962 0.030296545533125184 0 6.1487825690874605e-06 0.030593489884262165 0 0.00015235950656727589 0.030091918587297692 0 -7.414163563782755e-05 0.030137054481168699 0 6.1487825690874605e-06 0.030593489884262165 0 1.2202048363676099e-05 0.029926403262416169 0 -7.414163563782755e-05 0.030137054481168699 0 -0.00024874160815873455 0.029977723563907609 0 1.2202048363676099e-05 0.029926403262416169 0 0.00015235950656727589 0.030091918587297692 0 -7.414163563782755e-05 0.030137054481168699 0 -0.00024874160815873455 0.029977723563907609 0 -0.00030479634259297962 0.030296545533125184 0 -0.00049553432422382536 0.030071670968854537 0 -7.414163563782755e-05 0.030137054481168699 0 -0.00024874160815873455 0.029977723563907609 0 -0.00030479634259297962 0.030296545533125184 0 -0.00049203628741012451 0.030452431638203065 0 -0.00063321304959130761 0.030288152815309853 0 -0.0006761708459720238 0.030682194991011845 0 -0.00030479634259297962 0.030296545533125184 0 -0.00049203628741012451 0.030452431638203065 0 -0.00063321304959130761 0.030288152815309853 0 -0.00030479634259297962 0.030296545533125184 0 -0.00063321304959130761 0.030288152815309853 0 -0.00049553432422382536 0.030071670968854537 0 -0.00063321304959130761 0.030288152815309853 0 -0.00049553432422382536 0.030071670968854537 0 -0.00074970470390256538 0.030011857006537343 0 0.0014873767036226832 0.029328670819647889 0 0.0012658277225805093 0.028615437900286558 0 0.00046510492504103827 0.028918556071431664 0 0.0010956196814722748 0.029132804482403313 0 0.00079624883970427318 0.028995640345244468 0 0.0014873767036226832 0.029328670819647889 0 0.00091626888425249125 0.029245157775861536 0 0.0010689639948015417 0.029671838691575442 0 0.0014873767036226832 0.029328670819647889 0 0.0018498452149920284 0.028942999332614929 0 0.0017633239689782384 0.029604684034084883 0 0.0014873767036226832 0.029328670819647889 0 0.0018498452149920284 0.028942999332614929 0 0.0012658277225805093 0.028615437900286558 0 0.0018498452149920284 0.028942999332614929 0 0.0017718528551640138 0.028352391109846758 0 0.0012658277225805093 0.028615437900286558 0 0.0021671579316606868 0.028601819354790132 0 0.0018498452149920284 0.028942999332614929 0 0.0017718528551640138 0.028352391109846758 0 0.0012548985145229082 0.028142678485930786 0 0.0017718528551640138 0.028352391109846758 0 0.0012658277225805093 0.028615437900286558 0 0.00068921507314249452 0.028100392720757029 0 0.0012548985145229082 0.028142678485930786 0 0.0012658277225805093 0.028615437900286558 0 0.00068921507314249452 0.028100392720757029 0 0.0012658277225805093 0.028615437900286558 0 0.00046510492504103827 0.028918556071431664 0 8.697256860499453e-05 0.028059542618042138 0 0.00068921507314249452 0.028100392720757029 0 0.00046510492504103827 0.028918556071431664 0 0.00067577700142000443 0.02885813948356258 0 0.00079624883970427318 0.028995640345244468 0 8.697256860499453e-05 0.028059542618042138 0 -0.00051613244762428506 0.028528327593767763 0 0.00046510492504103827 0.028918556071431664 0 0.0002203579059811451 0.029525948551434165 0 0.00091626888425249125 0.029245157775861536 0 0.00059877872206620393 0.029861941179745301 0 0.00032562916242147863 0.029035701045549846 0 0.0002203579059811451 0.029525948551434165 0 0.00091626888425249125 0.029245157775861536 0 0.0010689639948015417 0.029671838691575442 0 0.00059877872206620393 0.029861941179745301 0 0.00098048920362772229 0.030085077921634434 0 0.00091626888425249125 0.029245157775861536 0 0.0010689639948015417 0.029671838691575442 0 0.00059877872206620393 0.029861941179745301 0 0.00059877872206620393 0.029861941179745301 0 0.00098048920362772229 0.030085077921634434 0 0.000555108179463874 0.030575706619835892 0 0.00015235950656727589 0.030091918587297692 0 0.00059877872206620393 0.029861941179745301 0 0.000555108179463874 0.030575706619835892 0 0.0014142018637402637 0.029848729612215692 0 0.0018235186894208562 0.030103724462810493 0 0.0012575686822043563 0.030557303498207348 0 0.00098048920362772229 0.030085077921634434 0 0.0014142018637402637 0.029848729612215692 0 0.0012575686822043563 0.030557303498207348 0 0.0010689639948015417 0.029671838691575442 0 0.00098048920362772229 0.030085077921634434 0 0.0014142018637402637 0.029848729612215692 0 0.0014873767036226832 0.029328670819647889 0 0.0010689639948015417 0.029671838691575442 0 0.0014142018637402637 0.029848729612215692 0 0.0014142018637402637 0.029848729612215692 0 0.0017633239689782384 0.029604684034084883 0 0.0018235186894208562 0.030103724462810493 0 0.002292632530414708 0.02966856322832551 0 0.0018498452149920284 0.028942999332614929 0 0.0017633239689782384 0.029604684034084883 0 0.002292632530414708 0.02966856322832551 0 0.0017633239689782384 0.029604684034084883 0 0.0018235186894208562 0.030103724462810493 0 0.0014873767036226832 0.029328670819647889 0 0.0014142018637402637 0.029848729612215692 0 0.0017633239689782384 0.029604684034084883 0 0.0018235186894208562 0.030103724462810493 0 0.0012575686822043563 0.030557303498207348 0 0.0020111198756690733 0.03051404681443691 0 0.0011113982804720507 0.02988014827375449 0 0.001544237995706306 0.02903773821976232 0 0.0014471541877199689 0.030627055133813863 0 0.0010561648592886483 0.030487209480142555 0 0.0014922569001748506 0.030486868219494048 0 0.0012538779202314969 0.030791314756604651 0 0.0011095934433787847 0.030937968884139636 0 0.0014471541877199689 0.030627055133813863 0 0.0011806463592234152 0.0307258452887746 0 0.0011559942204675544 0.031037753612247591 0 0.0014471541877199689 0.030627055133813863 0 0.0012731712393067739 0.030715615301406211 0 0.0014672912505046608 0.030694742051696026 0 0.0014471541877199689 0.030627055133813863 0 0.0011806463592234152 0.0307258452887746 0 0.0010561648592886483 0.030487209480142555 0 0.0011806463592234152 0.0307258452887746 0 0.0010561648592886483 0.030487209480142555 0 0.00077818132174863519 0.030904360295490915 0 0.00098048920362772229 0.030085077921634434 0 0.0012575686822043563 0.030557303498207348 0 0.000555108179463874 0.030575706619835892 0 0.0011113982804720507 0.02988014827375449 0 0.00057643371493834431 0.030264810993723835 0 0.00054807769694064463 0.030532693832175172 0 0.00077818132174863519 0.030904360295490915 0 0.00026626809737172023 0.030875186029697823 0 0.0010561648592886483 0.030487209480142555 0 0.00054807769694064463 0.030532693832175172 0 0.00077818132174863519 0.030904360295490915 0 0.00077818132174863519 0.030904360295490915 0 0.00083916627400890836 0.031405998812580993 0 0.0011559942204675544 0.031037753612247591 0 0.00077818132174863519 0.030904360295490915 0 0.00026626809737172023 0.030875186029697823 0 0.00039583566346396154 0.03125326726555757 0 0.00077612075610589105 0.031262988698723654 0 0.00040358318576066304 0.03121115419517851 0 0.00077818132174863519 0.030904360295490915 0 0.00083916627400890836 0.031405998812580993 0 0.00039583566346396154 0.03125326726555757 0 0.00055276363156035605 0.031476827058985184 0 0.00076954270121960355 0.031448845234381684 0 0.00039132526747429861 0.031303654875032332 0 0.00055276363156035605 0.031476827058985184 0 0.00039132526747429861 0.031303654875032332 0 0.00045347552170062953 0.031511291886471497 0 0.00077612075610589105 0.031262988698723654 0 0.00077928203974077421 0.031262468703717343 0 0.0014390896752658213 0.031017704118599769 0 0.0012731712393067739 0.030715615301406211 0 0.0012137688706586388 0.031097103115555323 0 0.00097249330197591319 0.03109426462380814 0 0.0012731712393067739 0.030715615301406211 0 0.0012137688706586388 0.031097103115555323 0 0.00089754138616686136 0.031066702473092424 0 0.00097249330197591319 0.03109426462380814 0 0.0012731712393067739 0.030715615301406211 0 0.00077612075610589105 0.031262988698723654 0 0.0011095934433787847 0.030937968884139636 0 0.0014390896752658213 0.031017704118599769 0 0.0014816951918761707 0.030791080424644714 0 0.0012731712393067739 0.030715615301406211 0 0.0014390896752658213 0.031017704118599769 0 0.0014816951918761707 0.030791080424644714 0 0.00155405187236124 0.030828696187231525 0 0.0014816951918761707 0.030791080424644714 0 0.0012731712393067739 0.030715615301406211 0 0.0014672912505046608 0.030694742051696026 0 0.0011806463592234152 0.0307258452887746 0 0.00077818132174863519 0.030904360295490915 0 0.0011559942204675544 0.031037753612247591 0 -0.00041917336911409623 0.030653415303592994 0 -0.00046048599903094028 0.030992560733539225 0 -0.0006761708459720238 0.030682194991011845 0 -0.00046048599903094028 0.030992560733539225 0 -0.0006761708459720238 0.030682194991011845 0 -0.00080221112782925862 0.031063046683801245 0 -0.00049203628741012451 0.030452431638203065 0 -0.00041917336911409623 0.030653415303592994 0 -0.0006761708459720238 0.030682194991011845 0 -0.00030479634259297962 0.030296545533125184 0 -0.00049203628741012451 0.030452431638203065 0 -0.00041917336911409623 0.030653415303592994 0 -0.00030479634259297962 0.030296545533125184 0 -0.00041917336911409623 0.030653415303592994 0 6.1487825690874605e-06 0.030593489884262165 0 -0.00015872490712125103 0.030497006531758918 0 9.4440000505958093e-05 0.030440125406728323 0 -0.00041917336911409623 0.030653415303592994 0 -0.00017352413792779425 0.030832319401239105 0 -0.00046048599903094028 0.030992560733539225 0 -0.00041917336911409623 0.030653415303592994 0 -0.00017352413792779425 0.030832319401239105 0 5.7645029361347264e-05 0.030588059016702321 0 -0.00017352413792779425 0.030832319401239105 0 5.7645029361347264e-05 0.030588059016702321 0 0.00026626809737172023 0.030875186029697823 0 0.00057643371493834431 0.030264810993723835 0 9.4440000505958093e-05 0.030440125406728323 0 0.00015235950656727589 0.030091918587297692 0 0.000555108179463874 0.030575706619835892 0 6.1487825690874605e-06 0.030593489884262165 0 0.00054807769694064463 0.030532693832175172 0 5.7645029361347264e-05 0.030588059016702321 0 0.00026626809737172023 0.030875186029697823 0 0.00040358318576066304 0.03121115419517851 0 1.977648396329923e-05 0.031109664804782878 0 0.00026626809737172023 0.030875186029697823 0 0.00039583566346396154 0.03125326726555757 0 -3.592904368847918e-05 0.031113493858362991 0 0.00039132526747429861 0.031303654875032332 0 -2.3480475082915244e-05 0.031147105858451991 0 0.00016507383007622665 0.031519053151134763 0 0.00039132526747429861 0.031303654875032332 0 0.00016507383007622665 0.031519053151134763 0 0.00045347552170062953 0.031511291886471497 0 -2.3480475082915244e-05 0.031147105858451991 0 -0.00025571885343025653 0.031394259779926915 0 0.00016507383007622665 0.031519053151134763 0 -0.00017352413792779425 0.030832319401239105 0 0.00026626809737172023 0.030875186029697823 0 -3.592904368847918e-05 0.031113493858362991 0 -0.00017352413792779425 0.030832319401239105 0 -3.592904368847918e-05 0.031113493858362991 0 -0.00046048599903094028 0.030992560733539225 0 1.977648396329923e-05 0.031109664804782878 0 -0.00019617282359155364 0.031043401859972983 0 -2.3480475082915244e-05 0.031147105858451991 0 -0.00025571885343025653 0.031394259779926915 0 -0.00046048599903094028 0.030992560733539225 0 -0.00025571885343025653 0.031394259779926915 0 -0.00064200955347295564 0.031335128419903636 0 -0.00046048599903094028 0.030992560733539225 0 -0.00025571885343025653 0.031394259779926915 0 -0.00064200955347295564 0.031335128419903636 0 -0.00044568124564547349 0.031608971425978682 0 -0.00064200955347295564 0.031335128419903636 0 -0.00046048599903094028 0.030992560733539225 0 -0.00080221112782925862 0.031063046683801245 0 -0.00050389615480288198 0.031894246140344501 0 -0.00044568124564547349 0.031608971425978682 0 -0.00082093530736762621 0.031622595061833438 0 -0.00064200955347295564 0.031335128419903636 0 -0.00044568124564547349 0.031608971425978682 0 -0.00082093530736762621 0.031622595061833438 0 -0.00050389615480288198 0.031894246140344501 0 -0.00044568124564547349 0.031608971425978682 0 -2.7977078541290455e-05 0.031792509729937156 0 -0.00025571885343025653 0.031394259779926915 0 -0.00044568124564547349 0.031608971425978682 0 -2.7977078541290455e-05 0.031792509729937156 0 -0.00050027741994818466 0.031863129382293451 0 -8.3450681586587933e-05 0.03179142137909502 0 -0.00055396578658204224 0.031863353581790516 0 -2.0214802328623719e-05 0.031760159347586012 0 -0.00016722239146093422 0.032216751283112938 0 -2.0214802328623719e-05 0.031760159347586012 0 0.00023298883551417881 0.031854617091368623 0 0.00019413691480892059 0.03212195109347301 0 -0.00025571885343025653 0.031394259779926915 0 -2.7977078541290455e-05 0.031792509729937156 0 0.00016507383007622665 0.031519053151134763 0 -8.3450681586587933e-05 0.03179142137909502 0 0.00015030991259485296 0.031750788549136842 0 -2.7977078541290455e-05 0.031792509729937156 0 0.00016507383007622665 0.031519053151134763 0 0.00041922169501957011 0.031682189415794801 0 0.00016507383007622665 0.031519053151134763 0 0.00045347552170062953 0.031511291886471497 0 0.00041922169501957011 0.031682189415794801 0 0.00023298883551417881 0.031854617091368623 0 0.00041922169501957011 0.031682189415794801 0 0.00043232095156640307 0.031797231275533314 0 -2.0214802328623719e-05 0.031760159347586012 0 0.00023298883551417881 0.031854617091368623 0 0.00041922169501957011 0.031682189415794801 0 0.00023298883551417881 0.031854617091368623 0 0.00038594932010961889 0.032001949473595775 0 0.00043232095156640307 0.031797231275533314 0 0.00038594932010961889 0.032001949473595775 0 0.00019413691480892059 0.03212195109347301 0 0.00051807630904705381 0.032283696478209015 0 0.00023298883551417881 0.031854617091368623 0 0.00038594932010961889 0.032001949473595775 0 0.00019413691480892059 0.03212195109347301 0 0.00019413691480892059 0.03212195109347301 0 0.00014597668979243926 0.032550752771847755 0 0.00051807630904705381 0.032283696478209015 0 0.00014597668979243926 0.032550752771847755 0 0.00051807630904705381 0.032283696478209015 0 0.00055185951607791557 0.032868728214027275 0 0.00019413691480892059 0.03212195109347301 0 0.00014597668979243926 0.032550752771847755 0 -0.00016722239146093422 0.032216751283112938 0 -2.0214802328623719e-05 0.031760159347586012 0 0.00019413691480892059 0.03212195109347301 0 -0.00016722239146093422 0.032216751283112938 0 -0.00055396578658204224 0.031863353581790516 0 -0.00016722239146093422 0.032216751283112938 0 -0.00050549564865659655 0.032339625474820069 0 -0.00016722239146093422 0.032216751283112938 0 -0.00032031059332126904 0.032669006363009956 0 -0.00050549564865659655 0.032339625474820069 0 0.00014597668979243926 0.032550752771847755 0 -0.00016722239146093422 0.032216751283112938 0 -0.00032031059332126904 0.032669006363009956 0 -0.00032031059332126904 0.032669006363009956 0 -0.00066743980168499522 0.032630130167293089 0 -0.00050549564865659655 0.032339625474820069 0 -0.00066743980168499522 0.032630130167293089 0 -0.00050549564865659655 0.032339625474820069 0 -0.00082432477493554063 0.032348447368869909 0 -0.00055396578658204224 0.031863353581790516 0 -0.00050549564865659655 0.032339625474820069 0 -0.00082432477493554063 0.032348447368869909 0 0.00097902786012657277 0.031573096122430928 0 0.00082556029140681939 0.031821428598617967 0 0.0012211892467062072 0.031842759136964396 0 0.0011858232581817051 0.031356124316157655 0 0.00097902786012657277 0.031573096122430928 0 0.0012211892467062072 0.031842759136964396 0 0.0015354176221739587 0.031439749871011023 0 0.0011858232581817051 0.031356124316157655 0 0.0012211892467062072 0.031842759136964396 0 0.0015354176221739587 0.031439749871011023 0 0.0012211892467062072 0.031842759136964396 0 0.0018052567798169173 0.031740739155813012 0 0.0014390896752658213 0.031017704118599769 0 0.0015354176221739587 0.031439749871011023 0 0.0011858232581817051 0.031356124316157655 0 0.0014390896752658213 0.031017704118599769 0 0.0012137688706586388 0.031097103115555323 0 0.0011858232581817051 0.031356124316157655 0 0.00097249330197591319 0.03109426462380814 0 0.0012137688706586388 0.031097103115555323 0 0.0011858232581817051 0.031356124316157655 0 0.0008763030439668699 0.031062491521440857 0 0.00097249330197591319 0.03109426462380814 0 0.00084811082497919207 0.031320230676791648 0 0.0011858232581817051 0.031356124316157655 0 0.00084811082497919207 0.031320230676791648 0 0.00097902786012657277 0.031573096122430928 0 0.00097249330197591319 0.03109426462380814 0 0.0011858232581817051 0.031356124316157655 0 0.00084811082497919207 0.031320230676791648 0 0.00077612075610589105 0.031262988698723654 0 0.000663102248264139 0.031414310526759581 0 0.00055276363156035605 0.031476827058985184 0 0.00076954270121960355 0.031448845234381684 0 0.00059528636680613873 0.031638536161389424 0 0.0008763030439668699 0.031062491521440857 0 0.00084811082497919207 0.031320230676791648 0 0.00062444102516298367 0.031406446113742603 0 0.00084811082497919207 0.031320230676791648 0 0.00062444102516298367 0.031406446113742603 0 0.00078543883371395178 0.031550246101075985 0 0.00084811082497919207 0.031320230676791648 0 0.00097902786012657277 0.031573096122430928 0 0.00078543883371395178 0.031550246101075985 0 0.00055276363156035605 0.031476827058985184 0 0.00045347552170062953 0.031511291886471497 0 0.00059528636680613873 0.031638536161389424 0 0.00059528636680613873 0.031638536161389424 0 0.00041922169501957011 0.031682189415794801 0 0.00043232095156640307 0.031797231275533314 0 0.00045347552170062953 0.031511291886471497 0 0.00059528636680613873 0.031638536161389424 0 0.00041922169501957011 0.031682189415794801 0 0.000663102248264139 0.031414310526759581 0 0.00060194925685415617 0.031493709731087498 0 0.00062444102516298367 0.031406446113742603 0 0.00043232095156640307 0.031797231275533314 0 0.00064801539704762952 0.031718352984190734 0 0.00043232095156640307 0.031797231275533314 0 0.00064801539704762952 0.031718352984190734 0 0.00058741614794591691 0.031976305260660691 0 0.00064801539704762952 0.031718352984190734 0 0.00082556029140681939 0.031821428598617967 0 0.00058741614794591691 0.031976305260660691 0 0.00038594932010961889 0.032001949473595775 0 0.00043232095156640307 0.031797231275533314 0 0.00058741614794591691 0.031976305260660691 0 0.00097902786012657277 0.031573096122430928 0 0.00078543883371395178 0.031550246101075985 0 0.00082556029140681939 0.031821428598617967 0 0.00062444102516298367 0.031406446113742603 0 0.00064801539704762952 0.031718352984190734 0 0.00078543883371395178 0.031550246101075985 0 0.00064801539704762952 0.031718352984190734 0 0.00078543883371395178 0.031550246101075985 0 0.00082556029140681939 0.031821428598617967 0 0.00082556029140681939 0.031821428598617967 0 0.00087531536068788114 0.032151677574003897 0 0.00058741614794591691 0.031976305260660691 0 0.00082556029140681939 0.031821428598617967 0 0.00087531536068788114 0.032151677574003897 0 0.0012211892467062072 0.031842759136964396 0 0.00087531536068788114 0.032151677574003897 0 0.00058741614794591691 0.031976305260660691 0 0.00051807630904705381 0.032283696478209015 0 0.00038594932010961889 0.032001949473595775 0 0.00058741614794591691 0.031976305260660691 0 0.00051807630904705381 0.032283696478209015 0 0.00087531536068788114 0.032151677574003897 0 0.00051807630904705381 0.032283696478209015 0 0.000917724874779218 0.032576610524665706 0 0.00087531536068788114 0.032151677574003897 0 0.0011882508572968605 0.032324337383404921 0 0.000917724874779218 0.032576610524665706 0 0.00087531536068788114 0.032151677574003897 0 0.0011882508572968605 0.032324337383404921 0 0.0012211892467062072 0.031842759136964396 0 0.0011882508572968605 0.032324337383404921 0 0.0012211892467062072 0.031842759136964396 0 0.0016275826415609127 0.032275164225307143 0 0.0012211892467062072 0.031842759136964396 0 0.0016275826415609127 0.032275164225307143 0 0.0018052567798169173 0.031740739155813012 0 0.0011882508572968605 0.032324337383404921 0 0.0016275826415609127 0.032275164225307143 0 0.001321288716652062 0.032778110830028011 0 0.0016275826415609127 0.032275164225307143 0 0.0019688337915864081 0.03242795551409678 0 0.0021609700765139682 0.032061459714699495 0 0.0019688337915864081 0.03242795551409678 0 0.0021609700765139682 0.032061459714699495 0 0.0022717028274350719 0.032584157185107029 0 0.0021609700765139682 0.032061459714699495 0 0.0022254763906997726 0.031609318708774446 0 0.0025837692341578616 0.03181373694401389 0 0.0021609700765139682 0.032061459714699495 0 0.0018052567798169173 0.031740739155813012 0 0.0022254763906997726 0.031609318708774446 0 0.0016275826415609127 0.032275164225307143 0 0.0021609700765139682 0.032061459714699495 0 0.0018052567798169173 0.031740739155813012 0 0.0015354176221739587 0.031439749871011023 0 0.0018052567798169173 0.031740739155813012 0 0.0020467938956825562 0.031228038630599062 0 0.0018052567798169173 0.031740739155813012 0 0.0022254763906997726 0.031609318708774446 0 0.0020467938956825562 0.031228038630599062 0 0.0022254763906997726 0.031609318708774446 0 0.0020467938956825562 0.031228038630599062 0 0.0025974857859737319 0.031375410423465588 0 0.0018099711971224775 0.031008071933832707 0 0.002103778541329245 0.031057902647154519 0 0.0014390896752658213 0.031017704118599769 0 0.0015354176221739587 0.031439749871011023 0 0.0020467938956825562 0.031228038630599062 0 0.0016238824758482023 0.030973370767547873 0 0.0018099711971224775 0.031008071933832707 0 0.0016805422293760643 0.03072036547459326 0 0.0016906936344040524 0.030720084266837349 0 0.0017336896539759446 0.030672429481247172 0 0.0016805422293760643 0.03072036547459326 0 0.0016906936344040524 0.030720084266837349 0 0.0016876935722397698 0.030744544699805566 0 0.0016027075334192858 0.030841177187973332 0 0.0016876935722397698 0.030744544699805566 0 0.0016768256899999927 0.0307381815973818 0 0.0016906936344040524 0.030720084266837349 0 0.0016876935722397698 0.030744544699805566 0 0.0016768256899999927 0.0307381815973818 0 0.0022254763906997726 0.031609318708774446 0 0.0025974857859737319 0.031375410423465588 0 0.0025837692341578616 0.03181373694401389 0 0.0025974857859737319 0.031375410423465588 0 0.0029455061020766484 0.03145777583698333 0 0.0029797539467046213 0.031427908470432808 0 0.002103778541329245 0.031057902647154519 0 0.0023608313335665874 0.031098505387774249 0 0.0016805422293760643 0.03072036547459326 0 0.0016876935722397698 0.030744544699805566 0 0.0016368732736544436 0.030730432344031909 0 0.0025974857859737319 0.031375410423465588 0 0.0025837692341578616 0.03181373694401389 0 0.0029455061020766484 0.03145777583698333 0 0.0025837692341578616 0.03181373694401389 0 0.0029344288965458109 0.032113710451445059 0 0.0029455061020766484 0.03145777583698333 0 0.0017143602104490083 0.03115985254922906 0 0.0019774335040483736 0.031289484386418237 0 0.0021609700765139682 0.032061459714699495 0 0.0026160791777687328 0.032363523418663928 0 0.0022717028274350719 0.032584157185107029 0 0.0021609700765139682 0.032061459714699495 0 0.0025837692341578616 0.03181373694401389 0 0.0026160791777687328 0.032363523418663928 0 0.0017143602104490083 0.03115985254922906 0 0.00085895755412409311 0.030204635961643189 0 0.0026160791777687328 0.032363523418663928 0 0.0029344288965458109 0.032113710451445059 0 0.0028403410858633031 0.032710339681737012 0 0.0025837692341578616 0.03181373694401389 0 0.0026160791777687328 0.032363523418663928 0 0.0029344288965458109 0.032113710451445059 0 0.0027573033254421116 0.031107266298930299 0 0.0028853668200767317 0.031240441643713819 0 0.0029500711290309225 0.031028313345168645 0 0.0030240790924303991 0.031150187836943132 0 0.0028853668200767317 0.031240441643713819 0 0.0029500711290309225 0.031028313345168645 0 0.0027573033254421116 0.031107266298930299 0 0.0027877605917837225 0.031178714024770463 0 0.0028853668200767317 0.031240441643713819 0 0.0027877605917837225 0.031178714024770463 0 0.0028853668200767317 0.031240441643713819 0 0.00271990532900303 0.03106564945765929 0 0.0028853668200767317 0.031240441643713819 0 0.00271990532900303 0.03106564945765929 0 0.0029797539467046213 0.031427908470432808 0 0.0030240790924303991 0.031150187836943132 0 0.0028853668200767317 0.031240441643713819 0 0.0029455061020766484 0.03145777583698333 0 -0.0023542199749795813 0.012720846686085339 0 -0.0023434521813772329 0.012783388309399974 0 -0.0022307443279830203 0.012734686914710289 0 -0.0023434521813772329 0.012783388309399974 0 -0.0022307443279830203 0.012734686914710289 0 -0.0022401830269973741 0.012796081034745865 0 -0.0022263117926988201 0.012698234038644424 0 -0.0022307443279830203 0.012734686914710289 0 -0.0022401830269973741 0.012796081034745865 0 0.0027573033254421116 0.031107266298930299 0 0.0027877605917837225 0.031178714024770463 0 0.0030358951102034616 0.031291302955672472 0 0.00025536570153243871 0.022034955959932059 0 9.2388502783167351e-05 0.02136650888163881 0 0.0030358951102034616 0.031291302955672472 0 0.0032086306897079553 0.030667335791824794 0 0.00271990532900303 0.03106564945765929 0 0.0027877605917837225 0.031178714024770463 0 0.0030358951102034616 0.031291302955672472 0 0.00271990532900303 0.03106564945765929 0 -0.0023434521813772329 0.012783388309399974 0 -0.0023561131310182505 0.012875255852852723 0 -0.0022401830269973741 0.012796081034745865 0 0.0042425528151388506 0.030512439412829231 0 0.0030358951102034616 0.031291302955672472 0 0.0032086306897079553 0.030667335791824794 0 0.0042425528151388506 0.030512439412829231 0 0.0032086306897079553 0.030667335791824794 0 0.0033649741689911342 0.030057062635696605 0 -0.00013480445609407121 0.020094889479552628 0 9.2388502783167351e-05 0.02136650888163881 0 0.0032086306897079553 0.030667335791824794 0 0.0028046552250978163 0.030276354967137851 0 0.0033649741689911342 0.030057062635696605 0 0.0032086306897079553 0.030667335791824794 0 0.00271990532900303 0.03106564945765929 0 0.0028046552250978163 0.030276354967137851 0 0.00271990532900303 0.03106564945765929 0 0.0028046552250978163 0.030276354967137851 0 0.0024217267489676044 0.030474055219650222 0 0.0028046552250978163 0.030276354967137851 0 0.0029261714368695206 0.029497463483890693 0 0.002189149429247016 0.029820102628748117 0 0.0029261714368695206 0.029497463483890693 0 0.002189149429247016 0.029820102628748117 0 0.0025009087278737058 0.029059016009881009 0 0.0028046552250978163 0.030276354967137851 0 0.0029261714368695206 0.029497463483890693 0 0.0033649741689911342 0.030057062635696605 0 0.0029261714368695206 0.029497463483890693 0 0.0039019522616751102 0.029337628934219016 0 0.0033649741689911342 0.030057062635696605 0 0.0042425528151388506 0.030512439412829231 0 0.0039019522616751102 0.029337628934219016 0 0.0033649741689911342 0.030057062635696605 0 0.0028853668200767317 0.031240441643713819 0 0.0029455061020766484 0.03145777583698333 0 0.0029797539467046213 0.031427908470432808 0 0.0016368732736544436 0.030730432344031909 0 0.0019599131607797578 0.030691162691115423 0 0.0018021825905486393 0.030657543723346271 0 0.0016368732736544436 0.030730432344031909 0 0.0018021825905486393 0.030657543723346271 0 0.0017108929998303998 0.030687516845110008 0 0.0016805422293760643 0.03072036547459326 0 0.0016368732736544436 0.030730432344031909 0 0.0017108929998303998 0.030687516845110008 0 0.00271990532900303 0.03106564945765929 0 0.0016368732736544436 0.030730432344031909 0 0.0019599131607797578 0.030691162691115423 0 0.0025372583920584306 0.031128534627496544 0 0.0023608313335665874 0.031098505387774249 0 0.00271990532900303 0.03106564945765929 0 0.0024217267489676044 0.030474055219650222 0 0.0019599131607797578 0.030691162691115423 0 0.0024217267489676044 0.030474055219650222 0 0.0019599131607797578 0.030691162691115423 0 0.002189149429247016 0.029820102628748117 0 0.0019599131607797578 0.030691162691115423 0 0.0018091598865250854 0.030650449757561267 0 0.0018021825905486393 0.030657543723346271 0 0.0011109827671489576 0.029145800369192881 0 0.0011643267661250072 0.028667336336146355 0 0.0028046552250978163 0.030276354967137851 0 0.0024217267489676044 0.030474055219650222 0 0.002189149429247016 0.029820102628748117 0 0.0018091598865250854 0.030650449757561267 0 0.001757017464506697 0.030667590860955933 0 0.0017803201190687312 0.030648027265294683 0 0.0016805422293760643 0.03072036547459326 0 0.001757017464506697 0.030667590860955933 0 0.0017336896539759446 0.030672429481247172 0 0.0018091598865250854 0.030650449757561267 0 0.001757017464506697 0.030667590860955933 0 0.0018021825905486393 0.030657543723346271 0 0.001757017464506697 0.030667590860955933 0 0.0018021825905486393 0.030657543723346271 0 0.0017108929998303998 0.030687516845110008 0 0.0016805422293760643 0.03072036547459326 0 0.001757017464506697 0.030667590860955933 0 0.0017108929998303998 0.030687516845110008 0 0.001762149647780443 0.030643363419486286 0 0.0017803201190687312 0.030648027265294683 0 0.0017785149310767549 0.030623665641065324 0 0.0017336896539759446 0.030672429481247172 0 0.001762149647780443 0.030643363419486286 0 0.0017803201190687312 0.030648027265294683 0 0.001757017464506697 0.030667590860955933 0 0.0017336896539759446 0.030672429481247172 0 0.0017803201190687312 0.030648027265294683 0 0.0017336896539759446 0.030672429481247172 0 0.0017414801951938352 0.030647809583834056 0 0.001762149647780443 0.030643363419486286 0 0.0017803201190687312 0.030648027265294683 0 0.0017981055001290152 0.030639638269115081 0 0.0017785149310767549 0.030623665641065324 0 0.0018091598865250854 0.030650449757561267 0 0.0017803201190687312 0.030648027265294683 0 0.0017981055001290152 0.030639638269115081 0 0.0011643267661250072 0.028667336336146355 0 0.0013838195465627442 0.027068198979409312 0 0.0013838195465627442 0.027068198979409312 0 0.00076028252204544998 0.025452666780032759 0 -0.0013276566596464904 0.021485461984723713 0 0.0017743898165732794 0.020610093378061876 0 -0.00030892187374641857 0.019399050016699192 0 0.00045508856071419012 0.023409529883736707 0 -0.0013276566596464904 0.021485461984723713 0 0.0017743898165732794 0.020610093378061876 0 -0.0013276566596464904 0.021485461984723713 0 -0.0016382089236465153 0.019692822386152248 0 -0.00030892187374641857 0.019399050016699192 0 -0.0013276566596464904 0.021485461984723713 0 -0.0031024292883232731 0.019569015007321562 0 -0.0016382089236465153 0.019692822386152248 0 0.00076028252204544998 0.025452666780032759 0 0.00023926929616030498 0.023594687797813076 0 0.0017785149310767549 0.030623665641065324 0 0.0017566169780116904 0.030624389364446548 0 0.0017520360881290191 0.030582137823084384 0 0.0017457979164853749 0.030605626499095536 0 0.0017566169780116904 0.030624389364446548 0 0.001734705998182848 0.030634887217495438 0 0.0017457979164853749 0.030605626499095536 0 0.0017566169780116904 0.030624389364446548 0 0.0017520360881290191 0.030582137823084384 0 0.0017414801951938352 0.030647809583834056 0 0.0017566169780116904 0.030624389364446548 0 0.001734705998182848 0.030634887217495438 0 0.0017414801951938352 0.030647809583834056 0 0.001762149647780443 0.030643363419486286 0 0.0017566169780116904 0.030624389364446548 0 0.001762149647780443 0.030643363419486286 0 0.0017785149310767549 0.030623665641065324 0 0.0017566169780116904 0.030624389364446548 0 0.0029261714368695206 0.029497463483890693 0 0.0039019522616751102 0.029337628934219016 0 0.0033870617107239274 0.02845094969589974 0 0.0045148146449623151 0.028283837307787957 0 0.0039019522616751102 0.029337628934219016 0 0.0033870617107239274 0.02845094969589974 0 0.0029261714368695206 0.029497463483890693 0 0.0022875059917278145 0.028828128338672928 0 0.0033870617107239274 0.02845094969589974 0 0.0017920199892444526 0.027562286522326545 0 0.0013838195465627442 0.027068198979409312 0 0.0013838195465627442 0.027068198979409312 0 0.0014497612019734425 0.022181818110495639 0 0.0022875059917278145 0.028828128338672928 0 0.0033870617107239274 0.02845094969589974 0 0.0028665557552772004 0.027532396688670264 0 0.0033870617107239274 0.02845094969589974 0 0.0028665557552772004 0.027532396688670264 0 0.0038589885878976592 0.0275271117728495 0 0.0045148146449623151 0.028283837307787957 0 0.0033870617107239274 0.02845094969589974 0 0.0038589885878976592 0.0275271117728495 0 0.0028665557552772004 0.027532396688670264 0 0.0038589885878976592 0.0275271117728495 0 0.003452330660310322 0.026267179854828522 0 0.005056580090823124 0.027103047073444995 0 0.0038589885878976592 0.0275271117728495 0 0.003452330660310322 0.026267179854828522 0 0.0014497612019734425 0.022181818110495639 0 0.002132209614814163 0.014407557731189589 0 0.0017743898165732794 0.020610093378061876 0 0.0010715422614773855 0.018314440325393509 0 -0.00030892187374641857 0.019399050016699192 0 0.0017743898165732794 0.020610093378061876 0 0.0010715422614773855 0.018314440325393509 0 0.003103833792539497 0.017798468550280909 0 0.0010715422614773855 0.018314440325393509 0 0.00070459205086594826 0.017669587776779652 0 -6.9556385374636848e-05 0.017983151584826128 0 0.0040579106824888619 0.015058010034844907 0 0.00072953877228883505 0.016810399122277678 0 0.0011132132500590729 0.016279285983897718 0 0.0040579106824888619 0.015058010034844907 0 0.00067330015757654496 0.016867761406160489 0 0.0020421745014021632 0.017254107433398946 0 0.0029894789931714373 0.017731617448069198 0 0.0016610779610588336 0.019119248658278597 0 0.0011436946031303157 0.017513267091684173 0 0.00067330015757654496 0.016867761406160489 0 0.0020421745014021632 0.017254107433398946 0 0.0010715422614773855 0.018314440325393509 0 0.00070459205086594826 0.017669587776779652 0 0.0011436946031303157 0.017513267091684173 0 0.0010715422614773855 0.018314440325393509 0 0.0011436946031303157 0.017513267091684173 0 0.0020421745014021632 0.017254107433398946 0 0.00070459205086594826 0.017669587776779652 0 0.0011436946031303157 0.017513267091684173 0 0.00067330015757654496 0.016867761406160489 0 0.0010715422614773855 0.018314440325393509 0 0.0020421745014021632 0.017254107433398946 0 0.003103833792539497 0.017798468550280909 0 0.0022546770471410277 0.014553510559201011 0 0.002132209614814163 0.014407557731189589 0 0.0040579106824888619 0.015058010034844907 0 0.0020421745014021632 0.017254107433398946 0 0.0031144580758730809 0.017795860384273221 0 0.0032766429257877236 0.0095983626010285039 0 0.002132209614814163 0.014407557731189589 0 0.00085745842363750243 0.0049603465181218024 0 0.0006515910193935796 0.0038916485066588526 0 -0.00045270756664321906 0.0062180564812002754 0 0.00085745842363750243 0.0049603465181218024 0 0.00072001423855629792 0.0059955030837199469 0 -0.00045270756664321906 0.0062180564812002754 0 -0.0026643874718375983 0.018640135920767568 0 -0.0016382089236465153 0.019692822386152248 0 -0.0010933026770868907 0.018471403350388473 0 -0.00026179083594050055 0.021824555444868561 0 -3.4286474433747087e-05 0.021707193480445943 0 -4.886775694422644e-05 0.022090125419763545 0 0.00031706573209238867 0.022351904759012293 0 0.00031541387529568116 0.023487830701868422 0 -0.00079879550381861859 0.023473705622639843 0 -0.00027747694785702521 0.02237334129519062 0 0.00024267078916664249 0.022932431373795758 0 0.00031706573209238867 0.022351904759012293 0 0.00023926929616030498 0.023594687797813076 0 0.0017719923377563585 0.030555605703774084 0 0.0017526940742194931 0.030534175432718726 0 0.001732800605758345 0.030581535193627003 0 0.00023926929616030498 0.023594687797813076 0 0.00031541387529568116 0.023487830701868422 0 0.00010256807610971468 0.024146422639371931 0 0.00023926929616030498 0.023594687797813076 0 0.0017457979164853749 0.030605626499095536 0 0.0017719923377563585 0.030555605703774084 0 0.001732800605758345 0.030581535193627003 0 -0.0026643874718375983 0.018640135920767568 0 -0.0031024292883232731 0.019569015007321562 0 -0.0016382089236465153 0.019692822386152248 0 -0.0016382089236465153 0.019692822386152248 0 -0.00030892187374641857 0.019399050016699192 0 -0.0010933026770868907 0.018471403350388473 0 0.00067330015757654496 0.016867761406160489 0 -0.0026643874718375983 0.018640135920767568 0 -0.0010933026770868907 0.018471403350388473 0 0.0010715422614773855 0.018314440325393509 0 -0.00030892187374641857 0.019399050016699192 0 -6.9556385374636848e-05 0.017983151584826128 0 -0.00030892187374641857 0.019399050016699192 0 -0.0010933026770868907 0.018471403350388473 0 -6.9556385374636848e-05 0.017983151584826128 0 0.00072953877228883505 0.016810399122277678 0 -0.0024903409223880962 0.018521074216332332 0 -0.00078742643607420488 0.016905223956028267 0 0.00043888455538801239 0.019084582341606333 0 0.00053152901671831227 0.019530088206809786 0 0.0016610779610588336 0.019119248658278597 0 0.00031706573209238867 0.022351904759012293 0 0.0011132132500590729 0.016279285983897718 0 -0.00078742643607420488 0.016905223956028267 0 -0.0015064281882328737 0.016419817054756168 0 0.00042448867352300722 0.015547468082951288 0 0.0011132132500590729 0.016279285983897718 0 -0.0016117696612286446 0.016390540580812161 0 0.00070459205086594826 0.017669587776779652 0 0.00067330015757654496 0.016867761406160489 0 -6.9556385374636848e-05 0.017983151584826128 0 0.00067330015757654496 0.016867761406160489 0 -0.0010933026770868907 0.018471403350388473 0 -6.9556385374636848e-05 0.017983151584826128 0 0.00072953877228883505 0.016810399122277678 0 0.0011132132500590729 0.016279285983897718 0 -0.00078742643607420488 0.016905223956028267 0 -0.00078742643607420488 0.016905223956028267 0 -0.0015064281882328737 0.016419817054756168 0 -0.0016592368349314052 0.01674480830494382 0 0.00023596206520314176 0.02014974549351875 0 0.00036214252953310083 0.02022813807307693 0 0.00053152901671831227 0.019530088206809786 0 0.00016225210385063866 0.020979417695036622 0 0.00036214252953310083 0.02022813807307693 0 0.00016225210385063866 0.020979417695036622 0 -0.00073235454130546839 0.020471105113726989 0 -0.00057984323645994009 0.020149252982945339 0 0.00079440848807144527 0.020413649027778948 0 0.00053152901671831227 0.019530088206809786 0 0.00036214252953310083 0.02022813807307693 0 0.00031706573209238867 0.022351904759012293 0 0.00036214252953310083 0.02022813807307693 0 -0.00026179083594050055 0.021824555444868561 0 -0.00048528382606726308 0.022294706374147662 0 -4.886775694422644e-05 0.022090125419763545 0 -0.0024903409223880962 0.018521074216332332 0 -0.00078742643607420488 0.016905223956028267 0 -0.0016576855936142579 0.016743941890063379 0 -0.00048528382606726308 0.022294706374147662 0 -4.886775694422644e-05 0.022090125419763545 0 -0.00011354685006931282 0.022367347532915562 0 0.00031541387529568116 0.023487830701868422 0 0.00052985792895079281 0.023844666704972817 0 -4.886775694422644e-05 0.022090125419763545 0 -0.00011354685006931282 0.022367347532915562 0 0.0005567020517931266 0.022344106726924912 0 -0.00026252323937204293 0.022510527893305515 0 0.00092633268574893049 0.022467898196248306 0 0.0010162524262743117 0.022564804902677638 0 0.00060707187254758815 0.02440348720559922 0 0.00045363911184462377 0.023693072920779351 0 0.00072042427855732835 0.024399177455541866 0 -0.00026252323937204293 0.022510527893305515 0 0.0010162524262743117 0.022564804902677638 0 0.001299020942919758 0.022813344097628207 0 -3.4286474433747087e-05 0.021707193480445943 0 -4.886775694422644e-05 0.022090125419763545 0 0.0005567020517931266 0.022344106726924912 0 0.00016225210385063866 0.020979417695036622 0 -1.0914830471512704e-05 0.023417757517644109 0 0.00016225210385063866 0.020979417695036622 0 0.00052985792895079281 0.023844666704972817 0 0.00052985792895079281 0.023844666704972817 0 0.00052834992516297532 0.023839916686283286 0 0.0018004806750187246 0.030628002375528374 0 0.0016751270276720498 0.030590833580366343 0 0.0016386940756987294 0.030105848692889171 0 -3.0993256222462207e-06 0.025619384856690287 0 0.00055273872348325637 0.024557244705532836 0 0.00011098201545632229 0.023870520212274923 0 0.00060707187254758815 0.02440348720559922 0 0.00045363911184462377 0.023693072920779351 0 0.001733958040258127 0.030637946102074542 0 0.0016751270276720498 0.030590833580366343 0 0.0016861020909982761 0.030638725441920155 0 0.001733958040258127 0.030637946102074542 0 0.0018004806750187246 0.030628002375528374 0 0.0016751270276720498 0.030590833580366343 0 -3.5249024838688848e-06 0.025642403157871859 0 -3.0993256222462207e-06 0.025619384856690287 0 0.0017526940742194931 0.030534175432718726 0 0.0016842227857881452 0.03057557278860704 0 0.001732800605758345 0.030581535193627003 0 0.00031541387529568116 0.023487830701868422 0 -3.0993256222462207e-06 0.025619384856690287 0 0.0021438380771999616 0.028824375082613009 0 0.0014452715896965717 0.027162257084198366 0 0.0016751270276720498 0.030590833580366343 0 0.0016443855757782141 0.030531952003771137 0 0.0016388506539974778 0.030597166916584314 0 0.0016593458214032995 0.030623806282596169 0 0.0016751270276720498 0.030590833580366343 0 0.0016388506539974778 0.030597166916584314 0 0.0016593458214032995 0.030623806282596169 0 0.0016388506539974778 0.030597166916584314 0 0.0016385508627154617 0.030636536143109822 0 0.0016593458214032995 0.030623806282596169 0 0.0016751270276720498 0.030590833580366343 0 0.0016861020909982761 0.030638725441920155 0 0.0017582481319747606 0.02567471650973429 0 0.00024983990380552626 0.025386443959658243 0 0.0011818846954517619 0.024893992992672635 0 0.0016751270276720498 0.030590833580366343 0 0.0016386940756987294 0.030105848692889171 0 0.0013319813973337907 0.030112716608580298 0 0.00092612291426125788 0.022468311124439547 0 0.0010162524262743117 0.022564804902677638 0 0.0011664714133406665 0.022458726844141786 0 0.00052985792895079281 0.023844666704972817 0 0.00055273872348325637 0.024557244705532836 0 0.00055273872348325637 0.024557244705532836 0 -1.0914830471512704e-05 0.023417757517644109 0 0.0010162524262743117 0.022564804902677638 0 0.0011664714133406665 0.022458726844141786 0 0.001299020942919758 0.022813344097628207 0 8.0068685379470402e-05 0.02493624323351095 0 0.00024983990380552626 0.025386443959658243 0 0.0011818846954517619 0.024893992992672635 0 0.00055273872348325637 0.024557244705532836 0 0.0014452715896965717 0.027162257084198366 0 0.0014452715896965717 0.027162257084198366 0 0.001544237995706306 0.02903773821976232 0 0.0019901588874838227 0.02702295490622119 0 0.0014452715896965717 0.027162257084198366 0 0.0016443855757782141 0.030531952003771137 0 0.0015750845777761607 0.030563706360455006 0 0.0016388506539974778 0.030597166916584314 0 0.0016443855757782141 0.030531952003771137 0 0.0015750845777761607 0.030563706360455006 0 0.0014922569001748506 0.030486868219494048 0 0.0025318585525135051 0.030235004431771892 0 0.0027056924199822729 0.030469227717971292 0 0.0020111198756690733 0.03051404681443691 0 0.0015750845777761607 0.030563706360455006 0 0.0014922569001748506 0.030486868219494048 0 0.0015153570594670818 0.030578942263020315 0 0.0014471541877199689 0.030627055133813863 0 0.0014922569001748506 0.030486868219494048 0 0.0015153570594670818 0.030578942263020315 0 0.0014471541877199689 0.030627055133813863 0 0.0015153570594670818 0.030578942263020315 0 0.0015315136122097579 0.03063020882205016 0 0.0015750845777761607 0.030563706360455006 0 0.0015153570594670818 0.030578942263020315 0 0.0015315136122097579 0.03063020882205016 0 0.0015315136122097579 0.03063020882205016 0 0.0015961707898773003 0.030645734389497685 0 0.0015608963974785631 0.030717408891741824 0 0.0014471541877199689 0.030627055133813863 0 0.0015315136122097579 0.03063020882205016 0 0.0014672912505046608 0.030694742051696026 0 0.0015750845777761607 0.030563706360455006 0 0.0016388506539974778 0.030597166916584314 0 0.0015961707898773003 0.030645734389497685 0 0.0015750845777761607 0.030563706360455006 0 0.0015315136122097579 0.03063020882205016 0 0.0015961707898773003 0.030645734389497685 0 0.0016388506539974778 0.030597166916584314 0 0.0015961707898773003 0.030645734389497685 0 0.0016385508627154617 0.030636536143109822 0 0.0015961707898773003 0.030645734389497685 0 0.0016385508627154617 0.030636536143109822 0 0.0016285477830976021 0.030690814334698266 0 0.0015961707898773003 0.030645734389497685 0 0.0016285477830976021 0.030690814334698266 0 0.0015608963974785631 0.030717408891741824 0 0.0016285477830976021 0.030690814334698266 0 0.0015608963974785631 0.030717408891741824 0 0.0016031629037025232 0.030768269359927509 0 0.0015315136122097579 0.03063020882205016 0 0.0014672912505046608 0.030694742051696026 0 0.0015608963974785631 0.030717408891741824 0 0.0014816951918761707 0.030791080424644714 0 0.0015608963974785631 0.030717408891741824 0 0.00155405187236124 0.030828696187231525 0 0.0014816951918761707 0.030791080424644714 0 0.0014672912505046608 0.030694742051696026 0 0.0015608963974785631 0.030717408891741824 0 0.0014390896752658213 0.031017704118599769 0 0.0016027075334192858 0.030841177187973332 0 0.00155405187236124 0.030828696187231525 0 0.0016027075334192858 0.030841177187973332 0 0.00155405187236124 0.030828696187231525 0 0.0016031629037025232 0.030768269359927509 0 0.0015608963974785631 0.030717408891741824 0 0.00155405187236124 0.030828696187231525 0 0.0016031629037025232 0.030768269359927509 0 0.0016027075334192858 0.030841177187973332 0 0.0016031629037025232 0.030768269359927509 0 0.0016553591649269377 0.030724503494938764 0 0.0016027075334192858 0.030841177187973332 0 0.0016553591649269377 0.030724503494938764 0 0.0016768256899999927 0.0307381815973818 0 0.0016285477830976021 0.030690814334698266 0 0.0016031629037025232 0.030768269359927509 0 0.0016553591649269377 0.030724503494938764 0 0.0016553591649269377 0.030724503494938764 0 0.0016877041373985547 0.030690087991246763 0 0.0016768256899999927 0.0307381815973818 0 0.0016877041373985547 0.030690087991246763 0 0.0016768256899999927 0.0307381815973818 0 0.0017009221328396107 0.030694404890880749 0 0.0016906936344040524 0.030720084266837349 0 0.0016768256899999927 0.0307381815973818 0 0.0017009221328396107 0.030694404890880749 0 0.0016906936344040524 0.030720084266837349 0 0.0017336896539759446 0.030672429481247172 0 0.0017009221328396107 0.030694404890880749 0 0.0017336896539759446 0.030672429481247172 0 0.0017009221328396107 0.030694404890880749 0 0.0017160648094394202 0.03066185157024226 0 0.0017336896539759446 0.030672429481247172 0 0.0017414801951938352 0.030647809583834056 0 0.0017160648094394202 0.03066185157024226 0 0.0016877041373985547 0.030690087991246763 0 0.0017009221328396107 0.030694404890880749 0 0.0017160648094394202 0.03066185157024226 0 0.0017160648094394202 0.03066185157024226 0 0.0017139921162568103 0.030632499733341732 0 0.0017035886101543791 0.030652895446325386 0 0.0016877041373985547 0.030690087991246763 0 0.0017160648094394202 0.03066185157024226 0 0.0017035886101543791 0.030652895446325386 0 0.001734705998182848 0.030634887217495438 0 0.0017160648094394202 0.03066185157024226 0 0.0017139921162568103 0.030632499733341732 0 0.0017414801951938352 0.030647809583834056 0 0.001734705998182848 0.030634887217495438 0 0.0017160648094394202 0.03066185157024226 0 0.0017457979164853749 0.030605626499095536 0 0.001734705998182848 0.030634887217495438 0 0.0017139921162568103 0.030632499733341732 0 0.0017457979164853749 0.030605626499095536 0 0.001732800605758345 0.030581535193627003 0 0.0017139921162568103 0.030632499733341732 0 0.0016842227857881452 0.03057557278860704 0 0.001732800605758345 0.030581535193627003 0 0.0017139921162568103 0.030632499733341732 0 0.001733958040258127 0.030637946102074542 0 0.0017139921162568103 0.030632499733341732 0 0.0017035886101543791 0.030652895446325386 0 0.001733958040258127 0.030637946102074542 0 0.0017272740438695538 0.030639971642236433 0 0.0017139921162568103 0.030632499733341732 0 -3.0993256222462207e-06 0.025619384856690287 0 0.00018539240329481043 0.026132803850898018 0 0.001733958040258127 0.030637946102074542 0 0.0017035886101543791 0.030652895446325386 0 0.0016861020909982761 0.030638725441920155 0 0.0017035886101543791 0.030652895446325386 0 0.0016861020909982761 0.030638725441920155 0 0.0016676969607415434 0.030663058755691815 0 0.0016593458214032995 0.030623806282596169 0 0.0016861020909982761 0.030638725441920155 0 0.0016676969607415434 0.030663058755691815 0 0.0016593458214032995 0.030623806282596169 0 0.0016385508627154617 0.030636536143109822 0 0.0016676969607415434 0.030663058755691815 0 0.0016385508627154617 0.030636536143109822 0 0.0016285477830976021 0.030690814334698266 0 0.0016676969607415434 0.030663058755691815 0 0.0016285477830976021 0.030690814334698266 0 0.0016553591649269377 0.030724503494938764 0 0.0016676969607415434 0.030663058755691815 0 0.0016553591649269377 0.030724503494938764 0 0.0016877041373985547 0.030690087991246763 0 0.0016676969607415434 0.030663058755691815 0 0.0016877041373985547 0.030690087991246763 0 0.0017035886101543791 0.030652895446325386 0 0.0016676969607415434 0.030663058755691815 0 4.5619952748851314e-05 0.054954167205935343 0 1.9228839669175292e-07 0.055000176368268726 0 1.1042426655594363e-08 0.054999851645204045 0 4.5619952748851314e-05 0.054954167205935343 0 3.1146367262239402e-05 0.05482892199392924 0 2.4844981988483118e-05 0.054932940050612673 0 -0.00014167306851386007 0.054019717767066301 0 -0.00012846137838858215 0.054371700030641422 0 4.5619952748851314e-05 0.054954167205935343 0 0.00010693135494552765 0.054941571679649595 0 3.1146367262239402e-05 0.05482892199392924 0 0.00036871806495950596 0.054390068952645483 0 -8.3392522536696804e-05 0.053793958534871476 0 3.1146367262239402e-05 0.05482892199392924 0 0.00036871806495950596 0.054390068952645483 0 -8.3392522536696804e-05 0.053793958534871476 0 0.00074428813777532323 0.053434194973369896 0 4.5619952748851314e-05 0.054954167205935343 0 0.00010693135494552765 0.054941571679649595 0 7.8534061780407264e-05 0.054883197508320818 0 0.00010693135494552765 0.054941571679649595 0 0.00027298056856293066 0.054795143437724965 0 7.8534061780407264e-05 0.054883197508320818 0 -8.0955289752337781e-06 0.052598055812384609 0 0.00068979774741441521 0.05248860442569131 0 0.00074428813777532323 0.053434194973369896 0 -0.00014167306851386007 0.054019717767066301 0 -0.0001875190659780045 0.052894507218951926 0 -8.3392522536696804e-05 0.053793958534871476 0 -8.0955289752337781e-06 0.052598055812384609 0 0.00074428813777532323 0.053434194973369896 0 0.00027298056856293066 0.054795143437724965 0 0.00018765186146289713 0.05462623209416638 0 0.00040946870574378862 0.054396226990823193 0 -0.0001875190659780045 0.052894507218951926 0 -0.00018434962413043987 0.049359085921926733 0 -8.0955289752337781e-06 0.052598055812384609 0 0.00044497351994501227 0.051989200284237938 0 0.00014910756827658087 0.051404246990019574 0 -8.0955289752337781e-06 0.052598055812384609 0 0.00044497351994501227 0.051989200284237938 0 0.00068979774741441521 0.05248860442569131 0 0.00027298056856293066 0.054795143437724965 0 0.00018765186146289713 0.05462623209416638 0 7.8534061780407264e-05 0.054883197508320818 0 7.8534061780407264e-05 0.054883197508320818 0 1.9228839669175292e-07 0.055000176368268726 0 3.5433455734965314e-05 0.054595359746282233 0 0.00018765186146289713 0.05462623209416638 0 7.8534061780407264e-05 0.054883197508320818 0 3.5433455734965314e-05 0.054595359746282233 0 4.5619952748851314e-05 0.054954167205935343 0 7.8534061780407264e-05 0.054883197508320818 0 1.9228839669175292e-07 0.055000176368268726 0 1.9228839669175292e-07 0.055000176368268726 0 3.5433455734965314e-05 0.054595359746282233 0 -0.00030860566875137463 0.053843859107730166 0 1.9228839669175292e-07 0.055000176368268726 0 -2.245320039552021e-06 0.054994352841069759 0 -0.00030860566875137463 0.053843859107730166 0 3.5433455734965314e-05 0.054595359746282233 0 -0.00030860566875137463 0.053843859107730166 0 0.00019018623543399257 0.054368001717974533 0 -2.245320039552021e-06 0.054994352841069759 0 -0.00030860566875137463 0.053843859107730166 0 4.0350999566653198e-06 0.048495718935134331 0 -0.00030860566875137463 0.053843859107730166 0 0.00095149460746913781 0.052715764403082933 0 0.00046664279193608829 0.05371916724307213 0 -0.00030860566875137463 0.053843859107730166 0 4.0350999566653198e-06 0.048495718935134331 0 0.00095149460746913781 0.052715764403082933 0 1.6382352125494528e-06 0.048480439014108236 0 0.00053806451509454849 0.04637732427769143 0 -0.00021403309553032822 0.046604518761706841 0 2.4767272425554357e-07 0.048486015100342318 0 3.3593171334945196e-05 0.049326919194194747 0 0.00095149460746913781 0.052715764403082933 0 0.00046664279193608829 0.05371916724307213 0 0.0009208765095535511 0.054510459476467363 0 3.3593171334945196e-05 0.049326919194194747 0 -0.00018434962413043987 0.049359085921926733 0 0.00053806451509454849 0.04637732427769143 0 0.000557694737602392 0.045625161310806732 0 0.00021121316473897794 0.046061173048026274 0 0.000557694737602392 0.045625161310806732 0 0.00019697022305251109 0.045617075561567355 0 0.00021121316473897794 0.046061173048026274 0 -0.00030860566875137463 0.053843859107730166 0 0.00046664279193608829 0.05371916724307213 0 0.00019018623543399257 0.054368001717974533 0 0.00046664279193608829 0.05371916724307213 0 0.00019018623543399257 0.054368001717974533 0 0.0009208765095535511 0.054510459476467363 0 -2.3071600979344133e-05 0.049767495763629259 0 -0.00018434962413043987 0.049359085921926733 0 0.00018765186146289713 0.05462623209416638 0 0.00019018623543399257 0.054368001717974533 0 0.00040946870574378862 0.054396226990823193 0 0.00018765186146289713 0.05462623209416638 0 3.5433455734965314e-05 0.054595359746282233 0 0.00019018623543399257 0.054368001717974533 0 0.00014910756827658087 0.051404246990019574 0 0.00056593361718380278 0.051580173702135114 0 0.00070462167652516011 0.051402769504156051 0 -0.00018434962413043987 0.049359085921926733 0 0.00015641492734123566 0.047230610812751567 0 0.00044497351994501227 0.051989200284237938 0 0.00014910756827658087 0.051404246990019574 0 0.00056593361718380278 0.051580173702135114 0 0.0010172357907676194 0.05153516476811567 0 0.00074393453371971417 0.051432141028721082 0 0.0011908260852478169 0.051485476794948443 0 0.00015641492734123566 0.047230610812751567 0 0.0010043921648222904 0.046149724554323951 0 0.00080496646882017024 0.051876851700187548 0 0.0010172357907676194 0.05153516476811567 0 0.00074393453371971417 0.051432141028721082 0 0.00044497351994501227 0.051989200284237938 0 0.00056593361718380278 0.051580173702135114 0 0.00080496646882017024 0.051876851700187548 0 0.00056593361718380278 0.051580173702135114 0 0.00080496646882017024 0.051876851700187548 0 0.00074393453371971417 0.051432141028721082 0 0.00010960095888554498 0.047333014989756964 0 0.00015641492734123566 0.047230610812751567 0 0.0010172357907676194 0.05153516476811567 0 0.0011908260852478169 0.051485476794948443 0 0.0011378654024187262 0.051585473855768088 0 0.0017662696319528301 0.039200731295329992 0 0.0022852808083407969 0.040239842140683366 0 0.00094589928216147489 0.040087054690999935 0 0.00015641492734123566 0.047230610812751567 0 0.0009520553033006481 0.044558864392212447 0 0.0030810175743971519 0.039216978909234833 0 0.0017662696319528301 0.039200731295329992 0 0.0022852808083407969 0.040239842140683366 0 0.00019697022305251109 0.045617075561567355 0 -0.0002151397065847 0.046240598816033415 0 0.00021121316473897794 0.046061173048026274 0 0.00053806451509454849 0.04637732427769143 0 0.00021121316473897794 0.046061173048026274 0 -0.00021403309553032822 0.046604518761706841 0 -0.0002151397065847 0.046240598816033415 0 0.00021121316473897794 0.046061173048026274 0 -0.00021403309553032822 0.046604518761706841 0 0.0022852808083407969 0.040239842140683366 0 0.0015373424970149322 0.041372298447196275 0 0.00094589928216147489 0.040087054690999935 0 0.0009520553033006481 0.044558864392212447 0 0.00052364841197854181 0.043921978359181747 0 -0.0002151397065847 0.046240598816033415 0 -0.00021403309553032822 0.046604518761706841 0 -2.2217584664961899e-05 0.046089355284427341 0 -2.2217584664961899e-05 0.046089355284427341 0 -1.6550279801083331e-06 0.045969749637716821 0 1.6719323747124493e-06 0.043456116435010204 0 -0.00021403309553032822 0.046604518761706841 0 -2.2217584664961899e-05 0.046089355284427341 0 -1.6550279801083331e-06 0.045969749637716821 0 1.6382352125494528e-06 0.048480439014108236 0 -0.00021403309553032822 0.046604518761706841 0 -1.6550279801083331e-06 0.045969749637716821 0 -0.00027369469177693483 0.041036083569347001 0 2.5807465902218798e-06 0.043448179180498703 0 -7.0082348859262181e-05 0.040775688297425651 0 -0.00027369469177693483 0.041036083569347001 0 2.5807465902218798e-06 0.043448179180498703 0 -2.2461662124825543e-06 0.040577249860418649 0 0.0015373424970149322 0.041372298447196275 0 2.5807465902218798e-06 0.043448179180498703 0 -7.0082348859262181e-05 0.040775688297425651 0 0.00052364841197854181 0.043921978359181747 0 1.029073406145449e-06 0.043454506267953628 0 0.0015373424970149322 0.041372298447196275 0 -7.0082348859262181e-05 0.040775688297425651 0 0.00094589928216147489 0.040087054690999935 0 -0.00027369469177693483 0.041036083569347001 0 -7.0082348859262181e-05 0.040775688297425651 0 -0.00055343421287872843 0.040218596723111726 0 -7.0082348859262181e-05 0.040775688297425651 0 -5.5311428100204604e-05 0.039903526088195078 0 0.00094589928216147489 0.040087054690999935 0 -7.0082348859262181e-05 0.040775688297425651 0 -5.5311428100204604e-05 0.039903526088195078 0 -0.00060383406646641032 0.040113573621730077 0 0.0017662696319528301 0.039200731295329992 0 0.00094589928216147489 0.040087054690999935 0 0.00047125519646881226 0.039263365064556723 0 -5.5311428100204604e-05 0.039903526088195078 0 0.00094589928216147489 0.040087054690999935 0 0.00047125519646881226 0.039263365064556723 0 0.0011908260852478169 0.051485476794948443 0 0.001225625006729972 0.05148537647887886 0 0.001202429232407708 0.051511519970906298 0 0.0010043921648222904 0.046149724554323951 0 0.001000527928605462 0.045382740760092521 0 0.001225625006729972 0.05148537647887886 0 0.0012064079510852898 0.051489793886897076 0 0.001202429232407708 0.051511519970906298 0 0.001225625006729972 0.05148537647887886 0 0.0012064079510852898 0.051489793886897076 0 0.0011103611706383906 0.051435071919053339 0 0.001000527928605462 0.045382740760092521 0 0.0012142036754436622 0.04461842238507948 0 0.001225625006729972 0.05148537647887886 0 0.0011103611706383906 0.051435071919053339 0 0.0010588716029216576 0.051438591167515028 0 0.0012064079510852898 0.051489793886897076 0 0.0011103611706383906 0.051435071919053339 0 0.0012371261344651602 0.051538841661296061 0 -5.5311428100204604e-05 0.039903526088195078 0 0.00047125519646881226 0.039263365064556723 0 -0.00054928768945077292 0.039385258280523028 0 0.0011103611706383906 0.051435071919053339 0 0.0010833972235184824 0.050751279841530536 0 0.0015414447481471832 0.050733890468200697 0 0.0012960810359263415 0.051440490785774798 0 0.001357911119953978 0.05143633731235147 0 0.0010833972235184824 0.050751279841530536 0 0.0013524989862610008 0.050421171188118986 0 0.0012692862699321883 0.050074266201385872 0 0.00083143574365159554 0.048707881602864336 0 0.00081954845112489321 0.049438281840732588 0 0.0010833972235184824 0.050751279841530536 0 0.0013524989862610008 0.050421171188118986 0 0.0015414447481471832 0.050733890468200697 0 0.0013163304526847875 0.049389680779160207 0 0.0012692862699321883 0.050074266201385872 0 0.0013433108081074246 0.050079500038044338 0 0.0013524989862610008 0.050421171188118986 0 0.0015286308829550327 0.050284477796651794 0 0.0014077549520823754 0.05021428329164776 0 0.0013524989862610008 0.050421171188118986 0 0.0012692862699321883 0.050074266201385872 0 0.0014077549520823754 0.05021428329164776 0 0.0015286308829550327 0.050284477796651794 0 0.0015414447481471832 0.050733890468200697 0 0.0018409580848041233 0.050153129270837829 0 0.001357911119953978 0.05143633731235147 0 0.0010131325016090999 0.052196626120236386 0 0.0013524989862610008 0.050421171188118986 0 0.0015286308829550327 0.050284477796651794 0 0.0015414447481471832 0.050733890468200697 0 0.0012371261344651602 0.051538841661296061 0 0.001202429232407708 0.051511519970906298 0 0.0011378654024187262 0.051585473855768088 0 0.0012064079510852898 0.051489793886897076 0 0.0012371261344651602 0.051538841661296061 0 0.001202429232407708 0.051511519970906298 0 0.0011908260852478169 0.051485476794948443 0 0.001202429232407708 0.051511519970906298 0 0.0011378654024187262 0.051585473855768088 0 0.0010499963280068607 0.051896459704687654 0 0.0010888498513972865 0.052078868407437466 0 0.00080496646882017024 0.051876851700187548 0 0.0010172357907676194 0.05153516476811567 0 0.0014661758218943151 0.052540958701938485 0 0.00080496646882017024 0.051876851700187548 0 0.0014661758218943151 0.052540958701938485 0 0.00068979774741441521 0.05248860442569131 0 0.00044497351994501227 0.051989200284237938 0 0.00080496646882017024 0.051876851700187548 0 0.00068979774741441521 0.05248860442569131 0 0.0014661758218943151 0.052540958701938485 0 0.00068979774741441521 0.05248860442569131 0 0.00074428813777532323 0.053434194973369896 0 0.0012371261344651602 0.051538841661296061 0 0.0011378654024187262 0.051585473855768088 0 0.0011700030158978184 0.051664964483377256 0 0.0014661758218943151 0.052540958701938485 0 0.0017863744888919871 0.053508201788496808 0 0.00074428813777532323 0.053434194973369896 0 0.0010888498513972865 0.052078868407437466 0 0.0010131325016090999 0.052196626120236386 0 0.0010131325016090999 0.052196626120236386 0 0.00045888879557289057 0.053906787594642597 0 0.0017863744888919871 0.053508201788496808 0 0.00074428813777532323 0.053434194973369896 0 0.00098037512157570861 0.054504554420069198 0 0.00036871806495950596 0.054390068952645483 0 0.00074428813777532323 0.053434194973369896 0 0.00098037512157570861 0.054504554420069198 0 0.00038248257101983066 0.054379724283140626 0 0.00039279338019461977 0.054375240864844507 0 0.00037177572349698256 0.054371801125368678 0 0.0016080181257732262 0.04974226461760077 0 0.0014985785505137207 0.04993079581224652 0 0.0013153607708185993 0.049745856275116102 0 0.0018409580848041233 0.050153129270837829 0 0.0016080181257732262 0.04974226461760077 0 0.0014985785505137207 0.04993079581224652 0 0.0010131325016090999 0.052196626120236386 0 0.00078104499410308452 0.051797090352692872 0 0.0013153607708185993 0.049745856275116102 0 0.0013578312299458229 0.049987494797785803 0 0.0013433108081074246 0.050079500038044338 0 0.0014985785505137207 0.04993079581224652 0 0.0013153607708185993 0.049745856275116102 0 0.0013578312299458229 0.049987494797785803 0 0.00022597208576313207 0.046802287159965338 0 0.000409453985367005 0.045091699205563086 0 -0.0025890048690949182 0.04219158065085736 0 -0.0016901981004614616 0.039657430398983902 0 -0.0013091223335713964 0.040767339354811666 0 0.0013578312299458229 0.049987494797785803 0 0.0012692862699321883 0.050074266201385872 0 0.001467027945646505 0.050094134481776922 0 0.0014985785505137207 0.04993079581224652 0 0.0013578312299458229 0.049987494797785803 0 0.001467027945646505 0.050094134481776922 0 0.0013578312299458229 0.049987494797785803 0 0.0012692862699321883 0.050074266201385872 0 0.0013433108081074246 0.050079500038044338 0 0.0012692862699321883 0.050074266201385872 0 0.0014077549520823754 0.05021428329164776 0 0.001467027945646505 0.050094134481776922 0 0.0015286308829550327 0.050284477796651794 0 0.0014077549520823754 0.05021428329164776 0 0.001467027945646505 0.050094134481776922 0 0.0018409580848041233 0.050153129270837829 0 0.0014985785505137207 0.04993079581224652 0 0.001467027945646505 0.050094134481776922 0 0.0015286308829550327 0.050284477796651794 0 0.0018409580848041233 0.050153129270837829 0 0.001467027945646505 0.050094134481776922 0 0.00032075270623876522 0.040499539366999918 0 0.0011832195359450836 0.039613605259110708 0 0.0019044525293661274 0.039097458273105394 0 9.4725494005123197e-05 0.04064874504893537 0 0.0012213132325442433 0.040511518036900708 0 0.0016624009765616597 0.039346514499963348 0 -0.0010621447376296166 0.037938125630471602 0 -0.00025573679851412267 0.035357754534318338 0 0.00032075270623876522 0.040499539366999918 0 9.5585295318371361e-05 0.039771062295075689 0 -0.00062315348266578558 0.040432949440441512 0 0.00032075270623876522 0.040499539366999918 0 0.0011832195359450836 0.039613605259110708 0 9.5585295318371361e-05 0.039771062295075689 0 9.4725494005123197e-05 0.04064874504893537 0 0.0012213132325442433 0.040511518036900708 0 0.00077868314103893494 0.041355522622291356 0 0.0011832195359450836 0.039613605259110708 0 0.00042435495781243499 0.039204382301960619 0 0.00090035174969118421 0.038839243107917643 0 0.0011832195359450836 0.039613605259110708 0 0.0014544606764313984 0.03891879099455095 0 0.00090035174969118421 0.038839243107917643 0 0.0011832195359450836 0.039613605259110708 0 0.00042435495781243499 0.039204382301960619 0 9.5585295318371361e-05 0.039771062295075689 0 0.00042435495781243499 0.039204382301960619 0 9.5585295318371361e-05 0.039771062295075689 0 -0.00018119677162959936 0.039180357977940526 0 -0.00018119677162959936 0.039180357977940526 0 -0.00077376845476622206 0.039196219292103471 0 -0.00060820074335866665 0.039723288961060928 0 -0.00077376845476622206 0.039196219292103471 0 -0.00060820074335866665 0.039723288961060928 0 -0.001043377657405324 0.039984412736063804 0 9.5585295318371361e-05 0.039771062295075689 0 -0.00018119677162959936 0.039180357977940526 0 -0.00060820074335866665 0.039723288961060928 0 -0.00077376845476622206 0.039196219292103471 0 -0.0016901981004614616 0.039657430398983902 0 -0.001043377657405324 0.039984412736063804 0 -0.0016901981004614616 0.039657430398983902 0 -0.001043377657405324 0.039984412736063804 0 -0.0013091223335713964 0.040767339354811666 0 -0.001043377657405324 0.039984412736063804 0 -0.00062315348266578558 0.040432949440441512 0 -0.0013091223335713964 0.040767339354811666 0 9.5585295318371361e-05 0.039771062295075689 0 -0.00060820074335866665 0.039723288961060928 0 -0.00062315348266578558 0.040432949440441512 0 -0.00060820074335866665 0.039723288961060928 0 -0.001043377657405324 0.039984412736063804 0 -0.00062315348266578558 0.040432949440441512 0 0.00032075270623876522 0.040499539366999918 0 -0.00062315348266578558 0.040432949440441512 0 -0.0014364728094830076 0.041920295646317988 0 -0.0014364728094830076 0.041920295646317988 0 9.1431496661920588e-05 0.042052544369664956 0 -0.00087069293324498461 0.04284291052121237 0 9.4725494005123197e-05 0.04064874504893537 0 -0.0014364728094830076 0.041920295646317988 0 9.1431496661920588e-05 0.042052544369664956 0 -0.0010621447376296166 0.037938125630471602 0 -0.0015511402495655109 0.038909641283830343 0 -0.00062315348266578558 0.040432949440441512 0 -0.0013091223335713964 0.040767339354811666 0 -0.0014364728094830076 0.041920295646317988 0 -0.0025890048690949182 0.04219158065085736 0 -0.0013091223335713964 0.040767339354811666 0 -0.0014364728094830076 0.041920295646317988 0 9.1431496661920588e-05 0.042052544369664956 0 0.00077868314103893494 0.041355522622291356 0 0.0016856347055190794 0.042007934783399016 0 9.4725494005123197e-05 0.04064874504893537 0 9.1431496661920588e-05 0.042052544369664956 0 0.00077868314103893494 0.041355522622291356 0 -0.0016573164625113333 0.031076771447939893 0 -0.0016640002414230674 0.031084651150931262 0 -0.0016669824954204926 0.031097448423206723 0 0.0012213132325442433 0.040511518036900708 0 0.00077868314103893494 0.041355522622291356 0 0.0016856347055190794 0.042007934783399016 0 -0.0010924687397845623 0.032171351943755908 0 -0.0012859196854372772 0.031737626185691932 0 -0.0016640002414230674 0.031084651150931262 0 -0.0016669824954204926 0.031097448423206723 0 -0.0016253271984652999 0.031099776438665742 0 -0.0015733339775749386 0.031095020834726192 0 -0.0015903885224898004 0.031089141069633508 0 -0.0016253271984652999 0.031099776438665742 0 -0.0015733339775749386 0.031095020834726192 0 -0.0016253271984652999 0.031099776438665742 0 -0.0015869404363250369 0.031120594209186593 0 -0.0015903885224898004 0.031089141069633508 0 -0.0015597631117323651 0.031042004727206498 0 -0.0016225193093171101 0.031022264099342018 0 -0.0015733339775749386 0.031095020834726192 0 -0.0015295251882323168 0.031065211279903256 0 -0.0015903885224898004 0.031089141069633508 0 -0.0015295251882323168 0.031065211279903256 0 -0.0015903885224898004 0.031089141069633508 0 -0.0015597631117323651 0.031042004727206498 0 -0.0015295251882323168 0.031065211279903256 0 -0.0015597631117323651 0.031042004727206498 0 -0.0015163372516239242 0.031022239632447629 0 -0.00011478563256028117 0.036572432947954224 0 -0.00013313807427722658 0.034725346861288711 0 -0.0010924687397845623 0.032171351943755908 0 -0.00019994188260468758 0.03420073556845879 0 -0.0016669824954204926 0.031097448423206723 0 -0.0016350877699058697 0.031143859931663277 0 -0.001639797747116195 0.031148608471799104 0 -0.0016573164625113333 0.031076771447939893 0 -0.0016669824954204926 0.031097448423206723 0 -0.0016350877699058697 0.031143859931663277 0 0.0012213132325442433 0.040511518036900708 0 0.0016856347055190794 0.042007934783399016 0 0.0018898698767479882 0.039159600046429453 0 0.0012213132325442433 0.040511518036900708 0 0.0016624009765616597 0.039346514499963348 0 0.0018898698767479882 0.039159600046429453 0 -0.00026369155285307309 0.035519325078935647 0 -0.00025573679851412267 0.035357754534318338 0 0.0011832195359450836 0.039613605259110708 0 0.0018779251452712485 0.039128962690237454 0 0.0014544606764313984 0.03891879099455095 0 0.0014544606764313984 0.03891879099455095 0 0.0016745451364552977 0.03860393253412412 0 0.0018495991883539298 0.038827967188742228 0 0.0018779251452712485 0.039128962690237454 0 0.0014544606764313984 0.03891879099455095 0 0.0018495991883539298 0.038827967188742228 0 0.0014544606764313984 0.03891879099455095 0 0.0016745451364552977 0.03860393253412412 0 0.0012458149997167944 0.038369896078619736 0 0.0016745451364552977 0.03860393253412412 0 0.0021351418259046673 0.038451871266622695 0 0.0016483709970456814 0.03830513710060187 0 0.0016745451364552977 0.03860393253412412 0 0.0016483709970456814 0.03830513710060187 0 0.0012458149997167944 0.038369896078619736 0 0.0016745451364552977 0.03860393253412412 0 0.0021351418259046673 0.038451871266622695 0 0.0018495991883539298 0.038827967188742228 0 -4.5729531541258967e-05 0.034512254963820516 0 -0.00013313807427722658 0.034725346861288711 0 0.0021351418259046673 0.038451871266622695 0 0.0018495991883539298 0.038827967188742228 0 0.0021031347540615844 0.038943073565097394 0 0.00055568404715085177 0.034334705843382655 0 0.00058829666729194 0.033860169333245489 0 0.00041469455386685034 0.034002328459444446 0 -0.00013313807427722658 0.034725346861288711 0 -0.00019994188260468758 0.03420073556845879 0 0.0018779251452712485 0.039128962690237454 0 0.0018495991883539298 0.038827967188742228 0 0.0021031347540615844 0.038943073565097394 0 -0.00025573679851412267 0.035357754534318338 0 -0.00013313807427722658 0.034725346861288711 0 -4.5729531541258967e-05 0.034512254963820516 0 -0.00019994188260468758 0.03420073556845879 0 -0.00019994188260468758 0.03420073556845879 0 -0.00022372163233269786 0.032999903572241071 0 0.00047565399521219736 0.030917746510095667 0 0.00033221970264666841 0.031352350191409022 0 -3.8291968296162466e-05 0.031333848663427352 0 0.00053060694856940562 0.031049254358662886 0 0.00047565399521219736 0.030917746510095667 0 0.00033221970264666841 0.031352350191409022 0 0.0021351418259046673 0.038451871266622695 0 0.0014749841329289874 0.037772787494012194 0 0.0016483709970456814 0.03830513710060187 0 0.0014749841329289874 0.037772787494012194 0 0.0016483709970456814 0.03830513710060187 0 0.0012458149997167944 0.038369896078619736 0 -0.0016225193093171101 0.031022264099342018 0 -0.0015412560430999029 0.030966867025957374 0 -0.0015326465981455677 0.030953916026067913 0 -0.0016225193093171101 0.031022264099342018 0 -0.0015514240884860128 0.031007260643879483 0 -0.0015412560430999029 0.030966867025957374 0 -0.00019994188260468758 0.03420073556845879 0 -0.00068992502913304144 0.032482979069386173 0 -0.00066610567965650421 0.033340670862180753 0 -0.00037037174132911879 0.033089678609968573 0 -0.00023633722872714417 0.033061675468632208 0 -0.0015514240884860128 0.031007260643879483 0 -0.0015163372516239242 0.031022239632447629 0 -0.0015043953836653458 0.030979246434374098 0 -0.0015597631117323651 0.031042004727206498 0 -0.0015514240884860128 0.031007260643879483 0 -0.0015163372516239242 0.031022239632447629 0 -0.0015597631117323651 0.031042004727206498 0 -0.0016225193093171101 0.031022264099342018 0 -0.0015514240884860128 0.031007260643879483 0 -0.0015514240884860128 0.031007260643879483 0 -0.0015412560430999029 0.030966867025957374 0 -0.0015043953836653458 0.030979246434374098 0 -0.00068830014315560855 0.032470584792373032 0 -0.00068992502913304144 0.032482979069386173 0 -0.0015412560430999029 0.030966867025957374 0 -0.0015309569797927202 0.030948848527467935 0 -0.0015043953836653458 0.030979246434374098 0 -3.8291968296162466e-05 0.031333848663427352 0 -8.4184037550069234e-05 0.032010296628424986 0 -0.00057309930832601314 0.031781117700734218 0 -3.8291968296162466e-05 0.031333848663427352 0 0.00017578917559903844 0.031682521234816151 0 -8.4184037550069234e-05 0.032010296628424986 0 -0.00037037174132911879 0.033089678609968573 0 -0.00023633722872714417 0.033061675468632208 0 -7.4503454995420275e-05 0.032839546944281546 0 -0.00022372163233269786 0.032999903572241071 0 -0.00060888680461713865 0.032288016455032979 0 0.00033221970264666841 0.031352350191409022 0 -3.8291968296162466e-05 0.031333848663427352 0 0.00017578917559903844 0.031682521234816151 0 0.00017578917559903844 0.031682521234816151 0 0.00049248677010105127 0.031966212173245113 0 -8.4184037550069234e-05 0.032010296628424986 0 -8.4184037550069234e-05 0.032010296628424986 0 -0.00039805292838558393 0.032120125111836297 0 -0.00057309930832601314 0.031781117700734218 0 -4.5729531541258967e-05 0.034512254963820516 0 0.00018483226037812665 0.033862325087479696 0 0.00033221970264666841 0.031352350191409022 0 0.00017578917559903844 0.031682521234816151 0 0.00049248677010105127 0.031966212173245113 0 0.0021351418259046673 0.038451871266622695 0 0.0014749841329289874 0.037772787494012194 0 0.0011824092678686502 0.036461674630919066 0 0.00053060694856940562 0.031049254358662886 0 0.00033221970264666841 0.031352350191409022 0 0.00049248677010105127 0.031966212173245113 0 -4.5729531541258967e-05 0.034512254963820516 0 0.00048252551105914198 0.035457515008144744 0 0.00040841032289660361 0.034845524422420053 0 0.00040449049332654647 0.034998245947039146 0 0.00046767930679260513 0.034977217312066912 0 0.0011824092678686502 0.036461674630919066 0 0.00058926443823730532 0.036820863289800027 0 0.00089962785386394977 0.03722355421196212 0 0.0011824092678686502 0.036461674630919066 0 0.00022979581280031152 0.036428075223850727 0 0.00026900806386589353 0.035987601057275054 0 0.00022979581280031152 0.036428075223850727 0 0.00058926443823730532 0.036820863289800027 0 7.6797561589946303e-05 0.037063918591751101 0 0.0011824092678686502 0.036461674630919066 0 0.00022979581280031152 0.036428075223850727 0 0.00058926443823730532 0.036820863289800027 0 0.00058926443823730532 0.036820863289800027 0 0.00039573755166456636 0.03730972134168669 0 0.00089962785386394977 0.03722355421196212 0 0.00058926443823730532 0.036820863289800027 0 7.6797561589946303e-05 0.037063918591751101 0 0.00039573755166456636 0.03730972134168669 0 7.6797561589946303e-05 0.037063918591751101 0 0.00039573755166456636 0.03730972134168669 0 -0.00012267761025557379 0.037568794732553056 0 0.0014749841329289874 0.037772787494012194 0 0.0011824092678686502 0.036461674630919066 0 0.00089962785386394977 0.03722355421196212 0 0.00039573755166456636 0.03730972134168669 0 0.00089962785386394977 0.03722355421196212 0 0.00087569765347077005 0.037777470898832877 0 0.0014749841329289874 0.037772787494012194 0 0.00089962785386394977 0.03722355421196212 0 0.00087569765347077005 0.037777470898832877 0 0.0014749841329289874 0.037772787494012194 0 0.00087569765347077005 0.037777470898832877 0 0.0012458149997167944 0.038369896078619736 0 0.00087569765347077005 0.037777470898832877 0 0.0012458149997167944 0.038369896078619736 0 0.00077046084095606839 0.038334073206828238 0 0.00039573755166456636 0.03730972134168669 0 0.00087569765347077005 0.037777470898832877 0 0.00019791475425932616 0.037992006062961464 0 0.00039573755166456636 0.03730972134168669 0 0.00019791475425932616 0.037992006062961464 0 -0.00012267761025557379 0.037568794732553056 0 0.00087569765347077005 0.037777470898832877 0 0.00019791475425932616 0.037992006062961464 0 0.00077046084095606839 0.038334073206828238 0 0.00019791475425932616 0.037992006062961464 0 0.00032135840819212609 0.038608219685644395 0 0.00077046084095606839 0.038334073206828238 0 0.00032135840819212609 0.038608219685644395 0 0.00090035174969118421 0.038839243107917643 0 0.00077046084095606839 0.038334073206828238 0 0.00019791475425932616 0.037992006062961464 0 0.00032135840819212609 0.038608219685644395 0 -0.00029900540647649713 0.038594956528362576 0 -0.00018119677162959936 0.039180357977940526 0 0.00032135840819212609 0.038608219685644395 0 -0.00029900540647649713 0.038594956528362576 0 0.00042435495781243499 0.039204382301960619 0 -0.00018119677162959936 0.039180357977940526 0 0.00032135840819212609 0.038608219685644395 0 0.00042435495781243499 0.039204382301960619 0 0.00032135840819212609 0.038608219685644395 0 0.00090035174969118421 0.038839243107917643 0 0.0014544606764313984 0.03891879099455095 0 0.00090035174969118421 0.038839243107917643 0 0.0012458149997167944 0.038369896078619736 0 0.00090035174969118421 0.038839243107917643 0 0.0012458149997167944 0.038369896078619736 0 0.00077046084095606839 0.038334073206828238 0 0.0013163304526847875 0.049389680779160207 0 0.0013433108081074246 0.050079500038044338 0 0.0016299878910920455 0.049388192790098796 0 0.000409453985367005 0.045091699205563086 0 0.00082485805989481874 0.043780706618901627 0 -0.0016901981004614616 0.039657430398983902 0 -0.00055559218915184907 0.038364818609071302 0 -0.00069571089999656056 0.037273906520216955 0 -0.00077376845476622206 0.039196219292103471 0 -0.0016901981004614616 0.039657430398983902 0 -0.00055559218915184907 0.038364818609071302 0 -0.00077376845476622206 0.039196219292103471 0 -0.00029900540647649713 0.038594956528362576 0 -0.00055559218915184907 0.038364818609071302 0 -0.00018119677162959936 0.039180357977940526 0 -0.00077376845476622206 0.039196219292103471 0 -0.00029900540647649713 0.038594956528362576 0 0.00019791475425932616 0.037992006062961464 0 -0.00055559218915184907 0.038364818609071302 0 -0.00012267761025557379 0.037568794732553056 0 -0.00055559218915184907 0.038364818609071302 0 -0.00069571089999656056 0.037273906520216955 0 -0.00012267761025557379 0.037568794732553056 0 0.00019791475425932616 0.037992006062961464 0 -0.00029900540647649713 0.038594956528362576 0 -0.00055559218915184907 0.038364818609071302 0 0.00083143574365159554 0.048707881602864336 0 0.0012142036754436622 0.04461842238507948 0 0.0013163304526847875 0.049389680779160207 0 0.0016299878910920455 0.049388192790098796 0 0.0014773219956426685 0.048526931348810524 0 0.00082485805989481874 0.043780706618901627 0 0.0012654821214204276 0.04324468156834315 0 0.00022979581280031152 0.036428075223850727 0 -0.00069571089999656056 0.037273906520216955 0 0.00026900806386589353 0.035987601057275054 0 0.00022979581280031152 0.036428075223850727 0 7.6797561589946303e-05 0.037063918591751101 0 -0.00069571089999656056 0.037273906520216955 0 7.6797561589946303e-05 0.037063918591751101 0 -0.00069571089999656056 0.037273906520216955 0 -0.00012267761025557379 0.037568794732553056 0 0.0016299878910920455 0.049388192790098796 0 0.0014773219956426685 0.048526931348810524 0 0.0019236940345227478 0.048520055084097014 0 0.0011103611706383906 0.051435071919053339 0 0.0010833972235184824 0.050751279841530536 0 0.0010588716029216576 0.051438591167515028 0 -0.00069571089999656056 0.037273906520216955 0 0.00026900806386589353 0.035987601057275054 0 0.00023182619182172257 0.035392114454331824 0 0.0012142036754436622 0.04461842238507948 0 0.0012654821214204276 0.04324468156834315 0 -0.001120874343437976 0.04292396655031791 0 -0.00013689548409689215 0.042921122653363897 0 -0.00063143414797179644 0.042329779791639141 0 0.00046767930679260513 0.034977217312066912 0 0.00048191141149762001 0.035178703924073865 0 0.00044250528835621195 0.035068920992354785 0 0.00048252551105914198 0.035457515008144744 0 0.00050169024463716171 0.035435072377341392 0 0.0011824092678686502 0.036461674630919066 0 0.0003968127141808235 0.035415787322582971 0 0.00048191141149762001 0.035178703924073865 0 0.0011824092678686502 0.036461674630919066 0 0.00026900806386589353 0.035987601057275054 0 0.0003968127141808235 0.035415787322582971 0 0.00026900806386589353 0.035987601057275054 0 0.0003968127141808235 0.035415787322582971 0 0.00023182619182172257 0.035392114454331824 0 0.0012617781209581737 0.04323117433818742 0 0.0012654821214204276 0.04324468156834315 0 0.0003968127141808235 0.035415787322582971 0 0.00034414051611655297 0.035273214750884727 0 0.00048191141149762001 0.035178703924073865 0 0.00034414051611655297 0.035273214750884727 0 0.00048191141149762001 0.035178703924073865 0 0.0007209928643740715 0.035157744877360605 0 0.0012654821214204276 0.04324468156834315 0 0.0013550514733953489 0.039770490366337202 0 -0.00013689548409689215 0.042921122653363897 0 -0.00063143414797179644 0.042329779791639141 0 0.0004624452336645503 0.041097985867501421 0 0.00050710336544520704 0.03511508933203214 0 0.00048191141149762001 0.035178703924073865 0 0.0007209928643740715 0.035157744877360605 0 0.00050710336544520704 0.03511508933203214 0 0.00048191141149762001 0.035178703924073865 0 0.00044250528835621195 0.035068920992354785 0 -0.00084034086674250239 0.041585020735280025 0 -0.00063143414797179644 0.042329779791639141 0 0.0004624452336645503 0.041097985867501421 0 -5.5311428100204604e-05 0.039903526088195078 0 -0.00054928768945077292 0.039385258280523028 0 -0.00060383406646641032 0.040113573621730077 0 0.0012142036754436622 0.04461842238507948 0 0.00095824794158012449 0.042445322240496866 0 -0.001120874343437976 0.04292396655031791 0 -0.00084034086674250239 0.041585020735280025 0 -0.00063143414797179644 0.042329779791639141 0 -7.0082348859262181e-05 0.040775688297425651 0 -0.00060383406646641032 0.040113573621730077 0 -0.00055343421287872843 0.040218596723111726 0 -0.00084034086674250239 0.041585020735280025 0 -0.00055343421287872843 0.040218596723111726 0 0.0004624452336645503 0.041097985867501421 0 0.00095824794158012449 0.042445322240496866 0 0.00087411875005364149 0.041809702244358232 0 0.0013550514733953489 0.039770490366337202 0 0.0012707603749521378 0.039014549194303624 0 0.0004624452336645503 0.041097985867501421 0 2.3069801956178641e-05 0.039473542292706255 0 0.00027034249935499032 0.037559418258191091 0 -0.00055343421287872843 0.040218596723111726 0 0.0004624452336645503 0.041097985867501421 0 2.3069801956178641e-05 0.039473542292706255 0 -0.00055343421287872843 0.040218596723111726 0 -3.6950641220782807e-05 0.03905247156454611 0 2.3069801956178641e-05 0.039473542292706255 0 -3.6950641220782807e-05 0.03905247156454611 0 -2.2461662124825543e-06 0.040577249860418649 0 2.2325671122280777e-06 0.037698307444369333 0 -3.6950641220782807e-05 0.03905247156454611 0 2.3069801956178641e-05 0.039473542292706255 0 0.00027034249935499032 0.037559418258191091 0 -3.6950641220782807e-05 0.03905247156454611 0 0.00027034249935499032 0.037559418258191091 0 2.2325671122280777e-06 0.037698307444369333 0 -0.00027369469177693483 0.041036083569347001 0 -0.00055343421287872843 0.040218596723111726 0 -2.2461662124825543e-06 0.040577249860418649 0 -0.00055343421287872843 0.040218596723111726 0 -3.6950641220782807e-05 0.03905247156454611 0 -2.2461662124825543e-06 0.040577249860418649 0 -0.00018239371597591385 0.034470614103602505 0 -1.3844791018991089e-06 0.034821879571572449 0 2.2497153091646688e-05 0.035518347354088611 0 -0.00018239371597591385 0.034470614103602505 0 -1.3844791018991089e-06 0.034821879571572449 0 -0.00041892971266731211 0.033650214734572047 0 -1.3844791018991089e-06 0.034821879571572449 0 2.2325671122280777e-06 0.037698307444369333 0 2.2497153091646688e-05 0.035518347354088611 0 0.00027034249935499032 0.037559418258191091 0 2.2325671122280777e-06 0.037698307444369333 0 2.2497153091646688e-05 0.035518347354088611 0 0.00019206368541886096 0.034660593795319092 0 0.00022614061539582555 0.034209625254130051 0 0.0007209928643740715 0.035157744877360605 0 0.00027034249935499032 0.037559418258191091 0 2.2497153091646688e-05 0.035518347354088611 0 0.0007209928643740715 0.035157744877360605 0 2.2497153091646688e-05 0.035518347354088611 0 0.00032692232729447868 0.035081071521614896 0 2.2497153091646688e-05 0.035518347354088611 0 -0.00034669452449125103 0.033695310120895966 0 0.00053280972450373823 0.032905983423118353 0 -0.00018239371597591385 0.034470614103602505 0 2.2497153091646688e-05 0.035518347354088611 0 -0.00034669452449125103 0.033695310120895966 0 -0.00018239371597591385 0.034470614103602505 0 -0.00034669452449125103 0.033695310120895966 0 -0.00041892971266731211 0.033650214734572047 0 -0.00034669452449125103 0.033695310120895966 0 -0.00049784238608972179 0.032969302718759114 0 0.00053280972450373823 0.032905983423118353 0 -0.00049784238608972179 0.032969302718759114 0 0.00053280972450373823 0.032905983423118353 0 -0.00032701045784183392 0.032508086292767892 0 0.00050710336544520704 0.03511508933203214 0 0.0007209928643740715 0.035157744877360605 0 0.00032692232729447868 0.035081071521614896 0 0.00050710336544520704 0.03511508933203214 0 0.00032692232729447868 0.035081071521614896 0 0.00044250528835621195 0.035068920992354785 0 0.00018483226037812665 0.033862325087479696 0 0.00022614061539582555 0.034209625254130051 0 0.00040449049332654647 0.034998245947039146 0 0.00032692232729447868 0.035081071521614896 0 0.00044250528835621195 0.035068920992354785 0 0.00049248677010105127 0.031966212173245113 0 0.00053280972450373823 0.032905983423118353 0 -8.4184037550069234e-05 0.032010296628424986 0 0.00040449049332654647 0.034998245947039146 0 0.00046767930679260513 0.034977217312066912 0 0.00044250528835621195 0.035068920992354785 0 0.00053280972450373823 0.032905983423118353 0 -0.00032701045784183392 0.032508086292767892 0 -8.4184037550069234e-05 0.032010296628424986 0 -0.00032701045784183392 0.032508086292767892 0 -8.4184037550069234e-05 0.032010296628424986 0 -0.00039805292838558393 0.032120125111836297 0 -0.00071058232446709736 0.032044904024690915 0 -0.00060888680461713865 0.032288016455032979 0 -0.00077815473743210125 0.031857428443853017 0 -0.00060888680461713865 0.032288016455032979 0 -0.00061267882133147708 0.032270021695302818 0 -0.00089832617913883296 0.032500756984192122 0 -0.00057309930832601314 0.031781117700734218 0 -0.00039805292838558393 0.032120125111836297 0 -0.00061267882133147708 0.032270021695302818 0 -0.00057309930832601314 0.031781117700734218 0 -0.0014113841550486544 0.030850131831498259 0 -0.0014783737983814034 0.030784080713472647 0 -0.001707177779540583 0.031107159694672384 0 -0.00032701045784183392 0.032508086292767892 0 -0.00039805292838558393 0.032120125111836297 0 -0.00061267882133147708 0.032270021695302818 0 -0.00061267882133147708 0.032270021695302818 0 -0.00076167218518968327 0.032486812867726964 0 -0.00070547755126062724 0.0326288052222313 0 -0.00061267882133147708 0.032270021695302818 0 -0.00076167218518968327 0.032486812867726964 0 -0.00089832617913883296 0.032500756984192122 0 -0.00080642322778872171 0.032544162278835401 0 -0.00076167218518968327 0.032486812867726964 0 -0.00089832617913883296 0.032500756984192122 0 -0.00080642322778872171 0.032544162278835401 0 -0.00076167218518968327 0.032486812867726964 0 -0.00070547755126062724 0.0326288052222313 0 -0.00032701045784183392 0.032508086292767892 0 -0.00061267882133147708 0.032270021695302818 0 -0.00070547755126062724 0.0326288052222313 0 -0.00089443670582748844 0.031591984940365865 0 -0.00089956512460511243 0.031823717687147285 0 -0.0014113841550486544 0.030850131831498259 0 -0.0011269972830896585 0.030777104439427237 0 -0.0014848442293360145 0.031051960162441113 0 -0.0011269972830896585 0.030777104439427237 0 -0.0012579068251717472 0.030883303675900895 0 -0.0013809422707089165 0.030857875141248371 0 -0.0014783737983814034 0.030784080713472647 0 -0.0013550785731272334 0.030754184263362839 0 -0.0012913678542083732 0.030665833351658466 0 -0.0014113841550486544 0.030850131831498259 0 -0.0014783737983814034 0.030784080713472647 0 -0.0013550785731272334 0.030754184263362839 0 -0.0014113841550486544 0.030850131831498259 0 -0.0013550785731272334 0.030754184263362839 0 -0.0011269972830896585 0.030777104439427237 0 -0.0013550785731272334 0.030754184263362839 0 -0.0012913678542083732 0.030665833351658466 0 -0.0011269972830896585 0.030777104439427237 0 -0.0014783737983814034 0.030784080713472647 0 -0.0012913678542083732 0.030665833351658466 0 -0.0012461112827575947 0.030424694915534102 0 -0.00089832617913883296 0.032500756984192122 0 -0.00083649822843326728 0.032556077955859374 0 -0.00071495072553414525 0.032453281397483033 0 -0.00077815473743210125 0.031857428443853017 0 -0.00086760199525593362 0.031612728161833574 0 -0.00080642322778872171 0.032544162278835401 0 -0.00089832617913883296 0.032500756984192122 0 -0.00083649822843326728 0.032556077955859374 0 -0.00083649822843326728 0.032556077955859374 0 -0.00084642030272096284 0.032535204875443854 0 -0.00071495072553414525 0.032453281397483033 0 -0.00049784238608972179 0.032969302718759114 0 -0.00032701045784183392 0.032508086292767892 0 -0.00070547755126062724 0.0326288052222313 0 -0.00080642322778872171 0.032544162278835401 0 -0.00083649822843326728 0.032556077955859374 0 -0.00070547755126062724 0.0326288052222313 0 -0.00083649822843326728 0.032556077955859374 0 -0.00070547755126062724 0.0326288052222313 0 -0.00072132172551335179 0.03282006642430773 0 -0.00083649822843326728 0.032556077955859374 0 -0.00084642030272096284 0.032535204875443854 0 -0.00072132172551335179 0.03282006642430773 0 -0.00034669452449125103 0.033695310120895966 0 -0.00049784238608972179 0.032969302718759114 0 -0.00072132172551335179 0.03282006642430773 0 -0.00049784238608972179 0.032969302718759114 0 -0.00070547755126062724 0.0326288052222313 0 -0.00072132172551335179 0.03282006642430773 0 -0.00067425876976390535 0.0329452224721693 0 -0.00083980219118201169 0.032179627693903055 0 -0.00041892971266731211 0.033650214734572047 0 -0.00034669452449125103 0.033695310120895966 0 -0.00072132172551335179 0.03282006642430773 0 -0.00067425876976390535 0.0329452224721693 0 -0.00034669452449125103 0.033695310120895966 0 -0.00067425876976390535 0.0329452224721693 0 -0.00041892971266731211 0.033650214734572047 0 -0.00084642030272096284 0.032535204875443854 0 -0.00072132172551335179 0.03282006642430773 0 -0.00067425876976390535 0.0329452224721693 0 -0.00084642030272096284 0.032535204875443854 0 -0.00071495072553414525 0.032453281397483033 0 -0.00083980219118201169 0.032179627693903055 0 -0.00083980219118201169 0.032179627693903055 0 -0.00081293888355533678 0.031217404677999099 0 -0.00041892971266731211 0.033650214734572047 0 -0.00084642030272096284 0.032535204875443854 0 -0.00067425876976390535 0.0329452224721693 0 -0.00083980219118201169 0.032179627693903055 0 -0.00071495072553414525 0.032453281397483033 0 -0.00080761906645086454 0.031431030135349855 0 -0.00083980219118201169 0.032179627693903055 0 -0.00080761906645086454 0.031431030135349855 0 -0.00083980219118201169 0.032179627693903055 0 -0.00081293888355533678 0.031217404677999099 0 -3.2551490940953903e-07 0.031945086716748512 0 8.2682386565796496e-06 0.031141078602107866 0 -0.00041892971266731211 0.033650214734572047 0 -0.00049738671374600896 0.030323343897733057 0 -0.00051235019842595878 0.030937136678011973 0 -1.3844791018991089e-06 0.034821879571572449 0 -3.2551490940953903e-07 0.031945086716748512 0 -0.00041892971266731211 0.033650214734572047 0 -1.8694677947170285e-06 0.02619109610841738 0 5.2924932934490235e-07 0.029068471270292509 0 -1.4035474666909262e-05 0.028140515966161669 0 -0.00081293888355533678 0.031217404677999099 0 -0.0011259322564730547 0.02854432834146696 0 -0.00088177346616225569 0.029765878293204113 0 8.2682386565796496e-06 0.031141078602107866 0 5.2924932934490235e-07 0.029068471270292509 0 -1.4035474666909262e-05 0.028140515966161669 0 -0.00049738671374600896 0.030323343897733057 0 -0.0004187952881380615 0.029188827096497845 0 -3.2551490940953903e-07 0.031945086716748512 0 8.2682386565796496e-06 0.031141078602107866 0 5.2924932934490235e-07 0.029068471270292509 0 -0.00086760199525593362 0.031612728161833574 0 -0.00085098765098997871 0.031423049083326306 0 -0.00071495072553414525 0.032453281397483033 0 -0.00080761906645086454 0.031431030135349855 0 -0.00082960383464861221 0.030145703354848282 0 -0.00098796059619740673 0.029680472023416813 0 -0.0010097111618401825 0.029638508514850444 0 -0.00081293888355533678 0.031217404677999099 0 -0.00088177346616225569 0.029765878293204113 0 -0.00082960383464861221 0.030145703354848282 0 -0.00088177346616225569 0.029765878293204113 0 -0.00082960383464861221 0.030145703354848282 0 -0.00098800052174768255 0.030250625305072606 0 -0.0012461112827575947 0.030424694915534102 0 -0.00082960383464861221 0.030145703354848282 0 -0.00098800052174768255 0.030250625305072606 0 -0.00088177346616225569 0.029765878293204113 0 -0.0010993040668734687 0.028642927406711181 0 -0.00085863756176972849 0.028315405911328473 0 -0.00088177346616225569 0.029765878293204113 0 -0.00098800052174768255 0.030250625305072606 0 -0.00094457328439352347 0.030651450256853084 0 -0.00080761906645086454 0.031431030135349855 0 -0.00081293888355533678 0.031217404677999099 0 -0.00082960383464861221 0.030145703354848282 0 -0.0011259322564730547 0.02854432834146696 0 -0.00088177346616225569 0.029765878293204113 0 -0.0011249175170858217 0.028708794602683187 0 -0.00088177346616225569 0.029765878293204113 0 -0.0010993040668734687 0.028642927406711181 0 -0.0011249175170858217 0.028708794602683187 0 -0.00099283667274785046 0.028097554685061261 0 -0.0011259322564730547 0.02854432834146696 0 -0.0011249175170858217 0.028708794602683187 0 -0.00099283667274785046 0.028097554685061261 0 -0.0011249175170858217 0.028708794602683187 0 -0.0010851504441826171 0.028401699862986175 0 -0.0010993040668734687 0.028642927406711181 0 -0.0011249175170858217 0.028708794602683187 0 -0.0010851504441826171 0.028401699862986175 0 -0.0010993040668734687 0.028642927406711181 0 -0.0010851504441826171 0.028401699862986175 0 -0.0010255105485621669 0.028427578003523905 0 -0.0010993040668734687 0.028642927406711181 0 -0.0010255105485621669 0.028427578003523905 0 -0.00085863756176972849 0.028315405911328473 0 -0.0010255105485621669 0.028427578003523905 0 -0.00085863756176972849 0.028315405911328473 0 -0.00095317452513176781 0.028499804348129983 0 -0.0012913678542083732 0.030665833351658466 0 -0.0012461112827575947 0.030424694915534102 0 -0.00094457328439352347 0.030651450256853084 0 -0.0012913678542083732 0.030665833351658466 0 -0.00094457328439352347 0.030651450256853084 0 -0.0011269972830896585 0.030777104439427237 0 -0.0012461112827575947 0.030424694915534102 0 -0.00098800052174768255 0.030250625305072606 0 -0.00094457328439352347 0.030651450256853084 0 -0.0010097111618401825 0.029638508514850444 0 -0.0010876396981079485 0.0297528208206835 0 -0.00085863756176972849 0.028315405911328473 0 -0.00095317452513176781 0.028499804348129983 0 -0.0010511586875443818 0.02857646398858029 0 -0.00094457328439352347 0.030651450256853084 0 -0.0011269972830896585 0.030777104439427237 0 -0.0011544408900140146 0.03088587449493194 0 -0.0011269972830896585 0.030777104439427237 0 -0.0011544408900140146 0.03088587449493194 0 -0.0012579068251717472 0.030883303675900895 0 -0.00092764207023882659 0.028495235385615349 0 -0.0010255105485621669 0.028427578003523905 0 -0.00095317452513176781 0.028499804348129983 0 -0.00084218652030537027 0.028644608065262957 0 -0.00095317452513176781 0.028499804348129983 0 -0.00095003251490754267 0.02865402653271858 0 -0.00053918235851742476 0.029031533403888223 0 -0.00080169292580321058 0.029395253544251015 0 -0.00095317452513176781 0.028499804348129983 0 -0.00095003251490754267 0.02865402653271858 0 -0.0010511586875443818 0.02857646398858029 0 -0.00080489787791671063 0.029698660095958406 0 -0.0010470719563504883 0.029965450602059091 0 -0.00074970470390256538 0.030011857006537343 0 -0.00049483197091974515 0.029781689093191368 0 -0.00080489787791671063 0.029698660095958406 0 -0.00074970470390256538 0.030011857006537343 0 -0.0011837200745866922 0.030000132583038436 0 -0.0010876396981079485 0.0297528208206835 0 -0.00080169292580321058 0.029395253544251015 0 -0.0011837200745866922 0.030000132583038436 0 -0.00095003251490754267 0.02865402653271858 0 -0.0010803207921005204 0.028778329198533695 0 -0.0010511586875443818 0.02857646398858029 0 -0.001240253982534352 0.031031046673699346 0 -0.0011544408900140146 0.03088587449493194 0 -0.0012765832773378315 0.030947169417727072 0 -0.0011544408900140146 0.03088587449493194 0 -0.0012579068251717472 0.030883303675900895 0 -0.0012765832773378315 0.030947169417727072 0 -0.0012579068251717472 0.030883303675900895 0 -0.0013809422707089165 0.030857875141248371 0 -0.0013519311224136326 0.03092907742211386 0 -0.0012579068251717472 0.030883303675900895 0 -0.0013519311224136326 0.03092907742211386 0 -0.0012765832773378315 0.030947169417727072 0 -0.00068992502913304144 0.032482979069386173 0 -0.00089956512460511243 0.031823717687147285 0 -0.0015309569797927202 0.030948848527467935 0 -0.0013809422707089165 0.030857875141248371 0 -0.0014323212601555493 0.030942905208106671 0 -0.0014113841550486544 0.030850131831498259 0 -0.0014848442293360145 0.031051960162441113 0 -0.0017127117905111728 0.031114193664025416 0 -0.0018497898746057037 0.031306139574946053 0 -0.0014848442293360145 0.031051960162441113 0 -0.0017127117905111728 0.031114193664025416 0 -0.0013809422707089165 0.030857875141248371 0 -0.0013519311224136326 0.03092907742211386 0 -0.0014323212601555493 0.030942905208106671 0 -0.00068992502913304144 0.032482979069386173 0 -0.00060888680461713865 0.032288016455032979 0 -0.0014323212601555493 0.030942905208106671 0 -0.0015043953836653458 0.030979246434374098 0 -0.0014542591283907965 0.03102543246480129 0 -0.0015309569797927202 0.030948848527467935 0 -0.0014323212601555493 0.030942905208106671 0 -0.0015043953836653458 0.030979246434374098 0 -0.0014323212601555493 0.030942905208106671 0 -0.0014542591283907965 0.03102543246480129 0 -0.0013561490412368161 0.031006111609564877 0 -0.0015163372516239242 0.031022239632447629 0 -0.0015043953836653458 0.030979246434374098 0 -0.0014542591283907965 0.03102543246480129 0 -0.001240253982534352 0.031031046673699346 0 -0.0012765832773378315 0.030947169417727072 0 -0.0013561490412368161 0.031006111609564877 0 -0.0013519311224136326 0.03092907742211386 0 -0.0012765832773378315 0.030947169417727072 0 -0.0013561490412368161 0.031006111609564877 0 -0.0013519311224136326 0.03092907742211386 0 -0.0014323212601555493 0.030942905208106671 0 -0.0013561490412368161 0.031006111609564877 0 -0.0010337212689277807 0.030025689146903491 0 -0.0012951746206689677 0.030303077390322373 0 -0.0010590581643885612 0.030251781853322633 0 -0.0011837200745866922 0.030000132583038436 0 -0.0014167114235288617 0.030489677707576216 0 -0.0014542591283907965 0.03102543246480129 0 -0.0013561490412368161 0.031006111609564877 0 -0.0014194999437653578 0.031111805597370094 0 -0.001240253982534352 0.031031046673699346 0 -0.0013561490412368161 0.031006111609564877 0 -0.0014194999437653578 0.031111805597370094 0 -0.0015733339775749386 0.031095020834726192 0 -0.0015295251882323168 0.031065211279903256 0 -0.0014194999437653578 0.031111805597370094 0 -0.0015295251882323168 0.031065211279903256 0 -0.0014542591283907965 0.03102543246480129 0 -0.0014194999437653578 0.031111805597370094 0 -0.0015295251882323168 0.031065211279903256 0 -0.0015163372516239242 0.031022239632447629 0 -0.0014542591283907965 0.03102543246480129 0 -0.0012951746206689677 0.030303077390322373 0 -0.0013468255483449489 0.030540928245280433 0 -0.0015502258526974223 0.030635944728494291 0 -0.0015733339775749386 0.031095020834726192 0 -0.0014194999437653578 0.031111805597370094 0 -0.0015869404363250369 0.031120594209186593 0 -0.0014167114235288617 0.030489677707576216 0 -0.0015563762875358165 0.030730889711580913 0 -0.0012951746206689677 0.030303077390322373 0 -0.0013468255483449489 0.030540928245280433 0 -0.0011071623365258528 0.03049911198512913 0 -0.0012951746206689677 0.030303077390322373 0 -0.0011071623365258528 0.03049911198512913 0 -0.0010590581643885612 0.030251781853322633 0 -0.0011071623365258528 0.03049911198512913 0 -0.00088831699117776898 0.030503481456017813 0 -0.0010590581643885612 0.030251781853322633 0 -0.00088831699117776898 0.030503481456017813 0 -0.00084925833501093922 0.030226852835782064 0 -0.0010590581643885612 0.030251781853322633 0 -0.00063321304959130761 0.030288152815309853 0 -0.00088831699117776898 0.030503481456017813 0 -0.00084925833501093922 0.030226852835782064 0 -0.00063321304959130761 0.030288152815309853 0 -0.00088831699117776898 0.030503481456017813 0 -0.0006761708459720238 0.030682194991011845 0 -0.0010470719563504883 0.029965450602059091 0 -0.00074970470390256538 0.030011857006537343 0 -0.00084925833501093922 0.030226852835782064 0 -0.00063321304959130761 0.030288152815309853 0 -0.00074970470390256538 0.030011857006537343 0 -0.00084925833501093922 0.030226852835782064 0 -0.0010470719563504883 0.029965450602059091 0 -0.00084925833501093922 0.030226852835782064 0 -0.0010590581643885612 0.030251781853322633 0 -0.0011837200745866922 0.030000132583038436 0 -0.0011747448290861308 0.030047458360196053 0 -0.0010186979844457227 0.030847127355193411 0 -0.0006761708459720238 0.030682194991011845 0 -0.00080221112782925862 0.031063046683801245 0 -0.00088831699117776898 0.030503481456017813 0 -0.0010186979844457227 0.030847127355193411 0 -0.0006761708459720238 0.030682194991011845 0 -0.0011071623365258528 0.03049911198512913 0 -0.00088831699117776898 0.030503481456017813 0 -0.0010186979844457227 0.030847127355193411 0 -0.0013468255483449489 0.030540928245280433 0 -0.0011071623365258528 0.03049911198512913 0 -0.0012519492770502805 0.030700238185171192 0 -0.0011071623365258528 0.03049911198512913 0 -0.0010186979844457227 0.030847127355193411 0 -0.0012519492770502805 0.030700238185171192 0 -0.0013468255483449489 0.030540928245280433 0 -0.001412363897348994 0.030707595644247531 0 -0.0015502258526974223 0.030635944728494291 0 -0.001412363897348994 0.030707595644247531 0 -0.0015412611706221852 0.030842599024668422 0 -0.0015502258526974223 0.030635944728494291 0 -0.0013468255483449489 0.030540928245280433 0 -0.0012519492770502805 0.030700238185171192 0 -0.001412363897348994 0.030707595644247531 0 -0.0012519492770502805 0.030700238185171192 0 -0.001412363897348994 0.030707595644247531 0 -0.0014024345168996068 0.030866714445093969 0 -0.0012519492770502805 0.030700238185171192 0 -0.0014024345168996068 0.030866714445093969 0 -0.001261880877877912 0.030939327365086897 0 -0.001412363897348994 0.030707595644247531 0 -0.0014024345168996068 0.030866714445093969 0 -0.0015412611706221852 0.030842599024668422 0 -0.0014024345168996068 0.030866714445093969 0 -0.001261880877877912 0.030939327365086897 0 -0.0014070562524449704 0.031106707674664162 0 -0.0014024345168996068 0.030866714445093969 0 -0.0014070562524449704 0.031106707674664162 0 -0.0015674978596566941 0.030975129183053885 0 -0.0014024345168996068 0.030866714445093969 0 -0.0015674978596566941 0.030975129183053885 0 -0.0015412611706221852 0.030842599024668422 0 -0.0010186979844457227 0.030847127355193411 0 -0.0012519492770502805 0.030700238185171192 0 -0.001261880877877912 0.030939327365086897 0 -0.0010186979844457227 0.030847127355193411 0 -0.001261880877877912 0.030939327365086897 0 -0.001211956370396288 0.031149161433197955 0 -0.001261880877877912 0.030939327365086897 0 -0.001211956370396288 0.031149161433197955 0 -0.0014070562524449704 0.031106707674664162 0 -0.001211956370396288 0.031149161433197955 0 -0.0011364664480976964 0.031342392708696848 0 -0.0010164784173843705 0.031167767283140257 0 -0.0012269764856712708 0.031640476018302152 0 -0.0011792205612421475 0.03230783178681499 0 -0.0014070562524449704 0.031106707674664162 0 -0.0013187828082030233 0.031633598676024909 0 -0.0016128485187941622 0.031289795541645467 0 -0.001211956370396288 0.031149161433197955 0 -0.0014070562524449704 0.031106707674664162 0 -0.001419575478724251 0.031386495928092416 0 -0.001211956370396288 0.031149161433197955 0 -0.001419575478724251 0.031386495928092416 0 -0.0011364664480976964 0.031342392708696848 0 -0.001419575478724251 0.031386495928092416 0 -0.0011364664480976964 0.031342392708696848 0 -0.0011808197541974283 0.031528472871596887 0 -0.0011364664480976964 0.031342392708696848 0 -0.00095421489910395296 0.031364922060630074 0 -0.0010164784173843705 0.031167767283140257 0 -0.0011364664480976964 0.031342392708696848 0 -0.00095421489910395296 0.031364922060630074 0 -0.0011808197541974283 0.031528472871596887 0 -0.0010186979844457227 0.030847127355193411 0 -0.001211956370396288 0.031149161433197955 0 -0.0010164784173843705 0.031167767283140257 0 -0.0010186979844457227 0.030847127355193411 0 -0.0010164784173843705 0.031167767283140257 0 -0.00080221112782925862 0.031063046683801245 0 -0.00095421489910395296 0.031364922060630074 0 -0.0010164784173843705 0.031167767283140257 0 -0.00080221112782925862 0.031063046683801245 0 -0.00064200955347295564 0.031335128419903636 0 -0.00095421489910395296 0.031364922060630074 0 -0.00080221112782925862 0.031063046683801245 0 -0.00064200955347295564 0.031335128419903636 0 -0.00095421489910395296 0.031364922060630074 0 -0.00082093530736762621 0.031622595061833438 0 -0.00095421489910395296 0.031364922060630074 0 -0.00082093530736762621 0.031622595061833438 0 -0.0011606663352346528 0.031781593428886708 0 -0.00095421489910395296 0.031364922060630074 0 -0.0011606663352346528 0.031781593428886708 0 -0.0015246571257891905 0.031688777329792979 0 -0.00043939930261400513 0.032896767229498886 0 -0.00054420076814835786 0.033499490034103623 0 -0.0011606663352346528 0.031781593428886708 0 -0.0013639690185118091 0.031994533562087098 0 -0.0015246571257891905 0.031688777329792979 0 -0.0011606663352346528 0.031781593428886708 0 -0.0013639690185118091 0.031994533562087098 0 -0.0011493735951772391 0.032294796103861385 0 -0.00082093530736762621 0.031622595061833438 0 -0.0011606663352346528 0.031781593428886708 0 -0.0011493735951772391 0.032294796103861385 0 -0.00082093530736762621 0.031622595061833438 0 -0.0012143070670173402 0.032079100013587845 0 -0.0010987406293543058 0.031974689271714089 0 -0.0012143070670173402 0.032079100013587845 0 -0.0010987406293543058 0.031974689271714089 0 -0.00096819169091180506 0.032139190740592731 0 -0.0013639690185118091 0.031994533562087098 0 -0.0011493735951772391 0.032294796103861385 0 -0.0014228414863256965 0.032233431297744163 0 -0.0010518228060271038 0.031956772690428306 0 -0.0012295248423168097 0.032248457396852677 0 -0.00050389615480288198 0.031894246140344501 0 -0.00082093530736762621 0.031622595061833438 0 -0.0010987406293543058 0.031974689271714089 0 -0.00055396578658204224 0.031863353581790516 0 -0.0010987406293543058 0.031974689271714089 0 -0.00096819169091180506 0.032139190740592731 0 -0.00050027741994818466 0.031863129382293451 0 -0.00076842646611487945 0.031907257415253354 0 -0.00055396578658204224 0.031863353581790516 0 -0.00082432477493554063 0.032348447368869909 0 -0.00096819169091180506 0.032139190740592731 0 -0.00082432477493554063 0.032348447368869909 0 -0.00096819169091180506 0.032139190740592731 0 -0.0011865157025316088 0.032461071794907363 0 -0.0012295248423168097 0.032248457396852677 0 -0.0015295738362599797 0.032740306636458966 0 -0.0012143070670173402 0.032079100013587845 0 -0.0011865157025316088 0.032461071794907363 0 -0.0016039855772218188 0.032674741970135535 0 -0.0012143070670173402 0.032079100013587845 0 -0.00096819169091180506 0.032139190740592731 0 -0.0011865157025316088 0.032461071794907363 0 -0.0011493735951772391 0.032294796103861385 0 -0.0015434702413696765 0.032472461628623134 0 -0.0014228414863256965 0.032233431297744163 0 -0.0011865157025316088 0.032461071794907363 0 -0.0010043733722045116 0.032747110412251576 0 -0.0016039855772218188 0.032674741970135535 0 -0.00082432477493554063 0.032348447368869909 0 -0.0011865157025316088 0.032461071794907363 0 -0.0010043733722045116 0.032747110412251576 0 -0.00066743980168499522 0.032630130167293089 0 -0.00082432477493554063 0.032348447368869909 0 -0.0010043733722045116 0.032747110412251576 0 -0.0019524036074042724 0.032948084555434298 0 -0.0017731658174296653 0.03268311948296293 0 -0.0020539239283815518 0.032681164956782721 0 -0.0019524036074042724 0.032948084555434298 0 -0.0020539239283815518 0.032681164956782721 0 -0.0021634080740607596 0.032859971656823715 0 -0.0020539239283815518 0.032681164956782721 0 -0.0021634080740607596 0.032859971656823715 0 -0.0021835281159316871 0.032725581316872469 0 -0.0019524036074042724 0.032948084555434298 0 -0.0021634080740607596 0.032859971656823715 0 -0.0022306155309412407 0.033091883540140934 0 -0.0019524036074042724 0.032948084555434298 0 -0.0015653881203232366 0.032918596440624448 0 -0.0017731658174296653 0.03268311948296293 0 -0.0017731658174296653 0.03268311948296293 0 -0.001729029837626569 0.032453650059662165 0 -0.0018741307500674256 0.032521542279107578 0 -0.0011493735951772391 0.032294796103861385 0 -0.0015653881203232366 0.032918596440624448 0 -0.0015434702413696765 0.032472461628623134 0 -0.0017731658174296653 0.03268311948296293 0 -0.0015434702413696765 0.032472461628623134 0 -0.001729029837626569 0.032453650059662165 0 -0.0015653881203232366 0.032918596440624448 0 -0.0017731658174296653 0.03268311948296293 0 -0.0015434702413696765 0.032472461628623134 0 -0.0015434702413696765 0.032472461628623134 0 -0.0014228414863256965 0.032233431297744163 0 -0.001633044222028146 0.032260821171702321 0 -0.0015434702413696765 0.032472461628623134 0 -0.001729029837626569 0.032453650059662165 0 -0.001633044222028146 0.032260821171702321 0 -0.001729029837626569 0.032453650059662165 0 -0.0018208185869684095 0.032323955275114787 0 -0.001633044222028146 0.032260821171702321 0 -0.0018208185869684095 0.032323955275114787 0 -0.0019517016008096719 0.032413185970832856 0 -0.0019410785109309342 0.032277427814597984 0 -0.0019517016008096719 0.032413185970832856 0 -0.0020669947141320642 0.032476746594479217 0 -0.0019410785109309342 0.032277427814597984 0 -0.0019517016008096719 0.032413185970832856 0 -0.0018741307500674256 0.032521542279107578 0 -0.0020311594961567574 0.032520352278738916 0 -0.0018208185869684095 0.032323955275114787 0 -0.0019517016008096719 0.032413185970832856 0 -0.0018741307500674256 0.032521542279107578 0 -0.001729029837626569 0.032453650059662165 0 -0.0018208185869684095 0.032323955275114787 0 -0.0018741307500674256 0.032521542279107578 0 -0.0017731658174296653 0.03268311948296293 0 -0.0018741307500674256 0.032521542279107578 0 -0.0020539239283815518 0.032681164956782721 0 -0.0020539239283815518 0.032681164956782721 0 -0.002061756034421033 0.032547960391170964 0 -0.0022054979945348905 0.032614643824687511 0 -0.0020539239283815518 0.032681164956782721 0 -0.0020311594961567574 0.032520352278738916 0 -0.0020654989370021068 0.032478452654553618 0 -0.0019112037301418918 0.035952655670819393 0 -0.0019093753414260843 0.036299810559560761 0 -0.0018741307500674256 0.032521542279107578 0 -0.0020539239283815518 0.032681164956782721 0 -0.0020311594961567574 0.032520352278738916 0 -0.0019093753414260843 0.036299810559560761 0 -0.0015597157133710625 0.038781006689600703 0 -0.0019517016008096719 0.032413185970832856 0 -0.0020311594961567574 0.032520352278738916 0 -0.0020669947141320642 0.032476746594479217 0 -0.0019194470627865062 0.036280252359483699 0 -0.0019093753414260843 0.036299810559560761 0 -0.0019093753414260843 0.036299810559560761 0 -0.0010276286212099902 0.035728699766093983 0 -0.0021756159055012583 0.037372663553031232 0 -0.0021796626603796843 0.038483904188606886 0 -0.0016212279868183482 0.038098094538652545 0 -0.0017913312560086901 0.032095439683864198 0 -0.0020722137218285005 0.032075008713933872 0 -0.0015246571257891905 0.031688777329792979 0 -0.0020669947141320642 0.032476746594479217 0 -0.0019410785109309342 0.032277427814597984 0 -0.0020722137218285005 0.032075008713933872 0 -0.0010276286212099902 0.035728699766093983 0 -0.0015597157133710625 0.038781006689600703 0 -0.0019410785109309342 0.032277427814597984 0 -0.0017913312560086901 0.032095439683864198 0 -0.0020722137218285005 0.032075008713933872 0 -0.0018208185869684095 0.032323955275114787 0 -0.0019410785109309342 0.032277427814597984 0 -0.0017913312560086901 0.032095439683864198 0 -0.0014228414863256965 0.032233431297744163 0 -0.001633044222028146 0.032260821171702321 0 -0.0015472001047733472 0.03205456985983577 0 -0.0018208185869684095 0.032323955275114787 0 -0.0017913312560086901 0.032095439683864198 0 -0.001633044222028146 0.032260821171702321 0 -0.0017913312560086901 0.032095439683864198 0 -0.001633044222028146 0.032260821171702321 0 -0.0015472001047733472 0.03205456985983577 0 -0.0017913312560086901 0.032095439683864198 0 -0.0015472001047733472 0.03205456985983577 0 -0.0015246571257891905 0.031688777329792979 0 -0.0013639690185118091 0.031994533562087098 0 -0.0015472001047733472 0.03205456985983577 0 -0.0015246571257891905 0.031688777329792979 0 -0.0013639690185118091 0.031994533562087098 0 -0.0014228414863256965 0.032233431297744163 0 -0.0015472001047733472 0.03205456985983577 0 -0.0013187828082030233 0.031633598676024909 0 -0.0012948450080598069 0.032227773583729802 0 -0.0015191418584864979 0.031884921666259315 0 -0.0011792205612421475 0.03230783178681499 0 -0.0010276286212099902 0.035728699766093983 0 -0.0010276286212099902 0.035728699766093983 0 -0.00054420076814835786 0.033499490034103623 0 -0.001419575478724251 0.031386495928092416 0 -0.0014236819738681645 0.031709652788705738 0 -0.0011808197541974283 0.031528472871596887 0 -0.00072331343568132311 0.041282500121266233 0 -0.0010610562156636921 0.040210041799395295 0 -0.0015191418584864979 0.031884921666259315 0 -0.0017822892673933616 0.031885319146386142 0 -0.0016583741147097729 0.031616313580704117 0 -0.0015191418584864979 0.031884921666259315 0 -0.0017822892673933616 0.031885319146386142 0 -0.0014896292476026876 0.032155560432945388 0 0.0011014721280839599 0.049700214630268774 0 0.00034068758077237783 0.049909812074924995 0 0.00041370928034798192 0.048761067329760849 0 0.0011014721280839599 0.049700214630268774 0 0.00078372752263182379 0.050518814798077426 0 0.00034068758077237783 0.049909812074924995 0 0.0011014721280839599 0.049700214630268774 0 0.00078372752263182379 0.050518814798077426 0 0.0012206055462848583 0.050630193734559299 0 0.00078372752263182379 0.050518814798077426 0 0.00037254872389940532 0.051008523953092799 0 0.00034068758077237783 0.049909812074924995 0 0.0012206055462848583 0.050630193734559299 0 0.00085248421550814272 0.05101516831239495 0 0.0014292877875517343 0.051145322219684916 0 0.00078372752263182379 0.050518814798077426 0 0.0012206055462848583 0.050630193734559299 0 0.00085248421550814272 0.05101516831239495 0 0.00078372752263182379 0.050518814798077426 0 0.00085248421550814272 0.05101516831239495 0 0.00037254872389940532 0.051008523953092799 0 0.0011014721280839599 0.049700214630268774 0 0.0012206055462848583 0.050630193734559299 0 0.0017403088113003503 0.050575678206181134 0 -0.0017822892673933616 0.031885319146386142 0 -0.0015420141538021945 0.032255416663442366 0 -0.0014896292476026876 0.032155560432945388 0 -0.001548908950555705 0.032261884947141127 0 -0.0014896292476026876 0.032155560432945388 0 -0.0014734151315620525 0.032361365267111052 0 -0.0012948450080598069 0.032227773583729802 0 -0.0015191418584864979 0.031884921666259315 0 -0.0014896292476026876 0.032155560432945388 0 -0.0012948450080598069 0.032227773583729802 0 -0.0014896292476026876 0.032155560432945388 0 -0.0014734151315620525 0.032361365267111052 0 -0.0010610562156636921 0.040210041799395295 0 -0.00097240990623263649 0.039960808470614652 0 0.0012206055462848583 0.050630193734559299 0 0.0017403088113003503 0.050575678206181134 0 0.0014292877875517343 0.051145322219684916 0 -0.0010610562156636921 0.040210041799395295 0 -0.0013535794662146588 0.041048092964918924 0 -0.0015597157133710625 0.038781006689600703 0 -0.0013535794662146588 0.041048092964918924 0 -0.00040143733101396877 0.038398536860761806 0 0.00023610773640461599 0.039235057384354628 0 -0.001517792145990656 0.040448860423018068 0 -0.0010610562156636921 0.040210041799395295 0 -0.0015597157133710625 0.038781006689600703 0 -0.002061756034421033 0.032547960391170964 0 -0.0021992934014299107 0.032381374659650922 0 -0.0022166107878676309 0.032517794889920223 0 -0.0021992934014299107 0.032381374659650922 0 -0.0022166107878676309 0.032517794889920223 0 -0.0023547182631060578 0.032487161067489556 0 -0.002061756034421033 0.032547960391170964 0 -0.0022166107878676309 0.032517794889920223 0 -0.0022054979945348905 0.032614643824687511 0 -0.0023350552685676798 0.032632970187685968 0 -0.0023547182631060578 0.032487161067489556 0 -0.0026025272683590549 0.032786934602027369 0 -0.0020539239283815518 0.032681164956782721 0 -0.0022054979945348905 0.032614643824687511 0 -0.0021835281159316871 0.032725581316872469 0 -0.0022166107878676309 0.032517794889920223 0 -0.0022054979945348905 0.032614643824687511 0 -0.0023350552685676798 0.032632970187685968 0 -0.0022054979945348905 0.032614643824687511 0 -0.0021835281159316871 0.032725581316872469 0 -0.0023084615986264205 0.032752594769625304 0 -0.0022054979945348905 0.032614643824687511 0 -0.0023350552685676798 0.032632970187685968 0 -0.0023084615986264205 0.032752594769625304 0 -0.0022166107878676309 0.032517794889920223 0 -0.0023350552685676798 0.032632970187685968 0 -0.0023547182631060578 0.032487161067489556 0 -0.0013535794662146588 0.041048092964918924 0 -0.0012920973545120736 0.042088172224981679 0 -0.0013535794662146588 0.041048092964918924 0 -0.0020896938793757173 0.043124991448056517 0 0.00085248421550814272 0.05101516831239495 0 0.0014292877875517343 0.051145322219684916 0 0.00044736727713489755 0.051695234101174013 0 0.00071930258361897282 0.05147396987098006 0 0.00044736727713489755 0.051695234101174013 0 0.00043188744595773574 0.051871917012264623 0 0.00085248421550814272 0.05101516831239495 0 0.00044736727713489755 0.051695234101174013 0 0.00037254872389940532 0.051008523953092799 0 0.00043188744595773574 0.051871917012264623 0 0.0001192099929102324 0.051905515515278881 0 5.5635648318932385e-05 0.051838598186989604 0 0.00043188744595773574 0.051871917012264623 0 0.0001192099929102324 0.051905515515278881 0 0.00023587276802875063 0.051854388000808764 0 0.00044736727713489755 0.051695234101174013 0 0.00043188744595773574 0.051871917012264623 0 0.00023587276802875063 0.051854388000808764 0 -0.0026025272683590549 0.032786934602027369 0 -0.0023896133204960538 0.032958226683356316 0 -0.0027062543743702778 0.03323116289695234 0 -0.0023896133204960538 0.032958226683356316 0 -0.0021634080740607596 0.032859971656823715 0 -0.0022306155309412407 0.033091883540140934 0 -0.0023896133204960538 0.032958226683356316 0 -0.0021634080740607596 0.032859971656823715 0 -0.0023084615986264205 0.032752594769625304 0 -0.0021634080740607596 0.032859971656823715 0 -0.0021835281159316871 0.032725581316872469 0 -0.0023084615986264205 0.032752594769625304 0 -0.0023350552685676798 0.032632970187685968 0 -0.0026025272683590549 0.032786934602027369 0 -0.0023084615986264205 0.032752594769625304 0 -0.0026025272683590549 0.032786934602027369 0 -0.0023896133204960538 0.032958226683356316 0 -0.0023084615986264205 0.032752594769625304 0 0.00019726383851318763 0.052097701875960183 0 5.3579815199970797e-05 0.051911976373546553 0 -0.00014386430117780755 0.051955110899520311 0 0.00019726383851318763 0.052097701875960183 0 0.00026525147758875304 0.051904645321896793 0 5.3579815199970797e-05 0.051911976373546553 0 0.00026525147758875304 0.051904645321896793 0 5.3579815199970797e-05 0.051911976373546553 0 0.00010641864082613618 0.051817334186010519 0 5.3579815199970797e-05 0.051911976373546553 0 0.0001192099929102324 0.051905515515278881 0 0.00010641864082613618 0.051817334186010519 0 0.0001192099929102324 0.051905515515278881 0 0.00023587276802875063 0.051854388000808764 0 -0.00014386430117780755 0.051955110899520311 0 5.3579815199970797e-05 0.051911976373546553 0 0.0001192099929102324 0.051905515515278881 0 -0.00014386430117780755 0.051955110899520311 0 -0.00014386430117780755 0.051955110899520311 0 9.3735651658795403e-05 0.051369223532050097 0 -0.00099834202832710319 0.05056765109100788 0 0.00023587276802875063 0.051854388000808764 0 -0.00014386430117780755 0.051955110899520311 0 9.3735651658795403e-05 0.051369223532050097 0 0.00044736727713489755 0.051695234101174013 0 0.00023587276802875063 0.051854388000808764 0 9.3735651658795403e-05 0.051369223532050097 0 0.00044736727713489755 0.051695234101174013 0 9.3735651658795403e-05 0.051369223532050097 0 0.00037254872389940532 0.051008523953092799 0 -0.00032000185947018506 0.051698642653928539 0 -0.00039253372275350909 0.051489977388441577 0 -0.00014386430117780755 0.051955110899520311 0 -6.1961265612354118e-05 0.052965036701711043 0 0.00028403368821064499 0.052517933544551545 0 0.00019726383851318763 0.052097701875960183 0 -0.00014386430117780755 0.051955110899520311 0 0.00028403368821064499 0.052517933544551545 0 -6.1961265612354118e-05 0.052965036701711043 0 0.00025278120768490393 0.052896525836881106 0 0.00028403368821064499 0.052517933544551545 0 -0.00099834202832710319 0.05056765109100788 0 -3.941253030790218e-05 0.050460443886967403 0 -0.00055083453071605513 0.049358289182199332 0 -6.1961265612354118e-05 0.052965036701711043 0 0.00023982146674759967 0.053365575407738293 0 0.00025278120768490393 0.052896525836881106 0 -0.00024066498253711357 0.048686240235760257 0 -0.00027749831140520305 0.047359983759028751 0 0.00037254872389940532 0.051008523953092799 0 -3.941253030790218e-05 0.050460443886967403 0 0.00075620964751689295 0.049466153334044395 0 9.3735651658795403e-05 0.051369223532050097 0 0.00037254872389940532 0.051008523953092799 0 -3.941253030790218e-05 0.050460443886967403 0 9.3735651658795403e-05 0.051369223532050097 0 -0.00099834202832710319 0.05056765109100788 0 -3.941253030790218e-05 0.050460443886967403 0 0.00075620964751689295 0.049466153334044395 0 2.6826549907309864e-05 0.048560433915745986 0 -0.00055083453071605513 0.049358289182199332 0 -3.941253030790218e-05 0.050460443886967403 0 0.00075620964751689295 0.049466153334044395 0 -0.00055083453071605513 0.049358289182199332 0 -0.00027749831140520305 0.047359983759028751 0 -0.00039706002858927301 0.042678578919399537 0 0.00075620964751689295 0.049466153334044395 0 2.6826549907309864e-05 0.048560433915745986 0 0.00099777439111764987 0.047703735787665645 0 2.6826549907309864e-05 0.048560433915745986 0 -0.00055083453071605513 0.049358289182199332 0 -0.00085704166922273973 0.048426223908166872 0 -0.00099834202832710319 0.05056765109100788 0 -0.00055083453071605513 0.049358289182199332 0 -0.0017942677418952382 0.048757263531020105 0 -0.00039253372275350909 0.051489977388441577 0 -0.00050119940156485951 0.05094742399414897 0 -6.1961265612354118e-05 0.052965036701711043 0 0.00022637305436116125 0.053670319388392458 0 0.00023982146674759967 0.053365575407738293 0 -0.00055083453071605513 0.049358289182199332 0 -0.0017942677418952382 0.048757263531020105 0 -0.00085704166922273973 0.048426223908166872 0 -0.0017942677418952382 0.048757263531020105 0 -0.00085704166922273973 0.048426223908166872 0 -0.0013882659142850325 0.047664183955441738 0 -0.00085704166922273973 0.048426223908166872 0 -0.00046456487068127837 0.047595081498078312 0 -0.0013882659142850325 0.047664183955441738 0 -0.00046456487068127837 0.047595081498078312 0 -0.0013882659142850325 0.047664183955441738 0 -0.0012703894455766205 0.046754859748143633 0 -0.0013882659142850325 0.047664183955441738 0 -0.0012703894455766205 0.046754859748143633 0 -0.0025937967231346418 0.046758372934342519 0 -0.00046456487068127837 0.047595081498078312 0 -0.0012703894455766205 0.046754859748143633 0 -0.00019779078431784333 0.045947912341182638 0 -0.0012703894455766205 0.046754859748143633 0 -0.0016127395592849764 0.045608508547627089 0 -0.0025937967231346418 0.046758372934342519 0 -0.0012703894455766205 0.046754859748143633 0 -0.0016127395592849764 0.045608508547627089 0 -0.00019779078431784333 0.045947912341182638 0 0.00012646861963467508 0.044485743010895598 0 -0.00039706002858927301 0.042678578919399537 0 -7.7499712737403884e-05 0.045742248835791997 0 0.0012325613353552467 0.047452174451546397 0 0.0014498662364319944 0.044789520061819979 0 -0.00046456487068127837 0.047595081498078312 0 -0.00019779078431784333 0.045947912341182638 0 0.00099777439111764987 0.047703735787665645 0 2.6826549907309864e-05 0.048560433915745986 0 -0.00046456487068127837 0.047595081498078312 0 0.00099777439111764987 0.047703735787665645 0 2.6826549907309864e-05 0.048560433915745986 0 -0.00085704166922273973 0.048426223908166872 0 -0.00046456487068127837 0.047595081498078312 0 -0.00072331343568132311 0.041282500121266233 0 -0.00039706002858927301 0.042678578919399537 0 -0.0017822892673933616 0.031885319146386142 0 -0.0019707175865758199 0.03154857664842204 0 -0.0016583741147097729 0.031616313580704117 0 -0.0019707175865758199 0.03154857664842204 0 -0.0016583741147097729 0.031616313580704117 0 -0.0016128485187941622 0.031289795541645467 0 -0.0013187828082030233 0.031633598676024909 0 -0.0015191418584864979 0.031884921666259315 0 -0.0016583741147097729 0.031616313580704117 0 -0.0013187828082030233 0.031633598676024909 0 -0.0016583741147097729 0.031616313580704117 0 -0.0016128485187941622 0.031289795541645467 0 -0.0019707175865758199 0.03154857664842204 0 -0.0017354414168136575 0.031161408530752371 0 -0.0018219788990631346 0.031068615474752703 0 -0.0019707175865758199 0.03154857664842204 0 -0.0016128485187941622 0.031289795541645467 0 -0.0017354414168136575 0.031161408530752371 0 -0.00039706002858927301 0.042678578919399537 0 -0.0001867442578192719 0.03847221376157578 0 -0.0018219788990631346 0.031068615474752703 0 -0.0017519262547656461 0.031038220714044652 0 -0.0016955860919538983 0.031065788839818111 0 -0.0017354414168136575 0.031161408530752371 0 -0.0018219788990631346 0.031068615474752703 0 -0.0017519262547656461 0.031038220714044652 0 -0.0016128485187941622 0.031289795541645467 0 -0.0017354414168136575 0.031161408530752371 0 -0.0015674978596566941 0.030975129183053885 0 -0.0014070562524449704 0.031106707674664162 0 -0.0016128485187941622 0.031289795541645467 0 -0.0015674978596566941 0.030975129183053885 0 -0.0017519262547656461 0.031038220714044652 0 -0.0015674978596566941 0.030975129183053885 0 -0.0015412611706221852 0.030842599024668422 0 -0.0017354414168136575 0.031161408530752371 0 -0.0017519262547656461 0.031038220714044652 0 -0.0015674978596566941 0.030975129183053885 0 -0.0017519262547656461 0.031038220714044652 0 -0.0015412611706221852 0.030842599024668422 0 -0.0015502258526974223 0.030635944728494291 0 -0.0016299448790624549 0.030828642097654825 0 -0.0015563762875358165 0.030730889711580913 0 -0.0017519262547656461 0.031038220714044652 0 -0.0016253271984652999 0.031099776438665742 0 -0.0015869404363250369 0.031120594209186593 0 -0.0016640002414230674 0.031084651150931262 0 -0.0016253271984652999 0.031099776438665742 0 -0.0016955860919538983 0.031065788839818111 0 -0.0016573164625113333 0.031076771447939893 0 -0.0018219788990631346 0.031068615474752703 0 -0.0016955860919538983 0.031065788839818111 0 -0.0017519262547656461 0.031038220714044652 0 -0.0016253271984652999 0.031099776438665742 0 -0.0016955860919538983 0.031065788839818111 0 -0.00011478563256028117 0.036572432947954224 0 -0.0001867442578192719 0.03847221376157578 0 -0.0016573164625113333 0.031076771447939893 0 -0.0016640002414230674 0.031084651150931262 0 -0.0016955860919538983 0.031065788839818111 0 0.0016856347055190794 0.042007934783399016 0 0.0014498662364319944 0.044789520061819979 0 0.00026313760569126964 0.043347692253692768 0 9.1431496661920588e-05 0.042052544369664956 0 0.0016856347055190794 0.042007934783399016 0 0.00026313760569126964 0.043347692253692768 0 9.1431496661920588e-05 0.042052544369664956 0 0.00026313760569126964 0.043347692253692768 0 -0.00087069293324498461 0.04284291052121237 0 0.00026313760569126964 0.043347692253692768 0 -0.00087069293324498461 0.04284291052121237 0 -0.0014712507512092388 0.044038478194646832 0 -0.0014364728094830076 0.041920295646317988 0 -0.00087069293324498461 0.04284291052121237 0 -0.0019533118038483326 0.043125813722586462 0 -0.00087069293324498461 0.04284291052121237 0 -0.0014712507512092388 0.044038478194646832 0 -0.0019533118038483326 0.043125813722586462 0 0.00026313760569126964 0.043347692253692768 0 -0.0014712507512092388 0.044038478194646832 0 4.5727873791562046e-05 0.044483001024107821 0 -0.0016127395592849764 0.045608508547627089 0 -0.00019779078431784333 0.045947912341182638 0 -0.0014712507512092388 0.044038478194646832 0 -7.7499712737403884e-05 0.045742248835791997 0 -0.0014712507512092388 0.044038478194646832 0 4.5727873791562046e-05 0.044483001024107821 0 0.00012646861963467508 0.044485743010895598 0 -0.00023847527284129649 0.044324062875388363 0 -7.7499712737403884e-05 0.045742248835791997 0 0.0014498662364319944 0.044789520061819979 0 4.5727873791562046e-05 0.044483001024107821 0 0.0014498662364319944 0.044789520061819979 0 0.00026313760569126964 0.043347692253692768 0 4.5727873791562046e-05 0.044483001024107821 0 0.00034802106324000742 0.054362645776845409 0 0.00037293850357932555 0.054366059988143096 0 0.00035719319000858071 0.054361276499528231 0 -0.0016127395592849764 0.045608508547627089 0 -0.0014712507512092388 0.044038478194646832 0 -0.0033967474408814679 0.04462631520258941 0 0.00022597208576313207 0.046802287159965338 0 7.374000194718648e-05 0.050321580281355631 0 -0.0025890048690949182 0.04219158065085736 0 -0.0033967474408814679 0.04462631520258941 0 -0.0019533118038483326 0.043125813722586462 0 -0.0014712507512092388 0.044038478194646832 0 -0.0033967474408814679 0.04462631520258941 0 -0.0019533118038483326 0.043125813722586462 0 -0.0025890048690949182 0.04219158065085736 0 -0.0014364728094830076 0.041920295646317988 0 -0.0019533118038483326 0.043125813722586462 0 0.00078104499410308452 0.051797090352692872 0 7.374000194718648e-05 0.050321580281355631 0 0.0016080181257732262 0.04974226461760077 0 0.0013153607708185993 0.049745856275116102 0 0.0014395557342431675 0.049336710240961194 0 0.00037177572349698256 0.054371801125368678 0 0.00034802106324000742 0.054362645776845409 0 0.00037293850357932555 0.054366059988143096 0 0.00039279338019461977 0.054375240864844507 0 0.00037177572349698256 0.054371801125368678 0 0.00037293850357932555 0.054366059988143096 0 0.00039279338019461977 0.054375240864844507 0 0.00037293850357932555 0.054366059988143096 0 0.00039645244605067008 0.054357385750826361 0 0.00039279338019461977 0.054375240864844507 0 0.00039645244605067008 0.054357385750826361 0 0.00041257223357793666 0.054335600037386057 0 0.00045888879557289057 0.053906787594642597 0 0.00027843250047150951 0.054459775607098658 0 0.00040140223712471312 0.054360806735871098 0 0.00044639197291100705 0.054364294631528469 0 0.00041257223357793666 0.054335600037386057 0 0.00039645244605067008 0.054357385750826361 0 0.00040140223712471312 0.054360806735871098 0 0.00041257223357793666 0.054335600037386057 0 0.00037293850357932555 0.054366059988143096 0 0.00040140223712471312 0.054360806735871098 0 0.00035719319000858071 0.054361276499528231 0 0.00037293850357932555 0.054366059988143096 0 0.00039645244605067008 0.054357385750826361 0 0.00040140223712471312 0.054360806735871098 0 0.00035719319000858071 0.054361276499528231 0 0.00040238142509638647 0.05433771069094797 0 0.00028206750851456612 0.054333925045907651 0 0.00040140223712471312 0.054360806735871098 0 0.00035719319000858071 0.054361276499528231 0 0.00040238142509638647 0.05433771069094797 0 0.00040140223712471312 0.054360806735871098 0 0.00040238142509638647 0.05433771069094797 0 0.00044639197291100705 0.054364294631528469 0 0.00040238142509638647 0.05433771069094797 0 0.00044639197291100705 0.054364294631528469 0 0.00052669551065382065 0.054323218102362826 0 0.00040238142509638647 0.05433771069094797 0 0.0003734981954755575 0.054221193029212064 0 0.00028206750851456612 0.054333925045907651 0 0.00040238142509638647 0.05433771069094797 0 0.0003734981954755575 0.054221193029212064 0 0.00052669551065382065 0.054323218102362826 0 0.00023071408599510749 0.053603106457988936 0 0.00028408636246789713 0.053670341743968883 0 0.00027518630927774438 0.053737647989303208 0 0.00023071408599510749 0.053603106457988936 0 0.00027644258749309568 0.053650098453101994 0 0.00028408636246789713 0.053670341743968883 0 0.00026635009275871395 0.05349868856058651 0 0.00023071408599510749 0.053603106457988936 0 0.00029545896700511326 0.053595423065720647 0 0.00034802106324000742 0.054362645776845409 0 0.00035719319000858071 0.054361276499528231 0 0.00028206750851456612 0.054333925045907651 0 7.374000194718648e-05 0.050321580281355631 0 -0.00017597556081762374 0.053239659673167683 0 7.374000194718648e-05 0.050321580281355631 0 -0.00048819136907429485 0.05028082141483016 0 -0.0016127395592849764 0.045608508547627089 0 -0.0033967474408814679 0.04462631520258941 0 -0.0025937967231346418 0.046758372934342519 0 -0.0017942677418952382 0.048757263531020105 0 -0.0013882659142850325 0.047664183955441738 0 -0.0025937967231346418 0.046758372934342519 0 -0.00050119940156485951 0.05094742399414897 0 -0.00048819136907429485 0.05028082141483016 0 0.00023071408599510749 0.053603106457988936 0 0.00029545896700511326 0.053595423065720647 0 0.00027644258749309568 0.053650098453101994 0 0.00022637305436116125 0.053670319388392458 0 0.00029545896700511326 0.053595423065720647 0 0.00027644258749309568 0.053650098453101994 0 0.00022637305436116125 0.053670319388392458 0 0.00027644258749309568 0.053650098453101994 0 0.00029074362738714142 0.053621438421823701 0 0.00022637305436116125 0.053670319388392458 0 0.00029074362738714142 0.053621438421823701 0 0.00023982146674759967 0.053365575407738293 0 0.00029074362738714142 0.053621438421823701 0 0.00023982146674759967 0.053365575407738293 0 0.00025286276655280134 0.053842655613481477 0 0.00027644258749309568 0.053650098453101994 0 0.00029074362738714142 0.053621438421823701 0 0.00028408636246789713 0.053670341743968883 0 0.00023071408599510749 0.053603106457988936 0 0.00027518630927774438 0.053737647989303208 0 0.00027110261819962962 0.053903490559526021 0 -0.00017597556081762374 0.053239659673167683 0 -0.000109501040704326 0.053603653310263601 0 0.00029074362738714142 0.053621438421823701 0 0.00027518630927774438 0.053737647989303208 0 0.00025286276655280134 0.053842655613481477 0 0.00029074362738714142 0.053621438421823701 0 0.00028408636246789713 0.053670341743968883 0 0.00027518630927774438 0.053737647989303208 0 0.00027518630927774438 0.053737647989303208 0 0.00025286276655280134 0.053842655613481477 0 0.00027110261819962962 0.053903490559526021 0 0.0010089165806182214 0.052898476033394898 0 0.0006723216722154346 0.052878921347860028 0 0.00086480502289407505 0.052590274400659547 0 0.00053288262730305145 0.052747433322938297 0 0.0006723216722154346 0.052878921347860028 0 0.00086480502289407505 0.052590274400659547 0 0.0010089165806182214 0.052898476033394898 0 0.00086480502289407505 0.052590274400659547 0 0.0011771449289303608 0.052598168455753457 0 0.0003462210198144203 0.053474806696021532 0 0.0005942752981560179 0.053446446896331247 0 0.00023982146674759967 0.053365575407738293 0 0.0010089165806182214 0.052898476033394898 0 0.0006723216722154346 0.052878921347860028 0 0.00023982146674759967 0.053365575407738293 0 0.00053288262730305145 0.052747433322938297 0 0.00025278120768490393 0.052896525836881106 0 0.00023982146674759967 0.053365575407738293 0 0.00053288262730305145 0.052747433322938297 0 0.0006723216722154346 0.052878921347860028 0 0.00053288262730305145 0.052747433322938297 0 0.00025278120768490393 0.052896525836881106 0 0.00028403368821064499 0.052517933544551545 0 0.00053288262730305145 0.052747433322938297 0 0.00028403368821064499 0.052517933544551545 0 0.00052024166876746953 0.052259616006748361 0 0.00053288262730305145 0.052747433322938297 0 0.00052024166876746953 0.052259616006748361 0 0.00086480502289407505 0.052590274400659547 0 0.00019726383851318763 0.052097701875960183 0 0.00028403368821064499 0.052517933544551545 0 0.00052024166876746953 0.052259616006748361 0 0.00086480502289407505 0.052590274400659547 0 0.00081819340038467078 0.052195247020992312 0 0.0010900301332397722 0.052324170624709378 0 0.00052024166876746953 0.052259616006748361 0 0.00086480502289407505 0.052590274400659547 0 0.00081819340038467078 0.052195247020992312 0 0.00081819340038467078 0.052195247020992312 0 0.00061031194899981535 0.051939411006407948 0 0.0010090702979117083 0.051915578376061276 0 0.00081819340038467078 0.052195247020992312 0 0.0010900301332397722 0.052324170624709378 0 0.0010090702979117083 0.051915578376061276 0 0.00026525147758875304 0.051904645321896793 0 0.00052024166876746953 0.052259616006748361 0 0.00061031194899981535 0.051939411006407948 0 0.00052024166876746953 0.052259616006748361 0 0.00081819340038467078 0.052195247020992312 0 0.00061031194899981535 0.051939411006407948 0 0.00019726383851318763 0.052097701875960183 0 0.00026525147758875304 0.051904645321896793 0 0.00052024166876746953 0.052259616006748361 0 0.0013434793420263513 0.052103280376805235 0 0.0017215630227242391 0.052235523317058052 0 0.0015698695462926765 0.051761385006564214 0 0.0013434793420263513 0.052103280376805235 0 0.0013680731180825514 0.052415934995579457 0 0.0017215630227242391 0.052235523317058052 0 0.0013434793420263513 0.052103280376805235 0 0.0010900301332397722 0.052324170624709378 0 0.0010090702979117083 0.051915578376061276 0 0.0013434793420263513 0.052103280376805235 0 0.0010900301332397722 0.052324170624709378 0 0.0013680731180825514 0.052415934995579457 0 0.0011771449289303608 0.052598168455753457 0 0.0013680731180825514 0.052415934995579457 0 0.0015406062748276796 0.052673349466745061 0 0.0010900301332397722 0.052324170624709378 0 0.0011771449289303608 0.052598168455753457 0 0.0013680731180825514 0.052415934995579457 0 0.00086480502289407505 0.052590274400659547 0 0.0010900301332397722 0.052324170624709378 0 0.0011771449289303608 0.052598168455753457 0 0.0013680731180825514 0.052415934995579457 0 0.0015406062748276796 0.052673349466745061 0 0.0017215630227242391 0.052235523317058052 0 0.00052316408151872266 0.053834184358414701 0 0.00046375178098885555 0.054051557163086607 0 0.00073684353033649363 0.053919568109988707 0 0.0005942752981560179 0.053446446896331247 0 0.0010048496887450874 0.053438231468433441 0 0.0010089165806182214 0.052898476033394898 0 0.0011771449289303608 0.052598168455753457 0 0.0015406062748276796 0.052673349466745061 0 0.00052316408151872266 0.053834184358414701 0 0.00027110261819962962 0.053903490559526021 0 0.00046375178098885555 0.054051557163086607 0 0.00025286276655280134 0.053842655613481477 0 0.00052316408151872266 0.053834184358414701 0 0.00027110261819962962 0.053903490559526021 0 0.0003734981954755575 0.054221193029212064 0 0.00028206750851456612 0.054333925045907651 0 0.00027110261819962962 0.053903490559526021 0 0.0003734981954755575 0.054221193029212064 0 0.00027110261819962962 0.053903490559526021 0 0.00046375178098885555 0.054051557163086607 0 0.0003734981954755575 0.054221193029212064 0 0.00046375178098885555 0.054051557163086607 0 0.00052669551065382065 0.054323218102362826 0 0.00046375178098885555 0.054051557163086607 0 0.00052669551065382065 0.054323218102362826 0 0.00073684353033649363 0.053919568109988707 0 0.00052669551065382065 0.054323218102362826 0 0.00034952249950836014 0.054776315000301175 0 0.00038685805653499144 0.054503861312393931 0 0.00052129514235074162 0.054484798123549269 0 0.00054097285411744444 0.054498403173652739 0 0.00052669551065382065 0.054323218102362826 0 0.00088482487448602828 0.054115960028587116 0 0.00073684353033649363 0.053919568109988707 0 0.00034952249950836014 0.054776315000301175 0 8.4801180977207331e-05 0.054995955435905193 0 3.7255759074261199e-05 0.054909174165416928 0 0.00034952249950836014 0.054776315000301175 0 3.7255759074261199e-05 0.054909174165416928 0 0.00038685805653499144 0.054503861312393931 0 0.00095776521097307838 0.053855404763391262 0 0.0010798029065684689 0.053809038946680571 0 0.0011879451802092964 0.053941191622874127 0 0.00054097285411744444 0.054498403173652739 0 0.00050992936063101876 0.05455415596609213 0 0.00088482487448602828 0.054115960028587116 0 0.00095776521097307838 0.053855404763391262 0 0.0011879451802092964 0.053941191622874127 0 0.00095776521097307838 0.053855404763391262 0 0.0010798029065684689 0.053809038946680571 0 0.0009725206371094501 0.053737840060339451 0 0.00052316408151872266 0.053834184358414701 0 0.00073684353033649363 0.053919568109988707 0 0.00097001899920162921 0.053718132150454158 0 0.00088482487448602828 0.054115960028587116 0 0.00095776521097307838 0.053855404763391262 0 0.00073684353033649363 0.053919568109988707 0 0.00095776521097307838 0.053855404763391262 0 0.00073684353033649363 0.053919568109988707 0 0.00097001899920162921 0.053718132150454158 0 0.0010048496887450874 0.053438231468433441 0 0.0011197693746464168 0.05363687882264824 0 0.0015406062748276796 0.052673349466745061 0 0.0020969461795586125 0.052516908056034983 0 0.0017215630227242391 0.052235523317058052 0 0.001113921338039263 0.05365687930043489 0 0.0011197693746464168 0.05363687882264824 0 0.0010798029065684689 0.053809038946680571 0 0.0009725206371094501 0.053737840060339451 0 0.0011927892863746643 0.05376196992572288 0 0.0011197693746464168 0.05363687882264824 0 0.0010313819563027484 0.053488417067276708 0 2.9851521021337578e-05 0.054954092619626166 0 1.9652223768389825e-05 0.054986455873267753 0 1.0958480318883851e-05 0.054970951114409868 0 1.9652223768389825e-05 0.054986455873267753 0 5.1471757073657316e-06 0.054990616944330564 0 1.0958480318883851e-05 0.054970951114409868 0 0.0021393567717691874 0.052028998801489486 0 0.0017215630227242391 0.052235523317058052 0 0.0019093791129153681 0.051771892059529208 0 0.0020969461795586125 0.052516908056034983 0 0.0021393567717691874 0.052028998801489486 0 0.0017215630227242391 0.052235523317058052 0 1.315972023472561e-06 0.054998007382922501 0 1.3771247476630003e-09 0.054999991781862781 0 8.7538415689657149e-07 0.054998880402446867 0 1.315972023472561e-06 0.054998007382922501 0 2.0674976834554135e-06 0.054995750507215731 0 1.2356627707370511e-06 0.054997614377965069 0 1.315972023472561e-06 0.054998007382922501 0 1.3771247476630003e-09 0.054999991781862781 0 2.0674976834554135e-06 0.054995750507215731 0 0.00027968717880268976 0.054726922456031647 0 0.00029668382428616651 0.054675406595961172 0 5.1471757073657316e-06 0.054990616944330564 0 -8.5309194317663512e-06 0.054969570732651199 0 1.0958480318883851e-05 0.054970951114409868 0 2.0674976834554135e-06 0.054995750507215731 0 5.1471757073657316e-06 0.054990616944330564 0 1.2356627707370511e-06 0.054997614377965069 0 2.9851521021337578e-05 0.054954092619626166 0 1.0958480318883851e-05 0.054970951114409868 0 -1.0935529076952836e-05 0.054965979781818865 0 0.0011197693746464168 0.05363687882264824 0 0.00030351510217956448 0.054653376180042394 0 0.0009725206371094501 0.053737840060339451 0 0.0011927892863746643 0.05376196992572288 0 0.0013660373076321895 0.053640037059847656 0 -8.5309194317663512e-06 0.054969570732651199 0 1.0958480318883851e-05 0.054970951114409868 0 -1.0935529076952836e-05 0.054965979781818865 0 0.0010798029065684689 0.053809038946680571 0 0.0011927892863746643 0.05376196992572288 0 0.0012043517608992095 0.053827697939300159 0 0.0011927892863746643 0.05376196992572288 0 0.0013219201389648315 0.053785083454106528 0 0.0012043517608992095 0.053827697939300159 0 0.0011927892863746643 0.05376196992572288 0 0.0013219201389648315 0.053785083454106528 0 0.0013660373076321895 0.053640037059847656 0 0.00030351510217956448 0.054653376180042394 0 0.00015391679503504608 0.05478509519571842 0 1.0464925248263252e-06 0.054998180131781427 0 8.7538415689657149e-07 0.054998880402446867 0 6.3808230804902379e-07 0.054999437646716547 0 0.0013219201389648315 0.053785083454106528 0 0.0013660373076321895 0.053640037059847656 0 0.001468507212640242 0.053795475389499116 0 1.3771247476630003e-09 0.054999991781862781 0 8.7538415689657149e-07 0.054998880402446867 0 2.1954538749323833e-09 0.054999998194348733 0 1.2356627707370511e-06 0.054997614377965069 0 1.0464925248263252e-06 0.054998180131781427 0 8.7538415689657149e-07 0.054998880402446867 0 1.315972023472561e-06 0.054998007382922501 0 1.2356627707370511e-06 0.054997614377965069 0 8.7538415689657149e-07 0.054998880402446867 0 0.00029668382428616651 0.054675406595961172 0 0.00030351510217956448 0.054653376180042394 0 8.7538415689657149e-07 0.054998880402446867 0 6.3808230804902379e-07 0.054999437646716547 0 2.1954538749323833e-09 0.054999998194348733 0 0.00015391679503504608 0.05478509519571842 0 3.259803343249463e-07 0.054998890898013068 0 7.3575532608385179e-08 0.05499979241712661 0 -1.385477202077788e-10 0.054999999217850246 0 2.3510639877143544e-10 0.05500000003584752 0 2.0294586341755553e-05 0.055028773206201052 0 2.604235157494222e-08 0.054999755199935385 0 8.4801180977207331e-05 0.054995955435905193 0 0.00015391679503504608 0.05478509519571842 0 7.7020943910864488e-07 0.054999260204667971 0 2.604235157494222e-08 0.054999755199935385 0 8.4801180977207331e-05 0.054995955435905193 0 3.7255759074261199e-05 0.054909174165416928 0 0.00015391679503504608 0.05478509519571842 0 0.00050992936063101876 0.05455415596609213 0 0.0013219201389648315 0.053785083454106528 0 0.001468507212640242 0.053795475389499116 0 0.0011879451802092964 0.053941191622874127 0 0.0010798029065684689 0.053809038946680571 0 0.0012043517608992095 0.053827697939300159 0 0.0011879451802092964 0.053941191622874127 0 0.0013219201389648315 0.053785083454106528 0 0.0012043517608992095 0.053827697939300159 0 0.0011879451802092964 0.053941191622874127 0 2.604235157494222e-08 0.054999755199935385 0 3.7255759074261199e-05 0.054909174165416928 0 1.1042426655594363e-08 0.054999851645204045 0 3.7255759074261199e-05 0.054909174165416928 0 3.0132658313041563e-05 0.054990059864119034 0 1.1042426655594363e-08 0.054999851645204045 0 0.00011121726957635054 0.054758659454853018 0 0.00017490417359856372 0.054658831160307716 0 3.7255759074261199e-05 0.054909174165416928 0 0.00038685805653499144 0.054503861312393931 0 0.00029416846420922068 0.054367183916974593 0 0.00044639197291100705 0.054364294631528469 0 0.00052669551065382065 0.054323218102362826 0 0.00038685805653499144 0.054503861312393931 0 0.00044639197291100705 0.054364294631528469 0 0.00038685805653499144 0.054503861312393931 0 0.00029416846420922068 0.054367183916974593 0 0.00017490417359856372 0.054658831160307716 0 0.00027843250047150951 0.054459775607098658 0 0.00044639197291100705 0.054364294631528469 0 0.00029416846420922068 0.054367183916974593 0 0.00041257223357793666 0.054335600037386057 0 3.0132658313041563e-05 0.054990059864119034 0 3.3479389064884303e-05 0.054985114344348836 0 0.00026109073185386295 0.055076177065494003 0 0.00036871806495950596 0.054390068952645483 0 0.00026109073185386295 0.055076177065494003 0 3.1146367262239402e-05 0.05482892199392924 0 0.00036871806495950596 0.054390068952645483 0 0.00098037512157570861 0.054504554420069198 0 0.00026109073185386295 0.055076177065494003 0 3.3479389064884303e-05 0.054985114344348836 0 0.00026109073185386295 0.055076177065494003 0 3.1146367262239402e-05 0.05482892199392924 0 3.3479389064884303e-05 0.054985114344348836 0 3.1146367262239402e-05 0.05482892199392924 0 2.4844981988483118e-05 0.054932940050612673 0 3.0132658313041563e-05 0.054990059864119034 0 3.3479389064884303e-05 0.054985114344348836 0 1.1042426655594363e-08 0.054999851645204045 0 4.5619952748851314e-05 0.054954167205935343 0 2.4844981988483118e-05 0.054932940050612673 0 1.1042426655594363e-08 0.054999851645204045 0 3.3479389064884303e-05 0.054985114344348836 0 2.4844981988483118e-05 0.054932940050612673 0 1.1042426655594363e-08 0.054999851645204045 0 -2.6512575999289778e-05 0.054979008454801977 0 -1.7861676809717375e-05 0.054992900950054623 0 -2.1322362009035091e-05 0.05500089869841563 0 8.7527234736147286e-05 0.054713364209722691 0 0.00011127958017279584 0.054575331793159342 0 -1.5701032462803097e-05 0.054987115839158385 0 -1.0202595787855166e-05 0.054993211171992899 0 -9.8840557387368891e-06 0.054981866158264669 0 -1.0202595787855166e-05 0.054993211171992899 0 -1.4826975123731643e-06 0.054991539716943018 0 -9.8840557387368891e-06 0.054981866158264669 0 -1.5701032462803097e-05 0.054987115839158385 0 -2.6512575999289778e-05 0.054979008454801977 0 -1.7861676809717375e-05 0.054992900950054623 0 -1.5701032462803097e-05 0.054987115839158385 0 -2.6512575999289778e-05 0.054979008454801977 0 -9.8840557387368891e-06 0.054981866158264669 0 -1.7861676809717375e-05 0.054992900950054623 0 -1.4210859917493586e-05 0.054999616064243306 0 -2.1322362009035091e-05 0.05500089869841563 0 -1.7861676809717375e-05 0.054992900950054623 0 -1.0202595787855166e-05 0.054993211171992899 0 -1.4210859917493586e-05 0.054999616064243306 0 -1.5701032462803097e-05 0.054987115839158385 0 -1.7861676809717375e-05 0.054992900950054623 0 -1.0202595787855166e-05 0.054993211171992899 0 -1.0202595787855166e-05 0.054993211171992899 0 -8.7316695907011194e-06 0.05499889640810289 0 -1.4210859917493586e-05 0.054999616064243306 0 -1.0202595787855166e-05 0.054993211171992899 0 -8.7316695907011194e-06 0.05499889640810289 0 -4.8933157937231978e-06 0.054995701918141959 0 -8.7316695907011194e-06 0.05499889640810289 0 -4.8933157937231978e-06 0.054995701918141959 0 -9.1718024093976387e-07 0.054998944736248015 0 -1.0202595787855166e-05 0.054993211171992899 0 -4.8933157937231978e-06 0.054995701918141959 0 -1.4826975123731643e-06 0.054991539716943018 0 -4.8933157937231978e-06 0.054995701918141959 0 -9.1718024093976387e-07 0.054998944736248015 0 -1.4826975123731643e-06 0.054991539716943018 0 -7.8429947428924362e-10 0.055000003509792172 0 -1.4826975123731643e-06 0.054991539716943018 0 4.3947796675425651e-09 0.054999932507115774 0 -7.8429947428924362e-10 0.055000003509792172 0 -9.1718024093976387e-07 0.054998944736248015 0 -1.4826975123731643e-06 0.054991539716943018 0 -1.4826975123731643e-06 0.054991539716943018 0 4.3947796675425651e-09 0.054999932507115774 0 -3.7543011383297943e-06 0.054978961074551448 0 -1.4826975123731643e-06 0.054991539716943018 0 -3.7543011383297943e-06 0.054978961074551448 0 -9.8840557387368891e-06 0.054981866158264669 0 -3.7543011383297943e-06 0.054978961074551448 0 -1.3540521653697495e-05 0.054961094011471943 0 -4.5818208464611369e-06 0.054954035797534044 0 -1.3540521653697495e-05 0.054961094011471943 0 -2.5152443821119608e-05 0.054981753459809463 0 -3.0948943614423641e-05 0.054906713240149611 0 -3.7543011383297943e-06 0.054978961074551448 0 -9.8840557387368891e-06 0.054981866158264669 0 -1.3540521653697495e-05 0.054961094011471943 0 -2.6512575999289778e-05 0.054979008454801977 0 -9.8840557387368891e-06 0.054981866158264669 0 -1.3540521653697495e-05 0.054961094011471943 0 -2.6512575999289778e-05 0.054979008454801977 0 -1.3540521653697495e-05 0.054961094011471943 0 -2.5152443821119608e-05 0.054981753459809463 0 -1.0147516298029496e-05 0.054847323788337524 0 -5.4670675699500689e-05 0.054755070308123335 0 -3.0948943614423641e-05 0.054906713240149611 0 0.00017256006084102491 0.05472329952653758 0 0.00013312689571563351 0.054802315344795544 0 -1.0147516298029496e-05 0.054847323788337524 0 -1.6303355517176373e-05 0.054781461651780439 0 4.3795791023190317e-06 0.054783774195243627 0 -1.6303355517176373e-05 0.054781461651780439 0 4.3795791023190317e-06 0.054783774195243627 0 -9.0260306285723319e-06 0.054744046720156626 0 -1.6303355517176373e-05 0.054781461651780439 0 -5.4670675699500689e-05 0.054755070308123335 0 -9.0260306285723319e-06 0.054744046720156626 0 -1.0147516298029496e-05 0.054847323788337524 0 -1.6303355517176373e-05 0.054781461651780439 0 -5.4670675699500689e-05 0.054755070308123335 0 -1.0147516298029496e-05 0.054847323788337524 0 4.3795791023190317e-06 0.054783774195243627 0 2.5351510831207143e-05 0.054806541317025906 0 4.3795791023190317e-06 0.054783774195243627 0 3.2562912018597583e-05 0.054744383061905946 0 1.1851808892541511e-05 0.054746720116386323 0 4.3795791023190317e-06 0.054783774195243627 0 1.1851808892541511e-05 0.054746720116386323 0 -9.0260306285723319e-06 0.054744046720156626 0 3.2562912018597583e-05 0.054744383061905946 0 5.5648959468094981e-05 0.054744297531654731 0 2.5351510831207143e-05 0.054806541317025906 0 4.3795791023190317e-06 0.054783774195243627 0 3.2562912018597583e-05 0.054744383061905946 0 2.5351510831207143e-05 0.054806541317025906 0 3.2562912018597583e-05 0.054744383061905946 0 1.5947049314876179e-05 0.054716715703244267 0 3.899898271595401e-05 0.054706552924058328 0 1.5947049314876179e-05 0.054716715703244267 0 -9.0260306285723319e-06 0.054744046720156626 0 -9.2347569423470573e-06 0.054704982025785498 0 3.2562912018597583e-05 0.054744383061905946 0 1.1851808892541511e-05 0.054746720116386323 0 1.5947049314876179e-05 0.054716715703244267 0 1.1851808892541511e-05 0.054746720116386323 0 1.5947049314876179e-05 0.054716715703244267 0 -9.0260306285723319e-06 0.054744046720156626 0 1.5947049314876179e-05 0.054716715703244267 0 -9.2347569423470573e-06 0.054704982025785498 0 1.8621474302174112e-05 0.054683416729956441 0 3.899898271595401e-05 0.054706552924058328 0 1.8621474302174112e-05 0.054683416729956441 0 5.0482329285384091e-05 0.05467544479369478 0 1.5947049314876179e-05 0.054716715703244267 0 3.899898271595401e-05 0.054706552924058328 0 1.8621474302174112e-05 0.054683416729956441 0 -2.5152443821119608e-05 0.054981753459809463 0 4.0707825234176705e-06 0.054901728538547225 0 -3.1503931196646728e-05 0.054918302057941251 0 -2.6512575999289778e-05 0.054979008454801977 0 -2.5152443821119608e-05 0.054981753459809463 0 -3.1503931196646728e-05 0.054918302057941251 0 0.00017256006084102491 0.05472329952653758 0 0.00031807188205301522 0.054384131996839356 0 -5.4670675699500689e-05 0.054755070308123335 0 -9.2347569423470573e-06 0.054704982025785498 0 -3.1759340917824595e-05 0.054671672964793409 0 -5.4670675699500689e-05 0.054755070308123335 0 -9.0260306285723319e-06 0.054744046720156626 0 -9.2347569423470573e-06 0.054704982025785498 0 -3.1759340917824595e-05 0.054671672964793409 0 1.4764627568778585e-05 0.054648439627259952 0 -1.5247069710893176e-05 0.054612600508648294 0 0.00031807188205301522 0.054384131996839356 0 0.00067594374591405256 0.053290373240282372 0 4.0707825234176705e-06 0.054901728538547225 0 -2.6568356794285621e-05 0.054825069685318049 0 -3.1503931196646728e-05 0.054918302057941251 0 -9.2347569423470573e-06 0.054704982025785498 0 -3.1759340917824595e-05 0.054671672964793409 0 -1.5470418769874759e-06 0.05467644451644172 0 -3.1759340917824595e-05 0.054671672964793409 0 -1.5470418769874759e-06 0.05467644451644172 0 1.4764627568778585e-05 0.054648439627259952 0 1.8621474302174112e-05 0.054683416729956441 0 1.4764627568778585e-05 0.054648439627259952 0 5.0482329285384091e-05 0.05467544479369478 0 -9.2347569423470573e-06 0.054704982025785498 0 -1.5470418769874759e-06 0.05467644451644172 0 1.8621474302174112e-05 0.054683416729956441 0 -1.5470418769874759e-06 0.05467644451644172 0 1.8621474302174112e-05 0.054683416729956441 0 1.4764627568778585e-05 0.054648439627259952 0 0.00079661494476024222 0.053077136222003267 0 0.00073983974333982356 0.052600186763280009 0 0.0020660976506290756 0.050549243596159574 0 0.001732679322840044 0.050801011445458739 0 0.0015484229316881772 0.050527490278773103 0 1.4764627568778585e-05 0.054648439627259952 0 -9.3112029218250014e-06 0.054608634036728707 0 5.9462257273713903e-05 0.054617757029484182 0 4.0707825234176705e-06 0.054901728538547225 0 -2.6568356794285621e-05 0.054825069685318049 0 2.6148473141766876e-05 0.054783675782628466 0 0.00019803378654356779 0.054028500109148961 0 0.00067594374591405256 0.053290373240282372 0 0.00019803378654356779 0.054028500109148961 0 0.00031328626047596363 0.053669287847503043 0 1.4764627568778585e-05 0.054648439627259952 0 -1.5247069710893176e-05 0.054612600508648294 0 -9.3112029218250014e-06 0.054608634036728707 0 0.00067594374591405256 0.053290373240282372 0 0.00079661494476024222 0.053077136222003267 0 0.0013981377983145929 0.052214147989053959 0 0.0012210235540987776 0.053375186047444685 0 -8.7142646962303134e-05 0.053354351511436089 0 0.00067594374591405256 0.053290373240282372 0 0.0007313063478194535 0.053135124890336123 0 0.0007313063478194535 0.053135124890336123 0 0.00079661494476024222 0.053077136222003267 0 0.00058552589989769482 0.053055981546364629 0 -0.00019161493581030517 0.053652269297493539 0 0.00051451842691317966 0.053797649154500631 0 0.0007313063478194535 0.053135124890336123 0 0.00031328626047596363 0.053669287847503043 0 -0.00019161493581030517 0.053652269297493539 0 -0.00021192595704760736 0.053785718808156177 0 0.00051451842691317966 0.053797649154500631 0 3.7713217340381102e-06 0.054996630112805853 0 2.6018398044787216e-06 0.054998797078493422 0 3.4673292609573298e-06 0.054997870701843247 0 0.00031328626047596363 0.053669287847503043 0 0.00010714294294339333 0.054400174218718053 0 1.0568211686652094e-06 0.054995288508635914 0 1.2356843756580579e-07 0.05499754377826406 0 3.0634271571702099e-07 0.054997329668464739 0 9.8088465256537355e-07 0.054996217016033425 0 1.0568211686652094e-06 0.054995288508635914 0 3.0634271571702099e-07 0.054997329668464739 0 0.00019803378654356779 0.054028500109148961 0 0.00011127958017279584 0.054575331793159342 0 0.00019803378654356779 0.054028500109148961 0 -3.964786479713376e-05 0.054397174313442258 0 -2.0955245319616335e-05 0.055010630091539621 0 -1.1861635107269847e-05 0.055005695127120363 0 -2.1322362009035091e-05 0.05500089869841563 0 9.8088465256537355e-07 0.054996217016033425 0 3.0634271571702099e-07 0.054997329668464739 0 6.5679612458083503e-08 0.05499814888596874 0 3.0634271571702099e-07 0.054997329668464739 0 6.5679612458083503e-08 0.05499814888596874 0 -2.4423005086109103e-07 0.054999240715281554 0 -8.7316695907011194e-06 0.05499889640810289 0 -1.1861635107269847e-05 0.055005695127120363 0 -1.4210859917493586e-05 0.054999616064243306 0 -1.1861635107269847e-05 0.055005695127120363 0 -1.4210859917493586e-05 0.054999616064243306 0 -2.1322362009035091e-05 0.05500089869841563 0 -7.8429947428924362e-10 0.055000003509792172 0 -2.4423005086109103e-07 0.054999240715281554 0 -3.9819664089278348e-10 0.054999993013993845 0 -7.8429947428924362e-10 0.055000003509792172 0 -9.1718024093976387e-07 0.054998944736248015 0 -2.4423005086109103e-07 0.054999240715281554 0 -9.1718024093976387e-07 0.054998944736248015 0 6.5679612458083503e-08 0.05499814888596874 0 -2.4423005086109103e-07 0.054999240715281554 0 -9.4789561498138001e-05 0.054497683771568238 0 -3.964786479713376e-05 0.054397174313442258 0 -8.7316695907011194e-06 0.05499889640810289 0 -9.1718024093976387e-07 0.054998944736248015 0 -1.1861635107269847e-05 0.055005695127120363 0 0.00010714294294339333 0.054400174218718053 0 1.5528839750424545e-07 0.054998243742352348 0 1.2356843756580579e-07 0.05499754377826406 0 -2.4423005086109103e-07 0.054999240715281554 0 -3.9819664089278348e-10 0.054999993013993845 0 1.2356843756580579e-07 0.05499754377826406 0 3.0634271571702099e-07 0.054997329668464739 0 -2.4423005086109103e-07 0.054999240715281554 0 2.6018398044787216e-06 0.054998797078493422 0 1.7408113508812864e-09 0.054999999908315764 0 2.0628876173898588e-06 0.054998907667879578 0 1.7408113508812864e-09 0.054999999908315764 0 2.0628876173898588e-06 0.054998907667879578 0 2.0531915777664871e-09 0.054999997858348325 0 3.7713217340381102e-06 0.054996630112805853 0 3.4673292609573298e-06 0.054997870701843247 0 4.8979936577853305e-06 0.054996742422690571 0 2.6018398044787216e-06 0.054998797078493422 0 2.0628876173898588e-06 0.054998907667879578 0 3.4673292609573298e-06 0.054997870701843247 0 2.0628876173898588e-06 0.054998907667879578 0 3.4673292609573298e-06 0.054997870701843247 0 3.787167123943824e-06 0.054998103198875797 0 3.4673292609573298e-06 0.054997870701843247 0 3.787167123943824e-06 0.054998103198875797 0 4.8979936577853305e-06 0.054996742422690571 0 2.0628876173898588e-06 0.054998907667879578 0 3.787167123943824e-06 0.054998103198875797 0 2.1900348606549988e-06 0.054998915471392539 0 3.787167123943824e-06 0.054998103198875797 0 5.4065240756525212e-06 0.054997866811852147 0 4.8979936577853305e-06 0.054996742422690571 0 3.787167123943824e-06 0.054998103198875797 0 5.4065240756525212e-06 0.054997866811852147 0 2.1900348606549988e-06 0.054998915471392539 0 2.0531915777664871e-09 0.054999997858348325 0 2.1900348606549988e-06 0.054998915471392539 0 1.3011134894545394e-09 0.054999997293336399 0 2.0628876173898588e-06 0.054998907667879578 0 2.0531915777664871e-09 0.054999997858348325 0 2.1900348606549988e-06 0.054998915471392539 0 2.1900348606549988e-06 0.054998915471392539 0 1.3011134894545394e-09 0.054999997293336399 0 2.4769190387063681e-06 0.054996961686965572 0 5.4065240756525212e-06 0.054997866811852147 0 2.4769190387063681e-06 0.054996961686965572 0 9.9808255133239934e-06 0.054996570506328689 0 5.4065240756525212e-06 0.054997866811852147 0 2.1900348606549988e-06 0.054998915471392539 0 2.4769190387063681e-06 0.054996961686965572 0 2.0674976834554135e-06 0.054995750507215731 0 5.1471757073657316e-06 0.054990616944330564 0 2.4769190387063681e-06 0.054996961686965572 0 5.1471757073657316e-06 0.054990616944330564 0 2.4769190387063681e-06 0.054996961686965572 0 9.9808255133239934e-06 0.054996570506328689 0 1.3771247476630003e-09 0.054999991781862781 0 1.3011134894545394e-09 0.054999997293336399 0 2.4769190387063681e-06 0.054996961686965572 0 1.3771247476630003e-09 0.054999991781862781 0 2.0674976834554135e-06 0.054995750507215731 0 2.4769190387063681e-06 0.054996961686965572 0 0.0017215630227242391 0.052235523317058052 0 0.0019093791129153681 0.051771892059529208 0 0.0015698695462926765 0.051761385006564214 0 0.0019093791129153681 0.051771892059529208 0 0.0017606292779006019 0.051418790955961954 0 0.0015698695462926765 0.051761385006564214 0 0.0010313819563027484 0.053488417067276708 0 0.00092306992772993887 0.053304109693349255 0 0.0021393567717691874 0.052028998801489486 0 0.0019093791129153681 0.051771892059529208 0 0.0021691784742935176 0.051537561046745825 0 1.9652223768389825e-05 0.054986455873267753 0 5.1471757073657316e-06 0.054990616944330564 0 9.9808255133239934e-06 0.054996570506328689 0 0.0019093791129153681 0.051771892059529208 0 0.0021691784742935176 0.051537561046745825 0 0.0017606292779006019 0.051418790955961954 0 0.0021691784742935176 0.051537561046745825 0 0.0017606292779006019 0.051418790955961954 0 0.0019842364517372885 0.051227258613496099 0 0.0017606292779006019 0.051418790955961954 0 0.0017782376195305117 0.051110607996186198 0 0.0019842364517372885 0.051227258613496099 0 0.0017782376195305117 0.051110607996186198 0 0.0019842364517372885 0.051227258613496099 0 0.0020159493897873755 0.051032420487983031 0 0.0021691784742935176 0.051537561046745825 0 0.0019842364517372885 0.051227258613496099 0 0.002180047308694194 0.051076716159150597 0 5.4065240756525212e-06 0.054997866811852147 0 9.9808255133239934e-06 0.054996570506328689 0 4.8979936577853305e-06 0.054996742422690571 0 0.00092306992772993887 0.053304109693349255 0 0.00072673398998021924 0.053228067930506801 0 0.0019842364517372885 0.051227258613496099 0 0.0020159493897873755 0.051032420487983031 0 0.002180047308694194 0.051076716159150597 0 0.002074206433954832 0.050620996425866621 0 0.0020404700923580335 0.050620151516992874 0 0.0020159493897873755 0.051032420487983031 0 0.0007313063478194535 0.053135124890336123 0 0.001063291952243214 0.051991577756067726 0 0.002199792467253334 0.050705816412141468 0 0.0020159493897873755 0.051032420487983031 0 0.002180047308694194 0.051076716159150597 0 0.0020669522999087722 0.050704485235024965 0 0.002199792467253334 0.050705816412141468 0 0.0020159493897873755 0.051032420487983031 0 0.00031328626047596363 0.053669287847503043 0 0.00072673398998021924 0.053228067930506801 0 0.00079661494476024222 0.053077136222003267 0 0.0016636696513473409 0.051886761056851076 0 0.0020404700923580335 0.050620151516992874 0 0.0020159493897873755 0.051032420487983031 0 0.001721675297962527 0.05085676891836409 0 0.0017782376195305117 0.051110607996186198 0 0.0020159493897873755 0.051032420487983031 0 0.001721675297962527 0.05085676891836409 0 0.0016636696513473409 0.051886761056851076 0 0.0017386979998007168 0.051672395063933396 0 0.001732679322840044 0.050801011445458739 0 0.0013363906026712424 0.050766603208013697 0 0.0015484229316881772 0.050527490278773103 0 0.001732679322840044 0.050801011445458739 0 0.0013363906026712424 0.050766603208013697 0 0.0013881017695751038 0.051076462294500906 0 0.0013363906026712424 0.050766603208013697 0 0.0013881017695751038 0.051076462294500906 0 0.00099274623456088794 0.050932965754167399 0 0.0013363906026712424 0.050766603208013697 0 0.00099274623456088794 0.050932965754167399 0 0.001008953760561634 0.050495302845156388 0 0.0013881017695751038 0.051076462294500906 0 0.0010046439488702152 0.051404320440661157 0 0.00099274623456088794 0.050932965754167399 0 0.0017782376195305117 0.051110607996186198 0 0.001721675297962527 0.05085676891836409 0 0.0013881017695751038 0.051076462294500906 0 0.0017606292779006019 0.051418790955961954 0 0.0017782376195305117 0.051110607996186198 0 0.0013881017695751038 0.051076462294500906 0 0.0017606292779006019 0.051418790955961954 0 0.0013881017695751038 0.051076462294500906 0 0.0014063919815381141 0.051448796744172583 0 0.0017606292779006019 0.051418790955961954 0 0.0014063919815381141 0.051448796744172583 0 0.0015698695462926765 0.051761385006564214 0 0.0013881017695751038 0.051076462294500906 0 0.0014063919815381141 0.051448796744172583 0 0.0010046439488702152 0.051404320440661157 0 0.0014063919815381141 0.051448796744172583 0 0.0010046439488702152 0.051404320440661157 0 0.001250406197599958 0.051699936038691795 0 0.0013434793420263513 0.052103280376805235 0 0.001250406197599958 0.051699936038691795 0 0.0010090702979117083 0.051915578376061276 0 0.0010046439488702152 0.051404320440661157 0 0.001250406197599958 0.051699936038691795 0 0.0010090702979117083 0.051915578376061276 0 0.0013434793420263513 0.052103280376805235 0 0.001250406197599958 0.051699936038691795 0 0.0015698695462926765 0.051761385006564214 0 0.0014063919815381141 0.051448796744172583 0 0.001250406197599958 0.051699936038691795 0 0.0015698695462926765 0.051761385006564214 0 0.00037311121453624421 0.051736703549852103 0 0.00072532082610109367 0.05168880125432318 0 0.00055357124984453307 0.051448997799215718 0 0.00061031194899981535 0.051939411006407948 0 0.00037311121453624421 0.051736703549852103 0 0.00072532082610109367 0.05168880125432318 0 0.00026525147758875304 0.051904645321896793 0 0.00061031194899981535 0.051939411006407948 0 0.00037311121453624421 0.051736703549852103 0 0.00061031194899981535 0.051939411006407948 0 0.0010090702979117083 0.051915578376061276 0 0.00072532082610109367 0.05168880125432318 0 0.0010046439488702152 0.051404320440661157 0 0.0010090702979117083 0.051915578376061276 0 0.00072532082610109367 0.05168880125432318 0 0.0010046439488702152 0.051404320440661157 0 0.00055357124984453307 0.051448997799215718 0 0.00061954914783349138 0.051100479632447904 0 0.0010046439488702152 0.051404320440661157 0 0.00072532082610109367 0.05168880125432318 0 0.00055357124984453307 0.051448997799215718 0 0.00055357124984453307 0.051448997799215718 0 0.00035205091023270325 0.051274569250961251 0 0.0001933617031258572 0.051612148757874614 0 0.00037311121453624421 0.051736703549852103 0 0.00055357124984453307 0.051448997799215718 0 0.0001933617031258572 0.051612148757874614 0 0.00055357124984453307 0.051448997799215718 0 0.00035205091023270325 0.051274569250961251 0 0.00061954914783349138 0.051100479632447904 0 0.00035205091023270325 0.051274569250961251 0 0.00061954914783349138 0.051100479632447904 0 0.00020666404397347667 0.051051829219436642 0 0.00061954914783349138 0.051100479632447904 0 0.00027562636437687818 0.05076059906738347 0 0.00020666404397347667 0.051051829219436642 0 0.0010046439488702152 0.051404320440661157 0 0.00061954914783349138 0.051100479632447904 0 0.00099274623456088794 0.050932965754167399 0 0.00099274623456088794 0.050932965754167399 0 0.00067289779233208297 0.050747364427325227 0 0.001008953760561634 0.050495302845156388 0 0.00061954914783349138 0.051100479632447904 0 0.00099274623456088794 0.050932965754167399 0 0.00067289779233208297 0.050747364427325227 0 0.00061954914783349138 0.051100479632447904 0 0.00067289779233208297 0.050747364427325227 0 0.00027562636437687818 0.05076059906738347 0 0.00067289779233208297 0.050747364427325227 0 0.00045149995988830465 0.050450109476921579 0 0.00027562636437687818 0.05076059906738347 0 0.00010108472739000655 0.054647984149396325 0 0.00010576271654077717 0.054650884353574333 0 9.136995657103992e-05 0.054644876328613992 0 0.00010576271654077717 0.054650884353574333 0 9.5273849499375392e-05 0.054646660403097444 0 0.00010713612720593715 0.05465599184029736 0 0.00010576271654077717 0.054650884353574333 0 9.5273849499375392e-05 0.054646660403097444 0 9.136995657103992e-05 0.054644876328613992 0 0.00010576271654077717 0.054650884353574333 0 9.8503827673537361e-05 0.054652623027820722 0 0.00010605569813809944 0.054662079254115419 0 0.00010576271654077717 0.054650884353574333 0 0.00010236379277607783 0.054635264245792715 0 9.8503827673537361e-05 0.054652623027820722 0 0.00010576271654077717 0.054650884353574333 0 0.00010713612720593715 0.05465599184029736 0 0.00010605569813809944 0.054662079254115419 0 0.00010108472739000655 0.054647984149396325 0 0.00010576271654077717 0.054650884353574333 0 0.00010236379277607783 0.054635264245792715 0 0.00023221876340691889 0.051433972943530679 0 0.00052181312665703142 0.052136694856238931 0 0.00067289779233208297 0.050747364427325227 0 0.00045149995988830465 0.050450109476921579 0 0.001008953760561634 0.050495302845156388 0 0.00052181312665703142 0.052136694856238931 0 0.00073983974333982356 0.052600186763280009 0 0.00010236379277607783 0.054635264245792715 0 7.3962885007941248e-05 0.054648112578526371 0 9.8503827673537361e-05 0.054652623027820722 0 0.0013363906026712424 0.050766603208013697 0 0.001008953760561634 0.050495302845156388 0 0.0015484229316881772 0.050527490278773103 0 0.00010236379277607783 0.054635264245792715 0 5.9462257273713903e-05 0.054617757029484182 0 7.3962885007941248e-05 0.054648112578526371 0 1.4764627568778585e-05 0.054648439627259952 0 5.9462257273713903e-05 0.054617757029484182 0 7.3962885007941248e-05 0.054648112578526371 0 1.4764627568778585e-05 0.054648439627259952 0 7.3962885007941248e-05 0.054648112578526371 0 5.0482329285384091e-05 0.05467544479369478 0 7.3962885007941248e-05 0.054648112578526371 0 5.0482329285384091e-05 0.05467544479369478 0 8.7055477989264691e-05 0.054672133224898507 0 7.3962885007941248e-05 0.054648112578526371 0 9.8503827673537361e-05 0.054652623027820722 0 8.7055477989264691e-05 0.054672133224898507 0 9.8503827673537361e-05 0.054652623027820722 0 8.7055477989264691e-05 0.054672133224898507 0 0.00010605569813809944 0.054662079254115419 0 8.7055477989264691e-05 0.054672133224898507 0 0.00010096289154192148 0.054676909482126397 0 0.00010605569813809944 0.054662079254115419 0 8.7055477989264691e-05 0.054672133224898507 0 8.7549662321174506e-05 0.054691469571265354 0 6.3986369096959953e-05 0.054706748173937385 0 8.7055477989264691e-05 0.054672133224898507 0 8.7549662321174506e-05 0.054691469571265354 0 0.00010096289154192148 0.054676909482126397 0 8.7549662321174506e-05 0.054691469571265354 0 0.00010096289154192148 0.054676909482126397 0 0.00010169486800349706 0.05469178111135016 0 5.0482329285384091e-05 0.05467544479369478 0 8.7055477989264691e-05 0.054672133224898507 0 6.3986369096959953e-05 0.054706748173937385 0 3.899898271595401e-05 0.054706552924058328 0 5.0482329285384091e-05 0.05467544479369478 0 6.3986369096959953e-05 0.054706748173937385 0 8.7549662321174506e-05 0.054691469571265354 0 6.3986369096959953e-05 0.054706748173937385 0 7.9058382891721571e-05 0.054721336219437172 0 3.2562912018597583e-05 0.054744383061905946 0 3.899898271595401e-05 0.054706552924058328 0 6.3986369096959953e-05 0.054706748173937385 0 5.5648959468094981e-05 0.054744297531654731 0 6.2563298311173863e-05 0.05476963654585823 0 2.5351510831207143e-05 0.054806541317025906 0 3.2562912018597583e-05 0.054744383061905946 0 6.3986369096959953e-05 0.054706748173937385 0 5.5648959468094981e-05 0.054744297531654731 0 6.3986369096959953e-05 0.054706748173937385 0 5.5648959468094981e-05 0.054744297531654731 0 7.9058382891721571e-05 0.054721336219437172 0 5.5648959468094981e-05 0.054744297531654731 0 7.9058382891721571e-05 0.054721336219437172 0 6.2563298311173863e-05 0.05476963654585823 0 0.00010169486800349706 0.05469178111135016 0 7.9058382891721571e-05 0.054721336219437172 0 9.8861357158735639e-05 0.054727390299336459 0 8.7549662321174506e-05 0.054691469571265354 0 0.00010169486800349706 0.05469178111135016 0 7.9058382891721571e-05 0.054721336219437172 0 7.9058382891721571e-05 0.054721336219437172 0 9.8861357158735639e-05 0.054727390299336459 0 6.2563298311173863e-05 0.05476963654585823 0 0.00010169486800349706 0.05469178111135016 0 9.8861357158735639e-05 0.054727390299336459 0 0.00011441100348786934 0.05467878779298966 0 0.00012930673320456177 0.054643362191167555 0 0.00010191655876947679 0.054647640498417312 0 0.00011609314210817523 0.054665698105277313 0 9.8861357158735639e-05 0.054727390299336459 0 0.00011441100348786934 0.05467878779298966 0 0.00012930673320456177 0.054643362191167555 0 0.00011441100348786934 0.05467878779298966 0 0.00012930673320456177 0.054643362191167555 0 0.00011609314210817523 0.054665698105277313 0 0.00010169486800349706 0.05469178111135016 0 0.00011441100348786934 0.05467878779298966 0 0.00011609314210817523 0.054665698105277313 0 0.00012930673320456177 0.054643362191167555 0 0.00010191655876947679 0.054647640498417312 0 7.8911188209787291e-05 0.05461871758569932 0 0.00012930673320456177 0.054643362191167555 0 7.8911188209787291e-05 0.05461871758569932 0 0.00012240297162343915 0.054584977248741409 0 0.00010191655876947679 0.054647640498417312 0 0.00010713612720593715 0.05465599184029736 0 0.00011609314210817523 0.054665698105277313 0 0.00010191655876947679 0.054647640498417312 0 9.5273849499375392e-05 0.054646660403097444 0 0.00010713612720593715 0.05465599184029736 0 0.00010713612720593715 0.05465599184029736 0 0.00010605569813809944 0.054662079254115419 0 0.00011609314210817523 0.054665698105277313 0 0.00010096289154192148 0.054676909482126397 0 0.00010605569813809944 0.054662079254115419 0 0.00011609314210817523 0.054665698105277313 0 0.00010096289154192148 0.054676909482126397 0 0.00010169486800349706 0.05469178111135016 0 0.00011609314210817523 0.054665698105277313 0 6.5834542970545106e-05 0.05462755307884417 0 7.4662032891392095e-05 0.0546357323784619 0 7.8462259492388198e-05 0.054632695499049637 0 6.5834542970545106e-05 0.05462755307884417 0 7.4662032891392095e-05 0.0546357323784619 0 6.3789049418970091e-05 0.054631283782974535 0 0.00010191655876947679 0.054647640498417312 0 9.5273849499375392e-05 0.054646660403097444 0 7.8462259492388198e-05 0.054632695499049637 0 9.5273849499375392e-05 0.054646660403097444 0 7.4662032891392095e-05 0.0546357323784619 0 7.8462259492388198e-05 0.054632695499049637 0 7.8462259492388198e-05 0.054632695499049637 0 7.8911188209787291e-05 0.05461871758569932 0 6.7932709215973776e-05 0.054620427286045541 0 4.2488836465157376e-05 0.054252217031298934 0 -6.4752365286031098e-05 0.05407783858928368 0 0.00010191655876947679 0.054647640498417312 0 7.8462259492388198e-05 0.054632695499049637 0 7.8911188209787291e-05 0.05461871758569932 0 6.5834542970545106e-05 0.05462755307884417 0 7.8462259492388198e-05 0.054632695499049637 0 6.7932709215973776e-05 0.054620427286045541 0 -6.4752365286031098e-05 0.05407783858928368 0 -0.00032834265369316136 0.053734958484196536 0 6.5834542970545106e-05 0.05462755307884417 0 6.7932709215973776e-05 0.054620427286045541 0 5.4036895107226454e-05 0.054619242309724279 0 3.6242506873393704e-05 0.054378601331200746 0 -0.0001589137870490019 0.054301951738009509 0 5.560420021765681e-07 0.05427748806176183 0 -0.00015570951558067635 0.05388257596686287 0 -0.00035623092121893531 0.053715775238750547 0 -0.0001277819895875452 0.053565670576810172 0 -0.00015570951558067635 0.05388257596686287 0 -0.0001277819895875452 0.053565670576810172 0 2.0728932209281721e-05 0.053968460057698314 0 -0.00015570951558067635 0.05388257596686287 0 -0.00035623092121893531 0.053715775238750547 0 -0.00020152310131314299 0.05413487871398176 0 -0.00032834265369316136 0.053734958484196536 0 -0.00031796473512119971 0.05379596514396142 0 -0.00089764330003585038 0.053690482954553101 0 -0.0001277819895875452 0.053565670576810172 0 -0.00058146199221856102 0.053106120008359417 0 -0.00032834265369316136 0.053734958484196536 0 -0.0003034422808825445 0.053722669388165181 0 -0.00058146199221856102 0.053106120008359417 0 -0.00068557902508474631 0.052424250671039209 0 0.00037456593012767853 0.053225106075235978 0 -0.00089764330003585038 0.053690482954553101 0 -0.00058146199221856102 0.053106120008359417 0 -0.00099215240563224269 0.052183194196083638 0 -0.00032834265369316136 0.053734958484196536 0 -0.0005746593340824692 0.05222086685614994 0 -0.00058146199221856102 0.053106120008359417 0 -0.00068557902508474631 0.052424250671039209 0 -0.00099215240563224269 0.052183194196083638 0 -0.00068557902508474631 0.052424250671039209 0 -0.0005589870317457969 0.052086130632247825 0 -0.00042944427696311679 0.052105216266235675 0 6.5834542970545106e-05 0.05462755307884417 0 5.4036895107226454e-05 0.054619242309724279 0 5.9741821886970404e-05 0.054626801555316691 0 5.4036895107226454e-05 0.054619242309724279 0 5.9741821886970404e-05 0.054626801555316691 0 5.5392734946906685e-05 0.054629305569147558 0 5.9741821886970404e-05 0.054626801555316691 0 6.3789049418970091e-05 0.054631283782974535 0 5.5392734946906685e-05 0.054629305569147558 0 6.5834542970545106e-05 0.05462755307884417 0 5.9741821886970404e-05 0.054626801555316691 0 6.3789049418970091e-05 0.054631283782974535 0 -0.0005746593340824692 0.05222086685614994 0 -0.0011486487706245847 0.047428506039333303 0 6.3789049418970091e-05 0.054631283782974535 0 5.5392734946906685e-05 0.054629305569147558 0 6.4936581267403937e-05 0.054635380212584399 0 5.5392734946906685e-05 0.054629305569147558 0 6.4936581267403937e-05 0.054635380212584399 0 5.4957607321057311e-05 0.054633755898879505 0 -0.00099215240563224269 0.052183194196083638 0 -0.00076297091112481467 0.051781670491718279 0 -0.0010061371304640662 0.051458105754256661 0 -0.0005589870317457969 0.052086130632247825 0 -0.00059750652286689684 0.051934624227824057 0 -0.00044796186007517691 0.051936252875865889 0 -0.00068557902508474631 0.052424250671039209 0 -0.0005589870317457969 0.052086130632247825 0 -0.00071310539321002683 0.052082565345989526 0 -0.0005589870317457969 0.052086130632247825 0 -0.00071310539321002683 0.052082565345989526 0 -0.00059750652286689684 0.051934624227824057 0 -0.00099215240563224269 0.052183194196083638 0 -0.00071310539321002683 0.052082565345989526 0 -0.00076297091112481467 0.051781670491718279 0 -0.00068557902508474631 0.052424250671039209 0 -0.00099215240563224269 0.052183194196083638 0 -0.00071310539321002683 0.052082565345989526 0 -0.00059750652286689684 0.051934624227824057 0 -0.00045609316585048826 0.051745571088364473 0 -0.00044796186007517691 0.051936252875865889 0 -0.00076297091112481467 0.051781670491718279 0 -0.00059750652286689684 0.051934624227824057 0 -0.00045609316585048826 0.051745571088364473 0 -0.00071310539321002683 0.052082565345989526 0 -0.00076297091112481467 0.051781670491718279 0 -0.00059750652286689684 0.051934624227824057 0 -0.001342686827808354 0.045426730109306465 0 -0.00085245490318256703 0.0461812606236051 0 -0.00076297091112481467 0.051781670491718279 0 -0.00066655128847893273 0.051485315075936254 0 -0.00045609316585048826 0.051745571088364473 0 -0.00076297091112481467 0.051781670491718279 0 -0.00066655128847893273 0.051485315075936254 0 -0.0010061371304640662 0.051458105754256661 0 -0.001342686827808354 0.045426730109306465 0 -0.0018068460047969419 0.041980001435462426 0 -0.001342686827808354 0.045426730109306465 0 -0.0011486487706245847 0.047428506039333303 0 -0.0011450448578364568 0.044450177514192474 0 0.0002073160281060704 0.044469411918758903 0 0.00032838754086562591 0.0459247211201372 0 -0.0011486487706245847 0.047428506039333303 0 -0.00018791613104261423 0.05010831450977607 0 -0.00078187669493855845 0.050360014073612284 0 -0.00014612795510014591 0.050397572043183979 0 -0.00063766403688214038 0.050652683831530099 0 6.4936581267403937e-05 0.054635380212584399 0 5.4957607321057311e-05 0.054633755898879505 0 7.7185312471025576e-05 0.054645161121115386 0 -0.0011486487706245847 0.047428506039333303 0 -0.0018068460047969419 0.041980001435462426 0 7.4662032891392095e-05 0.0546357323784619 0 6.4936581267403937e-05 0.054635380212584399 0 7.7185312471025576e-05 0.054645161121115386 0 7.4662032891392095e-05 0.0546357323784619 0 6.3789049418970091e-05 0.054631283782974535 0 6.4936581267403937e-05 0.054635380212584399 0 9.5273849499375392e-05 0.054646660403097444 0 7.4662032891392095e-05 0.0546357323784619 0 9.136995657103992e-05 0.054644876328613992 0 7.4662032891392095e-05 0.0546357323784619 0 7.7185312471025576e-05 0.054645161121115386 0 9.136995657103992e-05 0.054644876328613992 0 0.00023221876340691889 0.051433972943530679 0 -0.00018791613104261423 0.05010831450977607 0 0.00045149995988830465 0.050450109476921579 0 -0.00014612795510014591 0.050397572043183979 0 0.00027562636437687818 0.05076059906738347 0 0.00010108472739000655 0.054647984149396325 0 7.7185312471025576e-05 0.054645161121115386 0 9.136995657103992e-05 0.054644876328613992 0 -0.00014612795510014591 0.050397572043183979 0 0.00027562636437687818 0.05076059906738347 0 -8.2918244889814341e-05 0.050849738394804229 0 0.00027562636437687818 0.05076059906738347 0 -8.2918244889814341e-05 0.050849738394804229 0 0.00020666404397347667 0.051051829219436642 0 -0.00014612795510014591 0.050397572043183979 0 -0.00032370399122024065 0.05072551289626779 0 -0.00063766403688214038 0.050652683831530099 0 -0.00014612795510014591 0.050397572043183979 0 -0.00032370399122024065 0.05072551289626779 0 -8.2918244889814341e-05 0.050849738394804229 0 -0.00032370399122024065 0.05072551289626779 0 -8.2918244889814341e-05 0.050849738394804229 0 -0.00042952898960818331 0.051001637645090234 0 -0.00042952898960818331 0.051001637645090234 0 -2.5802774048870774e-05 0.051133393991522495 0 -0.00012175125913819217 0.051299882702308564 0 -8.2918244889814341e-05 0.050849738394804229 0 -0.00042952898960818331 0.051001637645090234 0 -2.5802774048870774e-05 0.051133393991522495 0 -0.0012244069537414475 0.044277504837610483 0 -0.0010334894187025566 0.043680659682810999 0 -0.0030668604921777129 0.035906616890370675 0 -0.0038875660813783917 0.035043263675046191 0 -0.0031274878852551929 0.034876151187301439 0 -0.0014128565711955734 0.042954535385528438 0 -0.0010334894187025566 0.043680659682810999 0 -8.2918244889814341e-05 0.050849738394804229 0 0.00020666404397347667 0.051051829219436642 0 -2.5802774048870774e-05 0.051133393991522495 0 -2.5802774048870774e-05 0.051133393991522495 0 0.00013680426411659009 0.051336291095506824 0 -0.000127183751745454 0.051311593821602428 0 0.00020666404397347667 0.051051829219436642 0 -2.5802774048870774e-05 0.051133393991522495 0 0.00013680426411659009 0.051336291095506824 0 0.00035205091023270325 0.051274569250961251 0 0.00020666404397347667 0.051051829219436642 0 0.00013680426411659009 0.051336291095506824 0 0.00035205091023270325 0.051274569250961251 0 0.0001933617031258572 0.051612148757874614 0 0.00013680426411659009 0.051336291095506824 0 0.0001933617031258572 0.051612148757874614 0 7.2712776494751803e-05 0.051535751477862109 0 0.00010063412143636938 0.051703250018889424 0 0.0001933617031258572 0.051612148757874614 0 0.00013680426411659009 0.051336291095506824 0 -0.000127183751745454 0.051311593821602428 0 9.1951707380408211e-05 0.045454033896999875 0 -0.0010334894187025566 0.043680659682810999 0 -0.0038875660813783917 0.035043263675046191 0 -0.0031274878852551929 0.034876151187301439 0 -0.0031392195440268999 0.033726782724046875 0 -0.0010334894187025566 0.043680659682810999 0 -0.0012293318913133538 0.042868686331383965 0 7.2712776494751803e-05 0.051535751477862109 0 0.00010063412143636938 0.051703250018889424 0 5.5635648318932385e-05 0.051838598186989604 0 0.00010063412143636938 0.051703250018889424 0 5.5635648318932385e-05 0.051838598186989604 0 0.00010641864082613618 0.051817334186010519 0 0.0001192099929102324 0.051905515515278881 0 5.5635648318932385e-05 0.051838598186989604 0 0.00010641864082613618 0.051817334186010519 0 0.00026525147758875304 0.051904645321896793 0 0.00037311121453624421 0.051736703549852103 0 0.00010641864082613618 0.051817334186010519 0 0.00037311121453624421 0.051736703549852103 0 0.0001933617031258572 0.051612148757874614 0 0.00010641864082613618 0.051817334186010519 0 0.0001933617031258572 0.051612148757874614 0 0.00010063412143636938 0.051703250018889424 0 0.00010641864082613618 0.051817334186010519 0 -0.002447459242336387 0.033388499450666936 0 -0.0022306155309412407 0.033091883540140934 0 -0.0019224913625577442 0.033380976793399061 0 -0.002447459242336387 0.033388499450666936 0 -0.0022306155309412407 0.033091883540140934 0 -0.0024525633607274224 0.033190462778837422 0 -0.0023896133204960538 0.032958226683356316 0 -0.0022306155309412407 0.033091883540140934 0 -0.0024525633607274224 0.033190462778837422 0 -0.0025808186602113989 0.034245685465251301 0 -0.0024514866194285893 0.035554550285833424 0 -0.0023896133204960538 0.032958226683356316 0 -0.0024525633607274224 0.033190462778837422 0 -0.0027062543743702778 0.03323116289695234 0 -0.0012920973545120736 0.042088172224981679 0 -0.0012293318913133538 0.042868686331383965 0 -0.002447459242336387 0.033388499450666936 0 -0.0024525633607274224 0.033190462778837422 0 -0.0027062543743702778 0.03323116289695234 0 -0.0026025272683590549 0.032786934602027369 0 -0.0031392195440268999 0.033726782724046875 0 -0.0027062543743702778 0.03323116289695234 0 -0.002447459242336387 0.033388499450666936 0 -0.0027062543743702778 0.03323116289695234 0 -0.0025801412749007083 0.033637032004863732 0 -0.0031392195440268999 0.033726782724046875 0 -0.0027062543743702778 0.03323116289695234 0 -0.0024124432408569262 0.03487434408024543 0 -0.0031274878852551929 0.034876151187301439 0 -0.0031392195440268999 0.033726782724046875 0 -0.0024124432408569262 0.03487434408024543 0 -0.002447459242336387 0.033388499450666936 0 -0.0022740011086769423 0.033663875203497867 0 -0.0019224913625577442 0.033380976793399061 0 -0.002447459242336387 0.033388499450666936 0 -0.0025801412749007083 0.033637032004863732 0 -0.0022740011086769423 0.033663875203497867 0 -0.0022740011086769423 0.033663875203497867 0 -0.0023562063818115824 0.033960478305433049 0 -0.0020560038291564746 0.034047078753112255 0 -0.0025801412749007083 0.033637032004863732 0 -0.0022740011086769423 0.033663875203497867 0 -0.0023562063818115824 0.033960478305433049 0 -0.0025801412749007083 0.033637032004863732 0 -0.0023562063818115824 0.033960478305433049 0 -0.0025324822733413725 0.034186418925451878 0 -0.0024514866194285893 0.035554550285833424 0 -0.0018068460047969419 0.041980001435462426 0 -0.0030668604921777129 0.035906616890370675 0 -0.0024124432408569262 0.03487434408024543 0 -0.0021738078666412039 0.036822757910804894 0 -0.0030668604921777129 0.035906616890370675 0 -0.0031274878852551929 0.034876151187301439 0 -0.0024124432408569262 0.03487434408024543 0 -0.00042952898960818331 0.051001637645090234 0 -0.00075247821925433496 0.050680971014499872 0 -0.00063766403688214038 0.050652683831530099 0 -0.0014128565711955734 0.042954535385528438 0 -0.0018068460047969419 0.041980001435462426 0 -0.00032370399122024065 0.05072551289626779 0 -0.00042952898960818331 0.051001637645090234 0 -0.00063766403688214038 0.050652683831530099 0 -0.00078187669493855845 0.050360014073612284 0 -0.00075614032913592856 0.050682329059218163 0 -0.00063766403688214038 0.050652683831530099 0 -0.0018068460047969419 0.041980001435462426 0 -0.0018283079879257153 0.042066767114593694 0 -0.0025268381775053056 0.034692658847480629 0 -0.002847532654796947 0.034373532169210914 0 -0.0022539169929268119 0.034177721030305072 0 -0.0023562063818115824 0.033960478305433049 0 -0.0025324822733413725 0.034186418925451878 0 -0.0020560038291564746 0.034047078753112255 0 -0.0018068460047969419 0.041980001435462426 0 -0.001358907863317636 0.037902767494025859 0 -0.0020560038291564746 0.034047078753112255 0 -0.0015429373423841495 0.033887493646804254 0 -0.0019224913625577442 0.033380976793399061 0 -0.0022740011086769423 0.033663875203497867 0 -0.0020560038291564746 0.034047078753112255 0 -0.0019224913625577442 0.033380976793399061 0 -0.0022539169929268119 0.034177721030305072 0 -0.0016409536740366712 0.033962120414810212 0 -0.0018536740926971837 0.034687513038333714 0 -0.0016409536740366712 0.033962120414810212 0 -0.0013622870830575457 0.034313019718430322 0 -0.0018536740926971837 0.034687513038333714 0 -0.001358907863317636 0.037902767494025859 0 -0.0011106000124605708 0.036080699910219741 0 -0.0015429373423841495 0.033887493646804254 0 -0.0019224913625577442 0.033380976793399061 0 -0.0013501105340153767 0.03349499695316354 0 -0.0019224913625577442 0.033380976793399061 0 -0.0015417470765827824 0.033173996646537682 0 -0.0013501105340153767 0.03349499695316354 0 -0.0016039855772218188 0.032674741970135535 0 -0.0019224913625577442 0.033380976793399061 0 -0.0015417470765827824 0.033173996646537682 0 -0.0015295738362599797 0.032740306636458966 0 -0.0017064608664843274 0.033036505626390156 0 -0.0019524036074042724 0.032948084555434298 0 -0.0015653881203232366 0.032918596440624448 0 -0.0019224913625577442 0.033380976793399061 0 -0.0019524036074042724 0.032948084555434298 0 -0.0022306155309412407 0.033091883540140934 0 -0.0019224913625577442 0.033380976793399061 0 -0.0010043733722045116 0.032747110412251576 0 -0.0011810364793766182 0.033111615251991154 0 -0.00069994943182084682 0.033042550550949332 0 -0.0011810364793766182 0.033111615251991154 0 -0.00095505782496937671 0.033357716762774853 0 -0.00069994943182084682 0.033042550550949332 0 -0.00066743980168499522 0.032630130167293089 0 -0.0010043733722045116 0.032747110412251576 0 -0.00069994943182084682 0.033042550550949332 0 -0.0016039855772218188 0.032674741970135535 0 -0.0015417470765827824 0.033173996646537682 0 -0.0011810364793766182 0.033111615251991154 0 -0.0010043733722045116 0.032747110412251576 0 -0.0016039855772218188 0.032674741970135535 0 -0.0011810364793766182 0.033111615251991154 0 -0.0011810364793766182 0.033111615251991154 0 -0.0013501105340153767 0.03349499695316354 0 -0.00095505782496937671 0.033357716762774853 0 -0.0015417470765827824 0.033173996646537682 0 -0.0011810364793766182 0.033111615251991154 0 -0.0013501105340153767 0.03349499695316354 0 -0.00095505782496937671 0.033357716762774853 0 -0.00066577981998692929 0.033448251447854987 0 -0.00069994943182084682 0.033042550550949332 0 -0.0013501105340153767 0.03349499695316354 0 -0.00095505782496937671 0.033357716762774853 0 -0.00099184057473459641 0.0337218482175035 0 -0.00095505782496937671 0.033357716762774853 0 -0.00099184057473459641 0.0337218482175035 0 -0.00066577981998692929 0.033448251447854987 0 -0.00099184057473459641 0.0337218482175035 0 -0.00094943799273227325 0.034139804632899916 0 -0.00054869460818147465 0.033911702410274462 0 -0.00099184057473459641 0.0337218482175035 0 -0.0011753604363248951 0.034086243411159123 0 -0.00094943799273227325 0.034139804632899916 0 -0.0011106000124605708 0.036080699910219741 0 -0.00092120176370504264 0.035530261682888524 0 -0.0015429373423841495 0.033887493646804254 0 -0.0013501105340153767 0.03349499695316354 0 -0.00099184057473459641 0.0337218482175035 0 -0.0016409536740366712 0.033962120414810212 0 -0.00099184057473459641 0.0337218482175035 0 -0.0011753604363248951 0.034086243411159123 0 -0.0016409536740366712 0.033962120414810212 0 -0.0011753604363248951 0.034086243411159123 0 -0.0013622870830575457 0.034313019718430322 0 -0.0011753604363248951 0.034086243411159123 0 -0.0013622870830575457 0.034313019718430322 0 -0.0011286431866684755 0.034363699970898255 0 -0.0013622870830575457 0.034313019718430322 0 -0.0011286431866684755 0.034363699970898255 0 -0.0011414490246111461 0.034687961896582846 0 -0.00094943799273227325 0.034139804632899916 0 -0.0010247008659779666 0.03461455436285691 0 -0.00054869460818147465 0.033911702410274462 0 -0.00057966735572658888 0.038153307633831277 0 -0.00011196985715700673 0.035872153347723292 0 -0.00094943799273227325 0.034139804632899916 0 -0.0011286431866684755 0.034363699970898255 0 -0.0010247008659779666 0.03461455436285691 0 -0.00057966735572658888 0.038153307633831277 0 7.826618523085546e-05 0.034689746304162827 0 -0.0011753604363248951 0.034086243411159123 0 -0.00094943799273227325 0.034139804632899916 0 -0.0011286431866684755 0.034363699970898255 0 -0.0010942522762755491 0.039817929044643402 0 -0.00056731321918762222 0.041264860373790901 0 -0.00012387414525199915 0.051713432640817472 0 -0.0001226786856797157 0.051726903404423978 0 -0.00012635319315634799 0.051677065776666684 0 -0.001458086495636999 0.034114724632502015 0 -0.0015595704422193698 0.034184885308996882 0 -0.00093816289888029071 0.034171107402758548 0 -0.0011286431866684755 0.034363699970898255 0 -0.0010247008659779666 0.03461455436285691 0 -0.0011414490246111461 0.034687961896582846 0 -0.00057966735572658888 0.038153307633831277 0 -0.0010942522762755491 0.039817929044643402 0 -0.00012387414525199915 0.051713432640817472 0 -0.0001226786856797157 0.051726903404423978 0 -0.00012230847628226312 0.051715778538751832 0 -0.0001226786856797157 0.051726903404423978 0 -0.0001337664945403072 0.05177176467307406 0 -0.00012171377622050225 0.051736579953109957 0 -0.0001226786856797157 0.051726903404423978 0 -0.00012171377622050225 0.051736579953109957 0 -0.00012635319315634799 0.051677065776666684 0 -0.0001337664945403072 0.05177176467307406 0 -0.00017561067600486044 0.051823749030801981 0 -0.00014512926353808054 0.051823050077134704 0 -0.0001226786856797157 0.051726903404423978 0 -0.0001337664945403072 0.05177176467307406 0 -0.0001302663235822062 0.051743913326617402 0 -0.0001337664945403072 0.05177176467307406 0 -0.0001302663235822062 0.051743913326617402 0 -0.00014906797406518448 0.051763258887308157 0 -0.0001337664945403072 0.05177176467307406 0 -0.00014906797406518448 0.051763258887308157 0 -0.00017561067600486044 0.051823749030801981 0 -0.00014906797406518448 0.051763258887308157 0 -0.00018843417502955895 0.05176263031831535 0 -0.00017561067600486044 0.051823749030801981 0 -0.0010942522762755491 0.039817929044643402 0 -0.001114387728183256 0.042760036724374485 0 -0.00010083625991974153 0.051700461605158454 0 -0.00012230847628226312 0.051715778538751832 0 -0.00023465286510761485 0.051682373241089874 0 -0.00014906797406518448 0.051763258887308157 0 -0.00012230847628226312 0.051715778538751832 0 -0.00018843417502955895 0.05176263031831535 0 -0.0013622870830575457 0.034313019718430322 0 -0.0011414490246111461 0.034687961896582846 0 -0.0018536740926971837 0.034687513038333714 0 -0.0001226786856797157 0.051726903404423978 0 -0.0001302663235822062 0.051743913326617402 0 -0.00012230847628226312 0.051715778538751832 0 -0.0001302663235822062 0.051743913326617402 0 -0.00014906797406518448 0.051763258887308157 0 -0.00012230847628226312 0.051715778538751832 0 -0.0010942522762755491 0.039817929044643402 0 -0.001226746937697731 0.040032692542138371 0 -0.00012230847628226312 0.051715778538751832 0 -0.00023465286510761485 0.051682373241089874 0 -0.00018843417502955895 0.05176263031831535 0 -0.00023465286510761485 0.051682373241089874 0 -0.00028565816600856512 0.051858836571937524 0 -0.00018843417502955895 0.05176263031831535 0 -0.001342686827808354 0.045426730109306465 0 -0.001114387728183256 0.042760036724374485 0 -0.00054938272585778399 0.051640796305604392 0 -0.00023465286510761485 0.051682373241089874 0 -0.00045609316585048826 0.051745571088364473 0 -0.00023465286510761485 0.051682373241089874 0 -0.00045609316585048826 0.051745571088364473 0 -0.00028565816600856512 0.051858836571937524 0 -0.0025268381775053056 0.034692658847480629 0 -0.0022539169929268119 0.034177721030305072 0 -0.0018536740926971837 0.034687513038333714 0 -0.00028565816600856512 0.051858836571937524 0 -0.00020904675190617144 0.0519188294274072 0 -0.00042944427696311679 0.052105216266235675 0 -0.00045609316585048826 0.051745571088364473 0 -0.00028565816600856512 0.051858836571937524 0 -0.00044796186007517691 0.051936252875865889 0 -0.00028565816600856512 0.051858836571937524 0 -0.00044796186007517691 0.051936252875865889 0 -0.00042944427696311679 0.052105216266235675 0 -0.0005589870317457969 0.052086130632247825 0 -0.00044796186007517691 0.051936252875865889 0 -0.00042944427696311679 0.052105216266235675 0 -0.00028565816600856512 0.051858836571937524 0 -0.00018843417502955895 0.05176263031831535 0 -0.00017561067600486044 0.051823749030801981 0 -0.00028565816600856512 0.051858836571937524 0 -0.00017561067600486044 0.051823749030801981 0 -0.00020904675190617144 0.0519188294274072 0 -6.3650270503824461e-05 0.052106001634169813 0 0.00034913479965723092 0.051844163907952087 0 -0.00017561067600486044 0.051823749030801981 0 -0.00020904675190617144 0.0519188294274072 0 -0.00014512926353808054 0.051823050077134704 0 -0.00020904675190617144 0.0519188294274072 0 -0.00026927422978633141 0.052022106979772928 0 -0.00013786542281739826 0.051831277003341114 0 -0.00020904675190617144 0.0519188294274072 0 -0.00026927422978633141 0.052022106979772928 0 -0.00042944427696311679 0.052105216266235675 0 -0.00038490041253087066 0.05212286252114047 0 -6.3650270503824461e-05 0.052106001634169813 0 -0.0001277819895875452 0.053565670576810172 0 -0.00058146199221856102 0.053106120008359417 0 0.00037456593012767853 0.053225106075235978 0 -0.00068557902508474631 0.052424250671039209 0 -0.00026927422978633141 0.052022106979772928 0 -0.00042944427696311679 0.052105216266235675 0 -0.0001277819895875452 0.053565670576810172 0 0.00035919361525150111 0.053790039028080362 0 2.0728932209281721e-05 0.053968460057698314 0 -0.0001277819895875452 0.053565670576810172 0 0.00037456593012767853 0.053225106075235978 0 0.00035919361525150111 0.053790039028080362 0 0.00037456593012767853 0.053225106075235978 0 0.00035919361525150111 0.053790039028080362 0 0.0007382474325018717 0.053536906652879621 0 0.00035919361525150111 0.053790039028080362 0 0.0007382474325018717 0.053536906652879621 0 0.00062176566738992775 0.053910538751576795 0 0.00034913479965723092 0.051844163907952087 0 0.0006214207652914883 0.051067921499140953 0 0.0007382474325018717 0.053536906652879621 0 0.00094069288027695845 0.053924621352909569 0 0.001048292275052299 0.053697230590838411 0 -0.00013786542281739826 0.051831277003341114 0 -0.00012171377622050225 0.051736579953109957 0 -0.00012210746593134092 0.051710376021548821 0 -0.0001337664945403072 0.05177176467307406 0 -0.00012171377622050225 0.051736579953109957 0 -0.00014512926353808054 0.051823050077134704 0 -0.00013786542281739826 0.051831277003341114 0 -0.00012171377622050225 0.051736579953109957 0 -0.00014512926353808054 0.051823050077134704 0 -0.00020904675190617144 0.0519188294274072 0 -0.00013786542281739826 0.051831277003341114 0 -0.00014512926353808054 0.051823050077134704 0 0.00077299743393614351 0.054097253441856459 0 0.00056032045827964167 0.054219594323038418 0 0.00062176566738992775 0.053910538751576795 0 0.00077299743393614351 0.054097253441856459 0 0.00056032045827964167 0.054219594323038418 0 0.00075829815526276849 0.054313004624133757 0 0.00077299743393614351 0.054097253441856459 0 0.00094023045060781204 0.054170089416932993 0 0.00094069288027695845 0.053924621352909569 0 0.00077299743393614351 0.054097253441856459 0 0.00094023045060781204 0.054170089416932993 0 0.00075829815526276849 0.054313004624133757 0 0.00094023045060781204 0.054170089416932993 0 0.00094069288027695845 0.053924621352909569 0 0.0011026087142789428 0.054084344855644478 0 0.0007382474325018717 0.053536906652879621 0 0.00094069288027695845 0.053924621352909569 0 0.00062176566738992775 0.053910538751576795 0 0.00077299743393614351 0.054097253441856459 0 0.00094069288027695845 0.053924621352909569 0 0.00062176566738992775 0.053910538751576795 0 0.00035919361525150111 0.053790039028080362 0 0.00017587841548840017 0.05408033041205354 0 0.00037351309313876695 0.054103977829855182 0 0.00035919361525150111 0.053790039028080362 0 0.00062176566738992775 0.053910538751576795 0 0.00037351309313876695 0.054103977829855182 0 0.00035919361525150111 0.053790039028080362 0 2.0728932209281721e-05 0.053968460057698314 0 0.00017587841548840017 0.05408033041205354 0 2.0728932209281721e-05 0.053968460057698314 0 0.00017587841548840017 0.05408033041205354 0 -1.1965826917496745e-05 0.054213204003525466 0 0.00017587841548840017 0.05408033041205354 0 -1.1965826917496745e-05 0.054213204003525466 0 0.00017099874144278968 0.054268389409440676 0 0.00017587841548840017 0.05408033041205354 0 0.00017099874144278968 0.054268389409440676 0 0.00037351309313876695 0.054103977829855182 0 0.00017099874144278968 0.054268389409440676 0 0.00033500717121995457 0.054339089189214394 0 0.0001629116363625208 0.054438380220439633 0 -1.1965826917496745e-05 0.054213204003525466 0 0.00017099874144278968 0.054268389409440676 0 1.9431099845249846e-05 0.054411328013997048 0 0.00056032045827964167 0.054219594323038418 0 0.00062176566738992775 0.053910538751576795 0 0.00037351309313876695 0.054103977829855182 0 0.00017099874144278968 0.054268389409440676 0 0.00037351309313876695 0.054103977829855182 0 0.00033500717121995457 0.054339089189214394 0 0.00056032045827964167 0.054219594323038418 0 0.00037351309313876695 0.054103977829855182 0 0.00033500717121995457 0.054339089189214394 0 0.00056032045827964167 0.054219594323038418 0 0.00033500717121995457 0.054339089189214394 0 0.00050661472171382625 0.054453743302797578 0 0.00033500717121995457 0.054339089189214394 0 0.00050661472171382625 0.054453743302797578 0 0.0002446181113941078 0.054557538345606615 0 0.00033500717121995457 0.054339089189214394 0 0.0002446181113941078 0.054557538345606615 0 0.0001629116363625208 0.054438380220439633 0 0.00050661472171382625 0.054453743302797578 0 0.0002446181113941078 0.054557538345606615 0 0.0002982813577692229 0.054760076994239008 0 1.9431099845249846e-05 0.054411328013997048 0 6.4477733917928207e-05 0.05461527165384357 0 -5.3215017787743851e-05 0.054697240357586364 0 1.9431099845249846e-05 0.054411328013997048 0 0.0001629116363625208 0.054438380220439633 0 6.4477733917928207e-05 0.05461527165384357 0 0.00017099874144278968 0.054268389409440676 0 1.9431099845249846e-05 0.054411328013997048 0 0.0001629116363625208 0.054438380220439633 0 0.0002446181113941078 0.054557538345606615 0 0.0001629116363625208 0.054438380220439633 0 6.4477733917928207e-05 0.05461527165384357 0 -1.4676044015427333e-05 0.054493863707557121 0 2.0937062582279141e-05 0.054523415191557227 0 6.4477733917928207e-05 0.05461527165384357 0 5.9137036292285169e-05 0.054805726062254652 0 -5.3215017787743851e-05 0.054697240357586364 0 5.9137036292285169e-05 0.054805726062254652 0 6.1892643056504188e-05 0.054738910226113859 0 -5.3215017787743851e-05 0.054697240357586364 0 0.0002446181113941078 0.054557538345606615 0 6.4477733917928207e-05 0.05461527165384357 0 5.9137036292285169e-05 0.054805726062254652 0 -0.00014832671511869761 0.054974540406988646 0 -0.00065308145803234948 0.055029648605185159 0 -0.00032674594548453493 0.054672423866029336 0 0.0002446181113941078 0.054557538345606615 0 5.9137036292285169e-05 0.054805726062254652 0 0.0002982813577692229 0.054760076994239008 0 -0.00058240296615580498 0.050595156557292076 0 -0.00055487579792571121 0.050447775984091961 0 5.9137036292285169e-05 0.054805726062254652 0 -0.00014832671511869761 0.054974540406988646 0 -0.00011655342340393105 0.05477205554560953 0 0.00050661472171382625 0.054453743302797578 0 0.0002982813577692229 0.054760076994239008 0 0.00077120873023908167 0.054575149948030963 0 -0.00055487579792571121 0.050447775984091961 0 -0.00089625099873968082 0.050137793769884934 0 -0.00055487579792571121 0.050447775984091961 0 -0.00056901719662435265 0.050014250449314464 0 -0.00046440882638720013 0.048244944434523721 0 -0.0010475849108851389 0.048144141775607711 0 -0.0011433121197871492 0.04840559451115356 0 0.00050661472171382625 0.054453743302797578 0 0.00077120873023908167 0.054575149948030963 0 0.00075829815526276849 0.054313004624133757 0 0.00056032045827964167 0.054219594323038418 0 0.00050661472171382625 0.054453743302797578 0 0.00075829815526276849 0.054313004624133757 0 0.00077120873023908167 0.054575149948030963 0 0.00096589806170697533 0.054379044751210838 0 0.0011797546094423745 0.054395191774723906 0 -0.00056901719662435265 0.050014250449314464 0 -0.0007714824420866598 0.048685980030795786 0 0.00094023045060781204 0.054170089416932993 0 0.00096589806170697533 0.054379044751210838 0 0.0010771170537576828 0.054226157176211681 0 0.00094023045060781204 0.054170089416932993 0 0.00075829815526276849 0.054313004624133757 0 0.00096589806170697533 0.054379044751210838 0 0.00077120873023908167 0.054575149948030963 0 0.00075829815526276849 0.054313004624133757 0 0.00096589806170697533 0.054379044751210838 0 -0.0011433121197871492 0.04840559451115356 0 -0.0016340173591014376 0.048043348260781923 0 -0.0018257683382795181 0.048567037549374539 0 -0.0010475849108851389 0.048144141775607711 0 -0.0011433121197871492 0.04840559451115356 0 -0.0016340173591014376 0.048043348260781923 0 -0.00089625099873968082 0.050137793769884934 0 -0.0016191123396249528 0.049173910244715693 0 -0.00065308145803234948 0.055029648605185159 0 -0.00075349591498495062 0.054582376090932493 0 -0.0011907504376816888 0.055043901502493983 0 -0.00075349591498495062 0.054582376090932493 0 -0.0011907504376816888 0.055043901502493983 0 -0.0013131508984992747 0.054654069016606806 0 -0.00065308145803234948 0.055029648605185159 0 -0.00075349591498495062 0.054582376090932493 0 -0.00032674594548453493 0.054672423866029336 0 -0.00075349591498495062 0.054582376090932493 0 -0.00020280828714045932 0.054271957687965978 0 -0.00032674594548453493 0.054672423866029336 0 -0.00075349591498495062 0.054582376090932493 0 -0.00064356513898086352 0.05407202450251717 0 -0.00020280828714045932 0.054271957687965978 0 -0.00075349591498495062 0.054582376090932493 0 -0.0010754936177308366 0.054264969296857687 0 -0.00064356513898086352 0.05407202450251717 0 -0.00075349591498495062 0.054582376090932493 0 -0.0010754936177308366 0.054264969296857687 0 -0.0013131508984992747 0.054654069016606806 0 -0.0010754936177308366 0.054264969296857687 0 -0.00064356513898086352 0.05407202450251717 0 -0.0010237916538092531 0.053812457666970875 0 -0.00064356513898086352 0.05407202450251717 0 -0.00023399726315603134 0.053923020865467672 0 -0.00063215660283937871 0.053622841013999688 0 -0.00064356513898086352 0.05407202450251717 0 -0.0010237916538092531 0.053812457666970875 0 -0.00063215660283937871 0.053622841013999688 0 -0.0010237916538092531 0.053812457666970875 0 -0.0010028581119291384 0.053474394547419292 0 -0.00063215660283937871 0.053622841013999688 0 7.7834849982642512e-05 0.053809779937300427 0 -0.00023399726315603134 0.053923020865467672 0 -0.00022089605193010875 0.053475466318382368 0 -0.00023399726315603134 0.053923020865467672 0 -0.00022089605193010875 0.053475466318382368 0 -0.00063215660283937871 0.053622841013999688 0 -0.00064356513898086352 0.05407202450251717 0 -0.00023399726315603134 0.053923020865467672 0 -0.00020280828714045932 0.054271957687965978 0 7.7834849982642512e-05 0.053809779937300427 0 -0.00023399726315603134 0.053923020865467672 0 9.60235800945477e-05 0.054252241271426076 0 -0.00023399726315603134 0.053923020865467672 0 -0.00020280828714045932 0.054271957687965978 0 9.60235800945477e-05 0.054252241271426076 0 -7.1955994404691821e-05 0.054411867925253037 0 -1.4676044015427333e-05 0.054493863707557121 0 -0.00020280828714045932 0.054271957687965978 0 1.0785081608768765e-05 0.054463123682545682 0 9.60235800945477e-05 0.054252241271426076 0 -0.00020280828714045932 0.054271957687965978 0 -0.00032674594548453493 0.054672423866029336 0 6.1892643056504188e-05 0.054738910226113859 0 -0.00032674594548453493 0.054672423866029336 0 -0.00011655342340393105 0.05477205554560953 0 6.1892643056504188e-05 0.054738910226113859 0 -0.00014832671511869761 0.054974540406988646 0 -0.00032674594548453493 0.054672423866029336 0 -0.00011655342340393105 0.05477205554560953 0 5.9137036292285169e-05 0.054805726062254652 0 -0.00011655342340393105 0.05477205554560953 0 6.1892643056504188e-05 0.054738910226113859 0 0.00016198858241067791 0.054482280610127137 0 0.00029118625829371354 0.054378963651520312 0 0.00015896146739463235 0.054550411219208478 0 1.0785081608768765e-05 0.054463123682545682 0 0.00016198858241067791 0.054482280610127137 0 9.60235800945477e-05 0.054252241271426076 0 6.0810189315151584e-05 0.054523814500290903 0 0.00014596970310732339 0.054556870248130954 0 0.00015896146739463235 0.054550411219208478 0 0.00016376793029045133 0.054317123180622394 0 0.00016471357502473199 0.054414849523360585 0 0.00016376793029045133 0.054317123180622394 0 0.0001552562541122358 0.05403756844611491 0 0.00029118625829371354 0.054378963651520312 0 9.60235800945477e-05 0.054252241271426076 0 0.00038515394150090708 0.053985934405263898 0 0.00016198858241067791 0.054482280610127137 0 0.00029118625829371354 0.054378963651520312 0 9.60235800945477e-05 0.054252241271426076 0 7.7834849982642512e-05 0.053809779937300427 0 9.60235800945477e-05 0.054252241271426076 0 0.00038515394150090708 0.053985934405263898 0 -4.15590402635516e-05 0.054248357848270264 0 0.00015605545899013238 0.054004817358282886 0 0.00019478764731966448 0.054400502676232712 0 6.0810189315151584e-05 0.054523814500290903 0 -4.15590402635516e-05 0.054248357848270264 0 0.00019478764731966448 0.054400502676232712 0 -4.15590402635516e-05 0.054248357848270264 0 0.00015605545899013238 0.054004817358282886 0 4.4590801135934805e-05 0.053789575348006019 0 0.0001552562541122358 0.05403756844611491 0 0.00013172768196213815 0.053651049069642381 0 -4.15590402635516e-05 0.054248357848270264 0 4.4590801135934805e-05 0.053789575348006019 0 -3.3005361123795187e-05 0.053748193677776376 0 0.00038515394150090708 0.053985934405263898 0 0.00025610404598276957 0.053709740934511092 0 0.00042181872328002937 0.053493905980530408 0 7.7834849982642512e-05 0.053809779937300427 0 0.00038515394150090708 0.053985934405263898 0 0.00025610404598276957 0.053709740934511092 0 7.7834849982642512e-05 0.053809779937300427 0 0.00025610404598276957 0.053709740934511092 0 0.0001364516509987259 0.053541506959976358 0 0.00035916492055603166 0.05436747981147802 0 0.00033877972900126689 0.054469986206164812 0 0.0003077371102842033 0.054014736444733973 0 0.00037309838201672049 0.054465605395368349 0 0.00069965221049341549 0.054052789761684414 0 0.0003077371102842033 0.054014736444733973 0 0.00055218836951345261 0.053856376821952379 0 0.00045102770297207774 0.053752325990363531 0 0.0003077371102842033 0.054014736444733973 0 0.00015605545899013238 0.054004817358282886 0 0.00027178324259401107 0.053801359550761381 0 0.0003077371102842033 0.054014736444733973 0 0.00015605545899013238 0.054004817358282886 0 0.00019478764731966448 0.054400502676232712 0 0.00019478764731966448 0.054400502676232712 0 0.00037309838201672049 0.054465605395368349 0 0.00026813193996957018 0.054531757272130228 0 0.0003077371102842033 0.054014736444733973 0 0.00019478764731966448 0.054400502676232712 0 0.00037309838201672049 0.054465605395368349 0 0.00019478764731966448 0.054400502676232712 0 0.00026813193996957018 0.054531757272130228 0 0.00018643022543408388 0.054544838555433045 0 6.0810189315151584e-05 0.054523814500290903 0 0.00019478764731966448 0.054400502676232712 0 0.00018643022543408388 0.054544838555433045 0 6.0810189315151584e-05 0.054523814500290903 0 0.00018643022543408388 0.054544838555433045 0 0.00014596970310732339 0.054556870248130954 0 0.00026813193996957018 0.054531757272130228 0 0.00018643022543408388 0.054544838555433045 0 0.00021090120285183404 0.054560832954831738 0 0.00018643022543408388 0.054544838555433045 0 0.00016026705522840238 0.054551841440861129 0 0.00021090120285183404 0.054560832954831738 0 0.00016026705522840238 0.054551841440861129 0 0.00013236892032042705 0.054528280016486054 0 0.00017103641468255425 0.054559366644051074 0 0.00016026705522840238 0.054551841440861129 0 0.00017103641468255425 0.054559366644051074 0 0.00021090120285183404 0.054560832954831738 0 0.00016026705522840238 0.054551841440861129 0 0.00013236892032042705 0.054528280016486054 0 0.00011741601615025147 0.054516510226926065 0 0.00013236892032042705 0.054528280016486054 0 0.00011741601615025147 0.054516510226926065 0 8.5759812683852183e-05 0.054464192081151157 0 0.00011741601615025147 0.054516510226926065 0 0.00014596970310732339 0.054556870248130954 0 0.00012999389330242616 0.054512157097021625 0 0.00011741601615025147 0.054516510226926065 0 0.00012999389330242616 0.054512157097021625 0 6.8614507210121645e-05 0.054435083903005187 0 0.00016026705522840238 0.054551841440861129 0 0.00011741601615025147 0.054516510226926065 0 0.00014596970310732339 0.054556870248130954 0 0.00018643022543408388 0.054544838555433045 0 0.00016026705522840238 0.054551841440861129 0 0.00014596970310732339 0.054556870248130954 0 0.00014596970310732339 0.054556870248130954 0 0.00015896146739463235 0.054550411219208478 0 0.00012999389330242616 0.054512157097021625 0 0.00016198858241067791 0.054482280610127137 0 0.00015896146739463235 0.054550411219208478 0 0.00015360776731814988 0.054553204431500656 0 1.0785081608768765e-05 0.054463123682545682 0 0.00016198858241067791 0.054482280610127137 0 0.00015360776731814988 0.054553204431500656 0 0.00015896146739463235 0.054550411219208478 0 0.00015360776731814988 0.054553204431500656 0 0.00017496465468529429 0.054478549768402419 0 1.9431099845249846e-05 0.054411328013997048 0 -5.3215017787743851e-05 0.054697240357586364 0 -0.00019276084517056089 0.054295858330698603 0 2.0937062582279141e-05 0.054523415191557227 0 7.1463488553018939e-06 0.054456472224641832 0 0.00015896146739463235 0.054550411219208478 0 0.00012999389330242616 0.054512157097021625 0 0.00017496465468529429 0.054478549768402419 0 0.00012999389330242616 0.054512157097021625 0 0.00017496465468529429 0.054478549768402419 0 6.8614507210121645e-05 0.054435083903005187 0 7.1463488553018939e-06 0.054456472224641832 0 -1.8367018674984249e-06 0.054416962373810128 0 -0.00019276084517056089 0.054295858330698603 0 -0.00014556680402520652 0.054204253840905561 0 5.560420021765681e-07 0.05427748806176183 0 0.00017496465468529429 0.054478549768402419 0 5.560420021765681e-07 0.05427748806176183 0 6.8614507210121645e-05 0.054435083903005187 0 -1.1965826917496745e-05 0.054213204003525466 0 1.9431099845249846e-05 0.054411328013997048 0 -0.00019276084517056089 0.054295858330698603 0 -1.1965826917496745e-05 0.054213204003525466 0 -0.00019276084517056089 0.054295858330698603 0 -0.00014556680402520652 0.054204253840905561 0 -1.1965826917496745e-05 0.054213204003525466 0 -9.6577319918947311e-05 0.054124883474938816 0 -0.00014556680402520652 0.054204253840905561 0 2.0728932209281721e-05 0.053968460057698314 0 -1.1965826917496745e-05 0.054213204003525466 0 -9.6577319918947311e-05 0.054124883474938816 0 -9.6577319918947311e-05 0.054124883474938816 0 -0.00014556680402520652 0.054204253840905561 0 -0.00020152310131314299 0.05413487871398176 0 -0.00015570951558067635 0.05388257596686287 0 -9.6577319918947311e-05 0.054124883474938816 0 -0.00020152310131314299 0.05413487871398176 0 -0.00015570951558067635 0.05388257596686287 0 2.0728932209281721e-05 0.053968460057698314 0 -9.6577319918947311e-05 0.054124883474938816 0 -0.00014556680402520652 0.054204253840905561 0 -0.00020152310131314299 0.05413487871398176 0 5.560420021765681e-07 0.05427748806176183 0 -0.0001589137870490019 0.054301951738009509 0 -0.00020152310131314299 0.05413487871398176 0 5.560420021765681e-07 0.05427748806176183 0 8.7374843604600476e-05 0.054469866179192271 0 3.6242506873393704e-05 0.054378601331200746 0 5.7180072026014084e-05 0.054388510234912764 0 5.560420021765681e-07 0.05427748806176183 0 5.7180072026014084e-05 0.054388510234912764 0 6.8614507210121645e-05 0.054435083903005187 0 3.6242506873393704e-05 0.054378601331200746 0 5.560420021765681e-07 0.05427748806176183 0 5.7180072026014084e-05 0.054388510234912764 0 8.7374843604600476e-05 0.054469866179192271 0 5.7180072026014084e-05 0.054388510234912764 0 8.5235409824379517e-05 0.054463357230215899 0 8.7374843604600476e-05 0.054469866179192271 0 8.5235409824379517e-05 0.054463357230215899 0 0.00010309671824111642 0.054513047173753562 0 8.5235409824379517e-05 0.054463357230215899 0 8.5759812683852183e-05 0.054464192081151157 0 0.00011365431722717926 0.054507948587095317 0 5.7180072026014084e-05 0.054388510234912764 0 8.5235409824379517e-05 0.054463357230215899 0 8.5759812683852183e-05 0.054464192081151157 0 0.00013236892032042705 0.054528280016486054 0 8.5759812683852183e-05 0.054464192081151157 0 0.00011365431722717926 0.054507948587095317 0 0.00011741601615025147 0.054516510226926065 0 8.5759812683852183e-05 0.054464192081151157 0 6.8614507210121645e-05 0.054435083903005187 0 5.7180072026014084e-05 0.054388510234912764 0 8.5759812683852183e-05 0.054464192081151157 0 6.8614507210121645e-05 0.054435083903005187 0 0.00013515272892143868 0.054536074575142007 0 0.00014916451224245009 0.054542101909213971 0 0.00014263721600026746 0.054569188072127704 0 0.00013515272892143868 0.054536074575142007 0 0.00011365431722717926 0.054507948587095317 0 0.00010309671824111642 0.054513047173753562 0 0.00013515272892143868 0.054536074575142007 0 0.00011365431722717926 0.054507948587095317 0 0.00015331687654595588 0.054556898132785095 0 8.5235409824379517e-05 0.054463357230215899 0 0.00011365431722717926 0.054507948587095317 0 0.00010309671824111642 0.054513047173753562 0 8.7374843604600476e-05 0.054469866179192271 0 0.00010309671824111642 0.054513047173753562 0 0.00012240297162343915 0.054584977248741409 0 0.00013515272892143868 0.054536074575142007 0 0.00010309671824111642 0.054513047173753562 0 0.00012240297162343915 0.054584977248741409 0 4.2488836465157376e-05 0.054252217031298934 0 7.7957393862259023e-05 0.054306195413959604 0 0.00013515272892143868 0.054536074575142007 0 0.00012240297162343915 0.054584977248741409 0 0.00014916451224245009 0.054542101909213971 0 0.00010311995579361332 0.054689771628649436 0 9.6296463786579631e-05 0.054700046292596907 0 0.00012930673320456177 0.054643362191167555 0 0.00012240297162343915 0.054584977248741409 0 0.00014916451224245009 0.054542101909213971 0 9.8861357158735639e-05 0.054727390299336459 0 9.6301798136397344e-05 0.054818247117341172 0 6.2563298311173863e-05 0.05476963654585823 0 9.8861357158735639e-05 0.054727390299336459 0 0.00012930673320456177 0.054643362191167555 0 9.6301798136397344e-05 0.054818247117341172 0 9.6301798136397344e-05 0.054818247117341172 0 3.5151977033211669e-05 0.054836030579115735 0 6.2563298311173863e-05 0.05476963654585823 0 3.5151977033211669e-05 0.054836030579115735 0 6.2563298311173863e-05 0.05476963654585823 0 2.5351510831207143e-05 0.054806541317025906 0 9.6296463786579631e-05 0.054700046292596907 0 7.0855115894715915e-05 0.05472964518190819 0 9.6301798136397344e-05 0.054818247117341172 0 3.5151977033211669e-05 0.054836030579115735 0 1.4428307913969661e-05 0.054874192427671775 0 0.00014916451224245009 0.054542101909213971 0 0.00014263721600026746 0.054569188072127704 0 8.4414234192539678e-05 0.054603748108038676 0 0.00014263721600026746 0.054569188072127704 0 8.4414234192539678e-05 0.054603748108038676 0 0.00014277387862134306 0.054626258615425506 0 8.4414234192539678e-05 0.054603748108038676 0 9.3916921925605857e-05 0.054712002282563427 0 0.00014277387862134306 0.054626258615425506 0 9.3916921925605857e-05 0.054712002282563427 0 0.00014277387862134306 0.054626258615425506 0 0.00014901471166880282 0.054668736183314533 0 0.00014277387862134306 0.054626258615425506 0 0.00018057162906460347 0.054595097815410186 0 0.00015331687654595588 0.054556898132785095 0 0.00014263721600026746 0.054569188072127704 0 0.00014277387862134306 0.054626258615425506 0 0.00015331687654595588 0.054556898132785095 0 0.00013515272892143868 0.054536074575142007 0 0.00014263721600026746 0.054569188072127704 0 0.00015331687654595588 0.054556898132785095 0 0.00013236892032042705 0.054528280016486054 0 0.00011365431722717926 0.054507948587095317 0 0.00015331687654595588 0.054556898132785095 0 0.00013236892032042705 0.054528280016486054 0 0.00015331687654595588 0.054556898132785095 0 0.00017103641468255425 0.054559366644051074 0 0.00018057162906460347 0.054595097815410186 0 0.00015331687654595588 0.054556898132785095 0 0.00017103641468255425 0.054559366644051074 0 0.00018057162906460347 0.054595097815410186 0 0.00017103641468255425 0.054559366644051074 0 0.00021090120285183404 0.054560832954831738 0 0.00026813193996957018 0.054531757272130228 0 0.00021090120285183404 0.054560832954831738 0 0.00023472485812703201 0.054579211832048516 0 0.00018057162906460347 0.054595097815410186 0 0.00021090120285183404 0.054560832954831738 0 0.00023472485812703201 0.054579211832048516 0 0.00018057162906460347 0.054595097815410186 0 0.00023472485812703201 0.054579211832048516 0 0.00014901471166880282 0.054668736183314533 0 0.00023472485812703201 0.054579211832048516 0 0.00019726531987247851 0.054657585391933404 0 0.00014901471166880282 0.054668736183314533 0 0.00037309838201672049 0.054465605395368349 0 0.00026813193996957018 0.054531757272130228 0 0.00023472485812703201 0.054579211832048516 0 0.00037309838201672049 0.054465605395368349 0 0.00023472485812703201 0.054579211832048516 0 0.00019726531987247851 0.054657585391933404 0 0.00037309838201672049 0.054465605395368349 0 0.00019726531987247851 0.054657585391933404 0 0.00027924343809318628 0.054745353968929579 0 0.00019726531987247851 0.054657585391933404 0 0.00027924343809318628 0.054745353968929579 0 0.00014644311850208687 0.054798101845446569 0 0.00033877972900126689 0.054469986206164812 0 0.00015782978925692835 0.0546929327525746 0 0.00036240066293755709 0.054451725203156408 0 0.00033877972900126689 0.054469986206164812 0 7.5472241240407315e-05 0.05486223723904541 0 0.00014644311850208687 0.054798101845446569 0 9.7088994113315934e-05 0.054774117955896089 0 7.7282134749381015e-05 0.054811347555571252 0 0.00015782978925692835 0.0546929327525746 0 0.00019726531987247851 0.054657585391933404 0 0.00014644311850208687 0.054798101845446569 0 9.7088994113315934e-05 0.054774117955896089 0 9.7088994113315934e-05 0.054774117955896089 0 0.00014901471166880282 0.054668736183314533 0 7.7252940160162881e-05 0.054761809280139483 0 0.00019726531987247851 0.054657585391933404 0 9.7088994113315934e-05 0.054774117955896089 0 0.00014901471166880282 0.054668736183314533 0 0.00014277387862134306 0.054626258615425506 0 0.00018057162906460347 0.054595097815410186 0 0.00014901471166880282 0.054668736183314533 0 9.3916921925605857e-05 0.054712002282563427 0 0.00014901471166880282 0.054668736183314533 0 7.7252940160162881e-05 0.054761809280139483 0 9.3916921925605857e-05 0.054712002282563427 0 7.7252940160162881e-05 0.054761809280139483 0 1.6021890154475424e-05 0.054821061052067029 0 4.1122043096744391e-05 0.054834869886569472 0 1.0782199685107938e-05 0.054908667766799049 0 1.6021890154475424e-05 0.054821061052067029 0 7.7252940160162881e-05 0.054761809280139483 0 4.1122043096744391e-05 0.054834869886569472 0 1.6021890154475424e-05 0.054821061052067029 0 4.1122043096744391e-05 0.054834869886569472 0 1.4256358237975565e-05 0.054915913414753437 0 1.0782199685107938e-05 0.054908667766799049 0 9.7088994113315934e-05 0.054774117955896089 0 7.7252940160162881e-05 0.054761809280139483 0 4.1122043096744391e-05 0.054834869886569472 0 7.5472241240407315e-05 0.05486223723904541 0 9.7088994113315934e-05 0.054774117955896089 0 3.9737807665426722e-05 0.054872644963997443 0 9.7088994113315934e-05 0.054774117955896089 0 4.1122043096744391e-05 0.054834869886569472 0 3.9737807665426722e-05 0.054872644963997443 0 4.1122043096744391e-05 0.054834869886569472 0 3.9737807665426722e-05 0.054872644963997443 0 1.4256358237975565e-05 0.054915913414753437 0 3.9737807665426722e-05 0.054872644963997443 0 1.678188083847592e-05 0.054930393336220629 0 1.4256358237975565e-05 0.054915913414753437 0 3.9737807665426722e-05 0.054872644963997443 0 2.7932050000065045e-05 0.054922195912577507 0 1.678188083847592e-05 0.054930393336220629 0 7.5472241240407315e-05 0.05486223723904541 0 3.9737807665426722e-05 0.054872644963997443 0 2.7932050000065045e-05 0.054922195912577507 0 7.7282134749381015e-05 0.054811347555571252 0 3.1553406098700499e-05 0.054873405219429572 0 -9.6341216529555547e-10 0.054999942193553988 0 2.7272103518491258e-06 0.054982912617842945 0 3.7088577399496373e-06 0.05496537888212287 0 2.7272103518491258e-06 0.054982912617842945 0 1.678188083847592e-05 0.054930393336220629 0 3.7088577399496373e-06 0.05496537888212287 0 2.7932050000065045e-05 0.054922195912577507 0 2.7272103518491258e-06 0.054982912617842945 0 1.678188083847592e-05 0.054930393336220629 0 3.1553406098700499e-05 0.054873405219429572 0 1.2417865002937401e-05 0.054894672232784339 0 4.1887235104843858e-05 0.054969814006367392 0 2.7272103518491258e-06 0.054982912617842945 0 2.1349567512570942e-05 0.054984136220205468 0 1.678188083847592e-05 0.054930393336220629 0 1.4256358237975565e-05 0.054915913414753437 0 3.7088577399496373e-06 0.05496537888212287 0 1.4256358237975565e-05 0.054915913414753437 0 3.7088577399496373e-06 0.05496537888212287 0 -1.4503902115660104e-09 0.054999903730313084 0 -9.6341216529555547e-10 0.054999942193553988 0 3.7088577399496373e-06 0.05496537888212287 0 -1.4503902115660104e-09 0.054999903730313084 0 1.4256358237975565e-05 0.054915913414753437 0 -1.4503902115660104e-09 0.054999903730313084 0 1.0782199685107938e-05 0.054908667766799049 0 -1.4503902115660104e-09 0.054999903730313084 0 1.0782199685107938e-05 0.054908667766799049 0 8.5631171201883202e-09 0.054999891808456748 0 1.0782199685107938e-05 0.054908667766799049 0 8.5631171201883202e-09 0.054999891808456748 0 7.7259142028055729e-06 0.054926649915199119 0 8.5631171201883202e-09 0.054999891808456748 0 7.7259142028055729e-06 0.054926649915199119 0 1.5458479595315335e-09 0.054999910052387739 0 7.7259142028055729e-06 0.054926649915199119 0 1.5458479595315335e-09 0.054999910052387739 0 3.5526021185797017e-06 0.054920280022366437 0 1.0782199685107938e-05 0.054908667766799049 0 7.7259142028055729e-06 0.054926649915199119 0 1.6021890154475424e-05 0.054821061052067029 0 1.6021890154475424e-05 0.054821061052067029 0 -8.8374118641125563e-08 0.054892118213810556 0 3.5526021185797017e-06 0.054920280022366437 0 1.4428307913969661e-05 0.054874192427671775 0 1.6021890154475424e-05 0.054821061052067029 0 -8.8374118641125563e-08 0.054892118213810556 0 8.4414234192539678e-05 0.054603748108038676 0 9.3916921925605857e-05 0.054712002282563427 0 1.6021890154475424e-05 0.054821061052067029 0 7.0855115894715915e-05 0.05472964518190819 0 5.2214360688232311e-05 0.054753558227840615 0 7.7259142028055729e-06 0.054926649915199119 0 1.6021890154475424e-05 0.054821061052067029 0 3.5526021185797017e-06 0.054920280022366437 0 -8.8374118641125563e-08 0.054892118213810556 0 -3.0948943614423641e-05 0.054906713240149611 0 3.5526021185797017e-06 0.054920280022366437 0 3.5151977033211669e-05 0.054836030579115735 0 1.4428307913969661e-05 0.054874192427671775 0 -8.8374118641125563e-08 0.054892118213810556 0 -1.0147516298029496e-05 0.054847323788337524 0 -8.8374118641125563e-08 0.054892118213810556 0 2.5351510831207143e-05 0.054806541317025906 0 3.5151977033211669e-05 0.054836030579115735 0 -8.8374118641125563e-08 0.054892118213810556 0 2.5351510831207143e-05 0.054806541317025906 0 -1.0147516298029496e-05 0.054847323788337524 0 -8.8374118641125563e-08 0.054892118213810556 0 -3.0948943614423641e-05 0.054906713240149611 0 -1.3540521653697495e-05 0.054961094011471943 0 -3.0948943614423641e-05 0.054906713240149611 0 -4.5818208464611369e-06 0.054954035797534044 0 -3.0948943614423641e-05 0.054906713240149611 0 -4.5818208464611369e-06 0.054954035797534044 0 3.5526021185797017e-06 0.054920280022366437 0 4.3947796675425651e-09 0.054999932507115774 0 -4.5818208464611369e-06 0.054954035797534044 0 1.5458479595315335e-09 0.054999910052387739 0 4.3947796675425651e-09 0.054999932507115774 0 -3.7543011383297943e-06 0.054978961074551448 0 -4.5818208464611369e-06 0.054954035797534044 0 -4.5818208464611369e-06 0.054954035797534044 0 1.5458479595315335e-09 0.054999910052387739 0 3.5526021185797017e-06 0.054920280022366437 0 -0.0046907105573981856 0.032694408167278935 0 -0.00485605116635181 0.032688015441874559 0 -0.0046914526126236328 0.032828712160163483 0 -0.00485605116635181 0.032688015441874559 0 -0.0046914526126236328 0.032828712160163483 0 -0.0049503085398757939 0.03283183381010292 0 -0.0046914526126236328 0.032828712160163483 0 -0.0049503085398757939 0.03283183381010292 0 -0.0047704996241120469 0.033090564993065612 0 -0.0046914526126236328 0.032828712160163483 0 -0.0045586260839337181 0.032745315301552308 0 -0.0045217712409772867 0.03293963536528402 0 -0.0045586260839337181 0.032745315301552308 0 -0.0045217712409772867 0.03293963536528402 0 -0.0044065154954812313 0.032773370268543822 0 -0.0045586260839337181 0.032745315301552308 0 -0.0044426875740296926 0.032621214104785481 0 -0.0044065154954812313 0.032773370268543822 0 -0.0046047628265492458 0.032655974722211427 0 -0.0045586260839337181 0.032745315301552308 0 -0.0044426875740296926 0.032621214104785481 0 -0.0046907105573981856 0.032694408167278935 0 -0.0046047628265492458 0.032655974722211427 0 -0.0045586260839337181 0.032745315301552308 0 -0.0046907105573981856 0.032694408167278935 0 -0.0046914526126236328 0.032828712160163483 0 -0.0045586260839337181 0.032745315301552308 0 -0.0044426875740296926 0.032621214104785481 0 -0.0047266163582930466 0.032563101008843416 0 -0.0042666527705378324 0.032568384015510224 0 -0.0039473203983250819 0.020678635070667594 0 -0.0062267156744305364 0.021334436428598957 0 -0.0016702283878565448 0.021545357011720851 0 -0.0046754335606530601 0.02849589969062704 0 -0.0036217431133494281 0.024033941209199911 0 -0.0046047628265492458 0.032655974722211427 0 -0.0044426875740296926 0.032621214104785481 0 -0.0047266163582930466 0.032563101008843416 0 -0.0039473203983250819 0.020678635070667594 0 -0.0026227395442796654 0.020135049032825328 0 -0.0035414049655983345 0.019556899616039937 0 -0.0039473203983250819 0.020678635070667594 0 -0.0047666986923761952 0.019323634939807394 0 -0.0035414049655983345 0.019556899616039937 0 -0.0039473203983250819 0.020678635070667594 0 -0.0051874369911827194 0.02074400413663641 0 -0.0062267156744305364 0.021334436428598957 0 -0.0039473203983250819 0.020678635070667594 0 -0.0051874369911827194 0.02074400413663641 0 -0.0047666986923761952 0.019323634939807394 0 -0.0051874369911827194 0.02074400413663641 0 -0.0055810336751406673 0.019958964239909397 0 -0.0047666986923761952 0.019323634939807394 0 -0.0051874369911827194 0.02074400413663641 0 -0.0055810336751406673 0.019958964239909397 0 -0.0058317893967185942 0.020715022833568013 0 -0.0063075221650589494 0.020714687326729542 0 -0.0062267156744305364 0.021334436428598957 0 -0.0090070832491268016 0.021264957913261533 0 -0.0055810336751406673 0.019958964239909397 0 -0.0063075221650589494 0.020714687326729542 0 -0.0058317893967185942 0.020715022833568013 0 -0.0051874369911827194 0.02074400413663641 0 -0.0058317893967185942 0.020715022833568013 0 -0.0062267156744305364 0.021334436428598957 0 -0.0063075221650589494 0.020714687326729542 0 -0.0058317893967185942 0.020715022833568013 0 -0.0062267156744305364 0.021334436428598957 0 -0.0046907105573981856 0.032694408167278935 0 -0.00485605116635181 0.032688015441874559 0 -0.0047266163582930466 0.032563101008843416 0 -0.0046907105573981856 0.032694408167278935 0 -0.0046047628265492458 0.032655974722211427 0 -0.0047266163582930466 0.032563101008843416 0 -0.0046754335606530601 0.02849589969062704 0 -0.0023497367489282461 0.034197187089096144 0 -0.00485605116635181 0.032688015441874559 0 -0.0047266163582930466 0.032563101008843416 0 -0.0052515346890036532 0.032496315288795215 0 -0.0023497367489282461 0.034197187089096144 0 -0.0012714141027492362 0.028751359994879343 0 -0.0063075221650589494 0.020714687326729542 0 -0.0090070832491268016 0.021264957913261533 0 -0.0073246708544304189 0.019577303189151855 0 0.0019449711621694942 0.034088266945398946 0 0.0016626175125162442 0.033783939118108355 0 0.001390910653243868 0.034096142424239743 0 -0.0023497367489282461 0.034197187089096144 0 4.4506344775626387e-05 0.038653787574171546 0 -0.0023497367489282461 0.034197187089096144 0 -0.0038746005003207746 0.039258669209813739 0 -0.0052515346890036532 0.032496315288795215 0 -0.0052090543705505289 0.033043820643251169 0 -0.0056357438533689965 0.032781380085470005 0 -0.0052515346890036532 0.032496315288795215 0 -0.0049503085398757939 0.03283183381010292 0 -0.0052090543705505289 0.033043820643251169 0 -0.00485605116635181 0.032688015441874559 0 -0.0052515346890036532 0.032496315288795215 0 -0.0049503085398757939 0.03283183381010292 0 -0.0049503085398757939 0.03283183381010292 0 -0.0052090543705505289 0.033043820643251169 0 -0.0047704996241120469 0.033090564993065612 0 -0.0052090543705505289 0.033043820643251169 0 -0.0049623208141619394 0.033354111988626679 0 -0.0047704996241120469 0.033090564993065612 0 -0.0052090543705505289 0.033043820643251169 0 -0.0051929330219036137 0.033517711522183288 0 -0.0055944173538424718 0.033243223287365196 0 -0.0052090543705505289 0.033043820643251169 0 -0.0056357438533689965 0.032781380085470005 0 -0.0055944173538424718 0.033243223287365196 0 -0.0051929330219036137 0.033517711522183288 0 -0.0055944173538424718 0.033243223287365196 0 -0.005839383634594659 0.033846060376310376 0 -0.0051929330219036137 0.033517711522183288 0 -0.0049623208141619394 0.033354111988626679 0 -0.0049376658960465555 0.033546512587082224 0 -0.0052090543705505289 0.033043820643251169 0 -0.0051929330219036137 0.033517711522183288 0 -0.0049623208141619394 0.033354111988626679 0 -0.0049623208141619394 0.033354111988626679 0 -0.0046894555760137128 0.033430257180396813 0 -0.0049376658960465555 0.033546512587082224 0 -0.0049623208141619394 0.033354111988626679 0 -0.0046894555760137128 0.033430257180396813 0 -0.0047704996241120469 0.033090564993065612 0 -0.0046914526126236328 0.032828712160163483 0 -0.0047704996241120469 0.033090564993065612 0 -0.0045217712409772867 0.03293963536528402 0 -0.0047704996241120469 0.033090564993065612 0 -0.0045217712409772867 0.03293963536528402 0 -0.0044702676162166645 0.033184640061888517 0 -0.0046894555760137128 0.033430257180396813 0 -0.0047704996241120469 0.033090564993065612 0 -0.0044702676162166645 0.033184640061888517 0 -0.0046894555760137128 0.033430257180396813 0 -0.0044702676162166645 0.033184640061888517 0 -0.0044265423421511177 0.033406295209948617 0 -0.0044702676162166645 0.033184640061888517 0 -0.004157671891795966 0.0332335382770882 0 -0.0044265423421511177 0.033406295209948617 0 -0.0039764213401523524 0.031063979942350405 0 -0.002890241753291813 0.031170554764672453 0 -0.0033161740401886708 0.03208393117116054 0 -0.0039764213401523524 0.031063979942350405 0 -0.002890241753291813 0.031170554764672453 0 -0.0036937493886232808 0.029811493095409945 0 -0.004157671891795966 0.0332335382770882 0 -0.004306692456105655 0.03295779202869821 0 -0.0040463419439280357 0.032848917550565335 0 -0.0037531316094275933 0.031210442022969777 0 -0.002799206902910409 0.027324321116182177 0 -0.0044702676162166645 0.033184640061888517 0 -0.004157671891795966 0.0332335382770882 0 -0.004306692456105655 0.03295779202869821 0 -0.0045217712409772867 0.03293963536528402 0 -0.0044702676162166645 0.033184640061888517 0 -0.004306692456105655 0.03295779202869821 0 -0.001979316132782738 0.019065520730250505 0 -0.0018626462012670867 0.01899684718527108 0 -0.0018518612728753319 0.03156226991064133 0 -0.002890241753291813 0.031170554764672453 0 -0.002513674228656314 0.029972020531839168 0 -0.0018518612728753319 0.03156226991064133 0 -0.002890241753291813 0.031170554764672453 0 -0.0025813282771448755 0.032059310810507009 0 -0.002890241753291813 0.031170554764672453 0 -0.002513674228656314 0.029972020531839168 0 -0.0039499698671240282 0.029407025302446394 0 -0.0023154238620607891 0.02929883425369776 0 -0.002799206902910409 0.027324321116182177 0 -0.0020475029399541164 0.0065337928329505055 0 -0.0012621614826920328 0.0079464597936086123 0 -0.0020578198064481398 0.0077167134090682828 0 -0.0012621614826920328 0.0079464597936086123 0 -0.0020578198064481398 0.0077167134090682828 0 -0.0018370541844754326 0.0085305124845291031 0 -0.0024257486957571196 0.0082737095710778471 0 -0.0020578198064481398 0.0077167134090682828 0 -0.0018370541844754326 0.0085305124845291031 0 -0.0012621614826920328 0.0079464597936086123 0 -0.0018370541844754326 0.0085305124845291031 0 -0.0013034183528982694 0.0088673862757465815 0 -0.002387785468103885 0.0088273555098186199 0 -0.0018370541844754326 0.0085305124845291031 0 -0.0018076396470975487 0.0093328471397291553 0 -0.0018370541844754326 0.0085305124845291031 0 -0.0013034183528982694 0.0088673862757465815 0 -0.0018076396470975487 0.0093328471397291553 0 -0.0018626462012670867 0.01899684718527108 0 -0.0015888299134003447 0.019206693258602237 0 -0.002513674228656314 0.029972020531839168 0 -0.0033614735491248253 0.028232956378108076 0 -0.0039499698671240282 0.029407025302446394 0 -0.0012621614826920328 0.0079464597936086123 0 -0.0013034183528982694 0.0088673862757465815 0 -0.00052696994811126817 0.0093820888678178144 0 -0.0001718100106343767 0.0094899482993856029 0 -0.0010187990185532435 0.010025611223426279 0 -0.0015122014561583309 0.00943171874591835 0 -0.0015888299134003447 0.019206693258602237 0 -0.0018403413467028256 0.015560607675880272 0 -0.0013034183528982694 0.0088673862757465815 0 -0.00052696994811126817 0.0093820888678178144 0 -0.0018076396470975487 0.0093328471397291553 0 -0.0001718100106343767 0.0094899482993856029 0 0.00043780529803337872 0.010682817967584224 0 -0.00048524717531423596 0.010343556941014475 0 -0.0001718100106343767 0.0094899482993856029 0 -0.0010187990185532435 0.010025611223426279 0 -0.00048524717531423596 0.010343556941014475 0 -0.0010187990185532435 0.010025611223426279 0 -0.0015805546449582776 0.010145809787753412 0 -0.0015122014561583309 0.00943171874591835 0 -0.0022291666547781439 0.0097790166201578571 0 -0.0015805546449582776 0.010145809787753412 0 -0.0015122014561583309 0.00943171874591835 0 -0.004306692456105655 0.03295779202869821 0 -0.0042444372907792082 0.032748435970733271 0 -0.0040463419439280357 0.032848917550565335 0 -0.0042444372907792082 0.032748435970733271 0 -0.0044065154954812313 0.032773370268543822 0 -0.0042813081663890667 0.032571767806163651 0 -0.0044426875740296926 0.032621214104785481 0 -0.0044065154954812313 0.032773370268543822 0 -0.0042666527705378324 0.032568384015510224 0 -0.0045424153242170388 0.02597285986596197 0 -0.0036217431133494281 0.024033941209199911 0 -0.004306692456105655 0.03295779202869821 0 -0.0042444372907792082 0.032748435970733271 0 -0.0044065154954812313 0.032773370268543822 0 -0.0045217712409772867 0.03293963536528402 0 -0.004306692456105655 0.03295779202869821 0 -0.0044065154954812313 0.032773370268543822 0 -0.002799206902910409 0.027324321116182177 0 -0.00226140436318094 0.021042999770507834 0 -0.0042444372907792082 0.032748435970733271 0 -0.0040463419439280357 0.032848917550565335 0 -0.0041994502001888321 0.032572236286767531 0 -0.0033614735491248253 0.028232956378108076 0 -0.0039499698671240282 0.029407025302446394 0 -0.0036877164363676197 0.028226933821612409 0 -0.002799206902910409 0.027324321116182177 0 -0.0029796211333880077 0.023379514499598422 0 -0.0038347889508317302 0.022727735396609012 0 -0.004156765945522875 0.024157229857568411 0 -0.0029702982968501847 0.024176257483346914 0 -0.0015888299134003447 0.019206693258602237 0 -0.0016080653392466385 0.016935492851800519 0 -0.0012416372792008815 0.020028369747708358 0 -0.00038137578189806147 0.019958158573220076 0 -0.00060827560095960643 0.019575867519909342 0 -0.0023428359392832919 0.019546187895972768 0 -0.0019030898286351708 0.019553506089700374 0 -0.0013876367900289303 0.021392304012916884 0 -0.0019030898286351708 0.019553506089700374 0 -0.0012416372792008815 0.020028369747708358 0 -0.0013876367900289303 0.021392304012916884 0 -0.0019030898286351708 0.019553506089700374 0 -0.0012416372792008815 0.020028369747708358 0 -0.00060827560095960643 0.019575867519909342 0 -0.00226140436318094 0.021042999770507834 0 -0.0029796211333880077 0.023379514499598422 0 -0.0015888299134003447 0.019206693258602237 0 -0.00226140436318094 0.021042999770507834 0 -0.0012416372792008815 0.020028369747708358 0 -0.00038137578189806147 0.019958158573220076 0 -0.0013876367900289303 0.021392304012916884 0 -0.0012168856322279055 0.020915048381827228 0 -0.0016702283878565448 0.021545357011720851 0 -0.0026227395442796654 0.020135049032825328 0 -0.0031962522147296018 0.022306823522585454 0 -0.0029796211333880077 0.023379514499598422 0 -0.0029796211333880077 0.023379514499598422 0 -0.0036217431133494281 0.024033941209199911 0 -0.0042444372907792082 0.032748435970733271 0 -0.0041994502001888321 0.032572236286767531 0 -0.0042813081663890667 0.032571767806163651 0 -0.0029356582625362378 0.027301904567395039 0 -0.0056452407993139104 0.02273157700409912 0 0.00019684208103823333 0.022824421362324258 0 -0.0031962522147296018 0.022306823522585454 0 -0.0036217431133494281 0.024033941209199911 0 -0.0039473203983250819 0.020678635070667594 0 -0.0016702283878565448 0.021545357011720851 0 -0.0026227395442796654 0.020135049032825328 0 -0.0026227395442796654 0.020135049032825328 0 -0.0028195332308276525 0.018064821101438738 0 -0.0035414049655983345 0.019556899616039937 0 -0.0022808729720240218 0.019017402772834167 0 -0.0034261899503251164 0.017074337966842906 0 -0.0022963773088037652 0.017100983079784353 0 -0.0012168856322279055 0.020915048381827228 0 -0.0026227395442796654 0.020135049032825328 0 -0.0028195332308276525 0.018064821101438738 0 -0.0031962522147296018 0.022306823522585454 0 -0.0040447169519752446 0.019275501246945229 0 -0.0034261899503251164 0.017074337966842906 0 -0.0022963773088037652 0.017100983079784353 0 -0.002825770505282437 0.016125986297517551 0 -0.0022808729720240218 0.019017402772834167 0 -0.0022963773088037652 0.017100983079784353 0 -0.0010968345954802704 0.017328423970128154 0 -0.0031962522147296018 0.022306823522585454 0 -0.0016080653392466385 0.016935492851800519 0 -0.0016080653392466385 0.016935492851800519 0 -0.00097561549554824576 0.014655519693950021 0 -0.0022963773088037652 0.017100983079784353 0 -0.0010968345954802704 0.017328423970128154 0 -0.0017569624093413286 0.016030212658379308 0 -0.0016080653392466385 0.016935492851800519 0 -0.0016326072475026023 0.016847881339863389 0 -0.0017569624093413286 0.016030212658379308 0 -0.0010217102230541104 0.01491472237277763 0 5.325619401479666e-05 0.015741586059172415 0 -0.0010752843992164461 0.017352363992402187 0 -0.0017569624093413286 0.016030212658379308 0 5.325619401479666e-05 0.015741586059172415 0 -0.0010217102230541104 0.01491472237277763 0 5.325619401479666e-05 0.015741586059172415 0 -0.00059922671102707566 0.013595600267709253 0 -0.0017569624093413286 0.016030212658379308 0 -0.0010217102230541104 0.01491472237277763 0 -0.001781453814128572 0.014281297023103441 0 -0.0017569624093413286 0.016030212658379308 0 -0.0029269541106077563 0.01484929010466244 0 -0.001781453814128572 0.014281297023103441 0 -0.0029269541106077563 0.01484929010466244 0 -0.0034563219373106814 0.015824310553840051 0 -0.002825770505282437 0.016125986297517551 0 -0.0029269541106077563 0.01484929010466244 0 -0.0034563219373106814 0.015824310553840051 0 -0.0046291663152317076 0.015207495654147654 0 -0.0034261899503251164 0.017074337966842906 0 -0.0034563219373106814 0.015824310553840051 0 -0.002825770505282437 0.016125986297517551 0 -0.0022963773088037652 0.017100983079784353 0 -0.0017569624093413286 0.016030212658379308 0 -0.002825770505282437 0.016125986297517551 0 -0.0017569624093413286 0.016030212658379308 0 -0.0029269541106077563 0.01484929010466244 0 -0.002825770505282437 0.016125986297517551 0 -0.0024408551958871329 0.010868304600425059 0 -0.0013595240285637529 0.010722262423362985 0 -0.0019523379832967209 0.011361992044504728 0 -0.002227792587244661 0.010361443581367121 0 -0.0015805546449582776 0.010145809787753412 0 -0.0013595240285637529 0.010722262423362985 0 -0.0010187990185532435 0.010025611223426279 0 -0.0015805546449582776 0.010145809787753412 0 -0.0013595240285637529 0.010722262423362985 0 -0.0013595240285637529 0.010722262423362985 0 -0.00059992184049551954 0.011005056273796714 0 -0.0012653747519925011 0.01158544563384797 0 0.00043780529803337872 0.010682817967584224 0 -0.00059992184049551954 0.011005056273796714 0 -0.00016699173145579138 0.011535306327805328 0 0.00043780529803337872 0.010682817967584224 0 -0.00059992184049551954 0.011005056273796714 0 -0.00048524717531423596 0.010343556941014475 0 -0.0013595240285637529 0.010722262423362985 0 -0.00059992184049551954 0.011005056273796714 0 -0.00048524717531423596 0.010343556941014475 0 -0.0010187990185532435 0.010025611223426279 0 -0.0013595240285637529 0.010722262423362985 0 -0.00048524717531423596 0.010343556941014475 0 -0.00016699173145579138 0.011535306327805328 0 -0.0012653747519925011 0.01158544563384797 0 -0.00077068291366026134 0.012386300194769703 0 -0.00059992184049551954 0.011005056273796714 0 -0.00016699173145579138 0.011535306327805328 0 -0.0012653747519925011 0.01158544563384797 0 -0.00097561549554824576 0.014655519693950021 0 -0.0012563354123794669 0.013608028202940234 0 -0.0022213904045896718 0.011945480258551326 0 -0.0012653747519925011 0.01158544563384797 0 -0.0019523379832967209 0.011361992044504728 0 -0.0022213904045896718 0.011945480258551326 0 -0.0012653747519925011 0.01158544563384797 0 -0.00077068291366026134 0.012386300194769703 0 -0.0013595240285637529 0.010722262423362985 0 -0.0012653747519925011 0.01158544563384797 0 -0.0019523379832967209 0.011361992044504728 0 -0.002258806482317164 0.01252468872636125 0 -0.0019337442978894801 0.01245479896538277 0 -0.0021485017802961573 0.012693940203391554 0 -0.0023777117674667427 0.012727188486447006 0 -0.0012563354123794669 0.013608028202940234 0 -0.0023916282416801054 0.012122108587660912 0 -0.002258806482317164 0.01252468872636125 0 -0.0019337442978894801 0.01245479896538277 0 -0.0021727810684878945 0.012871799847229711 0 -0.002201154007464525 0.012765590884063684 0 -0.0021485017802961573 0.012693940203391554 0 5.325619401479666e-05 0.015741586059172415 0 0.0011888694946092836 0.014114612462620007 0 -0.00059922671102707566 0.013595600267709253 0 -0.0021727810684878945 0.012871799847229711 0 -0.002201154007464525 0.012765590884063684 0 -0.0022911776062414812 0.012967818445484738 0 -0.0012563354123794669 0.013608028202940234 0 -0.0012891159738503664 0.013518290500859597 0 -0.0012563354123794669 0.013608028202940234 0 -0.0015275410117591834 0.01347306030087669 0 -0.0022263117926988201 0.012698234038644424 0 -0.0022307443279830203 0.012734686914710289 0 -0.002201154007464525 0.012765590884063684 0 -0.0022307443279830203 0.012734686914710289 0 -0.002201154007464525 0.012765590884063684 0 -0.0021485017802961573 0.012693940203391554 0 -0.0023542199749795813 0.012720846686085339 0 -0.0022307443279830203 0.012734686914710289 0 -0.0023158310360615569 0.012680967356406836 0 -0.0022307443279830203 0.012734686914710289 0 -0.0021485017802961573 0.012693940203391554 0 -0.0023158310360615569 0.012680967356406836 0 -0.002258806482317164 0.01252468872636125 0 -0.0021485017802961573 0.012693940203391554 0 -0.0023158310360615569 0.012680967356406836 0 -0.0029269541106077563 0.01484929010466244 0 -0.0028435957767375315 0.013086065532860281 0 -0.0046291663152317076 0.015207495654147654 0 -0.0025468145595000818 0.013096496640414285 0 -0.0025362432795046105 0.013799334598586517 0 -0.001781453814128572 0.014281297023103441 0 -0.0025468145595000818 0.013096496640414285 0 -0.0028435957767375315 0.013086065532860281 0 -0.0025362432795046105 0.013799334598586517 0 -0.0029269541106077563 0.01484929010466244 0 -0.0028435957767375315 0.013086065532860281 0 -0.0025362432795046105 0.013799334598586517 0 -0.0029269541106077563 0.01484929010466244 0 -0.0025362432795046105 0.013799334598586517 0 -0.001781453814128572 0.014281297023103441 0 -0.0010217102230541104 0.01491472237277763 0 -0.001781453814128572 0.014281297023103441 0 -0.00059922671102707566 0.013595600267709253 0 -0.0025468145595000818 0.013096496640414285 0 -0.001781453814128572 0.014281297023103441 0 -0.00059922671102707566 0.013595600267709253 0 -0.0017660687697926541 0.013391890487300318 0 -0.0015275410117591834 0.01347306030087669 0 -0.0022263117926988201 0.012698234038644424 0 -0.002201154007464525 0.012765590884063684 0 -0.0022911776062414812 0.012967818445484738 0 -0.0022263117926988201 0.012698234038644424 0 -0.0025468145595000818 0.013096496640414285 0 -0.0022911776062414812 0.012967818445484738 0 -0.0022263117926988201 0.012698234038644424 0 -0.0025468145595000818 0.013096496640414285 0 -0.0028435957767375315 0.013086065532860281 0 0.00025536570153243871 0.022034955959932059 0 0.00019786328792269271 0.022998734476354817 0 0.0027573033254421116 0.031107266298930299 0 0.0029162988148537378 0.030829383085051239 0 0.0029500711290309225 0.031028313345168645 0 0.0029162988148537378 0.030829383085051239 0 0.0029500711290309225 0.031028313345168645 0 0.0030874819681592394 0.030894557360507266 0 0.0030240790924303991 0.031150187836943132 0 0.0029500711290309225 0.031028313345168645 0 0.0030874819681592394 0.030894557360507266 0 0.0026160791777687328 0.032363523418663928 0 0.0028403410858633031 0.032710339681737012 0 0.00251851443989472 0.032856250880665711 0 0.0026160791777687328 0.032363523418663928 0 0.00251851443989472 0.032856250880665711 0 0.0022717028274350719 0.032584157185107029 0 0.00251851443989472 0.032856250880665711 0 0.0027231027276058716 0.033275171976579386 0 0.0022448488404641508 0.033095375841618598 0 0.00251851443989472 0.032856250880665711 0 0.0022448488404641508 0.033095375841618598 0 0.0022717028274350719 0.032584157185107029 0 0.00019786328792269271 0.022998734476354817 0 -0.00058186772047487336 0.025505868799274613 0 0.0028403410858633031 0.032710339681737012 0 0.00251851443989472 0.032856250880665711 0 0.0027231027276058716 0.033275171976579386 0 0.0029162988148537378 0.030829383085051239 0 0.0030874819681592394 0.030894557360507266 0 0.0031405281085533912 0.030545159688921065 0 -0.0028435957767375315 0.013086065532860281 0 -0.0053698798386747053 0.015570324015075222 0 -0.0046291663152317076 0.015207495654147654 0 0.00085895755412409311 0.030204635961643189 0 -0.00058186772047487336 0.025505868799274613 0 -0.0034261899503251164 0.017074337966842906 0 -0.0034563219373106814 0.015824310553840051 0 -0.0046291663152317076 0.015207495654147654 0 -0.0028195332308276525 0.018064821101438738 0 -0.004517350274707772 0.017171241865656231 0 -0.0046291663152317076 0.015207495654147654 0 -0.0040447169519752446 0.019275501246945229 0 -0.004509630470982821 0.018021794415424813 0 -0.00058186772047487336 0.025505868799274613 0 -0.0014580790813622044 0.022436593326206015 0 -0.004517350274707772 0.017171241865656231 0 -0.0053698798386747053 0.015570324015075222 0 -0.0059473766156991469 0.018128913555812289 0 -0.004517350274707772 0.017171241865656231 0 -0.0053698798386747053 0.015570324015075222 0 -0.0046291663152317076 0.015207495654147654 0 0.0027231027276058716 0.033275171976579386 0 0.0023312605723743596 0.033682688461738976 0 0.0022448488404641508 0.033095375841618598 0 -0.00058186772047487336 0.025505868799274613 0 -0.0012714141027492362 0.028751359994879343 0 -0.0057222566978829695 0.018036893137468743 0 -0.0060297269683158598 0.019367032354934057 0 -0.0073246708544304189 0.019577303189151855 0 -0.0063075221650589494 0.020714687326729542 0 -0.0060297269683158598 0.019367032354934057 0 -0.0073246708544304189 0.019577303189151855 0 -0.0055810336751406673 0.019958964239909397 0 -0.0063075221650589494 0.020714687326729542 0 -0.0059473766156991469 0.018128913555812289 0 -0.0018225353687825287 0.021916851275054276 0 -0.0014580790813622044 0.022436593326206015 0 -0.0055810336751406673 0.019958964239909397 0 -0.0059473766156991469 0.018128913555812289 0 -0.0047666986923761952 0.019323634939807394 0 -0.0028195332308276525 0.018064821101438738 0 -0.0047666986923761952 0.019323634939807394 0 -0.0035414049655983345 0.019556899616039937 0 -0.0028195332308276525 0.018064821101438738 0 -0.004517350274707772 0.017171241865656231 0 -0.0047666986923761952 0.019323634939807394 0 -0.004517350274707772 0.017171241865656231 0 -0.0059473766156991469 0.018128913555812289 0 -0.0047666986923761952 0.019323634939807394 0 0.0019449711621694942 0.034088266945398946 0 0.0016626175125162442 0.033783939118108355 0 0.0023312605723743596 0.033682688461738976 0 0.0016626175125162442 0.033783939118108355 0 0.0023312605723743596 0.033682688461738976 0 0.0017977919110809676 0.033365655027249842 0 0.0023312605723743596 0.033682688461738976 0 0.0017977919110809676 0.033365655027249842 0 0.0022448488404641508 0.033095375841618598 0 0.0017977919110809676 0.033365655027249842 0 0.0018347533391612028 0.032804227861326085 0 0.0015515295866177134 0.033068319402405906 0 0.0017977919110809676 0.033365655027249842 0 0.0022448488404641508 0.033095375841618598 0 0.0018347533391612028 0.032804227861326085 0 0.0022448488404641508 0.033095375841618598 0 0.0022717028274350719 0.032584157185107029 0 0.0018347533391612028 0.032804227861326085 0 0.0019688337915864081 0.03242795551409678 0 0.0022717028274350719 0.032584157185107029 0 0.0018347533391612028 0.032804227861326085 0 0.0016275826415609127 0.032275164225307143 0 0.0019688337915864081 0.03242795551409678 0 0.0018347533391612028 0.032804227861326085 0 0.0016275826415609127 0.032275164225307143 0 0.0018347533391612028 0.032804227861326085 0 0.001321288716652062 0.032778110830028011 0 0.001321288716652062 0.032778110830028011 0 0.0015515295866177134 0.033068319402405906 0 0.0012540340297846576 0.033326816514332148 0 0.0018347533391612028 0.032804227861326085 0 0.001321288716652062 0.032778110830028011 0 0.0015515295866177134 0.033068319402405906 0 0.001321288716652062 0.032778110830028011 0 0.00088477398833586632 0.0330152442350315 0 0.0012540340297846576 0.033326816514332148 0 0.001321288716652062 0.032778110830028011 0 0.000917724874779218 0.032576610524665706 0 0.00088477398833586632 0.0330152442350315 0 0.0011882508572968605 0.032324337383404921 0 0.001321288716652062 0.032778110830028011 0 0.000917724874779218 0.032576610524665706 0 0.00075945442552780701 0.032991252926880987 0 0.00058824719049497751 0.03318396520741751 0 0.000917724874779218 0.032576610524665706 0 0.00042846498675769144 0.03286626577695622 0 0.00088477398833586632 0.0330152442350315 0 0.00051807630904705381 0.032283696478209015 0 0.000917724874779218 0.032576610524665706 0 0.00055185951607791557 0.032868728214027275 0 0.00042846498675769144 0.03286626577695622 0 0.00058586654728894896 0.033512292285597989 0 -5.5665225098774747e-05 0.033178307581617848 0 0.00042846498675769144 0.03286626577695622 0 0.00088477398833586632 0.0330152442350315 0 0.00058586654728894896 0.033512292285597989 0 0.00088477398833586632 0.0330152442350315 0 0.00058586654728894896 0.033512292285597989 0 0.0012540340297846576 0.033326816514332148 0 0.00058586654728894896 0.033512292285597989 0 0.0011495486164727548 0.033774503378658255 0 0.00083387625158993432 0.034114515862084603 0 0.0016626175125162442 0.033783939118108355 0 0.0011495486164727548 0.033774503378658255 0 0.0012540340297846576 0.033326816514332148 0 0.0017977919110809676 0.033365655027249842 0 0.0015515295866177134 0.033068319402405906 0 0.0012540340297846576 0.033326816514332148 0 0.0016626175125162442 0.033783939118108355 0 0.0017977919110809676 0.033365655027249842 0 0.0012540340297846576 0.033326816514332148 0 0.00058586654728894896 0.033512292285597989 0 0.0011495486164727548 0.033774503378658255 0 0.0012540340297846576 0.033326816514332148 0 -0.00066577981998692929 0.033448251447854987 0 -0.0001495344323957596 0.033228930570355392 0 -0.00054869460818147465 0.033911702410274462 0 -0.00066577981998692929 0.033448251447854987 0 -0.00069994943182084682 0.033042550550949332 0 -0.0001495344323957596 0.033228930570355392 0 -0.00032031059332126904 0.032669006363009956 0 -0.00066743980168499522 0.032630130167293089 0 -0.00069994943182084682 0.033042550550949332 0 0.00014597668979243926 0.032550752771847755 0 -0.00032031059332126904 0.032669006363009956 0 -0.0001495344323957596 0.033228930570355392 0 -0.00032031059332126904 0.032669006363009956 0 -0.00069994943182084682 0.033042550550949332 0 -0.0001495344323957596 0.033228930570355392 0 0.00014597668979243926 0.032550752771847755 0 0.00055185951607791557 0.032868728214027275 0 0.00020328157035691847 0.033132645237060235 0 0.00014597668979243926 0.032550752771847755 0 -0.00019996709977040042 0.032956952719898992 0 0.00020328157035691847 0.033132645237060235 0 -0.00019996709977040042 0.032956952719898992 0 0.00020328157035691847 0.033132645237060235 0 -0.00018576422307043435 0.03343024404941241 0 0.0002660893147244125 0.033143757388312135 0 0.00016689568594623847 0.033554633126789538 0 0.00058824719049497751 0.03318396520741751 0 0.00031745192385701412 0.033645150560352693 0 0.00058586654728894896 0.033512292285597989 0 -5.5665225098774747e-05 0.033178307581617848 0 -0.000114186365912463 0.033725145590604737 0 0.00058586654728894896 0.033512292285597989 0 -0.000114186365912463 0.033725145590604737 0 0.00026084988803405673 0.034134988999267341 0 -0.000114186365912463 0.033725145590604737 0 -0.00054813573760258258 0.033499479359009529 0 -0.00062273270991083148 0.03387485967600358 0 -0.000114186365912463 0.033725145590604737 0 -0.00062273270991083148 0.03387485967600358 0 -0.00033047393877141891 0.034154816572497901 0 -5.5665225098774747e-05 0.033178307581617848 0 -0.000114186365912463 0.033725145590604737 0 -0.00054813573760258258 0.033499479359009529 0 0.00031745192385701412 0.033645150560352693 0 9.3343542973135465e-05 0.034425199673068646 0 0.00016689568594623847 0.033554633126789538 0 7.826618523085546e-05 0.034689746304162827 0 -0.00019996709977040042 0.032956952719898992 0 -0.00018576422307043435 0.03343024404941241 0 -0.00060153601060346034 0.033443818734005024 0 9.3343542973135465e-05 0.034425199673068646 0 -0.00011196985715700673 0.035872153347723292 0 -0.00054813573760258258 0.033499479359009529 0 -0.00062273270991083148 0.03387485967600358 0 -0.0010502020060941628 0.033834881029569844 0 -0.00062273270991083148 0.03387485967600358 0 -0.0010502020060941628 0.033834881029569844 0 -0.00093816289888029071 0.034171107402758548 0 -0.00018576422307043435 0.03343024404941241 0 -0.0006337999724698696 0.033756144281635453 0 -0.00060153601060346034 0.033443818734005024 0 -0.0010243516286325149 0.034019180246452868 0 -0.0006337999724698696 0.033756144281635453 0 -0.00060153601060346034 0.033443818734005024 0 -0.00099184057473459641 0.0337218482175035 0 -0.00066577981998692929 0.033448251447854987 0 -0.00054869460818147465 0.033911702410274462 0 -0.00012171377622050225 0.051736579953109957 0 -0.00012635319315634799 0.051677065776666684 0 -0.00013731350182277267 0.051664795642855033 0 -0.001458086495636999 0.034114724632502015 0 -0.0010502020060941628 0.033834881029569844 0 -0.00093816289888029071 0.034171107402758548 0 -0.00012635319315634799 0.051677065776666684 0 -0.00014640942509067711 0.051632404720250352 0 -0.00014650578702746187 0.051619710385177389 0 -0.00062273270991083148 0.03387485967600358 0 -0.00093816289888029071 0.034171107402758548 0 -0.00033047393877141891 0.034154816572497901 0 -0.00056731321918762222 0.041264860373790901 0 -0.00023164229624738879 0.041756921863512757 0 -0.00012635319315634799 0.051677065776666684 0 -0.00014640942509067711 0.051632404720250352 0 -0.00013731350182277267 0.051664795642855033 0 -0.00014640942509067711 0.051632404720250352 0 -0.00014650578702746187 0.051619710385177389 0 -0.00015529717523953137 0.051553935347747722 0 -0.000114186365912463 0.033725145590604737 0 -0.00033047393877141891 0.034154816572497901 0 0.00026084988803405673 0.034134988999267341 0 -0.00023164229624738879 0.041756921863512757 0 5.3532238155679844e-05 0.041599283172112263 0 -0.00014640942509067711 0.051632404720250352 0 -0.00015529717523953137 0.051553935347747722 0 -0.00015731831626252763 0.051572007672547715 0 -0.00015373528904989679 0.05161324064021626 0 -0.00015731831626252763 0.051572007672547715 0 -0.00015911624893687488 0.051576416112367733 0 -0.00014640942509067711 0.051632404720250352 0 -0.00015373528904989679 0.05161324064021626 0 -0.00015731831626252763 0.051572007672547715 0 -0.00015911624893687488 0.051576416112367733 0 -0.00015828221608311403 0.051577820483758807 0 -0.00016106623302973707 0.051593047444222259 0 -0.00015373528904989679 0.05161324064021626 0 -0.00015911624893687488 0.051576416112367733 0 -0.00016106623302973707 0.051593047444222259 0 -0.00015373528904989679 0.05161324064021626 0 -0.00014731448336603698 0.051631947662548063 0 -0.00016106623302973707 0.051593047444222259 0 -0.00014731448336603698 0.051631947662548063 0 -0.00014123040598424601 0.051629888087180657 0 -0.00016106623302973707 0.051593047444222259 0 -0.00014640942509067711 0.051632404720250352 0 -0.00015373528904989679 0.05161324064021626 0 -0.00013731350182277267 0.051664795642855033 0 -0.00015373528904989679 0.05161324064021626 0 -0.00013731350182277267 0.051664795642855033 0 -0.00014731448336603698 0.051631947662548063 0 -0.00013731350182277267 0.051664795642855033 0 -0.00014731448336603698 0.051631947662548063 0 -0.00013942668914642989 0.051654564621546578 0 -0.00013731350182277267 0.051664795642855033 0 -0.00013942668914642989 0.051654564621546578 0 -0.00013229735670749999 0.051677308419010318 0 -0.00014731448336603698 0.051631947662548063 0 -0.00014123040598424601 0.051629888087180657 0 -0.00013942668914642989 0.051654564621546578 0 -0.00014123040598424601 0.051629888087180657 0 -0.00013942668914642989 0.051654564621546578 0 -0.00013229735670749999 0.051677308419010318 0 -0.00014123040598424601 0.051629888087180657 0 -0.00013229735670749999 0.051677308419010318 0 -0.00012210746593134092 0.051710376021548821 0 0.00040565176928559647 0.049215328576595108 0 0.0006214207652914883 0.051067921499140953 0 -0.00012171377622050225 0.051736579953109957 0 -0.00013731350182277267 0.051664795642855033 0 -0.00013229735670749999 0.051677308419010318 0 -0.00012171377622050225 0.051736579953109957 0 -0.00013229735670749999 0.051677308419010318 0 -0.00012210746593134092 0.051710376021548821 0 -0.000115299214198689 0.051487587828369173 0 -5.0456730680366289e-05 0.051460740185155923 0 -0.00010474258398000768 0.05152949516842991 0 -0.000115299214198689 0.051487587828369173 0 -5.0456730680366289e-05 0.051460740185155923 0 -8.3814087959298842e-05 0.051409397303803527 0 1.3472462093279679e-05 0.051351172385102395 0 -5.0456730680366289e-05 0.051460740185155923 0 -8.3814087959298842e-05 0.051409397303803527 0 0.0016626175125162442 0.033783939118108355 0 0.0011495486164727548 0.033774503378658255 0 0.001390910653243868 0.034096142424239743 0 -0.000115299214198689 0.051487587828369173 0 -8.3814087959298842e-05 0.051409397303803527 0 -0.00014056452195743922 0.051484313034056393 0 4.4506344775626387e-05 0.038653787574171546 0 0.000257372889527487 0.040725185542947885 0 0.0011495486164727548 0.033774503378658255 0 0.001390910653243868 0.034096142424239743 0 0.00083387625158993432 0.034114515862084603 0 0.00058586654728894896 0.033512292285597989 0 0.00026084988803405673 0.034134988999267341 0 0.00083387625158993432 0.034114515862084603 0 5.3532238155679844e-05 0.041599283172112263 0 0.000257372889527487 0.040725185542947885 0 -0.00015529717523953137 0.051553935347747722 0 -0.00014056452195743922 0.051484313034056393 0 -0.00015731831626252763 0.051572007672547715 0 -0.00014056452195743922 0.051484313034056393 0 -0.00015731831626252763 0.051572007672547715 0 -0.00014268460137533084 0.051537720784210199 0 -0.000115299214198689 0.051487587828369173 0 -0.00014056452195743922 0.051484313034056393 0 -0.00014268460137533084 0.051537720784210199 0 -0.00015731831626252763 0.051572007672547715 0 -0.00014268460137533084 0.051537720784210199 0 -0.00015911624893687488 0.051576416112367733 0 -0.00015911624893687488 0.051576416112367733 0 -0.00014098230777711358 0.051565556569908098 0 -0.00015828221608311403 0.051577820483758807 0 -0.00014268460137533084 0.051537720784210199 0 -0.00015911624893687488 0.051576416112367733 0 -0.00014098230777711358 0.051565556569908098 0 -0.0041142761673391487 0.042060129690647124 0 -0.004021796378670321 0.041155599964613765 0 -0.0070222894656666321 0.033859830432409213 0 -0.0062591660649520368 0.033178600673505129 0 -0.00644629293891248 0.034186378032507979 0 -0.000115299214198689 0.051487587828369173 0 -0.00014268460137533084 0.051537720784210199 0 -0.00010474258398000768 0.05152949516842991 0 -0.00014268460137533084 0.051537720784210199 0 -0.00014098230777711358 0.051565556569908098 0 -0.00010474258398000768 0.05152949516842991 0 -0.0056357438533689965 0.032781380085470005 0 -0.0062591660649520368 0.033178600673505129 0 -0.0055944173538424718 0.033243223287365196 0 -0.0038746005003207746 0.039258669209813739 0 -0.004021796378670321 0.041155599964613765 0 -0.0062591660649520368 0.033178600673505129 0 -0.005839383634594659 0.033846060376310376 0 -0.00644629293891248 0.034186378032507979 0 -0.0062591660649520368 0.033178600673505129 0 -0.0055944173538424718 0.033243223287365196 0 -0.005839383634594659 0.033846060376310376 0 -0.005839383634594659 0.033846060376310376 0 -0.0060560874286565269 0.034512352964536003 0 -0.0055097871388786234 0.034798303146059292 0 -0.005839383634594659 0.033846060376310376 0 -0.0060560874286565269 0.034512352964536003 0 -0.00644629293891248 0.034186378032507979 0 -0.0052819407357668153 0.033699328907524098 0 -0.0055019309968852769 0.034056282798532213 0 -0.0052665920859537221 0.033832332265754717 0 -0.0055097871388786234 0.034798303146059292 0 -0.0061176652613970451 0.0351470250103579 0 -0.006089666533689593 0.03621203421407955 0 -0.0056331152182081201 0.034339700893013039 0 -0.0061156768947002145 0.035025195448487673 0 -0.0060560874286565269 0.034512352964536003 0 -0.0055097871388786234 0.034798303146059292 0 -0.0061176652613970451 0.0351470250103579 0 -0.0060560874286565269 0.034512352964536003 0 -0.0061176652613970451 0.0351470250103579 0 -0.0064674023519834777 0.034773770107529113 0 -0.0070205773662639116 0.03553244293707674 0 -0.0064493799789645248 0.035504860380154962 0 -0.0064674023519834777 0.034773770107529113 0 -0.0061176652613970451 0.0351470250103579 0 -0.0064493799789645248 0.035504860380154962 0 -0.0064674023519834777 0.034773770107529113 0 -0.0070222894656666321 0.033859830432409213 0 -0.00644629293891248 0.034186378032507979 0 -0.0069944704784041046 0.034819146355677684 0 -0.0064674023519834777 0.034773770107529113 0 -0.00644629293891248 0.034186378032507979 0 -0.0069944704784041046 0.034819146355677684 0 -0.0060560874286565269 0.034512352964536003 0 -0.0064674023519834777 0.034773770107529113 0 -0.00644629293891248 0.034186378032507979 0 -0.00014098230777711358 0.051565556569908098 0 -0.00015828221608311403 0.051577820483758807 0 -0.00016072165110479951 0.051574491435652944 0 -0.0043213969370291877 0.042534638523753068 0 -0.0058733233272640637 0.041299368029892709 0 -0.0041142761673391487 0.042060129690647124 0 -0.0043213969370291877 0.042534638523753068 0 -0.0070222894656666321 0.033859830432409213 0 -0.0077553489174520419 0.03461665817478133 0 -0.0069944704784041046 0.034819146355677684 0 -0.00015828221608311403 0.051577820483758807 0 -0.00016072165110479951 0.051574491435652944 0 -0.00016106623302973707 0.051593047444222259 0 -0.0076518475072902045 0.034684060258839189 0 -0.0073796462294984455 0.035055148263906398 0 -0.0082731310860409968 0.035353656420547157 0 -0.005975432668975769 0.039845897301861492 0 -0.004550086612066016 0.043266405863286103 0 -0.0043213969370291877 0.042534638523753068 0 -0.004550086612066016 0.043266405863286103 0 -0.0077355114470035492 0.035124416482726392 0 -0.0083444718749425828 0.035616893641103854 0 -0.0090341897233109768 0.035527471625774014 0 -0.0077355114470035492 0.035124416482726392 0 -0.0076988450474624473 0.035789154368833211 0 -0.0083444718749425828 0.035616893641103854 0 -0.0070205773662639116 0.03553244293707674 0 -0.0064674023519834777 0.034773770107529113 0 -0.0077355114470035492 0.035124416482726392 0 -0.0064674023519834777 0.034773770107529113 0 -0.0069944704784041046 0.034819146355677684 0 -0.0073796462294984455 0.035055148263906398 0 -0.0076518475072902045 0.034684060258839189 0 -0.0069944704784041046 0.034819146355677684 0 -0.0073796462294984455 0.035055148263906398 0 -0.0060056261896270164 0.038849887147835362 0 -0.005975432668975769 0.039845897301861492 0 -0.0070205773662639116 0.03553244293707674 0 -0.0077355114470035492 0.035124416482726392 0 -0.0076988450474624473 0.035789154368833211 0 -0.0070205773662639116 0.03553244293707674 0 -0.0076988450474624473 0.035789154368833211 0 -0.0072104795037754221 0.036072909647391245 0 -0.0076988450474624473 0.035789154368833211 0 -0.007559711150170719 0.036338640286222586 0 -0.0072104795037754221 0.036072909647391245 0 -0.0076988450474624473 0.035789154368833211 0 -0.007559711150170719 0.036338640286222586 0 -0.0082450058597455592 0.036269854494335445 0 -0.007559711150170719 0.036338640286222586 0 -0.0072104795037754221 0.036072909647391245 0 -0.0072032499861881243 0.03661829963205581 0 -0.0075548488409724335 0.037120784680681106 0 -0.0074750253317509008 0.037229865778257973 0 -0.007495198984557137 0.037102407964035557 0 -0.0073521469432125154 0.039488591163822147 0 -0.004550086612066016 0.043266405863286103 0 -0.0083444718749425828 0.035616893641103854 0 -0.0082450058597455592 0.036269854494335445 0 -0.0090341897233109768 0.035527471625774014 0 -0.0076988450474624473 0.035789154368833211 0 -0.0083444718749425828 0.035616893641103854 0 -0.0082450058597455592 0.036269854494335445 0 -0.0077912195354447799 0.037230445321553451 0 -0.007525812574066309 0.037099696772324352 0 -0.0079602057270852823 0.037142078222929198 0 -0.0075548488409724335 0.037120784680681106 0 -0.007525812574066309 0.037099696772324352 0 -0.007495198984557137 0.037102407964035557 0 -0.0074341290408124873 0.040977314966461384 0 -0.0068683306952294493 0.041731225589948684 0 -0.0077912195354447799 0.037230445321553451 0 -0.007525812574066309 0.037099696772324352 0 -0.0075790078233408109 0.037277572772495458 0 -0.0072104795037754221 0.036072909647391245 0 -0.0072032499861881243 0.03661829963205581 0 -0.0067671762231901996 0.036619756353263165 0 -0.007559711150170719 0.036338640286222586 0 -0.0072032499861881243 0.03661829963205581 0 -0.0074060467134266063 0.037057672129582032 0 -0.0075548488409724335 0.037120784680681106 0 -0.007525812574066309 0.037099696772324352 0 -0.0074060467134266063 0.037057672129582032 0 -0.007559711150170719 0.036338640286222586 0 -0.0082450058597455592 0.036269854494335445 0 -0.0074060467134266063 0.037057672129582032 0 -0.0073521469432125154 0.039488591163822147 0 -0.0077968536775167184 0.038724069651363463 0 -0.007525812574066309 0.037099696772324352 0 -0.007401087033730964 0.037244019467070039 0 -0.0075790078233408109 0.037277572772495458 0 -0.007525812574066309 0.037099696772324352 0 -0.0074060467134266063 0.037057672129582032 0 -0.007401087033730964 0.037244019467070039 0 -0.0074060467134266063 0.037057672129582032 0 -0.0071326879375016791 0.037026293056975711 0 -0.007401087033730964 0.037244019467070039 0 -0.0072032499861881243 0.03661829963205581 0 -0.0074060467134266063 0.037057672129582032 0 -0.0071326879375016791 0.037026293056975711 0 -0.0061156768947002145 0.035025195448487673 0 -0.0068605083800898151 0.035746746484533284 0 -0.0071326879375016791 0.037026293056975711 0 -0.0067671762231901996 0.036619756353263165 0 -0.0068280217290776213 0.037492674292552416 0 -0.0067671762231901996 0.036619756353263165 0 -0.006089666533689593 0.03621203421407955 0 -0.0068280217290776213 0.037492674292552416 0 -0.0055019309968852769 0.034056282798532213 0 -0.0054423918728754642 0.034420441313720788 0 -0.0057256036382817002 0.034481946426242978 0 -0.0072032499861881243 0.03661829963205581 0 -0.0071326879375016791 0.037026293056975711 0 -0.0067671762231901996 0.036619756353263165 0 -0.0053329122286574545 0.034230784193550481 0 -0.0055019309968852769 0.034056282798532213 0 -0.0052194847313414968 0.034088544282093423 0 -0.0053329122286574545 0.034230784193550481 0 -0.0055019309968852769 0.034056282798532213 0 -0.0054423918728754642 0.034420441313720788 0 -0.0053329122286574545 0.034230784193550481 0 -0.0054423918728754642 0.034420441313720788 0 -0.005168824198951618 0.03435985790546435 0 -0.0055019309968852769 0.034056282798532213 0 -0.0052194847313414968 0.034088544282093423 0 -0.0052665920859537221 0.033832332265754717 0 -0.0061176652613970451 0.0351470250103579 0 -0.0064493799789645248 0.035504860380154962 0 -0.006089666533689593 0.03621203421407955 0 -0.0064493799789645248 0.035504860380154962 0 -0.006089666533689593 0.03621203421407955 0 -0.0066613267036985191 0.036020585023428947 0 -0.0070205773662639116 0.03553244293707674 0 -0.0072104795037754221 0.036072909647391245 0 -0.0066613267036985191 0.036020585023428947 0 -0.0070205773662639116 0.03553244293707674 0 -0.0064493799789645248 0.035504860380154962 0 -0.0066613267036985191 0.036020585023428947 0 -0.0072104795037754221 0.036072909647391245 0 -0.0067671762231901996 0.036619756353263165 0 -0.0066613267036985191 0.036020585023428947 0 -0.0067671762231901996 0.036619756353263165 0 -0.006089666533689593 0.03621203421407955 0 -0.0066613267036985191 0.036020585023428947 0 0.0011026087142789428 0.054084344855644478 0 0.0012069954208672119 0.053944291725959104 0 0.0012228670849621104 0.054135183277468905 0 0.00094023045060781204 0.054170089416932993 0 0.0010771170537576828 0.054226157176211681 0 0.0011026087142789428 0.054084344855644478 0 0.0010771170537576828 0.054226157176211681 0 0.0011026087142789428 0.054084344855644478 0 0.0012228670849621104 0.054135183277468905 0 0.00094069288027695845 0.053924621352909569 0 0.0011026087142789428 0.054084344855644478 0 0.0012069954208672119 0.053944291725959104 0 0.00094069288027695845 0.053924621352909569 0 0.001048292275052299 0.053697230590838411 0 0.0012069954208672119 0.053944291725959104 0 0.0013292749697414849 0.053829058637479207 0 0.001048292275052299 0.053697230590838411 0 0.0012069954208672119 0.053944291725959104 0 0.0012069954208672119 0.053944291725959104 0 0.0013335899725337849 0.053933165779702925 0 0.0013613383323338546 0.053993316001444719 0 0.0013292749697414849 0.053829058637479207 0 0.0013335899725337849 0.053933165779702925 0 0.0013548390203273392 0.053972172117909105 0 0.0013292749697414849 0.053829058637479207 0 0.0012069954208672119 0.053944291725959104 0 0.0013335899725337849 0.053933165779702925 0 0.0012069954208672119 0.053944291725959104 0 0.0013613383323338546 0.053993316001444719 0 0.0012228670849621104 0.054135183277468905 0 0.0013613383323338546 0.053993316001444719 0 0.0012228670849621104 0.054135183277468905 0 0.0014477238158811694 0.054235545979306236 0 -0.00097271919953018451 0.049953865585723664 0 -0.0018900690801160757 0.047522048816677813 0 0.0013409701746137596 0.053935807686816446 0 0.0012251342447400393 0.05388463115961737 0 0.0013662629842833736 0.053871426610310448 0 0.0013613383323338546 0.053993316001444719 0 0.0013409701746137596 0.053935807686816446 0 0.0013662629842833736 0.053871426610310448 0 0.0013409701746137596 0.053935807686816446 0 0.0013548390203273392 0.053972172117909105 0 0.0012251342447400393 0.05388463115961737 0 0.0013613383323338546 0.053993316001444719 0 0.0013409701746137596 0.053935807686816446 0 0.0013548390203273392 0.053972172117909105 0 0.00040565176928559647 0.049215328576595108 0 -0.0011914971261978047 0.046749555668004109 0 0.00016132656892214235 0.047150949213328103 0 -0.0014033943293431318 0.045672065602875921 0 -0.0022551062613622493 0.046461881652271678 0 0.00040565176928559647 0.049215328576595108 0 -0.00068873633748668108 0.04785039563542029 0 0.0013335899725337849 0.053933165779702925 0 0.0013613383323338546 0.053993316001444719 0 0.0013548390203273392 0.053972172117909105 0 -0.0043213969370291877 0.042534638523753068 0 -0.0011914971261978047 0.046749555668004109 0 -0.0014033943293431318 0.045672065602875921 0 -0.0022551062613622493 0.046461881652271678 0 -0.0028840904476347901 0.045273439052261888 0 -0.0046547690189886739 0.045776859645794858 0 -0.0022551062613622493 0.046461881652271678 0 -0.0028840904476347901 0.045273439052261888 0 -0.00068873633748668108 0.04785039563542029 0 -0.004550086612066016 0.043266405863286103 0 -0.0014033943293431318 0.045672065602875921 0 -0.0028840904476347901 0.045273439052261888 0 -0.0030318075063264956 0.044140139463193506 0 -0.0046547690189886739 0.045776859645794858 0 -0.0028840904476347901 0.045273439052261888 0 -0.0030318075063264956 0.044140139463193506 0 -0.004550086612066016 0.043266405863286103 0 -0.0039736548973955529 0.044433534905202222 0 -0.0074750253317509008 0.037229865778257973 0 -0.007495198984557137 0.037102407964035557 0 -0.0073687966889916046 0.037140851291447577 0 -0.0031886454469348072 0.044211803117531367 0 -0.0047346984745646426 0.045780688680252118 0 -0.0042827075614488268 0.04491167203321228 0 -0.0068683306952294493 0.041731225589948684 0 -0.0039736548973955529 0.044433534905202222 0 -0.0079602057270852823 0.037142078222929198 0 -0.0078987268561486988 0.037266247390987432 0 -0.0079282869074319053 0.037213365352481195 0 -0.0077912195354447799 0.037230445321553451 0 -0.0079602057270852823 0.037142078222929198 0 -0.008011633367149466 0.037216154782877549 0 -0.0079602057270852823 0.037142078222929198 0 -0.008011633367149466 0.037216154782877549 0 -0.0079282869074319053 0.037213365352481195 0 -0.008011633367149466 0.037216154782877549 0 -0.0079282869074319053 0.037213365352481195 0 -0.0078561272585727024 0.03712823246525087 0 -0.0079282869074319053 0.037213365352481195 0 -0.0078872135555058606 0.037260583785441705 0 -0.0078561272585727024 0.03712823246525087 0 -0.0036300303836268831 0.045934257669214197 0 -0.003721223259645072 0.046029777355590808 0 -0.003595191097316962 0.0460466619630246 0 -0.0037130838950131789 0.044619698735039952 0 -0.004690198462991152 0.044533305400190931 0 -0.0078987268561486988 0.037266247390987432 0 -0.0079282869074319053 0.037213365352481195 0 -0.0078872135555058606 0.037260583785441705 0 -0.0026212870832761337 0.048340482224066658 0 -0.0026020748979613353 0.04839969165365255 0 -0.0022217965550254707 0.047944177089574186 0 -0.0037130838950131789 0.044619698735039952 0 -0.0034566355814558579 0.044927442141346259 0 -0.0020530196521940684 0.043026455903990346 0 -0.0047046037442327483 0.045706968638387413 0 -0.0058203931285249876 0.042267694280937525 0 -0.0039736548973955529 0.044433534905202222 0 -0.0034566355814558579 0.044927442141346259 0 -0.0039736548973955529 0.044433534905202222 0 -0.0037130838950131789 0.044619698735039952 0 -0.0034566355814558579 0.044927442141346259 0 -0.0018900690801160757 0.047522048816677813 0 -0.004947584704113786 0.045738047866622077 0 -0.0042827075614488268 0.04491167203321228 0 -0.0052914488884483165 0.044675319930167406 0 -0.0031886454469348072 0.044211803117531367 0 -0.0042827075614488268 0.04491167203321228 0 -0.0052914488884483165 0.044675319930167406 0 -0.004550086612066016 0.043266405863286103 0 -0.0018900690801160757 0.047522048816677813 0 -0.0047346984745646426 0.045780688680252118 0 -0.004947584704113786 0.045738047866622077 0 -0.0042827075614488268 0.04491167203321228 0 -0.0034566355814558579 0.044927442141346259 0 -0.0007714824420866598 0.048685980030795786 0 -0.0018900690801160757 0.047522048816677813 0 -0.0007714824420866598 0.048685980030795786 0 -0.0013326884697096016 0.047538044021093837 0 -0.0013968900533770654 0.047338403525632324 0 -0.0018088666817602066 0.04744959449524435 0 0.0012228670849621104 0.054135183277468905 0 0.0014477238158811694 0.054235545979306236 0 0.0011310048666493279 0.054360994036944429 0 -0.0026020748979613353 0.04839969165365255 0 -0.0018257683382795181 0.048567037549374539 0 -0.0022217965550254707 0.047944177089574186 0 -0.0037130838950131789 0.044619698735039952 0 -0.0033057602814839104 0.047094998747433447 0 -0.0016340173591014376 0.048043348260781923 0 -0.0018257683382795181 0.048567037549374539 0 -0.0022217965550254707 0.047944177089574186 0 -0.00016590626904056205 0.049170545862336483 0 -0.0007714824420866598 0.048685980030795786 0 0.0010771170537576828 0.054226157176211681 0 0.0012228670849621104 0.054135183277468905 0 0.0011310048666493279 0.054360994036944429 0 0.00096589806170697533 0.054379044751210838 0 0.0010771170537576828 0.054226157176211681 0 0.0011310048666493279 0.054360994036944429 0 -0.0010754936177308366 0.054264969296857687 0 -0.0015392549134793051 0.05437866965097831 0 -0.0013131508984992747 0.054654069016606806 0 -0.0015392549134793051 0.05437866965097831 0 -0.0013131508984992747 0.054654069016606806 0 -0.0017087719245027786 0.054668842450898973 0 -0.0011907504376816888 0.055043901502493983 0 -0.0013131508984992747 0.054654069016606806 0 -0.0016278826790004372 0.054916046821056531 0 -0.0011907504376816888 0.055043901502493983 0 -0.0016278826790004372 0.054916046821056531 0 -0.001747015086713563 0.055034049188162085 0 -0.0016191123396249528 0.049173910244715693 0 -0.0033057602814839104 0.047094998747433447 0 -0.0013131508984992747 0.054654069016606806 0 -0.0016278826790004372 0.054916046821056531 0 -0.0017087719245027786 0.054668842450898973 0 -0.0016278826790004372 0.054916046821056531 0 -0.0019176480623401427 0.054890743745707286 0 -0.0017087719245027786 0.054668842450898973 0 -0.0016278826790004372 0.054916046821056531 0 -0.0017808129656453626 0.055090699577077872 0 -0.0019176480623401427 0.054890743745707286 0 -0.0034433441220621066 0.047412623101928529 0 -0.0033057602814839104 0.047094998747433447 0 -0.0019176480623401427 0.054890743745707286 0 -0.0017087719245027786 0.054668842450898973 0 -0.0020568859207579651 0.054736614609511666 0 -0.0017087719245027786 0.054668842450898973 0 -0.0019063041394801229 0.05445289253312529 0 -0.0020568859207579651 0.054736614609511666 0 -0.0015392549134793051 0.05437866965097831 0 -0.0017087719245027786 0.054668842450898973 0 -0.0019063041394801229 0.05445289253312529 0 -0.0015392549134793051 0.05437866965097831 0 -0.0019063041394801229 0.05445289253312529 0 -0.0019316428405699092 0.054145315952013363 0 -0.0019063041394801229 0.05445289253312529 0 -0.0020568859207579651 0.054736614609511666 0 -0.0027517297130845854 0.054370501411236331 0 -0.0020568859207579651 0.054736614609511666 0 -0.0023998376527107411 0.055033475751852995 0 -0.0027517297130845854 0.054370501411236331 0 -0.0017808129656453626 0.055090699577077872 0 -0.0019176480623401427 0.054890743745707286 0 -0.0023998376527107411 0.055033475751852995 0 -0.0033057602814839104 0.047094998747433447 0 -0.004690198462991152 0.044533305400190931 0 -0.0019176480623401427 0.054890743745707286 0 -0.0020568859207579651 0.054736614609511666 0 -0.0023998376527107411 0.055033475751852995 0 -0.008011633367149466 0.037216154782877549 0 -0.0078561272585727024 0.03712823246525087 0 -0.0081749607098979063 0.036974895708083579 0 -0.0097650126568822777 0.036769099073232878 0 -0.0093243937249760152 0.036824122129332108 0 -0.0095648096274923763 0.037479686583010652 0 -0.004690198462991152 0.044533305400190931 0 -0.0073874204757541709 0.042392948307729217 0 -0.0093243937249760152 0.036824122129332108 0 -0.0095648096274923763 0.037479686583010652 0 -0.0091706573786285543 0.037241355124666857 0 -0.004690198462991152 0.044533305400190931 0 -0.005569186107390196 0.045484318539763306 0 -0.005569186107390196 0.045484318539763306 0 -0.0062193511404837745 0.045612608570178362 0 -0.0095648096274923763 0.037479686583010652 0 -0.0094227905827559341 0.038237446703554605 0 -0.0089726241221384038 0.037652964022778096 0 -0.0027517297130845854 0.054370501411236331 0 -0.0033705405005848388 0.05357953583116825 0 -0.0024373296939091066 0.053640664675473938 0 -0.0033705405005848388 0.05357953583116825 0 -0.0024373296939091066 0.053640664675473938 0 -0.002314337718097264 0.052810753707844271 0 -0.0024373296939091066 0.053640664675473938 0 -0.0013354548513092406 0.053101857769627732 0 -0.002314337718097264 0.052810753707844271 0 -0.0019063041394801229 0.05445289253312529 0 -0.0027517297130845854 0.054370501411236331 0 -0.0019316428405699092 0.054145315952013363 0 -0.0027517297130845854 0.054370501411236331 0 -0.0024373296939091066 0.053640664675473938 0 -0.0019316428405699092 0.054145315952013363 0 -0.0015392549134793051 0.05437866965097831 0 -0.0019316428405699092 0.054145315952013363 0 -0.0014010516402235013 0.054031096163722869 0 -0.0016596304880236244 0.053732782499651147 0 -0.0014551024059066189 0.053356190998175158 0 -0.0019316428405699092 0.054145315952013363 0 -0.0014010516402235013 0.054031096163722869 0 -0.0014903210584514947 0.053586205584579723 0 -0.0024373296939091066 0.053640664675473938 0 -0.0019316428405699092 0.054145315952013363 0 -0.0013354548513092406 0.053101857769627732 0 -0.0010237916538092531 0.053812457666970875 0 -0.0014903210584514947 0.053586205584579723 0 -0.0010028581119291384 0.053474394547419292 0 -0.0010237916538092531 0.053812457666970875 0 -0.0014010516402235013 0.054031096163722869 0 -0.0014903210584514947 0.053586205584579723 0 -0.0010754936177308366 0.054264969296857687 0 -0.0015392549134793051 0.05437866965097831 0 -0.0014010516402235013 0.054031096163722869 0 -0.0010754936177308366 0.054264969296857687 0 -0.0010237916538092531 0.053812457666970875 0 -0.0014010516402235013 0.054031096163722869 0 -0.0081707763228751028 0.037051143755724006 0 -0.0084557686452840647 0.037207331448542928 0 -0.0081002860707749275 0.037499034543669769 0 -0.0081707763228751028 0.037051143755724006 0 -0.0076155112257101807 0.037252467810557972 0 -0.0081002860707749275 0.037499034543669769 0 -0.0071642585043406072 0.036630181194450488 0 -0.0075709533558000501 0.036896267862069405 0 -0.007473869160334286 0.036439383983515844 0 -0.0071642585043406072 0.036630181194450488 0 -0.0070331615596595717 0.036009317074422897 0 -0.0068847054619936496 0.036063140315538582 0 -0.0069459348792714551 0.035978429079684154 0 -0.0068847054619936496 0.036063140315538582 0 -0.0069459348792714551 0.035978429079684154 0 -0.0068771114511689364 0.035967711112199777 0 -0.0069459348792714551 0.035978429079684154 0 -0.0069361663458388772 0.035901159173342877 0 -0.0070157872443047126 0.035961155949313997 0 -0.0068771114511689364 0.035967711112199777 0 -0.0069361663458388772 0.035901159173342877 0 -0.0068216577916616608 0.035876759905021365 0 -0.0063497672811160949 0.035348283887218453 0 -0.0060304527945286082 0.035025537949372396 0 -0.0069459348792714551 0.035978429079684154 0 -0.0068771114511689364 0.035967711112199777 0 -0.0069361663458388772 0.035901159173342877 0 -0.0069361663458388772 0.035901159173342877 0 -0.0070157872443047126 0.035961155949313997 0 -0.0070524731493756239 0.035925684494823279 0 -0.0063497672811160949 0.035348283887218453 0 -0.0068605083800898151 0.035746746484533284 0 -0.0070331615596595717 0.036009317074422897 0 -0.0069459348792714551 0.035978429079684154 0 -0.0070157872443047126 0.035961155949313997 0 -0.0070331615596595717 0.036009317074422897 0 -0.0070157872443047126 0.035961155949313997 0 -0.0070666605307608144 0.035953260049349421 0 -0.0070157872443047126 0.035961155949313997 0 -0.0070666605307608144 0.035953260049349421 0 -0.0070524731493756239 0.035925684494823279 0 -0.0068645917026624861 0.035753365883934032 0 -0.0068605083800898151 0.035746746484533284 0 -0.0068280217290776213 0.037492674292552416 0 -0.007401087033730964 0.037244019467070039 0 -0.0075444316064850079 0.037504620679509222 0 -0.0070666605307608144 0.035953260049349421 0 -0.007052610527927221 0.035925578594650863 0 -0.007185646176021597 0.03595491502217537 0 -0.0070331615596595717 0.036009317074422897 0 -0.0070666605307608144 0.035953260049349421 0 -0.007185646176021597 0.03595491502217537 0 -0.007473869160334286 0.036439383983515844 0 -0.0075894422883024427 0.036259303270122237 0 -0.0068605083800898151 0.035746746484533284 0 -0.0075894422883024427 0.036259303270122237 0 -0.0071326879375016791 0.037026293056975711 0 -0.0068280217290776213 0.037492674292552416 0 -0.007401087033730964 0.037244019467070039 0 -0.007401087033730964 0.037244019467070039 0 -0.0075444316064850079 0.037504620679509222 0 -0.0075790078233408109 0.037277572772495458 0 -0.0087707681587831845 0.036880689208883218 0 -0.008798982416154854 0.037017163017965114 0 -0.0084557686452840647 0.037207331448542928 0 -0.0088550369438322504 0.036905904363529821 0 -0.0087707681587831845 0.036880689208883218 0 -0.008798982416154854 0.037017163017965114 0 -0.0075993606869573889 0.036262111347541225 0 -0.0075894422883024427 0.036259303270122237 0 -0.0093243937249760152 0.036824122129332108 0 -0.0087938627907353534 0.036893704130241296 0 -0.0089777613026273892 0.037049422037608623 0 -0.008011633367149466 0.037216154782877549 0 -0.0081749607098979063 0.036974895708083579 0 -0.0087938627907353534 0.036893704130241296 0 -0.008011633367149466 0.037216154782877549 0 -0.0088550369438322504 0.036905904363529821 0 -0.0087938627907353534 0.036893704130241296 0 -0.0077912195354447799 0.037230445321553451 0 -0.008011633367149466 0.037216154782877549 0 -0.0075444316064850079 0.037504620679509222 0 -0.008011633367149466 0.037216154782877549 0 -0.0088550369438322504 0.036905904363529821 0 -0.0089328188954916135 0.03692500697229964 0 -0.0073874204757541709 0.042392948307729217 0 -0.0080410652734101695 0.041757047705089007 0 -0.0077533393595801353 0.036477121668269802 0 -0.0075894422883024427 0.036259303270122237 0 -0.0077912195354447799 0.037230445321553451 0 -0.0075444316064850079 0.037504620679509222 0 -0.0075790078233408109 0.037277572772495458 0 -0.0088550369438322504 0.036905904363529821 0 -0.008798982416154854 0.037017163017965114 0 -0.0087938627907353534 0.036893704130241296 0 -0.008798982416154854 0.037017163017965114 0 -0.0087938627907353534 0.036893704130241296 0 -0.0089777613026273892 0.037049422037608623 0 -0.0093243937249760152 0.036824122129332108 0 -0.0089777613026273892 0.037049422037608623 0 -0.0091706573786285543 0.037241355124666857 0 -0.0095648096274923763 0.037479686583010652 0 -0.0091706573786285543 0.037241355124666857 0 -0.0089726241221384038 0.037652964022778096 0 -0.0089777613026273892 0.037049422037608623 0 -0.0091706573786285543 0.037241355124666857 0 -0.0088668690909606759 0.037239906816796196 0 -0.008798982416154854 0.037017163017965114 0 -0.0089777613026273892 0.037049422037608623 0 -0.0088668690909606759 0.037239906816796196 0 -0.0088668690909606759 0.037239906816796196 0 -0.0087000157019271693 0.037433079340474858 0 -0.0089726241221384038 0.037652964022778096 0 -0.0091706573786285543 0.037241355124666857 0 -0.0088668690909606759 0.037239906816796196 0 -0.0089726241221384038 0.037652964022778096 0 -0.0081707763228751028 0.037051143755724006 0 -0.0087707681587831845 0.036880689208883218 0 -0.0084557686452840647 0.037207331448542928 0 -0.0084557686452840647 0.037207331448542928 0 -0.0087000157019271693 0.037433079340474858 0 -0.0084673252226753776 0.037666924083317191 0 -0.008798982416154854 0.037017163017965114 0 -0.0088668690909606759 0.037239906816796196 0 -0.0084557686452840647 0.037207331448542928 0 -0.0088668690909606759 0.037239906816796196 0 -0.0084557686452840647 0.037207331448542928 0 -0.0087000157019271693 0.037433079340474858 0 -0.0087000157019271693 0.037433079340474858 0 -0.0084673252226753776 0.037666924083317191 0 -0.0089726241221384038 0.037652964022778096 0 -0.0084673252226753776 0.037666924083317191 0 -0.0089726241221384038 0.037652964022778096 0 -0.008557215910994169 0.038257235352711229 0 -0.0094227905827559341 0.038237446703554605 0 -0.0089726241221384038 0.037652964022778096 0 -0.008557215910994169 0.038257235352711229 0 -0.008557215910994169 0.038257235352711229 0 -0.0080036196357209238 0.038028930126138588 0 -0.0076878115413043921 0.038763384360114103 0 -0.0084673252226753776 0.037666924083317191 0 -0.008557215910994169 0.038257235352711229 0 -0.0080036196357209238 0.038028930126138588 0 -0.0084557686452840647 0.037207331448542928 0 -0.0084673252226753776 0.037666924083317191 0 -0.0081002860707749275 0.037499034543669769 0 -0.0084673252226753776 0.037666924083317191 0 -0.0080036196357209238 0.038028930126138588 0 -0.0081002860707749275 0.037499034543669769 0 -0.0074941449275516703 0.037102514320802159 0 -0.007604743421293623 0.037731061036175351 0 -0.007274466924858768 0.037466929270717486 0 -0.0080036196357209238 0.038028930126138588 0 -0.0081002860707749275 0.037499034543669769 0 -0.007604743421293623 0.037731061036175351 0 -0.0074941449275516703 0.037102514320802159 0 -0.0081002860707749275 0.037499034543669769 0 -0.007604743421293623 0.037731061036175351 0 -0.0076101285260134965 0.038159360224143846 0 -0.0071518361115740963 0.038108144999803806 0 -0.0076878115413043921 0.038763384360114103 0 -0.0080036196357209238 0.038028930126138588 0 -0.0076101285260134965 0.038159360224143846 0 -0.0076878115413043921 0.038763384360114103 0 -0.007604743421293623 0.037731061036175351 0 -0.0076101285260134965 0.038159360224143846 0 -0.0071518361115740963 0.038108144999803806 0 -0.0080036196357209238 0.038028930126138588 0 -0.007604743421293623 0.037731061036175351 0 -0.0076101285260134965 0.038159360224143846 0 -0.0067104296022628311 0.038116197906779122 0 -0.0060114803359664079 0.038239020548400414 0 -0.0059059524468882555 0.037878429034450906 0 -0.0067104296022628311 0.038116197906779122 0 -0.0060114803359664079 0.038239020548400414 0 -0.0063659272118349085 0.03848735430896396 0 -0.0067104296022628311 0.038116197906779122 0 -0.0059059524468882555 0.037878429034450906 0 -0.00598567846804063 0.03743987486519805 0 -0.0065382139681820651 0.03694213291299376 0 -0.006996075834014957 0.037482719718468678 0 -0.0066065042688605528 0.036402985271277298 0 -0.0068952070724208536 0.038055021133175521 0 -0.0060889881114303277 0.037231215736675066 0 -0.0071518361115740963 0.038108144999803806 0 -0.0063462252217773496 0.03723967627411464 0 -0.0065949005489279473 0.037306269285468957 0 -0.0062477235707313972 0.037174560796901589 0 -0.0065382139681820651 0.03694213291299376 0 -0.0062272525128789138 0.03654397243105361 0 -0.0062477235707313972 0.037174560796901589 0 -0.0065382139681820651 0.03694213291299376 0 -0.0065949005489279473 0.037306269285468957 0 -0.0060889881114303277 0.037231215736675066 0 -0.0061128294141226331 0.037235877265788968 0 -0.0065382139681820651 0.03694213291299376 0 -0.0065949005489279473 0.037306269285468957 0 -0.006996075834014957 0.037482719718468678 0 -0.007274466924858768 0.037466929270717486 0 -0.006996075834014957 0.037482719718468678 0 -0.0070887202174196714 0.037233589111819634 0 -0.0071518361115740963 0.038108144999803806 0 -0.0065949005489279473 0.037306269285468957 0 -0.006996075834014957 0.037482719718468678 0 -0.007604743421293623 0.037731061036175351 0 -0.0071518361115740963 0.038108144999803806 0 -0.007274466924858768 0.037466929270717486 0 -0.0071518361115740963 0.038108144999803806 0 -0.007274466924858768 0.037466929270717486 0 -0.006996075834014957 0.037482719718468678 0 -0.0066669026442037387 0.037874980802733348 0 -0.0054900947330927246 0.037259670575259488 0 -0.0058071449320657468 0.03796413250310085 0 -0.0061282391218158991 0.038328479352225511 0 -0.0066669026442037387 0.037874980802733348 0 -0.0064258013124585895 0.038906152588774223 0 -0.0061282391218158991 0.038328479352225511 0 -0.0058071449320657468 0.03796413250310085 0 -0.0055967214536278261 0.038570252474372867 0 -0.0061282391218158991 0.038328479352225511 0 -0.0066669026442037387 0.037874980802733348 0 -0.0058071449320657468 0.03796413250310085 0 -0.0060114803359664079 0.038239020548400414 0 -0.0052293222768876758 0.037971861941844022 0 -0.0058551984685121091 0.038828168208895369 0 -0.0060114803359664079 0.038239020548400414 0 -0.0059059524468882555 0.037878429034450906 0 -0.0052293222768876758 0.037971861941844022 0 -0.0059059524468882555 0.037878429034450906 0 -0.0052293222768876758 0.037971861941844022 0 -0.0056033600325402794 0.037622587950049385 0 -0.00598567846804063 0.03743987486519805 0 -0.0056033600325402794 0.037622587950049385 0 -0.0052931667413172422 0.03728754192430947 0 -0.0061020654635562934 0.036771485344469008 0 -0.0053755638445008667 0.036597005697163454 0 -0.0056509925218371886 0.03634332614936598 0 -0.0052293222768876758 0.037971861941844022 0 -0.0056033600325402794 0.037622587950049385 0 -0.0052931667413172422 0.03728754192430947 0 -0.0060889881114303277 0.037231215736675066 0 -0.0054352936363054266 0.037040217857887928 0 -0.0059059524468882555 0.037878429034450906 0 -0.00598567846804063 0.03743987486519805 0 -0.0056033600325402794 0.037622587950049385 0 -0.0060889881114303277 0.037231215736675066 0 -0.0059697997283011776 0.037075597691597684 0 -0.0057903803965853474 0.037943965467999045 0 -0.0049429538163385201 0.036910360910188809 0 -0.0052293222768876758 0.037971861941844022 0 -0.0052931667413172422 0.03728754192430947 0 -0.0046064987121745508 0.037132468200361743 0 -0.0066669026442037387 0.037874980802733348 0 -0.0055761006586445032 0.036302932129264921 0 -0.0054900947330927246 0.037259670575259488 0 -0.0054352936363054266 0.037040217857887928 0 -0.0049429538163385201 0.036910360910188809 0 -0.0053755638445008667 0.036597005697163454 0 -0.0048882653866008981 0.036228104699383458 0 -0.0045344236392236368 0.036335656136955136 0 -0.0047508665065336677 0.035918895418053202 0 -0.0048882653866008981 0.036228104699383458 0 -0.0051547560364343433 0.036182971740172418 0 -0.0047508665065336677 0.035918895418053202 0 -0.0051547560364343433 0.036182971740172418 0 -0.0050469207572130543 0.03579645569288737 0 -0.0047508665065336677 0.035918895418053202 0 -0.0048882653866008981 0.036228104699383458 0 -0.0046217264625073385 0.036097965347883607 0 -0.0053755638445008667 0.036597005697163454 0 -0.0048882653866008981 0.036228104699383458 0 -0.0051547560364343433 0.036182971740172418 0 -0.0051547560364343433 0.036182971740172418 0 -0.0050469207572130543 0.03579645569288737 0 -0.0053595090262401855 0.035954496916698268 0 -0.0051547560364343433 0.036182971740172418 0 -0.0053595090262401855 0.035954496916698268 0 -0.0056509925218371886 0.03634332614936598 0 -0.0053595090262401855 0.035954496916698268 0 -0.0056509925218371886 0.03634332614936598 0 -0.0056637473551581956 0.035810747918685208 0 -0.0053755638445008667 0.036597005697163454 0 -0.0051547560364343433 0.036182971740172418 0 -0.0056509925218371886 0.03634332614936598 0 -0.0062477235707313972 0.037174560796901589 0 -0.0056509925218371886 0.03634332614936598 0 -0.0062272525128789138 0.03654397243105361 0 -0.0056509925218371886 0.03634332614936598 0 -0.0061420767798124392 0.036009446542508837 0 -0.0062272525128789138 0.03654397243105361 0 -0.0056509925218371886 0.03634332614936598 0 -0.0061420767798124392 0.036009446542508837 0 -0.0056637473551581956 0.035810747918685208 0 -0.0061420767798124392 0.036009446542508837 0 -0.0058550200668377557 0.035288847402487764 0 -0.0056637473551581956 0.035810747918685208 0 -0.0058550200668377557 0.035288847402487764 0 -0.0056637473551581956 0.035810747918685208 0 -0.005343630331786791 0.035458806350024422 0 -0.0053595090262401855 0.035954496916698268 0 -0.0056637473551581956 0.035810747918685208 0 -0.005343630331786791 0.035458806350024422 0 -0.005343630331786791 0.035458806350024422 0 -0.0046857512620643747 0.034613551619153179 0 -0.0046768107800311907 0.035114676148657903 0 -0.0058550200668377557 0.035288847402487764 0 -0.005343630331786791 0.035458806350024422 0 -0.0046857512620643747 0.034613551619153179 0 -0.0050469207572130543 0.03579645569288737 0 -0.0053595090262401855 0.035954496916698268 0 -0.005343630331786791 0.035458806350024422 0 -0.0050469207572130543 0.03579645569288737 0 -0.005343630331786791 0.035458806350024422 0 -0.0049875276482845635 0.035478368267651564 0 -0.005343630331786791 0.035458806350024422 0 -0.0049875276482845635 0.035478368267651564 0 -0.0046768107800311907 0.035114676148657903 0 -0.0049875276482845635 0.035478368267651564 0 -0.004694014280154174 0.035478192890622255 0 -0.0046768107800311907 0.035114676148657903 0 -0.0050469207572130543 0.03579645569288737 0 -0.0049875276482845635 0.035478368267651564 0 -0.004694014280154174 0.035478192890622255 0 -0.0047508665065336677 0.035918895418053202 0 -0.0050469207572130543 0.03579645569288737 0 -0.004694014280154174 0.035478192890622255 0 -0.0065319265649492458 0.036605687362896093 0 -0.0064826940009816668 0.036094412048621551 0 -0.006996075834014957 0.037482719718468678 0 -0.0071181193368515441 0.036976428075644073 0 -0.0070887202174196714 0.037233589111819634 0 -0.0068847054619936496 0.036063140315538582 0 -0.0068771114511689364 0.035967711112199777 0 -0.0067973594061117191 0.036018664912652654 0 -0.0071642585043406072 0.036630181194450488 0 -0.0064826940009816668 0.036094412048621551 0 -0.0071642585043406072 0.036630181194450488 0 -0.0071376851271447161 0.036684478627555341 0 -0.0073960916990699491 0.037119694452017307 0 -0.0071181193368515441 0.036976428075644073 0 -0.0070887202174196714 0.037233589111819634 0 -0.0074941449275516703 0.037102514320802159 0 -0.007274466924858768 0.037466929270717486 0 -0.0070887202174196714 0.037233589111819634 0 -0.006996075834014957 0.037482719718468678 0 -0.0073280722924166887 0.036042990474528427 0 -0.0066065042688605528 0.036402985271277298 0 -0.0061420767798124392 0.036009446542508837 0 -0.0073280722924166887 0.036042990474528427 0 -0.0066065042688605528 0.036402985271277298 0 -0.0061420767798124392 0.036009446542508837 0 -0.0066065042688605528 0.036402985271277298 0 -0.0062272525128789138 0.03654397243105361 0 -0.0065382139681820651 0.03694213291299376 0 -0.0066065042688605528 0.036402985271277298 0 -0.0062272525128789138 0.03654397243105361 0 -0.0061420767798124392 0.036009446542508837 0 -0.0058550200668377557 0.035288847402487764 0 -0.0073280722924166887 0.036042990474528427 0 -0.0057169039856298292 0.035424216940040727 0 -0.0064826940009816668 0.036094412048621551 0 -0.0056521341228022298 0.035084282891693581 0 -0.006563069604462202 0.035539647039332149 0 -0.0062065163015680514 0.035115456018677778 0 -0.0062065163015680514 0.035115456018677778 0 -0.0060809352280928007 0.034920649300960546 0 -0.006688202167575345 0.034842185187993056 0 -0.0056521341228022298 0.035084282891693581 0 -0.0062065163015680514 0.035115456018677778 0 -0.0060809352280928007 0.034920649300960546 0 -0.0064826940009816668 0.036094412048621551 0 -0.0060304527945286082 0.035025537949372396 0 -0.0068771114511689364 0.035967711112199777 0 -0.0067973594061117191 0.036018664912652654 0 -0.0068216577916616608 0.035876759905021365 0 -0.006563069604462202 0.035539647039332149 0 -0.0062065163015680514 0.035115456018677778 0 -0.006688202167575345 0.034842185187993056 0 -0.0053329122286574545 0.034230784193550481 0 -0.005168824198951618 0.03435985790546435 0 -0.0052194847313414968 0.034088544282093423 0 -0.0052080307998568472 0.034181074007423061 0 -0.0052379383027228998 0.033996622302605778 0 -0.0050693941103350584 0.034052762171466647 0 -0.0060304527945286082 0.035025537949372396 0 -0.0058840588111982546 0.034497726080465085 0 -0.0058840588111982546 0.034497726080465085 0 -0.005839875799206324 0.034327398301659963 0 -0.0052379383027228998 0.033996622302605778 0 -0.005143284131469225 0.033862997573799659 0 -0.0052665920859537221 0.033832332265754717 0 -0.0052379383027228998 0.033996622302605778 0 -0.0051178530596823662 0.033956094029711364 0 -0.005143284131469225 0.033862997573799659 0 -0.0052379383027228998 0.033996622302605778 0 -0.0051178530596823662 0.033956094029711364 0 -0.0050693941103350584 0.034052762171466647 0 -0.0050176705401698907 0.033912270878549332 0 -0.0049340195337181829 0.033972779296949085 0 -0.0048971010397907766 0.033850455696184903 0 -0.0051178530596823662 0.033956094029711364 0 -0.005143284131469225 0.033862997573799659 0 -0.0050176705401698907 0.033912270878549332 0 -0.0051178530596823662 0.033956094029711364 0 -0.0050176705401698907 0.033912270878549332 0 -0.0050693941103350584 0.034052762171466647 0 -0.0050176705401698907 0.033912270878549332 0 -0.0049340195337181829 0.033972779296949085 0 -0.0050693941103350584 0.034052762171466647 0 -0.0060304527945286082 0.035025537949372396 0 -0.005306411165778205 0.034614160846521046 0 -0.0049340195337181829 0.033972779296949085 0 -0.0050693941103350584 0.034052762171466647 0 -0.0049064702965600686 0.034119487407584505 0 -0.0052080307998568472 0.034181074007423061 0 -0.0050693941103350584 0.034052762171466647 0 -0.0049064702965600686 0.034119487407584505 0 -0.0060809352280928007 0.034920649300960546 0 -0.006688202167575345 0.034842185187993056 0 -0.0057753986224272835 0.034643343860209785 0 -0.0056521341228022298 0.035084282891693581 0 -0.0060809352280928007 0.034920649300960546 0 -0.0057753986224272835 0.034643343860209785 0 -0.005306411165778205 0.034614160846521046 0 -0.0046476571042177207 0.034369454630138838 0 -0.0056521341228022298 0.035084282891693581 0 -0.0057753986224272835 0.034643343860209785 0 -0.0052366733396924147 0.034691220797577048 0 -0.0057753986224272835 0.034643343860209785 0 -0.0052366733396924147 0.034691220797577048 0 -0.0048263064631831913 0.034425965501926843 0 -0.0056521341228022298 0.035084282891693581 0 -0.0052366733396924147 0.034691220797577048 0 -0.0046857512620643747 0.034613551619153179 0 -0.0049064702965600686 0.034119487407584505 0 -0.0045913637740787961 0.034097586816182412 0 -0.0046857949020173992 0.033993927537109933 0 -0.0057169039856298292 0.035424216940040727 0 -0.0051674617580093228 0.035068629780041473 0 -0.0052366733396924147 0.034691220797577048 0 -0.0048263064631831913 0.034425965501926843 0 -0.0046857512620643747 0.034613551619153179 0 -0.0045782846992395198 0.033824165727039231 0 -0.004787236259369841 0.033922580444781102 0 -0.0047882729431686236 0.033701290770134951 0 -0.0046857949020173992 0.033993927537109933 0 -0.0045782846992395198 0.033824165727039231 0 -0.0044531627486491827 0.033908123991374488 0 -0.0045913637740787961 0.034097586816182412 0 -0.0046857949020173992 0.033993927537109933 0 -0.0044531627486491827 0.033908123991374488 0 -0.0046857949020173992 0.033993927537109933 0 -0.0045782846992395198 0.033824165727039231 0 -0.004787236259369841 0.033922580444781102 0 -0.0049064702965600686 0.034119487407584505 0 -0.0046857949020173992 0.033993927537109933 0 -0.004787236259369841 0.033922580444781102 0 -0.0049340195337181829 0.033972779296949085 0 -0.0049064702965600686 0.034119487407584505 0 -0.004787236259369841 0.033922580444781102 0 -0.0049340195337181829 0.033972779296949085 0 -0.004787236259369841 0.033922580444781102 0 -0.0048971010397907766 0.033850455696184903 0 -0.0048971010397907766 0.033850455696184903 0 -0.0047882729431686236 0.033701290770134951 0 -0.0050197377347941524 0.033717007863517036 0 -0.004787236259369841 0.033922580444781102 0 -0.0048971010397907766 0.033850455696184903 0 -0.0047882729431686236 0.033701290770134951 0 -0.0047882729431686236 0.033701290770134951 0 -0.0049376658960465555 0.033546512587082224 0 -0.0050197377347941524 0.033717007863517036 0 -0.0045782846992395198 0.033824165727039231 0 -0.0047882729431686236 0.033701290770134951 0 -0.0045092477005954151 0.033612365313405203 0 -0.0046894555760137128 0.033430257180396813 0 -0.0047882729431686236 0.033701290770134951 0 -0.0045092477005954151 0.033612365313405203 0 -0.0046894555760137128 0.033430257180396813 0 -0.0045092477005954151 0.033612365313405203 0 -0.0044265423421511177 0.033406295209948617 0 -0.0046894555760137128 0.033430257180396813 0 -0.0047882729431686236 0.033701290770134951 0 -0.0049376658960465555 0.033546512587082224 0 -0.0051929330219036137 0.033517711522183288 0 -0.0049376658960465555 0.033546512587082224 0 -0.0050197377347941524 0.033717007863517036 0 -0.0051929330219036137 0.033517711522183288 0 -0.005839383634594659 0.033846060376310376 0 -0.0055097871388786234 0.034798303146059292 0 -0.0051929330219036137 0.033517711522183288 0 -0.0052819407357668153 0.033699328907524098 0 -0.005177229307585132 0.033709329940707161 0 -0.0051929330219036137 0.033517711522183288 0 -0.005177229307585132 0.033709329940707161 0 -0.0050197377347941524 0.033717007863517036 0 -0.0054293086309889077 0.033975879488277558 0 -0.0056331152182081201 0.034339700893013039 0 -0.0052819407357668153 0.033699328907524098 0 -0.005177229307585132 0.033709329940707161 0 -0.0052665920859537221 0.033832332265754717 0 -0.005143284131469225 0.033862997573799659 0 -0.005177229307585132 0.033709329940707161 0 -0.0052665920859537221 0.033832332265754717 0 -0.005143284131469225 0.033862997573799659 0 -0.005177229307585132 0.033709329940707161 0 -0.0050197377347941524 0.033717007863517036 0 -0.005143284131469225 0.033862997573799659 0 -0.0050176705401698907 0.033912270878549332 0 -0.0050197377347941524 0.033717007863517036 0 -0.0050176705401698907 0.033912270878549332 0 -0.0048971010397907766 0.033850455696184903 0 -0.0050197377347941524 0.033717007863517036 0 -0.0027458165514777037 0.032852905858527869 0 -0.0035457586399610403 0.03316826039394518 0 -0.0029256978816492932 0.033735440375447706 0 -0.0027458165514777037 0.032852905858527869 0 -0.0029256978816492932 0.033735440375447706 0 -0.0020743503759034563 0.033439619235241691 0 -0.0027458165514777037 0.032852905858527869 0 -0.0033161740401886708 0.03208393117116054 0 -0.0035457586399610403 0.03316826039394518 0 -0.0027458165514777037 0.032852905858527869 0 -0.0021027567141720274 0.03256804896568409 0 -0.0020743503759034563 0.033439619235241691 0 -0.0013173065421126953 0.032860985513478942 0 -0.0021027567141720274 0.03256804896568409 0 -0.0020743503759034563 0.033439619235241691 0 -0.0027458165514777037 0.032852905858527869 0 -0.0021027567141720274 0.03256804896568409 0 -0.0025813282771448755 0.032059310810507009 0 -0.0013173065421126953 0.032860985513478942 0 -0.0018518612728753319 0.03156226991064133 0 -0.0021027567141720274 0.03256804896568409 0 -0.0018518612728753319 0.03156226991064133 0 -0.0021027567141720274 0.03256804896568409 0 -0.0025813282771448755 0.032059310810507009 0 -0.002890241753291813 0.031170554764672453 0 -0.0025813282771448755 0.032059310810507009 0 -0.0033161740401886708 0.03208393117116054 0 -0.0027458165514777037 0.032852905858527869 0 -0.0025813282771448755 0.032059310810507009 0 -0.0033161740401886708 0.03208393117116054 0 -0.0033161740401886708 0.03208393117116054 0 -0.0042198637693047266 0.032391308983210729 0 -0.0035457586399610403 0.03316826039394518 0 -0.0037531316094275933 0.031210442022969777 0 -0.0040943739033254137 0.032594484206946009 0 -0.0039764213401523524 0.031063979942350405 0 -0.0033161740401886708 0.03208393117116054 0 -0.0042198637693047266 0.032391308983210729 0 -0.004157671891795966 0.0332335382770882 0 -0.004288089701402 0.033554591636889834 0 -0.0044265423421511177 0.033406295209948617 0 -0.0045092477005954151 0.033612365313405203 0 -0.004288089701402 0.033554591636889834 0 -0.0044265423421511177 0.033406295209948617 0 -0.0040943739033254137 0.032594484206946009 0 -0.0042035393532806487 0.033073507492744424 0 -0.0045782846992395198 0.033824165727039231 0 -0.0045092477005954151 0.033612365313405203 0 -0.0043246474052163033 0.033733809633401966 0 -0.0045092477005954151 0.033612365313405203 0 -0.004288089701402 0.033554591636889834 0 -0.0043246474052163033 0.033733809633401966 0 -0.0042198637693047266 0.032391308983210729 0 -0.0035457586399610403 0.03316826039394518 0 -0.0043246474052163033 0.033733809633401966 0 -0.0035457586399610403 0.03316826039394518 0 -0.0037186488090191774 0.034060131584209535 0 -0.0029256978816492932 0.033735440375447706 0 -0.0035457586399610403 0.03316826039394518 0 -0.0037186488090191774 0.034060131584209535 0 -0.0043246474052163033 0.033733809633401966 0 -0.0037186488090191774 0.034060131584209535 0 -0.0043246474052163033 0.033733809633401966 0 -0.0044531627486491827 0.033908123991374488 0 -0.0045913637740787961 0.034097586816182412 0 -0.0037186488090191774 0.034060131584209535 0 -0.0044531627486491827 0.033908123991374488 0 -0.0045782846992395198 0.033824165727039231 0 -0.0043246474052163033 0.033733809633401966 0 -0.0044531627486491827 0.033908123991374488 0 -0.0048263064631831913 0.034425965501926843 0 -0.0037186488090191774 0.034060131584209535 0 -0.0043209350698054467 0.034551023789789186 0 -0.0046476571042177207 0.034369454630138838 0 -0.0042047716140267569 0.034248337272802687 0 -0.0048263064631831913 0.034425965501926843 0 -0.0046857512620643747 0.034613551619153179 0 -0.0043209350698054467 0.034551023789789186 0 -0.0043209350698054467 0.034551023789789186 0 -0.0043905897613940809 0.034858895887734449 0 -0.0039697487471540924 0.034809702344810636 0 -0.0046857512620643747 0.034613551619153179 0 -0.0043209350698054467 0.034551023789789186 0 -0.0043905897613940809 0.034858895887734449 0 -0.0046857512620643747 0.034613551619153179 0 -0.0043905897613940809 0.034858895887734449 0 -0.0046768107800311907 0.035114676148657903 0 -0.0037186488090191774 0.034060131584209535 0 -0.0039697487471540924 0.034809702344810636 0 -0.0033218907555354798 0.034883720647716193 0 -0.0037186488090191774 0.034060131584209535 0 -0.0033218907555354798 0.034883720647716193 0 -0.0030046339947646474 0.034376875493842579 0 -0.0037186488090191774 0.034060131584209535 0 -0.0043209350698054467 0.034551023789789186 0 -0.0039697487471540924 0.034809702344810636 0 -0.0033218907555354798 0.034883720647716193 0 -0.0030046339947646474 0.034376875493842579 0 -0.0026807455147495867 0.034927409775965451 0 -0.0030046339947646474 0.034376875493842579 0 -0.0023443595297594918 0.03418313549607422 0 -0.0026807455147495867 0.034927409775965451 0 -0.0037186488090191774 0.034060131584209535 0 -0.0030046339947646474 0.034376875493842579 0 -0.0029256978816492932 0.033735440375447706 0 -0.0030046339947646474 0.034376875493842579 0 -0.0029256978816492932 0.033735440375447706 0 -0.0023443595297594918 0.03418313549607422 0 -0.0029256978816492932 0.033735440375447706 0 -0.0020743503759034563 0.033439619235241691 0 -0.0023443595297594918 0.03418313549607422 0 -0.0020743503759034563 0.033439619235241691 0 -0.001814237346242835 0.034056196820009224 0 -0.0023443595297594918 0.03418313549607422 0 -0.0014802393136556051 0.033696728560130063 0 -0.0020743503759034563 0.033439619235241691 0 -0.001814237346242835 0.034056196820009224 0 -0.001814237346242835 0.034056196820009224 0 -0.0023443595297594918 0.03418313549607422 0 -0.0019176256050448296 0.034562057987437798 0 -0.0019176256050448296 0.034562057987437798 0 -0.002112484580794475 0.035070571329919538 0 -0.0026807455147495867 0.034927409775965451 0 -0.0023443595297594918 0.03418313549607422 0 -0.0019176256050448296 0.034562057987437798 0 -0.0026807455147495867 0.034927409775965451 0 -0.002112484580794475 0.035070571329919538 0 -0.0026807455147495867 0.034927409775965451 0 -0.0028398310081942332 0.035796945588270471 0 -0.002112484580794475 0.035070571329919538 0 -0.0028398310081942332 0.035796945588270471 0 -0.0020484503036614335 0.035707988898605353 0 -0.0033218907555354798 0.034883720647716193 0 -0.0028398310081942332 0.035796945588270471 0 -0.0036976248933299973 0.035427095146943616 0 -0.0033218907555354798 0.034883720647716193 0 -0.0026807455147495867 0.034927409775965451 0 -0.0028398310081942332 0.035796945588270471 0 -0.0037074847176038332 0.036353804421107673 0 -0.0041365288626795003 0.036513864919095092 0 -0.0028398310081942332 0.035796945588270471 0 -0.0042252744589182161 0.036007246782981436 0 -0.0036078315095179128 0.036720846346789189 0 -0.0028398310081942332 0.035796945588270471 0 -0.002834944355837983 0.036672106187528503 0 -0.0036078315095179128 0.036720846346789189 0 -0.0028398310081942332 0.035796945588270471 0 -0.0022621423364287971 0.036371443169483743 0 -0.002834944355837983 0.036672106187528503 0 -0.0022621423364287971 0.036371443169483743 0 -0.0018667640366518462 0.036146627107026291 0 -0.0020484503036614335 0.035707988898605353 0 -0.0017426496125304014 0.036561332104153056 0 -0.0022621423364287971 0.036371443169483743 0 -0.0018667640366518462 0.036146627107026291 0 -0.0028398310081942332 0.035796945588270471 0 -0.0022621423364287971 0.036371443169483743 0 -0.0020484503036614335 0.035707988898605353 0 -0.0047508665065336677 0.035918895418053202 0 -0.0044410310718225182 0.035657018299003841 0 -0.004694014280154174 0.035478192890622255 0 -0.0044410310718225182 0.035657018299003841 0 -0.004694014280154174 0.035478192890622255 0 -0.0042458259225358419 0.035277178223857487 0 -0.0043905897613940809 0.034858895887734449 0 -0.0046768107800311907 0.035114676148657903 0 -0.0042458259225358419 0.035277178223857487 0 -0.004694014280154174 0.035478192890622255 0 -0.0046768107800311907 0.035114676148657903 0 -0.0042458259225358419 0.035277178223857487 0 -0.0043905897613940809 0.034858895887734449 0 -0.0039697487471540924 0.034809702344810636 0 -0.0042458259225358419 0.035277178223857487 0 -0.0044410310718225182 0.035657018299003841 0 -0.0042458259225358419 0.035277178223857487 0 -0.0041632381751071377 0.035713603650438845 0 -0.0042458259225358419 0.035277178223857487 0 -0.0036976248933299973 0.035427095146943616 0 -0.0041632381751071377 0.035713603650438845 0 -0.0039697487471540924 0.034809702344810636 0 -0.0042458259225358419 0.035277178223857487 0 -0.0036976248933299973 0.035427095146943616 0 -0.0039697487471540924 0.034809702344810636 0 -0.0033218907555354798 0.034883720647716193 0 -0.0036976248933299973 0.035427095146943616 0 -0.0028398310081942332 0.035796945588270471 0 -0.0036976248933299973 0.035427095146943616 0 -0.0036805435216046714 0.036043393367061097 0 -0.0036976248933299973 0.035427095146943616 0 -0.0036805435216046714 0.036043393367061097 0 -0.0041632381751071377 0.035713603650438845 0 -0.0041365288626795003 0.036513864919095092 0 -0.0049429538163385201 0.036910360910188809 0 -0.0036805435216046714 0.036043393367061097 0 -0.0043828390218758236 0.036088206731314042 0 -0.0045346624350814579 0.036302176764736571 0 -0.0036805435216046714 0.036043393367061097 0 -0.0041632381751071377 0.035713603650438845 0 -0.0043828390218758236 0.036088206731314042 0 -0.0042252744589182161 0.036007246782981436 0 -0.0055761006586445032 0.036302932129264921 0 -0.0049788720517340715 0.036640258409322515 0 -0.0041632381751071377 0.035713603650438845 0 -0.0043828390218758236 0.036088206731314042 0 -0.0044902511640360701 0.035897579693782079 0 -0.0048882653866008981 0.036228104699383458 0 -0.0045344236392236368 0.036335656136955136 0 -0.0046217264625073385 0.036097965347883607 0 -0.0049155640973871902 0.036872894980209348 0 -0.0049429538163385201 0.036910360910188809 0 -0.0043828390218758236 0.036088206731314042 0 -0.0045344236392236368 0.036335656136955136 0 -0.0046217264625073385 0.036097965347883607 0 -0.0047508665065336677 0.035918895418053202 0 -0.0046217264625073385 0.036097965347883607 0 -0.0044902511640360701 0.035897579693782079 0 -0.0043828390218758236 0.036088206731314042 0 -0.0046217264625073385 0.036097965347883607 0 -0.0044902511640360701 0.035897579693782079 0 -0.0044410310718225182 0.035657018299003841 0 -0.0041632381751071377 0.035713603650438845 0 -0.0044902511640360701 0.035897579693782079 0 -0.0047508665065336677 0.035918895418053202 0 -0.0044410310718225182 0.035657018299003841 0 -0.0044902511640360701 0.035897579693782079 0 -0.0055761006586445032 0.036302932129264921 0 -0.0054900947330927246 0.037259670575259488 0 -0.0049788720517340715 0.036640258409322515 0 -0.0054900947330927246 0.037259670575259488 0 -0.0049788720517340715 0.036640258409322515 0 -0.0046230248017396927 0.036992325694414567 0 -0.0054900947330927246 0.037259670575259488 0 -0.0046230248017396927 0.036992325694414567 0 -0.0050178523142155491 0.03773662872723433 0 -0.0046230248017396927 0.036992325694414567 0 -0.0040372004523769409 0.037554776833129314 0 -0.0050178523142155491 0.03773662872723433 0 -0.0042252744589182161 0.036007246782981436 0 -0.0049788720517340715 0.036640258409322515 0 -0.0046230248017396927 0.036992325694414567 0 -0.0042252744589182161 0.036007246782981436 0 -0.0046230248017396927 0.036992325694414567 0 -0.0036078315095179128 0.036720846346789189 0 -0.0046230248017396927 0.036992325694414567 0 -0.0040372004523769409 0.037554776833129314 0 -0.0036078315095179128 0.036720846346789189 0 -0.0040372004523769409 0.037554776833129314 0 -0.0046942586795140203 0.038368972553547133 0 -0.0035728119784212667 0.038580016276337996 0 -0.0040372004523769409 0.037554776833129314 0 -0.0046942586795140203 0.038368972553547133 0 -0.0050178523142155491 0.03773662872723433 0 -0.0046942586795140203 0.038368972553547133 0 -0.0050178523142155491 0.03773662872723433 0 -0.0055967214536278261 0.038570252474372867 0 -0.0050178523142155491 0.03773662872723433 0 -0.0058071449320657468 0.03796413250310085 0 -0.0055967214536278261 0.038570252474372867 0 -0.0054900947330927246 0.037259670575259488 0 -0.0050178523142155491 0.03773662872723433 0 -0.0058071449320657468 0.03796413250310085 0 -0.0024240284641725363 0.037057501745622765 0 -0.0019593137529862574 0.037115824763318435 0 -0.0025032822802977684 0.037874672781271865 0 -0.0024240284641725363 0.037057501745622765 0 -0.0030276532449475925 0.037402958597899875 0 -0.0025032822802977684 0.037874672781271865 0 -0.0024240284641725363 0.037057501745622765 0 -0.0019593137529862574 0.037115824763318435 0 -0.0020868302005210178 0.036778369201045609 0 -0.0017426496125304014 0.036561332104153056 0 -0.0019593137529862574 0.037115824763318435 0 -0.0020868302005210178 0.036778369201045609 0 -0.0017426496125304014 0.036561332104153056 0 -0.0022621423364287971 0.036371443169483743 0 -0.0020868302005210178 0.036778369201045609 0 -0.0022621423364287971 0.036371443169483743 0 -0.0024240284641725363 0.037057501745622765 0 -0.0020868302005210178 0.036778369201045609 0 -0.0022621423364287971 0.036371443169483743 0 -0.0024240284641725363 0.037057501745622765 0 -0.002834944355837983 0.036672106187528503 0 -0.002834944355837983 0.036672106187528503 0 -0.0036078315095179128 0.036720846346789189 0 -0.0030276532449475925 0.037402958597899875 0 -0.0040372004523769409 0.037554776833129314 0 -0.0036078315095179128 0.036720846346789189 0 -0.0030276532449475925 0.037402958597899875 0 -0.0024240284641725363 0.037057501745622765 0 -0.002834944355837983 0.036672106187528503 0 -0.0030276532449475925 0.037402958597899875 0 -0.004013371446315893 0.035739591682505095 0 -0.0037922827488442489 0.034657608574583477 0 -0.0010336624266298617 0.024713928179023063 0 -0.0011006106572018619 0.025725467557433206 0 -0.0022937567617768444 0.025330967425804773 0 -0.0040372004523769409 0.037554776833129314 0 -0.0030276532449475925 0.037402958597899875 0 -0.0035728119784212667 0.038580016276337996 0 -0.0024041714728125453 0.03183260907851037 0 -0.0037922827488442489 0.034657608574583477 0 -0.0030276532449475925 0.037402958597899875 0 -0.0025032822802977684 0.037874672781271865 0 -0.0034645491084046576 0.03837688152658484 0 6.7999138173068281e-05 0.024812689590783692 0 -0.0010336624266298617 0.024713928179023063 0 -0.00013342313552808165 0.025376131976532334 0 6.7999138173068281e-05 0.024812689590783692 0 -5.8373205241771771e-05 0.024394074277871103 0 -0.0010336624266298617 0.024713928179023063 0 -0.0019951022875116155 0.029596102249380019 0 -0.0024041714728125453 0.03183260907851037 0 0.00014202097827946603 0.024150424904621447 0 -5.8373205241771771e-05 0.024394074277871103 0 -0.0010336624266298617 0.024713928179023063 0 -0.0010336624266298617 0.024713928179023063 0 -0.0011006106572018619 0.025725467557433206 0 -0.00013342313552808165 0.025376131976532334 0 -0.0015028002782736902 0.037373887594557516 0 -0.0019593137529862574 0.037115824763318435 0 -0.0025032822802977684 0.037874672781271865 0 -0.0011006106572018619 0.025725467557433206 0 -0.00013342313552808165 0.025376131976532334 0 0.00054633788789900121 0.02613294986076968 0 -0.0011006106572018619 0.025725467557433206 0 -0.001206160592503415 0.026777798096045295 0 0.00054633788789900121 0.02613294986076968 0 -0.0022937567617768444 0.025330967425804773 0 -0.0019533989098371651 0.026445307770467885 0 -0.0031170916398594226 0.0269663609675177 0 -0.0011006106572018619 0.025725467557433206 0 -0.0022937567617768444 0.025330967425804773 0 -0.0019533989098371651 0.026445307770467885 0 -0.0011006106572018619 0.025725467557433206 0 -0.0019533989098371651 0.026445307770467885 0 -0.001206160592503415 0.026777798096045295 0 -0.0019533989098371651 0.026445307770467885 0 -0.0020867469459909284 0.027478871305755402 0 -0.001206160592503415 0.026777798096045295 0 -0.0019533989098371651 0.026445307770467885 0 -0.0020867469459909284 0.027478871305755402 0 -0.0031170916398594226 0.0269663609675177 0 -0.001206160592503415 0.026777798096045295 0 -0.00057086314626416572 0.027881276388125778 0 0.00054633788789900121 0.02613294986076968 0 -0.0020867469459909284 0.027478871305755402 0 -0.001206160592503415 0.026777798096045295 0 -0.00057086314626416572 0.027881276388125778 0 -0.0055967214536278261 0.038570252474372867 0 -0.0052217634779029498 0.039385375915407 0 -0.0064258013124585895 0.038906152588774223 0 -0.0046942586795140203 0.038368972553547133 0 -0.0055967214536278261 0.038570252474372867 0 -0.0052217634779029498 0.039385375915407 0 -0.0077647828195109474 0.040848330079666775 0 -0.0070023554345373879 0.040394885781726175 0 -0.0075218962378687821 0.040252829753420434 0 -0.0037922827488442489 0.034657608574583477 0 -0.004575685783201072 0.033953417893968336 0 -0.0046942586795140203 0.038368972553547133 0 -0.0035728119784212667 0.038580016276337996 0 -0.0052217634779029498 0.039385375915407 0 -0.0037922827488442489 0.034657608574583477 0 -0.0063595245928462184 0.037883723855428091 0 -0.0020867469459909284 0.027478871305755402 0 -0.0031170916398594226 0.0269663609675177 0 -0.0027434542080550174 0.028202151383569875 0 -0.0070023554345373879 0.040394885781726175 0 -0.0075218962378687821 0.040252829753420434 0 -0.0069415012442766008 0.040046433256860588 0 -0.0075218962378687821 0.040252829753420434 0 -0.0069415012442766008 0.040046433256860588 0 -0.006970003844802025 0.039660667711423833 0 -0.0069415012442766008 0.040046433256860588 0 -0.0068882180753287647 0.039895520848264095 0 -0.0068341105567916718 0.039989692428042067 0 -0.0070023554345373879 0.040394885781726175 0 -0.0069415012442766008 0.040046433256860588 0 -0.0068341105567916718 0.039989692428042067 0 -0.006970003844802025 0.039660667711423833 0 -0.0073709153855520378 0.038599736748229425 0 -0.0059361978639223502 0.036456389730026267 0 -0.006970003844802025 0.039660667711423833 0 -0.0068315525438399022 0.040346552714348574 0 -0.006916917390430201 0.040015415832246271 0 -0.0068882180753287647 0.039895520848264095 0 -0.006970003844802025 0.039660667711423833 0 -0.006916917390430201 0.040015415832246271 0 -0.0069415012442766008 0.040046433256860588 0 -0.0068882180753287647 0.039895520848264095 0 -0.006970003844802025 0.039660667711423833 0 -0.004575685783201072 0.033953417893968336 0 -0.005097048894605446 0.033715327072744807 0 -0.0075218962378687821 0.040252829753420434 0 -0.006970003844802025 0.039660667711423833 0 -0.0073709153855520378 0.038599736748229425 0 -0.0031170916398594226 0.0269663609675177 0 -0.0040308272746926808 0.028790921943230699 0 -0.0027434542080550174 0.028202151383569875 0 -0.0040308272746926808 0.028790921943230699 0 -0.0027434542080550174 0.028202151383569875 0 -0.00278666580738477 0.029140546198782171 0 -0.00278666580738477 0.029140546198782171 0 -0.0031131004089749994 0.030296677189393387 0 -0.0035382939723963055 0.029471297351943097 0 -0.00278666580738477 0.029140546198782171 0 -0.0031131004089749994 0.030296677189393387 0 -0.0018664537853913981 0.029928266415505101 0 -0.0031131004089749994 0.030296677189393387 0 -0.0035382939723963055 0.029471297351943097 0 -0.003978156500710173 0.030219827652827842 0 -0.0040308272746926808 0.028790921943230699 0 -0.0035382939723963055 0.029471297351943097 0 -0.003978156500710173 0.030219827652827842 0 -0.0040308272746926808 0.028790921943230699 0 -0.00278666580738477 0.029140546198782171 0 -0.0035382939723963055 0.029471297351943097 0 -0.0073709153855520378 0.038599736748229425 0 -0.0065259173282658 0.03570766831739812 0 -0.0059361978639223502 0.036456389730026267 0 -0.0069280197753945581 0.03906466777184224 0 -0.0067439403535808334 0.038485001537035018 0 -0.005097048894605446 0.033715327072744807 0 -0.0053386768600340506 0.033516626036479903 0 -0.0040308272746926808 0.028790921943230699 0 -0.003978156500710173 0.030219827652827842 0 -0.0050258325396375855 0.030889569319667284 0 -0.00057086314626416572 0.027881276388125778 0 -0.00072621351045621524 0.029414839865527561 0 0.00075973620563242917 0.028359630554473023 0 -0.00057086314626416572 0.027881276388125778 0 -0.0017420492694949943 0.028672269595161608 0 -0.00072621351045621524 0.029414839865527561 0 -0.0020867469459909284 0.027478871305755402 0 -0.00057086314626416572 0.027881276388125778 0 -0.0017420492694949943 0.028672269595161608 0 -0.0020867469459909284 0.027478871305755402 0 -0.0027434542080550174 0.028202151383569875 0 -0.0017420492694949943 0.028672269595161608 0 -0.0027434542080550174 0.028202151383569875 0 -0.00278666580738477 0.029140546198782171 0 -0.0017420492694949943 0.028672269595161608 0 -0.0018664537853913981 0.029928266415505101 0 -0.00072621351045621524 0.029414839865527561 0 -0.0012577306404201356 0.031183010223726344 0 -0.0017420492694949943 0.028672269595161608 0 -0.0018664537853913981 0.029928266415505101 0 -0.00072621351045621524 0.029414839865527561 0 -0.00278666580738477 0.029140546198782171 0 -0.0017420492694949943 0.028672269595161608 0 -0.0018664537853913981 0.029928266415505101 0 -0.00072621351045621524 0.029414839865527561 0 -0.0012577306404201356 0.031183010223726344 0 0.00019320141292883476 0.030608984937889896 0 -0.0003129951581594559 0.032226801937844211 0 -0.0012577306404201356 0.031183010223726344 0 0.00019320141292883476 0.030608984937889896 0 -0.0003129951581594559 0.032226801937844211 0 5.9621811517294163e-05 0.033552646583156348 0 -0.001549304935530584 0.03344584508146576 0 -0.0003129951581594559 0.032226801937844211 0 -0.0012577306404201356 0.031183010223726344 0 -0.001549304935530584 0.03344584508146576 0 -0.0012577306404201356 0.031183010223726344 0 -0.0025828769976367423 0.031605505086676602 0 -0.001549304935530584 0.03344584508146576 0 -0.0025828769976367423 0.031605505086676602 0 -0.0030265826911902928 0.032931944555643126 0 -0.001549304935530584 0.03344584508146576 0 -0.0018664537853913981 0.029928266415505101 0 -0.0012577306404201356 0.031183010223726344 0 -0.0025828769976367423 0.031605505086676602 0 -0.0031131004089749994 0.030296677189393387 0 -0.0018664537853913981 0.029928266415505101 0 -0.0025828769976367423 0.031605505086676602 0 -0.0031131004089749994 0.030296677189393387 0 -0.0037182073916849213 0.031173609849637782 0 -0.0025828769976367423 0.031605505086676602 0 -0.0031131004089749994 0.030296677189393387 0 -0.003978156500710173 0.030219827652827842 0 -0.0037182073916849213 0.031173609849637782 0 -0.0037182073916849213 0.031173609849637782 0 -0.0025828769976367423 0.031605505086676602 0 -0.0036835126099618791 0.032266553206197111 0 -0.003978156500710173 0.030219827652827842 0 -0.0037182073916849213 0.031173609849637782 0 -0.0042591151476357742 0.031002817702408772 0 -0.003978156500710173 0.030219827652827842 0 -0.0050258325396375855 0.030889569319667284 0 -0.0042591151476357742 0.031002817702408772 0 -0.0050258325396375855 0.030889569319667284 0 -0.0042591151476357742 0.031002817702408772 0 -0.0043394682875417308 0.031764131436794567 0 -0.0037182073916849213 0.031173609849637782 0 -0.0042591151476357742 0.031002817702408772 0 -0.0043394682875417308 0.031764131436794567 0 -0.0037182073916849213 0.031173609849637782 0 -0.0043394682875417308 0.031764131436794567 0 -0.0036835126099618791 0.032266553206197111 0 -0.0050258325396375855 0.030889569319667284 0 -0.0043394682875417308 0.031764131436794567 0 -0.0049462582278060451 0.032535526701186958 0 -0.0050258325396375855 0.030889569319667284 0 -0.0049462582278060451 0.032535526701186958 0 -0.005819572045647637 0.033616791008624039 0 -0.0049462582278060451 0.032535526701186958 0 -0.0044780079994258199 0.032770041595740734 0 -0.004902987928755694 0.03358948043608774 0 -0.0043394682875417308 0.031764131436794567 0 -0.0044780079994258199 0.032770041595740734 0 -0.0036835126099618791 0.032266553206197111 0 -0.0044780079994258199 0.032770041595740734 0 -0.0040261173654191924 0.033357688078518952 0 -0.0036835126099618791 0.032266553206197111 0 -0.0043394682875417308 0.031764131436794567 0 -0.0049462582278060451 0.032535526701186958 0 -0.0044780079994258199 0.032770041595740734 0 -0.0044780079994258199 0.032770041595740734 0 -0.0040261173654191924 0.033357688078518952 0 -0.004902987928755694 0.03358948043608774 0 -0.0040261173654191924 0.033357688078518952 0 -0.004902987928755694 0.03358948043608774 0 -0.004622524130591798 0.034410624391096808 0 -0.0049462582278060451 0.032535526701186958 0 -0.004902987928755694 0.03358948043608774 0 -0.005819572045647637 0.033616791008624039 0 -0.0030265826911902928 0.032931944555643126 0 -0.0033922411177573801 0.034163222139436206 0 -0.001549304935530584 0.03344584508146576 0 -0.0025828769976367423 0.031605505086676602 0 -0.0036835126099618791 0.032266553206197111 0 -0.0030265826911902928 0.032931944555643126 0 -0.0040261173654191924 0.033357688078518952 0 -0.0036835126099618791 0.032266553206197111 0 -0.0030265826911902928 0.032931944555643126 0 -0.0040261173654191924 0.033357688078518952 0 -0.0030265826911902928 0.032931944555643126 0 -0.0033922411177573801 0.034163222139436206 0 -0.0025720387712337726 0.035014631502795955 0 -0.0033922411177573801 0.034163222139436206 0 -0.0044346752340181598 0.036007527338693723 0 -0.0025720387712337726 0.035014631502795955 0 -0.0033922411177573801 0.034163222139436206 0 -0.001549304935530584 0.03344584508146576 0 -0.0033922411177573801 0.034163222139436206 0 -0.004622524130591798 0.034410624391096808 0 -0.0044346752340181598 0.036007527338693723 0 -0.004622524130591798 0.034410624391096808 0 -0.0044346752340181598 0.036007527338693723 0 -0.0057592313544966812 0.035137265250788453 0 -0.004902987928755694 0.03358948043608774 0 -0.004622524130591798 0.034410624391096808 0 -0.0054926373176633052 0.034170127726009525 0 -0.0040261173654191924 0.033357688078518952 0 -0.0033922411177573801 0.034163222139436206 0 -0.004622524130591798 0.034410624391096808 0 -0.0025720387712337726 0.035014631502795955 0 -0.0015608544663874419 0.035904710022835386 0 -0.0030825843558475231 0.037242659791944709 0 -0.0025720387712337726 0.035014631502795955 0 -0.0044346752340181598 0.036007527338693723 0 -0.0030825843558475231 0.037242659791944709 0 -0.0015608544663874419 0.035904710022835386 0 3.7020351255429244e-05 0.035147729649196505 0 -0.001549304935530584 0.03344584508146576 0 -0.0015608544663874419 0.035904710022835386 0 3.7020351255429244e-05 0.035147729649196505 0 -0.0013295949660491139 0.038116945146152159 0 3.7020351255429244e-05 0.035147729649196505 0 5.9621811517294163e-05 0.033552646583156348 0 -0.001549304935530584 0.03344584508146576 0 -0.0025720387712337726 0.035014631502795955 0 -0.0015608544663874419 0.035904710022835386 0 -0.001549304935530584 0.03344584508146576 0 -0.0072777744265378726 0.040620069278615188 0 -0.0072982432758304482 0.040523622784753723 0 -0.0074999622467358806 0.040592514885284404 0 -0.007207142851701911 0.0406104093025728 0 -0.0072046354155922239 0.04052140145066703 0 -0.0072982432758304482 0.040523622784753723 0 -0.0072777744265378726 0.040620069278615188 0 -0.007207142851701911 0.0406104093025728 0 -0.0072982432758304482 0.040523622784753723 0 -0.0072777744265378726 0.040620069278615188 0 -0.007207142851701911 0.0406104093025728 0 -0.0072004864723168981 0.040622816120945683 0 -0.007207142851701911 0.0406104093025728 0 -0.0071414050785126052 0.04063141313444063 0 -0.0072004864723168981 0.040622816120945683 0 -0.007207142851701911 0.0406104093025728 0 -0.0071414050785126052 0.04063141313444063 0 -0.0071321583495333029 0.040600389729769509 0 -0.0071414050785126052 0.04063141313444063 0 -0.0071321583495333029 0.040600389729769509 0 -0.0070756153424017575 0.040655125824519835 0 -0.007207142851701911 0.0406104093025728 0 -0.0071321583495333029 0.040600389729769509 0 -0.0072046354155922239 0.04052140145066703 0 -0.0071321583495333029 0.040600389729769509 0 -0.0072046354155922239 0.04052140145066703 0 -0.0071542406274703761 0.04047879370745442 0 -0.0072046354155922239 0.04052140145066703 0 -0.0071542406274703761 0.04047879370745442 0 -0.0072411291364096351 0.040366674242728495 0 -0.0071321583495333029 0.040600389729769509 0 -0.0071542406274703761 0.04047879370745442 0 -0.0070943274424230696 0.040596063727762408 0 -0.0071542406274703761 0.04047879370745442 0 -0.0071699433610462604 0.040390614247276732 0 -0.0072109131592963567 0.040294308917826163 0 -0.0071542406274703761 0.04047879370745442 0 -0.0071171979839169709 0.040529853874944691 0 -0.0071699433610462604 0.040390614247276732 0 -0.0071542406274703761 0.04047879370745442 0 -0.0071171979839169709 0.040529853874944691 0 -0.0070943274424230696 0.040596063727762408 0 -0.0071542406274703761 0.04047879370745442 0 -0.0072411291364096351 0.040366674242728495 0 -0.0072109131592963567 0.040294308917826163 0 -0.0073458264111194967 0.040250790617367381 0 -0.0072982432758304482 0.040523622784753723 0 -0.0074999622467358806 0.040592514885284404 0 -0.0072411291364096351 0.040366674242728495 0 -0.0073458264111194967 0.040250790617367381 0 -0.0073084930450691109 0.040044515020004612 0 -0.0073458264111194967 0.040250790617367381 0 -0.0074999622467358806 0.040592514885284404 0 -0.0076500667536210454 0.039471238445110121 0 -0.0072411291364096351 0.040366674242728495 0 -0.0073458264111194967 0.040250790617367381 0 -0.0072982432758304482 0.040523622784753723 0 -0.0072046354155922239 0.04052140145066703 0 -0.0072411291364096351 0.040366674242728495 0 -0.0072982432758304482 0.040523622784753723 0 -0.0072369337059341498 0.035802855396947615 0 -0.0060315240825949187 0.036847658917864387 0 -0.0067613343667680655 0.038138438319030105 0 -0.007005127482891756 0.038141458561222717 0 -0.0072232962646962976 0.038539329346445265 0 -0.0072369337059341498 0.035802855396947615 0 -0.0060315240825949187 0.036847658917864387 0 -0.0057592313544966812 0.035137265250788453 0 -0.0044346752340181598 0.036007527338693723 0 -0.0060315240825949187 0.036847658917864387 0 -0.0055660169028724253 0.037975271603653417 0 -0.0044346752340181598 0.036007527338693723 0 -0.0060315240825949187 0.036847658917864387 0 -0.0057592313544966812 0.035137265250788453 0 -0.0072369337059341498 0.035802855396947615 0 -0.0057592313544966812 0.035137265250788453 0 -0.0057670200287500391 0.033571728413885241 0 -0.0057592313544966812 0.035137265250788453 0 -0.0054926373176633052 0.034170127726009525 0 -0.0057670200287500391 0.033571728413885241 0 -0.004622524130591798 0.034410624391096808 0 -0.0057592313544966812 0.035137265250788453 0 -0.0054926373176633052 0.034170127726009525 0 -0.007005127482891756 0.038141458561222717 0 -0.006676160468820927 0.0378340542674728 0 -0.0074999622467358806 0.040592514885284404 0 -0.0072558998869074734 0.040617415115741892 0 -0.007110035663072483 0.040623078552722625 0 -0.0072777744265378726 0.040620069278615188 0 -0.0074999622467358806 0.040592514885284404 0 -0.0072558998869074734 0.040617415115741892 0 -0.0072777744265378726 0.040620069278615188 0 -0.0072558998869074734 0.040617415115741892 0 -0.0072105171583443581 0.040584151246139809 0 -0.0072558998869074734 0.040617415115741892 0 -0.0071607742366536645 0.040560058703221297 0 -0.007110035663072483 0.040623078552722625 0 -0.0072558998869074734 0.040617415115741892 0 -0.0071607742366536645 0.040560058703221297 0 -0.0072105171583443581 0.040584151246139809 0 -0.0065259173282658 0.03570766831739812 0 -0.005819572045647637 0.033616791008624039 0 -0.0057670200287500391 0.033571728413885241 0 -0.0054926373176633052 0.034170127726009525 0 -0.005819572045647637 0.033616791008624039 0 -0.0057670200287500391 0.033571728413885241 0 -0.004902987928755694 0.03358948043608774 0 -0.0054926373176633052 0.034170127726009525 0 -0.005819572045647637 0.033616791008624039 0 -0.0065259173282658 0.03570766831739812 0 -0.0057670200287500391 0.033571728413885241 0 -0.0059361978639223502 0.036456389730026267 0 -0.0053386768600340506 0.033516626036479903 0 -0.0054235149695306484 0.033497390176311426 0 -0.007110035663072483 0.040623078552722625 0 -0.0070665207805581682 0.040458523566631578 0 -0.0068315525438399022 0.040346552714348574 0 -0.006676160468820927 0.0378340542674728 0 -0.0067439403535808334 0.038485001537035018 0 -0.0071607742366536645 0.040560058703221297 0 -0.007110035663072483 0.040623078552722625 0 -0.0070665207805581682 0.040458523566631578 0 -0.0072105171583443581 0.040584151246139809 0 -0.0071436434579555275 0.040494124698188423 0 -0.0071695721426794099 0.040510980318837077 0 -0.0071607742366536645 0.040560058703221297 0 -0.0072105171583443581 0.040584151246139809 0 -0.0071436434579555275 0.040494124698188423 0 -0.0071607742366536645 0.040560058703221297 0 -0.0070665207805581682 0.040458523566631578 0 -0.0071436434579555275 0.040494124698188423 0 -0.0070665207805581682 0.040458523566631578 0 -0.0071436434579555275 0.040494124698188423 0 -0.0070882985876245322 0.040385120903972824 0 -0.0071436434579555275 0.040494124698188423 0 -0.007146167103069187 0.040444135761335598 0 -0.0070882985876245322 0.040385120903972824 0 -0.0071436434579555275 0.040494124698188423 0 -0.0071695721426794099 0.040510980318837077 0 -0.007146167103069187 0.040444135761335598 0 -0.0071695721426794099 0.040510980318837077 0 -0.00718914470134742 0.040556089538150333 0 -0.007170819172840911 0.040492272427712542 0 -0.0071695721426794099 0.040510980318837077 0 -0.007170819172840911 0.040492272427712542 0 -0.007146167103069187 0.040444135761335598 0 -0.00718914470134742 0.040556089538150333 0 -0.0071849931495357273 0.040588863794756749 0 -0.0071790636810170018 0.04054619877032993 0 -0.00718914470134742 0.040556089538150333 0 -0.0071790636810170018 0.04054619877032993 0 -0.007170819172840911 0.040492272427712542 0 -0.00718914470134742 0.040556089538150333 0 -0.0072004864723168981 0.040622816120945683 0 -0.0071849931495357273 0.040588863794756749 0 -0.0072105171583443581 0.040584151246139809 0 -0.0071695721426794099 0.040510980318837077 0 -0.00718914470134742 0.040556089538150333 0 -0.0072777744265378726 0.040620069278615188 0 -0.0072105171583443581 0.040584151246139809 0 -0.0072004864723168981 0.040622816120945683 0 -0.0072105171583443581 0.040584151246139809 0 -0.00718914470134742 0.040556089538150333 0 -0.0072004864723168981 0.040622816120945683 0 -0.0072004864723168981 0.040622816120945683 0 -0.0071734524681599998 0.040630079081843358 0 -0.0071332177975645551 0.040636755372453211 0 -0.0071414050785126052 0.04063141313444063 0 -0.0072004864723168981 0.040622816120945683 0 -0.0071332177975645551 0.040636755372453211 0 -0.0072004864723168981 0.040622816120945683 0 -0.0071734524681599998 0.040630079081843358 0 -0.0071849931495357273 0.040588863794756749 0 -0.0071734524681599998 0.040630079081843358 0 -0.0071849931495357273 0.040588863794756749 0 -0.0071790636810170018 0.04054619877032993 0 -0.0071734524681599998 0.040630079081843358 0 -0.0071790636810170018 0.04054619877032993 0 -0.0071612560056595496 0.040588253924014647 0 -0.0071734524681599998 0.040630079081843358 0 -0.0071612560056595496 0.040588253924014647 0 -0.0071502565150888698 0.040702008889948155 0 -0.0071612560056595496 0.040588253924014647 0 -0.0071566361369461186 0.040493734893418155 0 -0.0071667659574919688 0.040482126933333432 0 -0.0071612560056595496 0.040588253924014647 0 -0.0071566361369461186 0.040493734893418155 0 -0.0071502565150888698 0.040702008889948155 0 -0.0071566361369461186 0.040493734893418155 0 -0.0071667659574919688 0.040482126933333432 0 -0.0071786166348321231 0.040380972454576419 0 -0.0071790636810170018 0.04054619877032993 0 -0.0071612560056595496 0.040588253924014647 0 -0.0071667659574919688 0.040482126933333432 0 -0.0071790636810170018 0.04054619877032993 0 -0.007170819172840911 0.040492272427712542 0 -0.0071629232146566265 0.04041910835530637 0 -0.0071790636810170018 0.04054619877032993 0 -0.0071667659574919688 0.040482126933333432 0 -0.0071629232146566265 0.04041910835530637 0 -0.007146167103069187 0.040444135761335598 0 -0.0071629232146566265 0.04041910835530637 0 -0.0071090139534493698 0.040326319608089529 0 -0.007170819172840911 0.040492272427712542 0 -0.007146167103069187 0.040444135761335598 0 -0.0071629232146566265 0.04041910835530637 0 -0.0071629232146566265 0.04041910835530637 0 -0.0071337126693249457 0.040280556265521322 0 -0.0071090139534493698 0.040326319608089529 0 -0.0071629232146566265 0.04041910835530637 0 -0.0071786166348321231 0.040380972454576419 0 -0.0071337126693249457 0.040280556265521322 0 -0.0071667659574919688 0.040482126933333432 0 -0.0071629232146566265 0.04041910835530637 0 -0.0071786166348321231 0.040380972454576419 0 -0.0071786166348321231 0.040380972454576419 0 -0.0071337126693249457 0.040280556265521322 0 -0.0072112393203044526 0.040267737448185972 0 -0.0071337126693249457 0.040280556265521322 0 -0.0072112393203044526 0.040267737448185972 0 -0.0070747986304174129 0.040100352593230866 0 -0.0070404610234518841 0.039800522893952153 0 -0.0070630715482267962 0.039892583218173905 0 -0.0071566361369461186 0.040493734893418155 0 -0.0071786166348321231 0.040380972454576419 0 -0.0072112393203044526 0.040267737448185972 0 -0.0064935749747105677 0.039709561639641205 0 -0.0070043469803211644 0.039357357898109326 0 -0.0071556846377550856 0.039840837530143759 0 -0.0071566361369461186 0.040493734893418155 0 -0.0066658577050404677 0.039876626873166662 0 -0.007236898938242314 0.039975335234669881 0 -0.0070404610234518841 0.039800522893952153 0 -0.0072211415973494749 0.039851406367942446 0 -0.0071293274787036041 0.040009226425758951 0 -0.0070404610234518841 0.039800522893952153 0 -0.0068315525438399022 0.040346552714348574 0 -0.0069560267564887776 0.040198065568968933 0 -0.006916917390430201 0.040015415832246271 0 -0.0069560267564887776 0.040198065568968933 0 -0.0069551964019915749 0.040114858871449256 0 -0.006916917390430201 0.040015415832246271 0 -0.0068315525438399022 0.040346552714348574 0 -0.0070000973193529038 0.040321566803582745 0 -0.0069560267564887776 0.040198065568968933 0 -0.0070665207805581682 0.040458523566631578 0 -0.0068315525438399022 0.040346552714348574 0 -0.0070000973193529038 0.040321566803582745 0 -0.0069560267564887776 0.040198065568968933 0 -0.0070239615179380835 0.040228601971928769 0 -0.0069551964019915749 0.040114858871449256 0 -0.0070000973193529038 0.040321566803582745 0 -0.0069560267564887776 0.040198065568968933 0 -0.0070239615179380835 0.040228601971928769 0 -0.0070239615179380835 0.040228601971928769 0 -0.0071090139534493698 0.040326319608089529 0 -0.0070565568463386019 0.040192607681148081 0 -0.0070239615179380835 0.040228601971928769 0 -0.0070882985876245322 0.040385120903972824 0 -0.0071090139534493698 0.040326319608089529 0 -0.0070665207805581682 0.040458523566631578 0 -0.0070000973193529038 0.040321566803582745 0 -0.0070882985876245322 0.040385120903972824 0 -0.0070000973193529038 0.040321566803582745 0 -0.0070239615179380835 0.040228601971928769 0 -0.0070882985876245322 0.040385120903972824 0 -0.007146167103069187 0.040444135761335598 0 -0.0070882985876245322 0.040385120903972824 0 -0.0071090139534493698 0.040326319608089529 0 -0.0071337126693249457 0.040280556265521322 0 -0.0071090139534493698 0.040326319608089529 0 -0.0070565568463386019 0.040192607681148081 0 -0.0071337126693249457 0.040280556265521322 0 -0.0070565568463386019 0.040192607681148081 0 -0.0070747986304174129 0.040100352593230866 0 -0.0070565568463386019 0.040192607681148081 0 -0.0069459574376993958 0.040072567041721255 0 -0.0070747986304174129 0.040100352593230866 0 -0.0070239615179380835 0.040228601971928769 0 -0.0070565568463386019 0.040192607681148081 0 -0.0069459574376993958 0.040072567041721255 0 -0.0069459574376993958 0.040072567041721255 0 -0.0068341105567916718 0.039989692428042067 0 -0.0070747986304174129 0.040100352593230866 0 -0.0070239615179380835 0.040228601971928769 0 -0.0069551964019915749 0.040114858871449256 0 -0.0069459574376993958 0.040072567041721255 0 -0.0069551964019915749 0.040114858871449256 0 -0.0069459574376993958 0.040072567041721255 0 -0.0069092605310322958 0.040000587500227697 0 -0.0068882180753287647 0.039895520848264095 0 -0.0069092605310322958 0.040000587500227697 0 -0.0068341105567916718 0.039989692428042067 0 -0.0069459574376993958 0.040072567041721255 0 -0.0069092605310322958 0.040000587500227697 0 -0.0068341105567916718 0.039989692428042067 0 -0.0068882180753287647 0.039895520848264095 0 -0.0069092605310322958 0.040000587500227697 0 -0.006916917390430201 0.040015415832246271 0 -0.0069551964019915749 0.040114858871449256 0 -0.0069092605310322958 0.040000587500227697 0 -0.006916917390430201 0.040015415832246271 0 -0.0069836033230899052 0.03990244798964248 0 -0.0070630715482267962 0.039892583218173905 0 -0.0063595245928462184 0.037883723855428091 0 -0.0068619977382708419 0.038624838805222668 0 -0.0070023554345373879 0.040394885781726175 0 -0.0068341105567916718 0.039989692428042067 0 -0.0068633856419053315 0.03994385646397345 0 -0.0068341105567916718 0.039989692428042067 0 -0.0068633856419053315 0.03994385646397345 0 -0.0070930568069309686 0.039998026029194451 0 -0.0052217634779029498 0.039385375915407 0 -0.0068633856419053315 0.03994385646397345 0 -0.0063821066332942246 0.039439569157928345 0 -0.0068633856419053315 0.03994385646397345 0 -0.0063821066332942246 0.039439569157928345 0 -0.006899308074964511 0.039527791661056917 0 -0.006899308074964511 0.039527791661056917 0 -0.0070930568069309686 0.039998026029194451 0 -0.0074156645373116082 0.039234416881883928 0 -0.0068633856419053315 0.03994385646397345 0 -0.006899308074964511 0.039527791661056917 0 -0.0070930568069309686 0.039998026029194451 0 -0.006899308074964511 0.039527791661056917 0 -0.0074156645373116082 0.039234416881883928 0 -0.0064258013124585895 0.038906152588774223 0 -0.0066669026442037387 0.037874980802733348 0 -0.0074156645373116082 0.039234416881883928 0 -0.0064258013124585895 0.038906152588774223 0 -0.0057903803965853474 0.037943965467999045 0 -0.0065143429208945267 0.038964379224217631 0 -0.0052217634779029498 0.039385375915407 0 -0.0063821066332942246 0.039439569157928345 0 -0.0064258013124585895 0.038906152588774223 0 -0.0063821066332942246 0.039439569157928345 0 -0.006899308074964511 0.039527791661056917 0 -0.0064258013124585895 0.038906152588774223 0 -0.0061282391218158991 0.038328479352225511 0 -0.0055967214536278261 0.038570252474372867 0 -0.0064258013124585895 0.038906152588774223 0 -0.0064935749747105677 0.039709561639641205 0 -0.0070043469803211644 0.039357357898109326 0 -0.0066403027608579789 0.038904200823158153 0 -0.0070043469803211644 0.039357357898109326 0 -0.0066403027608579789 0.038904200823158153 0 -0.0074558555917484367 0.038798743901590188 0 -0.0064935749747105677 0.039709561639641205 0 -0.0058551984685121091 0.038828168208895369 0 -0.0066403027608579789 0.038904200823158153 0 -0.0070404610234518841 0.039800522893952153 0 -0.0065143429208945267 0.038964379224217631 0 -0.0079816996516841581 0.040151386995084845 0 -0.0070930568069309686 0.039998026029194451 0 -0.0074156645373116082 0.039234416881883928 0 -0.0060114803359664079 0.038239020548400414 0 -0.0058551984685121091 0.038828168208895369 0 -0.0063659272118349085 0.03848735430896396 0 -0.0058551984685121091 0.038828168208895369 0 -0.0063659272118349085 0.03848735430896396 0 -0.0066403027608579789 0.038904200823158153 0 -0.0067104296022628311 0.038116197906779122 0 -0.0063659272118349085 0.03848735430896396 0 -0.0066403027608579789 0.038904200823158153 0 -0.0067104296022628311 0.038116197906779122 0 -0.0066403027608579789 0.038904200823158153 0 -0.0074558555917484367 0.038798743901590188 0 -0.0068952070724208536 0.038055021133175521 0 -0.0075443029789196876 0.038713855147706436 0 -0.0070043469803211644 0.039357357898109326 0 -0.0074558555917484367 0.038798743901590188 0 -0.0075141058810310052 0.039500374597207975 0 -0.0070043469803211644 0.039357357898109326 0 -0.0075141058810310052 0.039500374597207975 0 -0.0071556846377550856 0.039840837530143759 0 -0.0076878115413043921 0.038763384360114103 0 -0.0082766913604462745 0.039502861546372135 0 -0.0086335940239109666 0.038893176686763634 0 -0.0074558555917484367 0.038798743901590188 0 -0.0075141058810310052 0.039500374597207975 0 -0.0082766913604462745 0.039502861546372135 0 -0.0075443029789196876 0.038713855147706436 0 -0.0079003687611309877 0.039069872448684373 0 -0.008557215910994169 0.038257235352711229 0 -0.0076878115413043921 0.038763384360114103 0 -0.0086335940239109666 0.038893176686763634 0 -0.0094227905827559341 0.038237446703554605 0 -0.008557215910994169 0.038257235352711229 0 -0.0086335940239109666 0.038893176686763634 0 -0.0094227905827559341 0.038237446703554605 0 -0.0086335940239109666 0.038893176686763634 0 -0.0092582638727288103 0.039142070135279088 0 -0.0062193511404837745 0.045612608570178362 0 -0.006804285715298607 0.045326406666831645 0 -0.0082766913604462745 0.039502861546372135 0 -0.0086335940239109666 0.038893176686763634 0 -0.0092582638727288103 0.039142070135279088 0 -0.0082766913604462745 0.039502861546372135 0 -0.0090395067952077912 0.040201114699633854 0 -0.0082564281289081651 0.040325062445454134 0 -0.0082766913604462745 0.039502861546372135 0 -0.0092582638727288103 0.039142070135279088 0 -0.0090395067952077912 0.040201114699633854 0 -0.006804285715298607 0.045326406666831645 0 -0.0073815880624202483 0.044627260112780891 0 -0.0044965106595592974 0.052318214871608024 0 -0.0062374033176390677 0.049623598550181516 0 -0.0037413837949564106 0.050217713563921247 0 -0.0062374033176390677 0.049623598550181516 0 -0.0055620765559921959 0.047440564172179255 0 -0.0037413837949564106 0.050217713563921247 0 -0.0073815880624202483 0.044627260112780891 0 -0.0078258549839877803 0.043754377323306948 0 -0.0062374033176390677 0.049623598550181516 0 -0.0055620765559921959 0.047440564172179255 0 -0.0076829929171858095 0.045601958003407703 0 -0.0090395067952077912 0.040201114699633854 0 -0.0084382949840209054 0.040864752024541526 0 -0.0082564281289081651 0.040325062445454134 0 -0.0090395067952077912 0.040201114699633854 0 -0.0084382949840209054 0.040864752024541526 0 -0.00875016935737522 0.041489719310318217 0 -0.0084382949840209054 0.040864752024541526 0 -0.0082564281289081651 0.040325062445454134 0 -0.0079466549282218996 0.040871033794024375 0 -0.0082564281289081651 0.040325062445454134 0 -0.0078996045873689965 0.040413391247461267 0 -0.0079466549282218996 0.040871033794024375 0 -0.0078996045873689965 0.040413391247461267 0 -0.0079466549282218996 0.040871033794024375 0 -0.0075629913666054429 0.040476519303445868 0 -0.0078996045873689965 0.040413391247461267 0 -0.0075629913666054429 0.040476519303445868 0 -0.0078435380217975574 0.039999893467147093 0 -0.0079466549282218996 0.040871033794024375 0 -0.0075337859430495147 0.040881779586053872 0 -0.0075629913666054429 0.040476519303445868 0 -0.0075337859430495147 0.040881779586053872 0 -0.0073108031119679022 0.040548782587774244 0 -0.0075629913666054429 0.040476519303445868 0 -0.0071566361369461186 0.040493734893418155 0 -0.0073108031119679022 0.040548782587774244 0 -0.0071502565150888698 0.040702008889948155 0 -0.0075337859430495147 0.040881779586053872 0 -0.0073108031119679022 0.040548782587774244 0 -0.0071502565150888698 0.040702008889948155 0 -0.0071566361369461186 0.040493734893418155 0 -0.0073108031119679022 0.040548782587774244 0 -0.0073600970275767433 0.040275236140463161 0 -0.0073108031119679022 0.040548782587774244 0 -0.0075629913666054429 0.040476519303445868 0 -0.0073600970275767433 0.040275236140463161 0 -0.0072211415973494749 0.039851406367942446 0 -0.0073884256791874664 0.039885665739730722 0 -0.0073600970275767433 0.040275236140463161 0 -0.007236898938242314 0.039975335234669881 0 -0.0078435380217975574 0.039999893467147093 0 -0.0075141058810310052 0.039500374597207975 0 -0.0071556846377550856 0.039840837530143759 0 -0.0078435380217975574 0.039999893467147093 0 -0.0075629913666054429 0.040476519303445868 0 -0.0073600970275767433 0.040275236140463161 0 -0.0078435380217975574 0.039999893467147093 0 -0.0071566361369461186 0.040493734893418155 0 -0.0073600970275767433 0.040275236140463161 0 -0.007236898938242314 0.039975335234669881 0 -0.0075141058810310052 0.039500374597207975 0 -0.0082766913604462745 0.039502861546372135 0 -0.0078435380217975574 0.039999893467147093 0 -0.0082766913604462745 0.039502861546372135 0 -0.0082564281289081651 0.040325062445454134 0 -0.0078435380217975574 0.039999893467147093 0 -0.0082564281289081651 0.040325062445454134 0 -0.0078996045873689965 0.040413391247461267 0 -0.0078435380217975574 0.039999893467147093 0 -0.0010913556617331414 0.05218584612164251 0 -0.0013354548513092406 0.053101857769627732 0 -0.0015901824967549704 0.052213197207320081 0 -0.0011573674862845977 0.052791522841163611 0 -0.0014551024059066189 0.053356190998175158 0 -0.0011761381078626793 0.053148292891006046 0 -0.0014903210584514947 0.053586205584579723 0 -0.0010028581119291384 0.053474394547419292 0 -0.0013354548513092406 0.053101857769627732 0 -0.0015901824967549704 0.052213197207320081 0 -0.002314337718097264 0.052810753707844271 0 -0.0010913556617331414 0.05218584612164251 0 -0.0015901824967549704 0.052213197207320081 0 -0.0015429953493908467 0.051824532048448321 0 -0.0015901824967549704 0.052213197207320081 0 -0.002314337718097264 0.052810753707844271 0 -0.0019248527006790535 0.051457122453662997 0 -0.002314337718097264 0.052810753707844271 0 -0.0030103504428315897 0.052199330498952638 0 -0.0019248527006790535 0.051457122453662997 0 -0.0033705405005848388 0.05357953583116825 0 -0.002314337718097264 0.052810753707844271 0 -0.0030103504428315897 0.052199330498952638 0 -0.0033705405005848388 0.05357953583116825 0 -0.0044965106595592974 0.052318214871608024 0 -0.0030103504428315897 0.052199330498952638 0 -0.0044965106595592974 0.052318214871608024 0 -0.0030103504428315897 0.052199330498952638 0 -0.0037413837949564106 0.050217713563921247 0 -0.0030103504428315897 0.052199330498952638 0 -0.0037413837949564106 0.050217713563921247 0 -0.0019248527006790535 0.051457122453662997 0 -0.0037413837949564106 0.050217713563921247 0 -0.0031579603437181668 0.047890895738884873 0 -0.0015787616030169204 0.049056726048197954 0 -0.0055620765559921959 0.047440564172179255 0 -0.0037413837949564106 0.050217713563921247 0 -0.0031579603437181668 0.047890895738884873 0 -0.0029535395153909112 0.049903841459223316 0 -0.0033418494303393835 0.049204185623920406 0 -0.0031579603437181668 0.047890895738884873 0 -0.0015787616030169204 0.049056726048197954 0 -0.0014964082179209203 0.046736943370244942 0 -0.0018102519251568063 0.051607375710522006 0 -0.0014935598650166826 0.051589875088941133 0 -0.0018018981073347129 0.051439145384368348 0 -0.0018102519251568063 0.051607375710522006 0 -0.0019248527006790535 0.051457122453662997 0 -0.0015429953493908467 0.051824532048448321 0 -0.0029535395153909112 0.049903841459223316 0 -0.0028391605229538316 0.05026013466874741 0 -0.0037413837949564106 0.050217713563921247 0 -0.0015787616030169204 0.049056726048197954 0 -0.0019248527006790535 0.051457122453662997 0 -0.0015901824967549704 0.052213197207320081 0 -0.0019248527006790535 0.051457122453662997 0 -0.0015429953493908467 0.051824532048448321 0 -0.0015429953493908467 0.051824532048448321 0 -0.0014935598650166826 0.051589875088941133 0 -0.0012013981247996472 0.05203052589549402 0 -0.0018102519251568063 0.051607375710522006 0 -0.0015429953493908467 0.051824532048448321 0 -0.0014935598650166826 0.051589875088941133 0 -0.0022515763783730026 0.050846143898249735 0 -0.001533636291252795 0.051640972688298786 0 -0.0030570012660806741 0.053555571791175899 0 -0.001315695882191372 0.053485663635152073 0 -0.0013017023649773709 0.052859223575418002 0 -0.0014935598650166826 0.051589875088941133 0 -0.0012013981247996472 0.05203052589549402 0 -0.0010616532131753932 0.051955980670244262 0 -0.0010913556617331414 0.05218584612164251 0 -0.0015429953493908467 0.051824532048448321 0 -0.0012013981247996472 0.05203052589549402 0 -0.002256664388785056 0.05131423057385797 0 -0.0018057770247036818 0.052301794546668549 0 -0.00095798711263216422 0.051468950735625532 0 -0.002256664388785056 0.05131423057385797 0 -0.0018057770247036818 0.052301794546668549 0 -0.0035930082884886609 0.0520849776155759 0 -0.0030570012660806741 0.053555571791175899 0 -0.0018057770247036818 0.052301794546668549 0 -0.0013017023649773709 0.052859223575418002 0 -0.0030570012660806741 0.053555571791175899 0 -0.0018057770247036818 0.052301794546668549 0 -0.0035930082884886609 0.0520849776155759 0 -0.0030570012660806741 0.053555571791175899 0 -0.0035930082884886609 0.0520849776155759 0 -0.0049541312533982335 0.053267378197078323 0 -0.0022515763783730026 0.050846143898249735 0 -0.0033418494303393835 0.049204185623920406 0 -0.0035930082884886609 0.0520849776155759 0 -0.0052231391176700359 0.051229696241883955 0 -0.0049541312533982335 0.053267378197078323 0 -0.0043198213528007181 0.047398342261526331 0 -0.0033418494303393835 0.049204185623920406 0 -0.0047261742967734267 0.043679039315224495 0 -0.0046090452713633493 0.045255580165117437 0 -0.0056419959458499274 0.045009018663727203 0 -0.0055620765559921959 0.047440564172179255 0 -0.0031579603437181668 0.047890895738884873 0 -0.0038920241867035558 0.045981189388206591 0 -0.0033418494303393835 0.049204185623920406 0 -0.0047836791097557053 0.047875263935349362 0 -0.0031579603437181668 0.047890895738884873 0 -0.0014964082179209203 0.046736943370244942 0 -0.0038920241867035558 0.045981189388206591 0 -0.0047261742967734267 0.043679039315224495 0 -0.0056419959458499274 0.045009018663727203 0 -0.005908225017630153 0.044084027812567254 0 -0.0047261742967734267 0.043679039315224495 0 -0.005908225017630153 0.044084027812567254 0 -0.005930504322099941 0.04302668660287861 0 -0.0047261742967734267 0.043679039315224495 0 -0.0050930054413371095 0.042186819336991754 0 -0.005930504322099941 0.04302668660287861 0 -0.0050930054413371095 0.042186819336991754 0 -0.005930504322099941 0.04302668660287861 0 -0.0060079435475976131 0.041770793878541664 0 -0.0043198213528007181 0.047398342261526331 0 -0.0049077102584404878 0.045603486434706561 0 -0.0052231391176700359 0.051229696241883955 0 -0.0056636789475351512 0.04883902085067842 0 -0.0033790041304628433 0.049831996522126137 0 -0.002256664388785056 0.05131423057385797 0 -0.0035930082884886609 0.0520849776155759 0 -0.0033790041304628433 0.049831996522126137 0 -0.0035930082884886609 0.0520849776155759 0 -0.0052231391176700359 0.051229696241883955 0 -0.0033790041304628433 0.049831996522126137 0 -0.0056636789475351512 0.04883902085067842 0 -0.0033790041304628433 0.049831996522126137 0 -0.0037048743173709706 0.046523479266596682 0 -0.0033790041304628433 0.049831996522126137 0 -0.0020242067602086731 0.047889393286843648 0 -0.001284730378869544 0.050091873437589002 0 -0.002256664388785056 0.05131423057385797 0 -0.0033790041304628433 0.049831996522126137 0 -0.001284730378869544 0.050091873437589002 0 -0.0081017356010765467 0.04202333859039669 0 -0.0075553808002716133 0.042220440738835158 0 -0.0080105283563968073 0.042879458011626695 0 -0.0081017356010765467 0.04202333859039669 0 -0.0075553808002716133 0.042220440738835158 0 -0.0081288616354248406 0.041467411525960444 0 -0.0071734524681599998 0.040630079081843358 0 -0.0071332177975645551 0.040636755372453211 0 -0.0070958511063876541 0.040637316561984917 0 -0.0071332177975645551 0.040636755372453211 0 -0.0070958511063876541 0.040637316561984917 0 -0.0070746551590183289 0.04066403687981629 0 -0.0075337859430495147 0.040881779586053872 0 -0.0071502565150888698 0.040702008889948155 0 -0.0075553808002716133 0.042220440738835158 0 -0.0071734524681599998 0.040630079081843358 0 -0.0071502565150888698 0.040702008889948155 0 -0.0070958511063876541 0.040637316561984917 0 -0.0072221177958765453 0.041189352445733955 0 -0.0073030501291014155 0.041396450045409879 0 -0.0075337859430495147 0.040881779586053872 0 -0.0075553808002716133 0.042220440738835158 0 -0.0077992684924664537 0.041344512182924051 0 -0.0079466549282218996 0.040871033794024375 0 -0.0075337859430495147 0.040881779586053872 0 -0.0077992684924664537 0.041344512182924051 0 -0.0079466549282218996 0.040871033794024375 0 -0.0077992684924664537 0.041344512182924051 0 -0.0081288616354248406 0.041467411525960444 0 -0.0075553808002716133 0.042220440738835158 0 -0.0077992684924664537 0.041344512182924051 0 -0.0081288616354248406 0.041467411525960444 0 -0.0084382949840209054 0.040864752024541526 0 -0.0079466549282218996 0.040871033794024375 0 -0.0081288616354248406 0.041467411525960444 0 -0.0084382949840209054 0.040864752024541526 0 -0.0081288616354248406 0.041467411525960444 0 -0.00875016935737522 0.041489719310318217 0 -0.0081017356010765467 0.04202333859039669 0 -0.0081288616354248406 0.041467411525960444 0 -0.00875016935737522 0.041489719310318217 0 -0.0056419959458499274 0.045009018663727203 0 -0.0066118398370826692 0.045066927183899257 0 -0.005908225017630153 0.044084027812567254 0 -0.0055620765559921959 0.047440564172179255 0 -0.0038920241867035558 0.045981189388206591 0 -0.0066118398370826692 0.045066927183899257 0 -0.0047836791097557053 0.047875263935349362 0 -0.0054887374169413188 0.04740466258245353 0 -0.0055620765559921959 0.047440564172179255 0 -0.0076829929171858095 0.045601958003407703 0 -0.0066118398370826692 0.045066927183899257 0 -0.005908225017630153 0.044084027812567254 0 -0.0068197394982481572 0.04372225369030025 0 -0.005930504322099941 0.04302668660287861 0 -0.0066118398370826692 0.045066927183899257 0 -0.005908225017630153 0.044084027812567254 0 -0.0068197394982481572 0.04372225369030025 0 -0.0081017356010765467 0.04202333859039669 0 -0.00875016935737522 0.041489719310318217 0 -0.0080105283563968073 0.042879458011626695 0 -0.0076829929171858095 0.045601958003407703 0 -0.0068197394982481572 0.04372225369030025 0 -0.0080105283563968073 0.042879458011626695 0 -0.0076829929171858095 0.045601958003407703 0 -0.0066118398370826692 0.045066927183899257 0 -0.0068197394982481572 0.04372225369030025 0 -0.0078258549839877803 0.043754377323306948 0 -0.0079657761530276816 0.04335474778096754 0 -0.0068197394982481572 0.04372225369030025 0 -0.0070125110207248445 0.042723536159075218 0 -0.0080105283563968073 0.042879458011626695 0 -0.0070125110207248445 0.042723536159075218 0 -0.0079775268152900789 0.042854959077634883 0 -0.0080105283563968073 0.042879458011626695 0 -0.0068197394982481572 0.04372225369030025 0 -0.0070125110207248445 0.042723536159075218 0 -0.005930504322099941 0.04302668660287861 0 -0.0070125110207248445 0.042723536159075218 0 -0.0068320902001669835 0.041371769788375326 0 -0.0060079435475976131 0.041770793878541664 0 -0.0070125110207248445 0.042723536159075218 0 -0.005930504322099941 0.04302668660287861 0 -0.0060079435475976131 0.041770793878541664 0 -0.0070125110207248445 0.042723536159075218 0 -0.0079775268152900789 0.042854959077634883 0 -0.0068320902001669835 0.041371769788375326 0 -0.0070709501836880564 0.040728194507197835 0 -0.0069390475307744481 0.041050353896644132 0 -0.0068320902001669835 0.041371769788375326 0 -0.0073231768801277491 0.041544524327157245 0 -0.0072074838065583832 0.041443388373108028 0 -0.0070084735713111081 0.040813746011721552 0 -0.0070709501836880564 0.040728194507197835 0 -0.0069390475307744481 0.041050353896644132 0 -0.0070154835874179583 0.040781596740697423 0 -0.0070084735713111081 0.040813746011721552 0 -0.0069390475307744481 0.041050353896644132 0 -0.0070154835874179583 0.040781596740697423 0 -0.0070462934518425759 0.040747781354757394 0 -0.0069390475307744481 0.041050353896644132 0 -0.0070084735713111081 0.040813746011721552 0 -0.0070709501836880564 0.040728194507197835 0 -0.0070415497908226463 0.040719001682482256 0 -0.0070154835874179583 0.040781596740697423 0 -0.0070084735713111081 0.040813746011721552 0 -0.0070415497908226463 0.040719001682482256 0 -0.0073030501291014155 0.041396450045409879 0 -0.0073231768801277491 0.041544524327157245 0 -0.0070709501836880564 0.040728194507197835 0 -0.0070415497908226463 0.040719001682482256 0 -0.0070746551590183289 0.04066403687981629 0 -0.0070958511063876541 0.040637316561984917 0 -0.0070709501836880564 0.040728194507197835 0 -0.0070746551590183289 0.04066403687981629 0 -0.0075553808002716133 0.042220440738835158 0 -0.0079775268152900789 0.042854959077634883 0 -0.0080105283563968073 0.042879458011626695 0 -0.0071414050785126052 0.04063141313444063 0 -0.0070746551590183289 0.04066403687981629 0 -0.0070756153424017575 0.040655125824519835 0 -0.0071414050785126052 0.04063141313444063 0 -0.0071332177975645551 0.040636755372453211 0 -0.0070746551590183289 0.04066403687981629 0 -0.0070415497908226463 0.040719001682482256 0 -0.0070746551590183289 0.04066403687981629 0 -0.0070756153424017575 0.040655125824519835 0 -0.0070415497908226463 0.040719001682482256 0 -0.0070756153424017575 0.040655125824519835 0 -0.0070485233217167393 0.040689044672097538 0 -0.0071321583495333029 0.040600389729769509 0 -0.0070756153424017575 0.040655125824519835 0 -0.0070943274424230696 0.040596063727762408 0 -0.0070756153424017575 0.040655125824519835 0 -0.0070943274424230696 0.040596063727762408 0 -0.0070485233217167393 0.040689044672097538 0 -0.0070943274424230696 0.040596063727762408 0 -0.0070485233217167393 0.040689044672097538 0 -0.0070634385427537734 0.040658336821845636 0 -0.0070154835874179583 0.040781596740697423 0 -0.0070415497908226463 0.040719001682482256 0 -0.0070485233217167393 0.040689044672097538 0 -0.0070154835874179583 0.040781596740697423 0 -0.0070634385427537734 0.040658336821845636 0 -0.0070462934518425759 0.040747781354757394 0 -0.0070154835874179583 0.040781596740697423 0 -0.0070485233217167393 0.040689044672097538 0 -0.0070634385427537734 0.040658336821845636 0 -0.0071171979839169709 0.040529853874944691 0 -0.0070943274424230696 0.040596063727762408 0 -0.0070634385427537734 0.040658336821845636 0 -0.0071171979839169709 0.040529853874944691 0 -0.0070634385427537734 0.040658336821845636 0 -0.0071117354954064313 0.04056312361709339 0 -0.0071117354954064313 0.04056312361709339 0 -0.0071671952742212606 0.04045690311883101 0 -0.0071699433610462604 0.040390614247276732 0 -0.0071117354954064313 0.04056312361709339 0 -0.0071150152603624665 0.040612193022010697 0 -0.0071671952742212606 0.04045690311883101 0 -0.0071117354954064313 0.04056312361709339 0 -0.0070462934518425759 0.040747781354757394 0 -0.0071150152603624665 0.040612193022010697 0 -0.0070634385427537734 0.040658336821845636 0 -0.0071117354954064313 0.04056312361709339 0 -0.0070462934518425759 0.040747781354757394 0 -0.0071150152603624665 0.040612193022010697 0 -0.007213778360577636 0.040483175299153254 0 -0.0070436089196446398 0.040786280055785253 0 -0.0070462934518425759 0.040747781354757394 0 -0.0071150152603624665 0.040612193022010697 0 -0.0070436089196446398 0.040786280055785253 0 -0.0071150152603624665 0.040612193022010697 0 -0.0071671952742212606 0.04045690311883101 0 -0.007213778360577636 0.040483175299153254 0 -0.007213778360577636 0.040483175299153254 0 -0.0071195138108951063 0.04067775459392825 0 -0.0073282499763019666 0.040413615680416563 0 -0.007213778360577636 0.040483175299153254 0 -0.0070436089196446398 0.040786280055785253 0 -0.0071195138108951063 0.04067775459392825 0 -0.0070436089196446398 0.040786280055785253 0 -0.0068510729968055909 0.0410531319484118 0 -0.0071195138108951063 0.04067775459392825 0 -0.0068510729968055909 0.0410531319484118 0 -0.0067020802381219961 0.040886424818344015 0 -0.0071195138108951063 0.04067775459392825 0 -0.0070436089196446398 0.040786280055785253 0 -0.0069390475307744481 0.041050353896644132 0 -0.0068510729968055909 0.0410531319484118 0 -0.0070462934518425759 0.040747781354757394 0 -0.0070436089196446398 0.040786280055785253 0 -0.0069390475307744481 0.041050353896644132 0 -0.0069390475307744481 0.041050353896644132 0 -0.0068320902001669835 0.041371769788375326 0 -0.0068510729968055909 0.0410531319484118 0 -0.0068320902001669835 0.041371769788375326 0 -0.0060079435475976131 0.041770793878541664 0 -0.0060848730618351275 0.041281451711537701 0 -0.0068320902001669835 0.041371769788375326 0 -0.0060848730618351275 0.041281451711537701 0 -0.0068510729968055909 0.0410531319484118 0 -0.0060848730618351275 0.041281451711537701 0 -0.0068510729968055909 0.0410531319484118 0 -0.0067020802381219961 0.040886424818344015 0 -0.0067020802381219961 0.040886424818344015 0 -0.0063294698794112373 0.040810214310701198 0 -0.0069986462182863593 0.040565767186106168 0 -0.0060848730618351275 0.041281451711537701 0 -0.0067020802381219961 0.040886424818344015 0 -0.0063294698794112373 0.040810214310701198 0 -0.0060848730618351275 0.041281451711537701 0 -0.0063294698794112373 0.040810214310701198 0 -0.0057964734224875301 0.040821790624595532 0 -0.0063294698794112373 0.040810214310701198 0 -0.0057964734224875301 0.040821790624595532 0 -0.0064721558977665307 0.040284283212347075 0 -0.0063294698794112373 0.040810214310701198 0 -0.0069986462182863593 0.040565767186106168 0 -0.0064721558977665307 0.040284283212347075 0 -0.0069986462182863593 0.040565767186106168 0 -0.0071529244372706404 0.040134084404149596 0 -0.0064721558977665307 0.040284283212347075 0 -0.0069986462182863593 0.040565767186106168 0 -0.0074226034691054947 0.040325582659200096 0 -0.0071529244372706404 0.040134084404149596 0 -0.0069986462182863593 0.040565767186106168 0 -0.0074226034691054947 0.040325582659200096 0 -0.0073688203330776279 0.040516390127269319 0 -0.0071195138108951063 0.04067775459392825 0 -0.0073688203330776279 0.040516390127269319 0 -0.0073282499763019666 0.040413615680416563 0 -0.0069986462182863593 0.040565767186106168 0 -0.0071195138108951063 0.04067775459392825 0 -0.0073688203330776279 0.040516390127269319 0 -0.0067020802381219961 0.040886424818344015 0 -0.0069986462182863593 0.040565767186106168 0 -0.0071195138108951063 0.04067775459392825 0 -0.0016823459919716422 0.045615419617879162 0 -0.0037048743173709706 0.046523479266596682 0 -0.0033469978901907536 0.043960168988758076 0 -0.0016823459919716422 0.045615419617879162 0 -0.0020242067602086731 0.047889393286843648 0 -0.0037048743173709706 0.046523479266596682 0 -0.0033790041304628433 0.049831996522126137 0 -0.0020242067602086731 0.047889393286843648 0 -0.0037048743173709706 0.046523479266596682 0 -0.0037048743173709706 0.046523479266596682 0 -0.0059106692573392882 0.045793777775942256 0 -0.0033469978901907536 0.043960168988758076 0 -0.0052318508966891922 0.044000006359400143 0 -0.0053184596519775468 0.043155810198002985 0 -0.0056636789475351512 0.04883902085067842 0 -0.0037048743173709706 0.046523479266596682 0 -0.0059106692573392882 0.045793777775942256 0 -0.0049077102584404878 0.045603486434706561 0 -0.0052318508966891922 0.044000006359400143 0 -0.0050930054413371095 0.042186819336991754 0 -0.0060079435475976131 0.041770793878541664 0 -0.00553988506104238 0.041512336172909683 0 -0.0060848730618351275 0.041281451711537701 0 -0.00553988506104238 0.041512336172909683 0 -0.0054928206395733741 0.041934784013426013 0 -0.0060079435475976131 0.041770793878541664 0 -0.0060848730618351275 0.041281451711537701 0 -0.00553988506104238 0.041512336172909683 0 -0.0060848730618351275 0.041281451711537701 0 -0.0057964734224875301 0.040821790624595532 0 -0.0054928206395733741 0.041934784013426013 0 -0.0057964734224875301 0.040821790624595532 0 -0.0054928206395733741 0.041934784013426013 0 -0.0050111949334466369 0.04081755671043865 0 -0.0054928206395733741 0.041934784013426013 0 -0.0033505829284994565 0.04190076545538203 0 -0.0050111949334466369 0.04081755671043865 0 -0.0059106692573392882 0.045793777775942256 0 -0.0054928206395733741 0.041934784013426013 0 -0.0033469978901907536 0.043960168988758076 0 -0.0054928206395733741 0.041934784013426013 0 -0.0033469978901907536 0.043960168988758076 0 -0.0033505829284994565 0.04190076545538203 0 -0.0033505829284994565 0.04190076545538203 0 -0.0038526251114847513 0.040593146696261108 0 -0.0050111949334466369 0.04081755671043865 0 -0.0033505829284994565 0.04190076545538203 0 -0.0019825574113948564 0.041293945633112839 0 -0.0029682586020255788 0.040645099829947663 0 -0.0033505829284994565 0.04190076545538203 0 -0.0019825574113948564 0.041293945633112839 0 -0.0018363940406864914 0.043209171208925465 0 -0.0033469978901907536 0.043960168988758076 0 -0.0033505829284994565 0.04190076545538203 0 -0.0018363940406864914 0.043209171208925465 0 -0.0016823459919716422 0.045615419617879162 0 -0.0033469978901907536 0.043960168988758076 0 -0.0018363940406864914 0.043209171208925465 0 -0.0021602942907557924 0.038949538188891818 0 -0.0023449909178293745 0.039985614034888046 0 -0.0031093883112483177 0.037767346864332758 0 -0.0019658134096081394 0.039228306925764449 0 -0.0017244676549547824 0.039182159484927537 0 -0.0021602942907557924 0.038949538188891818 0 -0.0023449909178293745 0.039985614034888046 0 -0.0011726305298384405 0.040138077338295698 0 -0.0019825574113948564 0.041293945633112839 0 -0.0023449909178293745 0.039985614034888046 0 -0.0011726305298384405 0.040138077338295698 0 -0.0019825574113948564 0.041293945633112839 0 -0.0029682586020255788 0.040645099829947663 0 -0.0023449909178293745 0.039985614034888046 0 -0.0033505829284994565 0.04190076545538203 0 -0.0029682586020255788 0.040645099829947663 0 -0.0038526251114847513 0.040593146696261108 0 -0.0029682586020255788 0.040645099829947663 0 -0.0023449909178293745 0.039985614034888046 0 -0.0035955182899803802 0.039618842333085581 0 -0.0029682586020255788 0.040645099829947663 0 -0.0038526251114847513 0.040593146696261108 0 -0.0035955182899803802 0.039618842333085581 0 -0.0023449909178293745 0.039985614034888046 0 -0.0035955182899803802 0.039618842333085581 0 -0.0031628596330089769 0.038506536876210654 0 -0.0038526251114847513 0.040593146696261108 0 -0.0035955182899803802 0.039618842333085581 0 -0.0046865519350592242 0.039722116589526582 0 -0.0035955182899803802 0.039618842333085581 0 -0.0046865519350592242 0.039722116589526582 0 -0.0043321573944269508 0.03865648870227667 0 -0.0038526251114847513 0.040593146696261108 0 -0.0046865519350592242 0.039722116589526582 0 -0.0050111949334466369 0.04081755671043865 0 -0.0057964734224875301 0.040821790624595532 0 -0.0050111949334466369 0.04081755671043865 0 -0.0055631668977225201 0.039907357049911753 0 -0.0046865519350592242 0.039722116589526582 0 -0.0050111949334466369 0.04081755671043865 0 -0.0055631668977225201 0.039907357049911753 0 -0.0046865519350592242 0.039722116589526582 0 -0.0055631668977225201 0.039907357049911753 0 -0.0053771828681796969 0.039007903125749713 0 -0.0046865519350592242 0.039722116589526582 0 -0.0043321573944269508 0.03865648870227667 0 -0.0053771828681796969 0.039007903125749713 0 -0.0048717493086038776 0.037903976294804381 0 -0.0043321573944269508 0.03865648870227667 0 -0.0053771828681796969 0.039007903125749713 0 -0.0037282554986869162 0.038268687421662652 0 -0.0028905820464648077 0.038226185530892069 0 -0.0048717493086038776 0.037903976294804381 0 -0.0043321573944269508 0.03865648870227667 0 -0.004037800658549728 0.037611501906636556 0 -0.0035955182899803802 0.039618842333085581 0 -0.0043321573944269508 0.03865648870227667 0 -0.0031628596330089769 0.038506536876210654 0 -0.0017244676549547824 0.039182159484927537 0 -0.0028905820464648077 0.038226185530892069 0 -0.0019762049604543398 0.038765554230797507 0 -0.0020115945730672011 0.03866865258590247 0 -0.0020475100229769114 0.038678746061073854 0 -0.0017244676549547824 0.039182159484927537 0 -0.0020170513841977376 0.038412929167437576 0 0.0012479873663882391 0.040650463651835694 0 0.0013298074868336373 0.04046642248383113 0 0.0011405351784821514 0.040353147707679109 0 -0.0043321573944269508 0.03865648870227667 0 -0.0031628596330089769 0.038506536876210654 0 -0.004037800658549728 0.037611501906636556 0 0.0013298074868336373 0.04046642248383113 0 0.0015191569146074827 0.040580192012900806 0 0.0014252763027352052 0.040272792832478047 0 0.0012479873663882391 0.040650463651835694 0 0.0013298074868336373 0.04046642248383113 0 0.0015191569146074827 0.040580192012900806 0 0.0013885382275611057 0.040821564334098358 0 0.0012479873663882391 0.040650463651835694 0 0.0015191569146074827 0.040580192012900806 0 -0.00063801082400031693 0.039899208199545851 0 -0.0017244676549547824 0.039182159484927537 0 -0.0069775236994226416 0.039514086199806377 0 -0.0077743635274242322 0.038907026387205258 0 -0.007795207730847231 0.039830265536252379 0 -0.0074226034691054947 0.040325582659200096 0 -0.0071529244372706404 0.040134084404149596 0 -0.007795207730847231 0.039830265536252379 0 -0.0069775236994226416 0.039514086199806377 0 -0.0071529244372706404 0.040134084404149596 0 -0.007795207730847231 0.039830265536252379 0 -0.0069775236994226416 0.039514086199806377 0 -0.0071529244372706404 0.040134084404149596 0 -0.0064721558977665307 0.040284283212347075 0 -0.0057964734224875301 0.040821790624595532 0 -0.0055631668977225201 0.039907357049911753 0 -0.0064721558977665307 0.040284283212347075 0 -0.0055631668977225201 0.039907357049911753 0 -0.0064721558977665307 0.040284283212347075 0 -0.0061372764141654308 0.039574218720125738 0 -0.0055631668977225201 0.039907357049911753 0 -0.0061372764141654308 0.039574218720125738 0 -0.0053771828681796969 0.039007903125749713 0 -0.0069775236994226416 0.039514086199806377 0 -0.0061372764141654308 0.039574218720125738 0 -0.006284880953941847 0.038878262104779751 0 -0.0069775236994226416 0.039514086199806377 0 -0.0064721558977665307 0.040284283212347075 0 -0.0061372764141654308 0.039574218720125738 0 -0.0061372764141654308 0.039574218720125738 0 -0.006284880953941847 0.038878262104779751 0 -0.0053771828681796969 0.039007903125749713 0 -0.006284880953941847 0.038878262104779751 0 -0.0053771828681796969 0.039007903125749713 0 -0.0056722398551186919 0.038308235967100313 0 -0.0048717493086038776 0.037903976294804381 0 -0.0053771828681796969 0.039007903125749713 0 -0.0056722398551186919 0.038308235967100313 0 -0.0048717493086038776 0.037903976294804381 0 -0.0056722398551186919 0.038308235967100313 0 -0.0054796640160181169 0.03744369352647809 0 -0.006284880953941847 0.038878262104779751 0 -0.006241787750946708 0.037849550275175267 0 -0.0070406803320236175 0.038362076330270549 0 -0.0056722398551186919 0.038308235967100313 0 -0.006241787750946708 0.037849550275175267 0 -0.0054796640160181169 0.03744369352647809 0 -0.006284880953941847 0.038878262104779751 0 -0.0056722398551186919 0.038308235967100313 0 -0.006241787750946708 0.037849550275175267 0 -0.006241787750946708 0.037849550275175267 0 -0.0068203819933687548 0.037705094171126399 0 -0.0070406803320236175 0.038362076330270549 0 -0.0068203819933687548 0.037705094171126399 0 -0.0070406803320236175 0.038362076330270549 0 -0.0073436671156079736 0.037719807153130877 0 -0.0069775236994226416 0.039514086199806377 0 -0.006284880953941847 0.038878262104779751 0 -0.0070406803320236175 0.038362076330270549 0 -0.0069775236994226416 0.039514086199806377 0 -0.0070406803320236175 0.038362076330270549 0 -0.0077743635274242322 0.038907026387205258 0 -0.0070983755561286341 0.035047899878545501 0 -0.0085271088631612563 0.034890709750479122 0 -0.0070406803320236175 0.038362076330270549 0 -0.0077743635274242322 0.038907026387205258 0 -0.0076359221927786878 0.037728468156565796 0 -0.0070406803320236175 0.038362076330270549 0 -0.0073436671156079736 0.037719807153130877 0 -0.0076359221927786878 0.037728468156565796 0 -0.0050516223110984443 0.031263474820935645 0 -0.0050410618230186917 0.031272333396687946 0 -0.0050746616464790702 0.03129674992199722 0 -0.0050410618230186917 0.031272333396687946 0 -0.0050478980961106649 0.031290058352504667 0 -0.0050746616464790702 0.03129674992199722 0 -0.0050410618230186917 0.031272333396687946 0 -0.005028587472806643 0.031278828433313637 0 -0.0050478980961106649 0.031290058352504667 0 -0.0050410618230186917 0.031272333396687946 0 -0.0050228589052972667 0.03125940759340879 0 -0.005028587472806643 0.031278828433313637 0 -0.0050228589052972667 0.03125940759340879 0 -0.0050261537620132045 0.031253412113478755 0 -0.0050138193603512906 0.031248346557798637 0 -0.0050410618230186917 0.031272333396687946 0 -0.0050228589052972667 0.03125940759340879 0 -0.0050261537620132045 0.031253412113478755 0 -0.0050516223110984443 0.031263474820935645 0 -0.0050410618230186917 0.031272333396687946 0 -0.0050261537620132045 0.031253412113478755 0 -0.0050261537620132045 0.031253412113478755 0 -0.0050092521102229181 0.031240578370584651 0 -0.0050230141800949018 0.031246809652674352 0 -0.0050516223110984443 0.031263474820935645 0 -0.0050261537620132045 0.031253412113478755 0 -0.0050230141800949018 0.031246809652674352 0 -0.0070983755561286341 0.035047899878545501 0 -0.0062905782480479327 0.03586197766566529 0 -0.0050092521102229181 0.031240578370584651 0 -0.0050120027566358675 0.031213198689246695 0 -0.0050001516727426936 0.031171227191466838 0 -0.0032547875706136738 0.029622063109314426 0 -0.0031379080566722099 0.028736624958518604 0 -0.0050261537620132045 0.031253412113478755 0 -0.0050092521102229181 0.031240578370584651 0 -0.0050138193603512906 0.031248346557798637 0 -0.0050092521102229181 0.031240578370584651 0 -0.0050159310037744239 0.03124333388432643 0 -0.0050095586308946914 0.03126368324606197 0 -0.0062905782480479327 0.03586197766566529 0 -0.0057120146064362611 0.037879952921383339 0 -0.0050092521102229181 0.031240578370584651 0 -0.0050230141800949018 0.031246809652674352 0 -0.0050095586308946914 0.03126368324606197 0 -0.0048601322114776475 0.035464787066909295 0 -0.0032276467237059587 0.032127744578364266 0 -0.0052622618460994907 0.042445647422989931 0 -0.0068749164635372294 0.04246338312431313 0 -0.0053011121800058134 0.043666621223188339 0 -0.0050159310037744239 0.03124333388432643 0 -0.005022513493490117 0.031191122370743132 0 -0.0050120027566358675 0.031213198689246695 0 -0.0050092521102229181 0.031240578370584651 0 -0.0050159310037744239 0.03124333388432643 0 -0.0050120027566358675 0.031213198689246695 0 -0.0050159310037744239 0.03124333388432643 0 -0.005022513493490117 0.031191122370743132 0 -0.0050568112406316089 0.031198713893389827 0 -0.005022513493490117 0.031191122370743132 0 -0.0050120027566358675 0.031213198689246695 0 -0.0050001516727426936 0.031171227191466838 0 -0.005022513493490117 0.031191122370743132 0 -0.0050001516727426936 0.031171227191466838 0 -0.0050147604446089513 0.031145648935598961 0 -0.005022513493490117 0.031191122370743132 0 -0.0050568112406316089 0.031198713893389827 0 -0.0050147604446089513 0.031145648935598961 0 -0.0032276467237059587 0.032127744578364266 0 -0.003537585912469241 0.031999721751280727 0 -0.0049230110718468303 0.030987416261744827 0 -0.0049679978778708733 0.031143414427261526 0 -0.0048416068230588451 0.031041136787302241 0 -0.0014443621709538455 0.024826583286651892 0 -0.0023443824549349412 0.027946333228608511 0 -0.0049230110718468303 0.030987416261744827 0 -0.0049679978778708733 0.031143414427261526 0 -0.0050147604446089513 0.031145648935598961 0 0.0059708828445507109 0.012059304310856047 0 0.0038624769691185273 0.01235957629891554 0 0.0028788690499587286 0.014988924631171578 0 -0.0049679978778708733 0.031143414427261526 0 -0.0050147604446089513 0.031145648935598961 0 -0.0050243343598340255 0.03114563020383011 0 0.0059708828445507109 0.012059304310856047 0 0.0088548755435637842 0.009337839069967508 0 0.0058898830035498898 0.0091887388570213707 0 -0.0014443621709538455 0.024826583286651892 0 -0.0032874388049444108 0.024541385452160357 0 0.0059708828445507109 0.012059304310856047 0 0.004572185576732518 0.010346713216694104 0 0.0038624769691185273 0.01235957629891554 0 0.0059708828445507109 0.012059304310856047 0 0.004572185576732518 0.010346713216694104 0 0.0058898830035498898 0.0091887388570213707 0 -0.0050228589052972667 0.03125940759340879 0 -0.0050138193603512906 0.031248346557798637 0 -0.0050094812444550297 0.031255086063391113 0 -0.0050001516727426936 0.031171227191466838 0 -0.0050147604446089513 0.031145648935598961 0 -0.0050243343598340255 0.03114563020383011 0 -0.0031379080566722099 0.028736624958518604 0 -0.0032874388049444108 0.024541385452160357 0 -0.0032874388049444108 0.024541385452160357 0 -0.0083747285859615411 0.029716714487192552 0 -0.0037919863909449038 0.025553384150870308 0 -0.0036589119192896339 0.025833841819910025 0 -0.0040970183556582477 0.025828293381521893 0 -0.0050228589052972667 0.03125940759340879 0 -0.0050094812444550297 0.031255086063391113 0 -0.005028587472806643 0.031278828433313637 0 -0.0032874388049444108 0.024541385452160357 0 -0.0030769304700860923 0.022594486713381327 0 0.0046224230562728029 0.0088374611141816446 0 0.0058898830035498898 0.0091887388570213707 0 0.0049428296921477446 0.0075318329720209642 0 0.004572185576732518 0.010346713216694104 0 0.0046224230562728029 0.0088374611141816446 0 0.0035389930152143743 0.0092421278267879759 0 0.004572185576732518 0.010346713216694104 0 0.0046224230562728029 0.0088374611141816446 0 0.0058898830035498898 0.0091887388570213707 0 0.0088548755435637842 0.009337839069967508 0 0.0058898830035498898 0.0091887388570213707 0 0.0064441019672684535 0.007734525652452676 0 0.0064441019672684535 0.007734525652452676 0 0.0055955354808657739 0.006792384645413623 0 0.0071701110194762633 0.0058806744024551662 0 0.0088548755435637842 0.009337839069967508 0 0.0064441019672684535 0.007734525652452676 0 0.0071701110194762633 0.0058806744024551662 0 0.0055955354808657739 0.006792384645413623 0 0.0044327194993897378 0.0067408217550316762 0 0.0052048435913282266 0.0058637971553096996 0 0.0058898830035498898 0.0091887388570213707 0 0.0064441019672684535 0.007734525652452676 0 0.0049428296921477446 0.0075318329720209642 0 0.0064441019672684535 0.007734525652452676 0 0.0055955354808657739 0.006792384645413623 0 0.0049428296921477446 0.0075318329720209642 0 0.0046224230562728029 0.0088374611141816446 0 0.0049428296921477446 0.0075318329720209642 0 0.0041370607597756241 0.0079249902298720223 0 0.0049428296921477446 0.0075318329720209642 0 0.0042724826246703937 0.0072478476173591768 0 0.0041370607597756241 0.0079249902298720223 0 0.0049428296921477446 0.0075318329720209642 0 0.0042724826246703937 0.0072478476173591768 0 0.0044327194993897378 0.0067408217550316762 0 0.0055955354808657739 0.006792384645413623 0 0.0049428296921477446 0.0075318329720209642 0 0.0044327194993897378 0.0067408217550316762 0 0.0035879422659141473 0.0068164366048248321 0 0.0041370607597756241 0.0079249902298720223 0 0.0035389930152143743 0.0092421278267879759 0 0.0035879422659141473 0.0068164366048248321 0 0.0027633631907183352 0.0069683312313612031 0 0.0030148455451159215 0.008053316519971843 0 0.0035879422659141473 0.0068164366048248321 0 0.0035389930152143743 0.0092421278267879759 0 0.0017976984690537662 0.010855807957269868 0 0.0024259989775512773 0.010116525661740632 0 0.0018935447714258473 0.011526368197509266 0 0.0044327194993897378 0.0067408217550316762 0 0.0035879422659141473 0.0068164366048248321 0 0.0036901865050474065 0.0060553604541024875 0 0.0042724826246703937 0.0072478476173591768 0 0.0044327194993897378 0.0067408217550316762 0 0.0035879422659141473 0.0068164366048248321 0 0.0042724826246703937 0.0072478476173591768 0 0.0035879422659141473 0.0068164366048248321 0 0.0041370607597756241 0.0079249902298720223 0 0.0046224230562728029 0.0088374611141816446 0 0.0041370607597756241 0.0079249902298720223 0 0.0035389930152143743 0.0092421278267879759 0 0.0027633631907183352 0.0069683312313612031 0 0.001922633748194273 0.0073492307916829171 0 0.0030148455451159215 0.008053316519971843 0 0.0035879422659141473 0.0068164366048248321 0 0.0027633631907183352 0.0069683312313612031 0 0.0030355629488626966 0.0063414884487311288 0 0.0027633631907183352 0.0069683312313612031 0 0.0022916105325898532 0.0062538145247341085 0 0.0030355629488626966 0.0063414884487311288 0 0.001922633748194273 0.0073492307916829171 0 0.00028698890749812641 0.0079555876433101882 0 0.0013038514248289673 0.0063500888864492389 0 0.001922633748194273 0.0073492307916829171 0 0.0013038514248289673 0.0063500888864492389 0 0.0022916105325898532 0.0062538145247341085 0 0.0027633631907183352 0.0069683312313612031 0 0.001922633748194273 0.0073492307916829171 0 0.0022916105325898532 0.0062538145247341085 0 0.0018192245663355992 0.0084635660528876427 0 0.00028698890749812641 0.0079555876433101882 0 0.0018528496505203428 0.0098773455997132435 0 0.001922633748194273 0.0073492307916829171 0 0.0018192245663355992 0.0084635660528876427 0 0.00028698890749812641 0.0079555876433101882 0 0.0018192245663355992 0.0084635660528876427 0 0.0030148455451159215 0.008053316519971843 0 0.0024611109821497724 0.0094573365054859086 0 0.001922633748194273 0.0073492307916829171 0 0.0018192245663355992 0.0084635660528876427 0 0.0030148455451159215 0.008053316519971843 0 0.0018935447714258473 0.011526368197509266 0 0.00049649175856345885 0.015311276517822159 0 0.0038624769691185273 0.01235957629891554 0 0.0017976984690537662 0.010855807957269868 0 0.00021628095219299116 0.014867514099094295 0 0.0014153233604659306 0.014603504346275385 0 0.00049649175856345885 0.015311276517822159 0 0.004572185576732518 0.010346713216694104 0 0.0038624769691185273 0.01235957629891554 0 0.0033755164056786945 0.010736009951094036 0 0.0038624769691185273 0.01235957629891554 0 0.0033755164056786945 0.010736009951094036 0 0.0017976984690537662 0.010855807957269868 0 0.004572185576732518 0.010346713216694104 0 0.0035389930152143743 0.0092421278267879759 0 0.0033755164056786945 0.010736009951094036 0 0.0035389930152143743 0.0092421278267879759 0 0.0033755164056786945 0.010736009951094036 0 0.0017976984690537662 0.010855807957269868 0 -0.015573343862017565 -0.0072127048153149227 0 -0.012806146298519986 -0.0075549526001249369 0 -0.012644805324612934 -0.0036112505176934991 0 0.00028698890749812641 0.0079555876433101882 0 0.0001689050826587976 0.0054815614408586077 0 -0.0013150259552264405 0.0059729334926727894 0 -0.012806146298519986 -0.0075549526001249369 0 -0.012644805324612934 -0.0036112505176934991 0 -0.01119969767953595 -0.0057216050318585178 0 -0.0066835749128642567 0.0029984039935656631 0 -0.0042468464067176581 0.0014700884414627084 0 0.00028698890749812641 0.0079555876433101882 0 0.0001689050826587976 0.0054815614408586077 0 0.0013038514248289673 0.0063500888864492389 0 -0.0066835749128642567 0.0029984039935656631 0 -0.001610942520719644 0.014840997230512656 0 -0.012806146298519986 -0.0075549526001249369 0 -0.013748542546362152 -0.010217860743742516 0 -0.011874534453729648 -0.010222798315422941 0 -0.015573343862017565 -0.0072127048153149227 0 -0.012806146298519986 -0.0075549526001249369 0 -0.013748542546362152 -0.010217860743742516 0 -0.013748542546362152 -0.010217860743742516 0 -0.012755257942871573 -0.012422376079202544 0 -0.011874534453729648 -0.010222798315422941 0 -0.013748542546362152 -0.010217860743742516 0 -0.014252491485884986 -0.011766929710735391 0 -0.015778279432894768 -0.011015305783986745 0 -0.013748542546362152 -0.010217860743742516 0 -0.014252491485884986 -0.011766929710735391 0 -0.012755257942871573 -0.012422376079202544 0 -0.015573343862017565 -0.0072127048153149227 0 -0.015778279432894768 -0.011015305783986745 0 -0.01845653342918931 -0.010756362864178066 0 -0.015573343862017565 -0.0072127048153149227 0 -0.013748542546362152 -0.010217860743742516 0 -0.015778279432894768 -0.011015305783986745 0 -0.015778279432894768 -0.011015305783986745 0 -0.014723176840546427 -0.013408406995161637 0 -0.01845653342918931 -0.010756362864178066 0 1.0515093372172805e-05 0.038264297466045961 0 -0.00064505250477187937 0.038325049488250808 0 -0.00012973020958333934 0.037891128055839933 0 -0.001302289615694371 0.026795309089011135 0 -0.003177325573528253 0.031554771029722088 0 -0.0050772066658484188 0.013933801960273254 0 -0.001610942520719644 0.014840997230512656 0 -0.014252491485884986 -0.011766929710735391 0 -0.015778279432894768 -0.011015305783986745 0 -0.014723176840546427 -0.013408406995161637 0 -0.014723176840546427 -0.013408406995161637 0 -0.012755257942871573 -0.012422376079202544 0 -0.010972277723371837 -0.016101910952945355 0 -0.014252491485884986 -0.011766929710735391 0 -0.014723176840546427 -0.013408406995161637 0 -0.012755257942871573 -0.012422376079202544 0 -0.0023443824549349412 0.027946333228608511 0 0.00018338747503094817 0.024318126275012644 0 -0.00026551557692050765 0.036314861489476345 0 -0.00049170315318110129 0.036539209187793041 0 -0.00033692620213700519 0.036557338823880119 0 0.0028788690499587286 0.014988924631171578 0 9.7802318908532689e-05 0.014988519728654805 0 -0.00033543574611230939 0.017941311022382785 0 -0.00010930188345230658 0.036438296438993475 0 -0.00026551557692050765 0.036314861489476345 0 -0.00033692620213700519 0.036557338823880119 0 0.0038624769691185273 0.01235957629891554 0 0.0028788690499587286 0.014988924631171578 0 9.7802318908532689e-05 0.014988519728654805 0 -0.0032276467237059587 0.032127744578364266 0 -0.0023443824549349412 0.027946333228608511 0 0.0018192245663355992 0.0084635660528876427 0 0.0024611109821497724 0.0094573365054859086 0 0.0018528496505203428 0.0098773455997132435 0 0.00049649175856345885 0.015311276517822159 0 -0.001610942520719644 0.014840997230512656 0 9.7802318908532689e-05 0.014988519728654805 0 -0.00082097373994976619 0.017344023072581833 0 -0.00033543574611230939 0.017941311022382785 0 -0.00062480184411176109 0.038561685744393774 0 -0.00070741451959877868 0.038462400758078476 0 -0.00064505250477187937 0.038325049488250808 0 0.00049649175856345885 0.015311276517822159 0 -0.0002346550739293438 0.021662846562634133 0 -0.0047895714187604042 0.020018972146022183 0 0.0049206522749925055 0.013360173487208794 0 0.00015768111473730894 0.0075123852978939074 0 -0.001610942520719644 0.014840997230512656 0 -0.0002346550739293438 0.021662846562634133 0 -0.0002346550739293438 0.021662846562634133 0 0.00018338747503094817 0.024318126275012644 0 -0.001302289615694371 0.026795309089011135 0 -0.0022057532095372764 0.033976832262721718 0 -0.00047398974289986285 0.036564438638014958 0 -0.00053734305622778417 0.036640081938847741 0 -0.0004374094500792416 0.036609799461758921 0 -0.00053734305622778417 0.036640081938847741 0 -0.00046486017863910047 0.036757767852504709 0 -0.0004374094500792416 0.036609799461758921 0 0.00018338747503094817 0.024318126275012644 0 0.00029679701360377778 0.024548127621209989 0 1.0515093372172805e-05 0.038264297466045961 0 -0.00062480184411176109 0.038561685744393774 0 -0.00064505250477187937 0.038325049488250808 0 -0.00053734305622778417 0.036640081938847741 0 -0.00046486017863910047 0.036757767852504709 0 -0.00049196046574024308 0.036881945251490938 0 -0.00028642652770901575 0.031517923404550043 0 -0.0035286938519501249 0.027537192908056254 0 0.0039603644597426746 0.020775281974362677 0 -0.0002346550739293438 0.021662846562634133 0 -0.001302289615694371 0.026795309089011135 0 0.00018338747503094817 0.024318126275012644 0 -0.001302289615694371 0.026795309089011135 0 -0.0032276467237059587 0.032127744578364266 0 -0.003445160645167613 0.037269801024237235 0 -0.00033692620213700519 0.036557338823880119 0 -0.0004374094500792416 0.036609799461758921 0 -0.0003911840977766565 0.036863894839627799 0 -0.00010930188345230658 0.036438296438993475 0 -0.00033692620213700519 0.036557338823880119 0 -0.0003911840977766565 0.036863894839627799 0 -0.0052622618460994907 0.042445647422989931 0 -0.0053011121800058134 0.043666621223188339 0 -0.0042020850935331165 0.042092046950330086 0 -0.00046486017863910047 0.036757767852504709 0 -0.0004374094500792416 0.036609799461758921 0 -0.0003911840977766565 0.036863894839627799 0 -0.00049170315318110129 0.036539209187793041 0 -0.00033692620213700519 0.036557338823880119 0 -0.0004374094500792416 0.036609799461758921 0 -0.0049129857904311432 0.041509361411560405 0 -0.0042020850935331165 0.042092046950330086 0 -0.0042880833314558244 0.04075561294606965 0 -0.0052622618460994907 0.042445647422989931 0 -0.0049129857904311432 0.041509361411560405 0 -0.0042020850935331165 0.042092046950330086 0 -0.00049196046574024308 0.036881945251490938 0 -0.00056205943260570653 0.036962176748855914 0 -0.00055391408586475223 0.036993782874446206 0 -0.00046486017863910047 0.036757767852504709 0 -0.0003911840977766565 0.036863894839627799 0 -0.00049196046574024308 0.036881945251490938 0 -0.0003911840977766565 0.036863894839627799 0 -0.00049196046574024308 0.036881945251490938 0 -0.00055391408586475223 0.036993782874446206 0 -0.00053734305622778417 0.036640081938847741 0 -0.00049196046574024308 0.036881945251490938 0 -0.00056205943260570653 0.036962176748855914 0 -0.003445160645167613 0.037269801024237235 0 -0.0023719730942146234 0.037723622604152823 0 -0.0028544210542455675 0.040373310230365035 0 -0.0042880833314558244 0.04075561294606965 0 -0.0037641666064916215 0.039782444966315403 0 -0.0042020850935331165 0.042092046950330086 0 -0.0028544210542455675 0.040373310230365035 0 -0.0042880833314558244 0.04075561294606965 0 -0.0042880833314558244 0.04075561294606965 0 -0.0046978199401252882 0.039807214662902733 0 -0.0037641666064916215 0.039782444966315403 0 -0.0042880833314558244 0.04075561294606965 0 -0.0046978199401252882 0.039807214662902733 0 -0.0054502497375457206 0.040639546743961356 0 -0.0049129857904311432 0.041509361411560405 0 -0.0042880833314558244 0.04075561294606965 0 -0.0054502497375457206 0.040639546743961356 0 -0.00012973020958333934 0.037891128055839933 0 0.0003186132443922054 0.03737940106346474 0 0.001023621345959627 0.037943206717688562 0 -0.0050772066658484188 0.013933801960273254 0 -0.0038701384291197423 0.012081353928789238 0 1.0515093372172805e-05 0.038264297466045961 0 -0.00012973020958333934 0.037891128055839933 0 0.001023621345959627 0.037943206717688562 0 -0.00086796332639338999 0.03846355485716596 0 -0.00057076263983274445 0.037777551004685814 0 -0.00012973020958333934 0.037891128055839933 0 -0.00057076263983274445 0.037777551004685814 0 -0.00012973020958333934 0.037891128055839933 0 -0.00016639275655641969 0.037469500144868599 0 -0.0022057532095372764 0.033976832262721718 0 -0.0021412251455904152 0.035241141399565627 0 -0.00056205943260570653 0.036962176748855914 0 -0.00055391408586475223 0.036993782874446206 0 -0.0003219049650777706 0.036888880779383487 0 -0.00057076263983274445 0.037777551004685814 0 -0.00016639275655641969 0.037469500144868599 0 -0.0003219049650777706 0.036888880779383487 0 -0.00016639275655641969 0.037469500144868599 0 0.0003186132443922054 0.03737940106346474 0 -0.0003219049650777706 0.036888880779383487 0 -0.00012973020958333934 0.037891128055839933 0 -0.00016639275655641969 0.037469500144868599 0 0.0003186132443922054 0.03737940106346474 0 0.0003186132443922054 0.03737940106346474 0 0.00013206742024580236 0.036668777813227423 0 0.00072893629736939269 0.036963108481743855 0 0.0003186132443922054 0.03737940106346474 0 0.00013206742024580236 0.036668777813227423 0 -0.0003219049650777706 0.036888880779383487 0 0.00013206742024580236 0.036668777813227423 0 0.0005108186449555947 0.036038607161958558 0 0.00072893629736939269 0.036963108481743855 0 0.00013206742024580236 0.036668777813227423 0 -0.00033057851908357391 0.036308117896349065 0 0.0005108186449555947 0.036038607161958558 0 -0.0023719730942146234 0.037723622604152823 0 -0.001312510484539573 0.036885186622480651 0 0.00013206742024580236 0.036668777813227423 0 -0.0003219049650777706 0.036888880779383487 0 -0.00033057851908357391 0.036308117896349065 0 -0.00055391408586475223 0.036993782874446206 0 -0.0003219049650777706 0.036888880779383487 0 -0.00033057851908357391 0.036308117896349065 0 -0.0015608544663874419 0.035904710022835386 0 -0.0013295949660491139 0.038116945146152159 0 -0.0030825843558475231 0.037242659791944709 0 -0.00072769996436626799 0.036128041989623286 0 -0.001312510484539573 0.036885186622480651 0 3.7020351255429244e-05 0.035147729649196505 0 -0.00033057851908357391 0.036308117896349065 0 0.0005108186449555947 0.036038607161958558 0 -0.0038969178560596279 0.038643538166678176 0 -0.0050361125847902142 0.038805485972988295 0 -0.0046978199401252882 0.039807214662902733 0 -0.0038969178560596279 0.038643538166678176 0 -0.0046978199401252882 0.039807214662902733 0 -0.0037641666064916215 0.039782444966315403 0 -0.0028544210542455675 0.040373310230365035 0 -0.0013295949660491139 0.038116945146152159 0 -0.0029965215414195835 0.038855389805217667 0 -0.0028544210542455675 0.040373310230365035 0 -0.0037641666064916215 0.039782444966315403 0 -0.0029965215414195835 0.038855389805217667 0 -0.0038969178560596279 0.038643538166678176 0 -0.0037641666064916215 0.039782444966315403 0 -0.0029965215414195835 0.038855389805217667 0 -0.0038969178560596279 0.038643538166678176 0 -0.0029965215414195835 0.038855389805217667 0 -0.0030825843558475231 0.037242659791944709 0 -0.0013295949660491139 0.038116945146152159 0 -0.0029965215414195835 0.038855389805217667 0 -0.0030825843558475231 0.037242659791944709 0 -0.0044346752340181598 0.036007527338693723 0 -0.0030825843558475231 0.037242659791944709 0 -0.0044177681367749593 0.037748519925888332 0 -0.0044346752340181598 0.036007527338693723 0 -0.0044177681367749593 0.037748519925888332 0 -0.0055660169028724253 0.037975271603653417 0 -0.0038969178560596279 0.038643538166678176 0 -0.0030825843558475231 0.037242659791944709 0 -0.0044177681367749593 0.037748519925888332 0 -0.0038969178560596279 0.038643538166678176 0 -0.0050361125847902142 0.038805485972988295 0 -0.0044177681367749593 0.037748519925888332 0 -0.0050361125847902142 0.038805485972988295 0 -0.0044177681367749593 0.037748519925888332 0 -0.0055660169028724253 0.037975271603653417 0 -0.0060315240825949187 0.036847658917864387 0 -0.0055660169028724253 0.037975271603653417 0 -0.006260927312292365 0.038500630151821792 0 -0.0055660169028724253 0.037975271603653417 0 -0.006260927312292365 0.038500630151821792 0 -0.0059099950210025716 0.039003150555053705 0 -0.0050361125847902142 0.038805485972988295 0 -0.0055660169028724253 0.037975271603653417 0 -0.0059099950210025716 0.039003150555053705 0 -0.0050361125847902142 0.038805485972988295 0 -0.0059099950210025716 0.039003150555053705 0 -0.0056009705099463675 0.039701005085059762 0 -0.0059099950210025716 0.039003150555053705 0 -0.0061660475162202315 0.039570575523619735 0 -0.0066571997913989446 0.039405285088833453 0 -0.006260927312292365 0.038500630151821792 0 -0.0059099950210025716 0.039003150555053705 0 -0.0066571997913989446 0.039405285088833453 0 -0.0059099950210025716 0.039003150555053705 0 -0.0061660475162202315 0.039570575523619735 0 -0.0056009705099463675 0.039701005085059762 0 -0.0061660475162202315 0.039570575523619735 0 -0.0056009705099463675 0.039701005085059762 0 -0.0064085847894882137 0.040083918638084907 0 -0.0050361125847902142 0.038805485972988295 0 -0.0046978199401252882 0.039807214662902733 0 -0.0056009705099463675 0.039701005085059762 0 -0.0069785806646544919 0.039785825185870136 0 -0.007392436479921393 0.039777382460712857 0 -0.0071930426703458719 0.040197913143559999 0 -0.0069785806646544919 0.039785825185870136 0 -0.0064085847894882137 0.040083918638084907 0 -0.0071930426703458719 0.040197913143559999 0 -0.0061660475162202315 0.039570575523619735 0 -0.0066571997913989446 0.039405285088833453 0 -0.0064085847894882137 0.040083918638084907 0 -0.0069785806646544919 0.039785825185870136 0 -0.0066571997913989446 0.039405285088833453 0 -0.0064085847894882137 0.040083918638084907 0 -0.0066571997913989446 0.039405285088833453 0 -0.0071278536926275083 0.039496519444060227 0 -0.0070227973851812852 0.03909250121549445 0 -0.0069785806646544919 0.039785825185870136 0 -0.0066571997913989446 0.039405285088833453 0 -0.0071278536926275083 0.039496519444060227 0 -0.0071278536926275083 0.039496519444060227 0 -0.007376552707597234 0.039517563349129516 0 -0.007392436479921393 0.039777382460712857 0 -0.0069785806646544919 0.039785825185870136 0 -0.0071278536926275083 0.039496519444060227 0 -0.007392436479921393 0.039777382460712857 0 -0.0071278536926275083 0.039496519444060227 0 -0.0070227973851812852 0.03909250121549445 0 -0.007376552707597234 0.039517563349129516 0 -0.0070227973851812852 0.03909250121549445 0 -0.0076500667536210454 0.039471238445110121 0 -0.007376552707597234 0.039517563349129516 0 -0.0070227973851812852 0.03909250121549445 0 -0.0067613343667680655 0.038138438319030105 0 -0.0076500667536210454 0.039471238445110121 0 -0.0072369337059341498 0.035802855396947615 0 -0.0067613343667680655 0.038138438319030105 0 -0.0076500667536210454 0.039471238445110121 0 -0.006260927312292365 0.038500630151821792 0 -0.0070227973851812852 0.03909250121549445 0 -0.0067613343667680655 0.038138438319030105 0 -0.006260927312292365 0.038500630151821792 0 -0.0066571997913989446 0.039405285088833453 0 -0.0070227973851812852 0.03909250121549445 0 -0.0060315240825949187 0.036847658917864387 0 -0.006260927312292365 0.038500630151821792 0 -0.0067613343667680655 0.038138438319030105 0 -0.0073458264111194967 0.040250790617367381 0 -0.0073084930450691109 0.040044515020004612 0 -0.0076500667536210454 0.039471238445110121 0 -0.0073084930450691109 0.040044515020004612 0 -0.0074348145285866411 0.039770842344124271 0 -0.0076500667536210454 0.039471238445110121 0 -0.0073084930450691109 0.040044515020004612 0 -0.0073344431723366219 0.039959199778689128 0 -0.0074348145285866411 0.039770842344124271 0 -0.0073344431723366219 0.039959199778689128 0 -0.0074348145285866411 0.039770842344124271 0 -0.0073717515002987869 0.039927626562361082 0 -0.0074348145285866411 0.039770842344124271 0 -0.0076500667536210454 0.039471238445110121 0 -0.007476805851034031 0.039668213573192383 0 -0.0076500667536210454 0.039471238445110121 0 -0.007376552707597234 0.039517563349129516 0 -0.007476805851034031 0.039668213573192383 0 -0.0071699433610462604 0.040390614247276732 0 -0.0072544680931061869 0.040162718649698587 0 -0.0072414470279032013 0.040269912007099645 0 -0.0071171979839169709 0.040529853874944691 0 -0.0071117354954064313 0.04056312361709339 0 -0.0071699433610462604 0.040390614247276732 0 -0.0072411291364096351 0.040366674242728495 0 -0.0073084930450691109 0.040044515020004612 0 -0.0072109131592963567 0.040294308917826163 0 -0.0071699433610462604 0.040390614247276732 0 -0.0072109131592963567 0.040294308917826163 0 -0.0072544680931061869 0.040162718649698587 0 -0.0073084930450691109 0.040044515020004612 0 -0.0072109131592963567 0.040294308917826163 0 -0.0072544680931061869 0.040162718649698587 0 -0.0073084671396825207 0.040077177724971325 0 -0.0072414470279032013 0.040269912007099645 0 -0.0073265518081241541 0.040178156547419387 0 -0.0073344431723366219 0.039959199778689128 0 -0.0072544680931061869 0.040162718649698587 0 -0.0073084671396825207 0.040077177724971325 0 -0.0073084930450691109 0.040044515020004612 0 -0.0073344431723366219 0.039959199778689128 0 -0.0072544680931061869 0.040162718649698587 0 -0.0073344431723366219 0.039959199778689128 0 -0.0073084671396825207 0.040077177724971325 0 -0.0073717515002987869 0.039927626562361082 0 -0.0072544680931061869 0.040162718649698587 0 -0.0073084671396825207 0.040077177724971325 0 -0.0072414470279032013 0.040269912007099645 0 -0.0071671952742212606 0.04045690311883101 0 -0.007213778360577636 0.040483175299153254 0 -0.0072414470279032013 0.040269912007099645 0 -0.0071671952742212606 0.04045690311883101 0 -0.0071699433610462604 0.040390614247276732 0 -0.0072414470279032013 0.040269912007099645 0 -0.0073265518081241541 0.040178156547419387 0 -0.0073282499763019666 0.040413615680416563 0 -0.0072311905773341355 0.040334819026918219 0 -0.007213778360577636 0.040483175299153254 0 -0.0072414470279032013 0.040269912007099645 0 -0.0073265518081241541 0.040178156547419387 0 -0.007213778360577636 0.040483175299153254 0 -0.0073265518081241541 0.040178156547419387 0 -0.0073282499763019666 0.040413615680416563 0 -0.0073084671396825207 0.040077177724971325 0 -0.0073265518081241541 0.040178156547419387 0 -0.0073717515002987869 0.039927626562361082 0 -0.0073265518081241541 0.040178156547419387 0 -0.0073717515002987869 0.039927626562361082 0 -0.0072311905773341355 0.040334819026918219 0 -0.0066883306379751642 0.039762964951142822 0 -0.0065011882195889509 0.039469571922725856 0 -0.007476805851034031 0.039668213573192383 0 -0.0073717515002987869 0.039927626562361082 0 -0.0072311905773341355 0.040334819026918219 0 -0.007476805851034031 0.039668213573192383 0 -0.007392436479921393 0.039777382460712857 0 -0.0079031956112073157 0.040201766425411137 0 -0.007376552707597234 0.039517563349129516 0 -0.007476805851034031 0.039668213573192383 0 -0.007392436479921393 0.039777382460712857 0 -0.0074348145285866411 0.039770842344124271 0 -0.007476805851034031 0.039668213573192383 0 -0.0073717515002987869 0.039927626562361082 0 -0.007392436479921393 0.039777382460712857 0 -0.0079031956112073157 0.040201766425411137 0 -0.0071930426703458719 0.040197913143559999 0 -0.0065011882195889509 0.039469571922725856 0 -0.0057120146064362611 0.037879952921383339 0 -0.0079031956112073157 0.040201766425411137 0 -0.0073706019073893052 0.040998447167111957 0 -0.0071930426703458719 0.040197913143559999 0 -0.0079031956112073157 0.040201766425411137 0 -0.0073706019073893052 0.040998447167111957 0 -0.0083149071050429846 0.041285099179526892 0 -0.0073688203330776279 0.040516390127269319 0 -0.0072311905773341355 0.040334819026918219 0 -0.0072561379613420565 0.040539790055721149 0 -0.0073688203330776279 0.040516390127269319 0 -0.0073282499763019666 0.040413615680416563 0 -0.0072311905773341355 0.040334819026918219 0 -0.0058938374203971128 0.038215751434816245 0 -0.0057120146064362611 0.037879952921383339 0 -0.0074226034691054947 0.040325582659200096 0 -0.0073688203330776279 0.040516390127269319 0 -0.0077466470888081151 0.040405939796591586 0 -0.0074226034691054947 0.040325582659200096 0 -0.007795207730847231 0.039830265536252379 0 -0.0077466470888081151 0.040405939796591586 0 -0.0068749164635372294 0.04246338312431313 0 -0.0073706019073893052 0.040998447167111957 0 -0.0083149071050429846 0.041285099179526892 0 -0.0048601322114776475 0.035464787066909295 0 -0.0057120146064362611 0.037879952921383339 0 -0.0068749164635372294 0.04246338312431313 0 -0.00569588871883424 0.041638204157196011 0 -0.0065279691279505605 0.040964414684437907 0 -0.0068749164635372294 0.04246338312431313 0 -0.0073706019073893052 0.040998447167111957 0 -0.0065279691279505605 0.040964414684437907 0 -0.0052622618460994907 0.042445647422989931 0 -0.0068749164635372294 0.04246338312431313 0 -0.00569588871883424 0.041638204157196011 0 -0.0052622618460994907 0.042445647422989931 0 -0.0049129857904311432 0.041509361411560405 0 -0.00569588871883424 0.041638204157196011 0 -0.0049129857904311432 0.041509361411560405 0 -0.00569588871883424 0.041638204157196011 0 -0.0054502497375457206 0.040639546743961356 0 -0.00569588871883424 0.041638204157196011 0 -0.0054502497375457206 0.040639546743961356 0 -0.0065279691279505605 0.040964414684437907 0 -0.0046978199401252882 0.039807214662902733 0 -0.0056009705099463675 0.039701005085059762 0 -0.0054502497375457206 0.040639546743961356 0 -0.0056009705099463675 0.039701005085059762 0 -0.0054502497375457206 0.040639546743961356 0 -0.0064085847894882137 0.040083918638084907 0 -0.0054502497375457206 0.040639546743961356 0 -0.0064085847894882137 0.040083918638084907 0 -0.0065279691279505605 0.040964414684437907 0 -0.0064085847894882137 0.040083918638084907 0 -0.0071930426703458719 0.040197913143559999 0 -0.0065279691279505605 0.040964414684437907 0 -0.0073706019073893052 0.040998447167111957 0 -0.0071930426703458719 0.040197913143559999 0 -0.0065279691279505605 0.040964414684437907 0 5.9440181708394154e-05 0.05471490741931042 0 7.2803343725863569e-05 0.054728541607563234 0 7.8819849942877057e-05 0.05447694743638469 0 5.9440181708394154e-05 0.05471490741931042 0 7.8819849942877057e-05 0.05447694743638469 0 9.9518525016751772e-05 0.054480076350571192 0 5.9440181708394154e-05 0.05471490741931042 0 2.5574760200456692e-07 0.054999566677373608 0 -3.4951496242700271e-07 0.054998777703968639 0 5.9440181708394154e-05 0.05471490741931042 0 2.5574760200456692e-07 0.054999566677373608 0 7.2803343725863569e-05 0.054728541607563234 0 2.5574760200456692e-07 0.054999566677373608 0 0.00010012928380236978 0.054864709488652741 0 7.2803343725863569e-05 0.054728541607563234 0 0.00010012928380236978 0.054864709488652741 0 7.2803343725863569e-05 0.054728541607563234 0 7.0909617239297361e-05 0.054526645881049184 0 2.5574760200456692e-07 0.054999566677373608 0 0.00010012928380236978 0.054864709488652741 0 5.9219254363658115e-08 0.05499974650375776 0 7.2803343725863569e-05 0.054728541607563234 0 7.8819849942877057e-05 0.05447694743638469 0 7.0909617239297361e-05 0.054526645881049184 0 7.8819849942877057e-05 0.05447694743638469 0 6.1012525660048833e-05 0.054342068951278653 0 7.0909617239297361e-05 0.054526645881049184 0 7.8819849942877057e-05 0.05447694743638469 0 6.8729843606272497e-05 0.054206141225433352 0 0.00011852117064059431 0.054255346246686119 0 7.8819849942877057e-05 0.05447694743638469 0 6.8729843606272497e-05 0.054206141225433352 0 6.1012525660048833e-05 0.054342068951278653 0 6.8729843606272497e-05 0.054206141225433352 0 0.00011852117064059431 0.054255346246686119 0 7.0329342129110033e-05 0.053945626781610301 0 0.00011852117064059431 0.054255346246686119 0 9.9518525016751772e-05 0.054480076350571192 0 0.0001487885588334238 0.054340816131985853 0 7.8819849942877057e-05 0.05447694743638469 0 0.00011852117064059431 0.054255346246686119 0 9.9518525016751772e-05 0.054480076350571192 0 0.0001487885588334238 0.054340816131985853 0 0.00012403506376207503 0.054336456244639127 0 7.5033112398264115e-05 0.054584023935022125 0 9.9518525016751772e-05 0.054480076350571192 0 0.0001487885588334238 0.054340816131985853 0 7.5033112398264115e-05 0.054584023935022125 0 0.0001487885588334238 0.054340816131985853 0 0.0002263586462935313 0.054119595777925217 0 0.00020842302596137837 0.05416715571321834 0 0.00011852117064059431 0.054255346246686119 0 0.0001487885588334238 0.054340816131985853 0 0.0002263586462935313 0.054119595777925217 0 0.00011852117064059431 0.054255346246686119 0 0.0002263586462935313 0.054119595777925217 0 0.00032221193026646844 0.0540596043916566 0 0.00020842302596137837 0.05416715571321834 0 0.00026132873833490967 0.054019252916323347 0 0.00027841943269585491 0.05399863286334803 0 0.0002263586462935313 0.054119595777925217 0 0.00020842302596137837 0.05416715571321834 0 0.00027841943269585491 0.05399863286334803 0 0.00020842302596137837 0.05416715571321834 0 0.00012403506376207503 0.054336456244639127 0 0.00018399867708103625 0.05413429835123152 0 0.0001487885588334238 0.054340816131985853 0 0.00020842302596137837 0.05416715571321834 0 0.00012403506376207503 0.054336456244639127 0 0.00012403506376207503 0.054336456244639127 0 7.5033112398264115e-05 0.054584023935022125 0 5.859244179594413e-06 0.054344276803565232 0 0.00012403506376207503 0.054336456244639127 0 5.859244179594413e-06 0.054344276803565232 0 0.00018399867708103625 0.05413429835123152 0 5.9440181708394154e-05 0.05471490741931042 0 9.9518525016751772e-05 0.054480076350571192 0 7.5033112398264115e-05 0.054584023935022125 0 5.9440181708394154e-05 0.05471490741931042 0 7.5033112398264115e-05 0.054584023935022125 0 -3.4951496242700271e-07 0.054998777703968639 0 -6.224092566150744e-10 0.055000002543916855 0 3.6710671075625444e-09 0.054999999816267423 0 2.4273880791584298e-06 0.05500099548969016 0 7.5033112398264115e-05 0.054584023935022125 0 -3.4951496242700271e-07 0.054998777703968639 0 5.859244179594413e-06 0.054344276803565232 0 1.209989776383225e-07 0.054999593238144906 0 0.00011550601104173629 0.054764295306778996 0 3.6710671075625444e-09 0.054999999816267423 0 2.4273880791584298e-06 0.05500099548969016 0 3.6982767659399738e-06 0.054999238414458682 0 5.859244179594413e-06 0.054344276803565232 0 0.00012712830490579555 0.054004147491741282 0 0.00018399867708103625 0.05413429835123152 0 0.00011550601104173629 0.054764295306778996 0 0.00016862268035663911 0.054671691558947237 0 2.4273880791584298e-06 0.05500099548969016 0 3.6982767659399738e-06 0.054999238414458682 0 7.9379929297749633e-06 0.055000057593833265 0 3.6982767659399738e-06 0.054999238414458682 0 8.0939687053750859e-06 0.054997105445591228 0 7.9379929297749633e-06 0.055000057593833265 0 3.6710671075625444e-09 0.054999999816267423 0 3.6982767659399738e-06 0.054999238414458682 0 -9.1449553186986239e-10 0.055000000853521296 0 3.6982767659399738e-06 0.054999238414458682 0 -9.1449553186986239e-10 0.055000000853521296 0 5.7082163752574976e-06 0.054996196230220229 0 3.6982767659399738e-06 0.054999238414458682 0 8.0939687053750859e-06 0.054997105445591228 0 5.7082163752574976e-06 0.054996196230220229 0 8.0939687053750859e-06 0.054997105445591228 0 5.7082163752574976e-06 0.054996196230220229 0 9.9310748311581973e-06 0.054993655053927067 0 5.7082163752574976e-06 0.054996196230220229 0 7.0040691064393407e-06 0.054986872559088629 0 9.9310748311581973e-06 0.054993655053927067 0 0.00010890796513429093 0.054859160930329214 0 0.00012851984853037274 0.054836300334487394 0 2.1349567512570942e-05 0.054984136220205468 0 7.0040691064393407e-06 0.054986872559088629 0 3.4945889407483268e-05 0.054998648565591425 0 2.7272103518491258e-06 0.054982912617842945 0 2.1349567512570942e-05 0.054984136220205468 0 7.0040691064393407e-06 0.054986872559088629 0 -9.1449553186986239e-10 0.055000000853521296 0 5.7082163752574976e-06 0.054996196230220229 0 7.0040691064393407e-06 0.054986872559088629 0 -9.6341216529555547e-10 0.054999942193553988 0 2.7272103518491258e-06 0.054982912617842945 0 -9.1449553186986239e-10 0.055000000853521296 0 2.7272103518491258e-06 0.054982912617842945 0 -9.1449553186986239e-10 0.055000000853521296 0 7.0040691064393407e-06 0.054986872559088629 0 8.5164771248385956e-05 0.054963530158181173 0 4.1887235104843858e-05 0.054969814006367392 0 5.9951164922313229e-05 0.054988289754781851 0 8.5164771248385956e-05 0.054963530158181173 0 5.9951164922313229e-05 0.054988289754781851 0 8.1561449346658895e-05 0.054998409981354419 0 4.1887235104843858e-05 0.054969814006367392 0 5.9951164922313229e-05 0.054988289754781851 0 3.4945889407483268e-05 0.054998648565591425 0 4.1887235104843858e-05 0.054969814006367392 0 2.1349567512570942e-05 0.054984136220205468 0 3.4945889407483268e-05 0.054998648565591425 0 5.9951164922313229e-05 0.054988289754781851 0 3.4945889407483268e-05 0.054998648565591425 0 6.3439680313764091e-05 0.05501711475994038 0 8.0939687053750859e-06 0.054997105445591228 0 9.9310748311581973e-06 0.054993655053927067 0 1.3308523346441338e-05 0.054996317487589028 0 0.00012851984853037274 0.054836300334487394 0 0.00017715703751265211 0.054746690189219682 0 5.9951164922313229e-05 0.054988289754781851 0 6.3439680313764091e-05 0.05501711475994038 0 8.1561449346658895e-05 0.054998409981354419 0 6.7580260492580143e-05 0.055012512277599519 0 8.1561449346658895e-05 0.054998409981354419 0 8.6867032587453549e-05 0.055026578870739487 0 0.00017715703751265211 0.054746690189219682 0 0.00013371544869052843 0.054802288305572558 0 0.00024526971679435841 0.053871493271550379 0 0.00025225773942962547 0.053976688249853633 0 0.00030732002610188181 0.053926316613336779 0 0.00017715703751265211 0.054746690189219682 0 0.0001774308826504416 0.054475986018160533 0 0.00025225773942962547 0.053976688249853633 0 0.00030439923918669395 0.053936486244432202 0 0.00030732002610188181 0.053926316613336779 0 8.0939687053750859e-06 0.054997105445591228 0 1.3308523346441338e-05 0.054996317487589028 0 7.9379929297749633e-06 0.055000057593833265 0 0.00024526971679435841 0.053871493271550379 0 0.00025225773942962547 0.053976688249853633 0 0.00012712830490579555 0.054004147491741282 0 0.00017715703751265211 0.054746690189219682 0 0.00016862268035663911 0.054671691558947237 0 0.00025225773942962547 0.053976688249853633 0 0.00012712830490579555 0.054004147491741282 0 0.00018399867708103625 0.05413429835123152 0 0.00025225773942962547 0.053976688249853633 0 0.00026132873833490967 0.054019252916323347 0 0.00030439923918669395 0.053936486244432202 0 0.00025225773942962547 0.053976688249853633 0 0.00018399867708103625 0.05413429835123152 0 0.00026132873833490967 0.054019252916323347 0 0.00020842302596137837 0.05416715571321834 0 0.00018399867708103625 0.05413429835123152 0 0.00026132873833490967 0.054019252916323347 0 0.00026132873833490967 0.054019252916323347 0 0.00029395141866504451 0.053943872042003592 0 0.00027841943269585491 0.05399863286334803 0 0.00026132873833490967 0.054019252916323347 0 0.00029395141866504451 0.053943872042003592 0 0.00030439923918669395 0.053936486244432202 0 0.00029395141866504451 0.053943872042003592 0 0.00031488696419582746 0.053866996637836159 0 0.00034117607254050556 0.053859317996948916 0 0.00031488696419582746 0.053866996637836159 0 0.00030457774019003757 0.053907450719237748 0 0.00030439923918669395 0.053936486244432202 0 0.00018702969851863612 0.054172644714491215 0 0.00016851675481444693 0.054202064330187573 0 0.00029395141866504451 0.053943872042003592 0 0.00031488696419582746 0.053866996637836159 0 0.00030439923918669395 0.053936486244432202 0 0.00036848249316917829 0.053634832065844726 0 0.00041212590998315881 0.053709003845142905 0 0.00047464816045455154 0.053598221219691558 0 0.00041212590998315881 0.053709003845142905 0 0.00046307100131283299 0.053619932182580973 0 0.00042589021159879708 0.053720944342271919 0 0.00031488696419582746 0.053866996637836159 0 0.00041212590998315881 0.053709003845142905 0 0.00034117607254050556 0.053859317996948916 0 0.00016851675481444693 0.054202064330187573 0 0.00017953702846647181 0.054170467981146712 0 0.00031488696419582746 0.053866996637836159 0 0.0003437367022675105 0.053787885175268273 0 0.00041212590998315881 0.053709003845142905 0 0.00041212590998315881 0.053709003845142905 0 0.00047464816045455154 0.053598221219691558 0 0.00046307100131283299 0.053619932182580973 0 0.00036848249316917829 0.053634832065844726 0 0.00049001122032903631 0.053572961739024753 0 0.00047464816045455154 0.053598221219691558 0 0.00010708625899763845 0.055040952088998701 0 0.00010531609782488344 0.055023223605465833 0 0.00012708095128359607 0.055015340785088164 0 0.00016851675481444693 0.054202064330187573 0 0.0002449554481771307 0.054293156339765301 0 0.00030457774019003757 0.053907450719237748 0 0.00030439923918669395 0.053936486244432202 0 0.00030732002610188181 0.053926316613336779 0 0.00016851675481444693 0.054202064330187573 0 0.0001774308826504416 0.054475986018160533 0 0.00010708625899763845 0.055040952088998701 0 0.00010531609782488344 0.055023223605465833 0 8.6867032587453549e-05 0.055026578870739487 0 0.00010531609782488344 0.055023223605465833 0 8.6867032587453549e-05 0.055026578870739487 0 0.000100830128078953 0.055009889447879101 0 8.1561449346658895e-05 0.054998409981354419 0 0.000100830128078953 0.055009889447879101 0 0.0001119594433594634 0.054989135476435198 0 8.1561449346658895e-05 0.054998409981354419 0 8.6867032587453549e-05 0.055026578870739487 0 0.000100830128078953 0.055009889447879101 0 0.00012708095128359607 0.055015340785088164 0 0.0001119594433594634 0.054989135476435198 0 0.00014884396981514961 0.054987100313934695 0 0.000100830128078953 0.055009889447879101 0 0.00012708095128359607 0.055015340785088164 0 0.0001119594433594634 0.054989135476435198 0 0.00010531609782488344 0.055023223605465833 0 0.000100830128078953 0.055009889447879101 0 0.00012708095128359607 0.055015340785088164 0 0.0001269637784809122 0.054959323105238878 0 0.0001119594433594634 0.054989135476435198 0 0.00014884396981514961 0.054987100313934695 0 8.5164771248385956e-05 0.054963530158181173 0 8.1561449346658895e-05 0.054998409981354419 0 0.0001119594433594634 0.054989135476435198 0 8.5164771248385956e-05 0.054963530158181173 0 0.0001269637784809122 0.054959323105238878 0 0.0001119594433594634 0.054989135476435198 0 0.00055218836951345261 0.053856376821952379 0 0.00057149344506984823 0.053665523161118771 0 0.00045102770297207774 0.053752325990363531 0 0.00057149344506984823 0.053665523161118771 0 0.00048171710683691572 0.053586993546314035 0 0.00045102770297207774 0.053752325990363531 0 0.00033877972900126689 0.054469986206164812 0 0.00030659439556891978 0.054366728684799893 0 0.00017080168927209824 0.054956209474921809 0 0.0001269637784809122 0.054959323105238878 0 0.00014884396981514961 0.054987100313934695 0 0.0002449554481771307 0.054293156339765301 0 0.00030659439556891978 0.054366728684799893 0 0.00049001122032903631 0.053572961739024753 0 0.00057149344506984823 0.053665523161118771 0 0.000512930123203796 0.053583448777594828 0 0.00057149344506984823 0.053665523161118771 0 0.000512930123203796 0.053583448777594828 0 0.00048171710683691572 0.053586993546314035 0 0.00048171710683691572 0.053586993546314035 0 0.00048931307579314586 0.05355451474039382 0 0.00044895762347861747 0.053451576795997893 0 0.000512930123203796 0.053583448777594828 0 0.00048171710683691572 0.053586993546314035 0 0.00048931307579314586 0.05355451474039382 0 0.00049001122032903631 0.053572961739024753 0 0.000512930123203796 0.053583448777594828 0 0.00047464816045455154 0.053598221219691558 0 0.000512930123203796 0.053583448777594828 0 0.00048931307579314586 0.05355451474039382 0 0.00047464816045455154 0.053598221219691558 0 0.00048931307579314586 0.05355451474039382 0 0.00046307100131283299 0.053619932182580973 0 0.00045890406294455603 0.053541723973871871 0 0.00048931307579314586 0.05355451474039382 0 0.00047464816045455154 0.053598221219691558 0 0.00046307100131283299 0.053619932182580973 0 0.00048931307579314586 0.05355451474039382 0 0.00045890406294455603 0.053541723973871871 0 0.00044895762347861747 0.053451576795997893 0 0.00045890406294455603 0.053541723973871871 0 0.00038760822839861448 0.05327960287616023 0 0.00044895762347861747 0.053451576795997893 0 0.00045890406294455603 0.053541723973871871 0 0.000358012572602781 0.053334318150146082 0 0.00038760822839861448 0.05327960287616023 0 0.00017945259962718601 0.053519591740642587 0 0.00025400113373901483 0.053446389334673168 0 0.000358012572602781 0.053334318150146082 0 0.00045890406294455603 0.053541723973871871 0 0.00044491726869360022 0.053716124600723301 0 0.000358012572602781 0.053334318150146082 0 0.00027718665070048662 0.053725577889480854 0 0.00030132690505529295 0.053658538433783827 0 0.00045890406294455603 0.053541723973871871 0 0.00044491726869360022 0.053716124600723301 0 0.00042589021159879708 0.053720944342271919 0 0.00046307100131283299 0.053619932182580973 0 0.00045890406294455603 0.053541723973871871 0 0.00042589021159879708 0.053720944342271919 0 0.00041212590998315881 0.053709003845142905 0 0.00042589021159879708 0.053720944342271919 0 0.00034117607254050556 0.053859317996948916 0 0.00042589021159879708 0.053720944342271919 0 0.00035015559275454857 0.053904792490403947 0 0.00034117607254050556 0.053859317996948916 0 0.0002263586462935313 0.054119595777925217 0 0.00035015559275454857 0.053904792490403947 0 0.00027841943269585491 0.05399863286334803 0 0.00029395141866504451 0.053943872042003592 0 0.00027841943269585491 0.05399863286334803 0 0.00034117607254050556 0.053859317996948916 0 0.00035015559275454857 0.053904792490403947 0 0.00027841943269585491 0.05399863286334803 0 0.00034117607254050556 0.053859317996948916 0 0.0002263586462935313 0.054119595777925217 0 0.00035015559275454857 0.053904792490403947 0 0.00032221193026646844 0.0540596043916566 0 0.00044491726869360022 0.053716124600723301 0 0.00042589021159879708 0.053720944342271919 0 0.00035015559275454857 0.053904792490403947 0 0.00027718665070048662 0.053725577889480854 0 0.0002286277221830087 0.053850468261047418 0 0.00044491726869360022 0.053716124600723301 0 0.00035015559275454857 0.053904792490403947 0 0.00032221193026646844 0.0540596043916566 0 0.00017945259962718601 0.053519591740642587 0 8.5994455971082076e-05 0.053845625240688928 0 0.00015244174710636309 0.053663420383498479 0 0.00011852117064059431 0.054255346246686119 0 8.5994455971082076e-05 0.053845625240688928 0 7.0329342129110033e-05 0.053945626781610301 0 0.00019615434697941697 0.053919979635703233 0 0.0002286277221830087 0.053850468261047418 0 8.5994455971082076e-05 0.053845625240688928 0 7.0329342129110033e-05 0.053945626781610301 0 0.00015244174710636309 0.053663420383498479 0 0.00015244174710636309 0.053663420383498479 0 0.00021450588371831525 0.053472701851396062 0 0.00017720087145913318 0.053584194809990514 0 0.00021450588371831525 0.053472701851396062 0 0.00025400113373901483 0.053446389334673168 0 0.00027674268736769484 0.053250099138854541 0 0.00015244174710636309 0.053663420383498479 0 0.00021450588371831525 0.053472701851396062 0 0.00025400113373901483 0.053446389334673168 0 0.00025400113373901483 0.053446389334673168 0 0.00027674268736769484 0.053250099138854541 0 0.000358012572602781 0.053334318150146082 0 0.00017945259962718601 0.053519591740642587 0 0.00015244174710636309 0.053663420383498479 0 0.00025400113373901483 0.053446389334673168 0 0.00027674268736769484 0.053250099138854541 0 0.00025917950653264857 0.052982686013996971 0 0.00032976468561327418 0.053006449581495085 0 0.00027674268736769484 0.053250099138854541 0 0.00032976468561327418 0.053006449581495085 0 0.000358012572602781 0.053334318150146082 0 0.00021450588371831525 0.053472701851396062 0 0.00027674268736769484 0.053250099138854541 0 0.0002113200272001933 0.053340634660529178 0 0.00027674268736769484 0.053250099138854541 0 0.00025917950653264857 0.052982686013996971 0 0.0002113200272001933 0.053340634660529178 0 0.00025917950653264857 0.052982686013996971 0 0.00036501941174253277 0.052401976269960952 0 0.00030880434695718719 0.053044323218144007 0 0.00025917950653264857 0.052982686013996971 0 0.0003367905394043562 0.052754250688983567 0 0.00036501941174253277 0.052401976269960952 0 0.0003367905394043562 0.052754250688983567 0 0.0003408875678984513 0.05271892147114416 0 0.00036501941174253277 0.052401976269960952 0 0.00025917950653264857 0.052982686013996971 0 0.0003367905394043562 0.052754250688983567 0 0.00032976468561327418 0.053006449581495085 0 0.0003408875678984513 0.05271892147114416 0 0.00034218349243877316 0.053015555400359154 0 0.00032976468561327418 0.053006449581495085 0 0.0003367905394043562 0.052754250688983567 0 0.0003408875678984513 0.05271892147114416 0 0.00032976468561327418 0.053006449581495085 0 0.0003408875678984513 0.05271892147114416 0 0.00029038287647641542 0.052952578056393987 0 0.00026149310993801601 0.052684750940591274 0 0.0003408875678984513 0.05271892147114416 0 0.00029038287647641542 0.052952578056393987 0 0.00034218349243877316 0.053015555400359154 0 0.00029038287647641542 0.052952578056393987 0 0.00034218349243877316 0.053015555400359154 0 0.0003310404609425536 0.053192331652769993 0 0.00034218349243877316 0.053015555400359154 0 0.00038760822839861448 0.05327960287616023 0 0.0003310404609425536 0.053192331652769993 0 0.00034218349243877316 0.053015555400359154 0 0.00032976468561327418 0.053006449581495085 0 0.00038760822839861448 0.05327960287616023 0 0.00032976468561327418 0.053006449581495085 0 0.000358012572602781 0.053334318150146082 0 0.00038760822839861448 0.05327960287616023 0 0.00038760822839861448 0.05327960287616023 0 0.00036238191696943842 0.053356573225286585 0 0.00044895762347861747 0.053451576795997893 0 0.00038760822839861448 0.05327960287616023 0 0.00036238191696943842 0.053356573225286585 0 0.0003310404609425536 0.053192331652769993 0 0.00036238191696943842 0.053356573225286585 0 0.00034589565813134004 0.053572338938546696 0 0.0002689979306800501 0.053370484005980441 0 0.00036238191696943842 0.053356573225286585 0 0.0002689979306800501 0.053370484005980441 0 0.0003310404609425536 0.053192331652769993 0 0.00036238191696943842 0.053356573225286585 0 0.00044895762347861747 0.053451576795997893 0 0.00034589565813134004 0.053572338938546696 0 0.00048171710683691572 0.053586993546314035 0 0.00034589565813134004 0.053572338938546696 0 0.00045102770297207774 0.053752325990363531 0 0.00048171710683691572 0.053586993546314035 0 0.00044895762347861747 0.053451576795997893 0 0.00034589565813134004 0.053572338938546696 0 0.00034589565813134004 0.053572338938546696 0 0.00016179603476262609 0.053587302001529565 0 0.0002689979306800501 0.053370484005980441 0 0.00034589565813134004 0.053572338938546696 0 0.00019613203340517474 0.05373371854895824 0 0.00016179603476262609 0.053587302001529565 0 0.00034589565813134004 0.053572338938546696 0 0.00019613203340517474 0.05373371854895824 0 0.00027178324259401107 0.053801359550761381 0 0.00015605545899013238 0.054004817358282886 0 0.00019613203340517474 0.05373371854895824 0 0.00027178324259401107 0.053801359550761381 0 0.00034589565813134004 0.053572338938546696 0 0.00027178324259401107 0.053801359550761381 0 0.00045102770297207774 0.053752325990363531 0 0.0003077371102842033 0.054014736444733973 0 0.00027178324259401107 0.053801359550761381 0 0.00045102770297207774 0.053752325990363531 0 0.00013172768196213815 0.053651049069642381 0 -2.1545500757289585e-05 0.053409919370597747 0 0.0001364516509987259 0.053541506959976358 0 0.00042181872328002937 0.053493905980530408 0 4.3616802561393432e-05 0.0532612053804387 0 0.00025610404598276957 0.053709740934511092 0 0.0001364516509987259 0.053541506959976358 0 0.00042181872328002937 0.053493905980530408 0 0.00013075225585838505 0.053652208456042086 0 0.00013172768196213815 0.053651049069642381 0 0.00015605545899013238 0.054004817358282886 0 0.00019613203340517474 0.05373371854895824 0 4.4590801135934805e-05 0.053789575348006019 0 0.00019613203340517474 0.05373371854895824 0 4.4590801135934805e-05 0.053789575348006019 0 0.00016179603476262609 0.053587302001529565 0 4.4590801135934805e-05 0.053789575348006019 0 -2.3713401033980161e-06 0.053738784867211356 0 0.00016179603476262609 0.053587302001529565 0 -2.3713401033980161e-06 0.053738784867211356 0 0.00017028569543028497 0.053430511398922111 0 0.00016179603476262609 0.053587302001529565 0 0.00013172768196213815 0.053651049069642381 0 0.00013247495488880674 0.053617909622549073 0 0.00017028569543028497 0.053430511398922111 0 0.00016179603476262609 0.053587302001529565 0 0.0002689979306800501 0.053370484005980441 0 0.00016959249590303417 0.053465477638758759 0 0.00017028569543028497 0.053430511398922111 0 0.00010796047896550548 0.053403812488776112 0 0.00017028569543028497 0.053430511398922111 0 0.00011565312889386353 0.053215398476272636 0 0.00010796047896550548 0.053403812488776112 0 0.00017028569543028497 0.053430511398922111 0 0.00022954225579941846 0.053183200089581426 0 0.00011565312889386353 0.053215398476272636 0 0.00017028569543028497 0.053430511398922111 0 0.00022954225579941846 0.053183200089581426 0 0.0002689979306800501 0.053370484005980441 0 0.00022954225579941846 0.053183200089581426 0 0.0002689979306800501 0.053370484005980441 0 0.0003310404609425536 0.053192331652769993 0 0.00029038287647641542 0.052952578056393987 0 0.00022954225579941846 0.053183200089581426 0 0.0003310404609425536 0.053192331652769993 0 0.00029038287647641542 0.052952578056393987 0 0.00022954225579941846 0.053183200089581426 0 0.00016659055451409153 0.052970205781839565 0 0.00016659055451409153 0.052970205781839565 0 -7.4061236733009573e-05 0.053014070024716982 0 0.00011565312889386353 0.053215398476272636 0 0.00016659055451409153 0.052970205781839565 0 -7.4061236733009573e-05 0.053014070024716982 0 -5.171083466209981e-05 0.052715343535644707 0 -7.4061236733009573e-05 0.053014070024716982 0 -0.00040607890923176034 0.052878075280348817 0 -5.171083466209981e-05 0.052715343535644707 0 -7.4061236733009573e-05 0.053014070024716982 0 -0.00015617895103399177 0.053264686586746698 0 0.00011565312889386353 0.053215398476272636 0 -7.4061236733009573e-05 0.053014070024716982 0 -0.00015617895103399177 0.053264686586746698 0 -0.00040607890923176034 0.052878075280348817 0 0.00022954225579941846 0.053183200089581426 0 0.00016659055451409153 0.052970205781839565 0 0.00011565312889386353 0.053215398476272636 0 -0.00015617895103399177 0.053264686586746698 0 0.00011565312889386353 0.053215398476272636 0 0.00010796047896550548 0.053403812488776112 0 -0.00026856411762835513 0.053189550729237943 0 -2.1545500757289585e-05 0.053409919370597747 0 -0.00034256663582749351 0.053004566060801388 0 4.3616802561393432e-05 0.0532612053804387 0 -0.00022089605193010875 0.053475466318382368 0 -0.00034256663582749351 0.053004566060801388 0 -0.00022089605193010875 0.053475466318382368 0 -0.00068300047978515574 0.053204520095493771 0 7.7834849982642512e-05 0.053809779937300427 0 0.0001364516509987259 0.053541506959976358 0 -0.00022089605193010875 0.053475466318382368 0 0.0001364516509987259 0.053541506959976358 0 4.3616802561393432e-05 0.0532612053804387 0 -0.00022089605193010875 0.053475466318382368 0 -0.0010028581119291384 0.053474394547419292 0 -0.00063215660283937871 0.053622841013999688 0 -0.00068300047978515574 0.053204520095493771 0 -0.00022089605193010875 0.053475466318382368 0 -0.00063215660283937871 0.053622841013999688 0 -0.00068300047978515574 0.053204520095493771 0 -0.0011761381078626793 0.053148292891006046 0 -0.0010028581119291384 0.053474394547419292 0 -0.00068300047978515574 0.053204520095493771 0 -0.0011761381078626793 0.053148292891006046 0 -0.00068300047978515574 0.053204520095493771 0 -0.0007009631613667755 0.052713685066438344 0 -0.0010913556617331414 0.05218584612164251 0 -0.0012013981247996472 0.05203052589549402 0 -0.00086338892320566706 0.052376555586777493 0 -0.0011573674862845977 0.052791522841163611 0 -0.0010037311707260816 0.052515863727318132 0 -0.0011761381078626793 0.053148292891006046 0 -0.0007009631613667755 0.052713685066438344 0 -0.00086338892320566706 0.052376555586777493 0 -0.00026856411762835513 0.053189550729237943 0 -0.00044900040542033637 0.053054232544668872 0 -0.00034256663582749351 0.053004566060801388 0 -0.00068300047978515574 0.053204520095493771 0 -0.0007009631613667755 0.052713685066438344 0 -0.00015617895103399177 0.053264686586746698 0 -0.0007009631613667755 0.052713685066438344 0 -0.00040607890923176034 0.052878075280348817 0 -0.00040607890923176034 0.052878075280348817 0 -0.00056105686490957353 0.052857502609182011 0 -5.171083466209981e-05 0.052715343535644707 0 -0.0007009631613667755 0.052713685066438344 0 -0.00040607890923176034 0.052878075280348817 0 -0.00086338892320566706 0.052376555586777493 0 -0.00040607890923176034 0.052878075280348817 0 -0.001315695882191372 0.053485663635152073 0 -0.00056105686490957353 0.052857502609182011 0 -0.00040607890923176034 0.052878075280348817 0 -0.00086338892320566706 0.052376555586777493 0 -0.0010616532131753932 0.051955980670244262 0 -0.0012013981247996472 0.05203052589549402 0 -0.00086338892320566706 0.052376555586777493 0 -0.0010616532131753932 0.051955980670244262 0 -0.0012153168839912668 0.051894432904273854 0 -0.001533636291252795 0.051640972688298786 0 -0.0018057770247036818 0.052301794546668549 0 -0.0013017023649773709 0.052859223575418002 0 -0.00031490488266721608 0.0523042869575941 0 -0.0013017023649773709 0.052859223575418002 0 -0.00031490488266721608 0.0523042869575941 0 -0.00056105686490957353 0.052857502609182011 0 -0.001315695882191372 0.053485663635152073 0 -0.0013017023649773709 0.052859223575418002 0 -0.00056105686490957353 0.052857502609182011 0 -0.0018057770247036818 0.052301794546668549 0 -0.00031490488266721608 0.0523042869575941 0 -0.00095798711263216422 0.051468950735625532 0 -0.00031490488266721608 0.0523042869575941 0 -0.00056105686490957353 0.052857502609182011 0 -5.171083466209981e-05 0.052715343535644707 0 -0.00031490488266721608 0.0523042869575941 0 -5.171083466209981e-05 0.052715343535644707 0 0.00040137553669932868 0.052265073979075961 0 -5.171083466209981e-05 0.052715343535644707 0 0.00026149310993801601 0.052684750940591274 0 0.00040137553669932868 0.052265073979075961 0 0.00016659055451409153 0.052970205781839565 0 -5.171083466209981e-05 0.052715343535644707 0 0.00026149310993801601 0.052684750940591274 0 0.00029038287647641542 0.052952578056393987 0 0.00016659055451409153 0.052970205781839565 0 0.00026149310993801601 0.052684750940591274 0 0.0003408875678984513 0.05271892147114416 0 0.00040137553669932868 0.052265073979075961 0 0.00036501941174253277 0.052401976269960952 0 0.0003408875678984513 0.05271892147114416 0 0.00026149310993801601 0.052684750940591274 0 0.00040137553669932868 0.052265073979075961 0 -0.00031490488266721608 0.0523042869575941 0 0.00040137553669932868 0.052265073979075961 0 0.0006635070662758015 0.051164600993065454 0 0.00040137553669932868 0.052265073979075961 0 0.00036501941174253277 0.052401976269960952 0 0.0006635070662758015 0.051164600993065454 0 0.00036501941174253277 0.052401976269960952 0 0.0006635070662758015 0.051164600993065454 0 0.00066201180148971542 0.052655255952321227 0 0.0012011852925239174 0.050653925701307764 0 0.0016240903815680054 0.049961980369385497 0 -0.001284730378869544 0.050091873437589002 0 0.0006635070662758015 0.051164600993065454 0 2.5432872055255397e-05 0.047391612723859236 0 -0.0020242067602086731 0.047889393286843648 0 -0.001284730378869544 0.050091873437589002 0 2.5432872055255397e-05 0.047391612723859236 0 -0.002256664388785056 0.05131423057385797 0 -0.001284730378869544 0.050091873437589002 0 -0.00095798711263216422 0.051468950735625532 0 -0.001284730378869544 0.050091873437589002 0 -0.00095798711263216422 0.051468950735625532 0 0.0006635070662758015 0.051164600993065454 0 -0.00031490488266721608 0.0523042869575941 0 -0.00095798711263216422 0.051468950735625532 0 0.0006635070662758015 0.051164600993065454 0 2.5432872055255397e-05 0.047391612723859236 0 0.0022596675793484381 0.044742539847581309 0 -0.00010265027849861936 0.044285951072869291 0 -0.0016823459919716422 0.045615419617879162 0 2.5432872055255397e-05 0.047391612723859236 0 -0.00010265027849861936 0.044285951072869291 0 -0.0016823459919716422 0.045615419617879162 0 -0.0020242067602086731 0.047889393286843648 0 2.5432872055255397e-05 0.047391612723859236 0 0.0006635070662758015 0.051164600993065454 0 2.5432872055255397e-05 0.047391612723859236 0 0.0030254771488677375 0.047342612837183114 0 0.00036501941174253277 0.052401976269960952 0 0.00066201180148971542 0.052655255952321227 0 0.00030880434695718719 0.053044323218144007 0 0.00066201180148971542 0.052655255952321227 0 0.0004984044633898672 0.05326807254024276 0 0.00030880434695718719 0.053044323218144007 0 0.0016240903815680054 0.049961980369385497 0 0.002150497012258671 0.048893707023587779 0 0.0030254771488677375 0.047342612837183114 0 0.0022596675793484381 0.044742539847581309 0 0.0044013205025312122 0.044189207346864226 0 2.5432872055255397e-05 0.047391612723859236 0 0.0030254771488677375 0.047342612837183114 0 0.0022596675793484381 0.044742539847581309 0 0.0022596675793484381 0.044742539847581309 0 0.002439590843934838 0.043293671894700361 0 0.0044013205025312122 0.044189207346864226 0 0.0022596675793484381 0.044742539847581309 0 0.002439590843934838 0.043293671894700361 0 0.0011122604980059521 0.042862095844996069 0 0.002439590843934838 0.043293671894700361 0 0.0044013205025312122 0.044189207346864226 0 0.0035138818943974601 0.042744729567814457 0 0.0044013205025312122 0.044189207346864226 0 0.0035138818943974601 0.042744729567814457 0 0.0048206415199996923 0.041998992264450578 0 0.0035138818943974601 0.042744729567814457 0 0.0037485607536303449 0.041836663158565213 0 0.002651376450060485 0.041322906828860306 0 0.0035138818943974601 0.042744729567814457 0 0.0037485607536303449 0.041836663158565213 0 0.0048206415199996923 0.041998992264450578 0 0.002439590843934838 0.043293671894700361 0 0.0021854869462760627 0.042301991666367687 0 0.0011122604980059521 0.042862095844996069 0 0.002439590843934838 0.043293671894700361 0 0.0035138818943974601 0.042744729567814457 0 0.0021854869462760627 0.042301991666367687 0 0.0035138818943974601 0.042744729567814457 0 0.0021854869462760627 0.042301991666367687 0 0.002651376450060485 0.041322906828860306 0 0.0021854869462760627 0.042301991666367687 0 0.0011884925166072951 0.041310791057510031 0 0.002651376450060485 0.041322906828860306 0 0.00043230871242380578 0.041945158048176737 0 0.0011122604980059521 0.042862095844996069 0 0.0011884925166072951 0.041310791057510031 0 0.0021854869462760627 0.042301991666367687 0 0.0011122604980059521 0.042862095844996069 0 0.0011884925166072951 0.041310791057510031 0 0.00043230871242380578 0.041945158048176737 0 0.0011122604980059521 0.042862095844996069 0 -0.00048654153727207687 0.04242751809951667 0 0.0011122604980059521 0.042862095844996069 0 -0.00010265027849861936 0.044285951072869291 0 -0.00048654153727207687 0.04242751809951667 0 0.0022596675793484381 0.044742539847581309 0 0.0011122604980059521 0.042862095844996069 0 -0.00010265027849861936 0.044285951072869291 0 -0.0018363940406864914 0.043209171208925465 0 -0.00010265027849861936 0.044285951072869291 0 -0.00048654153727207687 0.04242751809951667 0 -0.0016823459919716422 0.045615419617879162 0 -0.0018363940406864914 0.043209171208925465 0 -0.00010265027849861936 0.044285951072869291 0 -0.0019825574113948564 0.041293945633112839 0 -0.0018363940406864914 0.043209171208925465 0 -0.00048654153727207687 0.04242751809951667 0 -0.0019825574113948564 0.041293945633112839 0 -0.00048654153727207687 0.04242751809951667 0 1.6932376296699971e-06 0.04093611101282664 0 0.00043230871242380578 0.041945158048176737 0 -0.00048654153727207687 0.04242751809951667 0 1.6932376296699971e-06 0.04093611101282664 0 -0.0019825574113948564 0.041293945633112839 0 1.6932376296699971e-06 0.04093611101282664 0 -0.00074254569310201377 0.039983244279315704 0 -0.00023210221126700878 0.040878921587570512 0 0.00027090968431717807 0.040492252674138883 0 1.6932376296699971e-06 0.04093611101282664 0 -0.00058322009026030245 0.040213592157170061 0 0.00057132149071874023 0.040239675792405553 0 0.00023181898600950734 0.040480770753071743 0 0.00027090968431717807 0.040492252674138883 0 1.6932376296699971e-06 0.04093611101282664 0 0.0011884925166072951 0.041310791057510031 0 0.00057132149071874023 0.040239675792405553 0 0.00043230871242380578 0.041945158048176737 0 1.6932376296699971e-06 0.04093611101282664 0 0.0011884925166072951 0.041310791057510031 0 0.0011884925166072951 0.041310791057510031 0 0.00057132149071874023 0.040239675792405553 0 0.0016777150798365668 0.04004471094817863 0 0.00057132149071874023 0.040239675792405553 0 0.00065114071930411381 0.038703473050713678 0 0.0016777150798365668 0.04004471094817863 0 0.00065114071930411381 0.038703473050713678 0 0.0016777150798365668 0.04004471094817863 0 0.0024680711654172936 0.038825227899407767 0 0.0013885382275611057 0.040821564334098358 0 0.0015260467636143006 0.040991227059010704 0 0.0016870880944337171 0.040797466105065926 0 0.00027090968431717807 0.040492252674138883 0 0.0015124807262187842 0.040279849051316041 0 -0.00058322009026030245 0.040213592157170061 0 0.00057132149071874023 0.040239675792405553 0 0.00065114071930411381 0.038703473050713678 0 -0.00063801082400031693 0.039899208199545851 0 0.00027090968431717807 0.040492252674138883 0 0.0013885382275611057 0.040821564334098358 0 0.0016870880944337171 0.040797466105065926 0 0.0015191569146074827 0.040580192012900806 0 0.0016870880944337171 0.040797466105065926 0 0.0015191569146074827 0.040580192012900806 0 0.0018506982757291403 0.040604028514033441 0 0.00065114071930411381 0.038703473050713678 0 0.0019421559857782256 0.037126658873574629 0 0.0024680711654172936 0.038825227899407767 0 0.0015124807262187842 0.040279849051316041 0 0.0026918451745082221 0.040519229772051135 0 0.0015191569146074827 0.040580192012900806 0 0.0018506982757291403 0.040604028514033441 0 0.0016716413815599884 0.040408440857320281 0 0.0018506982757291403 0.040604028514033441 0 0.0018457368474473505 0.040311282769317329 0 0.0016716413815599884 0.040408440857320281 0 0.0015191569146074827 0.040580192012900806 0 0.0016716413815599884 0.040408440857320281 0 0.0014252763027352052 0.040272792832478047 0 0.0039638412322618643 0.041714207228879335 0 0.0034188805649904459 0.042358010452316928 0 0.0051047905844168297 0.046032431171248125 0 0.0057128076040658653 0.045104542791591977 0 0.0047747285303513538 0.045636196305303724 0 0.0051047905844168297 0.046032431171248125 0 0.0057128076040658653 0.045104542791591977 0 0.0056375716637784897 0.046122453985538533 0 0.0019421559857782256 0.037126658873574629 0 0.0037548287865264642 0.037573037847087293 0 0.0032158241243837862 0.03556177784701136 0 0.0026918451745082221 0.040519229772051135 0 0.0034188805649904459 0.042358010452316928 0 0.0018506982757291403 0.040604028514033441 0 0.0018457368474473505 0.040311282769317329 0 0.0020132159131962864 0.040411070811728497 0 0.0019421559857782256 0.037126658873574629 0 0.0037548287865264642 0.037573037847087293 0 0.0024680711654172936 0.038825227899407767 0 0.0039638412322618643 0.041714207228879335 0 0.0043246591996468197 0.041761310971871156 0 0.0057128076040658653 0.045104542791591977 0 0.0055799694334992085 0.043502674890417266 0 0.0048202410159932478 0.044380454482402708 0 0.0043391505718134559 0.039643704451302157 0 0.0024680711654172936 0.038825227899407767 0 0.0029581046834282372 0.040171700674049238 0 0.0037548287865264642 0.037573037847087293 0 0.0043391505718134559 0.039643704451302157 0 0.0024680711654172936 0.038825227899407767 0 0.0016777150798365668 0.04004471094817863 0 0.0024680711654172936 0.038825227899407767 0 0.0029581046834282372 0.040171700674049238 0 0.0016777150798365668 0.04004471094817863 0 0.0029581046834282372 0.040171700674049238 0 0.002651376450060485 0.041322906828860306 0 0.0029581046834282372 0.040171700674049238 0 0.002651376450060485 0.041322906828860306 0 0.0037105895130773864 0.041008545044436469 0 0.0011884925166072951 0.041310791057510031 0 0.0016777150798365668 0.04004471094817863 0 0.002651376450060485 0.041322906828860306 0 0.0043246591996468197 0.041761310971871156 0 0.0044470351962957004 0.041885945280883921 0 0.0043391505718134559 0.039643704451302157 0 0.0037105895130773864 0.041008545044436469 0 0.0048206415199996923 0.041998992264450578 0 0.0043391505718134559 0.039643704451302157 0 0.0029581046834282372 0.040171700674049238 0 0.0037105895130773864 0.041008545044436469 0 0.0037485607536303449 0.041836663158565213 0 0.002651376450060485 0.041322906828860306 0 0.0037105895130773864 0.041008545044436469 0 0.0037485607536303449 0.041836663158565213 0 0.0037105895130773864 0.041008545044436469 0 0.0048206415199996923 0.041998992264450578 0 0.0048379673782114607 0.042961758306980853 0 0.0048206415199996923 0.041998992264450578 0 0.0049496058094786561 0.042022510231930273 0 0.0055799694334992085 0.043502674890417266 0 0.0048379673782114607 0.042961758306980853 0 0.0048206415199996923 0.041998992264450578 0 0.0048379673782114607 0.042961758306980853 0 0.0036634281570692025 0.043723210822447865 0 0.0049496058094786561 0.042022510231930273 0 0.0019195660630155918 0.048538803093098659 0 0.0023010309967626385 0.048261809063188596 0 0.0001060029334925746 0.053510412927019031 0 -8.5128901031209417e-05 0.053416683739431217 0 0.00023174591976175699 0.053520067929470776 0 0.0055799694334992085 0.043502674890417266 0 0.0048379673782114607 0.042961758306980853 0 0.0048202410159932478 0.044380454482402708 0 0.0048379673782114607 0.042961758306980853 0 0.0036634281570692025 0.043723210822447865 0 0.0048202410159932478 0.044380454482402708 0 0.0048202410159932478 0.044380454482402708 0 0.0041771645480341325 0.045089919242162407 0 0.0047747285303513538 0.045636196305303724 0 0.0057128076040658653 0.045104542791591977 0 0.0048202410159932478 0.044380454482402708 0 0.0047747285303513538 0.045636196305303724 0 0.0036634281570692025 0.043723210822447865 0 0.0048202410159932478 0.044380454482402708 0 0.0041771645480341325 0.045089919242162407 0 0.0036634281570692025 0.043723210822447865 0 0.003577795429770689 0.045238746081213928 0 0.0041771645480341325 0.045089919242162407 0 0.0036634281570692025 0.043723210822447865 0 0.003577795429770689 0.045238746081213928 0 0.002370746126188923 0.045946993008500359 0 0.003577795429770689 0.045238746081213928 0 0.0041771645480341325 0.045089919242162407 0 0.0040928396580223137 0.04616036257463664 0 0.003577795429770689 0.045238746081213928 0 0.0040928396580223137 0.04616036257463664 0 0.002370746126188923 0.045946993008500359 0 0.0051047905844168297 0.046032431171248125 0 0.0047747285303513538 0.045636196305303724 0 0.0046183296495401847 0.04628985441455024 0 0.0040928396580223137 0.04616036257463664 0 0.0047747285303513538 0.045636196305303724 0 0.0046183296495401847 0.04628985441455024 0 0.0041771645480341325 0.045089919242162407 0 0.0040928396580223137 0.04616036257463664 0 0.0047747285303513538 0.045636196305303724 0 0.00072115506362013034 0.052552023786674562 0 0.0011408225716139171 0.052477817032907839 0 0.00078850825643223107 0.051611042453487382 0 0.00017805835445380236 0.052638286640864645 0 0.0024206014859196761 0.051642937564952432 0 0.0014522609385966901 0.050813622103382174 0 0.00078850825643223107 0.051611042453487382 0 0.0024206014859196761 0.051642937564952432 0 0.0014522609385966901 0.050813622103382174 0 0.0024206014859196761 0.051642937564952432 0 0.0023779020456169988 0.050284030282983151 0 0.00078850825643223107 0.051611042453487382 0 -0.00015719146569388251 0.052377879556770535 0 0.0017188258267943886 0.04904918797346506 0 0.0040928396580223137 0.04616036257463664 0 0.002370746126188923 0.045946993008500359 0 0.0019092640112222826 0.048807556343058521 0 0.00078850825643223107 0.051611042453487382 0 -0.00015719146569388251 0.052377879556770535 0 0.00017805835445380236 0.052638286640864645 0 -8.5128901031209417e-05 0.053416683739431217 0 -0.00015719146569388251 0.052377879556770535 0 0.0001487432850059847 0.053225557604791363 0 -0.00015719146569388251 0.052377879556770535 0 0.00017805835445380236 0.052638286640864645 0 0.0001487432850059847 0.053225557604791363 0 0.0019195660630155918 0.048538803093098659 0 0.0015793816957580802 0.048904295221143902 0 0.00017805835445380236 0.052638286640864645 0 0.00031215651422371196 0.053129666486507653 0 0.00035850768962226575 0.053026262225776499 0 0.00017805835445380236 0.052638286640864645 0 0.00031215651422371196 0.053129666486507653 0 0.0001487432850059847 0.053225557604791363 0 0.00031215651422371196 0.053129666486507653 0 0.0002704725774676283 0.053433419558622505 0 0.00037297017519330976 0.053358682101397673 0 0.00031215651422371196 0.053129666486507653 0 0.0002704725774676283 0.053433419558622505 0 0.0001487432850059847 0.053225557604791363 0 0.0002704725774676283 0.053433419558622505 0 0.0001487432850059847 0.053225557604791363 0 0.00014510648075099768 0.053482672915394623 0 -8.5128901031209417e-05 0.053416683739431217 0 0.0001487432850059847 0.053225557604791363 0 0.00014510648075099768 0.053482672915394623 0 0.0001060029334925746 0.053510412927019031 0 0.00014510648075099768 0.053482672915394623 0 0.00017635212336225087 0.05354613470684174 0 0.0001060029334925746 0.053510412927019031 0 -8.5128901031209417e-05 0.053416683739431217 0 0.00014510648075099768 0.053482672915394623 0 0.0002704725774676283 0.053433419558622505 0 0.00014510648075099768 0.053482672915394623 0 0.00024250480844096383 0.053580711484745303 0 0.0002704725774676283 0.053433419558622505 0 0.00024250480844096383 0.053580711484745303 0 0.00034888488588235406 0.053607436719495291 0 0.00014510648075099768 0.053482672915394623 0 0.00024250480844096383 0.053580711484745303 0 0.00017635212336225087 0.05354613470684174 0 0.00024250480844096383 0.053580711484745303 0 0.00020463502104849324 0.053577944162146868 0 0.00017635212336225087 0.05354613470684174 0 0.00020463502104849324 0.053577944162146868 0 0.00018352112012553484 0.053475904418274225 0 0.00017635212336225087 0.05354613470684174 0 0.00020463502104849324 0.053577944162146868 0 0.00018352112012553484 0.053475904418274225 0 0.00019538993263537593 0.053399851517734909 0 0.00020463502104849324 0.053577944162146868 0 0.00019538993263537593 0.053399851517734909 0 0.00019093575865473893 0.053542861912779856 0 0.00018352112012553484 0.053475904418274225 0 0.00021218727546222949 0.053340975687279239 0 0.00019538993263537593 0.053399851517734909 0 0.00018352112012553484 0.053475904418274225 0 0.00017635212336225087 0.05354613470684174 0 0.00016653179689145661 0.053482891003532866 0 0.0001060029334925746 0.053510412927019031 0 0.00017635212336225087 0.05354613470684174 0 0.00016653179689145661 0.053482891003532866 0 0.00016653179689145661 0.053482891003532866 0 0.00023174591976175699 0.053520067929470776 0 0.00027162023538713267 0.053369979254132956 0 0.0001060029334925746 0.053510412927019031 0 0.00016653179689145661 0.053482891003532866 0 0.00023174591976175699 0.053520067929470776 0 0.002150497012258671 0.048893707023587779 0 0.0023010309967626385 0.048261809063188596 0 0.0044013205025312122 0.044189207346864226 0 0.0048206415199996923 0.041998992264450578 0 0.0049496058094786561 0.042022510231930273 0 0.0004984044633898672 0.05326807254024276 0 0.00023174591976175699 0.053520067929470776 0 0.00027162023538713267 0.053369979254132956 0 0.00016653179689145661 0.053482891003532866 0 0.00027162023538713267 0.053369979254132956 0 0.00021218727546222949 0.053340975687279239 0 0.00018352112012553484 0.053475904418274225 0 0.00016653179689145661 0.053482891003532866 0 0.00021218727546222949 0.053340975687279239 0 0.00027162023538713267 0.053369979254132956 0 0.00021218727546222949 0.053340975687279239 0 0.00030880434695718719 0.053044323218144007 0 0.00021218727546222949 0.053340975687279239 0 0.00030880434695718719 0.053044323218144007 0 0.00022823916313721382 0.053210361265530852 0 0.0004984044633898672 0.05326807254024276 0 0.00027162023538713267 0.053369979254132956 0 0.00030880434695718719 0.053044323218144007 0 0.00025917950653264857 0.052982686013996971 0 0.00030880434695718719 0.053044323218144007 0 0.00022823916313721382 0.053210361265530852 0 0.00025917950653264857 0.052982686013996971 0 0.00022823916313721382 0.053210361265530852 0 0.0002113200272001933 0.053340634660529178 0 0.0002113200272001933 0.053340634660529178 0 0.00019538993263537593 0.053399851517734909 0 0.00019093575865473893 0.053542861912779856 0 0.00022823916313721382 0.053210361265530852 0 0.0002113200272001933 0.053340634660529178 0 0.00019538993263537593 0.053399851517734909 0 0.00021218727546222949 0.053340975687279239 0 0.00022823916313721382 0.053210361265530852 0 0.00019538993263537593 0.053399851517734909 0 0.00016755399403481019 0.053700089281630281 0 0.00017720087145913318 0.053584194809990514 0 0.0001315679773768562 0.053746381854968973 0 0.00016755399403481019 0.053700089281630281 0 0.00019093575865473893 0.053542861912779856 0 0.00017720087145913318 0.053584194809990514 0 0.0002113200272001933 0.053340634660529178 0 0.00019093575865473893 0.053542861912779856 0 0.00017720087145913318 0.053584194809990514 0 0.00021450588371831525 0.053472701851396062 0 0.0002113200272001933 0.053340634660529178 0 0.00017720087145913318 0.053584194809990514 0 0.00015244174710636309 0.053663420383498479 0 0.00017720087145913318 0.053584194809990514 0 0.0001315679773768562 0.053746381854968973 0 7.0329342129110033e-05 0.053945626781610301 0 0.0001315679773768562 0.053746381854968973 0 8.3735511850874115e-05 0.053892864242819367 0 7.0329342129110033e-05 0.053945626781610301 0 0.00015244174710636309 0.053663420383498479 0 0.0001315679773768562 0.053746381854968973 0 7.0329342129110033e-05 0.053945626781610301 0 8.3735511850874115e-05 0.053892864242819367 0 5.3664056108433749e-05 0.054038508761385287 0 8.3735511850874115e-05 0.053892864242819367 0 9.7284031584030732e-05 0.053868303355503515 0 4.3622165256710887e-05 0.053988942192261788 0 8.3735511850874115e-05 0.053892864242819367 0 0.00012963382767966974 0.053796577722403476 0 9.7284031584030732e-05 0.053868303355503515 0 8.3735511850874115e-05 0.053892864242819367 0 4.3622165256710887e-05 0.053988942192261788 0 5.3664056108433749e-05 0.054038508761385287 0 0.0001315679773768562 0.053746381854968973 0 8.3735511850874115e-05 0.053892864242819367 0 0.00012963382767966974 0.053796577722403476 0 0.00016755399403481019 0.053700089281630281 0 0.0001315679773768562 0.053746381854968973 0 0.00012963382767966974 0.053796577722403476 0 0.00012963382767966974 0.053796577722403476 0 0.00018215465794327296 0.053775227884846385 0 9.7284031584030732e-05 0.053868303355503515 0 0.00016755399403481019 0.053700089281630281 0 0.00012963382767966974 0.053796577722403476 0 0.00018215465794327296 0.053775227884846385 0 9.7284031584030732e-05 0.053868303355503515 0 7.5014709106403706e-05 0.053933268962606404 0 5.0249978668902882e-05 0.053933710210173354 0 9.7284031584030732e-05 0.053868303355503515 0 0.0001676012288545365 0.053850643486742171 0 7.5014709106403706e-05 0.053933268962606404 0 0.00018215465794327296 0.053775227884846385 0 9.7284031584030732e-05 0.053868303355503515 0 0.0001676012288545365 0.053850643486742171 0 0.00018215465794327296 0.053775227884846385 0 0.0001676012288545365 0.053850643486742171 0 0.00026154098122270833 0.053736837133551041 0 0.00018215465794327296 0.053775227884846385 0 0.00026154098122270833 0.053736837133551041 0 0.00021795135446536705 0.05367431307307699 0 0.00026154098122270833 0.053736837133551041 0 0.00021795135446536705 0.05367431307307699 0 0.00027645636960402865 0.053663720872702859 0 0.00016755399403481019 0.053700089281630281 0 0.00018215465794327296 0.053775227884846385 0 0.00021795135446536705 0.05367431307307699 0 0.00016755399403481019 0.053700089281630281 0 0.00019093575865473893 0.053542861912779856 0 0.00021795135446536705 0.05367431307307699 0 0.00020463502104849324 0.053577944162146868 0 0.00019093575865473893 0.053542861912779856 0 0.00021795135446536705 0.05367431307307699 0 0.00020463502104849324 0.053577944162146868 0 0.00021795135446536705 0.05367431307307699 0 0.00027645636960402865 0.053663720872702859 0 0.00024250480844096383 0.053580711484745303 0 0.00020463502104849324 0.053577944162146868 0 0.00027645636960402865 0.053663720872702859 0 0.00027645636960402865 0.053663720872702859 0 0.00034888488588235406 0.053607436719495291 0 0.00034790438940761695 0.05370817305896141 0 0.00024250480844096383 0.053580711484745303 0 0.00027645636960402865 0.053663720872702859 0 0.00034888488588235406 0.053607436719495291 0 0.00034790438940761695 0.05370817305896141 0 0.00049813826515195418 0.053697698332634512 0 0.00027306940060721295 0.05381981094234721 0 0.00026154098122270833 0.053736837133551041 0 0.00034790438940761695 0.05370817305896141 0 0.00027306940060721295 0.05381981094234721 0 0.00026154098122270833 0.053736837133551041 0 0.00027645636960402865 0.053663720872702859 0 0.00034790438940761695 0.05370817305896141 0 0.00034888488588235406 0.053607436719495291 0 0.00034790438940761695 0.05370817305896141 0 0.00049813826515195418 0.053697698332634512 0 0.0002704725774676283 0.053433419558622505 0 0.00034888488588235406 0.053607436719495291 0 0.00037297017519330976 0.053358682101397673 0 0.00034888488588235406 0.053607436719495291 0 0.00049813826515195418 0.053697698332634512 0 0.00037297017519330976 0.053358682101397673 0 0.00031215651422371196 0.053129666486507653 0 0.00037297017519330976 0.053358682101397673 0 0.00035850768962226575 0.053026262225776499 0 0.00037297017519330976 0.053358682101397673 0 0.0005185798547658471 0.053257717850649568 0 0.00035850768962226575 0.053026262225776499 0 0.00049813826515195418 0.053697698332634512 0 0.00037297017519330976 0.053358682101397673 0 0.0005185798547658471 0.053257717850649568 0 0.00049813826515195418 0.053697698332634512 0 0.0005185798547658471 0.053257717850649568 0 0.0008551267613449168 0.0532444773728823 0 0.00029892401964015175 0.053468506133486027 0 0.00031633965120638987 0.053341209899751441 0 0.0005185798547658471 0.053257717850649568 0 0.00063738437036671186 0.052993941895242216 0 0.0008551267613449168 0.0532444773728823 0 0.0015200083750621163 0.052456348806588358 0 0.0011408225716139171 0.052477817032907839 0 0.0005185798547658471 0.053257717850649568 0 0.00063738437036671186 0.052993941895242216 0 0.00035850768962226575 0.053026262225776499 0 0.0037529355236305744 0.051068808365562636 0 0.0024206014859196761 0.051642937564952432 0 0.0031553223057653999 0.050340965706076241 0 0.0024206014859196761 0.051642937564952432 0 0.0023779020456169988 0.050284030282983151 0 0.0031553223057653999 0.050340965706076241 0 0.00041219468108440871 0.052822652356019795 0 0.00041543427568993042 0.05331155768602381 0 -0.0004853721588398089 0.05432912520711513 0 -0.00061936481535899372 0.054371176480819981 0 -0.00014601065215622962 0.054429676292432491 0 0.00017280134318806186 0.054581301931216158 0 0.00012497839710470994 0.054299747716035636 0 -0.00014601065215622962 0.054429676292432491 0 0.00021780148978756115 0.052934429862819085 0 0.00041219468108440871 0.052822652356019795 0 0.0015200083750621163 0.052456348806588358 0 0.00041219468108440871 0.052822652356019795 0 0.00017280134318806186 0.054581301931216158 0 0.00035380613154925897 0.054284202356087274 0 0.00012497839710470994 0.054299747716035636 0 0.00041219468108440871 0.052822652356019795 0 0.00031633965120638987 0.053341209899751441 0 0.00063738437036671186 0.052993941895242216 0 0.0010911749951735489 0.05291578413573049 0 0.0008551267613449168 0.0532444773728823 0 0.00049813826515195418 0.053697698332634512 0 0.00035380613154925897 0.054284202356087274 0 0.00020946656408047054 0.054009371582849505 0 0.00035380613154925897 0.054284202356087274 0 0.00012497839710470994 0.054299747716035636 0 0.00020946656408047054 0.054009371582849505 0 0.00012497839710470994 0.054299747716035636 0 4.4697735668043067e-05 0.054186642285137671 0 -0.00014601065215622962 0.054429676292432491 0 0.00012497839710470994 0.054299747716035636 0 4.4697735668043067e-05 0.054186642285137671 0 0.00020946656408047054 0.054009371582849505 0 4.4697735668043067e-05 0.054186642285137671 0 9.8179086458926318e-05 0.053998552577243418 0 -2.1671927326894641e-05 0.054211248094272635 0 4.4697735668043067e-05 0.054186642285137671 0 0.00020946656408047054 0.054009371582849505 0 9.8179086458926318e-05 0.053998552577243418 0 0.00020946656408047054 0.054009371582849505 0 0.00027306940060721295 0.05381981094234721 0 9.8179086458926318e-05 0.053998552577243418 0 0.00049813826515195418 0.053697698332634512 0 0.00020946656408047054 0.054009371582849505 0 0.00027306940060721295 0.05381981094234721 0 0.0001676012288545365 0.053850643486742171 0 0.00027306940060721295 0.05381981094234721 0 9.8179086458926318e-05 0.053998552577243418 0 0.0001676012288545365 0.053850643486742171 0 0.00026154098122270833 0.053736837133551041 0 0.00027306940060721295 0.05381981094234721 0 0.0001676012288545365 0.053850643486742171 0 9.8179086458926318e-05 0.053998552577243418 0 7.5014709106403706e-05 0.053933268962606404 0 9.8179086458926318e-05 0.053998552577243418 0 -1.5627371009397847e-05 0.054101737593304611 0 -2.1671927326894641e-05 0.054211248094272635 0 9.8179086458926318e-05 0.053998552577243418 0 -1.5627371009397847e-05 0.054101737593304611 0 7.5014709106403706e-05 0.053933268962606404 0 -1.5627371009397847e-05 0.054101737593304611 0 -6.7204885888657098e-05 0.054356845079287466 0 -0.00017597387820338827 0.054160168569317539 0 -1.5627371009397847e-05 0.054101737593304611 0 -0.00017597387820338827 0.054160168569317539 0 -6.242452048547774e-05 0.054040821757083898 0 -6.7204885888657098e-05 0.054356845079287466 0 -2.1671927326894641e-05 0.054211248094272635 0 -0.00014601065215622962 0.054429676292432491 0 -1.5627371009397847e-05 0.054101737593304611 0 -6.7204885888657098e-05 0.054356845079287466 0 -2.1671927326894641e-05 0.054211248094272635 0 4.4697735668043067e-05 0.054186642285137671 0 -2.1671927326894641e-05 0.054211248094272635 0 -0.00014601065215622962 0.054429676292432491 0 -0.00014601065215622962 0.054429676292432491 0 -8.6154205181689566e-05 0.054514805509002395 0 -0.00013764969922282512 0.054485399905304717 0 -6.7204885888657098e-05 0.054356845079287466 0 -8.6154205181689566e-05 0.054514805509002395 0 -8.6404170000767798e-05 0.054542433590441891 0 -6.7204885888657098e-05 0.054356845079287466 0 -0.00014601065215622962 0.054429676292432491 0 -8.6154205181689566e-05 0.054514805509002395 0 -0.00013764969922282512 0.054485399905304717 0 -4.050198591333672e-05 0.054653560149902254 0 -2.6659490469708701e-05 0.054542281393192379 0 -8.6154205181689566e-05 0.054514805509002395 0 -0.00013764969922282512 0.054485399905304717 0 -4.050198591333672e-05 0.054653560149902254 0 -0.00013764969922282512 0.054485399905304717 0 -2.6659490469708701e-05 0.054542281393192379 0 -0.0001388550876664653 0.054364998865372445 0 -0.00013764969922282512 0.054485399905304717 0 -0.00026784476597026637 0.05432967423283222 0 -0.0001388550876664653 0.054364998865372445 0 -0.00014601065215622962 0.054429676292432491 0 -0.00013764969922282512 0.054485399905304717 0 -0.00028681812908958038 0.054384794522331768 0 -0.0004853721588398089 0.05432912520711513 0 -0.00014601065215622962 0.054429676292432491 0 -0.00028681812908958038 0.054384794522331768 0 -0.00013764969922282512 0.054485399905304717 0 -0.00028681812908958038 0.054384794522331768 0 -0.00026784476597026637 0.05432967423283222 0 2.3684597488338305e-05 0.054765490575344494 0 -4.050198591333672e-05 0.054653560149902254 0 -4.1436546902381751e-07 0.054999042628216165 0 2.3684597488338305e-05 0.054765490575344494 0 -4.1436546902381751e-07 0.054999042628216165 0 1.2868086207169667e-07 0.054999907508472043 0 2.3684597488338305e-05 0.054765490575344494 0 -4.050198591333672e-05 0.054653560149902254 0 -2.6659490469708701e-05 0.054542281393192379 0 -4.050198591333672e-05 0.054653560149902254 0 -8.6404170000767798e-05 0.054542433590441891 0 -4.1436546902381751e-07 0.054999042628216165 0 -8.6154205181689566e-05 0.054514805509002395 0 -4.050198591333672e-05 0.054653560149902254 0 -8.6404170000767798e-05 0.054542433590441891 0 -1.9208205332855625e-06 0.054997360513970396 0 0.0014651746627897754 0.055755798095345602 0 3.0087458549954901e-06 0.055006620164018825 0 1.1830445325755111e-06 0.05499857991197029 0 0.00089843767429372543 0.053616961181580797 0 -8.6404170000767798e-05 0.054542433590441891 0 -4.1436546902381751e-07 0.054999042628216165 0 -0.00018299088609827712 0.054475687801215547 0 0.0014651746627897754 0.055755798095345602 0 3.0087458549954901e-06 0.055006620164018825 0 -3.5945930407471199e-06 0.054982851795696105 0 -6.7204885888657098e-05 0.054356845079287466 0 -8.6404170000767798e-05 0.054542433590441891 0 -0.00017597387820338827 0.054160168569317539 0 -8.6404170000767798e-05 0.054542433590441891 0 -0.00018299088609827712 0.054475687801215547 0 -0.00017597387820338827 0.054160168569317539 0 0.00089843767429372543 0.053616961181580797 0 0.0017354676172936638 0.051761045208999296 0 0.0014651746627897754 0.055755798095345602 0 -3.5945930407471199e-06 0.054982851795696105 0 0.0028363968810374233 0.050680389424453631 0 0.0014651746627897754 0.055755798095345602 0 0.0074753957868394236 0.050053920961679647 0 0.0028363968810374233 0.050680389424453631 0 6.8439668131627716e-06 0.054998414815238407 0 0.0026578104674151192 0.053091818388040356 0 -3.5945930407471199e-06 0.054982851795696105 0 0.0028363968810374233 0.050680389424453631 0 -0.00086057112182438703 0.045292284251504701 0 0.0074753957868394236 0.050053920961679647 0 0.0028363968810374233 0.050680389424453631 0 0.0044630516560055841 0.044847240944728528 0 -0.00086057112182438703 0.045292284251504701 0 0.0044630516560055841 0.044847240944728528 0 -0.00029667355794911753 0.039046921093897492 0 0.0026578104674151192 0.053091818388040356 0 0.0010851563982262401 0.054431444586666961 0 -2.1859000062508323e-09 0.054847636166671362 0 7.7383925334730833e-09 0.055000001418269329 0 -2.3408958916513119e-05 0.054996560094470667 0 0.0028363968810374233 0.050680389424453631 0 -0.00086057112182438703 0.045292284251504701 0 0.0044630516560055841 0.044847240944728528 0 0.0044630516560055841 0.044847240944728528 0 -0.00029667355794911753 0.039046921093897492 0 0.0060343084689165587 0.039929622413209583 0 0.00035236301299009876 0.053989187812297182 0 0.00021076454530730935 0.054104382757516403 0 0.00034601509664479473 0.054263623227362993 0 0.0010851563982262401 0.054431444586666961 0 0.00074880322170916538 0.054600322079373695 0 -1.9856623391751321e-08 0.055000175420934355 0 -1.6668496190293852e-06 0.054999691994269968 0 4.23441349414398e-06 0.055017008348752304 0 1.0402997546423601e-05 0.054988855335131648 0 0.0010851563982262401 0.054431444586666961 0 0.0010851563982262401 0.054431444586666961 0 0.0012944142405544839 0.052789683722576308 0 0.00035236301299009876 0.053989187812297182 0 0.00021076454530730935 0.054104382757516403 0 0.00017583968510184381 0.05398213094085938 0 0.0001067914799788221 0.054032448621232597 0 6.9952274768278331e-05 0.054069055764093099 0 0.00010663723672414955 0.054146436305878599 0 0.00021076454530730935 0.054104382757516403 0 0.0001067914799788221 0.054032448621232597 0 0.00010663723672414955 0.054146436305878599 0 0.00021076454530730935 0.054104382757516403 0 0.0001067914799788221 0.054032448621232597 0 0.00017583968510184381 0.05398213094085938 0 0.0012944142405544839 0.052789683722576308 0 0.00046620913970197496 0.052186896129553087 0 0.0001067914799788221 0.054032448621232597 0 0.00017583968510184381 0.05398213094085938 0 6.7050967584217803e-05 0.053978245471918748 0 0.0044630516560055841 0.044847240944728528 0 0.0060343084689165587 0.039929622413209583 0 0.012530445609830312 0.040796181001018041 0 0.0074753957868394236 0.050053920961679647 0 0.0044630516560055841 0.044847240944728528 0 0.012530445609830312 0.040796181001018041 0 0.0017354676172936638 0.051761045208999296 0 0.00046620913970197496 0.052186896129553087 0 -1.5627371009397847e-05 0.054101737593304611 0 -6.242452048547774e-05 0.054040821757083898 0 2.2087901082406885e-05 0.053946483371384579 0 -0.00017597387820338827 0.054160168569317539 0 -6.242452048547774e-05 0.054040821757083898 0 -0.00011062189275497499 0.053930558514483515 0 -6.242452048547774e-05 0.054040821757083898 0 2.2087901082406885e-05 0.053946483371384579 0 -0.00011062189275497499 0.053930558514483515 0 0.00037954495830761685 0.052331698590294594 0 0.00046620913970197496 0.052186896129553087 0 -1.5627371009397847e-05 0.054101737593304611 0 7.5014709106403706e-05 0.053933268962606404 0 2.2087901082406885e-05 0.053946483371384579 0 7.5014709106403706e-05 0.053933268962606404 0 2.2087901082406885e-05 0.053946483371384579 0 5.0249978668902882e-05 0.053933710210173354 0 2.2087901082406885e-05 0.053946483371384579 0 5.0249978668902882e-05 0.053933710210173354 0 3.7230457784558078e-05 0.053991833729657143 0 5.0249978668902882e-05 0.053933710210173354 0 3.7230457784558078e-05 0.053991833729657143 0 4.3622165256710887e-05 0.053988942192261788 0 9.7284031584030732e-05 0.053868303355503515 0 5.0249978668902882e-05 0.053933710210173354 0 4.3622165256710887e-05 0.053988942192261788 0 0.0001067914799788221 0.054032448621232597 0 5.7685124383687609e-05 0.054009193751904168 0 6.7050967584217803e-05 0.053978245471918748 0 0.0004113169653565208 0.052310539336456165 0 0.00046620913970197496 0.052186896129553087 0 2.2087901082406885e-05 0.053946483371384579 0 5.7685124383687609e-05 0.054009193751904168 0 7.4807273630836878e-05 0.053977375968232322 0 2.2087901082406885e-05 0.053946483371384579 0 3.7230457784558078e-05 0.053991833729657143 0 5.7685124383687609e-05 0.054009193751904168 0 3.7230457784558078e-05 0.053991833729657143 0 5.7685124383687609e-05 0.054009193751904168 0 5.0051918064982345e-05 0.054040619088528002 0 0.0001067914799788221 0.054032448621232597 0 5.7685124383687609e-05 0.054009193751904168 0 6.9952274768278331e-05 0.054069055764093099 0 5.7685124383687609e-05 0.054009193751904168 0 5.0051918064982345e-05 0.054040619088528002 0 6.9952274768278331e-05 0.054069055764093099 0 4.6971877405000612e-05 0.054119214434881935 0 4.3622165256710887e-05 0.053988942192261788 0 4.6717080643063645e-05 0.054168170942920153 0 5.0051918064982345e-05 0.054040619088528002 0 6.9952274768278331e-05 0.054069055764093099 0 4.6971877405000612e-05 0.054119214434881935 0 6.9952274768278331e-05 0.054069055764093099 0 4.6971877405000612e-05 0.054119214434881935 0 0.00010663723672414955 0.054146436305878599 0 3.7230457784558078e-05 0.053991833729657143 0 5.0051918064982345e-05 0.054040619088528002 0 4.6971877405000612e-05 0.054119214434881935 0 4.6971877405000612e-05 0.054119214434881935 0 4.6717080643063645e-05 0.054168170942920153 0 6.016460127131708e-05 0.054306659042710287 0 3.7230457784558078e-05 0.053991833729657143 0 4.6971877405000612e-05 0.054119214434881935 0 4.3622165256710887e-05 0.053988942192261788 0 4.3622165256710887e-05 0.053988942192261788 0 5.3664056108433749e-05 0.054038508761385287 0 4.6717080643063645e-05 0.054168170942920153 0 6.8729843606272497e-05 0.054206141225433352 0 7.0329342129110033e-05 0.053945626781610301 0 5.3664056108433749e-05 0.054038508761385287 0 6.8729843606272497e-05 0.054206141225433352 0 5.3664056108433749e-05 0.054038508761385287 0 4.6717080643063645e-05 0.054168170942920153 0 4.6717080643063645e-05 0.054168170942920153 0 6.1012525660048833e-05 0.054342068951278653 0 6.016460127131708e-05 0.054306659042710287 0 6.8729843606272497e-05 0.054206141225433352 0 4.6717080643063645e-05 0.054168170942920153 0 6.1012525660048833e-05 0.054342068951278653 0 6.1012525660048833e-05 0.054342068951278653 0 7.0909617239297361e-05 0.054526645881049184 0 6.016460127131708e-05 0.054306659042710287 0 7.0909617239297361e-05 0.054526645881049184 0 6.016460127131708e-05 0.054306659042710287 0 0.00010603206436800426 0.054465852750016461 0 6.016460127131708e-05 0.054306659042710287 0 0.00010603206436800426 0.054465852750016461 0 8.911509859807109e-05 0.054273150096952584 0 0.00010012928380236978 0.054864709488652741 0 0.00010603206436800426 0.054465852750016461 0 0.00034601509664479473 0.054263623227362993 0 0.00064485048261082932 0.05466960800192374 0 0.00074880322170916538 0.054600322079373695 0 0.00010012928380236978 0.054864709488652741 0 7.0909617239297361e-05 0.054526645881049184 0 0.00010603206436800426 0.054465852750016461 0 0.00010012928380236978 0.054864709488652741 0 5.9219254363658115e-08 0.05499974650375776 0 4.23441349414398e-06 0.055017008348752304 0 0.00010603206436800426 0.054465852750016461 0 0.00034601509664479473 0.054263623227362993 0 0.00016177227445918232 0.054243759964356271 0 -1.9856623391751321e-08 0.055000175420934355 0 5.9219254363658115e-08 0.05499974650375776 0 4.23441349414398e-06 0.055017008348752304 0 0.00021076454530730935 0.054104382757516403 0 0.00034601509664479473 0.054263623227362993 0 0.00016177227445918232 0.054243759964356271 0 0.00021076454530730935 0.054104382757516403 0 0.00010663723672414955 0.054146436305878599 0 0.00016177227445918232 0.054243759964356271 0 4.6971877405000612e-05 0.054119214434881935 0 0.00010663723672414955 0.054146436305878599 0 8.911509859807109e-05 0.054273150096952584 0 4.6971877405000612e-05 0.054119214434881935 0 6.016460127131708e-05 0.054306659042710287 0 8.911509859807109e-05 0.054273150096952584 0 0.00010603206436800426 0.054465852750016461 0 8.911509859807109e-05 0.054273150096952584 0 0.00016177227445918232 0.054243759964356271 0 0.00010663723672414955 0.054146436305878599 0 8.911509859807109e-05 0.054273150096952584 0 0.00016177227445918232 0.054243759964356271 0 1.7298395431647553e-05 0.05495415984182829 0 -1.6584922532310185e-06 0.054972431573000351 0 1.3273708850703769e-05 0.05498809283293183 0 1.7298395431647553e-05 0.05495415984182829 0 3.4261880554043636e-08 0.054999942170749175 0 1.3273708850703769e-05 0.05498809283293183 0 3.4261880554043636e-08 0.054999942170749175 0 1.4217299886199575e-05 0.054945763219044007 0 -6.8099899094920137e-09 0.054999915159685581 0 1.7298395431647553e-05 0.05495415984182829 0 3.4261880554043636e-08 0.054999942170749175 0 1.4217299886199575e-05 0.054945763219044007 0 1.7298395431647553e-05 0.05495415984182829 0 2.6778880074757309e-05 0.054860476135843481 0 1.4217299886199575e-05 0.054945763219044007 0 2.6778880074757309e-05 0.054860476135843481 0 0.00014202914197700571 0.054581061950007094 0 0.00020728095942477228 0.054777606766098885 0 1.7298395431647553e-05 0.05495415984182829 0 2.6778880074757309e-05 0.054860476135843481 0 -1.6584922532310185e-06 0.054972431573000351 0 2.6778880074757309e-05 0.054860476135843481 0 0.00014202914197700571 0.054581061950007094 0 -5.3354301064887916e-05 0.054598608426260728 0 9.0992536747381769e-05 0.054775516734927268 0 9.9458507614086583e-05 0.054704801005118632 0 -5.3354301064887916e-05 0.054598608426260728 0 4.1520402817208784e-05 0.054460007401059704 0 -0.00010535508643280838 0.054369827213111163 0 0.00014202914197700571 0.054581061950007094 0 -5.3354301064887916e-05 0.054598608426260728 0 4.1520402817208784e-05 0.054460007401059704 0 9.9458507614086583e-05 0.054704801005118632 0 0.0001444488445708084 0.054482866545528023 0 0.00014202914197700571 0.054581061950007094 0 4.1520402817208784e-05 0.054460007401059704 0 0.00016961961700027786 0.05439693127889849 0 0.00014202914197700571 0.054581061950007094 0 0.00016961961700027786 0.05439693127889849 0 0.00024705840682729335 0.054489977071600366 0 0.00018263114102969874 0.05248697493466279 0 0.0010006200876505711 0.051133705045263697 0 4.1520402817208784e-05 0.054460007401059704 0 0.00016961961700027786 0.05439693127889849 0 8.1342364274884096e-05 0.054258787822956012 0 0.00016961961700027786 0.05439693127889849 0 8.1342364274884096e-05 0.054258787822956012 0 0.00032683465707327754 0.054370715435667037 0 4.1520402817208784e-05 0.054460007401059704 0 -0.00010535508643280838 0.054369827213111163 0 8.1342364274884096e-05 0.054258787822956012 0 1.1157145615732524e-05 0.05499537180167513 0 1.3273708850703769e-05 0.05498809283293183 0 1.809405729059123e-05 0.05499722967043931 0 -1.6584922532310185e-06 0.054972431573000351 0 1.1157145615732524e-05 0.05499537180167513 0 1.3273708850703769e-05 0.05498809283293183 0 3.4261880554043636e-08 0.054999942170749175 0 1.3273708850703769e-05 0.05498809283293183 0 -3.919295734251316e-09 0.054999952297367503 0 -3.919295734251316e-09 0.054999952297367503 0 1.809405729059123e-05 0.05499722967043931 0 8.8250470511063374e-08 0.055000171372119322 0 1.3273708850703769e-05 0.05498809283293183 0 -3.919295734251316e-09 0.054999952297367503 0 1.809405729059123e-05 0.05499722967043931 0 1.809405729059123e-05 0.05499722967043931 0 3.31307790219233e-05 0.0549894981480347 0 8.8250470511063374e-08 0.055000171372119322 0 1.809405729059123e-05 0.05499722967043931 0 3.31307790219233e-05 0.0549894981480347 0 2.7665352211753744e-05 0.054992403126867866 0 3.31307790219233e-05 0.0549894981480347 0 8.8250470511063374e-08 0.055000171372119322 0 7.006294033114343e-05 0.054952749564228742 0 0.0001444488445708084 0.054482866545528023 0 0.0002140395938083551 0.053838180543525051 0 1.1157145615732524e-05 0.05499537180167513 0 1.809405729059123e-05 0.05499722967043931 0 2.7665352211753744e-05 0.054992403126867866 0 0.0010140698651073575 0.05520815924560165 0 0.00081865814733131934 0.054368680108692682 0 7.006294033114343e-05 0.054952749564228742 0 0.00098258074684483298 0.052753078391395994 0 0.00050395684547397529 0.053509702486149141 0 8.2280798654284625e-05 0.052640115621077697 0 0.00098258074684483298 0.052753078391395994 0 0.00050395684547397529 0.053509702486149141 0 0.00081865814733131934 0.054368680108692682 0 0.0002140395938083551 0.053838180543525051 0 0.00028238116414644975 0.053920935065484135 0 0.00050395684547397529 0.053509702486149141 0 0.00081865814733131934 0.054368680108692682 0 0.00079902219555404229 0.054401289094498866 0 0.00081865814733131934 0.054368680108692682 0 7.006294033114343e-05 0.054952749564228742 0 3.0023912228960833e-07 0.054998713017794285 0 8.8250470511063374e-08 0.055000171372119322 0 7.006294033114343e-05 0.054952749564228742 0 3.0023912228960833e-07 0.054998713017794285 0 3.31307790219233e-05 0.0549894981480347 0 2.7665352211753744e-05 0.054992403126867866 0 7.006294033114343e-05 0.054952749564228742 0 0.0002140395938083551 0.053838180543525051 0 0.00033103546718189899 0.054073996534786006 0 0.00081865814733131934 0.054368680108692682 0 3.0023912228960833e-07 0.054998713017794285 0 0.00079902219555404229 0.054401289094498866 0 2.3261802754198625e-07 0.054999095068683133 0 0.00010822812304515247 0.054510285102488287 0 5.7334877526747716e-05 0.054788857940033853 0 2.3261802754198625e-07 0.054999095068683133 0 0.00018249024500803287 0.054124052857932037 0 0.00010822812304515247 0.054510285102488287 0 3.4347327555745437e-07 0.054999124661954363 0 7.4064827932444392e-05 0.054583378314296591 0 0.00018249024500803287 0.054124052857932037 0 0.00011461842930031354 0.054243278404285875 0 0.00010822812304515247 0.054510285102488287 0 0.00018249024500803287 0.054124052857932037 0 0.00011461842930031354 0.054243278404285875 0 1.1393274207816803e-05 0.053920744761783469 0 6.5945510470726541e-05 0.054297671129563838 0 0.00011461842930031354 0.054243278404285875 0 1.1393274207816803e-05 0.053920744761783469 0 6.5945510470726541e-05 0.054297671129563838 0 0.00010822812304515247 0.054510285102488287 0 5.868810258570657e-05 0.054559653218147132 0 6.5945510470726541e-05 0.054297671129563838 0 0.00011461842930031354 0.054243278404285875 0 0.00010822812304515247 0.054510285102488287 0 2.3684597488338305e-05 0.054765490575344494 0 5.868810258570657e-05 0.054559653218147132 0 -2.6659490469708701e-05 0.054542281393192379 0 6.5945510470726541e-05 0.054297671129563838 0 5.868810258570657e-05 0.054559653218147132 0 -3.4402222080954355e-05 0.054317116223812238 0 5.868810258570657e-05 0.054559653218147132 0 -2.6659490469708701e-05 0.054542281393192379 0 -3.4402222080954355e-05 0.054317116223812238 0 2.3261802754198625e-07 0.054999095068683133 0 1.2868086207169667e-07 0.054999907508472043 0 5.7334877526747716e-05 0.054788857940033853 0 2.3684597488338305e-05 0.054765490575344494 0 5.868810258570657e-05 0.054559653218147132 0 5.7334877526747716e-05 0.054788857940033853 0 2.3684597488338305e-05 0.054765490575344494 0 1.2868086207169667e-07 0.054999907508472043 0 5.7334877526747716e-05 0.054788857940033853 0 0.00010822812304515247 0.054510285102488287 0 5.868810258570657e-05 0.054559653218147132 0 5.7334877526747716e-05 0.054788857940033853 0 -0.00027005469533214401 0.054064627148440327 0 -0.00042126358730160867 0.05425494211788677 0 -0.0006125804696230356 0.054094922810826111 0 -0.0004853721588398089 0.05432912520711513 0 -0.00028681812908958038 0.054384794522331768 0 -0.00042126358730160867 0.05425494211788677 0 -0.00028681812908958038 0.054384794522331768 0 -0.00042126358730160867 0.05425494211788677 0 -0.00026784476597026637 0.05432967423283222 0 -0.00027005469533214401 0.054064627148440327 0 -0.00042126358730160867 0.05425494211788677 0 -0.00026784476597026637 0.05432967423283222 0 -0.00027005469533214401 0.054064627148440327 0 -0.00026784476597026637 0.05432967423283222 0 -0.0001388550876664653 0.054364998865372445 0 -2.6659490469708701e-05 0.054542281393192379 0 -0.0001388550876664653 0.054364998865372445 0 -3.4402222080954355e-05 0.054317116223812238 0 -0.00027005469533214401 0.054064627148440327 0 -0.0001388550876664653 0.054364998865372445 0 -3.4402222080954355e-05 0.054317116223812238 0 -0.00027005469533214401 0.054064627148440327 0 -6.6853948013952e-05 0.053979570373570464 0 -0.00019536629524407933 0.053636948483777154 0 -0.00027005469533214401 0.054064627148440327 0 -3.4402222080954355e-05 0.054317116223812238 0 -6.6853948013952e-05 0.053979570373570464 0 6.5945510470726541e-05 0.054297671129563838 0 -6.6853948013952e-05 0.053979570373570464 0 1.1393274207816803e-05 0.053920744761783469 0 6.5945510470726541e-05 0.054297671129563838 0 -3.4402222080954355e-05 0.054317116223812238 0 -6.6853948013952e-05 0.053979570373570464 0 -6.6853948013952e-05 0.053979570373570464 0 1.1393274207816803e-05 0.053920744761783469 0 -0.00019536629524407933 0.053636948483777154 0 1.1393274207816803e-05 0.053920744761783469 0 -0.00019536629524407933 0.053636948483777154 0 -0.00016876606243618103 0.053116465170493322 0 -0.00028768904721025902 0.053500667787684919 0 -0.00024363813261150296 0.053512937556589583 0 -0.00027005469533214401 0.054064627148440327 0 -0.00053159589586140865 0.053293341346051945 0 -0.0006125804696230356 0.054094922810826111 0 -0.00027005469533214401 0.054064627148440327 0 -0.00019536629524407933 0.053636948483777154 0 -0.00053159589586140865 0.053293341346051945 0 -0.00053159589586140865 0.053293341346051945 0 -0.00069057372562259542 0.052508257524270338 0 -0.0011611683389877317 0.052752338311577558 0 -0.00019536629524407933 0.053636948483777154 0 -0.00053159589586140865 0.053293341346051945 0 -0.00016876606243618103 0.053116465170493322 0 -0.00053159589586140865 0.053293341346051945 0 -0.00069057372562259542 0.052508257524270338 0 -0.00016876606243618103 0.053116465170493322 0 -0.00069057372562259542 0.052508257524270338 0 -0.00016876606243618103 0.053116465170493322 0 -0.00039142001580563796 0.052325052736602047 0 0.00018249024500803287 0.054124052857932037 0 1.1393274207816803e-05 0.053920744761783469 0 -0.00016876606243618103 0.053116465170493322 0 0.00050395684547397529 0.053509702486149141 0 0.00079902219555404229 0.054401289094498866 0 -0.00016876606243618103 0.053116465170493322 0 7.4064827932444392e-05 0.054583378314296591 0 -7.5882082660310443e-05 0.054310303037102284 0 -0.00016876606243618103 0.053116465170493322 0 8.2280798654284625e-05 0.052640115621077697 0 -0.00039142001580563796 0.052325052736602047 0 0.00050395684547397529 0.053509702486149141 0 -0.00016876606243618103 0.053116465170493322 0 8.2280798654284625e-05 0.052640115621077697 0 0.00098258074684483298 0.052753078391395994 0 8.2280798654284625e-05 0.052640115621077697 0 -0.00038351572681457312 0.051491781900015104 0 0.0002140395938083551 0.053838180543525051 0 0.00018263114102969874 0.05248697493466279 0 -0.00010535508643280838 0.054369827213111163 0 -0.00015566899101590107 0.054143360208861374 0 8.1342364274884096e-05 0.054258787822956012 0 8.2280798654284625e-05 0.052640115621077697 0 -0.00039142001580563796 0.052325052736602047 0 -0.00038351572681457312 0.051491781900015104 0 -0.00077373461990667221 0.051898577403547572 0 -0.00038351572681457312 0.051491781900015104 0 -0.0011319608538081047 0.051336107977577899 0 -0.00069057372562259542 0.052508257524270338 0 -0.00077373461990667221 0.051898577403547572 0 -0.001170201718064522 0.051778900580830289 0 -0.00069057372562259542 0.052508257524270338 0 -0.00077373461990667221 0.051898577403547572 0 -0.00039142001580563796 0.052325052736602047 0 -0.00077373461990667221 0.051898577403547572 0 -0.00039142001580563796 0.052325052736602047 0 -0.00038351572681457312 0.051491781900015104 0 -0.0011319608538081047 0.051336107977577899 0 -0.001170201718064522 0.051778900580830289 0 -0.0016663484193695051 0.05089842498907457 0 -0.001170201718064522 0.051778900580830289 0 -0.0016663484193695051 0.05089842498907457 0 -0.0016157913142409027 0.051517109095590638 0 -0.00077373461990667221 0.051898577403547572 0 -0.0011319608538081047 0.051336107977577899 0 -0.001170201718064522 0.051778900580830289 0 -0.0016663484193695051 0.05089842498907457 0 -0.0019378680504399766 0.050304818739251113 0 -0.0014894668108518148 0.050931759631047666 0 -0.0016663484193695051 0.05089842498907457 0 -0.0019378680504399766 0.050304818739251113 0 -0.0016157913142409027 0.051517109095590638 0 -0.0019378680504399766 0.050304818739251113 0 -0.0022397932505328487 0.051741070186030989 0 -0.0016157913142409027 0.051517109095590638 0 -0.0022397932505328487 0.051741070186030989 0 -0.0016157913142409027 0.051517109095590638 0 -0.001880869182929297 0.052430601002058624 0 -0.0016157913142409027 0.051517109095590638 0 -0.001880869182929297 0.052430601002058624 0 -0.0011611683389877317 0.052752338311577558 0 -0.0022397932505328487 0.051741070186030989 0 -0.001880869182929297 0.052430601002058624 0 -0.0027318661658853509 0.052580940189644133 0 -0.001170201718064522 0.051778900580830289 0 -0.0016157913142409027 0.051517109095590638 0 -0.0011611683389877317 0.052752338311577558 0 -0.00069057372562259542 0.052508257524270338 0 -0.001170201718064522 0.051778900580830289 0 -0.0011611683389877317 0.052752338311577558 0 -0.0011611683389877317 0.052752338311577558 0 -0.0017800737173283986 0.053254957260348595 0 -0.0009288709270050704 0.053673121146297763 0 -0.00053159589586140865 0.053293341346051945 0 -0.0011611683389877317 0.052752338311577558 0 -0.0009288709270050704 0.053673121146297763 0 -0.0017800737173283986 0.053254957260348595 0 -0.0028248514027994923 0.053683399731167022 0 -0.0027318661658853509 0.052580940189644133 0 -0.001880869182929297 0.052430601002058624 0 -0.0011611683389877317 0.052752338311577558 0 -0.0017800737173283986 0.053254957260348595 0 -0.001880869182929297 0.052430601002058624 0 -0.0017800737173283986 0.053254957260348595 0 -0.0027318661658853509 0.052580940189644133 0 -0.0015385794460192933 0.054612252415027186 0 -0.0016364224792210799 0.054143816843106839 0 -0.0028248514027994923 0.053683399731167022 0 -0.0017800737173283986 0.053254957260348595 0 -0.0016364224792210799 0.054143816843106839 0 -0.0028248514027994923 0.053683399731167022 0 0.00041219468108440871 0.052822652356019795 0 0.00082557760270781158 0.051253365465669699 0 0.0037529355236305744 0.051068808365562636 0 0.0052772577849029799 0.050825132390239974 0 0.0037680742849585049 0.049611760861862468 0 -0.0004853721588398089 0.05432912520711513 0 -0.00059018829416714513 0.054379624818403853 0 -0.0006125804696230356 0.054094922810826111 0 -0.0015385794460192933 0.054612252415027186 0 -0.0016364224792210799 0.054143816843106839 0 -0.0009288709270050704 0.053673121146297763 0 0.00041219468108440871 0.052822652356019795 0 -0.00024363813261150296 0.053512937556589583 0 -0.0017800737173283986 0.053254957260348595 0 -0.0016364224792210799 0.054143816843106839 0 -0.0009288709270050704 0.053673121146297763 0 -0.0004853721588398089 0.05432912520711513 0 -0.00042126358730160867 0.05425494211788677 0 -0.0006125804696230356 0.054094922810826111 0 0.0024278027069914269 0.049554624389611661 0 0.0031553223057653999 0.050340965706076241 0 0.0037680742849585049 0.049611760861862468 0 0.0024278027069914269 0.049554624389611661 0 0.0023779020456169988 0.050284030282983151 0 0.0019846256723895879 0.049920552588785007 0 0.0024278027069914269 0.049554624389611661 0 0.0023779020456169988 0.050284030282983151 0 0.0031553223057653999 0.050340965706076241 0 0.0037529355236305744 0.051068808365562636 0 0.0031553223057653999 0.050340965706076241 0 0.0037680742849585049 0.049611760861862468 0 -0.0028248514027994923 0.053683399731167022 0 -0.0027318661658853509 0.052580940189644133 0 -0.0043820800040307358 0.052531213422229751 0 0.0024278027069914269 0.049554624389611661 0 0.0021191847829601512 0.048952706132847669 0 0.0017188258267943886 0.04904918797346506 0 0.00082557760270781158 0.051253365465669699 0 0.0014058447550133375 0.049463621844796087 0 0.0024278027069914269 0.049554624389611661 0 0.0037680742849585049 0.049611760861862468 0 0.0021191847829601512 0.048952706132847669 0 0.0014517964867089769 0.045871812428382619 0 -0.00029812041283852701 0.047446857547553511 0 0.0015567942337534185 0.047985044319567981 0 0.0014058447550133375 0.049463621844796087 0 -4.0204001398781275e-05 0.049996799939576217 0 -0.0027318661658853509 0.052580940189644133 0 -0.0043820800040307358 0.052531213422229751 0 -0.0034181405389625977 0.051645315531223319 0 -0.0022397932505328487 0.051741070186030989 0 -0.0027318661658853509 0.052580940189644133 0 -0.0034181405389625977 0.051645315531223319 0 -0.0019378680504399766 0.050304818739251113 0 -0.0022397932505328487 0.051741070186030989 0 -0.0034181405389625977 0.051645315531223319 0 -0.0019378680504399766 0.050304818739251113 0 -0.00019374774273317179 0.049506105121635176 0 -0.0014894668108518148 0.050931759631047666 0 -0.00042926651160956909 0.050143972716155893 0 -4.0204001398781275e-05 0.049996799939576217 0 -0.0019378680504399766 0.050304818739251113 0 -0.00029812041283852701 0.047446857547553511 0 -0.00019374774273317179 0.049506105121635176 0 -0.00019374774273317179 0.049506105121635176 0 0.0015567942337534185 0.047985044319567981 0 0.0015070625027559289 0.050109725077468234 0 -0.00029812041283852701 0.047446857547553511 0 -0.00019374774273317179 0.049506105121635176 0 0.0015567942337534185 0.047985044319567981 0 0.0050658815842607799 0.047484649215390987 0 0.0052527699209428749 0.047164924989912177 0 0.005562098573660859 0.047370214327206325 0 0.0050658815842607799 0.047484649215390987 0 0.0052527699209428749 0.047164924989912177 0 0.0046751064648125592 0.046990440232603188 0 0.0052527699209428749 0.047164924989912177 0 0.0051350333037447921 0.046821469057240647 0 0.0046751064648125592 0.046990440232603188 0 0.0052527699209428749 0.047164924989912177 0 0.0051350333037447921 0.046821469057240647 0 0.0056177104221407726 0.047101630532469199 0 0.002584713885517992 0.050977874461377061 0 0.0023366364165576586 0.051152911382821083 0 0.00053965302566920663 0.054528171953541656 0 0.00042758790035311368 0.054474997399755358 0 0.00040798158086286868 0.054563024347084876 0 0.0028273960552312534 0.049385786600061009 0 0.0021513240796596097 0.050004833256269136 0 0.0052527699209428749 0.047164924989912177 0 0.0056177104221407726 0.047101630532469199 0 0.005562098573660859 0.047370214327206325 0 -0.00019374774273317179 0.049506105121635176 0 0.0015070625027559289 0.050109725077468234 0 -0.0014894668108518148 0.050931759631047666 0 0.0021513240796596097 0.050004833256269136 0 0.0010006200876505711 0.051133705045263697 0 -0.0016663484193695051 0.05089842498907457 0 -0.0014894668108518148 0.050931759631047666 0 -0.0015184864400167957 0.050760863348742524 0 0.0056177104221407726 0.047101630532469199 0 0.005562098573660859 0.047370214327206325 0 0.0060045497900053377 0.047314487390990867 0 0.0023366364165576586 0.051152911382821083 0 0.0010006200876505711 0.051133705045263697 0 0.00065232152418065144 0.051484151406643627 0 0.0010006200876505711 0.051133705045263697 0 -0.00038351572681457312 0.051491781900015104 0 -0.0011319608538081047 0.051336107977577899 0 -0.0015184864400167957 0.050760863348742524 0 0.00016961961700027786 0.05439693127889849 0 0.00029183519116176437 0.054394905484755132 0 0.00024705840682729335 0.054489977071600366 0 -0.0011319608538081047 0.051336107977577899 0 -0.0016663484193695051 0.05089842498907457 0 -0.0015184864400167957 0.050760863348742524 0 0.00014202914197700571 0.054581061950007094 0 0.00024705840682729335 0.054489977071600366 0 0.00029135686694393211 0.05458530468400264 0 0.00029183519116176437 0.054394905484755132 0 0.00024705840682729335 0.054489977071600366 0 0.00033146272330482985 0.054499242467225283 0 0.00024705840682729335 0.054489977071600366 0 0.00033146272330482985 0.054499242467225283 0 0.00029135686694393211 0.05458530468400264 0 0.00042758790035311368 0.054474997399755358 0 0.00029183519116176437 0.054394905484755132 0 0.00033146272330482985 0.054499242467225283 0 0.00042758790035311368 0.054474997399755358 0 0.00033146272330482985 0.054499242467225283 0 0.00040798158086286868 0.054563024347084876 0 0.00033146272330482985 0.054499242467225283 0 0.00040798158086286868 0.054563024347084876 0 0.00029135686694393211 0.05458530468400264 0 0.00040798158086286868 0.054563024347084876 0 0.00029135686694393211 0.05458530468400264 0 0.00036715270429600095 0.05467890146712668 0 0.00040798158086286868 0.054563024347084876 0 0.00036715270429600095 0.05467890146712668 0 0.00045847965235812474 0.054616750832782342 0 0.00014202914197700571 0.054581061950007094 0 0.00029135686694393211 0.05458530468400264 0 0.00020728095942477228 0.054777606766098885 0 0.00029135686694393211 0.05458530468400264 0 0.00020728095942477228 0.054777606766098885 0 0.00036715270429600095 0.05467890146712668 0 0.00020728095942477228 0.054777606766098885 0 0.00036715270429600095 0.05467890146712668 0 0.00039383562857498762 0.054776964914958662 0 0.00036715270429600095 0.05467890146712668 0 0.00048178250069031407 0.054698536915507946 0 0.00039383562857498762 0.054776964914958662 0 0.00048178250069031407 0.054698536915507946 0 0.00055010445086839041 0.054613893033901205 0 0.00045847965235812474 0.054616750832782342 0 0.00036715270429600095 0.05467890146712668 0 0.00048178250069031407 0.054698536915507946 0 0.00045847965235812474 0.054616750832782342 0 0.00048178250069031407 0.054698536915507946 0 0.00055010445086839041 0.054613893033901205 0 0.00060827029634517209 0.054668871798493932 0 0.00053965302566920663 0.054528171953541656 0 0.00055010445086839041 0.054613893033901205 0 0.00045847965235812474 0.054616750832782342 0 0.00053965302566920663 0.054528171953541656 0 0.00055010445086839041 0.054613893033901205 0 0.00064252106657718003 0.054557840994220119 0 0.00053965302566920663 0.054528171953541656 0 0.00040798158086286868 0.054563024347084876 0 0.00045847965235812474 0.054616750832782342 0 0.0025428132257638049 0.050859265079121939 0 0.0024149551715427027 0.050844173222219527 0 0.0044487922094005742 0.046662755121758048 0 0.0046231796238800551 0.04661684443176866 0 0.0043435206635524873 0.046594916264082631 0 0.0044487922094005742 0.046662755121758048 0 0.0043863323821637804 0.046652557067852603 0 0.0043435206635524873 0.046594916264082631 0 0.0044487922094005742 0.046662755121758048 0 0.0043863323821637804 0.046652557067852603 0 0.0043810357645071921 0.046746975272386096 0 0.0044487922094005742 0.046662755121758048 0 0.0046231796238800551 0.04661684443176866 0 0.0046751064648125592 0.046990440232603188 0 0.002584713885517992 0.050977874461377061 0 0.0025428132257638049 0.050859265079121939 0 0.00055010445086839041 0.054613893033901205 0 0.00064252106657718003 0.054557840994220119 0 0.00060827029634517209 0.054668871798493932 0 0.00064252106657718003 0.054557840994220119 0 0.00060827029634517209 0.054668871798493932 0 0.00068045294552362154 0.054596594823271297 0 0.00060827029634517209 0.054668871798493932 0 0.00068639771358701516 0.054639948011249405 0 0.00068045294552362154 0.054596594823271297 0 0.00064252106657718003 0.054557840994220119 0 0.00068045294552362154 0.054596594823271297 0 0.00075432764036092081 0.054575147878879814 0 0.00068639771358701516 0.054639948011249405 0 0.00068045294552362154 0.054596594823271297 0 0.00073175905673591806 0.054608338525214177 0 0.00068045294552362154 0.054596594823271297 0 0.00073175905673591806 0.054608338525214177 0 0.00075432764036092081 0.054575147878879814 0 0.00073175905673591806 0.054608338525214177 0 0.00075432764036092081 0.054575147878879814 0 0.00075323111763660514 0.054590531578565971 0 0.00068639771358701516 0.054639948011249405 0 0.00073175905673591806 0.054608338525214177 0 0.00073053712058878349 0.054641724849688857 0 0.00073053712058878349 0.054641724849688857 0 0.00075370698323930024 0.054623781768515518 0 0.00076190967737025208 0.054643913789096693 0 0.00073175905673591806 0.054608338525214177 0 0.00073053712058878349 0.054641724849688857 0 0.00075370698323930024 0.054623781768515518 0 0.0043664786372330398 0.046625411309639903 0 0.0043435206635524873 0.046594916264082631 0 0.0044027430864611071 0.046674980092378693 0 0.00075370698323930024 0.054623781768515518 0 0.00076258381465040264 0.054603946246031064 0 0.00078300825913857775 0.054621951436460876 0 0.00075370698323930024 0.054623781768515518 0 0.00078300825913857775 0.054621951436460876 0 0.00076190967737025208 0.054643913789096693 0 0.0024149551715427027 0.050844173222219527 0 0.0031763409741435238 0.048606766155084628 0 0.00079512585490778523 0.05458742792831222 0 0.00075432764036092081 0.054575147878879814 0 0.00091396269344486396 0.054578287272809813 0 0.00079512585490778523 0.05458742792831222 0 0.00081741121802199259 0.054591413638742765 0 0.00091396269344486396 0.054578287272809813 0 0.0024149551715427027 0.050844173222219527 0 0.002146604145978856 0.051714351431917126 0 0.0043435206635524873 0.046594916264082631 0 0.0044454892553285478 0.046766439387730181 0 0.0044027430864611071 0.046674980092378693 0 0.00073175905673591806 0.054608338525214177 0 0.00076258381465040264 0.054603946246031064 0 0.00075323111763660514 0.054590531578565971 0 0.00073175905673591806 0.054608338525214177 0 0.00075370698323930024 0.054623781768515518 0 0.00076258381465040264 0.054603946246031064 0 0.00076258381465040264 0.054603946246031064 0 0.00075323111763660514 0.054590531578565971 0 0.00077150119857592031 0.054591242006020439 0 0.00076258381465040264 0.054603946246031064 0 0.00078875336033465903 0.054601432503615488 0 0.00077150119857592031 0.054591242006020439 0 0.00076258381465040264 0.054603946246031064 0 0.00078875336033465903 0.054601432503615488 0 0.00078300825913857775 0.054621951436460876 0 0.00079512585490778523 0.05458742792831222 0 0.00078875336033465903 0.054601432503615488 0 0.00077150119857592031 0.054591242006020439 0 0.00078875336033465903 0.054601432503615488 0 0.00078300825913857775 0.054621951436460876 0 0.00080981574460710218 0.054606760841496342 0 0.00080981574460710218 0.054606760841496342 0 0.00084381736834597066 0.054596971971713031 0 0.0008173302458906735 0.054621381748601122 0 0.00078300825913857775 0.054621951436460876 0 0.00080981574460710218 0.054606760841496342 0 0.0008173302458906735 0.054621381748601122 0 0.00080981574460710218 0.054606760841496342 0 0.00084381736834597066 0.054596971971713031 0 0.00081741121802199259 0.054591413638742765 0 0.00084381736834597066 0.054596971971713031 0 0.00085285061829537144 0.054613757871892737 0 0.0008173302458906735 0.054621381748601122 0 0.00078875336033465903 0.054601432503615488 0 0.00080981574460710218 0.054606760841496342 0 0.00081741121802199259 0.054591413638742765 0 0.00079512585490778523 0.05458742792831222 0 0.00078875336033465903 0.054601432503615488 0 0.00081741121802199259 0.054591413638742765 0 0.0043807148771626116 0.046640791588597991 0 0.0043664786372330398 0.046625411309639903 0 0.0044027430864611071 0.046674980092378693 0 0.0043890388156954709 0.046648204241993098 0 0.0043807148771626116 0.046640791588597991 0 0.0044027430864611071 0.046674980092378693 0 0.0043890388156954709 0.046648204241993098 0 0.0043995421077452669 0.046641160654706873 0 0.0043801783122173442 0.046629898230092073 0 0.0043807148771626116 0.046640791588597991 0 0.0043671938296082208 0.046625868483206739 0 0.0043801783122173442 0.046629898230092073 0 0.0043890388156954709 0.046648204241993098 0 0.0043807148771626116 0.046640791588597991 0 0.0043801783122173442 0.046629898230092073 0 0.0043807148771626116 0.046640791588597991 0 0.0043664786372330398 0.046625411309639903 0 0.0043671938296082208 0.046625868483206739 0 0.0043664786372330398 0.046625411309639903 0 0.004358707847161785 0.046617386469014331 0 0.0043671938296082208 0.046625868483206739 0 0.0043664786372330398 0.046625411309639903 0 0.004358707847161785 0.046617386469014331 0 0.0043435206635524873 0.046594916264082631 0 0.004358707847161785 0.046617386469014331 0 0.0043435206635524873 0.046594916264082631 0 0.0043581683867351039 0.046619217748688262 0 0.00075432764036092081 0.054575147878879814 0 0.00075323111763660514 0.054590531578565971 0 0.00077150119857592031 0.054591242006020439 0 0.00079512585490778523 0.05458742792831222 0 0.00075432764036092081 0.054575147878879814 0 0.00077150119857592031 0.054591242006020439 0 0.00071633124570534145 0.054425355450004091 0 0.00091396269344486396 0.054578287272809813 0 0.0009375466890635041 0.054545022913156979 0 0.0044454892553285478 0.046766439387730181 0 0.0044868749627930086 0.046712474840630493 0 0.0045555445787346313 0.046721837209994115 0 0.00094023571660711597 0.054584156996496845 0 0.0009375466890635041 0.054545022913156979 0 0.00097641484640333467 0.054593928679929876 0 0.00094023571660711597 0.054584156996496845 0 0.00091396269344486396 0.054578287272809813 0 0.0009375466890635041 0.054545022913156979 0 0.0044454892553285478 0.046766439387730181 0 0.004433571296186027 0.046714698599116387 0 0.0044546100915979882 0.046709960971858679 0 0.0044454892553285478 0.046766439387730181 0 0.0044546100915979882 0.046709960971858679 0 0.0044868749627930086 0.046712474840630493 0 0.00084381736834597066 0.054596971971713031 0 0.00081741121802199259 0.054591413638742765 0 0.00091396269344486396 0.054578287272809813 0 0.00084381736834597066 0.054596971971713031 0 0.00091396269344486396 0.054578287272809813 0 0.00087473172413480801 0.054602214383442482 0 0.00084381736834597066 0.054596971971713031 0 0.00085285061829537144 0.054613757871892737 0 0.00087473172413480801 0.054602214383442482 0 0.0044454892553285478 0.046766439387730181 0 0.0044027430864611071 0.046674980092378693 0 0.004433571296186027 0.046714698599116387 0 0.0044027430864611071 0.046674980092378693 0 0.0043995421077452669 0.046641160654706873 0 0.004419500761668008 0.046654046137236505 0 0.0043890388156954709 0.046648204241993098 0 0.0044027430864611071 0.046674980092378693 0 0.0043995421077452669 0.046641160654706873 0 0.004419500761668008 0.046654046137236505 0 0.0044346625230558337 0.046678578003065262 0 0.00445138229140202 0.046633025201874331 0 0.0044027430864611071 0.046674980092378693 0 0.004419500761668008 0.046654046137236505 0 0.0044346625230558337 0.046678578003065262 0 0.0044027430864611071 0.046674980092378693 0 0.0044346625230558337 0.046678578003065262 0 0.004433571296186027 0.046714698599116387 0 0.0044346625230558337 0.046678578003065262 0 0.004433571296186027 0.046714698599116387 0 0.0044546100915979882 0.046709960971858679 0 0.0044546100915979882 0.046709960971858679 0 0.0044712397157013672 0.046677826773727983 0 0.0044868749627930086 0.046712474840630493 0 0.0044346625230558337 0.046678578003065262 0 0.0044546100915979882 0.046709960971858679 0 0.0044712397157013672 0.046677826773727983 0 0.0044346625230558337 0.046678578003065262 0 0.0044712397157013672 0.046677826773727983 0 0.00445138229140202 0.046633025201874331 0 0.0044712397157013672 0.046677826773727983 0 0.00445138229140202 0.046633025201874331 0 0.0045214847382100522 0.046610030684662004 0 0.0044712397157013672 0.046677826773727983 0 0.0045238580201261017 0.046674389025166262 0 0.0045214847382100522 0.046610030684662004 0 0.0045238580201261017 0.046674389025166262 0 0.0044868749627930086 0.046712474840630493 0 0.0045555445787346313 0.046721837209994115 0 0.0044712397157013672 0.046677826773727983 0 0.0045238580201261017 0.046674389025166262 0 0.0044868749627930086 0.046712474840630493 0 0.0045214847382100522 0.046610030684662004 0 0.0044718008461208632 0.046575964539840177 0 0.0045405092034352312 0.046488632428583844 0 0.0044718008461208632 0.046575964539840177 0 0.004452257745654946 0.046537708539856018 0 0.0045405092034352312 0.046488632428583844 0 0.00445138229140202 0.046633025201874331 0 0.0045214847382100522 0.046610030684662004 0 0.0044718008461208632 0.046575964539840177 0 0.00445138229140202 0.046633025201874331 0 0.0044718008461208632 0.046575964539840177 0 0.0044240713549643434 0.046610899520167427 0 0.0044718008461208632 0.046575964539840177 0 0.0044240713549643434 0.046610899520167427 0 0.004452257745654946 0.046537708539856018 0 0.0044240713549643434 0.046610899520167427 0 0.0044018073037425231 0.046588007800253975 0 0.004452257745654946 0.046537708539856018 0 0.0043995421077452669 0.046641160654706873 0 0.004419500761668008 0.046654046137236505 0 0.0044240713549643434 0.046610899520167427 0 0.004419500761668008 0.046654046137236505 0 0.00445138229140202 0.046633025201874331 0 0.0044240713549643434 0.046610899520167427 0 0.0043995421077452669 0.046641160654706873 0 0.0044240713549643434 0.046610899520167427 0 0.0043955416598618164 0.046618968524382104 0 0.0043995421077452669 0.046641160654706873 0 0.0043955416598618164 0.046618968524382104 0 0.0043801783122173442 0.046629898230092073 0 0.0043955416598618164 0.046618968524382104 0 0.0044018073037425231 0.046588007800253975 0 0.004375749795786114 0.046618775456326027 0 0.0044240713549643434 0.046610899520167427 0 0.0043955416598618164 0.046618968524382104 0 0.0044018073037425231 0.046588007800253975 0 0.0044018073037425231 0.046588007800253975 0 0.0043876541395245529 0.046603908164121188 0 0.0044263499919721151 0.046541691261795887 0 0.0044018073037425231 0.046588007800253975 0 0.004452257745654946 0.046537708539856018 0 0.0044263499919721151 0.046541691261795887 0 0.004452257745654946 0.046537708539856018 0 0.0044932164204920227 0.046458863240747675 0 0.0045405092034352312 0.046488632428583844 0 0.004452257745654946 0.046537708539856018 0 0.0044932164204920227 0.046458863240747675 0 0.0044263499919721151 0.046541691261795887 0 0.0043863323821637804 0.046652557067852603 0 0.0043435206635524873 0.046594916264082631 0 0.0043627351534762642 0.046628529342545327 0 0.0043633574593833525 0.046630529275273919 0 0.0043627351534762642 0.046628529342545327 0 0.0043613433840242076 0.046623931152767625 0 0.0043669995117789871 0.046642353453887717 0 0.0043633574593833525 0.046630529275273919 0 0.0043627351534762642 0.046628529342545327 0 0.0043863323821637804 0.046652557067852603 0 0.0043669995117789871 0.046642353453887717 0 0.0043627351534762642 0.046628529342545327 0 0.0043435206635524873 0.046594916264082631 0 0.0043627351534762642 0.046628529342545327 0 0.0043581683867351039 0.046619217748688262 0 0.0043627351534762642 0.046628529342545327 0 0.0043581683867351039 0.046619217748688262 0 0.0043613433840242076 0.046623931152767625 0 0.004358707847161785 0.046617386469014331 0 0.0043581683867351039 0.046619217748688262 0 0.0043613433840242076 0.046623931152767625 0 0.004358707847161785 0.046617386469014331 0 0.0043613433840242076 0.046623931152767625 0 0.0043671938296082208 0.046625868483206739 0 0.0043671938296082208 0.046625868483206739 0 0.0043675017050251782 0.046624585289637338 0 0.0043801783122173442 0.046629898230092073 0 0.0043613433840242076 0.046623931152767625 0 0.0043671938296082208 0.046625868483206739 0 0.0043675017050251782 0.046624585289637338 0 0.0043955416598618164 0.046618968524382104 0 0.0043801783122173442 0.046629898230092073 0 0.004375749795786114 0.046618775456326027 0 0.0043675017050251782 0.046624585289637338 0 0.0043801783122173442 0.046629898230092073 0 0.004375749795786114 0.046618775456326027 0 0.0043633574593833525 0.046630529275273919 0 0.0043675017050251782 0.046624585289637338 0 0.004375749795786114 0.046618775456326027 0 0.0043633574593833525 0.046630529275273919 0 0.004375749795786114 0.046618775456326027 0 0.0043710148720337624 0.046625131524423775 0 0.0043633574593833525 0.046630529275273919 0 0.0043613433840242076 0.046623931152767625 0 0.0043675017050251782 0.046624585289637338 0 0.0043633574593833525 0.046630529275273919 0 0.0043710148720337624 0.046625131524423775 0 0.004364214467934233 0.04666364641349216 0 0.0044018073037425231 0.046588007800253975 0 0.0043710148720337624 0.046625131524423775 0 0.0043876541395245529 0.046603908164121188 0 0.0044018073037425231 0.046588007800253975 0 0.004375749795786114 0.046618775456326027 0 0.0043710148720337624 0.046625131524423775 0 0.0043710148720337624 0.046625131524423775 0 0.0043876541395245529 0.046603908164121188 0 0.0043688080523617921 0.046652178366004549 0 0.0043710148720337624 0.046625131524423775 0 0.0043688080523617921 0.046652178366004549 0 0.004364214467934233 0.04666364641349216 0 0.0043688080523617921 0.046652178366004549 0 0.004364214467934233 0.04666364641349216 0 0.0043639535350922399 0.046714897103325909 0 0.0043863323821637804 0.046652557067852603 0 0.004364214467934233 0.04666364641349216 0 0.0043810357645071921 0.046746975272386096 0 0.0043669995117789871 0.046642353453887717 0 0.0043633574593833525 0.046630529275273919 0 0.004364214467934233 0.04666364641349216 0 0.0043863323821637804 0.046652557067852603 0 0.0043669995117789871 0.046642353453887717 0 0.004364214467934233 0.04666364641349216 0 0.0043639535350922399 0.046714897103325909 0 0.0043562475996502268 0.046867925854233716 0 0.0043810357645071921 0.046746975272386096 0 0.004364214467934233 0.04666364641349216 0 0.0043639535350922399 0.046714897103325909 0 0.0043810357645071921 0.046746975272386096 0 0.0043688080523617921 0.046652178366004549 0 0.0043639535350922399 0.046714897103325909 0 0.0043853460401362607 0.046639170926576691 0 0.0043876541395245529 0.046603908164121188 0 0.0043688080523617921 0.046652178366004549 0 0.0043853460401362607 0.046639170926576691 0 0.0043639535350922399 0.046714897103325909 0 0.0043853460401362607 0.046639170926576691 0 0.0043779949551919243 0.046743303599381017 0 0.0043853460401362607 0.046639170926576691 0 0.0043779949551919243 0.046743303599381017 0 0.0044281567900543214 0.046581540416889507 0 0.0043779949551919243 0.046743303599381017 0 0.0044281567900543214 0.046581540416889507 0 0.0044368243786634268 0.046707448625906714 0 0.0043639535350922399 0.046714897103325909 0 0.0043779949551919243 0.046743303599381017 0 0.0043562475996502268 0.046867925854233716 0 0.0043779949551919243 0.046743303599381017 0 0.0043562475996502268 0.046867925854233716 0 0.0043612195594214557 0.046922336433517599 0 0.0044932164204920227 0.046458863240747675 0 0.0044881211537123973 0.046444277209197513 0 0.0045992612487609609 0.046297224848662319 0 0.0044932164204920227 0.046458863240747675 0 0.0044881211537123973 0.046444277209197513 0 0.0044263499919721151 0.046541691261795887 0 0.0043853460401362607 0.046639170926576691 0 0.0044263499919721151 0.046541691261795887 0 0.0044281567900543214 0.046581540416889507 0 0.0044881211537123973 0.046444277209197513 0 0.0044263499919721151 0.046541691261795887 0 0.0044281567900543214 0.046581540416889507 0 0.0043876541395245529 0.046603908164121188 0 0.0043853460401362607 0.046639170926576691 0 0.0044263499919721151 0.046541691261795887 0 0.0044881211537123973 0.046444277209197513 0 0.0044281567900543214 0.046581540416889507 0 0.0045009555226508723 0.046471062797340486 0 0.0044281567900543214 0.046581540416889507 0 0.0045009555226508723 0.046471062797340486 0 0.0044368243786634268 0.046707448625906714 0 0.0044881211537123973 0.046444277209197513 0 0.0045009555226508723 0.046471062797340486 0 0.0046135683814140663 0.046207261521032481 0 0.0045550277565139909 0.046481268479083869 0 0.0046792503672131482 0.04631188344949947 0 0.0046135683814140663 0.046207261521032481 0 0.0045009555226508723 0.046471062797340486 0 0.0045550277565139909 0.046481268479083869 0 0.0046135683814140663 0.046207261521032481 0 0.0045550277565139909 0.046481268479083869 0 0.004519537114533673 0.046710156198644763 0 0.0044368243786634268 0.046707448625906714 0 0.0045009555226508723 0.046471062797340486 0 0.0045550277565139909 0.046481268479083869 0 0.0044368243786634268 0.046707448625906714 0 0.0045550277565139909 0.046481268479083869 0 0.004519537114533673 0.046710156198644763 0 0.0046792503672131482 0.04631188344949947 0 0.0043612195594214557 0.046922336433517599 0 0.0044368243786634268 0.046707448625906714 0 0.0043836199350252587 0.047009154435445698 0 0.0043612195594214557 0.046922336433517599 0 0.0043836199350252587 0.047009154435445698 0 0.0043046795873251725 0.047162738469134824 0 0.0043779949551919243 0.046743303599381017 0 0.0043612195594214557 0.046922336433517599 0 0.0044368243786634268 0.046707448625906714 0 0.004519537114533673 0.046710156198644763 0 0.0043836199350252587 0.047009154435445698 0 0.004429619590224078 0.047049313816932295 0 0.004519537114533673 0.046710156198644763 0 0.0044368243786634268 0.046707448625906714 0 0.0043836199350252587 0.047009154435445698 0 0.0043836199350252587 0.047009154435445698 0 0.0043268662364932533 0.047333749914749021 0 0.0043046795873251725 0.047162738469134824 0 0.0043268662364932533 0.047333749914749021 0 0.0042071242136057065 0.047814125476541056 0 0.0043046795873251725 0.047162738469134824 0 0.0043046795873251725 0.047162738469134824 0 0.0044261995086172321 0.046924715179800895 0 0.0044941345062727185 0.047251634901483014 0 0.0042071242136057065 0.047814125476541056 0 0.0043046795873251725 0.047162738469134824 0 0.0044941345062727185 0.047251634901483014 0 0.0043562475996502268 0.046867925854233716 0 0.0043612195594214557 0.046922336433517599 0 0.0043046795873251725 0.047162738469134824 0 0.0044487922094005742 0.046662755121758048 0 0.0044261995086172321 0.046924715179800895 0 0.0046751064648125592 0.046990440232603188 0 0.0043562475996502268 0.046867925854233716 0 0.0043046795873251725 0.047162738469134824 0 0.0044261995086172321 0.046924715179800895 0 0.0044487922094005742 0.046662755121758048 0 0.0044261995086172321 0.046924715179800895 0 0.0043810357645071921 0.046746975272386096 0 0.0043562475996502268 0.046867925854233716 0 0.0044261995086172321 0.046924715179800895 0 0.0043810357645071921 0.046746975272386096 0 0.0051350333037447921 0.046821469057240647 0 0.0046231796238800551 0.04661684443176866 0 0.0046751064648125592 0.046990440232603188 0 0.0044261995086172321 0.046924715179800895 0 0.0046751064648125592 0.046990440232603188 0 0.0044941345062727185 0.047251634901483014 0 0.0050658815842607799 0.047484649215390987 0 0.0046751064648125592 0.046990440232603188 0 0.0044941345062727185 0.047251634901483014 0 0.0050658815842607799 0.047484649215390987 0 0.0042071242136057065 0.047814125476541056 0 0.0044941345062727185 0.047251634901483014 0 0.0028273960552312534 0.049385786600061009 0 0.0031695432525720435 0.049124053376724347 0 0.0015070625027559289 0.050109725077468234 0 0.0042071242136057065 0.047814125476541056 0 0.0031116860770084402 0.048009968507395959 0 0.0015567942337534185 0.047985044319567981 0 0.0015070625027559289 0.050109725077468234 0 0.0031116860770084402 0.048009968507395959 0 0.0031116860770084402 0.048009968507395959 0 0.0042524658035297536 0.047304480599948351 0 0.0030992553731276581 0.047076523230100274 0 0.0015567942337534185 0.047985044319567981 0 0.0031116860770084402 0.048009968507395959 0 0.0030992553731276581 0.047076523230100274 0 0.0043268662364932533 0.047333749914749021 0 0.0042524658035297536 0.047304480599948351 0 0.004429619590224078 0.047049313816932295 0 0.0043268662364932533 0.047333749914749021 0 0.0042071242136057065 0.047814125476541056 0 0.0042524658035297536 0.047304480599948351 0 0.0042071242136057065 0.047814125476541056 0 0.0031116860770084402 0.048009968507395959 0 0.0042524658035297536 0.047304480599948351 0 0.0025494047485008454 0.048734591435003402 0 0.0021584307495415341 0.048813473842235257 0 0.0042524658035297536 0.047304480599948351 0 0.0043810404393257929 0.04696560479311826 0 0.004205482683293002 0.046822471028480007 0 0.0042524658035297536 0.047304480599948351 0 0.0043810404393257929 0.04696560479311826 0 0.004429619590224078 0.047049313816932295 0 0.0043810404393257929 0.04696560479311826 0 0.004205482683293002 0.046822471028480007 0 0.0044104217513016315 0.046774571955154019 0 0.0042524658035297536 0.047304480599948351 0 0.004205482683293002 0.046822471028480007 0 0.0038859149058804105 0.04687561975899527 0 0.004205482683293002 0.046822471028480007 0 0.0038859149058804105 0.04687561975899527 0 0.0040693062593032793 0.04662322364021243 0 0.004205482683293002 0.046822471028480007 0 0.0040693062593032793 0.04662322364021243 0 0.0043550333561363421 0.046628731125849643 0 0.004205482683293002 0.046822471028480007 0 0.0043550333561363421 0.046628731125849643 0 0.0044104217513016315 0.046774571955154019 0 0.0036510069197939025 0.046651683219328263 0 0.0038859149058804105 0.04687561975899527 0 0.0040693062593032793 0.04662322364021243 0 0.0014517964867089769 0.045871812428382619 0 0.0015567942337534185 0.047985044319567981 0 0.0030992553731276581 0.047076523230100274 0 0.0014058447550133375 0.049463621844796087 0 0.0021584307495415341 0.048813473842235257 0 0.0036510069197939025 0.046651683219328263 0 0.0040693062593032793 0.04662322364021243 0 0.0040885332571988699 0.046364576331577388 0 0.0014058447550133375 0.049463621844796087 0 0.0030052187956237245 0.047782071272989231 0 0.0021191847829601512 0.048952706132847669 0 0.0019092640112222826 0.048807556343058521 0 0.0017188258267943886 0.04904918797346506 0 0.0040693062593032793 0.04662322364021243 0 0.0042221287964335722 0.046478739858671653 0 0.0040885332571988699 0.046364576331577388 0 0.0040693062593032793 0.04662322364021243 0 0.0042221287964335722 0.046478739858671653 0 0.0043550333561363421 0.046628731125849643 0 0.0035823952114967575 0.047152114957345469 0 0.0030052187956237245 0.047782071272989231 0 0.0042221287964335722 0.046478739858671653 0 0.0040885332571988699 0.046364576331577388 0 0.0042923149649951656 0.046394698425323518 0 0.002370746126188923 0.045946993008500359 0 0.0019092640112222826 0.048807556343058521 0 0.0017188258267943886 0.04904918797346506 0 0.0015793816957580802 0.048904295221143902 0 0.001592434863872348 0.048901167689576371 0 0.0014522609385966901 0.050813622103382174 0 0.00078850825643223107 0.051611042453487382 0 0.0017188258267943886 0.04904918797346506 0 0.0014522609385966901 0.050813622103382174 0 0.0019846256723895879 0.049920552588785007 0 0.0017188258267943886 0.04904918797346506 0 0.0014522609385966901 0.050813622103382174 0 0.0023779020456169988 0.050284030282983151 0 0.0019846256723895879 0.049920552588785007 0 0.0024278027069914269 0.049554624389611661 0 0.0019846256723895879 0.049920552588785007 0 0.0017188258267943886 0.04904918797346506 0 0.0051047905844168297 0.046032431171248125 0 0.0046183296495401847 0.04628985441455024 0 0.0048765004403443571 0.046542148965993943 0 0.0046183296495401847 0.04628985441455024 0 0.0042923149649951656 0.046394698425323518 0 0.0046487137678285677 0.046482305363606979 0 0.0046183296495401847 0.04628985441455024 0 0.0046487137678285677 0.046482305363606979 0 0.0048765004403443571 0.046542148965993943 0 0.0040928396580223137 0.04616036257463664 0 0.0046183296495401847 0.04628985441455024 0 0.0042923149649951656 0.046394698425323518 0 0.0040928396580223137 0.04616036257463664 0 0.0040885332571988699 0.046364576331577388 0 0.0042923149649951656 0.046394698425323518 0 0.0042923149649951656 0.046394698425323518 0 0.0043493226462628385 0.046508942601574184 0 0.0045295860105843471 0.046546142282008492 0 0.0042923149649951656 0.046394698425323518 0 0.0045295860105843471 0.046546142282008492 0 0.0046487137678285677 0.046482305363606979 0 0.0042221287964335722 0.046478739858671653 0 0.0042923149649951656 0.046394698425323518 0 0.0043493226462628385 0.046508942601574184 0 0.0042221287964335722 0.046478739858671653 0 0.0043493226462628385 0.046508942601574184 0 0.0043550333561363421 0.046628731125849643 0 0.0043493226462628385 0.046508942601574184 0 0.0043550333561363421 0.046628731125849643 0 0.0045295860105843471 0.046546142282008492 0 0.0043550333561363421 0.046628731125849643 0 0.0045295860105843471 0.046546142282008492 0 0.0045397057994149871 0.046660614668177343 0 0.0045295860105843471 0.046546142282008492 0 0.0046487137678285677 0.046482305363606979 0 0.0047521516826217088 0.046588899324463931 0 0.0045295860105843471 0.046546142282008492 0 0.0047521516826217088 0.046588899324463931 0 0.0045397057994149871 0.046660614668177343 0 0.0046487137678285677 0.046482305363606979 0 0.0047521516826217088 0.046588899324463931 0 0.0048765004403443571 0.046542148965993943 0 0.0047521516826217088 0.046588899324463931 0 0.0046434596267870042 0.046641287986855955 0 0.0047483064666275568 0.046400092775511673 0 0.0047521516826217088 0.046588899324463931 0 0.0046434596267870042 0.046641287986855955 0 0.0045397057994149871 0.046660614668177343 0 0.0043550333561363421 0.046628731125849643 0 0.0045397057994149871 0.046660614668177343 0 0.0044104217513016315 0.046774571955154019 0 0.0046434596267870042 0.046641287986855955 0 0.0045397057994149871 0.046660614668177343 0 0.0045100345018290137 0.046807627750077373 0 0.0043810404393257929 0.04696560479311826 0 0.0045100345018290137 0.046807627750077373 0 0.0044104217513016315 0.046774571955154019 0 0.0045397057994149871 0.046660614668177343 0 0.0045100345018290137 0.046807627750077373 0 0.0044104217513016315 0.046774571955154019 0 0.0043810404393257929 0.04696560479311826 0 0.0045100345018290137 0.046807627750077373 0 0.004429619590224078 0.047049313816932295 0 0.0045100345018290137 0.046807627750077373 0 0.004429619590224078 0.047049313816932295 0 0.0046054653389698838 0.046668548625788495 0 0.0046434596267870042 0.046641287986855955 0 0.0045100345018290137 0.046807627750077373 0 0.0046054653389698838 0.046668548625788495 0 0.004519537114533673 0.046710156198644763 0 0.004429619590224078 0.047049313816932295 0 0.0046054653389698838 0.046668548625788495 0 0.0043836199350252587 0.047009154435445698 0 0.0043268662364932533 0.047333749914749021 0 0.004429619590224078 0.047049313816932295 0 0.0046054653389698838 0.046668548625788495 0 0.0047483064666275568 0.046400092775511673 0 0.0046792503672131482 0.04631188344949947 0 0.0046434596267870042 0.046641287986855955 0 0.0046054653389698838 0.046668548625788495 0 0.0047483064666275568 0.046400092775511673 0 0.004519537114533673 0.046710156198644763 0 0.0046054653389698838 0.046668548625788495 0 0.0046792503672131482 0.04631188344949947 0 0.0047786070922582573 0.046129490603374936 0 0.0047483064666275568 0.046400092775511673 0 0.0046792503672131482 0.04631188344949947 0 0.0047786070922582573 0.046129490603374936 0 0.004613598282992867 0.046169070750877207 0 0.0047483064666275568 0.046400092775511673 0 0.0047786070922582573 0.046129490603374936 0 0.004613598282992867 0.046169070750877207 0 0.0048652003875530765 0.0456829452666105 0 0.004613598282992867 0.046169070750877207 0 0.0047483064666275568 0.046400092775511673 0 0.0046176008225180514 0.046535603955183476 0 0.0062198071230566499 0.043409208503794552 0 0.0069229323750088527 0.044691111065680834 0 0.0060923502263456114 0.044221487723756198 0 0.0047299701314171194 0.045011905706229836 0 0.0036561547805028997 0.043453482942795933 0 0.0047521516826217088 0.046588899324463931 0 0.0047483064666275568 0.046400092775511673 0 0.0046176008225180514 0.046535603955183476 0 0.0047521516826217088 0.046588899324463931 0 0.0048765004403443571 0.046542148965993943 0 0.005019064027542105 0.04657906866274425 0 0.00403086295862013 0.044181827599675691 0 0.0036561547805028997 0.043453482942795933 0 0.0036561547805028997 0.043453482942795933 0 0.0034188805649904459 0.042358010452316928 0 0.0019439552638207656 0.040140437437946624 0 0.0018457368474473505 0.040311282769317329 0 0.0020132159131962864 0.040411070811728497 0 0.0048765004403443571 0.046542148965993943 0 0.005019064027542105 0.04657906866274425 0 0.0049749174868187465 0.046397915083639066 0 0.0032598661898721897 0.043598645108473513 0 0.0034188805649904459 0.042358010452316928 0 0.0051047905844168297 0.046032431171248125 0 0.0048765004403443571 0.046542148965993943 0 0.0056375716637784897 0.046122453985538533 0 0.0016716413815599884 0.040408440857320281 0 0.0016785262505836908 0.040209956101991191 0 0.0014252763027352052 0.040272792832478047 0 0.0031913555078434091 0.041777530572609752 0 0.0020038176813881492 0.039997215693701835 0 0.0018457368474473505 0.040311282769317329 0 0.0016716413815599884 0.040408440857320281 0 0.0016785262505836908 0.040209956101991191 0 0.0069229323750088527 0.044691111065680834 0 0.0059396944838444694 0.045168910669793859 0 0.0060923502263456114 0.044221487723756198 0 0.0019439552638207656 0.040140437437946624 0 0.0018457368474473505 0.040311282769317329 0 0.0016785262505836908 0.040209956101991191 0 0.0036561547805028997 0.043453482942795933 0 0.0031913555078434091 0.041777530572609752 0 0.0059396944838444694 0.045168910669793859 0 0.0052445124438516696 0.044641654829969631 0 0.004871115974749908 0.045688453617431277 0 0.0059396944838444694 0.045168910669793859 0 0.0052445124438516696 0.044641654829969631 0 0.0060923502263456114 0.044221487723756198 0 0.0052445124438516696 0.044641654829969631 0 0.0060923502263456114 0.044221487723756198 0 0.0059702704509008797 0.043564577583447436 0 0.0052445124438516696 0.044641654829969631 0 0.0059702704509008797 0.043564577583447436 0 0.004688629710872136 0.043251756977908354 0 0.0062198071230566499 0.043409208503794552 0 0.0060923502263456114 0.044221487723756198 0 0.0059702704509008797 0.043564577583447436 0 0.0062198071230566499 0.043409208503794552 0 0.0059702704509008797 0.043564577583447436 0 0.006654780563822682 0.042711900376474841 0 0.0059702704509008797 0.043564577583447436 0 0.006654780563822682 0.042711900376474841 0 0.004688629710872136 0.043251756977908354 0 0.006654780563822682 0.042711900376474841 0 0.0052215922772738486 0.039326975016279957 0 0.0047482228934362441 0.041670517733995417 0 0.006654780563822682 0.042711900376474841 0 0.0068890319129332276 0.038389701284506306 0 0.0093604697652545504 0.03734060148373837 0 0.0059551648337458048 0.041567387547978341 0 0.005842946323252861 0.041094110013851125 0 0.006654780563822682 0.042711900376474841 0 0.0068890319129332276 0.038389701284506306 0 0.0052215922772738486 0.039326975016279957 0 0.0068890319129332276 0.038389701284506306 0 0.0093604697652545504 0.03734060148373837 0 0.0076212544347003955 0.036230310689356122 0 0.0068890319129332276 0.038389701284506306 0 0.0058697689801017194 0.036652595309232393 0 0.0052215922772738486 0.039326975016279957 0 0.0068890319129332276 0.038389701284506306 0 0.0058697689801017194 0.036652595309232393 0 0.0076212544347003955 0.036230310689356122 0 0.006654780563822682 0.042711900376474841 0 0.0061553369533851477 0.045758452914261172 0 0.005326480013379457 0.044673316915646327 0 0.0061553369533851477 0.045758452914261172 0 0.005326480013379457 0.044673316915646327 0 0.0052069537000732748 0.045869516845360822 0 0.0047299701314171194 0.045011905706229836 0 0.0049565070785731859 0.045216081300190843 0 0.0062198071230566499 0.043409208503794552 0 0.006654780563822682 0.042711900376474841 0 0.005326480013379457 0.044673316915646327 0 0.005326480013379457 0.044673316915646327 0 0.0048652003875530765 0.0456829452666105 0 0.0049511129501953023 0.045574255476851976 0 0.004613598282992867 0.046169070750877207 0 0.005326480013379457 0.044673316915646327 0 0.0048652003875530765 0.0456829452666105 0 0.0048652003875530765 0.0456829452666105 0 0.0046792503672131482 0.04631188344949947 0 0.0046135683814140663 0.046207261521032481 0 0.0047786070922582573 0.046129490603374936 0 0.0048652003875530765 0.0456829452666105 0 0.0046792503672131482 0.04631188344949947 0 0.0046135683814140663 0.046207261521032481 0 0.0047695929426915685 0.045936468371594104 0 0.0045992612487609609 0.046297224848662319 0 0.0048652003875530765 0.0456829452666105 0 0.0046135683814140663 0.046207261521032481 0 0.0047695929426915685 0.045936468371594104 0 0.0047695929426915685 0.045936468371594104 0 0.004737767158394351 0.046200130120952337 0 0.0045992612487609609 0.046297224848662319 0 0.0044881211537123973 0.046444277209197513 0 0.0046135683814140663 0.046207261521032481 0 0.0045992612487609609 0.046297224848662319 0 0.005326480013379457 0.044673316915646327 0 0.0049511129501953023 0.045574255476851976 0 0.0052069537000732748 0.045869516845360822 0 0.0048652003875530765 0.0456829452666105 0 0.0047695929426915685 0.045936468371594104 0 0.0049511129501953023 0.045574255476851976 0 0.0047695929426915685 0.045936468371594104 0 0.0049511129501953023 0.045574255476851976 0 0.0048742387840981036 0.04615433670588226 0 0.0047695929426915685 0.045936468371594104 0 0.004737767158394351 0.046200130120952337 0 0.0048742387840981036 0.04615433670588226 0 0.0049511129501953023 0.045574255476851976 0 0.0052069537000732748 0.045869516845360822 0 0.0048742387840981036 0.04615433670588226 0 0.0052069537000732748 0.045869516845360822 0 0.0050500515206147031 0.046328919475100767 0 0.0048742387840981036 0.04615433670588226 0 0.0052069537000732748 0.045869516845360822 0 0.0050500515206147031 0.046328919475100767 0 0.0053344388558417589 0.046436231240270569 0 0.0048742387840981036 0.04615433670588226 0 0.0048726585522587511 0.046447379036977487 0 0.0046978131599586959 0.04638929112480307 0 0.0050500515206147031 0.046328919475100767 0 0.0048742387840981036 0.04615433670588226 0 0.0048726585522587511 0.046447379036977487 0 0.0050500515206147031 0.046328919475100767 0 0.0048726585522587511 0.046447379036977487 0 0.0050369885789448062 0.046549734509507647 0 0.0048726585522587511 0.046447379036977487 0 0.0047450238517129572 0.046574804079941003 0 0.0048853719520507675 0.046633311327097277 0 0.0048726585522587511 0.046447379036977487 0 0.0050369885789448062 0.046549734509507647 0 0.0048853719520507675 0.046633311327097277 0 0.0050500515206147031 0.046328919475100767 0 0.0050369885789448062 0.046549734509507647 0 0.0053344388558417589 0.046436231240270569 0 0.0050369885789448062 0.046549734509507647 0 0.0051707889369337857 0.046653255528086676 0 0.0053344388558417589 0.046436231240270569 0 0.0044932164204920227 0.046458863240747675 0 0.0045992612487609609 0.046297224848662319 0 0.0045405092034352312 0.046488632428583844 0 0.0045992612487609609 0.046297224848662319 0 0.0045405092034352312 0.046488632428583844 0 0.0046978131599586959 0.04638929112480307 0 0.004737767158394351 0.046200130120952337 0 0.0048742387840981036 0.04615433670588226 0 0.0046978131599586959 0.04638929112480307 0 0.004737767158394351 0.046200130120952337 0 0.0045992612487609609 0.046297224848662319 0 0.0046978131599586959 0.04638929112480307 0 0.0046978131599586959 0.04638929112480307 0 0.0047450238517129572 0.046574804079941003 0 0.0046212938002570944 0.046566910155286967 0 0.0048726585522587511 0.046447379036977487 0 0.0046978131599586959 0.04638929112480307 0 0.0047450238517129572 0.046574804079941003 0 0.0045405092034352312 0.046488632428583844 0 0.0046978131599586959 0.04638929112480307 0 0.0046212938002570944 0.046566910155286967 0 0.0045214847382100522 0.046610030684662004 0 0.0045405092034352312 0.046488632428583844 0 0.0046212938002570944 0.046566910155286967 0 0.0031763409741435238 0.048606766155084628 0 0.0037361625297251812 0.044923849017840051 0 0.0044454892553285478 0.046766439387730181 0 0.0047710281756753051 0.046843889663891337 0 0.0046515162504798587 0.046773032510972652 0 0.0009375466890635041 0.054545022913156979 0 0.0011304484734936046 0.054580852095269965 0 0.00097641484640333467 0.054593928679929876 0 0.0044454892553285478 0.046766439387730181 0 0.0047710281756753051 0.046843889663891337 0 0.0049645123830263553 0.047013474337817052 0 0.0045555445787346313 0.046721837209994115 0 0.004586240246314318 0.046658241950059375 0 0.0046362934972712256 0.046715427237305485 0 0.0045238580201261017 0.046674389025166262 0 0.0045555445787346313 0.046721837209994115 0 0.004586240246314318 0.046658241950059375 0 0.0045238580201261017 0.046674389025166262 0 0.0045214847382100522 0.046610030684662004 0 0.004586240246314318 0.046658241950059375 0 0.0045214847382100522 0.046610030684662004 0 0.0046212938002570944 0.046566910155286967 0 0.004586240246314318 0.046658241950059375 0 0.0046212938002570944 0.046566910155286967 0 0.004586240246314318 0.046658241950059375 0 0.0046787310909229838 0.046666171239350671 0 0.0045555445787346313 0.046721837209994115 0 0.0046362934972712256 0.046715427237305485 0 0.0046515162504798587 0.046773032510972652 0 0.004586240246314318 0.046658241950059375 0 0.0046362934972712256 0.046715427237305485 0 0.0046787310909229838 0.046666171239350671 0 0.0046362934972712256 0.046715427237305485 0 0.004695285619192008 0.046733376955955204 0 0.0046515162504798587 0.046773032510972652 0 0.004695285619192008 0.046733376955955204 0 0.0046787310909229838 0.046666171239350671 0 0.0047718653173007683 0.046729711445377992 0 0.004695285619192008 0.046733376955955204 0 0.0047718653173007683 0.046729711445377992 0 0.0047423925112757255 0.046781486369988655 0 0.0046362934972712256 0.046715427237305485 0 0.004695285619192008 0.046733376955955204 0 0.0046787310909229838 0.046666171239350671 0 0.0047450238517129572 0.046574804079941003 0 0.0046212938002570944 0.046566910155286967 0 0.0046787310909229838 0.046666171239350671 0 0.0047450238517129572 0.046574804079941003 0 0.0046787310909229838 0.046666171239350671 0 0.0047718653173007683 0.046729711445377992 0 0.0047450238517129572 0.046574804079941003 0 0.0047718653173007683 0.046729711445377992 0 0.0048853719520507675 0.046633311327097277 0 0.0048090564266259437 0.046798246408589393 0 0.0047710281756753051 0.046843889663891337 0 0.004862165869215845 0.046833846328846976 0 0.0047718653173007683 0.046729711445377992 0 0.0048090564266259437 0.046798246408589393 0 0.0048975553180412579 0.046774995095534407 0 0.0047718653173007683 0.046729711445377992 0 0.0048090564266259437 0.046798246408589393 0 0.0047423925112757255 0.046781486369988655 0 0.0048090564266259437 0.046798246408589393 0 0.0047710281756753051 0.046843889663891337 0 0.0047423925112757255 0.046781486369988655 0 0.0047710281756753051 0.046843889663891337 0 0.0047423925112757255 0.046781486369988655 0 0.0046515162504798587 0.046773032510972652 0 0.004695285619192008 0.046733376955955204 0 0.0047423925112757255 0.046781486369988655 0 0.0046515162504798587 0.046773032510972652 0 0.0044454892553285478 0.046766439387730181 0 0.0045555445787346313 0.046721837209994115 0 0.0046515162504798587 0.046773032510972652 0 0.0051427846939388691 0.046799086632494873 0 0.0053537119682601922 0.04663332763132616 0 0.0051392720055107206 0.047063910866722986 0 0.0051707889369337857 0.046653255528086676 0 0.0051427846939388691 0.046799086632494873 0 0.0053537119682601922 0.04663332763132616 0 0.0050118177996807843 0.046709067034258596 0 0.0049987385605773406 0.046818165265900963 0 0.0051427846939388691 0.046799086632494873 0 0.0051707889369337857 0.046653255528086676 0 0.0050118177996807843 0.046709067034258596 0 0.0051427846939388691 0.046799086632494873 0 0.0050369885789448062 0.046549734509507647 0 0.0051707889369337857 0.046653255528086676 0 0.0050118177996807843 0.046709067034258596 0 0.0050369885789448062 0.046549734509507647 0 0.0048853719520507675 0.046633311327097277 0 0.0050118177996807843 0.046709067034258596 0 0.0047718653173007683 0.046729711445377992 0 0.0048853719520507675 0.046633311327097277 0 0.0048975553180412579 0.046774995095534407 0 0.0048853719520507675 0.046633311327097277 0 0.0050118177996807843 0.046709067034258596 0 0.0048975553180412579 0.046774995095534407 0 0.0050118177996807843 0.046709067034258596 0 0.0049987385605773406 0.046818165265900963 0 0.0048975553180412579 0.046774995095534407 0 0.0049987385605773406 0.046818165265900963 0 0.0049284320030575516 0.046840893096967921 0 0.0048975553180412579 0.046774995095534407 0 0.0047710281756753051 0.046843889663891337 0 0.0049122520454769007 0.046903326959701883 0 0.0049645123830263553 0.047013474337817052 0 0.0049987385605773406 0.046818165265900963 0 0.0049284320030575516 0.046840893096967921 0 0.0049793878734624899 0.046890965918188719 0 0.0048090564266259437 0.046798246408589393 0 0.0048975553180412579 0.046774995095534407 0 0.004862165869215845 0.046833846328846976 0 0.0049284320030575516 0.046840893096967921 0 0.0048975553180412579 0.046774995095534407 0 0.004862165869215845 0.046833846328846976 0 0.0047710281756753051 0.046843889663891337 0 0.004862165869215845 0.046833846328846976 0 0.0049122520454769007 0.046903326959701883 0 0.0049284320030575516 0.046840893096967921 0 0.004862165869215845 0.046833846328846976 0 0.0049122520454769007 0.046903326959701883 0 0.0049987385605773406 0.046818165265900963 0 0.0049793878734624899 0.046890965918188719 0 0.0050443207330191425 0.046915421964913412 0 0.0049122520454769007 0.046903326959701883 0 0.0049793878734624899 0.046890965918188719 0 0.0049645123830263553 0.047013474337817052 0 0.0049793878734624899 0.046890965918188719 0 0.0050443207330191425 0.046915421964913412 0 0.0049645123830263553 0.047013474337817052 0 0.0049284320030575516 0.046840893096967921 0 0.0049122520454769007 0.046903326959701883 0 0.0049793878734624899 0.046890965918188719 0 0.0050443207330191425 0.046915421964913412 0 0.0051427846939388691 0.046799086632494873 0 0.0051392720055107206 0.047063910866722986 0 0.0049987385605773406 0.046818165265900963 0 0.0050443207330191425 0.046915421964913412 0 0.0051427846939388691 0.046799086632494873 0 0.0048326678250036961 0.040729340457169583 0 0.0034114838278744 0.042390441883985573 0 0.010404803777008862 0.033393853344713897 0 0.0082384088565751849 0.031718663220677255 0 0.0086977364632841309 0.034632433784861777 0 0.0048326678250036961 0.040729340457169583 0 0.0036768913958631203 0.038323883290675369 0 0.010404803777008862 0.033393853344713897 0 0.0082384088565751849 0.031718663220677255 0 0.0080650094668344354 0.029055367662779306 0 0.0086977364632841309 0.034632433784861777 0 0.0072304221607651939 0.029101138525576362 0 0.0060593133915967066 0.030983112772961945 0 0.0082384088565751849 0.031718663220677255 0 0.0086977364632841309 0.034632433784861777 0 0.0057583861436625835 0.029721080196934906 0 0.0086977364632841309 0.034632433784861777 0 0.0060593133915967066 0.030983112772961945 0 0.0058516407441098267 0.032865709243146857 0 0.0070274848630984856 0.03168048776364997 0 0.005938911906573135 0.029167177109778727 0 0.0086977364632841309 0.034632433784861777 0 0.0065585245523186982 0.03493652845059083 0 0.0058516407441098267 0.032865709243146857 0 0.0058697689801017194 0.036652595309232393 0 0.0065585245523186982 0.03493652845059083 0 0.0076212544347003955 0.036230310689356122 0 0.0093604697652545504 0.03734060148373837 0 0.0086977364632841309 0.034632433784861777 0 0.0076212544347003955 0.036230310689356122 0 0.0086977364632841309 0.034632433784861777 0 0.0065585245523186982 0.03493652845059083 0 0.0076212544347003955 0.036230310689356122 0 0.005842946323252861 0.041094110013851125 0 0.0048326678250036961 0.040729340457169583 0 0.0093604697652545504 0.03734060148373837 0 0.010404803777008862 0.033393853344713897 0 0.0086977364632841309 0.034632433784861777 0 0.0061553369533851477 0.045758452914261172 0 0.0055349840703938554 0.046971925279214767 0 0.0053344388558417589 0.046436231240270569 0 0.0061553369533851477 0.045758452914261172 0 0.0052069537000732748 0.045869516845360822 0 0.0053344388558417589 0.046436231240270569 0 0.0051707889369337857 0.046653255528086676 0 0.0053537119682601922 0.04663332763132616 0 0.0053344388558417589 0.046436231240270569 0 0.0048326678250036961 0.040729340457169583 0 0.0050561052767140987 0.041461878304910153 0 0.0018883763182163714 0.04033985724750206 0 0.0018717181187562961 0.040385463399615157 0 0.0018337634393168702 0.040303249685221948 0 0.0018883763182163714 0.04033985724750206 0 0.0018684154079586757 0.040302491500032366 0 0.0018337634393168702 0.040303249685221948 0 0.0018883763182163714 0.04033985724750206 0 0.0018717181187562961 0.040385463399615157 0 0.001896205097093447 0.040369505130259789 0 0.0018883763182163714 0.04033985724750206 0 0.001896205097093447 0.040369505130259789 0 0.0019149275762563079 0.04035994556076334 0 0.0018883763182163714 0.04033985724750206 0 0.0019168949647628171 0.040332919787620172 0 0.0019039339072316874 0.040308420407509732 0 0.0018883763182163714 0.04033985724750206 0 0.0018684154079586757 0.040302491500032366 0 0.0019039339072316874 0.040308420407509732 0 0.0018883763182163714 0.04033985724750206 0 0.0019149275762563079 0.04035994556076334 0 0.0019168949647628171 0.040332919787620172 0 0.0055345836776427015 0.028750990532961183 0 0.0057583861436625835 0.029721080196934906 0 0.003356053533079066 0.025786320637045623 0 0.0036768913958631203 0.038323883290675369 0 0.0019561673863361492 0.034672735579411543 0 0.0055345836776427015 0.028750990532961183 0 0.0052650386313410971 0.025953213570569698 0 0.003356053533079066 0.025786320637045623 0 0.0055345836776427015 0.028750990532961183 0 0.0071213531857022665 0.029214930509684937 0 0.0052650386313410971 0.025953213570569698 0 0.005938911906573135 0.029167177109778727 0 0.0040663501220781963 0.025342951595133296 0 0.0055345836776427015 0.028750990532961183 0 0.0057583861436625835 0.029721080196934906 0 0.0080650094668344354 0.029055367662779306 0 0.0038238694957596661 0.037839440640824999 0 0.0036768913958631203 0.038323883290675369 0 0.0072304221607651939 0.029101138525576362 0 0.0060593133915967066 0.030983112772961945 0 0.0053107357265355154 0.029145837343569309 0 0.0082384088565751849 0.031718663220677255 0 0.0057583861436625835 0.029721080196934906 0 0.0080650094668344354 0.029055367662779306 0 0.0050001590674190665 0.040883918738368753 0 0.0047292048986808666 0.040200953600829266 0 0.0052144415848462784 0.040344988717431848 0 0.0018717181187562961 0.040385463399615157 0 0.001896205097093447 0.040369505130259789 0 0.0019206325651176582 0.040399201473621874 0 0.0036768913958631203 0.038323883290675369 0 0.0034114838278744 0.042390441883985573 0 0.001896205097093447 0.040369505130259789 0 0.0019206325651176582 0.040399201473621874 0 0.0019149275762563079 0.04035994556076334 0 0.0018787890351296586 0.040554293751708867 0 0.0019407856895972502 0.040571848291536726 0 0.0019473900313716449 0.040348070839619284 0 0.0037361625297251812 0.044923849017840051 0 0.0011960847051396487 0.04596879347579929 0 0.0034114838278744 0.042390441883985573 0 0.0037361625297251812 0.044923849017840051 0 0.0050443207330191425 0.046915421964913412 0 0.0051392720055107206 0.047063910866722986 0 0.0049645123830263553 0.047013474337817052 0 0.0011304484734936046 0.054580852095269965 0 0.00097641484640333467 0.054593928679929876 0 0.0010278542129563588 0.054653308537582941 0 0.0011304484734936046 0.054580852095269965 0 0.0010278542129563588 0.054653308537582941 0 0.0010432120875628695 0.054769471806304829 0 0.00097641484640333467 0.054593928679929876 0 0.0010278542129563588 0.054653308537582941 0 0.0009623904961578452 0.054673429793862152 0 0.0010278542129563588 0.054653308537582941 0 0.0010432120875628695 0.054769471806304829 0 0.0009623904961578452 0.054673429793862152 0 0.0010432120875628695 0.054769471806304829 0 0.00089248080517790999 0.054736951154897504 0 0.0009623904961578452 0.054673429793862152 0 0.0034114838278744 0.042390441883985573 0 0.0032876080452783978 0.041508030885298509 0 0.0019206325651176582 0.040399201473621874 0 0.0019149275762563079 0.04035994556076334 0 0.0019473900313716449 0.040348070839619284 0 0.0019407856895972502 0.040571848291536726 0 0.0020010651309363492 0.040349152349655804 0 0.0019473900313716449 0.040348070839619284 0 0.0020010651309363492 0.040349152349655804 0 0.0019473900313716449 0.040348070839619284 0 0.0019495004813360685 0.04030581256056813 0 0.0019473900313716449 0.040348070839619284 0 0.0019168949647628171 0.040332919787620172 0 0.0019495004813360685 0.04030581256056813 0 0.0019149275762563079 0.04035994556076334 0 0.0019473900313716449 0.040348070839619284 0 0.0019168949647628171 0.040332919787620172 0 0.0019168949647628171 0.040332919787620172 0 0.0019495004813360685 0.04030581256056813 0 0.0019039339072316874 0.040308420407509732 0 0.0019495004813360685 0.04030581256056813 0 0.0020263664635779347 0.040241172011427392 0 0.0019170036946079773 0.040261117318879353 0 0.0019495004813360685 0.04030581256056813 0 0.0019170036946079773 0.040261117318879353 0 0.0019039339072316874 0.040308420407509732 0 0.0020010651309363492 0.040349152349655804 0 0.0019495004813360685 0.04030581256056813 0 0.0020263664635779347 0.040241172011427392 0 0.0010432120875628695 0.054769471806304829 0 0.00096532271567053305 0.054933703202050162 0 0.00089192140805936446 0.054851993253865111 0 0.0011960847051396487 0.04596879347579929 0 0.0001761668867058522 0.041884397419315766 0 0.0001761668867058522 0.041884397419315766 0 0.0011509093402766149 0.037416578407142638 0 0.00015133481500087515 0.03233690719655137 0 0.00050902013663173013 0.032385827337454771 0 0.00051301640046458135 0.032529535407739993 0 0.00050902013663173013 0.032385827337454771 0 0.00048399931288681757 0.032410543593467116 0 0.00051301640046458135 0.032529535407739993 0 0.00050902013663173013 0.032385827337454771 0 0.00048399931288681757 0.032410543593467116 0 0.0004784618218695826 0.032555018131189543 0 0.00048399931288681757 0.032410543593467116 0 0.00039210043521404887 0.032419020111280589 0 0.00043294064869326023 0.032443189571826452 0 0.0019170036946079773 0.040261117318879353 0 0.0018684154079586757 0.040302491500032366 0 0.0018209060544370874 0.040268403665689997 0 0.0011509093402766149 0.037416578407142638 0 0.00126202615797019 0.033937701661928527 0 0.0019170036946079773 0.040261117318879353 0 0.0018684154079586757 0.040302491500032366 0 0.0019039339072316874 0.040308420407509732 0 0.0052650386313410971 0.025953213570569698 0 0.0043802481895506337 0.024756947418407858 0 0.003356053533079066 0.025786320637045623 0 0.0019561673863361492 0.034672735579411543 0 0.00126202615797019 0.033937701661928527 0 0.0018684154079586757 0.040302491500032366 0 0.0018337634393168702 0.040303249685221948 0 0.0018209060544370874 0.040268403665689997 0 0.0005070893469098206 0.032343269830201887 0 0.00066356645397312047 0.02935705121510071 0 -3.746024046922698e-05 0.03195755857519831 0 0.0004784618218695826 0.032555018131189543 0 0.0005070893469098206 0.032343269830201887 0 -3.746024046922698e-05 0.03195755857519831 0 0.00048399931288681757 0.032410543593467116 0 0.0004784618218695826 0.032555018131189543 0 0.0005070893469098206 0.032343269830201887 0 0.00126202615797019 0.033937701661928527 0 0.00067064935157403892 0.030031258585560956 0 0.0005070893469098206 0.032343269830201887 0 0.00039210043521404887 0.032419020111280589 0 0.0002192267044964816 0.032413834564924422 0 0.00048399931288681757 0.032410543593467116 0 0.0005070893469098206 0.032343269830201887 0 0.00039210043521404887 0.032419020111280589 0 0.00044110082798692809 0.030936563971028171 0 0.00032495120346952782 0.030194684668227976 0 0.0005070893469098206 0.032343269830201887 0 0.0002192267044964816 0.032413834564924422 0 -0.00015576076394997889 0.032400179900609616 0 0.00039210043521404887 0.032419020111280589 0 0.0002192267044964816 0.032413834564924422 0 0.00043294064869326023 0.032443189571826452 0 0.0002192267044964816 0.032413834564924422 0 0.00043294064869326023 0.032443189571826452 0 0.00025766497914540495 0.032246540374651876 0 0.0002192267044964816 0.032413834564924422 0 -0.00015576076394997889 0.032400179900609616 0 0.00025766497914540495 0.032246540374651876 0 0.00043294064869326023 0.032443189571826452 0 0.0004976165434368941 0.032400769766086884 0 0.00051301640046458135 0.032529535407739993 0 0.00048399931288681757 0.032410543593467116 0 0.00043294064869326023 0.032443189571826452 0 0.00051301640046458135 0.032529535407739993 0 0.00043294064869326023 0.032443189571826452 0 0.0004976165434368941 0.032400769766086884 0 0.00025766497914540495 0.032246540374651876 0 0.0004976165434368941 0.032400769766086884 0 0.00041078305358056502 0.031932107954778431 0 0.00058387013581947579 0.032645677781907009 0 0.0004976165434368941 0.032400769766086884 0 0.00041078305358056502 0.031932107954778431 0 0.00025766497914540495 0.032246540374651876 0 -0.00015576076394997889 0.032400179900609616 0 -3.7668754900672198e-05 0.031617223052002125 0 -0.00095019348231978014 0.030772808294993945 0 -0.00015576076394997889 0.032400179900609616 0 0.00025766497914540495 0.032246540374651876 0 -3.7668754900672198e-05 0.031617223052002125 0 0.00041078305358056502 0.031932107954778431 0 0.00025766497914540495 0.032246540374651876 0 -3.7668754900672198e-05 0.031617223052002125 0 0.00041078305358056502 0.031932107954778431 0 -3.7668754900672198e-05 0.031617223052002125 0 0.00010561037481690454 0.030257589115560916 0 -3.7668754900672198e-05 0.031617223052002125 0 0.00010561037481690454 0.030257589115560916 0 -0.00095019348231978014 0.030772808294993945 0 0.00041078305358056502 0.031932107954778431 0 0.00010561037481690454 0.030257589115560916 0 0.00040322009058776551 0.031828211431840531 0 0.00041078305358056502 0.031932107954778431 0 0.00040322009058776551 0.031828211431840531 0 0.00058387013581947579 0.032645677781907009 0 1.5666234007991018e-06 0.029338685809849649 0 8.4971879316925156e-07 0.032363844382601689 0 0.00040322009058776551 0.031828211431840531 0 0.00010561037481690454 0.030257589115560916 0 1.5666234007991018e-06 0.029338685809849649 0 0.00040322009058776551 0.031828211431840531 0 0.00010561037481690454 0.030257589115560916 0 1.5666234007991018e-06 0.029338685809849649 0 -3.7925180909222443e-06 0.026318842934761461 0 8.4971879316925156e-07 0.032363844382601689 0 0.00039243637537201463 0.033926099509994853 0 -4.9401742847606922e-07 0.035388376392212616 0 8.4971879316925156e-07 0.032363844382601689 0 0.00040322009058776551 0.031828211431840531 0 0.00039243637537201463 0.033926099509994853 0 0.00040322009058776551 0.031828211431840531 0 0.00039243637537201463 0.033926099509994853 0 0.00058387013581947579 0.032645677781907009 0 0.00039243637537201463 0.033926099509994853 0 0.0003433673005068783 0.032823201940996277 0 -0.00030672522140307154 0.033124299165737406 0 0.00039243637537201463 0.033926099509994853 0 0.00058387013581947579 0.032645677781907009 0 0.0003433673005068783 0.032823201940996277 0 0.00058387013581947579 0.032645677781907009 0 0.00051301640046458135 0.032529535407739993 0 0.0003433673005068783 0.032823201940996277 0 0.0004976165434368941 0.032400769766086884 0 0.00058387013581947579 0.032645677781907009 0 0.00051301640046458135 0.032529535407739993 0 0.00015133481500087515 0.03233690719655137 0 0.00051301640046458135 0.032529535407739993 0 0.0003433673005068783 0.032823201940996277 0 -0.0025762464081582025 0.041907164525589499 0 -0.0018688906095620202 0.040101247584562308 0 -0.00064648233264026785 0.04150722444132305 0 0.00015133481500087515 0.03233690719655137 0 0.0003433673005068783 0.032823201940996277 0 -0.00030672522140307154 0.033124299165737406 0 0.0001761668867058522 0.041884397419315766 0 0.00023416125556338988 0.037844674766978344 0 -0.0018688906095620202 0.040101247584562308 0 6.6804684081017303e-05 0.039823768128210431 0 -0.00064648233264026785 0.04150722444132305 0 0.00023416125556338988 0.037844674766978344 0 0.00015345578667449525 0.03713062204121844 0 -0.0018688906095620202 0.040101247584562308 0 -0.00055536156569708074 0.036849517301198613 0 6.6804684081017303e-05 0.039823768128210431 0 0.00039243637537201463 0.033926099509994853 0 -0.00030672522140307154 0.033124299165737406 0 -0.00055536156569708074 0.036849517301198613 0 -0.00055536156569708074 0.036849517301198613 0 -4.9401742847606922e-07 0.035388376392212616 0 -7.139835779645166e-08 0.038412632188155403 0 0.00039243637537201463 0.033926099509994853 0 -0.00055536156569708074 0.036849517301198613 0 -4.9401742847606922e-07 0.035388376392212616 0 -7.139835779645166e-08 0.038412632188155403 0 0.00016947254353157342 0.038730105893255491 0 7.2004752520853836e-07 0.04143692318228636 0 -0.00055536156569708074 0.036849517301198613 0 -7.139835779645166e-08 0.038412632188155403 0 0.00016947254353157342 0.038730105893255491 0 0.00016947254353157342 0.038730105893255491 0 0.00055995155255009557 0.040158545777567958 0 6.6804684081017303e-05 0.039823768128210431 0 -0.00055536156569708074 0.036849517301198613 0 0.00016947254353157342 0.038730105893255491 0 6.6804684081017303e-05 0.039823768128210431 0 0.00016947254353157342 0.038730105893255491 0 0.00055995155255009557 0.040158545777567958 0 7.2004752520853836e-07 0.04143692318228636 0 0.00055995155255009557 0.040158545777567958 0 0.00070184318823554473 0.041000994020354856 0 0.00073311329402614943 0.04096750463156535 0 0.00055995155255009557 0.040158545777567958 0 6.6804684081017303e-05 0.039823768128210431 0 0.00070184318823554473 0.041000994020354856 0 6.6804684081017303e-05 0.039823768128210431 0 0.00070184318823554473 0.041000994020354856 0 -0.00064648233264026785 0.04150722444132305 0 0.00058605688699289119 0.055044628101158559 0 0.00063583133024327555 0.054897603194087798 0 0.00046875910090299903 0.054966410296020084 0 0.00055905523985678302 0.054890095993759581 0 0.00048036662600131527 0.05485308269684331 0 0.00063583133024327555 0.054897603194087798 0 0.0006482345138158754 0.054805745214251946 0 0.00051908113805416252 0.054813466017120581 0 0.00063583133024327555 0.054897603194087798 0 0.00078110894634560895 0.054831862466663057 0 0.0006482345138158754 0.054805745214251946 0 0.00063583133024327555 0.054897603194087798 0 0.00077934567009154516 0.05498805346119346 0 0.00078110894634560895 0.054831862466663057 0 0.00058605688699289119 0.055044628101158559 0 0.00063583133024327555 0.054897603194087798 0 0.00077934567009154516 0.05498805346119346 0 0.00031593303929481806 0.04748030441027061 0 -0.00020067152837151129 0.04564585131699881 0 0.0001761668867058522 0.041884397419315766 0 -0.00020067152837151129 0.04564585131699881 0 0.00096532271567053305 0.054933703202050162 0 0.00077934567009154516 0.05498805346119346 0 0.00089192140805936446 0.054851993253865111 0 0.00077934567009154516 0.05498805346119346 0 0.00089192140805936446 0.054851993253865111 0 0.00078110894634560895 0.054831862466663057 0 0.00078110894634560895 0.054831862466663057 0 0.00080225319702842185 0.054736606054808283 0 0.00072139862245140243 0.054738528064332118 0 0.00078110894634560895 0.054831862466663057 0 0.00080225319702842185 0.054736606054808283 0 0.00089248080517790999 0.054736951154897504 0 0.00080225319702842185 0.054736606054808283 0 0.00089248080517790999 0.054736951154897504 0 0.00084372207911826542 0.054666235346746597 0 0.00080225319702842185 0.054736606054808283 0 0.00078084346111116187 0.054695192088736799 0 0.00072139862245140243 0.054738528064332118 0 0.00089192140805936446 0.054851993253865111 0 0.00078110894634560895 0.054831862466663057 0 0.00089248080517790999 0.054736951154897504 0 0.0010432120875628695 0.054769471806304829 0 0.00089192140805936446 0.054851993253865111 0 0.00089248080517790999 0.054736951154897504 0 0.00089248080517790999 0.054736951154897504 0 0.0009623904961578452 0.054673429793862152 0 0.0009040262396167411 0.054663194268854035 0 0.0009623904961578452 0.054673429793862152 0 0.0009040262396167411 0.054663194268854035 0 0.0009326341787407441 0.054618026040718269 0 0.00089248080517790999 0.054736951154897504 0 0.0009040262396167411 0.054663194268854035 0 0.00084372207911826542 0.054666235346746597 0 0.0009040262396167411 0.054663194268854035 0 0.00088915813970299269 0.054620838867483722 0 0.00084372207911826542 0.054666235346746597 0 0.00085285061829537144 0.054613757871892737 0 0.00088915813970299269 0.054620838867483722 0 0.00084372207911826542 0.054666235346746597 0 0.00085285061829537144 0.054613757871892737 0 0.00087473172413480801 0.054602214383442482 0 0.00088915813970299269 0.054620838867483722 0 0.00091396269344486396 0.054578287272809813 0 0.00087473172413480801 0.054602214383442482 0 0.00088915813970299269 0.054620838867483722 0 0.00097641484640333467 0.054593928679929876 0 0.0009623904961578452 0.054673429793862152 0 0.0009326341787407441 0.054618026040718269 0 0.0009040262396167411 0.054663194268854035 0 0.00088915813970299269 0.054620838867483722 0 0.0009326341787407441 0.054618026040718269 0 0.00091396269344486396 0.054578287272809813 0 0.00088915813970299269 0.054620838867483722 0 0.0009326341787407441 0.054618026040718269 0 0.00094023571660711597 0.054584156996496845 0 0.00091396269344486396 0.054578287272809813 0 0.0009326341787407441 0.054618026040718269 0 0.00094023571660711597 0.054584156996496845 0 0.00097641484640333467 0.054593928679929876 0 0.0009326341787407441 0.054618026040718269 0 0.00078084346111116187 0.054695192088736799 0 0.00079617397312044258 0.054651809646190028 0 0.00074354408590244462 0.054681890234075291 0 0.00080225319702842185 0.054736606054808283 0 0.00078084346111116187 0.054695192088736799 0 0.00084372207911826542 0.054666235346746597 0 0.00078084346111116187 0.054695192088736799 0 0.00084372207911826542 0.054666235346746597 0 0.00079617397312044258 0.054651809646190028 0 0.00085285061829537144 0.054613757871892737 0 0.00084372207911826542 0.054666235346746597 0 0.00082785339276129943 0.054638827230849007 0 0.00084372207911826542 0.054666235346746597 0 0.00082785339276129943 0.054638827230849007 0 0.00079617397312044258 0.054651809646190028 0 0.00085285061829537144 0.054613757871892737 0 0.00082785339276129943 0.054638827230849007 0 0.0008173302458906735 0.054621381748601122 0 0.00082785339276129943 0.054638827230849007 0 0.0008173302458906735 0.054621381748601122 0 0.00079617397312044258 0.054651809646190028 0 0.00078300825913857775 0.054621951436460876 0 0.00079617397312044258 0.054651809646190028 0 0.00076190967737025208 0.054643913789096693 0 0.00079617397312044258 0.054651809646190028 0 0.00076190967737025208 0.054643913789096693 0 0.00074354408590244462 0.054681890234075291 0 0.00078300825913857775 0.054621951436460876 0 0.0008173302458906735 0.054621381748601122 0 0.00079617397312044258 0.054651809646190028 0 0.00068354013992588105 0.054684991223126263 0 0.00062098226769955703 0.054747396914737657 0 0.00072139862245140243 0.054738528064332118 0 0.00073053712058878349 0.054641724849688857 0 0.00076190967737025208 0.054643913789096693 0 0.00074354408590244462 0.054681890234075291 0 0.00073053712058878349 0.054641724849688857 0 0.00074354408590244462 0.054681890234075291 0 0.00068354013992588105 0.054684991223126263 0 0.00074354408590244462 0.054681890234075291 0 0.00068354013992588105 0.054684991223126263 0 0.00072139862245140243 0.054738528064332118 0 0.00078084346111116187 0.054695192088736799 0 0.00074354408590244462 0.054681890234075291 0 0.00072139862245140243 0.054738528064332118 0 0.00068639771358701516 0.054639948011249405 0 0.00073053712058878349 0.054641724849688857 0 0.00068354013992588105 0.054684991223126263 0 0.00060827029634517209 0.054668871798493932 0 0.00068354013992588105 0.054684991223126263 0 0.00062098226769955703 0.054747396914737657 0 0.00060827029634517209 0.054668871798493932 0 0.00062098226769955703 0.054747396914737657 0 0.00051908113805416252 0.054813466017120581 0 0.00060827029634517209 0.054668871798493932 0 0.00068639771358701516 0.054639948011249405 0 0.00068354013992588105 0.054684991223126263 0 0.00062098226769955703 0.054747396914737657 0 0.0006482345138158754 0.054805745214251946 0 0.00051908113805416252 0.054813466017120581 0 0.00062098226769955703 0.054747396914737657 0 0.0006482345138158754 0.054805745214251946 0 0.00072139862245140243 0.054738528064332118 0 0.00078110894634560895 0.054831862466663057 0 0.0006482345138158754 0.054805745214251946 0 0.00072139862245140243 0.054738528064332118 0 0.00048036662600131527 0.05485308269684331 0 0.00035571153165103882 0.054799472616723126 0 0.0004446370597182115 0.05486055696688296 0 0.00031046765156324843 0.054836037691240035 0 0.00034468705759545828 0.054945342754678848 0 0.00048178250069031407 0.054698536915507946 0 0.00060827029634517209 0.054668871798493932 0 0.00051908113805416252 0.054813466017120581 0 0.00048178250069031407 0.054698536915507946 0 0.00051908113805416252 0.054813466017120581 0 0.00039383562857498762 0.054776964914958662 0 0.00027992221241713542 0.05476702892949651 0 0.00035571153165103882 0.054799472616723126 0 0.00020728095942477228 0.054777606766098885 0 0.00031046765156324843 0.054836037691240035 0 0.00021557340467477838 0.05487244720672519 0 0.00021557340467477838 0.05487244720672519 0 0.00025074099157012164 0.054919736995167071 0 0.00017241811485226903 0.054924323871410712 0 0.00025074099157012164 0.054919736995167071 0 0.00020123082150993597 0.05496270521169444 0 0.00017241811485226903 0.054924323871410712 0 0.00031046765156324843 0.054836037691240035 0 0.00021557340467477838 0.05487244720672519 0 0.00025074099157012164 0.054919736995167071 0 0.00031046765156324843 0.054836037691240035 0 0.00025074099157012164 0.054919736995167071 0 0.00034468705759545828 0.054945342754678848 0 0.00025074099157012164 0.054919736995167071 0 0.00024789008382256707 0.054991436883779506 0 0.00034468705759545828 0.054945342754678848 0 0.00025074099157012164 0.054919736995167071 0 0.00020123082150993597 0.05496270521169444 0 0.00024789008382256707 0.054991436883779506 0 0.00020123082150993597 0.05496270521169444 0 0.00024789008382256707 0.054991436883779506 0 0.00017379600291744294 0.055003953967832579 0 0.00024789008382256707 0.054991436883779506 0 0.00019226856128074673 0.055049984182916803 0 0.00017379600291744294 0.055003953967832579 0 0.00024789008382256707 0.054991436883779506 0 0.00019226856128074673 0.055049984182916803 0 0.00026011712340552807 0.055045596593776912 0 0.00024789008382256707 0.054991436883779506 0 0.00031281861604476189 0.055007888805529995 0 0.00034468705759545828 0.054945342754678848 0 0.00024789008382256707 0.054991436883779506 0 0.00031281861604476189 0.055007888805529995 0 0.00026011712340552807 0.055045596593776912 0 0.00031281861604476189 0.055007888805529995 0 0.00026011712340552807 0.055045596593776912 0 0.00033425556313633324 0.05505635896410796 0 0.00037200508657965871 0.055009896545529596 0 0.00046875910090299903 0.054966410296020084 0 0.00040497038078953661 0.05507908196562554 0 0.00037200508657965871 0.055009896545529596 0 0.00034468705759545828 0.054945342754678848 0 0.00046875910090299903 0.054966410296020084 0 0.00031281861604476189 0.055007888805529995 0 0.00037200508657965871 0.055009896545529596 0 0.00033425556313633324 0.05505635896410796 0 0.00031281861604476189 0.055007888805529995 0 0.00037200508657965871 0.055009896545529596 0 0.00034468705759545828 0.054945342754678848 0 0.00063583133024327555 0.054897603194087798 0 0.0004446370597182115 0.05486055696688296 0 0.00046875910090299903 0.054966410296020084 0 0.0004446370597182115 0.05486055696688296 0 0.00034468705759545828 0.054945342754678848 0 0.00046875910090299903 0.054966410296020084 0 0.00058605688699289119 0.055044628101158559 0 0.00046875910090299903 0.054966410296020084 0 0.00040497038078953661 0.05507908196562554 0 0.00031593303929481806 0.04748030441027061 0 0.00049680327585796948 0.048965729884526382 0 0.00070184318823554473 0.041000994020354856 0 0.00067011393215703273 0.0409637492663548 0 0.00073311329402614943 0.04096750463156535 0 0.00067011393215703273 0.0409637492663548 0 0.00030683182997673239 0.041617017500417797 0 -0.00046651328040098308 0.041127088407503648 0 0.00049680327585796948 0.048965729884526382 0 0.00032218050797552691 0.051145095115902102 0 0.00037200508657965871 0.055009896545529596 0 0.00040497038078953661 0.05507908196562554 0 0.00033425556313633324 0.05505635896410796 0 0.00067011393215703273 0.0409637492663548 0 0.00030683182997673239 0.041617017500417797 0 0.00073311329402614943 0.04096750463156535 0 0.00030683182997673239 0.041617017500417797 0 0.00073311329402614943 0.04096750463156535 0 0.00048998741326105244 0.041890081188598452 0 0.00055995155255009557 0.040158545777567958 0 0.00073311329402614943 0.04096750463156535 0 0.00048998741326105244 0.041890081188598452 0 0.00055995155255009557 0.040158545777567958 0 0.00048998741326105244 0.041890081188598452 0 7.2004752520853836e-07 0.04143692318228636 0 0.00048998741326105244 0.041890081188598452 0 2.0525193113197843e-06 0.044462328507073129 0 -5.2975665803068487e-05 0.042875366689405073 0 0.00030683182997673239 0.041617017500417797 0 0.00048998741326105244 0.041890081188598452 0 -5.2975665803068487e-05 0.042875366689405073 0 0.00048998741326105244 0.041890081188598452 0 2.0525193113197843e-06 0.044462328507073129 0 7.2004752520853836e-07 0.04143692318228636 0 -0.00028980018560100798 0.044597454281917144 0 -5.0698258411733811e-06 0.047481466762891784 0 -0.0023373176763116341 0.044588370278169524 0 -1.4643906491793723e-06 0.047488890877782491 0 -0.00032116837579247362 0.04843260691392972 0 2.0525193113197843e-06 0.044462328507073129 0 -0.00028980018560100798 0.044597454281917144 0 -5.2975665803068487e-05 0.042875366689405073 0 2.0525193113197843e-06 0.044462328507073129 0 -0.00028980018560100798 0.044597454281917144 0 -5.0698258411733811e-06 0.047481466762891784 0 -0.00028980018560100798 0.044597454281917144 0 -0.0014179513186333113 0.043289107596034243 0 -0.0023373176763116341 0.044588370278169524 0 -5.2975665803068487e-05 0.042875366689405073 0 -0.0014179513186333113 0.043289107596034243 0 -0.0015947815379472423 0.041918522711915374 0 -0.00028980018560100798 0.044597454281917144 0 -5.2975665803068487e-05 0.042875366689405073 0 -0.0014179513186333113 0.043289107596034243 0 0.00030987652560049135 0.050643875006534424 0 0.00032218050797552691 0.051145095115902102 0 -5.2975665803068487e-05 0.042875366689405073 0 -0.0015947815379472423 0.041918522711915374 0 -0.00046651328040098308 0.041127088407503648 0 0.00018722537431418269 0.055124641006213185 0 0.0002569586490949211 0.055071692996784785 0 0.00018686406507521536 0.055097059316372612 0 0.00030683182997673239 0.041617017500417797 0 -5.2975665803068487e-05 0.042875366689405073 0 -0.00046651328040098308 0.041127088407503648 0 0.00040497038078953661 0.05507908196562554 0 0.00026868358597190948 0.055084499320749117 0 0.00033425556313633324 0.05505635896410796 0 0.00026011712340552807 0.055045596593776912 0 0.00026192281235488246 0.055097186205178401 0 0.00033425556313633324 0.05505635896410796 0 0.00032218050797552691 0.051145095115902102 0 -8.8914115783450491e-05 0.051793159612748094 0 0.00026192281235488246 0.055097186205178401 0 0.00018686406507521536 0.055097059316372612 0 0.00021635631425516666 0.05507502044209555 0 0.00032218050797552691 0.051145095115902102 0 0.00011189813433783346 0.051594617418537742 0 0.00018686406507521536 0.055097059316372612 0 0.00021635631425516666 0.05507502044209555 0 0.00018080977468290068 0.055078141530527626 0 0.00026011712340552807 0.055045596593776912 0 0.00026192281235488246 0.055097186205178401 0 0.00021635631425516666 0.05507502044209555 0 0.00019226856128074673 0.055049984182916803 0 0.00026011712340552807 0.055045596593776912 0 0.00021635631425516666 0.05507502044209555 0 0.00019226856128074673 0.055049984182916803 0 0.00021635631425516666 0.05507502044209555 0 0.00018080977468290068 0.055078141530527626 0 0.00019226856128074673 0.055049984182916803 0 0.00018080977468290068 0.055078141530527626 0 0.0001491775062472758 0.055073517656942281 0 0.00019226856128074673 0.055049984182916803 0 0.0001491775062472758 0.055073517656942281 0 0.00013601140557672759 0.055040882116692641 0 0.0001491775062472758 0.055073517656942281 0 0.00011104627764629283 0.055066008433519852 0 0.00013601140557672759 0.055040882116692641 0 0.0001491775062472758 0.055073517656942281 0 0.00012548848152849301 0.055101917459233776 0 0.00015865952403978987 0.055100468144123269 0 0.0001491775062472758 0.055073517656942281 0 0.00012548848152849301 0.055101917459233776 0 0.00011104627764629283 0.055066008433519852 0 0.00018080977468290068 0.055078141530527626 0 0.0001491775062472758 0.055073517656942281 0 0.00015865952403978987 0.055100468144123269 0 0.00018686406507521536 0.055097059316372612 0 0.00018080977468290068 0.055078141530527626 0 0.00015865952403978987 0.055100468144123269 0 0.00012548848152849301 0.055101917459233776 0 6.5797741388720524e-05 0.055078694201980721 0 0.00011104627764629283 0.055066008433519852 0 6.5797741388720524e-05 0.055078694201980721 0 0.00011104627764629283 0.055066008433519852 0 8.1118742385959149e-05 0.055034337524950544 0 8.8628649301812951e-05 0.051604614958853261 0 0.00035588908058316343 0.053443941494952282 0 0.00012548848152849301 0.055101917459233776 0 6.5797741388720524e-05 0.055078694201980721 0 0.00012735152159620481 0.055156740873588073 0 -9.857722420421051e-05 0.054832030861367599 0 -7.9143398062317359e-05 0.054819117991358635 0 -2.6860718126854557e-06 0.05487519735987241 0 -2.1752110509980627e-05 0.054954837013592696 0 -9.857722420421051e-05 0.054832030861367599 0 -2.6860718126854557e-06 0.05487519735987241 0 0.00077514495052341829 0.053978051020347952 0 0.00036914873568140146 0.050987884390380107 0 0.00030987652560049135 0.050643875006534424 0 0.00036914873568140146 0.050987884390380107 0 0.00018722537431418269 0.055124641006213185 0 0.00014828622277291147 0.055123516657216542 0 0.00012735152159620481 0.055156740873588073 0 -0.0014179513186333113 0.043289107596034243 0 -0.0015947815379472423 0.041918522711915374 0 -0.0032969958529192713 0.042880758859505992 0 0.00012548848152849301 0.055101917459233776 0 0.00014828622277291147 0.055123516657216542 0 0.00012735152159620481 0.055156740873588073 0 0.00018722537431418269 0.055124641006213185 0 0.00015865952403978987 0.055100468144123269 0 0.00014828622277291147 0.055123516657216542 0 0.00018722537431418269 0.055124641006213185 0 0.00018686406507521536 0.055097059316372612 0 0.00015865952403978987 0.055100468144123269 0 0.00012548848152849301 0.055101917459233776 0 0.00015865952403978987 0.055100468144123269 0 0.00014828622277291147 0.055123516657216542 0 -0.0014179513186333113 0.043289107596034243 0 -0.0032969958529192713 0.042880758859505992 0 -0.0023373176763116341 0.044588370278169524 0 0.00011264788983093003 0.04950443531801265 0 0.00013211269954255017 0.049459699811878206 0 -1.4499682515767632e-05 0.049357046999031012 0 0.00036914873568140146 0.050987884390380107 0 -0.00032116837579247362 0.04843260691392972 0 0.00011882144846960274 0.049508268619351647 0 0.00013211269954255017 0.049459699811878206 0 -1.4499682515767632e-05 0.049357046999031012 0 1.4679077141788362e-05 0.052240716454921766 0 -8.4733381895248525e-07 0.052251467573884644 0 -6.9025805487056089e-06 0.05223005906407454 0 0.00036914873568140146 0.050987884390380107 0 8.8628649301812951e-05 0.051604614958853261 0 0.00011882144846960274 0.049508268619351647 0 0.00013211269954255017 0.049459699811878206 0 0.00016318577985175624 0.049478688065464987 0 0.00013211269954255017 0.049459699811878206 0 6.9738867256356467e-05 0.049353891747805315 0 4.5337498750787933e-05 0.049488666092065932 0 7.5650262833045878e-05 0.051587738768779035 0 8.8628649301812951e-05 0.051604614958853261 0 8.8628649301812951e-05 0.051604614958853261 0 9.1359714079300455e-05 0.052123817583118175 0 6.9738867256356467e-05 0.049353891747805315 0 -0.00044154015721635466 0.049449157438840943 0 4.5337498750787933e-05 0.049488666092065932 0 0.00011264788983093003 0.04950443531801265 0 4.5337498750787933e-05 0.049488666092065932 0 0.00019450837822490271 0.04976752495512262 0 -0.00044154015721635466 0.049449157438840943 0 4.5337498750787933e-05 0.049488666092065932 0 0.00019450837822490271 0.04976752495512262 0 0.00011264788983093003 0.04950443531801265 0 0.00013211269954255017 0.049459699811878206 0 4.5337498750787933e-05 0.049488666092065932 0 -0.00044154015721635466 0.049449157438840943 0 0.00019450837822490271 0.04976752495512262 0 1.7792125402276075e-08 0.050795522593003552 0 9.1359714079300455e-05 0.052123817583118175 0 -2.7749861055273657e-07 0.050802782360349623 0 -1.4139624655064681e-08 0.047492835708693448 0 0.00019450837822490271 0.04976752495512262 0 1.7792125402276075e-08 0.050795522593003552 0 -1.4139624655064681e-08 0.047492835708693448 0 0.00019450837822490271 0.04976752495512262 0 -1.4499682515767632e-05 0.049357046999031012 0 0.00011264788983093003 0.04950443531801265 0 0.00019450837822490271 0.04976752495512262 0 -1.4499682515767632e-05 0.049357046999031012 0 -6.1805130269416575e-07 0.050805797832282812 0 4.2547646315183071e-07 0.054997120961446114 0 -2.1724164085497923e-05 0.054402853948776836 0 4.2547646315183071e-07 0.054997120961446114 0 -1.737646161619083e-05 0.054871842080161187 0 -2.2330760476324201e-07 0.055001129313762984 0 4.2547646315183071e-07 0.054997120961446114 0 -2.1724164085497923e-05 0.054402853948776836 0 -1.737646161619083e-05 0.054871842080161187 0 -2.1724164085497923e-05 0.054402853948776836 0 -0.00014889150820802802 0.054609511268456333 0 -1.737646161619083e-05 0.054871842080161187 0 -2.3847535971317174e-05 0.052705879113640955 0 -2.6583537357774715e-05 0.052568526925752597 0 -0.00023942865961994322 0.052623384112798696 0 -6.1805130269416575e-07 0.050805797832282812 0 0.00014657512868360457 0.052598797589991253 0 -6.1805130269416575e-07 0.050805797832282812 0 -2.1724164085497923e-05 0.054402853948776836 0 0.00014657512868360457 0.052598797589991253 0 9.1359714079300455e-05 0.052123817583118175 0 -2.6583537357774715e-05 0.052568526925752597 0 9.1359714079300455e-05 0.052123817583118175 0 0.00035588908058316343 0.053443941494952282 0 -0.00014889150820802802 0.054609511268456333 0 -0.00015956992913500803 0.054815090947252343 0 -1.737646161619083e-05 0.054871842080161187 0 -0.00027707674969349485 0.054767178712836567 0 -0.00015956992913500803 0.054815090947252343 0 -0.00017501016192020261 0.054952797468501263 0 -0.00027707674969349485 0.054767178712836567 0 -0.00014889150820802802 0.054609511268456333 0 -0.00015956992913500803 0.054815090947252343 0 -0.00015956992913500803 0.054815090947252343 0 -1.737646161619083e-05 0.054871842080161187 0 -0.00017501016192020261 0.054952797468501263 0 -1.737646161619083e-05 0.054871842080161187 0 -4.9982181922467627e-05 0.054978702813352133 0 -2.2330760476324201e-07 0.055001129313762984 0 -1.737646161619083e-05 0.054871842080161187 0 -4.9982181922467627e-05 0.054978702813352133 0 -0.00017501016192020261 0.054952797468501263 0 0.00019608813846701403 0.054315081182405203 0 0.00035588908058316343 0.053443941494952282 0 0.00035588908058316343 0.053443941494952282 0 0.00042662441451160924 0.05438761509334572 0 -2.1752110509980627e-05 0.054954837013592696 0 -2.6860718126854557e-06 0.05487519735987241 0 3.1588265549257097e-06 0.054982688077455585 0 2.2860633457707402e-06 0.054993476433771518 0 1.0474657823843483e-05 0.05499517672563646 0 3.1588265549257097e-06 0.054982688077455585 0 2.2860633457707402e-06 0.054993476433771518 0 -1.0187250416214195e-08 0.054999944734392715 0 3.1588265549257097e-06 0.054982688077455585 0 0.00019608813846701403 0.054315081182405203 0 8.4722266942049159e-07 0.054998066342150244 0 8.0756035098557508e-06 0.055002769000070909 0 1.934433727256018e-08 0.055000027977731444 0 3.1588265549257097e-06 0.054982688077455585 0 -1.0187250416214195e-08 0.054999944734392715 0 1.934433727256018e-08 0.055000027977731444 0 3.1588265549257097e-06 0.054982688077455585 0 8.0756035098557508e-06 0.055002769000070909 0 1.934433727256018e-08 0.055000027977731444 0 1.1209610828310798e-05 0.054982307748040318 0 8.0756035098557508e-06 0.055002769000070909 0 3.1846992121978145e-05 0.054984558192998044 0 1.1209610828310798e-05 0.054982307748040318 0 8.0756035098557508e-06 0.055002769000070909 0 3.1846992121978145e-05 0.054984558192998044 0 6.2813938835106495e-05 0.054999037459618413 0 6.5797741388720524e-05 0.055078694201980721 0 8.0756035098557508e-06 0.055002769000070909 0 8.1118742385959149e-05 0.055034337524950544 0 -2.1752110509980627e-05 0.054954837013592696 0 8.0756035098557508e-06 0.055002769000070909 0 3.1588265549257097e-06 0.054982688077455585 0 0.00077514495052341829 0.053978051020347952 0 0.00065947015459857526 0.054433580990701065 0 8.0756035098557508e-06 0.055002769000070909 0 8.1118742385959149e-05 0.055034337524950544 0 6.2813938835106495e-05 0.054999037459618413 0 0.00011104627764629283 0.055066008433519852 0 8.1118742385959149e-05 0.055034337524950544 0 0.00013601140557672759 0.055040882116692641 0 8.1118742385959149e-05 0.055034337524950544 0 0.00013601140557672759 0.055040882116692641 0 0.00011337249413896526 0.055001832936476702 0 8.1118742385959149e-05 0.055034337524950544 0 6.2813938835106495e-05 0.054999037459618413 0 0.00011337249413896526 0.055001832936476702 0 0.00019226856128074673 0.055049984182916803 0 0.00013601140557672759 0.055040882116692641 0 0.00017379600291744294 0.055003953967832579 0 0.00013601140557672759 0.055040882116692641 0 0.00017379600291744294 0.055003953967832579 0 0.00011337249413896526 0.055001832936476702 0 0.00020123082150993597 0.05496270521169444 0 0.00017379600291744294 0.055003953967832579 0 0.00014967371223932385 0.054970926982340282 0 0.00017379600291744294 0.055003953967832579 0 0.00014967371223932385 0.054970926982340282 0 0.00011337249413896526 0.055001832936476702 0 0.00014967371223932385 0.054970926982340282 0 0.00011337249413896526 0.055001832936476702 0 8.6194076757997943e-05 0.054963725793208081 0 0.00020123082150993597 0.05496270521169444 0 0.00014967371223932385 0.054970926982340282 0 0.00017241811485226903 0.054924323871410712 0 3.1846992121978145e-05 0.054984558192998044 0 6.2813938835106495e-05 0.054999037459618413 0 8.6194076757997943e-05 0.054963725793208081 0 6.2813938835106495e-05 0.054999037459618413 0 0.00011337249413896526 0.055001832936476702 0 8.6194076757997943e-05 0.054963725793208081 0 3.1846992121978145e-05 0.054984558192998044 0 8.6194076757997943e-05 0.054963725793208081 0 4.0183209278827495e-05 0.054948531897020668 0 8.6194076757997943e-05 0.054963725793208081 0 0.00011510928610940125 0.054899323830832944 0 4.0183209278827495e-05 0.054948531897020668 0 8.6194076757997943e-05 0.054963725793208081 0 0.00017241811485226903 0.054924323871410712 0 0.00011510928610940125 0.054899323830832944 0 0.00021557340467477838 0.05487244720672519 0 0.00017241811485226903 0.054924323871410712 0 0.00011510928610940125 0.054899323830832944 0 0.00014967371223932385 0.054970926982340282 0 8.6194076757997943e-05 0.054963725793208081 0 0.00017241811485226903 0.054924323871410712 0 2.6778880074757309e-05 0.054860476135843481 0 0.00020728095942477228 0.054777606766098885 0 0.00011510928610940125 0.054899323830832944 0 0.00020728095942477228 0.054777606766098885 0 0.00021557340467477838 0.05487244720672519 0 0.00011510928610940125 0.054899323830832944 0 2.6778880074757309e-05 0.054860476135843481 0 0.00011510928610940125 0.054899323830832944 0 4.0183209278827495e-05 0.054948531897020668 0 2.6778880074757309e-05 0.054860476135843481 0 1.4217299886199575e-05 0.054945763219044007 0 4.0183209278827495e-05 0.054948531897020668 0 1.4217299886199575e-05 0.054945763219044007 0 -6.8099899094920137e-09 0.054999915159685581 0 1.1209610828310798e-05 0.054982307748040318 0 1.934433727256018e-08 0.055000027977731444 0 -6.8099899094920137e-09 0.054999915159685581 0 1.1209610828310798e-05 0.054982307748040318 0 3.1846992121978145e-05 0.054984558192998044 0 1.1209610828310798e-05 0.054982307748040318 0 4.0183209278827495e-05 0.054948531897020668 0 1.4217299886199575e-05 0.054945763219044007 0 1.1209610828310798e-05 0.054982307748040318 0 4.0183209278827495e-05 0.054948531897020668 0 0.0029537488915051899 0.0012878664247615614 0 0.0032301365720778571 0.00017134433083819444 0 0.0015606829342195078 0.001726631147103684 0 -0.0022911211234979863 0.010945881338042335 0 -0.0056204587001880014 0.013370052120107515 0 0.0029537488915051899 0.0012878664247615614 0 0.0015606829342195078 0.001726631147103684 0 0.0026423742232103784 0.0024539009365684532 0 0.0029537488915051899 0.0012878664247615614 0 0.0035140544103466108 0.0015076333909394642 0 0.0031914187813559436 0.0021155438418253439 0 0.0029537488915051899 0.0012878664247615614 0 0.0035140544103466108 0.0015076333909394642 0 0.0034593474291963115 0.0010891644979859967 0 0.0029537488915051899 0.0012878664247615614 0 0.0034593474291963115 0.0010891644979859967 0 0.0034674431373520843 0.0010509389315559922 0 0.0035548805074033813 0.0012857514731125052 0 0.0034593474291963115 0.0010891644979859967 0 0.0034674431373520843 0.0010509389315559922 0 -0.018327893700404971 0.029606109324145511 0 -0.016205700224791737 0.030220961486211815 0 -0.015384428515920151 0.025571609745306572 0 -0.018327893700404971 0.029606109324145511 0 -0.016205700224791737 0.030220961486211815 0 -0.016721380174377128 0.03269458217312235 0 -0.0014132166979983459 0.0080002016660398363 0 -0.0022911211234979863 0.010945881338042335 0 -0.016205700224791737 0.030220961486211815 0 -0.014245557098663167 0.029584673415875468 0 -0.015384428515920151 0.025571609745306572 0 -0.016205700224791737 0.030220961486211815 0 -0.014245557098663167 0.029584673415875468 0 -0.014544113151089959 0.032034450669225244 0 -0.014245557098663167 0.029584673415875468 0 -0.011942632401326626 0.031327048973952651 0 -0.014544113151089959 0.032034450669225244 0 -0.012306878894558901 0.02855355991131352 0 -0.011942632401326626 0.031327048973952651 0 -0.0091248565864834198 0.0299945236938103 0 -0.014245557098663167 0.029584673415875468 0 -0.012306878894558901 0.02855355991131352 0 -0.011942632401326626 0.031327048973952651 0 -0.011809095860634635 0.026270595926451999 0 -0.015384428515920151 0.025571609745306572 0 -0.010932982811664972 0.023750380487127701 0 -0.012306878894558901 0.02855355991131352 0 -0.011809095860634635 0.026270595926451999 0 -0.015384428515920151 0.025571609745306572 0 -0.012306878894558901 0.02855355991131352 0 -0.011809095860634635 0.026270595926451999 0 -0.0094285665617038512 0.026971744080094676 0 -0.011809095860634635 0.026270595926451999 0 -0.010932982811664972 0.023750380487127701 0 -0.0094285665617038512 0.026971744080094676 0 -0.014245557098663167 0.029584673415875468 0 -0.012306878894558901 0.02855355991131352 0 -0.015384428515920151 0.025571609745306572 0 0.0015606829342195078 0.001726631147103684 0 0.0016585435623899859 0.0033789424569492864 0 -0.00057018295384610857 0.0044356164795422478 0 -0.0056204587001880014 0.013370052120107515 0 -0.0055397222337498098 0.01274132005249258 0 0.0015606829342195078 0.001726631147103684 0 0.0016585435623899859 0.0033789424569492864 0 0.0026423742232103784 0.0024539009365684532 0 -0.015384428515920151 0.025571609745306572 0 -0.010932982811664972 0.023750380487127701 0 -0.012044671581108779 0.020755535858011192 0 -0.00057018295384610857 0.0044356164795422478 0 0.0019518722059411002 0.0048222910871419233 0 -0.00074366292706113735 0.0071748694277387753 0 0.0016585435623899859 0.0033789424569492864 0 -0.00057018295384610857 0.0044356164795422478 0 0.0019518722059411002 0.0048222910871419233 0 0.0016585435623899859 0.0033789424569492864 0 0.0019518722059411002 0.0048222910871419233 0 0.0025223962951065352 0.0033294057040840317 0 0.00072917497716959933 0.0062168393672217158 0 0.0018010633603374631 0.0053468604094120643 0 0.0015514380929136323 0.0063296996338329352 0 0.0019518722059411002 0.0048222910871419233 0 0.0025223962951065352 0.0033294057040840317 0 0.003493196721708741 0.0027144063625201965 0 0.00072917497716959933 0.0062168393672217158 0 0.0019616559806987749 0.0040623067639374627 0 0.0018010633603374631 0.0053468604094120643 0 0.0011431441256232711 0.004982755985274109 0 0.0026607335701865332 0.0038127578734297222 0 0.0016585435623899859 0.0033789424569492864 0 0.0025223962951065352 0.0033294057040840317 0 0.0026423742232103784 0.0024539009365684532 0 0.0025223962951065352 0.0033294057040840317 0 0.0029480878246552723 0.0027026599143276622 0 0.003493196721708741 0.0027144063625201965 0 0.0029537488915051899 0.0012878664247615614 0 0.0026423742232103784 0.0024539009365684532 0 0.0031914187813559436 0.0021155438418253439 0 0.0025223962951065352 0.0033294057040840317 0 0.0029480878246552723 0.0027026599143276622 0 0.0026423742232103784 0.0024539009365684532 0 0.0029480878246552723 0.0027026599143276622 0 0.0026423742232103784 0.0024539009365684532 0 0.0031914187813559436 0.0021155438418253439 0 0.0035140544103466108 0.0015076333909394642 0 0.0031914187813559436 0.0021155438418253439 0 0.003493196721708741 0.0027144063625201965 0 0.0022796692783097743 0.0042068195193723781 0 0.0019616559806987749 0.0040623067639374627 0 0.0037472380887905972 0.0014418624095137681 0 0.0029480878246552723 0.0027026599143276622 0 0.0031914187813559436 0.0021155438418253439 0 0.003493196721708741 0.0027144063625201965 0 0.0022796692783097743 0.0042068195193723781 0 0.0019616559806987749 0.0040623067639374627 0 0.0018010633603374631 0.0053468604094120643 0 0.0018010633603374631 0.0053468604094120643 0 0.0021924355469473658 0.0061048874239251812 0 0.0015514380929136323 0.0063296996338329352 0 0.0022796692783097743 0.0042068195193723781 0 0.0018010633603374631 0.0053468604094120643 0 0.002289200045719037 0.0053349394034356403 0 0.0018010633603374631 0.0053468604094120643 0 0.002289200045719037 0.0053349394034356403 0 0.0021924355469473658 0.0061048874239251812 0 0.0022796692783097743 0.0042068195193723781 0 0.002289200045719037 0.0053349394034356403 0 0.0030492415632043944 0.0056838064973617312 0 0.002289200045719037 0.0053349394034356403 0 0.0030492415632043944 0.0056838064973617312 0 0.0021924355469473658 0.0061048874239251812 0 0.0022796692783097743 0.0042068195193723781 0 0.0030492415632043944 0.0056838064973617312 0 0.0057213628082790121 0.0055494415573870319 0 0.0022796692783097743 0.0042068195193723781 0 0.0040197555851150014 0.001848174029037539 0 0.0037472380887905972 0.0014418624095137681 0 0.0031555287301728808 0.0030073619718365002 0 0.0042870388478846617 0.002905598454418728 0 0.0040197555851150014 0.001848174029037539 0 0.0041116223321193473 0.0010685479283787417 0 0.0042863035644948198 0.00082741224074699073 0 0.0040197555851150014 0.001848174029037539 0 0.0041116223321193473 0.0010685479283787417 0 0.0037472380887905972 0.0014418624095137681 0 0.0041116223321193473 0.0010685479283787417 0 0.0037472380887905972 0.0014418624095137681 0 0.0041535764806595781 0.00041874935707125808 0 0.0026607335701865332 0.0038127578734297222 0 0.0034334325901589214 0.0031744539511656261 0 0.0035140544103466108 0.0015076333909394642 0 0.003493196721708741 0.0027144063625201965 0 0.0037472380887905972 0.0014418624095137681 0 0.0042863035644948198 0.00082741224074699073 0 0.0044104868864072479 0.00022657574874033906 0 0.0044048818567465238 0.00045522732642628953 0 0.0044104868864072479 0.00022657574874033906 0 0.0044048818567465238 0.00045522732642628953 0 0.0044825520305359088 -0.00018538745172284155 0 0.0044104868864072479 0.00022657574874033906 0 0.0044825520305359088 -0.00018538745172284155 0 0.0044717792393759058 -0.00023948782352800206 0 0.0040197555851150014 0.001848174029037539 0 0.0042863035644948198 0.00082741224074699073 0 0.0044048818567465238 0.00045522732642628953 0 0.0042870388478846617 0.002905598454418728 0 0.0046973824091592195 0.0020897234696422387 0 0.0041116223321193473 0.0010685479283787417 0 0.0043081036708277065 0.00052964928481352594 0 0.0041535764806595781 0.00041874935707125808 0 0.0041116223321193473 0.0010685479283787417 0 0.0042863035644948198 0.00082741224074699073 0 0.0043081036708277065 0.00052964928481352594 0 0.0042863035644948198 0.00082741224074699073 0 0.0043081036708277065 0.00052964928481352594 0 0.0044104868864072479 0.00022657574874033906 0 0.0044104868864072479 0.00022657574874033906 0 0.0043937967371907912 -4.0534110245326623e-05 0 0.0044717792393759058 -0.00023948782352800206 0 0.0043081036708277065 0.00052964928481352594 0 0.0044104868864072479 0.00022657574874033906 0 0.0043937967371907912 -4.0534110245326623e-05 0 0.0043937967371907912 -4.0534110245326623e-05 0 0.0041535764806595781 0.00041874935707125808 0 0.0042761460716630529 -0.00034134877972594391 0 0.0043081036708277065 0.00052964928481352594 0 0.0043937967371907912 -4.0534110245326623e-05 0 0.0041535764806595781 0.00041874935707125808 0 0.0041535764806595781 0.00041874935707125808 0 0.0033940042847320595 0.0007028843283339699 0 0.0040672756486168932 -0.00017151936360057366 0 0.0035140544103466108 0.0015076333909394642 0 0.0034593474291963115 0.0010891644979859967 0 0.0033940042847320595 0.0007028843283339699 0 0.0035140544103466108 0.0015076333909394642 0 0.0037472380887905972 0.0014418624095137681 0 0.0033940042847320595 0.0007028843283339699 0 0.0037472380887905972 0.0014418624095137681 0 0.0041535764806595781 0.00041874935707125808 0 0.0033940042847320595 0.0007028843283339699 0 0.0035548805074033813 0.0012857514731125052 0 0.0034593474291963115 0.0010891644979859967 0 0.0033940042847320595 0.0007028843283339699 0 0.0035548805074033813 0.0012857514731125052 0 0.0033940042847320595 0.0007028843283339699 0 0.003699179113075054 0.0020582726049978794 0 0.0033940042847320595 0.0007028843283339699 0 0.003699179113075054 0.0020582726049978794 0 0.0017793841451870438 0.0020211530189205582 0 0.0022039990672216314 0.0004638454218898398 0 0.0016629131179835275 0.00060220120891081499 0 0.0017793841451870438 0.0020211530189205582 0 0.0023230504435840294 0.0034031486198362946 0 0.00016264912956608885 0.0039259939065833327 0 0.003699179113075054 0.0020582726049978794 0 0.0017793841451870438 0.0020211530189205582 0 0.0023230504435840294 0.0034031486198362946 0 0.003699179113075054 0.0020582726049978794 0 0.0023230504435840294 0.0034031486198362946 0 0.0036776994046172295 0.0034100921973663906 0 0.0041535764806595781 0.00041874935707125808 0 0.0040672756486168932 -0.00017151936360057366 0 0.0042761460716630529 -0.00034134877972594391 0 0.0016629131179835275 0.00060220120891081499 0 -0.0001085996696020667 0.00092682056647677659 0 0.0040672756486168932 -0.00017151936360057366 0 0.0042761460716630529 -0.00034134877972594391 0 0.0043910975851229345 -5.0403053384672447e-05 0 0.0042761460716630529 -0.00034134877972594391 0 0.0043910975851229345 -5.0403053384672447e-05 0 0.0041454649439060347 3.2652558087957743e-05 0 -0.0001085996696020667 0.00092682056647677659 0 -0.0042468464067176581 0.0014700884414627084 0 0.0043910975851229345 -5.0403053384672447e-05 0 0.0041824847870796586 0.00062876883935224909 0 0.0041454649439060347 3.2652558087957743e-05 0 0.00016264912956608885 0.0039259939065833327 0 0.0001689050826587976 0.0054815614408586077 0 0.0017843483506685242 0.0050754857089318631 0 0.0001689050826587976 0.0054815614408586077 0 0.0017843483506685242 0.0050754857089318631 0 0.0013038514248289673 0.0063500888864492389 0 0.00016264912956608885 0.0039259939065833327 0 0.0001689050826587976 0.0054815614408586077 0 -0.0013150259552264405 0.0059729334926727894 0 0.0043910975851229345 -5.0403053384672447e-05 0 0.0042830799701889582 0.0007593059610034392 0 0.0041824847870796586 0.00062876883935224909 0 -0.0042468464067176581 0.0014700884414627084 0 -0.0038486925211338413 0.0016952742276719983 0 0.0036776994046172295 0.0034100921973663906 0 0.0031787456915690904 0.0045835473437307091 0 0.004502378122987892 0.005031509302475594 0 0.0023230504435840294 0.0034031486198362946 0 0.0036776994046172295 0.0034100921973663906 0 0.0031787456915690904 0.0045835473437307091 0 0.0023230504435840294 0.0034031486198362946 0 0.00016264912956608885 0.0039259939065833327 0 0.0017843483506685242 0.0050754857089318631 0 0.0023230504435840294 0.0034031486198362946 0 0.0031787456915690904 0.0045835473437307091 0 0.0017843483506685242 0.0050754857089318631 0 0.0017843483506685242 0.0050754857089318631 0 0.0022916105325898532 0.0062538145247341085 0 0.0029788945626890652 0.0056118476644793488 0 0.0017843483506685242 0.0050754857089318631 0 0.0013038514248289673 0.0063500888864492389 0 0.0022916105325898532 0.0062538145247341085 0 0.0022916105325898532 0.0062538145247341085 0 0.0030355629488626966 0.0063414884487311288 0 0.0029788945626890652 0.0056118476644793488 0 0.0031787456915690904 0.0045835473437307091 0 0.0017843483506685242 0.0050754857089318631 0 0.0029788945626890652 0.0056118476644793488 0 0.0031787456915690904 0.0045835473437307091 0 0.0029788945626890652 0.0056118476644793488 0 0.0037455664465819737 0.0054729593395926486 0 0.0031787456915690904 0.0045835473437307091 0 0.0037455664465819737 0.0054729593395926486 0 0.004502378122987892 0.005031509302475594 0 0.0029788945626890652 0.0056118476644793488 0 0.0037455664465819737 0.0054729593395926486 0 0.0036901865050474065 0.0060553604541024875 0 0.0030355629488626966 0.0063414884487311288 0 0.0029788945626890652 0.0056118476644793488 0 0.0036901865050474065 0.0060553604541024875 0 0.0035879422659141473 0.0068164366048248321 0 0.0030355629488626966 0.0063414884487311288 0 0.0036901865050474065 0.0060553604541024875 0 0.0044327194993897378 0.0067408217550316762 0 0.0036901865050474065 0.0060553604541024875 0 0.0052048435913282266 0.0058637971553096996 0 -0.00017275988474093999 0.020165575156620548 0 -0.00053243457909831675 0.020463442529530092 0 0.0037455664465819737 0.0054729593395926486 0 0.0036901865050474065 0.0060553604541024875 0 0.004290099605382406 0.0060940586994517572 0 -0.00053243457909831675 0.020463442529530092 0 -0.0030769304700860923 0.022594486713381327 0 0.0055955354808657739 0.006792384645413623 0 0.0052048435913282266 0.0058637971553096996 0 0.0071701110194762633 0.0058806744024551662 0 -0.0033446130186635453 0.022993437862695136 0 -0.0018589533687822862 0.023049848868214613 0 -0.0029085358835085236 0.020811970628635362 0 -0.018863192787590244 0.041046339815334398 0 -0.019869279263359293 0.038915083921904389 0 -0.01730611416650607 0.039100738569029042 0 -0.0030769304700860923 0.022594486713381327 0 -0.0018594136009686373 0.019374764217302488 0 0.0037455664465819737 0.0054729593395926486 0 0.004290099605382406 0.0060940586994517572 0 0.004502378122987892 0.005031509302475594 0 -0.00053243457909831675 0.020463442529530092 0 -0.0018594136009686373 0.019374764217302488 0 -0.018863192787590244 0.041046339815334398 0 -0.01730611416650607 0.039100738569029042 0 -0.015039579658458648 0.041227771447835036 0 -0.0030769304700860923 0.022594486713381327 0 -0.0083747285859615411 0.029716714487192552 0 -0.01730611416650607 0.039100738569029042 0 -0.016333685797414864 0.037193443089753496 0 -0.015045165770986212 0.038816641289691846 0 -0.01730611416650607 0.039100738569029042 0 -0.017997033369193102 0.037018366586508582 0 -0.016333685797414864 0.037193443089753496 0 -0.019869279263359293 0.038915083921904389 0 -0.01730611416650607 0.039100738569029042 0 -0.017997033369193102 0.037018366586508582 0 -0.017997033369193102 0.037018366586508582 0 -0.016333685797414864 0.037193443089753496 0 -0.017033427054397532 0.035213422027384596 0 0.0036776994046172295 0.0034100921973663906 0 0.0043894669293270709 0.0049890828744804947 0 0.004787014463028887 0.0026159836600832716 0 -0.019869279263359293 0.038915083921904389 0 -0.017997033369193102 0.037018366586508582 0 -0.019046650017185987 0.034327625267889586 0 -0.0025065559911642814 0.013927891257244092 0 -0.0018594136009686373 0.019374764217302488 0 -0.0018594136009686373 0.019374764217302488 0 -0.0037399502446087596 0.017771605624431964 0 0.003699179113075054 0.0020582726049978794 0 0.0036776994046172295 0.0034100921973663906 0 0.004787014463028887 0.0026159836600832716 0 -0.017997033369193102 0.037018366586508582 0 -0.019046650017185987 0.034327625267889586 0 -0.017033427054397532 0.035213422027384596 0 -0.016333685797414864 0.037193443089753496 0 -0.017033427054397532 0.035213422027384596 0 -0.015051172218210186 0.034805628758812227 0 -0.017033427054397532 0.035213422027384596 0 -0.016721380174377128 0.03269458217312235 0 -0.015051172218210186 0.034805628758812227 0 -0.019046650017185987 0.034327625267889586 0 -0.017033427054397532 0.035213422027384596 0 -0.016721380174377128 0.03269458217312235 0 -0.018327893700404971 0.029606109324145511 0 -0.019046650017185987 0.034327625267889586 0 -0.016721380174377128 0.03269458217312235 0 -0.0022911211234979863 0.010945881338042335 0 -0.0037399502446087596 0.017771605624431964 0 0.0051492837912519782 0.00042863142843165296 0 0.003699179113075054 0.0020582726049978794 0 0.004787014463028887 0.0026159836600832716 0 -0.0022911211234979863 0.010945881338042335 0 0.0023359905331824925 0.0050489760968796373 0 0.0035548805074033813 0.0012857514731125052 0 0.0034674431373520843 0.0010509389315559922 0 0.003699179113075054 0.0020582726049978794 0 -0.013066816934210712 0.033473691896741285 0 -0.011942632401326626 0.031327048973952651 0 -0.010939445649973668 0.034198254431449818 0 -0.011942632401326626 0.031327048973952651 0 -0.010939445649973668 0.034198254431449818 0 -0.0092560806180962702 0.032911946873937149 0 -0.013066816934210712 0.033473691896741285 0 -0.011942632401326626 0.031327048973952651 0 -0.014544113151089959 0.032034450669225244 0 -0.016721380174377128 0.03269458217312235 0 -0.014544113151089959 0.032034450669225244 0 -0.015051172218210186 0.034805628758812227 0 -0.013066816934210712 0.033473691896741285 0 -0.014544113151089959 0.032034450669225244 0 -0.015051172218210186 0.034805628758812227 0 -0.016205700224791737 0.030220961486211815 0 -0.016721380174377128 0.03269458217312235 0 -0.014544113151089959 0.032034450669225244 0 -0.013066816934210712 0.033473691896741285 0 -0.015051172218210186 0.034805628758812227 0 -0.012651099459427219 0.0352963011864579 0 -0.015051172218210186 0.034805628758812227 0 -0.012651099459427219 0.0352963011864579 0 -0.013597783849127701 0.037194058515076518 0 -0.013066816934210712 0.033473691896741285 0 -0.012651099459427219 0.0352963011864579 0 -0.010939445649973668 0.034198254431449818 0 -0.012651099459427219 0.0352963011864579 0 -0.010939445649973668 0.034198254431449818 0 -0.011055322432626273 0.036385904248398535 0 -0.011055322432626273 0.036385904248398535 0 -0.011437927564410528 0.038228033317456542 0 -0.013597783849127701 0.037194058515076518 0 -0.012651099459427219 0.0352963011864579 0 -0.011055322432626273 0.036385904248398535 0 -0.013597783849127701 0.037194058515076518 0 -0.011437927564410528 0.038228033317456542 0 -0.013597783849127701 0.037194058515076518 0 -0.012934102036192514 0.039370919777685177 0 -0.016333685797414864 0.037193443089753496 0 -0.013597783849127701 0.037194058515076518 0 -0.015045165770986212 0.038816641289691846 0 -0.016333685797414864 0.037193443089753496 0 -0.015051172218210186 0.034805628758812227 0 -0.013597783849127701 0.037194058515076518 0 -0.013597783849127701 0.037194058515076518 0 -0.015045165770986212 0.038816641289691846 0 -0.012934102036192514 0.039370919777685177 0 -0.0083747285859615411 0.029716714487192552 0 -0.0084550455816571907 0.032744188980512977 0 -0.014932160186881011 0.041179565640272336 0 -0.012934102036192514 0.039370919777685177 0 -0.012105179228421052 0.041317974110539252 0 -0.01730611416650607 0.039100738569029042 0 -0.015045165770986212 0.038816641289691846 0 -0.015039579658458648 0.041227771447835036 0 -0.015045165770986212 0.038816641289691846 0 -0.015039579658458648 0.041227771447835036 0 -0.012934102036192514 0.039370919777685177 0 -0.0083747285859615411 0.029716714487192552 0 -0.01081119012979119 0.032485306414984982 0 -0.0084550455816571907 0.032744188980512977 0 -0.0085271088631612563 0.034890709750479122 0 -0.010852023556106994 0.039778554882273304 0 -0.012105179228421052 0.041317974110539252 0 -0.0092008236957985302 0.041440803823966366 0 -0.011437927564410528 0.038228033317456542 0 -0.010852023556106994 0.039778554882273304 0 -0.012934102036192514 0.039370919777685177 0 -0.010852023556106994 0.039778554882273304 0 -0.012934102036192514 0.039370919777685177 0 -0.012105179228421052 0.041317974110539252 0 -0.011437927564410528 0.038228033317456542 0 -0.010852023556106994 0.039778554882273304 0 -0.0083536782039105462 0.038669344537333547 0 -0.010852023556106994 0.039778554882273304 0 -0.0092008236957985302 0.041440803823966366 0 -0.0083536782039105462 0.038669344537333547 0 -0.0085271088631612563 0.034890709750479122 0 -0.0085625558555794453 0.036219560313082967 0 -0.0077723197462054401 0.037697578075264811 0 -0.0075698477859768853 0.036745552086085299 0 -0.0072308630672198457 0.037343867983455535 0 -0.0073436671156079736 0.037719807153130877 0 -0.0077723197462054401 0.037697578075264811 0 -0.0072308630672198457 0.037343867983455535 0 -0.0084385201346363539 0.034949203819083535 0 -0.0085271088631612563 0.034890709750479122 0 -0.0085625558555794453 0.036219560313082967 0 -0.0084483833948661123 0.036200213858401484 0 -0.0083536782039105462 0.038669344537333547 0 -0.0092536269321936739 0.035372355398620957 0 -0.0074696572760638708 0.035782474477939037 0 -0.011055322432626273 0.036385904248398535 0 -0.011437927564410528 0.038228033317456542 0 -0.0083536782039105462 0.038669344537333547 0 -0.011055322432626273 0.036385904248398535 0 -0.0083536782039105462 0.038669344537333547 0 -0.0092536269321936739 0.035372355398620957 0 -0.0075698477859768853 0.036745552086085299 0 -0.006533980103553101 0.036258347154516674 0 -0.0066895014767776395 0.037107844573149577 0 -0.0075698477859768853 0.036745552086085299 0 -0.006533980103553101 0.036258347154516674 0 -0.0074696572760638708 0.035782474477939037 0 -0.0075698477859768853 0.036745552086085299 0 -0.0066895014767776395 0.037107844573149577 0 -0.0072308630672198457 0.037343867983455535 0 -0.0068203819933687548 0.037705094171126399 0 -0.0073436671156079736 0.037719807153130877 0 -0.0072308630672198457 0.037343867983455535 0 -0.006241787750946708 0.037849550275175267 0 -0.0068203819933687548 0.037705094171126399 0 -0.0066895014767776395 0.037107844573149577 0 -0.0068203819933687548 0.037705094171126399 0 -0.0066895014767776395 0.037107844573149577 0 -0.0072308630672198457 0.037343867983455535 0 -0.006241787750946708 0.037849550275175267 0 -0.0054796640160181169 0.03744369352647809 0 -0.0057270609857776088 0.036664641463273515 0 -0.006241787750946708 0.037849550275175267 0 -0.0066895014767776395 0.037107844573149577 0 -0.0057270609857776088 0.036664641463273515 0 -0.0048717493086038776 0.037903976294804381 0 -0.0054796640160181169 0.03744369352647809 0 -0.0048284984964779148 0.036564543881207313 0 -0.0054796640160181169 0.03744369352647809 0 -0.0048284984964779148 0.036564543881207313 0 -0.0057270609857776088 0.036664641463273515 0 -0.0049194721834914844 0.035876088499513556 0 -0.0057270609857776088 0.036664641463273515 0 -0.0053058348747440365 0.035431647507132347 0 -0.0048284984964779148 0.036564543881207313 0 -0.0049194721834914844 0.035876088499513556 0 -0.0057270609857776088 0.036664641463273515 0 -0.006533980103553101 0.036258347154516674 0 -0.0066895014767776395 0.037107844573149577 0 -0.0057270609857776088 0.036664641463273515 0 -0.006533980103553101 0.036258347154516674 0 -0.0057270609857776088 0.036664641463273515 0 -0.0053058348747440365 0.035431647507132347 0 -0.006533980103553101 0.036258347154516674 0 -0.0053058348747440365 0.035431647507132347 0 -0.0059735805545104194 0.03489348699533458 0 -0.0053058348747440365 0.035431647507132347 0 -0.0052329039568445876 0.034764165212146113 0 -0.0059735805545104194 0.03489348699533458 0 -0.0052329039568445876 0.034764165212146113 0 -0.0059735805545104194 0.03489348699533458 0 -0.0052220701793255202 0.034091778098292995 0 -0.0053058348747440365 0.035431647507132347 0 -0.0045234519330190886 0.035274574240228874 0 -0.0047937723978169443 0.034646195928299456 0 -0.0049194721834914844 0.035876088499513556 0 -0.0053058348747440365 0.035431647507132347 0 -0.0045234519330190886 0.035274574240228874 0 -0.0053058348747440365 0.035431647507132347 0 -0.0052329039568445876 0.034764165212146113 0 -0.0047937723978169443 0.034646195928299456 0 -0.0045234519330190886 0.035274574240228874 0 -0.0047937723978169443 0.034646195928299456 0 -0.0042646824884106076 0.03473523497366604 0 -0.0047937723978169443 0.034646195928299456 0 -0.0044861185832588083 0.03438748444628386 0 -0.0042646824884106076 0.03473523497366604 0 -0.0047937723978169443 0.034646195928299456 0 -0.0048300326046931659 0.034235168363529474 0 -0.0052220701793255202 0.034091778098292995 0 -0.0047937723978169443 0.034646195928299456 0 -0.0048300326046931659 0.034235168363529474 0 -0.0044861185832588083 0.03438748444628386 0 -0.0052220701793255202 0.034091778098292995 0 -0.0058460489302163895 0.033420742032338142 0 -0.0048913397029825313 0.032084247421004505 0 -0.0059735805545104194 0.03489348699533458 0 -0.0052220701793255202 0.034091778098292995 0 -0.0058460489302163895 0.033420742032338142 0 -0.0052329039568445876 0.034764165212146113 0 -0.0047937723978169443 0.034646195928299456 0 -0.0052220701793255202 0.034091778098292995 0 -0.0059735805545104194 0.03489348699533458 0 -0.0058460489302163895 0.033420742032338142 0 -0.0073863482683775598 0.034162443155329861 0 -0.0058460489302163895 0.033420742032338142 0 -0.007544902377470802 0.032204508496081218 0 -0.0073863482683775598 0.034162443155329861 0 -0.0058460489302163895 0.033420742032338142 0 -0.007544902377470802 0.032204508496081218 0 -0.0066468050755524649 0.030049180999938079 0 -0.007544902377470802 0.032204508496081218 0 -0.0092560806180962702 0.032911946873937149 0 -0.0091248565864834198 0.0299945236938103 0 -0.011942632401326626 0.031327048973952651 0 -0.0092560806180962702 0.032911946873937149 0 -0.0091248565864834198 0.0299945236938103 0 -0.007544902377470802 0.032204508496081218 0 -0.0092560806180962702 0.032911946873937149 0 -0.0073863482683775598 0.034162443155329861 0 -0.010939445649973668 0.034198254431449818 0 -0.0092560806180962702 0.032911946873937149 0 -0.0092536269321936739 0.035372355398620957 0 -0.0092560806180962702 0.032911946873937149 0 -0.0092536269321936739 0.035372355398620957 0 -0.0073863482683775598 0.034162443155329861 0 -0.010939445649973668 0.034198254431449818 0 -0.011055322432626273 0.036385904248398535 0 -0.0092536269321936739 0.035372355398620957 0 -0.0092536269321936739 0.035372355398620957 0 -0.0074696572760638708 0.035782474477939037 0 -0.0073863482683775598 0.034162443155329861 0 -0.006533980103553101 0.036258347154516674 0 -0.0059735805545104194 0.03489348699533458 0 -0.0074696572760638708 0.035782474477939037 0 -0.0059735805545104194 0.03489348699533458 0 -0.0074696572760638708 0.035782474477939037 0 -0.0073863482683775598 0.034162443155329861 0 0.0052445124438516696 0.044641654829969631 0 0.004871115974749908 0.045688453617431277 0 0.0038042065984395636 0.044708048375308111 0 -0.0022031568660891556 0.036274111700678256 0 -0.0027714785535417606 0.036017652831219188 0 -0.0027691718856835872 0.035390129358185807 0 0.0020038176813881492 0.039997215693701835 0 0.00068474537556738964 0.039429746555148908 0 0.0013298074868336373 0.04046642248383113 0 0.0014252763027352052 0.040272792832478047 0 0.0011405351784821514 0.040353147707679109 0 -0.0022031568660891556 0.036274111700678256 0 -0.0031438432427350251 0.036557437031007431 0 -0.0027714785535417606 0.036017652831219188 0 0.0020038176813881492 0.039997215693701835 0 -0.0020170513841977376 0.038412929167437576 0 -0.0020170513841977376 0.038412929167437576 0 -0.0028905820464648077 0.038226185530892069 0 -0.0020170513841977376 0.038412929167437576 0 -0.0029766721793166406 0.036136978577481563 0 -0.0031438432427350251 0.036557437031007431 0 -0.0027714785535417606 0.036017652831219188 0 -0.0034781234995777005 0.035570163752042479 0 -0.0027714785535417606 0.036017652831219188 0 -0.0034781234995777005 0.035570163752042479 0 -0.0027691718856835872 0.035390129358185807 0 -0.0026883859481238396 0.037085898337665742 0 -0.0031712932925679889 0.035744467671383173 0 -0.0037958589579810734 0.036475728568274017 0 -0.0031712932925679889 0.035744467671383173 0 -0.0037958589579810734 0.036475728568274017 0 -0.0041615688881523607 0.035862951152056434 0 -0.0048717493086038776 0.037903976294804381 0 -0.0037958589579810734 0.036475728568274017 0 -0.0030178881318484599 0.03745656874462968 0 -0.0026883859481238396 0.037085898337665742 0 -0.0037958589579810734 0.036475728568274017 0 -0.0031870878852332599 0.037230339442537175 0 -0.0032329209281643603 0.037727360447258121 0 -0.0028905820464648077 0.038226185530892069 0 -0.0048717493086038776 0.037903976294804381 0 -0.0048284984964779148 0.036564543881207313 0 -0.0037958589579810734 0.036475728568274017 0 -0.0048284984964779148 0.036564543881207313 0 -0.0037958589579810734 0.036475728568274017 0 -0.0041615688881523607 0.035862951152056434 0 -0.0049194721834914844 0.035876088499513556 0 -0.0045234519330190886 0.035274574240228874 0 -0.0041615688881523607 0.035862951152056434 0 -0.0048284984964779148 0.036564543881207313 0 -0.0049194721834914844 0.035876088499513556 0 -0.0041615688881523607 0.035862951152056434 0 -0.0045234519330190886 0.035274574240228874 0 -0.0041615688881523607 0.035862951152056434 0 -0.0039651727521295126 0.035232286588510166 0 -0.0045234519330190886 0.035274574240228874 0 -0.0039651727521295126 0.035232286588510166 0 -0.0042646824884106076 0.03473523497366604 0 -0.0044861185832588083 0.03438748444628386 0 -0.0042646824884106076 0.03473523497366604 0 -0.0041020982535101315 0.034412043360500265 0 -0.0042646824884106076 0.03473523497366604 0 -0.0041020982535101315 0.034412043360500265 0 -0.003751979175619943 0.034637222265714127 0 -0.0039651727521295126 0.035232286588510166 0 -0.0042646824884106076 0.03473523497366604 0 -0.003751979175619943 0.034637222265714127 0 -0.0029766721793166406 0.036136978577481563 0 -0.003278351085043321 0.035421452168871319 0 -0.0034781234995777005 0.035570163752042479 0 -0.003751979175619943 0.034637222265714127 0 -0.0033429927731382712 0.034558079968488739 0 -0.0031712932925679889 0.035744467671383173 0 -0.0041615688881523607 0.035862951152056434 0 -0.0039651727521295126 0.035232286588510166 0 -0.0031712932925679889 0.035744467671383173 0 -0.0039651727521295126 0.035232286588510166 0 -0.003751979175619943 0.034637222265714127 0 -0.00070080850168887775 0.038167296803164004 0 0.00068474537556738964 0.039429746555148908 0 -0.0034781234995777005 0.035570163752042479 0 -0.0033429927731382712 0.034558079968488739 0 -0.0027691718856835872 0.035390129358185807 0 0.0015990448396960189 0.042914137238982887 0 0.004688629710872136 0.043251756977908354 0 0.0038042065984395636 0.044708048375308111 0 0.0015990448396960189 0.042914137238982887 0 0.004688629710872136 0.043251756977908354 0 0.0032373299955807131 0.041616636340091828 0 0.0052445124438516696 0.044641654829969631 0 0.004688629710872136 0.043251756977908354 0 0.0038042065984395636 0.044708048375308111 0 0.0058697689801017194 0.036652595309232393 0 0.0037648116388772049 0.036812451734372087 0 0.0052215922772738486 0.039326975016279957 0 0.0037648116388772049 0.036812451734372087 0 0.0033730741537491729 0.039399327696142294 0 0.0052215922772738486 0.039326975016279957 0 0.0033730741537491729 0.039399327696142294 0 0.0052215922772738486 0.039326975016279957 0 0.0047482228934362441 0.041670517733995417 0 0.006654780563822682 0.042711900376474841 0 0.004688629710872136 0.043251756977908354 0 0.0047482228934362441 0.041670517733995417 0 0.004688629710872136 0.043251756977908354 0 0.0047482228934362441 0.041670517733995417 0 0.0032373299955807131 0.041616636340091828 0 0.0033730741537491729 0.039399327696142294 0 0.0047482228934362441 0.041670517733995417 0 0.0032373299955807131 0.041616636340091828 0 0.0033730741537491729 0.039399327696142294 0 0.0032373299955807131 0.041616636340091828 0 0.0017133301143742782 0.040119836619270696 0 0.0015990448396960189 0.042914137238982887 0 0.0032373299955807131 0.041616636340091828 0 0.0017133301143742782 0.040119836619270696 0 0.0033730741537491729 0.039399327696142294 0 0.0017133301143742782 0.040119836619270696 0 0.0015663764671776522 0.037253213213912284 0 0.0037648116388772049 0.036812451734372087 0 0.0033730741537491729 0.039399327696142294 0 0.0015663764671776522 0.037253213213912284 0 0.0017133301143742782 0.040119836619270696 0 0.0015663764671776522 0.037253213213912284 0 -0.001363593435036811 0.039027721876736358 0 0.0015663764671776522 0.037253213213912284 0 -0.001363593435036811 0.039027721876736358 0 -0.00035339122232730619 0.034420357467262651 0 -0.001363593435036811 0.039027721876736358 0 -0.0037421934281351458 0.033807206508025114 0 -0.00035339122232730619 0.034420357467262651 0 0.0015990448396960189 0.042914137238982887 0 0.0017133301143742782 0.040119836619270696 0 -0.001363593435036811 0.039027721876736358 0 -0.0041020982535101315 0.034412043360500265 0 -0.003751979175619943 0.034637222265714127 0 -0.0038640104920220821 0.034085792776668948 0 -0.003751979175619943 0.034637222265714127 0 -0.0033429927731382712 0.034558079968488739 0 -0.0038640104920220821 0.034085792776668948 0 -0.00070080850168887775 0.038167296803164004 0 -0.0020505792220649674 0.036486886364307677 0 -0.0038640104920220821 0.034085792776668948 0 -0.0042773025338830612 0.034241739937133163 0 -0.0041860763721613533 0.034118692394959793 0 -0.0041020982535101315 0.034412043360500265 0 -0.0038640104920220821 0.034085792776668948 0 -0.0042773025338830612 0.034241739937133163 0 -0.0044861185832588083 0.03438748444628386 0 -0.0041020982535101315 0.034412043360500265 0 -0.0042773025338830612 0.034241739937133163 0 -0.0038640104920220821 0.034085792776668948 0 -0.0041860763721613533 0.034118692394959793 0 -0.0037421934281351458 0.033807206508025114 0 -0.0020505792220649674 0.036486886364307677 0 -0.0027746753693551032 0.035393793399865509 0 -0.0041860763721613533 0.034118692394959793 0 -0.0037421934281351458 0.033807206508025114 0 -0.0049077835066130247 0.033231864176785551 0 -0.0037421934281351458 0.033807206508025114 0 -0.0017517377117411352 0.032709875711192909 0 -0.00035339122232730619 0.034420357467262651 0 -0.0037421934281351458 0.033807206508025114 0 -0.0029362443156870617 0.031822924576654477 0 -0.0017517377117411352 0.032709875711192909 0 -0.0037421934281351458 0.033807206508025114 0 -0.0029362443156870617 0.031822924576654477 0 -0.0049077835066130247 0.033231864176785551 0 -0.0029362443156870617 0.031822924576654477 0 -0.0049077835066130247 0.033231864176785551 0 -0.003440414675396495 0.027947502502480008 0 -0.0029362443156870617 0.031822924576654477 0 -0.0006412563051983284 0.030961714207748126 0 -0.003440414675396495 0.027947502502480008 0 -0.0029362443156870617 0.031822924576654477 0 -0.0006412563051983284 0.030961714207748126 0 -0.0017517377117411352 0.032709875711192909 0 -0.0006412563051983284 0.030961714207748126 0 0.00066938313343427444 0.032553382400339788 0 -0.0017517377117411352 0.032709875711192909 0 -0.0006412563051983284 0.030961714207748126 0 0.00066938313343427444 0.032553382400339788 0 0.0021731013298597625 0.030495231520937274 0 0.00066938313343427444 0.032553382400339788 0 -0.0017517377117411352 0.032709875711192909 0 -0.00035339122232730619 0.034420357467262651 0 0.0037648116388772049 0.036812451734372087 0 0.0015663764671776522 0.037253213213912284 0 0.0023767548620912062 0.033920165309869896 0 0.00066938313343427444 0.032553382400339788 0 -0.00035339122232730619 0.034420357467262651 0 0.0023767548620912062 0.033920165309869896 0 0.0015663764671776522 0.037253213213912284 0 -0.00035339122232730619 0.034420357467262651 0 0.0023767548620912062 0.033920165309869896 0 0.00066938313343427444 0.032553382400339788 0 0.0023767548620912062 0.033920165309869896 0 0.0021731013298597625 0.030495231520937274 0 0.0023767548620912062 0.033920165309869896 0 0.0021731013298597625 0.030495231520937274 0 0.0039845072048901144 0.031993932929914926 0 0.0021731013298597625 0.030495231520937274 0 0.0039845072048901144 0.031993932929914926 0 0.0043997549874758282 0.030112059672250481 0 0.0039845072048901144 0.031993932929914926 0 0.0060593133915967066 0.030983112772961945 0 0.0043997549874758282 0.030112059672250481 0 0.0039845072048901144 0.031993932929914926 0 0.0060593133915967066 0.030983112772961945 0 0.0058516407441098267 0.032865709243146857 0 0.0039845072048901144 0.031993932929914926 0 0.0058516407441098267 0.032865709243146857 0 0.0046363658278872812 0.034472497423305909 0 0.0065585245523186982 0.03493652845059083 0 0.0058516407441098267 0.032865709243146857 0 0.0046363658278872812 0.034472497423305909 0 0.0023767548620912062 0.033920165309869896 0 0.0039845072048901144 0.031993932929914926 0 0.0046363658278872812 0.034472497423305909 0 0.0037648116388772049 0.036812451734372087 0 0.0023767548620912062 0.033920165309869896 0 0.0046363658278872812 0.034472497423305909 0 0.0058697689801017194 0.036652595309232393 0 0.0037648116388772049 0.036812451734372087 0 0.0046363658278872812 0.034472497423305909 0 0.0058697689801017194 0.036652595309232393 0 0.0065585245523186982 0.03493652845059083 0 0.0046363658278872812 0.034472497423305909 0 -0.0069392715270040848 0.027136010712336619 0 -0.0066468050755524649 0.030049180999938079 0 -0.0038457122578244942 0.02718471530082342 0 -0.0069392715270040848 0.027136010712336619 0 -0.0038457122578244942 0.02718471530082342 0 -0.0056952435225203586 0.02403922572829937 0 -0.0069392715270040848 0.027136010712336619 0 -0.0056952435225203586 0.02403922572829937 0 -0.0083052261625790966 0.024507141776354179 0 -0.0069392715270040848 0.027136010712336619 0 -0.0094285665617038512 0.026971744080094676 0 -0.0083052261625790966 0.024507141776354179 0 -0.010932982811664972 0.023750380487127701 0 -0.0094285665617038512 0.026971744080094676 0 -0.0083052261625790966 0.024507141776354179 0 -0.0069392715270040848 0.027136010712336619 0 -0.0094285665617038512 0.026971744080094676 0 -0.0091248565864834198 0.0299945236938103 0 -0.012306878894558901 0.02855355991131352 0 -0.0094285665617038512 0.026971744080094676 0 -0.0091248565864834198 0.0299945236938103 0 -0.007544902377470802 0.032204508496081218 0 -0.0091248565864834198 0.0299945236938103 0 -0.0066468050755524649 0.030049180999938079 0 -0.0058460489302163895 0.033420742032338142 0 -0.0066468050755524649 0.030049180999938079 0 -0.0038457122578244942 0.02718471530082342 0 -0.0069392715270040848 0.027136010712336619 0 -0.0091248565864834198 0.0299945236938103 0 -0.0066468050755524649 0.030049180999938079 0 -0.0051835305551834344 0.030968101829949374 0 -0.0048839864844706267 0.028833573151280382 0 -0.0058460489302163895 0.033420742032338142 0 -0.0048913397029825313 0.032084247421004505 0 -0.0057961180491873602 0.031773416622724655 0 -0.0050303422669011645 0.033632400126887799 0 -0.0048271401248035674 0.032902167678471185 0 -0.0048300326046931659 0.034235168363529474 0 -0.0052220701793255202 0.034091778098292995 0 -0.0047006466897916042 0.034186171154859217 0 -0.0048300326046931659 0.034235168363529474 0 -0.0045484911562934972 0.034224312975627079 0 -0.0047006466897916042 0.034186171154859217 0 -0.0041860763721613533 0.034118692394959793 0 -0.0045484911562934972 0.034224312975627079 0 -0.0047006466897916042 0.034186171154859217 0 -0.0048300326046931659 0.034235168363529474 0 -0.0044861185832588083 0.03438748444628386 0 -0.0045484911562934972 0.034224312975627079 0 -0.0044861185832588083 0.03438748444628386 0 -0.0042773025338830612 0.034241739937133163 0 -0.0045484911562934972 0.034224312975627079 0 -0.0042773025338830612 0.034241739937133163 0 -0.0041860763721613533 0.034118692394959793 0 -0.0045484911562934972 0.034224312975627079 0 -0.0048913397029825313 0.032084247421004505 0 -0.0051848553625839658 0.031023780534998605 0 -0.0043369144878134935 0.030260548624064736 0 -0.0041860763721613533 0.034118692394959793 0 -0.0047006466897916042 0.034186171154859217 0 -0.0049077835066130247 0.033231864176785551 0 -0.0048271401248035674 0.032902167678471185 0 -0.0044099203968691525 0.031293651836230965 0 -0.0048913397029825313 0.032084247421004505 0 -0.0057961180491873602 0.031773416622724655 0 -0.0051848553625839658 0.031023780534998605 0 -0.0057961180491873602 0.031773416622724655 0 -0.0051848553625839658 0.031023780534998605 0 -0.0058929363441110423 0.029807964459077376 0 -0.0051848553625839658 0.031023780534998605 0 -0.0043369144878134935 0.030260548624064736 0 -0.0058929363441110423 0.029807964459077376 0 -0.0048839864844706267 0.028833573151280382 0 -0.0044357706878755754 0.024939494797404566 0 -0.0043369144878134935 0.030260548624064736 0 -0.0048073272474998385 0.028826995742078469 0 -0.003440414675396495 0.027947502502480008 0 -0.0044099203968691525 0.031293651836230965 0 -0.0039947059316760725 0.029778072821194879 0 -0.0043369144878134935 0.030260548624064736 0 -0.0048073272474998385 0.028826995742078469 0 -0.0058929363441110423 0.029807964459077376 0 -0.0026714603769195412 0.020621080785371605 0 -0.0077975447014950105 0.02010293477625711 0 -0.0048622754709892694 0.017300758996572581 0 -0.0026714603769195412 0.020621080785371605 0 -0.0056952435225203586 0.02403922572829937 0 -0.0077975447014950105 0.02010293477625711 0 -0.0056952435225203586 0.02403922572829937 0 -0.0083052261625790966 0.024507141776354179 0 -0.0077975447014950105 0.02010293477625711 0 -0.0038457122578244942 0.02718471530082342 0 -0.0026714603769195412 0.020621080785371605 0 -0.0056952435225203586 0.02403922572829937 0 -0.010932982811664972 0.023750380487127701 0 -0.0083052261625790966 0.024507141776354179 0 -0.0077975447014950105 0.02010293477625711 0 -0.010932982811664972 0.023750380487127701 0 -0.012044671581108779 0.020755535858011192 0 -0.0077975447014950105 0.02010293477625711 0 -0.012044671581108779 0.020755535858011192 0 -0.0077975447014950105 0.02010293477625711 0 -0.0077389287069108085 0.015507544041230954 0 -0.0055397222337498098 0.01274132005249258 0 -0.0047537644679086118 0.011929925643399791 0 -0.00057018295384610857 0.0044356164795422478 0 -0.002353320290105352 0.008156118840014966 0 -0.00074366292706113735 0.0071748694277387753 0 -0.002353320290105352 0.008156118840014966 0 -0.0010515092867140346 0.0090833105549504422 0 -0.00074366292706113735 0.0071748694277387753 0 -0.002353320290105352 0.008156118840014966 0 -0.0010515092867140346 0.0090833105549504422 0 -0.0017998526559318538 0.010542047921711501 0 -0.0010515092867140346 0.0090833105549504422 0 -0.0017998526559318538 0.010542047921711501 0 -0.00073545392793066759 0.010430672165425261 0 -0.0047537644679086118 0.011929925643399791 0 -0.0041929696117511241 0.011532173713550538 0 -0.002353320290105352 0.008156118840014966 0 -0.0017998526559318538 0.010542047921711501 0 -0.0031477501203418835 0.011679197065179213 0 -0.0077389287069108085 0.015507544041230954 0 -0.0020585695096257727 0.013632629888477157 0 -0.0031477501203418835 0.011679197065179213 0 -0.0077975447014950105 0.02010293477625711 0 -0.0077389287069108085 0.015507544041230954 0 -0.0048622754709892694 0.017300758996572581 0 -0.0077389287069108085 0.015507544041230954 0 -0.0048622754709892694 0.017300758996572581 0 -0.0020585695096257727 0.013632629888477157 0 -0.0044357706878755754 0.024939494797404566 0 -0.0040666415699899174 0.020897574093335002 0 -0.0026714603769195412 0.020621080785371605 0 -0.0048622754709892694 0.017300758996572581 0 -0.0020585695096257727 0.013632629888477157 0 -0.0048073272474998385 0.028826995742078469 0 -0.0058929363441110423 0.029807964459077376 0 -0.0060022750569171755 0.026840141479283128 0 -0.0048073272474998385 0.028826995742078469 0 -0.0060022750569171755 0.026840141479283128 0 -0.003440414675396495 0.027947502502480008 0 -0.0037957332587021716 0.024688777781188852 0 -0.0060022750569171755 0.026840141479283128 0 -0.003440414675396495 0.027947502502480008 0 -0.0020585695096257727 0.013632629888477157 0 -0.0031129115573961409 0.011587441775960557 0 -0.0031477501203418835 0.011679197065179213 0 -0.0037957332587021716 0.024688777781188852 0 -0.0060022750569171755 0.026840141479283128 0 -0.0053406116246070175 0.022283521440067126 0 -0.0031129115573961409 0.011587441775960557 0 -0.0031477501203418835 0.011679197065179213 0 -0.0022550672136483724 0.011722327671536303 0 -0.0040666415699899174 0.020897574093335002 0 -0.003769735581404286 0.018136450743604763 0 -0.0037957332587021716 0.024688777781188852 0 -0.0053406116246070175 0.022283521440067126 0 -0.0029303164971284986 0.021119344321958531 0 -0.0037957332587021716 0.024688777781188852 0 -0.0029303164971284986 0.021119344321958531 0 -0.001836158685147961 0.0223236046404626 0 -0.0053406116246070175 0.022283521440067126 0 -0.0029303164971284986 0.021119344321958531 0 -0.0024516332409301668 0.01677126900195448 0 -0.0029303164971284986 0.021119344321958531 0 -0.001836158685147961 0.0223236046404626 0 -0.0014594902202577657 0.019729787769534494 0 -0.003769735581404286 0.018136450743604763 0 -0.0035224777450708709 0.017340635384878848 0 -0.0031129115573961409 0.011587441775960557 0 -0.0019241022324453993 0.013926813908938256 0 -0.0014881721677831472 0.012729477489697551 0 -0.0031129115573961409 0.011587441775960557 0 -0.0019241022324453993 0.013926813908938256 0 -0.0024516332409301668 0.01677126900195448 0 -0.0019241022324453993 0.013926813908938256 0 -0.0014881721677831472 0.012729477489697551 0 -0.00084631921534612244 0.013818600764943753 0 -0.0014881721677831472 0.012729477489697551 0 -0.00036902812184183494 0.012618092751652042 0 -0.0011812441174016892 0.01173727738812648 0 -0.0014881721677831472 0.012729477489697551 0 -0.00036902812184183494 0.012618092751652042 0 -0.00084631921534612244 0.013818600764943753 0 -0.00036902812184183494 0.012618092751652042 0 -0.0011812441174016892 0.01173727738812648 0 -0.00036287491457005934 0.011489272815772483 0 -0.0011812441174016892 0.01173727738812648 0 -0.00036287491457005934 0.011489272815772483 0 -0.00073545392793066759 0.010430672165425261 0 -0.0017998526559318538 0.010542047921711501 0 -0.0011812441174016892 0.01173727738812648 0 -0.00073545392793066759 0.010430672165425261 0 -0.0017998526559318538 0.010542047921711501 0 -0.0011812441174016892 0.01173727738812648 0 -0.0022550672136483724 0.011722327671536303 0 -0.0031129115573961409 0.011587441775960557 0 -0.0014881721677831472 0.012729477489697551 0 -0.0022550672136483724 0.011722327671536303 0 -0.0017998526559318538 0.010542047921711501 0 -0.0031477501203418835 0.011679197065179213 0 -0.0022550672136483724 0.011722327671536303 0 -0.0014881721677831472 0.012729477489697551 0 -0.0011812441174016892 0.01173727738812648 0 -0.0022550672136483724 0.011722327671536303 0 0.0047521839605282655 0.027160642934417192 0 0.0027106291888587129 0.02515018781123584 0 0.005181581558500372 0.024251345269641768 0 0.0072304221607651939 0.029101138525576362 0 0.0047521839605282655 0.027160642934417192 0 0.005181581558500372 0.024251345269641768 0 0.0072304221607651939 0.029101138525576362 0 0.0047521839605282655 0.027160642934417192 0 0.0053107357265355154 0.029145837343569309 0 0.0060593133915967066 0.030983112772961945 0 0.0053107357265355154 0.029145837343569309 0 0.0043997549874758282 0.030112059672250481 0 0.0021731013298597625 0.030495231520937274 0 0.0043997549874758282 0.030112059672250481 0 0.004167948990512137 0.028460619188132218 0 0.0053107357265355154 0.029145837343569309 0 0.0043997549874758282 0.030112059672250481 0 0.004167948990512137 0.028460619188132218 0 0.0047521839605282655 0.027160642934417192 0 0.0053107357265355154 0.029145837343569309 0 0.004167948990512137 0.028460619188132218 0 0.0047521839605282655 0.027160642934417192 0 0.004167948990512137 0.028460619188132218 0 0.0025066405620474404 0.027694614141308381 0 0.0021731013298597625 0.030495231520937274 0 0.004167948990512137 0.028460619188132218 0 0.0025066405620474404 0.027694614141308381 0 0.0021731013298597625 0.030495231520937274 0 0.0025066405620474404 0.027694614141308381 0 0.0001230996114702185 0.028396803045610097 0 0.0025066405620474404 0.027694614141308381 0 0.0011587611086893747 0.026183573552087076 0 0.0001230996114702185 0.028396803045610097 0 0.0025066405620474404 0.027694614141308381 0 0.0011587611086893747 0.026183573552087076 0 0.0027106291888587129 0.02515018781123584 0 0.0047521839605282655 0.027160642934417192 0 0.0025066405620474404 0.027694614141308381 0 0.0027106291888587129 0.02515018781123584 0 0.0011587611086893747 0.026183573552087076 0 0.0027106291888587129 0.02515018781123584 0 0.00074892505524145865 0.023901091567667683 0 -0.00065448093715532983 0.026230382567991064 0 -0.0019206245105119525 0.024737892815313241 0 0.00074892505524145865 0.023901091567667683 0 0.0011587611086893747 0.026183573552087076 0 -0.00065448093715532983 0.026230382567991064 0 0.00074892505524145865 0.023901091567667683 0 0.0011587611086893747 0.026183573552087076 0 -0.00065448093715532983 0.026230382567991064 0 0.0001230996114702185 0.028396803045610097 0 -0.0006412563051983284 0.030961714207748126 0 0.0021731013298597625 0.030495231520937274 0 0.0001230996114702185 0.028396803045610097 0 -0.0006412563051983284 0.030961714207748126 0 0.0001230996114702185 0.028396803045610097 0 -0.003440414675396495 0.027947502502480008 0 -0.00065448093715532983 0.026230382567991064 0 0.0001230996114702185 0.028396803045610097 0 -0.003440414675396495 0.027947502502480008 0 -0.00065448093715532983 0.026230382567991064 0 -0.003440414675396495 0.027947502502480008 0 -0.0019206245105119525 0.024737892815313241 0 -0.0037957332587021716 0.024688777781188852 0 -0.003440414675396495 0.027947502502480008 0 -0.0019206245105119525 0.024737892815313241 0 -0.0019206245105119525 0.024737892815313241 0 -0.001836158685147961 0.0223236046404626 0 -0.00020487698222466946 0.021804290447389841 0 -0.0037957332587021716 0.024688777781188852 0 -0.0019206245105119525 0.024737892815313241 0 -0.001836158685147961 0.0223236046404626 0 -0.001836158685147961 0.0223236046404626 0 -0.00020487698222466946 0.021804290447389841 0 -0.0014594902202577657 0.019729787769534494 0 -0.00020487698222466946 0.021804290447389841 0 -7.7576211959677678e-05 0.019774261572145332 0 -0.0014594902202577657 0.019729787769534494 0 -0.00020487698222466946 0.021804290447389841 0 0.0011260223691446755 0.021141635317360241 0 -7.7576211959677678e-05 0.019774261572145332 0 -0.00020487698222466946 0.021804290447389841 0 0.00074892505524145865 0.023901091567667683 0 0.0011260223691446755 0.021141635317360241 0 -0.0019206245105119525 0.024737892815313241 0 -0.00020487698222466946 0.021804290447389841 0 0.00074892505524145865 0.023901091567667683 0 0.00074892505524145865 0.023901091567667683 0 0.0024715577783008544 0.022898153337932613 0 0.0011260223691446755 0.021141635317360241 0 0.0027106291888587129 0.02515018781123584 0 0.00074892505524145865 0.023901091567667683 0 0.0024715577783008544 0.022898153337932613 0 0.0011260223691446755 0.021141635317360241 0 0.0027814645614881697 0.020381747375101886 0 0.00069956452791423605 0.019629256853953714 0 0.0024715577783008544 0.022898153337932613 0 0.0011260223691446755 0.021141635317360241 0 0.0027814645614881697 0.020381747375101886 0 0.0013887198883753456 0.022507693465191721 0 0.0031106473714117466 0.023033659764427408 0 0.003356053533079066 0.025786320637045623 0 0.0022596194697907931 0.022292587033964056 0 0.0040663501220781963 0.025342951595133296 0 0.0024715577783008544 0.022898153337932613 0 0.0027814645614881697 0.020381747375101886 0 0.005181581558500372 0.024251345269641768 0 0.0043802481895506337 0.024756947418407858 0 0.0031106473714117466 0.023033659764427408 0 0.003356053533079066 0.025786320637045623 0 0.0027106291888587129 0.02515018781123584 0 0.0024715577783008544 0.022898153337932613 0 0.005181581558500372 0.024251345269641768 0 0.00066356645397312047 0.02935705121510071 0 -0.00044273084784124422 0.029031025086023673 0 0.00026784516907759059 0.026906997924213766 0 0.00032495120346952782 0.030194684668227976 0 0.00015254470770994922 0.028623855899487485 0 0.00016668693028342767 0.026655432471083249 0 -4.2508763500692621e-05 0.025085942328122807 0 0.00066356645397312047 0.02935705121510071 0 -3.746024046922698e-05 0.03195755857519831 0 -0.00044273084784124422 0.029031025086023673 0 0.0013887198883753456 0.022507693465191721 0 0.0031106473714117466 0.023033659764427408 0 0.0011477434167835988 0.021231047756012984 0 0.00067064935157403892 0.030031258585560956 0 0.00016668693028342767 0.026655432471083249 0 0.0022596194697907931 0.022292587033964056 0 0.0010374468927390377 0.020949012684484142 0 0.0027814645614881697 0.020381747375101886 0 0.00069956452791423605 0.019629256853953714 0 2.2460675906395769e-05 0.018825508968777521 0 0.0013887198883753456 0.022507693465191721 0 0.0011477434167835988 0.021231047756012984 0 5.7972872886302796e-05 0.020912433107557377 0 0.00069956452791423605 0.019629256853953714 0 2.2460675906395769e-05 0.018825508968777521 0 -1.3172382400868554e-05 0.018997247308022304 0 0.0011477434167835988 0.021231047756012984 0 5.7972872886302796e-05 0.020912433107557377 0 -0.00040200681104938553 0.021244662993017395 0 2.2460675906395769e-05 0.018825508968777521 0 -1.3172382400868554e-05 0.018997247308022304 0 8.066675801835661e-05 0.019731913502453961 0 -1.3172382400868554e-05 0.018997247308022304 0 -0.00028400867163516267 0.018932181764810145 0 8.066675801835661e-05 0.019731913502453961 0 0.00069956452791423605 0.019629256853953714 0 -1.3172382400868554e-05 0.018997247308022304 0 -7.7576211959677678e-05 0.019774261572145332 0 0.0011260223691446755 0.021141635317360241 0 0.00069956452791423605 0.019629256853953714 0 -7.7576211959677678e-05 0.019774261572145332 0 -1.3172382400868554e-05 0.018997247308022304 0 -7.7576211959677678e-05 0.019774261572145332 0 -0.0008161284053362104 0.018761866856547169 0 -7.7576211959677678e-05 0.019774261572145332 0 -0.0014594902202577657 0.019729787769534494 0 -0.0008161284053362104 0.018761866856547169 0 -1.3172382400868554e-05 0.018997247308022304 0 -0.0008161284053362104 0.018761866856547169 0 -0.00028400867163516267 0.018932181764810145 0 -0.0008161284053362104 0.018761866856547169 0 -0.00028400867163516267 0.018932181764810145 0 -0.0024516332409301668 0.01677126900195448 0 -0.00028400867163516267 0.018932181764810145 0 -5.0314204779730275e-05 0.020251896499208763 0 -0.00055124268825176707 0.018167071523437231 0 -0.00028400867163516267 0.018932181764810145 0 -5.0314204779730275e-05 0.020251896499208763 0 8.066675801835661e-05 0.019731913502453961 0 -5.0314204779730275e-05 0.020251896499208763 0 1.2003426047095444e-06 0.021386099999678498 0 -0.00055124268825176707 0.018167071523437231 0 -5.0314204779730275e-05 0.020251896499208763 0 1.2003426047095444e-06 0.021386099999678498 0 -3.215892449655254e-05 0.022341320788663108 0 1.2003426047095444e-06 0.021386099999678498 0 -3.215892449655254e-05 0.022341320788663108 0 -3.6649938167675415e-06 0.024358716402388916 0 -5.0314204779730275e-05 0.020251896499208763 0 -3.215892449655254e-05 0.022341320788663108 0 8.066675801835661e-05 0.019731913502453961 0 2.2460675906395769e-05 0.018825508968777521 0 -3.215892449655254e-05 0.022341320788663108 0 8.066675801835661e-05 0.019731913502453961 0 0.0010374468927390377 0.020949012684484142 0 0.00081049728799024014 0.021277077508981643 0 5.7972872886302796e-05 0.020912433107557377 0 -3.215892449655254e-05 0.022341320788663108 0 -0.00040200681104938553 0.021244662993017395 0 -0.00042868318817464727 0.026741083477595604 0 -2.1850461095935724e-06 0.024374275309550188 0 1.8303223955400897e-06 0.02630604856652817 0 -3.215892449655254e-05 0.022341320788663108 0 -0.00040200681104938553 0.021244662993017395 0 -3.6649938167675415e-06 0.024358716402388916 0 -4.2508763500692621e-05 0.025085942328122807 0 -2.7226091594509571e-07 0.024367235435961896 0 -1.9107876828654208e-07 0.026316682482916163 0 0.00015254470770994922 0.028623855899487485 0 0.00010561037481690454 0.030257589115560916 0 -3.7925180909222443e-06 0.026318842934761461 0 -0.00095019348231978014 0.030772808294993945 0 -0.00042868318817464727 0.026741083477595604 0 1.8303223955400897e-06 0.02630604856652817 0 0.00026784516907759059 0.026906997924213766 0 -0.00044273084784124422 0.029031025086023673 0 -0.00042868318817464727 0.026741083477595604 0 0.00026784516907759059 0.026906997924213766 0 -0.00048069552260158555 0.014771468392021328 0 -0.0024516332409301668 0.01677126900195448 0 -0.00048340793999060905 0.016305223043963663 0 -0.00048069552260158555 0.014771468392021328 0 1.9977013949441535e-05 0.013606690638970563 0 1.5422184871538236e-05 0.013188408860414983 0 -0.00048069552260158555 0.014771468392021328 0 -0.00084631921534612244 0.013818600764943753 0 1.5422184871538236e-05 0.013188408860414983 0 -0.00036902812184183494 0.012618092751652042 0 -0.00084631921534612244 0.013818600764943753 0 1.5422184871538236e-05 0.013188408860414983 0 -0.00048069552260158555 0.014771468392021328 0 -0.00084631921534612244 0.013818600764943753 0 -0.0024516332409301668 0.01677126900195448 0 -0.0019241022324453993 0.013926813908938256 0 -0.00084631921534612244 0.013818600764943753 0 -0.0024516332409301668 0.01677126900195448 0 -0.0029303164971284986 0.021119344321958531 0 -0.0014594902202577657 0.019729787769534494 0 -0.0024516332409301668 0.01677126900195448 0 -0.0014594902202577657 0.019729787769534494 0 -0.0008161284053362104 0.018761866856547169 0 -0.0024516332409301668 0.01677126900195448 0 -0.00028400867163516267 0.018932181764810145 0 -0.0024516332409301668 0.01677126900195448 0 -0.00055124268825176707 0.018167071523437231 0 -0.0024516332409301668 0.01677126900195448 0 -0.00055124268825176707 0.018167071523437231 0 -0.00048340793999060905 0.016305223043963663 0 1.2003426047095444e-06 0.021386099999678498 0 -0.00055124268825176707 0.018167071523437231 0 -9.0141694379206274e-07 0.018405575719051506 0 -0.00055124268825176707 0.018167071523437231 0 -9.0141694379206274e-07 0.018405575719051506 0 -0.00048340793999060905 0.016305223043963663 0 -9.0141694379206274e-07 0.018405575719051506 0 -0.00048340793999060905 0.016305223043963663 0 -1.1353361930412199e-07 0.015426698284233244 0 -0.00048069552260158555 0.014771468392021328 0 -0.00048340793999060905 0.016305223043963663 0 1.9977013949441535e-05 0.013606690638970563 0 -1.1353361930412199e-07 0.015426698284233244 0 3.2028597619253226e-07 0.012446918873027039 0 1.9977013949441535e-05 0.013606690638970563 0 -0.00048340793999060905 0.016305223043963663 0 -1.1353361930412199e-07 0.015426698284233244 0 1.9977013949441535e-05 0.013606690638970563 0 3.2028597619253226e-07 0.012446918873027039 0 0.0002456170558037922 0.011318352984598625 0 1.9977013949441535e-05 0.013606690638970563 0 3.2028597619253226e-07 0.012446918873027039 0 0.0002456170558037922 0.011318352984598625 0 7.2559156647126075e-07 0.0094677447206626738 0 0.0002456170558037922 0.011318352984598625 0 0.00065724019863039654 0.010464052265257109 0 7.4682329805049631e-05 0.01201869555841409 0 0.0002456170558037922 0.011318352984598625 0 1.9977013949441535e-05 0.013606690638970563 0 7.4682329805049631e-05 0.01201869555841409 0 7.2559156647126075e-07 0.0094677447206626738 0 0.00044899935268130848 0.0090639642818083552 0 9.6647107100283922e-07 0.0064875423101609852 0 0.0002456170558037922 0.011318352984598625 0 7.2559156647126075e-07 0.0094677447206626738 0 0.00044899935268130848 0.0090639642818083552 0 0.0002456170558037922 0.011318352984598625 0 0.00044899935268130848 0.0090639642818083552 0 0.00065724019863039654 0.010464052265257109 0 0.00044899935268130848 0.0090639642818083552 0 0.00060515921826829479 0.0098431679302034801 0 0.00065724019863039654 0.010464052265257109 0 0.0011339841820443789 0.0068006026686124616 0 0.0011612438649781769 0.0071184809211640261 0 0.00060515921826829479 0.0098431679302034801 0 0.00065724019863039654 0.010464052265257109 0 0.0013015210308383112 0.0086015536293331928 0 0.00065724019863039654 0.010464052265257109 0 0.0013015210308383112 0.0086015536293331928 0 7.4682329805049631e-05 0.01201869555841409 0 0.0013015210308383112 0.0086015536293331928 0 7.4682329805049631e-05 0.01201869555841409 0 0.000695921530466464 0.0079926583616228807 0 0.0013015210308383112 0.0086015536293331928 0 0.000695921530466464 0.0079926583616228807 0 0.001448649136599182 0.0077453715330068904 0 0.0013015210308383112 0.0086015536293331928 0 0.001448649136599182 0.0077453715330068904 0 0.0015440967351123818 0.0073614549884303132 0 0.0018533585033741623 0.0062321367570635899 0 0.0013015210308383112 0.0086015536293331928 0 0.0015440967351123818 0.0073614549884303132 0 1.9977013949441535e-05 0.013606690638970563 0 7.4682329805049631e-05 0.01201869555841409 0 1.5422184871538236e-05 0.013188408860414983 0 0.00075991781728041287 0.010505007540249108 0 0.0011720377195592478 0.0097709295150857078 0 7.4682329805049631e-05 0.01201869555841409 0 0.00035871761477087477 0.012529905224112353 0 0.00080709194099967587 0.012314599913662721 0 7.4682329805049631e-05 0.01201869555841409 0 0.00080709194099967587 0.012314599913662721 0 0.0013472980974817126 0.012439334312357189 0 -0.00036902812184183494 0.012618092751652042 0 1.5422184871538236e-05 0.013188408860414983 0 0.00035871761477087477 0.012529905224112353 0 7.4682329805049631e-05 0.01201869555841409 0 1.5422184871538236e-05 0.013188408860414983 0 0.00035871761477087477 0.012529905224112353 0 -0.00036902812184183494 0.012618092751652042 0 0.00035871761477087477 0.012529905224112353 0 0.00026869927702256549 0.011863795861167353 0 -0.00036902812184183494 0.012618092751652042 0 0.00026869927702256549 0.011863795861167353 0 -0.00036287491457005934 0.011489272815772483 0 0.00026869927702256549 0.011863795861167353 0 -0.00036287491457005934 0.011489272815772483 0 0.00022932230175768474 0.010694725977739248 0 -0.00036287491457005934 0.011489272815772483 0 0.00022932230175768474 0.010694725977739248 0 -0.00073545392793066759 0.010430672165425261 0 0.00022932230175768474 0.010694725977739248 0 0.0010023108984729408 0.011164339922699478 0 0.00098016909451721884 0.0095730805136452976 0 0.0010023108984729408 0.011164339922699478 0 0.0018567774953997562 0.010508538094378949 0 0.00098016909451721884 0.0095730805136452976 0 0.00026869927702256549 0.011863795861167353 0 0.00022932230175768474 0.010694725977739248 0 0.0010023108984729408 0.011164339922699478 0 0.0010023108984729408 0.011164339922699478 0 0.00080709194099967587 0.012314599913662721 0 0.0016593951995814919 0.011417286621774027 0 0.00026869927702256549 0.011863795861167353 0 0.0010023108984729408 0.011164339922699478 0 0.00080709194099967587 0.012314599913662721 0 0.00035871761477087477 0.012529905224112353 0 0.00026869927702256549 0.011863795861167353 0 0.00080709194099967587 0.012314599913662721 0 0.0013472980974817126 0.012439334312357189 0 0.0016593951995814919 0.011417286621774027 0 0.0034049399061245383 0.010631187795507421 0 0.0011720377195592478 0.0097709295150857078 0 0.0017283477174247154 0.008490865597721409 0 0.00080709194099967587 0.012314599913662721 0 0.0013472980974817126 0.012439334312357189 0 0.0016593951995814919 0.011417286621774027 0 0.001448649136599182 0.0077453715330068904 0 0.001438436162696086 0.0071903480484540837 0 0.0015128567204898567 0.0075923643179888296 0 0.000695921530466464 0.0079926583616228807 0 0.001448649136599182 0.0077453715330068904 0 0.001438436162696086 0.0071903480484540837 0 0.0016593951995814919 0.011417286621774027 0 0.0034049399061245383 0.010631187795507421 0 0.0018567774953997562 0.010508538094378949 0 0.0034049399061245383 0.010631187795507421 0 0.0018567774953997562 0.010508538094378949 0 0.0024306088989593418 0.0093829351292693142 0 0.0010023108984729408 0.011164339922699478 0 0.0016593951995814919 0.011417286621774027 0 0.0018567774953997562 0.010508538094378949 0 0.0018567774953997562 0.010508538094378949 0 0.0024306088989593418 0.0093829351292693142 0 0.00098016909451721884 0.0095730805136452976 0 0.0024306088989593418 0.0093829351292693142 0 0.0011020872717753102 0.0076421480735770625 0 0.00098016909451721884 0.0095730805136452976 0 0.0016805000280246489 0.0083795002751863266 0 0.0014939498079368442 0.0081767874013838875 0 0.0020906404513884647 0.0079892031375739542 0 0.0020698116383357848 0.0075068310061124936 0 0.0023320234178324695 0.0073921125367466325 0 0.0017283477174247154 0.008490865597721409 0 0.0019805533354990677 0.0081063732991437602 0 0.0017283477174247154 0.008490865597721409 0 0.0016805000280246489 0.0083795002751863266 0 0.0020906404513884647 0.0079892031375739542 0 0.0016029227987630552 0.0076644292710080462 0 0.0020698116383357848 0.0075068310061124936 0 0.0016029227987630552 0.0076644292710080462 0 0.0020698116383357848 0.0075068310061124936 0 0.0018904280740528602 0.0070541059973907253 0 0.0020698116383357848 0.0075068310061124936 0 0.002798456401356674 0.0070991348963091346 0 0.0023320234178324695 0.0073921125367466325 0 0.0020698116383357848 0.0075068310061124936 0 0.0018904280740528602 0.0070541059973907253 0 0.002798456401356674 0.0070991348963091346 0 0.0018904280740528602 0.0070541059973907253 0 0.0021924355469473658 0.0061048874239251812 0 0.0015514380929136323 0.0063296996338329352 0 0.0030492415632043944 0.0056838064973617312 0 0.0021924355469473658 0.0061048874239251812 0 0.002798456401356674 0.0070991348963091346 0 0.0018904280740528602 0.0070541059973907253 0 0.0021924355469473658 0.0061048874239251812 0 0.002798456401356674 0.0070991348963091346 0 0.0016029227987630552 0.0076644292710080462 0 0.0014015711168856736 0.0071200558445904498 0 0.0011020872717753102 0.0076421480735770625 0 0.0016029227987630552 0.0076644292710080462 0 0.0018904280740528602 0.0070541059973907253 0 0.0014015711168856736 0.0071200558445904498 0 0.00072917497716959933 0.0062168393672217158 0 0.0014015711168856736 0.0071200558445904498 0 0.0011020872717753102 0.0076421480735770625 0 0.0018904280740528602 0.0070541059973907253 0 0.0014015711168856736 0.0071200558445904498 0 0.0015514380929136323 0.0063296996338329352 0 0.00072917497716959933 0.0062168393672217158 0 0.0014015711168856736 0.0071200558445904498 0 0.0015514380929136323 0.0063296996338329352 0 0.0011431441256232711 0.004982755985274109 0 9.8287065469148362e-05 0.0056670937495005517 0 0.00072917497716959933 0.0062168393672217158 0 0.0011020872717753102 0.0076421480735770625 0 0.00021085063709938906 0.0080657220707693565 0 0.00072917497716959933 0.0062168393672217158 0 0.00021085063709938906 0.0080657220707693565 0 -0.00074366292706113735 0.0071748694277387753 0 -0.0010515092867140346 0.0090833105549504422 0 0.00021085063709938906 0.0080657220707693565 0 -0.00074366292706113735 0.0071748694277387753 0 -0.0010515092867140346 0.0090833105549504422 0 0.00021085063709938906 0.0080657220707693565 0 -7.6403700942215762e-05 0.0094711806791640037 0 -0.0010515092867140346 0.0090833105549504422 0 -0.00073545392793066759 0.010430672165425261 0 -7.6403700942215762e-05 0.0094711806791640037 0 0.00022932230175768474 0.010694725977739248 0 -0.00073545392793066759 0.010430672165425261 0 -7.6403700942215762e-05 0.0094711806791640037 0 0.00022932230175768474 0.010694725977739248 0 -7.6403700942215762e-05 0.0094711806791640037 0 0.00098016909451721884 0.0095730805136452976 0 0.0011020872717753102 0.0076421480735770625 0 0.00021085063709938906 0.0080657220707693565 0 0.00098016909451721884 0.0095730805136452976 0 0.00021085063709938906 0.0080657220707693565 0 -7.6403700942215762e-05 0.0094711806791640037 0 0.00098016909451721884 0.0095730805136452976 0 0.00090644094424493626 0.0076686297279976801 0 0.00080229992008832554 0.0072628565218752755 0 0.00038037940834480846 0.0075606442615544283 0 0.00090644094424493626 0.0076686297279976801 0 0.00080229992008832554 0.0072628565218752755 0 0.0012020254678064383 0.0073889721010616857 0 0.00080229992008832554 0.0072628565218752755 0 0.0012020254678064383 0.0073889721010616857 0 0.0012636608205740237 0.0071345289214296524 0 0.00080229992008832554 0.0072628565218752755 0 0.00038037940834480846 0.0075606442615544283 0 0.00034591474239640082 0.0071620200614037821 0 -9.2630254870160732e-06 0.0073909093404900617 0 0.00038037940834480846 0.0075606442615544283 0 0.00034591474239640082 0.0071620200614037821 0 -9.2630254870160732e-06 0.0073909093404900617 0 -6.0969938463499347e-05 0.0070441290439764489 0 -0.00036826000419434005 0.0072420583269106661 0 -9.2630254870160732e-06 0.0073909093404900617 0 -6.0969938463499347e-05 0.0070441290439764489 0 0.00034591474239640082 0.0071620200614037821 0 -9.2630254870160732e-06 0.0073909093404900617 0 -2.3047663942248793e-05 0.0077789357919521322 0 -0.00032909144744764247 0.0075936118998233514 0 -9.2630254870160732e-06 0.0073909093404900617 0 0.00038037940834480846 0.0075606442615544283 0 -2.3047663942248793e-05 0.0077789357919521322 0 0.0046973824091592195 0.0020897234696422387 0 0.0039451506875914739 0.00072513906324882021 0 0.00033312724099510046 0.0082362731666529975 0 -2.3047663942248793e-05 0.0077789357919521322 0 -0.0004607704724568255 0.0080455013298793218 0 0.00038037940834480846 0.0075606442615544283 0 0.00033312724099510046 0.0082362731666529975 0 -2.3047663942248793e-05 0.0077789357919521322 0 0.00090644094424493626 0.0076686297279976801 0 0.00033312724099510046 0.0082362731666529975 0 0.0014220289445217998 0.0081041804685726693 0 0.0046973824091592195 0.0020897234696422387 0 0.0036830222389705363 0.0043088246970528774 0 0.0057213628082790121 0.0055494415573870319 0 0.0094907150113397575 0.0065033247326241944 0 0.0062581821455088057 0.0068148845637572729 0 0.00090644094424493626 0.0076686297279976801 0 0.00038037940834480846 0.0075606442615544283 0 0.00033312724099510046 0.0082362731666529975 0 0.0057213628082790121 0.0055494415573870319 0 0.0062581821455088057 0.0068148845637572729 0 0.002798456401356674 0.0070991348963091346 0 0.00090644094424493626 0.0076686297279976801 0 0.0014220289445217998 0.0081041804685726693 0 0.0013940537877795843 0.0076032556551545241 0 0.0014220289445217998 0.0081041804685726693 0 0.0018645143977524862 0.0075692614351439251 0 0.0013940537877795843 0.0076032556551545241 0 0.0018645143977524862 0.0075692614351439251 0 0.002798456401356674 0.0070991348963091346 0 0.0021803458838959289 0.0073795047179926907 0 0.0030492415632043944 0.0056838064973617312 0 0.0057213628082790121 0.0055494415573870319 0 0.002798456401356674 0.0070991348963091346 0 0.0014220289445217998 0.0081041804685726693 0 0.0018645143977524862 0.0075692614351439251 0 0.002798456401356674 0.0070991348963091346 0 0.0036830222389705363 0.0043088246970528774 0 0.003153685877190913 0.0049314771340770152 0 0.002798456401356674 0.0070991348963091346 0 0.0023320234178324695 0.0073921125367466325 0 0.0021803458838959289 0.0073795047179926907 0 0.0024220783383550278 0.006972438428942275 0 0.0023320234178324695 0.0073921125367466325 0 0.0018260809235478301 0.0070488327572139397 0 0.0023320234178324695 0.0073921125367466325 0 0.0021803458838959289 0.0073795047179926907 0 0.0017311063806952861 0.0073537666864248287 0 0.0023320234178324695 0.0073921125367466325 0 0.0017311063806952861 0.0073537666864248287 0 0.0018260809235478301 0.0070488327572139397 0 0.0013940537877795843 0.0076032556551545241 0 0.0012020254678064383 0.0073889721010616857 0 0.0017311063806952861 0.0073537666864248287 0 0.00090644094424493626 0.0076686297279976801 0 0.0013940537877795843 0.0076032556551545241 0 0.0012020254678064383 0.0073889721010616857 0 0.0018645143977524862 0.0075692614351439251 0 0.0013940537877795843 0.0076032556551545241 0 0.0017311063806952861 0.0073537666864248287 0 0.0018645143977524862 0.0075692614351439251 0 0.0021803458838959289 0.0073795047179926907 0 0.0017311063806952861 0.0073537666864248287 0 0.0017311063806952861 0.0073537666864248287 0 0.0012636608205740237 0.0071345289214296524 0 0.0018260809235478301 0.0070488327572139397 0 0.0012020254678064383 0.0073889721010616857 0 0.0017311063806952861 0.0073537666864248287 0 0.0012636608205740237 0.0071345289214296524 0 0.0012636608205740237 0.0071345289214296524 0 0.0013610325255547617 0.0068679580896095615 0 0.00071944325389972075 0.0069171029188284175 0 0.0013610325255547617 0.0068679580896095615 0 0.00096515084264839042 0.006656454944610703 0 0.00071944325389972075 0.0069171029188284175 0 0.0012636608205740237 0.0071345289214296524 0 0.0013610325255547617 0.0068679580896095615 0 0.0018260809235478301 0.0070488327572139397 0 0.0024220783383550278 0.006972438428942275 0 0.0018260809235478301 0.0070488327572139397 0 0.0017447041768913292 0.0065975663631318796 0 0.0013610325255547617 0.0068679580896095615 0 0.0018260809235478301 0.0070488327572139397 0 0.0017447041768913292 0.0065975663631318796 0 0.0017283477174247154 0.008490865597721409 0 0.0014094192060389091 0.0077103346470413807 0 0.001448649136599182 0.0077453715330068904 0 0.0015128567204898567 0.0075923643179888296 0 0.0015440967351123818 0.0073614549884303132 0 0.0013610325255547617 0.0068679580896095615 0 0.0017447041768913292 0.0065975663631318796 0 0.00096515084264839042 0.006656454944610703 0 0.0017447041768913292 0.0065975663631318796 0 0.00096515084264839042 0.006656454944610703 0 0.0009998153068465623 0.006602270766076803 0 0.0014094192060389091 0.0077103346470413807 0 0.0012750052380866308 0.0074542654973164301 0 0.00096515084264839042 0.006656454944610703 0 0.00057733939905820386 0.0064637730176273413 0 0.0009998153068465623 0.006602270766076803 0 0.00096515084264839042 0.006656454944610703 0 0.00071944325389972075 0.0069171029188284175 0 0.00027327471039803808 0.0066341767122912306 0 0.00057733939905820386 0.0064637730176273413 0 0.00027327471039803808 0.0066341767122912306 0 0.00016761890970388318 0.006105804509527627 0 0.00096515084264839042 0.006656454944610703 0 0.00057733939905820386 0.0064637730176273413 0 0.00027327471039803808 0.0066341767122912306 0 0.00071944325389972075 0.0069171029188284175 0 0.00021456629221805712 0.0068869955280995588 0 0.00027327471039803808 0.0066341767122912306 0 0.00071944325389972075 0.0069171029188284175 0 0.00034591474239640082 0.0071620200614037821 0 0.00021456629221805712 0.0068869955280995588 0 0.00080229992008832554 0.0072628565218752755 0 0.00071944325389972075 0.0069171029188284175 0 0.00034591474239640082 0.0071620200614037821 0 0.00080229992008832554 0.0072628565218752755 0 0.0012636608205740237 0.0071345289214296524 0 0.00071944325389972075 0.0069171029188284175 0 -6.0969938463499347e-05 0.0070441290439764489 0 0.00034591474239640082 0.0071620200614037821 0 0.00021456629221805712 0.0068869955280995588 0 0.00021456629221805712 0.0068869955280995588 0 -0.00020299029376051267 0.0066911236597238834 0 0.00027327471039803808 0.0066341767122912306 0 -6.0969938463499347e-05 0.0070441290439764489 0 0.00021456629221805712 0.0068869955280995588 0 -0.00020299029376051267 0.0066911236597238834 0 -0.00020299029376051267 0.0066911236597238834 0 0.00027327471039803808 0.0066341767122912306 0 -0.00045505731526234485 0.0062261190110728566 0 0.00027327471039803808 0.0066341767122912306 0 0.00016761890970388318 0.006105804509527627 0 -0.00045505731526234485 0.0062261190110728566 0 -0.00037207538901559538 0.005819970012562856 0 0.00016761890970388318 0.006105804509527627 0 -0.00045505731526234485 0.0062261190110728566 0 -0.00037207538901559538 0.005819970012562856 0 0.00016761890970388318 0.006105804509527627 0 0.00014135795806171988 0.0056030519734790746 0 0.00057733939905820386 0.0064637730176273413 0 0.00056394639300702597 0.0060466141875792764 0 0.00016761890970388318 0.006105804509527627 0 0.00057733939905820386 0.0064637730176273413 0 0.00056394639300702597 0.0060466141875792764 0 0.0009998153068465623 0.006602270766076803 0 0.00056394639300702597 0.0060466141875792764 0 0.00016761890970388318 0.006105804509527627 0 0.00014135795806171988 0.0056030519734790746 0 0.00056394639300702597 0.0060466141875792764 0 0.00014135795806171988 0.0056030519734790746 0 0.00044068990071562364 0.0052839328330461207 0 0.00014135795806171988 0.0056030519734790746 0 0.00044068990071562364 0.0052839328330461207 0 -2.7118738117179631e-05 0.0048099805045335375 0 0.00014135795806171988 0.0056030519734790746 0 -0.00036880628919994536 0.0053156248098445037 0 -2.7118738117179631e-05 0.0048099805045335375 0 -0.00036880628919994536 0.0053156248098445037 0 -0.00054968552700445771 0.0047264409683894087 0 -0.00087142670012843018 0.0056612344866309788 0 -0.00036880628919994536 0.0053156248098445037 0 -0.00054968552700445771 0.0047264409683894087 0 -2.7118738117179631e-05 0.0048099805045335375 0 -0.00037207538901559538 0.005819970012562856 0 -0.00036880628919994536 0.0053156248098445037 0 -0.00087142670012843018 0.0056612344866309788 0 -0.00037207538901559538 0.005819970012562856 0 0.00014135795806171988 0.0056030519734790746 0 -0.00036880628919994536 0.0053156248098445037 0 0.0015128567204898567 0.0075923643179888296 0 0.0015440967351123818 0.0073614549884303132 0 0.0009998153068465623 0.006602270766076803 0 0.0015440967351123818 0.0073614549884303132 0 0.0009998153068465623 0.006602270766076803 0 0.0010502914896873264 0.0059044303298239386 0 0.00056394639300702597 0.0060466141875792764 0 0.0009998153068465623 0.006602270766076803 0 0.0010502914896873264 0.0059044303298239386 0 0.00056394639300702597 0.0060466141875792764 0 0.00044068990071562364 0.0052839328330461207 0 0.0010502914896873264 0.0059044303298239386 0 0.00044068990071562364 0.0052839328330461207 0 0.0010502914896873264 0.0059044303298239386 0 0.00068217882789352194 0.0046217511575360809 0 0.0018533585033741623 0.0062321367570635899 0 0.0015440967351123818 0.0073614549884303132 0 0.0010502914896873264 0.0059044303298239386 0 0.00044899935268130848 0.0090639642818083552 0 0.00060515921826829479 0.0098431679302034801 0 -0.00043525839803264227 0.0077152376149260786 0 0.0018533585033741623 0.0062321367570635899 0 0.0010502914896873264 0.0059044303298239386 0 0.0012769140671445571 0.0044653311490269075 0 0.0011339841820443789 0.0068006026686124616 0 0.00084775600398630962 0.0056669212107887624 0 0.0010502914896873264 0.0059044303298239386 0 0.0012769140671445571 0.0044653311490269075 0 0.00068217882789352194 0.0046217511575360809 0 0.00084775600398630962 0.0056669212107887624 0 7.7677341154373832e-07 0.003510567227301308 0 -0.00043525839803264227 0.0077152376149260786 0 -2.7703883535455203e-06 0.0035109676263984967 0 9.6647107100283922e-07 0.0064875423101609852 0 0.0012769140671445571 0.0044653311490269075 0 0.00068217882789352194 0.0046217511575360809 0 4.6741136969258244e-06 0.0035017962283701415 0 0.00044899935268130848 0.0090639642818083552 0 -0.00043525839803264227 0.0077152376149260786 0 9.6647107100283922e-07 0.0064875423101609852 0 -0.00096098440744110528 0.0041419273659705734 0 -0.00054968552700445771 0.0047264409683894087 0 -0.00087142670012843018 0.0056612344866309788 0 -0.00012125437926333944 0.0040411645223894796 0 -0.00078797296927230419 0.0041287908777666643 0 -0.00054968552700445771 0.0047264409683894087 0 -0.00078797296927230419 0.0041287908777666643 0 -0.0013832134825627865 0.0040225431781357049 0 0.00010095063687650711 0.0029525141652628237 0 -0.00012125437926333944 0.0040411645223894796 0 -0.00078797296927230419 0.0041287908777666643 0 0.00010095063687650711 0.0029525141652628237 0 -0.00078797296927230419 0.0041287908777666643 0 -0.00096098440744110528 0.0041419273659705734 0 -0.00054968552700445771 0.0047264409683894087 0 0.000529462193419151 -0.0011911595372422364 0 0.0005466788432206992 -0.0012288865378476445 0 -0.00012125437926333944 0.0040411645223894796 0 -0.00054968552700445771 0.0047264409683894087 0 -2.7118738117179631e-05 0.0048099805045335375 0 0.00044068990071562364 0.0052839328330461207 0 -2.7118738117179631e-05 0.0048099805045335375 0 0.00029643542289822707 0.0040565500102156529 0 0.00044068990071562364 0.0052839328330461207 0 0.00068217882789352194 0.0046217511575360809 0 0.00029643542289822707 0.0040565500102156529 0 -0.00012125437926333944 0.0040411645223894796 0 -2.7118738117179631e-05 0.0048099805045335375 0 0.00029643542289822707 0.0040565500102156529 0 -0.00012125437926333944 0.0040411645223894796 0 0.00029643542289822707 0.0040565500102156529 0 0.00010095063687650711 0.0029525141652628237 0 4.6741136969258244e-06 0.0035017962283701415 0 -4.1688637882775502e-06 0.0010624668881595301 0 0.00010095063687650711 0.0029525141652628237 0 0.00068217882789352194 0.0046217511575360809 0 4.6741136969258244e-06 0.0035017962283701415 0 0.00029643542289822707 0.0040565500102156529 0 4.6741136969258244e-06 0.0035017962283701415 0 0.00029643542289822707 0.0040565500102156529 0 0.00010095063687650711 0.0029525141652628237 0 -0.0013832134825627865 0.0040225431781357049 0 -4.1688637882775502e-06 0.0010624668881595301 0 0.00010095063687650711 0.0029525141652628237 0 0.0005466788432206992 -0.0012288865378476445 0 4.7210931538016481e-08 0.0010531466566044802 0 -4.6309216365193909e-05 -0.00082614136862395695 0 -1.3683007076365709e-06 0.0010512386868493783 0 9.7363376053922197e-07 -0.0017081741952908501 0 -4.6309216365193909e-05 -0.00082614136862395695 0 9.7363376053922197e-07 -0.0017081741952908501 0 7.1078172731016203e-05 -0.0024300567741614466 0 0.0005466788432206992 -0.0012288865378476445 0 0.0014573975256335361 -0.003750683496526146 0 0.0046315292929578755 -0.0076869625101689473 0 0.0031805984103014631 -0.0069662378887757493 0 0.0040271371672767993 -0.0061026065987799388 0 0.0046315292929578755 -0.0076869625101689473 0 0.0031805984103014631 -0.0069662378887757493 0 0.0030028749618086123 -0.0080330325906701437 0 0.0031805984103014631 -0.0069662378887757493 0 0.0030028749618086123 -0.0080330325906701437 0 0.0021013527589967612 -0.0072144311987344806 0 9.7363376053922197e-07 -0.0017081741952908501 0 7.1078172731016203e-05 -0.0024300567741614466 0 -1.384776811170219e-07 -0.0044735608576371598 0 0.0030028749618086123 -0.0080330325906701437 0 0.0014249189109681933 -0.0083719930226699105 0 0.0015232703829763613 -0.0076605787305839028 0 0.0014573975256335361 -0.003750683496526146 0 0.0011539939564500922 -0.0054190111835561655 0 7.1078172731016203e-05 -0.0024300567741614466 0 -1.384776811170219e-07 -0.0044735608576371598 0 -3.8309155206603668e-05 -0.0053548345800101113 0 -1.384776811170219e-07 -0.0044735608576371598 0 -3.8309155206603668e-05 -0.0053548345800101113 0 -7.4523735502182175e-08 -0.0072391324125556551 0 0.0014249189109681933 -0.0083719930226699105 0 0.0008636665816313605 -0.0078967240475407308 0 0.0015232703829763613 -0.0076605787305839028 0 0.0015232703829763613 -0.0076605787305839028 0 0.00094793421041539029 -0.0071146871518654974 0 0.0021013527589967612 -0.0072144311987344806 0 3.7049584468234251e-05 -0.0069382620825443643 0 0.00082767040216761222 -0.0070458459171518608 0 0.0008636665816313605 -0.0078967240475407308 0 0.0015232703829763613 -0.0076605787305839028 0 0.00094793421041539029 -0.0071146871518654974 0 0.0030028749618086123 -0.0080330325906701437 0 0.0015232703829763613 -0.0076605787305839028 0 0.0021013527589967612 -0.0072144311987344806 0 0.0031805984103014631 -0.0069662378887757493 0 0.0021013527589967612 -0.0072144311987344806 0 0.0021268871517627981 -0.00576134449931679 0 0.00082604231012545183 -0.0070428527405196045 0 0.0021013527589967612 -0.0072144311987344806 0 0.0021268871517627981 -0.00576134449931679 0 3.7049584468234251e-05 -0.0069382620825443643 0 0.0009864549704118211 -0.0016314229381612661 0 -0.0029200659587872314 0.003692411765340979 0 -0.0026430270032123697 0.0054055776122682231 0 -0.0017910144855288665 0.0048680084198650412 0 -0.0026430270032123697 0.0054055776122682231 0 -0.0017910144855288665 0.0048680084198650412 0 -0.0019741206263712745 0.0062633135312503974 0 0.0031805984103014631 -0.0069662378887757493 0 0.0021268871517627981 -0.00576134449931679 0 0.0040271371672767993 -0.0061026065987799388 0 0.0009864549704118211 -0.0016314229381612661 0 0.0018746292724002088 0.0020427921713633726 0 0.0021268871517627981 -0.00576134449931679 0 0.0040271371672767993 -0.0061026065987799388 0 0.0034045015936356943 -0.0044851396741857879 0 0.0014503528413054249 -0.00014360925508641884 0 0.0018746292724002088 0.0020427921713633726 0 -0.00037207538901559538 0.005819970012562856 0 -0.00045505731526234485 0.0062261190110728566 0 -0.00087142670012843018 0.0056612344866309788 0 -0.00045505731526234485 0.0062261190110728566 0 -0.00087142670012843018 0.0056612344866309788 0 -0.00086214922272426881 0.0064724423423677133 0 0.0005466788432206992 -0.0012288865378476445 0 0.0014503528413054249 -0.00014360925508641884 0 0.00050173777627142294 -0.013299760344646057 0 0.00048204742772300734 -0.013171151078810403 0 0.00041677985935135444 -0.013242573605091391 0 0.00048204742772300734 -0.013171151078810403 0 0.00041677985935135444 -0.013242573605091391 0 0.00033139529247889121 -0.012815589084595602 0 0.00041677985935135444 -0.013242573605091391 0 0.00028912864763447013 -0.012828813085080819 0 0.00033139529247889121 -0.012815589084595602 0 1.5239943829797654e-06 -0.012343572746561171 0 0.00028912864763447013 -0.012828813085080819 0 8.2750069295816482e-07 -0.014685377375446571 0 0.00041677985935135444 -0.013242573605091391 0 0.00028912864763447013 -0.012828813085080819 0 8.2750069295816482e-07 -0.014685377375446571 0 1.5239943829797654e-06 -0.012343572746561171 0 0.00028912864763447013 -0.012828813085080819 0 0.00016503348680374131 -0.011851249151245937 0 0.00028912864763447013 -0.012828813085080819 0 0.00016503348680374131 -0.011851249151245937 0 0.00033139529247889121 -0.012815589084595602 0 1.5239943829797654e-06 -0.012343572746561171 0 0.00016503348680374131 -0.011851249151245937 0 -2.6550084566282703e-06 -0.010008000016209004 0 -0.00039871763543368141 -0.012821869079973819 0 -0.00062948460476201546 -0.013263424703615769 0 0.00016891134307600906 -0.013369673041412551 0 0.00016503348680374131 -0.011851249151245937 0 0.00033139529247889121 -0.012815589084595602 0 -0.00039871763543368141 -0.012821869079973819 0 0.00048204742772300734 -0.013171151078810403 0 0.00033139529247889121 -0.012815589084595602 0 0.00016891134307600906 -0.013369673041412551 0 0.00033139529247889121 -0.012815589084595602 0 -0.00039871763543368141 -0.012821869079973819 0 0.00016891134307600906 -0.013369673041412551 0 0.00016503348680374131 -0.011851249151245937 0 -0.00039871763543368141 -0.012821869079973819 0 -0.0019177619133026798 -0.011991044582351312 0 -0.00039871763543368141 -0.012821869079973819 0 -0.0019177619133026798 -0.011991044582351312 0 -0.000879914906852199 -0.013728330704797606 0 -0.0020441336286771946 -0.0076516177141268274 0 -0.0018269634662105162 -0.0068284878512915228 0 -1.6816859709368806e-07 -0.010001792439372327 0 9.6665363958205493e-06 -0.0087699363059112346 0 -7.4523735502182175e-08 -0.0072391324125556551 0 0.00016503348680374131 -0.011851249151245937 0 -2.6550084566282703e-06 -0.010008000016209004 0 -0.0019177619133026798 -0.011991044582351312 0 -1.2349321710286195e-06 -0.010001677273511794 0 -0.00043168575195150661 -0.0090314041453487676 0 -1.6816859709368806e-07 -0.010001792439372327 0 9.6665363958205493e-06 -0.0087699363059112346 0 9.9921063702140657e-05 -0.0079962511480251245 0 0.0011539939564500922 -0.0054190111835561655 0 0.00081266024674026092 -0.0061338013246462026 0 0.0008636665816313605 -0.0078967240475407308 0 9.6665363958205493e-06 -0.0087699363059112346 0 9.9921063702140657e-05 -0.0079962511480251245 0 0.0014249189109681933 -0.0083719930226699105 0 0.0008636665816313605 -0.0078967240475407308 0 9.6665363958205493e-06 -0.0087699363059112346 0 -3.8309155206603668e-05 -0.0053548345800101113 0 9.6665363958205493e-06 -0.0087699363059112346 0 -7.4523735502182175e-08 -0.0072391324125556551 0 3.7049584468234251e-05 -0.0069382620825443643 0 -0.00043168575195150661 -0.0090314041453487676 0 -0.0033414807121343168 -0.013377032398634315 0 -0.0019177619133026798 -0.011991044582351312 0 -0.000879914906852199 -0.013728330704797606 0 0.0008636665816313605 -0.0078967240475407308 0 0.00094793421041539029 -0.0071146871518654974 0 9.9921063702140657e-05 -0.0079962511480251245 0 3.7049584468234251e-05 -0.0069382620825443643 0 -0.0018269634662105162 -0.0068284878512915228 0 -0.0029200659587872314 0.003692411765340979 0 -0.0036593948482295784 0.0052292605104027595 0 -0.0043534176811126108 0.0038634742433824691 0 -0.0029200659587872314 0.003692411765340979 0 -0.0026430270032123697 0.0054055776122682231 0 -0.0036593948482295784 0.0052292605104027595 0 0.0018241016229078705 -0.013220638743389532 0 0.001541863456724857 -0.01363066777303693 0 0.0014311446193632925 -0.013347356536914398 0 0.0018241016229078705 -0.013220638743389532 0 0.0014311446193632925 -0.013347356536914398 0 0.0013809106563746904 -0.012989157613933941 0 -0.00036186570814851049 -0.0046553026069193247 0 -0.0018269634662105162 -0.0068284878512915228 0 0.001541863456724857 -0.01363066777303693 0 0.0012103803042446579 -0.013553429272839777 0 0.0014311446193632925 -0.013347356536914398 0 -0.0018269634662105162 -0.0068284878512915228 0 -7.1970329927980366e-05 -0.0086856032745730449 0 0.0012103803042446579 -0.013553429272839777 0 0.0014311446193632925 -0.013347356536914398 0 0.001188181099657839 -0.013321955348749069 0 0.0014311446193632925 -0.013347356536914398 0 0.001188181099657839 -0.013321955348749069 0 0.0013809106563746904 -0.012989157613933941 0 0.001188181099657839 -0.013321955348749069 0 0.0011066586731482235 -0.014472106153295918 0 0.00096082283893800073 -0.013932459953608567 0 0.001188181099657839 -0.013321955348749069 0 0.000985653703902865 -0.013062329783063755 0 0.00090101745614660318 -0.01353508747149554 0 0.001188181099657839 -0.013321955348749069 0 0.00096082283893800073 -0.013932459953608567 0 0.00090101745614660318 -0.01353508747149554 0 0.001188181099657839 -0.013321955348749069 0 0.00066969000170668874 -0.013343123035508454 0 0.00052864272925527657 -0.013261769402344661 0 -7.1970329927980366e-05 -0.0086856032745730449 0 0.00034909102394363445 -0.0092377738485676167 0 0.0012103803042446579 -0.013553429272839777 0 0.001188181099657839 -0.013321955348749069 0 0.00066969000170668874 -0.013343123035508454 0 0.0010129230351529715 -0.014203821606468259 0 0.00087398195015204007 -0.014536014818027748 0 0.00048204742772300734 -0.013171151078810403 0 0.00016891134307600906 -0.013369673041412551 0 0.00066969000170668874 -0.013343123035508454 0 0.00050173777627142294 -0.013299760344646057 0 0.00066969000170668874 -0.013343123035508454 0 0.00052864272925527657 -0.013261769402344661 0 0.00050173777627142294 -0.013299760344646057 0 0.00048204742772300734 -0.013171151078810403 0 0.00066969000170668874 -0.013343123035508454 0 0.001188181099657839 -0.013321955348749069 0 0.000985653703902865 -0.013062329783063755 0 0.0013809106563746904 -0.012989157613933941 0 0.00099262462924449017 -0.012604961498559159 0 0.000985653703902865 -0.013062329783063755 0 0.0013809106563746904 -0.012989157613933941 0 0.00069182551341638175 -0.0098763877324907316 0 0.00099377195551912634 -0.0087699945822756666 0 0.00099262462924449017 -0.012604961498559159 0 0.0013809106563746904 -0.012989157613933941 0 0.0014401472656652725 -0.012501431321377423 0 0.0013809106563746904 -0.012989157613933941 0 0.0017337341229639468 -0.012768507126410797 0 0.0014401472656652725 -0.012501431321377423 0 0.0017337341229639468 -0.012768507126410797 0 0.0019029366937111088 -0.012350419610354692 0 0.0014401472656652725 -0.012501431321377423 0 0.0018241016229078705 -0.013220638743389532 0 0.0013809106563746904 -0.012989157613933941 0 0.0017337341229639468 -0.012768507126410797 0 -0.00036186570814851049 -0.0046553026069193247 0 0.00093824624214972931 -0.0039552906003795648 0 -0.0026430270032123697 0.0054055776122682231 0 -0.0036593948482295784 0.0052292605104027595 0 -0.0029361176609046208 0.0065548771871412528 0 0.0018241016229078705 -0.013220638743389532 0 0.0017337341229639468 -0.012768507126410797 0 0.0021278484364645064 -0.01273849111564348 0 0.0017337341229639468 -0.012768507126410797 0 0.0019029366937111088 -0.012350419610354692 0 0.0021278484364645064 -0.01273849111564348 0 0.0022251297411962751 -0.005957450058319152 0 0.0032505409259765477 -0.0044952303702221084 0 0.002578620873987619 -0.003632529948206363 0 0.0022251297411962751 -0.005957450058319152 0 0.0011399175811931919 -0.0047790120024985942 0 0.002578620873987619 -0.003632529948206363 0 0.0022251297411962751 -0.005957450058319152 0 0.0011399175811931919 -0.0047790120024985942 0 0.00058078328105214052 -0.0069384657143476691 0 0.001711372838531524 -0.0071027480578346952 0 0.00099377195551912634 -0.0087699945822756666 0 0.00058078328105214052 -0.0069384657143476691 0 1.5242974979561032e-05 -0.006281325258834472 0 -0.00036132323942313646 -0.0069895794237260205 0 0.0011399175811931919 -0.0047790120024985942 0 0.00058078328105214052 -0.0069384657143476691 0 1.5242974979561032e-05 -0.006281325258834472 0 0.0011399175811931919 -0.0047790120024985942 0 1.5242974979561032e-05 -0.006281325258834472 0 0.00010105852166022544 -0.0052639760950605116 0 1.5242974979561032e-05 -0.006281325258834472 0 0.00010105852166022544 -0.0052639760950605116 0 -0.00062824554128041506 -0.0062677483307836505 0 1.5242974979561032e-05 -0.006281325258834472 0 -0.00062824554128041506 -0.0062677483307836505 0 -0.00057017068109608605 -0.0073899654320538303 0 1.5242974979561032e-05 -0.006281325258834472 0 -0.00036132323942313646 -0.0069895794237260205 0 -0.00057017068109608605 -0.0073899654320538303 0 -0.00038011136417728352 -0.0070902201391908294 0 -0.00036132323942313646 -0.0069895794237260205 0 7.8764875633008396e-05 -0.0073275486923673732 0 -0.00038011136417728352 -0.0070902201391908294 0 0.00058078328105214052 -0.0069384657143476691 0 -0.00036132323942313646 -0.0069895794237260205 0 -0.00093212967343416376 0.0065813548281114919 0 -0.0012696743411269404 0.0068218921703084414 0 -0.00084728536868696684 0.0068756904380361129 0 -0.00093212967343416376 0.0065813548281114919 0 -0.00084728536868696684 0.0068756904380361129 0 -0.00075575332632570936 0.0066827557241797338 0 -0.00093212967343416376 0.0065813548281114919 0 -0.00075575332632570936 0.0066827557241797338 0 -0.00074493661357461416 0.0065426523221344245 0 -0.00093212967343416376 0.0065813548281114919 0 -0.0012696743411269404 0.0068218921703084414 0 -0.0013370262482835199 0.006122728858635405 0 -0.0012696743411269404 0.0068218921703084414 0 -0.00092793575269220702 0.0072064740437225274 0 -0.0013171235174374921 0.0074033799992623793 0 -0.0012696743411269404 0.0068218921703084414 0 -0.00084728536868696684 0.0068756904380361129 0 -0.00092793575269220702 0.0072064740437225274 0 -0.00084728536868696684 0.0068756904380361129 0 -0.00064497150536954985 0.0071026157163130077 0 -0.00092793575269220702 0.0072064740437225274 0 -0.00064497150536954985 0.0071026157163130077 0 -0.00040663342228310561 0.0069312306137054597 0 -0.00063415157551602493 0.0068521974878921867 0 -0.00084728536868696684 0.0068756904380361129 0 -0.00064497150536954985 0.0071026157163130077 0 -0.00063415157551602493 0.0068521974878921867 0 -6.0969938463499347e-05 0.0070441290439764489 0 -0.00040663342228310561 0.0069312306137054597 0 -0.00036826000419434005 0.0072420583269106661 0 -0.00064497150536954985 0.0071026157163130077 0 -0.00040663342228310561 0.0069312306137054597 0 -0.00036826000419434005 0.0072420583269106661 0 -6.0969938463499347e-05 0.0070441290439764489 0 -0.00020299029376051267 0.0066911236597238834 0 -0.00040663342228310561 0.0069312306137054597 0 -0.00020299029376051267 0.0066911236597238834 0 -0.00040663342228310561 0.0069312306137054597 0 -0.00054403240896230744 0.0066816735881486877 0 -0.00084728536868696684 0.0068756904380361129 0 -0.00063415157551602493 0.0068521974878921867 0 -0.00075575332632570936 0.0066827557241797338 0 -0.00040663342228310561 0.0069312306137054597 0 -0.00063415157551602493 0.0068521974878921867 0 -0.00054403240896230744 0.0066816735881486877 0 -0.00063415157551602493 0.0068521974878921867 0 -0.00054403240896230744 0.0066816735881486877 0 -0.00075575332632570936 0.0066827557241797338 0 -0.00074493661357461416 0.0065426523221344245 0 -0.00056788863088149311 0.0064936238663197187 0 -0.00086214922272426881 0.0064724423423677133 0 -0.00045505731526234485 0.0062261190110728566 0 -0.00056788863088149311 0.0064936238663197187 0 -0.00086214922272426881 0.0064724423423677133 0 -0.00054403240896230744 0.0066816735881486877 0 -0.00075575332632570936 0.0066827557241797338 0 -0.00074493661357461416 0.0065426523221344245 0 -0.00020299029376051267 0.0066911236597238834 0 -0.00045505731526234485 0.0062261190110728566 0 -0.00056788863088149311 0.0064936238663197187 0 -0.00054403240896230744 0.0066816735881486877 0 -0.00074493661357461416 0.0065426523221344245 0 -0.00056788863088149311 0.0064936238663197187 0 -0.00020299029376051267 0.0066911236597238834 0 -0.00054403240896230744 0.0066816735881486877 0 -0.00056788863088149311 0.0064936238663197187 0 -0.0017910144855288665 0.0048680084198650412 0 -0.00070179161337950366 0.0060433551677715443 0 -0.0013370262482835199 0.006122728858635405 0 -0.00093212967343416376 0.0065813548281114919 0 -0.00070179161337950366 0.0060433551677715443 0 -0.0013370262482835199 0.006122728858635405 0 -0.00093212967343416376 0.0065813548281114919 0 -0.00074493661357461416 0.0065426523221344245 0 -0.00082095800111635483 0.0064626144661651275 0 0.0015891438504242038 0.0026778343723677651 0 0.0018746292724002088 0.0020427921713633726 0 0.0018722897633820634 0.0021172435122778304 0 0.0018746292724002088 0.0020427921713633726 0 -0.0017910144855288665 0.0048680084198650412 0 -0.0013370262482835199 0.006122728858635405 0 -0.0019741206263712745 0.0062633135312503974 0 -0.0012696743411269404 0.0068218921703084414 0 -0.0013370262482835199 0.006122728858635405 0 -0.0019741206263712745 0.0062633135312503974 0 -0.0026430270032123697 0.0054055776122682231 0 -0.0019741206263712745 0.0062633135312503974 0 -0.0029361176609046208 0.0065548771871412528 0 -0.0029361176609046208 0.0065548771871412528 0 -0.0022150374770084475 0.0069069346619145917 0 -0.0022339014222009733 0.007720994182861352 0 -0.0019741206263712745 0.0062633135312503974 0 -0.0029361176609046208 0.0065548771871412528 0 -0.0022150374770084475 0.0069069346619145917 0 -0.0012696743411269404 0.0068218921703084414 0 -0.0019741206263712745 0.0062633135312503974 0 -0.0017108859452073665 0.0070634321614644465 0 -0.0019741206263712745 0.0062633135312503974 0 -0.0022150374770084475 0.0069069346619145917 0 -0.0017108859452073665 0.0070634321614644465 0 -0.0012696743411269404 0.0068218921703084414 0 -0.0017108859452073665 0.0070634321614644465 0 -0.0013171235174374921 0.0074033799992623793 0 -0.0022150374770084475 0.0069069346619145917 0 -0.0017108859452073665 0.0070634321614644465 0 -0.0022339014222009733 0.007720994182861352 0 -0.0017108859452073665 0.0070634321614644465 0 -0.0022339014222009733 0.007720994182861352 0 -0.0013171235174374921 0.0074033799992623793 0 0.0029353185880864187 -0.0042179706927949522 0 0.0031337580707922427 -0.0012151698678944975 0 -0.0022339014222009733 0.007720994182861352 0 -0.0012809190209902496 0.0078963107524124727 0 -0.0013171235174374921 0.0074033799992623793 0 0.0022251297411962751 -0.005957450058319152 0 0.0038829392892430073 -0.0049526291195205862 0 0.0032505409259765477 -0.0044952303702221084 0 0.00093824624214972931 -0.0039552906003795648 0 0.0029353185880864187 -0.0042179706927949522 0 0.001711372838531524 -0.0071027480578346952 0 0.0029353185880864187 -0.0042179706927949522 0 0.0019029366937111088 -0.012350419610354692 0 0.0021278484364645064 -0.01273849111564348 0 0.002414750740296465 -0.012195433535136545 0 0.0029353185880864187 -0.0042179706927949522 0 0.0029475271331220877 -0.0042230313700958172 0 0.0032505409259765477 -0.0044952303702221084 0 0.0036800827820727658 -0.0035261241820331375 0 0.002578620873987619 -0.003632529948206363 0 0.0032505409259765477 -0.0044952303702221084 0 0.0036800827820727658 -0.0035261241820331375 0 0.0040418795397981575 -0.0044844872120168846 0 0.0038829392892430073 -0.0049526291195205862 0 0.0032505409259765477 -0.0044952303702221084 0 0.0040418795397981575 -0.0044844872120168846 0 0.003801344887433146 -0.0049643962922330332 0 0.0040418795397981575 -0.0044844872120168846 0 0.0057620432305455146 -0.0043364383471168732 0 0.0048216059108738274 -0.0038143953656392584 0 0.0040418795397981575 -0.0044844872120168846 0 0.0057620432305455146 -0.0043364383471168732 0 0.0036800827820727658 -0.0035261241820331375 0 0.0048216059108738274 -0.0038143953656392584 0 0.0040418795397981575 -0.0044844872120168846 0 0.0036800827820727658 -0.0035261241820331375 0 0.0048216059108738274 -0.0038143953656392584 0 0.0043806699595896961 -0.0026050501467816448 0 0.0031337580707922427 -0.0012151698678944975 0 0.0039451506875914739 0.00072513906324882021 0 0.0048216059108738274 -0.0038143953656392584 0 0.0072966518745742025 -0.002972394238014652 0 0.0043806699595896961 -0.0026050501467816448 0 0.0048216059108738274 -0.0038143953656392584 0 0.0057620432305455146 -0.0043364383471168732 0 0.0072966518745742025 -0.002972394238014652 0 0.0057620432305455146 -0.0043364383471168732 0 0.0072966518745742025 -0.002972394238014652 0 0.0079242153575753288 -0.0037403035956924202 0 -0.0012809190209902496 0.0078963107524124727 0 -0.00071692831998719031 0.0075512336484879344 0 -0.0004607704724568255 0.0080455013298793218 0 -0.0012809190209902496 0.0078963107524124727 0 -0.0013171235174374921 0.0074033799992623793 0 -0.00071692831998719031 0.0075512336484879344 0 -0.00092793575269220702 0.0072064740437225274 0 -0.0013171235174374921 0.0074033799992623793 0 -0.00071692831998719031 0.0075512336484879344 0 -0.00064497150536954985 0.0071026157163130077 0 -0.00092793575269220702 0.0072064740437225274 0 -0.00071692831998719031 0.0075512336484879344 0 -9.2630254870160732e-06 0.0073909093404900617 0 -0.00036826000419434005 0.0072420583269106661 0 -0.00032909144744764247 0.0075936118998233514 0 -0.00064497150536954985 0.0071026157163130077 0 -0.00036826000419434005 0.0072420583269106661 0 -0.00071692831998719031 0.0075512336484879344 0 -0.00036826000419434005 0.0072420583269106661 0 -0.00071692831998719031 0.0075512336484879344 0 -0.00032909144744764247 0.0075936118998233514 0 -0.00071692831998719031 0.0075512336484879344 0 -0.00032909144744764247 0.0075936118998233514 0 -0.0004607704724568255 0.0080455013298793218 0 -2.3047663942248793e-05 0.0077789357919521322 0 -0.00032909144744764247 0.0075936118998233514 0 -0.0004607704724568255 0.0080455013298793218 0 0.0046973824091592195 0.0020897234696422387 0 0.0053503710295707474 0.00015396320875596574 0 0.0099530132421807391 -0.0032110031462013701 0 0.0072966518745742025 -0.002972394238014652 0 0.0079242153575753288 -0.0037403035956924202 0 0.0045577143869439118 -0.00067922048314627659 0 0.0044825520305359088 -0.00018538745172284155 0 0.004511443865719827 -0.00066782613460232261 0 0.0044048818567465238 0.00045522732642628953 0 0.0045577143869439118 -0.00067922048314627659 0 0.0044825520305359088 -0.00018538745172284155 0 0.0044825520305359088 -0.00018538745172284155 0 0.0044717792393759058 -0.00023948782352800206 0 0.004511443865719827 -0.00066782613460232261 0 0.0053503710295707474 0.00015396320875596574 0 0.004841496203557916 -0.00041246412081597357 0 0.0045577143869439118 -0.00067922048314627659 0 0.0044966563236565199 -0.0013231075657435198 0 0.004511443865719827 -0.00066782613460232261 0 0.0045577143869439118 -0.00067922048314627659 0 0.0044966563236565199 -0.0013231075657435198 0 0.0043806699595896961 -0.0026050501467816448 0 0.0043733013555585631 -0.00087439481443453047 0 0.004511443865719827 -0.00066782613460232261 0 0.0044170052437823336 -0.00043649513883074 0 0.0044966563236565199 -0.0013231075657435198 0 0.0043733013555585631 -0.00087439481443453047 0 0.004511443865719827 -0.00066782613460232261 0 0.0044966563236565199 -0.0013231075657435198 0 0.0043733013555585631 -0.00087439481443453047 0 0.0042096941162384346 -0.0017031051860551824 0 0.0043937967371907912 -4.0534110245326623e-05 0 0.0044717792393759058 -0.00023948782352800206 0 0.0044170052437823336 -0.00043649513883074 0 0.0044717792393759058 -0.00023948782352800206 0 0.004511443865719827 -0.00066782613460232261 0 0.0044170052437823336 -0.00043649513883074 0 0.0043937967371907912 -4.0534110245326623e-05 0 0.0044170052437823336 -0.00043649513883074 0 0.0042523244324294924 -0.00043169294661284861 0 0.0043937967371907912 -4.0534110245326623e-05 0 0.0042761460716630529 -0.00034134877972594391 0 0.0042523244324294924 -0.00043169294661284861 0 0.0043733013555585631 -0.00087439481443453047 0 0.0044170052437823336 -0.00043649513883074 0 0.0042523244324294924 -0.00043169294661284861 0 0.0043733013555585631 -0.00087439481443453047 0 0.0042523244324294924 -0.00043169294661284861 0 0.0039493803683455725 -0.00078478571260922443 0 0.0021621483255105296 -0.003563554425018232 0 -0.0004362012671784952 -0.0058317585657131701 0 0.00017608082081134807 -0.0034239161356498181 0 0.0025362980582244931 -0.0022087816552566154 0 0.0014503113776750567 -0.0030687545980489219 0 0.003998752159315281 -0.00040007060524674826 0 0.0039493803683455725 -0.00078478571260922443 0 0.0031102039067947137 -0.0005866048865420196 0 0.0042523244324294924 -0.00043169294661284861 0 0.003998752159315281 -0.00040007060524674826 0 0.0039493803683455725 -0.00078478571260922443 0 0.0039493803683455725 -0.00078478571260922443 0 0.0031700481102654786 -0.001335996151978639 0 0.0038011044295620431 -0.001484212153713479 0 0.0039493803683455725 -0.00078478571260922443 0 0.0031700481102654786 -0.001335996151978639 0 0.0031102039067947137 -0.0005866048865420196 0 0.0038011044295620431 -0.001484212153713479 0 0.00353328520649298 -0.0025345614421508037 0 0.0028061975751571852 -0.0023043448856927599 0 0.0031700481102654786 -0.001335996151978639 0 0.0038011044295620431 -0.001484212153713479 0 0.0028061975751571852 -0.0023043448856927599 0 0.0038011044295620431 -0.001484212153713479 0 0.0042096941162384346 -0.0017031051860551824 0 0.00353328520649298 -0.0025345614421508037 0 0.0043733013555585631 -0.00087439481443453047 0 0.0039493803683455725 -0.00078478571260922443 0 0.0038011044295620431 -0.001484212153713479 0 0.0043733013555585631 -0.00087439481443453047 0 0.0038011044295620431 -0.001484212153713479 0 0.0042096941162384346 -0.0017031051860551824 0 0.0044966563236565199 -0.0013231075657435198 0 0.0042096941162384346 -0.0017031051860551824 0 0.0043806699595896961 -0.0026050501467816448 0 0.0042096941162384346 -0.0017031051860551824 0 0.0043806699595896961 -0.0026050501467816448 0 0.00353328520649298 -0.0025345614421508037 0 0.0036800827820727658 -0.0035261241820331375 0 0.00353328520649298 -0.0025345614421508037 0 0.002578620873987619 -0.003632529948206363 0 0.0036800827820727658 -0.0035261241820331375 0 0.0043806699595896961 -0.0026050501467816448 0 0.00353328520649298 -0.0025345614421508037 0 0.00353328520649298 -0.0025345614421508037 0 0.002578620873987619 -0.003632529948206363 0 0.0028061975751571852 -0.0023043448856927599 0 0.002578620873987619 -0.003632529948206363 0 0.0016761454761751115 -0.0032203839523656207 0 0.0028061975751571852 -0.0023043448856927599 0 0.0011399175811931919 -0.0047790120024985942 0 0.002578620873987619 -0.003632529948206363 0 0.0016761454761751115 -0.0032203839523656207 0 0.0011399175811931919 -0.0047790120024985942 0 0.0016761454761751115 -0.0032203839523656207 0 0.00011355016665126067 -0.0036459964638566075 0 0.00048139839790592648 -0.0038414319393345743 0 -0.00013549193295441338 -0.0045131054994669443 0 0.0016761454761751115 -0.0032203839523656207 0 0.0016091755461798186 -0.0016772138771300035 0 0.00011355016665126067 -0.0036459964638566075 0 0.0031700481102654786 -0.001335996151978639 0 0.0016091755461798186 -0.0016772138771300035 0 0.0028061975751571852 -0.0023043448856927599 0 0.0016761454761751115 -0.0032203839523656207 0 0.0016091755461798186 -0.0016772138771300035 0 0.0028061975751571852 -0.0023043448856927599 0 -0.00062824554128041506 -0.0062677483307836505 0 -0.00087063753700170195 -0.0053398019946757974 0 -0.00082587571187814899 -0.005331736284494723 0 0.00010105852166022544 -0.0052639760950605116 0 -0.00062824554128041506 -0.0062677483307836505 0 0.00011355016665126067 -0.0036459964638566075 0 -0.00045801892177966386 -0.0049584229433582349 0 -0.00013549193295441338 -0.0045131054994669443 0 0.0011399175811931919 -0.0047790120024985942 0 0.00010105852166022544 -0.0052639760950605116 0 0.00011355016665126067 -0.0036459964638566075 0 -0.0017000786171596333 -0.0058756493816385673 0 -0.00082587571187814899 -0.005331736284494723 0 -0.0011877632621018325 -0.0058158854849522231 0 -0.00082587571187814899 -0.005331736284494723 0 -0.00078186480264222401 -0.005524491715849178 0 -0.0011877632621018325 -0.0058158854849522231 0 -0.00042209223059014154 -0.0079399140856043042 0 -0.00031572694108605376 -0.0083950615876778167 0 -0.00087063753700170195 -0.0053398019946757974 0 -0.00078186480264222401 -0.005524491715849178 0 -0.00035930547532925326 -0.0058477140194060015 0 -0.00087063753700170195 -0.0053398019946757974 0 -0.00082587571187814899 -0.005331736284494723 0 -0.00078186480264222401 -0.005524491715849178 0 -0.00078186480264222401 -0.005524491715849178 0 -0.00035930547532925326 -0.0058477140194060015 0 -0.0011877632621018325 -0.0058158854849522231 0 -0.00035930547532925326 -0.0058477140194060015 0 -0.0011877632621018325 -0.0058158854849522231 0 -0.0011279096984987715 -0.0065187664898368573 0 -0.0011877632621018325 -0.0058158854849522231 0 -0.0011279096984987715 -0.0065187664898368573 0 -0.0019673904736835987 -0.0057318344670438766 0 -0.00035930547532925326 -0.0058477140194060015 0 -0.0011279096984987715 -0.0065187664898368573 0 1.5135155112903844e-05 -0.0072540454533466933 0 -0.00031572694108605376 -0.0083950615876778167 0 -0.00023399648797585974 -0.0089233180039056809 0 -0.0017000786171596333 -0.0058756493816385673 0 -0.0004362012671784952 -0.0058317585657131701 0 -0.0019673904736835987 -0.0057318344670438766 0 0.00048139839790592648 -0.0038414319393345743 0 0.0014503113776750567 -0.0030687545980489219 0 0.0031700481102654786 -0.001335996151978639 0 0.0016091755461798186 -0.0016772138771300035 0 0.0031102039067947137 -0.0005866048865420196 0 -0.0017000786171596333 -0.0058756493816385673 0 -0.0011877632621018325 -0.0058158854849522231 0 -0.0019673904736835987 -0.0057318344670438766 0 -0.0011279096984987715 -0.0065187664898368573 0 -0.0019673904736835987 -0.0057318344670438766 0 -0.0018645931109655834 -0.007010507865996986 0 -0.0021699459485896178 -0.0056488436183817457 0 -0.0021959329306205653 -0.0056836628031927327 0 -0.0019673904736835987 -0.0057318344670438766 0 -0.0030437943823389919 -0.0078374375897473335 0 -0.0018645931109655834 -0.007010507865996986 0 -0.0004362012671784952 -0.0058317585657131701 0 -0.0019673904736835987 -0.0057318344670438766 0 0.00017608082081134807 -0.0034239161356498181 0 -0.0019673904736835987 -0.0057318344670438766 0 -0.0014984423816317538 -0.0024972023768961259 0 0.00017608082081134807 -0.0034239161356498181 0 -0.0014984423816317538 -0.0024972023768961259 0 0.00017608082081134807 -0.0034239161356498181 0 0.00032118032478492786 -0.0013139065171370718 0 -0.0018645931109655834 -0.007010507865996986 0 -0.0019979398947333193 -0.0085108068204091704 0 -0.0012053343834379511 -0.0077744977589793351 0 -0.0030437943823389919 -0.0078374375897473335 0 -0.0018645931109655834 -0.007010507865996986 0 -0.0019979398947333193 -0.0085108068204091704 0 -0.0019979398947333193 -0.0085108068204091704 0 -0.0028149254553351296 -0.009090141701312858 0 -0.0020624902223050278 -0.0098342721964804237 0 -0.0030437943823389919 -0.0078374375897473335 0 -0.0019979398947333193 -0.0085108068204091704 0 -0.0028149254553351296 -0.009090141701312858 0 -0.0014984423816317538 -0.0024972023768961259 0 -0.00058688882817294779 -1.0723183739783907e-05 0 0.00032118032478492786 -0.0013139065171370718 0 -0.0021959329306205653 -0.0056836628031927327 0 -0.0023750265793183213 -0.0065989505099828078 0 -0.0030437943823389919 -0.0078374375897473335 0 -0.0028149254553351296 -0.009090141701312858 0 -0.003510410176855929 -0.0097173966647146007 0 -0.0028149254553351296 -0.009090141701312858 0 -0.0034025483330283892 -0.0096607571623395574 0 -0.0028161702261462096 -0.0097464228194890559 0 -0.0026262900742161075 -0.0069325191054296588 0 -0.0023750265793183213 -0.0065989505099828078 0 -0.00058688882817294779 -1.0723183739783907e-05 0 0.00096617253374444811 -4.0685808146725728e-05 0 0.00032118032478492786 -0.0013139065171370718 0 -0.0011279096984987715 -0.0065187664898368573 0 1.5135155112903844e-05 -0.0072540454533466933 0 -0.0012053343834379511 -0.0077744977589793351 0 1.5135155112903844e-05 -0.0072540454533466933 0 -0.0012053343834379511 -0.0077744977589793351 0 -0.0010808721409052214 -0.0090877298104280694 0 -0.0011279096984987715 -0.0065187664898368573 0 -0.0018645931109655834 -0.007010507865996986 0 -0.0012053343834379511 -0.0077744977589793351 0 -0.0010808721409052214 -0.0090877298104280694 0 -0.00017935880559047813 -0.0098663096746135423 0 -0.001011915798617938 -0.010243376593516497 0 -0.0019979398947333193 -0.0085108068204091704 0 -0.0010808721409052214 -0.0090877298104280694 0 -0.0020624902223050278 -0.0098342721964804237 0 -0.0019979398947333193 -0.0085108068204091704 0 -0.0012053343834379511 -0.0077744977589793351 0 -0.0010808721409052214 -0.0090877298104280694 0 -0.00023399648797585974 -0.0089233180039056809 0 -0.00023358288875947547 -0.0093341126112172594 0 1.5135155112903844e-05 -0.0072540454533466933 0 -0.0010808721409052214 -0.0090877298104280694 0 -0.00017935880559047813 -0.0098663096746135423 0 -5.729692679368821e-05 -0.010362280396974236 0 -0.00017935880559047813 -0.0098663096746135423 0 -0.00018671165858284057 -0.010107929002647838 0 -0.00017935880559047813 -0.0098663096746135423 0 -0.00013511357699644289 -0.010462661265357562 0 -0.00018671165858284057 -0.010107929002647838 0 -0.00017935880559047813 -0.0098663096746135423 0 -0.00013511357699644289 -0.010462661265357562 0 -0.001011915798617938 -0.010243376593516497 0 -0.00013511357699644289 -0.010462661265357562 0 -0.001011915798617938 -0.010243376593516497 0 -0.00072484416002037834 -0.010953575359029695 0 -0.0010808721409052214 -0.0090877298104280694 0 -0.001011915798617938 -0.010243376593516497 0 -0.0020624902223050278 -0.0098342721964804237 0 -0.001011915798617938 -0.010243376593516497 0 -0.0020624902223050278 -0.0098342721964804237 0 -0.001879917609743146 -0.010840344575394106 0 -0.0014267362657367508 -0.011148945508993639 0 -0.00072484416002037834 -0.010953575359029695 0 -0.00030642965540965091 -0.012062276663802931 0 -0.001011915798617938 -0.010243376593516497 0 -0.0014267362657367508 -0.011148945508993639 0 -0.001879917609743146 -0.010840344575394106 0 -0.0014267362657367508 -0.011148945508993639 0 -0.0020351995696719608 -0.011470985146462295 0 -0.001637596618710263 -0.012162742650909695 0 -0.0014267362657367508 -0.011148945508993639 0 -0.001879917609743146 -0.010840344575394106 0 -0.0020351995696719608 -0.011470985146462295 0 -0.001011915798617938 -0.010243376593516497 0 -0.0014267362657367508 -0.011148945508993639 0 -0.00072484416002037834 -0.010953575359029695 0 -0.00013511357699644289 -0.010462661265357562 0 -0.00022580601305027896 -0.010501856187569807 0 -0.00013730670399603209 -0.01040839237149054 0 -0.00079749307843500321 -0.011621782967969717 0 -0.0012258524875075085 -0.012957018750271188 0 -0.00013511357699644289 -0.010462661265357562 0 -0.00072484416002037834 -0.010953575359029695 0 -0.00030642965540965091 -0.012062276663802931 0 -0.003207642998891788 -0.0079461824922922655 0 -0.0036736043728462456 -0.010035603771407435 0 -0.0049157223345771394 -0.0095282767089045258 0 -0.0023750265793183213 -0.0065989505099828078 0 -0.0033275278478919518 -0.0099186840583948624 0 -0.0029738643422337128 -0.010377768114594914 0 -0.0034025483330283892 -0.0096607571623395574 0 -0.0037406711650179621 -0.011088547896639628 0 -0.0029738643422337128 -0.010377768114594914 0 -0.0034025483330283892 -0.0096607571623395574 0 -0.0028161702261462096 -0.0097464228194890559 0 -0.0029738643422337128 -0.010377768114594914 0 -0.0028161702261462096 -0.0097464228194890559 0 -0.0020624902223050278 -0.0098342721964804237 0 -0.0029738643422337128 -0.010377768114594914 0 -0.0020624902223050278 -0.0098342721964804237 0 -0.0029121694579820985 -0.011493833635049968 0 -0.0028149254553351296 -0.009090141701312858 0 -0.0028161702261462096 -0.0097464228194890559 0 -0.0020624902223050278 -0.0098342721964804237 0 -0.0020624902223050278 -0.0098342721964804237 0 -0.001879917609743146 -0.010840344575394106 0 -0.0029079064954905583 -0.011531205745944169 0 -0.0025872902003547271 -0.010796114661585355 0 -0.0030067244782758878 -0.011685286135008428 0 -0.001879917609743146 -0.010840344575394106 0 -0.0020351995696719608 -0.011470985146462295 0 -0.0029079064954905583 -0.011531205745944169 0 -0.0020351995696719608 -0.011470985146462295 0 -0.0029079064954905583 -0.011531205745944169 0 -0.0023180842334062195 -0.011941109554243481 0 -0.0029738643422337128 -0.010377768114594914 0 -0.0029121694579820985 -0.011493833635049968 0 -0.0037406711650179621 -0.011088547896639628 0 -0.0036736043728462456 -0.010035603771407435 0 -0.0049157223345771394 -0.0095282767089045258 0 -0.0049659038499024885 -0.01095512167654074 0 -0.0049157223345771394 -0.0095282767089045258 0 -0.0049659038499024885 -0.01095512167654074 0 -0.0065816580234501912 -0.011100547068048774 0 -0.00058688882817294779 -1.0723183739783907e-05 0 0.0013701460783578378 0.0010727205502864688 0 0.00096617253374444811 -4.0685808146725728e-05 0 -0.0023750265793183213 -0.0065989505099828078 0 -0.0017846780670727335 -0.0053358244042399708 0 0.0013701460783578378 0.0010727205502864688 0 0.00096617253374444811 -4.0685808146725728e-05 0 0.0020633875979133793 0.00034002590613725609 0 0.00096617253374444811 -4.0685808146725728e-05 0 0.0020633875979133793 0.00034002590613725609 0 0.0014890058233227043 -0.00057081662894319281 0 0.0013701460783578378 0.0010727205502864688 0 0.0020633875979133793 0.00034002590613725609 0 0.0025436362704795612 0.00087055208702432982 0 0.0020633875979133793 0.00034002590613725609 0 0.0031549073159547183 0.00032614022462021624 0 0.0028918837589199178 -0.00036415820424729199 0 0.0020633875979133793 0.00034002590613725609 0 0.0025436362704795612 0.00087055208702432982 0 0.0031549073159547183 0.00032614022462021624 0 0.0020633875979133793 0.00034002590613725609 0 0.0014890058233227043 -0.00057081662894319281 0 0.0028918837589199178 -0.00036415820424729199 0 0.0025436362704795612 0.00087055208702432982 0 0.0033495163511634649 0.00091615433153954806 0 0.0025958965158786197 0.0016103615743914518 0 -0.0017846780670727335 -0.0053358244042399708 0 -0.001991505036604771 -0.0053378517045153707 0 0.0013701460783578378 0.0010727205502864688 0 0.0025436362704795612 0.00087055208702432982 0 0.0025958965158786197 0.0016103615743914518 0 0.0033495163511634649 0.00091615433153954806 0 0.0025958965158786197 0.0016103615743914518 0 0.0033456343262619247 0.0014619874980005797 0 0.0033495163511634649 0.00091615433153954806 0 0.0039075594970315727 0.0010083720737966986 0 0.0033456343262619247 0.0014619874980005797 0 0.0025436362704795612 0.00087055208702432982 0 0.0033495163511634649 0.00091615433153954806 0 0.0031549073159547183 0.00032614022462021624 0 0.0041315615925907869 0.00099078107505668378 0 0.0039075594970315727 0.0010083720737966986 0 0.0040206645448369674 0.0014259727873555347 0 0.0041315615925907869 0.00099078107505668378 0 0.0039075594970315727 0.0010083720737966986 0 0.0041824847870796586 0.00062876883935224909 0 0.0043973830560865915 0.00097627198790437052 0 0.0041315615925907869 0.00099078107505668378 0 0.0041824847870796586 0.00062876883935224909 0 0.0033495163511634649 0.00091615433153954806 0 0.0039075594970315727 0.0010083720737966986 0 0.0039177292827120725 0.00053968204435393815 0 0.0033495163511634649 0.00091615433153954806 0 0.0039177292827120725 0.00053968204435393815 0 0.003803504189573132 0.00027845136809562574 0 0.0039075594970315727 0.0010083720737966986 0 0.0039177292827120725 0.00053968204435393815 0 0.0041824847870796586 0.00062876883935224909 0 0.0039177292827120725 0.00053968204435393815 0 0.0041824847870796586 0.00062876883935224909 0 0.0041454649439060347 3.2652558087957743e-05 0 0.0039177292827120725 0.00053968204435393815 0 0.003803504189573132 0.00027845136809562574 0 0.0041454649439060347 3.2652558087957743e-05 0 0.003803504189573132 0.00027845136809562574 0 0.0041454649439060347 3.2652558087957743e-05 0 0.0039240083937031513 -0.0002580049790358269 0 0.0031549073159547183 0.00032614022462021624 0 0.0039240083937031513 -0.0002580049790358269 0 0.0028918837589199178 -0.00036415820424729199 0 0.0033495163511634649 0.00091615433153954806 0 0.003803504189573132 0.00027845136809562574 0 0.0031549073159547183 0.00032614022462021624 0 0.003803504189573132 0.00027845136809562574 0 0.0031549073159547183 0.00032614022462021624 0 0.0039240083937031513 -0.0002580049790358269 0 0.0039240083937031513 -0.0002580049790358269 0 0.0038764054525790583 -0.00078323955865205888 0 0.0028918837589199178 -0.00036415820424729199 0 0.0042761460716630529 -0.00034134877972594391 0 0.0039240083937031513 -0.0002580049790358269 0 0.0038764054525790583 -0.00078323955865205888 0 0.0042761460716630529 -0.00034134877972594391 0 0.0041454649439060347 3.2652558087957743e-05 0 0.0039240083937031513 -0.0002580049790358269 0 0.0042761460716630529 -0.00034134877972594391 0 0.0042523244324294924 -0.00043169294661284861 0 0.0038764054525790583 -0.00078323955865205888 0 0.0042523244324294924 -0.00043169294661284861 0 0.003998752159315281 -0.00040007060524674826 0 0.0038764054525790583 -0.00078323955865205888 0 0.0021621483255105296 -0.003563554425018232 0 0.0038764054525790583 -0.00078323955865205888 0 0.0018970468242020249 -0.0015792090514628982 0 0.0025362980582244931 -0.0022087816552566154 0 0.0030728215396115051 -0.0017410020515034328 0 0.0021621483255105296 -0.003563554425018232 0 0.0018970468242020249 -0.0015792090514628982 0 0.00017608082081134807 -0.0034239161356498181 0 0.0018970468242020249 -0.0015792090514628982 0 0.00017608082081134807 -0.0034239161356498181 0 0.00032118032478492786 -0.0013139065171370718 0 0.0018970468242020249 -0.0015792090514628982 0 0.00032118032478492786 -0.0013139065171370718 0 0.0014890058233227043 -0.00057081662894319281 0 0.00096617253374444811 -4.0685808146725728e-05 0 0.00032118032478492786 -0.0013139065171370718 0 0.0014890058233227043 -0.00057081662894319281 0 0.0018970468242020249 -0.0015792090514628982 0 0.0014890058233227043 -0.00057081662894319281 0 0.0028918837589199178 -0.00036415820424729199 0 0.0038764054525790583 -0.00078323955865205888 0 0.0018970468242020249 -0.0015792090514628982 0 0.0028918837589199178 -0.00036415820424729199 0 0.003907429376271275 -0.0098036911803852534 0 0.0061723119917775765 -0.0091207414337472689 0 0.0058171586877188907 -0.011322270327983327 0 0.003907429376271275 -0.0098036911803852534 0 0.0058171586877188907 -0.011322270327983327 0 0.0040794806739139792 -0.011436627827091627 0 0.003907429376271275 -0.0098036911803852534 0 0.0040794806739139792 -0.011436627827091627 0 0.0026978687063582926 -0.011181441316809563 0 -0.00043539280873134339 -0.010347919815324401 0 -0.00050411530623109459 -0.010477678319257158 0 -0.0003115128917621664 -0.010448062072375558 0 0.0021662753724678964 -0.011614543500634331 0 0.0036282268683333198 -0.013440762621657264 0 -0.00050411530623109459 -0.010477678319257158 0 -0.00066605665783163925 -0.010456418048432337 0 -0.00059700955959104886 -0.010570770151872551 0 -0.00043539280873134339 -0.010347919815324401 0 -0.00050411530623109459 -0.010477678319257158 0 -0.00066605665783163925 -0.010456418048432337 0 0.0034395058248639573 -0.017151788345420381 0 0.0034801522193860721 -0.017355840969762108 0 0.0034580326129077313 -0.017248814367303293 0 0.0061723119917775765 -0.0091207414337472689 0 0.0070360221061339006 -0.0098195492128748917 0 0.0082190968355850061 -0.0084740038905138284 0 0.0036282268683333198 -0.013440762621657264 0 0.004184117001185669 -0.0188344943864713 0 0.0053746344612083472 -0.015263042910472192 0 0.004184117001185669 -0.0188344943864713 0 0.0034395058248639573 -0.017151788345420381 0 0.0034580326129077313 -0.017248814367303293 0 0.0035096266659472193 -0.017168324500029333 0 0.0034395058248639573 -0.017151788345420381 0 0.0033988152073088662 -0.017186726207824875 0 0.0035096266659472193 -0.017168324500029333 0 0.0061723119917775765 -0.0091207414337472689 0 0.0070360221061339006 -0.0098195492128748917 0 0.0058171586877188907 -0.011322270327983327 0 0.0034395058248639573 -0.017151788345420381 0 0.0033988152073088662 -0.017186726207824875 0 0.0031858268367719158 -0.017116556315801529 0 0.0053746344612083472 -0.015263042910472192 0 0.0047113620001996885 -0.014916496702253961 0 0.0033495933794066681 -0.017277389961302628 0 0.0033988152073088662 -0.017186726207824875 0 0.0031858268367719158 -0.017116556315801529 0 0.0033495933794066681 -0.017277389961302628 0 0.0031825917731855636 -0.01731000160763017 0 0.0031858268367719158 -0.017116556315801529 0 0.0033988152073088662 -0.017186726207824875 0 0.0035096266659472193 -0.017168324500029333 0 0.0035438238479846475 -0.017339319391128431 0 0.0033495933794066681 -0.017277389961302628 0 0.0033988152073088662 -0.017186726207824875 0 0.0035438238479846475 -0.017339319391128431 0 0.0033495933794066681 -0.017277389961302628 0 0.0034535796055355896 -0.017493156603073674 0 0.0035438238479846475 -0.017339319391128431 0 0.0034535796055355896 -0.017493156603073674 0 0.0031825917731855636 -0.01731000160763017 0 0.0032637509422626422 -0.017495491518063806 0 0.0033495933794066681 -0.017277389961302628 0 0.0034535796055355896 -0.017493156603073674 0 0.0031825917731855636 -0.01731000160763017 0 0.0031825917731855636 -0.01731000160763017 0 0.0031858268367719158 -0.017116556315801529 0 0.0027922317296260762 -0.017147859422641774 0 0.0031825917731855636 -0.01731000160763017 0 0.0027922317296260762 -0.017147859422641774 0 0.0030039508465881876 -0.01747083280266077 0 0.0047113620001996885 -0.014916496702253961 0 0.0037405978337930789 -0.015452059313907782 0 0.0058171586877188907 -0.011322270327983327 0 0.0040794806739139792 -0.011436627827091627 0 0.0045380667180538277 -0.01300756978101748 0 0.0040794806739139792 -0.011436627827091627 0 0.0045380667180538277 -0.01300756978101748 0 0.0027550840194962151 -0.01235944551737117 0 0.0045380667180538277 -0.01300756978101748 0 0.0027550840194962151 -0.01235944551737117 0 0.00314648311835231 -0.014940976028874037 0 0.0027550840194962151 -0.01235944551737117 0 0.0011314669363530891 -0.013400047227734276 0 0.00314648311835231 -0.014940976028874037 0 0.0027550840194962151 -0.01235944551737117 0 0.0011314669363530891 -0.013400047227734276 0 0.0012908735169236435 -0.0117573668686442 0 0.0011314669363530891 -0.013400047227734276 0 0.0012908735169236435 -0.0117573668686442 0 0.00012048913794626485 -0.012457335458045398 0 0.0012908735169236435 -0.0117573668686442 0 0.0026978687063582926 -0.011181441316809563 0 0.0012589934707741648 -0.010626139993728762 0 0.0012908735169236435 -0.0117573668686442 0 0.00048767185672552815 -0.010600071764895134 0 0.0012589934707741648 -0.010626139993728762 0 0.0027550840194962151 -0.01235944551737117 0 0.0012908735169236435 -0.0117573668686442 0 0.0026978687063582926 -0.011181441316809563 0 0.0040794806739139792 -0.011436627827091627 0 0.0027550840194962151 -0.01235944551737117 0 0.0026978687063582926 -0.011181441316809563 0 -0.001829307424011739 -0.012704890251686219 0 -0.0035404420406970022 -0.01458693925338847 0 -0.00081760482715147631 -0.013979806285293326 0 -0.00063895482031600269 -0.011939988787756201 0 -0.0012258524875075085 -0.012957018750271188 0 0.0011314669363530891 -0.013400047227734276 0 0.00012048913794626485 -0.012457335458045398 0 -0.00081760482715147631 -0.013979806285293326 0 -0.001829307424011739 -0.012704890251686219 0 0.00012048913794626485 -0.012457335458045398 0 -0.00081760482715147631 -0.013979806285293326 0 0.0012908735169236435 -0.0117573668686442 0 0.00012048913794626485 -0.012457335458045398 0 0.00048767185672552815 -0.010600071764895134 0 0.00028659048249169724 -0.011032964961590775 0 0.00086233906576101897 -0.011114192211868195 0 -0.00022580601305027896 -0.010501856187569807 0 0.00048767185672552815 -0.010600071764895134 0 -0.00017317683259662265 -0.010397423056322566 0 0.00048767185672552815 -0.010600071764895134 0 -0.00017317683259662265 -0.010397423056322566 0 0.0012589934707741648 -0.010626139993728762 0 -0.001829307424011739 -0.012704890251686219 0 0.00012048913794626485 -0.012457335458045398 0 0.00048767185672552815 -0.010600071764895134 0 -0.00063895482031600269 -0.011939988787756201 0 -0.00014862457585595123 -0.011364182429204272 0 -0.00013511357699644289 -0.010462661265357562 0 -0.00017317683259662265 -0.010397423056322566 0 -0.00018671165858284057 -0.010107929002647838 0 -0.00013511357699644289 -0.010462661265357562 0 -0.00022580601305027896 -0.010501856187569807 0 -0.00017317683259662265 -0.010397423056322566 0 -0.00017317683259662265 -0.010397423056322566 0 -0.00018671165858284057 -0.010107929002647838 0 -0.00020158725575175095 -0.010271958118177911 0 -0.00018671165858284057 -0.010107929002647838 0 -0.00020158725575175095 -0.010271958118177911 0 -0.00020491971518337614 -0.010280383901830789 0 -0.00020158725575175095 -0.010271958118177911 0 -0.00020491971518337614 -0.010280383901830789 0 -0.00024478224438472283 -0.010322900735396616 0 -0.00017317683259662265 -0.010397423056322566 0 -0.00020158725575175095 -0.010271958118177911 0 -0.00024215217276451126 -0.010268875790597362 0 -0.00023496360579670689 -0.010386007162445971 0 -0.00020491971518337614 -0.010280383901830789 0 -0.00024478224438472283 -0.010322900735396616 0 -0.00023496360579670689 -0.010386007162445971 0 -0.00024478224438472283 -0.010322900735396616 0 -0.00028472774643177086 -0.010428804163323644 0 -0.00023496360579670689 -0.010386007162445971 0 -0.00020491971518337614 -0.010280383901830789 0 -0.00017059991429504198 -0.010470210316715859 0 -5.729692679368821e-05 -0.010362280396974236 0 -0.00018671165858284057 -0.010107929002647838 0 -0.00020491971518337614 -0.010280383901830789 0 -5.729692679368821e-05 -0.010362280396974236 0 -0.00020491971518337614 -0.010280383901830789 0 -0.00017059991429504198 -0.010470210316715859 0 0.003907429376271275 -0.0098036911803852534 0 0.0026978687063582926 -0.011181441316809563 0 0.0012589934707741648 -0.010626139993728762 0 0.0021662753724678964 -0.011614543500634331 0 0.00086233906576101897 -0.011114192211868195 0 -0.00043539280873134339 -0.010347919815324401 0 -0.00024215217276451126 -0.010268875790597362 0 -0.00028933228056601237 -0.010350239810523736 0 -0.00020158725575175095 -0.010271958118177911 0 -0.00024215217276451126 -0.010268875790597362 0 -0.00024478224438472283 -0.010322900735396616 0 -0.00024215217276451126 -0.010268875790597362 0 -0.00024478224438472283 -0.010322900735396616 0 -0.00028933228056601237 -0.010350239810523736 0 -0.00024478224438472283 -0.010322900735396616 0 -0.00038539682625118513 -0.010419778827592681 0 -0.00028472774643177086 -0.010428804163323644 0 -0.00024478224438472283 -0.010322900735396616 0 -0.0003115128917621664 -0.010448062072375558 0 -0.00028933228056601237 -0.010350239810523736 0 -0.00032723752917794449 -0.010425584377347316 0 -0.00037912799236867637 -0.010467902458523685 0 -0.00043539280873134339 -0.010347919815324401 0 -0.0003115128917621664 -0.010448062072375558 0 -0.00028933228056601237 -0.010350239810523736 0 -0.00038539682625118513 -0.010419778827592681 0 -0.00031617563178554562 -0.010558694279079779 0 -0.00044242228177051072 -0.010632113624259516 0 -0.00037912799236867637 -0.010467902458523685 0 -0.00048407521572723327 -0.010552503017927768 0 -0.00028472774643177086 -0.010428804163323644 0 -0.00031617563178554562 -0.010558694279079779 0 -0.00024710244948708923 -0.010492347016779452 0 -0.00038539682625118513 -0.010419778827592681 0 -0.00028472774643177086 -0.010428804163323644 0 -0.00031617563178554562 -0.010558694279079779 0 -0.00031617563178554562 -0.010558694279079779 0 -0.00023195345281893488 -0.010629098297028442 0 -0.00033795825296966363 -0.010688851903647986 0 -0.00031617563178554562 -0.010558694279079779 0 -0.00033795825296966363 -0.010688851903647986 0 -0.00044242228177051072 -0.010632113624259516 0 -0.00013187001031555708 -0.010608319616815293 0 -5.729692679368821e-05 -0.010362280396974236 0 -0.00017059991429504198 -0.010470210316715859 0 -0.00023496360579670689 -0.010386007162445971 0 -0.00017059991429504198 -0.010470210316715859 0 -0.00024710244948708923 -0.010492347016779452 0 -0.00023496360579670689 -0.010386007162445971 0 -0.00028472774643177086 -0.010428804163323644 0 -0.00024710244948708923 -0.010492347016779452 0 -0.00031617563178554562 -0.010558694279079779 0 -0.00024710244948708923 -0.010492347016779452 0 -0.00023195345281893488 -0.010629098297028442 0 -0.00017059991429504198 -0.010470210316715859 0 -0.00024710244948708923 -0.010492347016779452 0 -0.00023195345281893488 -0.010629098297028442 0 -0.00013187001031555708 -0.010608319616815293 0 -0.00017059991429504198 -0.010470210316715859 0 -0.00023195345281893488 -0.010629098297028442 0 -0.00046424241958766433 -0.010779329818929118 0 -0.00013187001031555708 -0.010608319616815293 0 -0.00020622674996356407 -0.01067329560533386 0 -0.00013187001031555708 -0.010608319616815293 0 -0.00023195345281893488 -0.010629098297028442 0 -0.00020622674996356407 -0.01067329560533386 0 -0.00023195345281893488 -0.010629098297028442 0 -0.00020622674996356407 -0.01067329560533386 0 -0.00022059114987781089 -0.010729792129041833 0 -0.00020622674996356407 -0.01067329560533386 0 -0.00015668393390125485 -0.010397042387300512 0 -0.00022059114987781089 -0.010729792129041833 0 0.00038605204656397935 -0.010965863563699987 0 0.00071764597451454875 -0.01113551427122208 0 -0.00015668393390125485 -0.010397042387300512 0 0.0024869668368050139 -0.010185908211896256 0 0.0011134870996158796 -0.009317911783534855 0 -0.00015668393390125485 -0.010397042387300512 0 -5.9688499372132386e-05 -0.008981816250183525 0 0.0011134870996158796 -0.009317911783534855 0 -0.00046424241958766433 -0.010779329818929118 0 -0.00015668393390125485 -0.010397042387300512 0 -5.9688499372132386e-05 -0.008981816250183525 0 -0.00046424241958766433 -0.010779329818929118 0 -0.00020622674996356407 -0.01067329560533386 0 -0.00015668393390125485 -0.010397042387300512 0 -0.00033795825296966363 -0.010688851903647986 0 -0.0004068062483396556 -0.010844649342418407 0 -0.00050135285046854492 -0.010770708350818864 0 -0.00033795825296966363 -0.010688851903647986 0 -0.00050135285046854492 -0.010770708350818864 0 -0.00044242228177051072 -0.010632113624259516 0 -0.00023195345281893488 -0.010629098297028442 0 -0.00033795825296966363 -0.010688851903647986 0 -0.00022059114987781089 -0.010729792129041833 0 0.00071764597451454875 -0.01113551427122208 0 0.00052835774515694073 -0.011822274702503278 0 -0.00033795825296966363 -0.010688851903647986 0 -0.00022059114987781089 -0.010729792129041833 0 -0.0004068062483396556 -0.010844649342418407 0 0.0024869668368050139 -0.010185908211896256 0 0.0021571888445269111 -0.0099510315993947256 0 0.0024913234164009091 -0.01049225512810726 0 0.0021571888445269111 -0.0099510315993947256 0 -0.0005867123788672301 -0.010320869467052603 0 0.00021878617107175697 -0.011105789734830354 0 0.00052835774515694073 -0.011822274702503278 0 -0.00050825892388683892 -0.013523789518635391 0 -0.0004068062483396556 -0.010844649342418407 0 -0.00061161185430742826 -0.010939948965671823 0 -0.00050135285046854492 -0.010770708350818864 0 -0.00061161185430742826 -0.010939948965671823 0 -0.00064329730051430184 -0.010815758557944361 0 -0.00050135285046854492 -0.010770708350818864 0 -0.00064329730051430184 -0.010815758557944361 0 -0.00050135285046854492 -0.010770708350818864 0 -0.00063130241543345015 -0.010637934472206284 0 -0.00050135285046854492 -0.010770708350818864 0 -0.00044242228177051072 -0.010632113624259516 0 -0.00063130241543345015 -0.010637934472206284 0 -0.00044242228177051072 -0.010632113624259516 0 -0.00063130241543345015 -0.010637934472206284 0 -0.00049732196799806832 -0.010518747021815456 0 -0.00059771564387955413 -0.01064161539654866 0 -0.00048407521572723327 -0.010552503017927768 0 -0.0006136559093916714 -0.010706118640461861 0 -0.00059700955959104886 -0.010570770151872551 0 -0.00045401423550741504 -0.010584464041982475 0 -0.00050411530623109459 -0.010477678319257158 0 -0.00059700955959104886 -0.010570770151872551 0 -0.00045401423550741504 -0.010584464041982475 0 -0.00038539682625118513 -0.010419778827592681 0 -0.00044242228177051072 -0.010632113624259516 0 -0.00049732196799806832 -0.010518747021815456 0 -0.00050411530623109459 -0.010477678319257158 0 -0.0003115128917621664 -0.010448062072375558 0 -0.00045401423550741504 -0.010584464041982475 0 -0.00074437636899828867 -0.010630065104449884 0 -0.00087219302939516897 -0.010721221676145988 0 -0.00089595190873349208 -0.010568692511882619 0 -0.00066605665783163925 -0.010456418048432337 0 -0.00074437636899828867 -0.010630065104449884 0 -0.00089595190873349208 -0.010568692511882619 0 -0.00066605665783163925 -0.010456418048432337 0 -0.00059700955959104886 -0.010570770151872551 0 -0.00074437636899828867 -0.010630065104449884 0 -0.0006136559093916714 -0.010706118640461861 0 -0.00059700955959104886 -0.010570770151872551 0 -0.00074437636899828867 -0.010630065104449884 0 -0.0006136559093916714 -0.010706118640461861 0 -0.00074437636899828867 -0.010630065104449884 0 -0.0007725611122075055 -0.010802144575082074 0 -0.00059771564387955413 -0.01064161539654866 0 -0.00066147236980730899 -0.010690524263565504 0 -0.00074437636899828867 -0.010630065104449884 0 -0.00087219302939516897 -0.010721221676145988 0 -0.0007725611122075055 -0.010802144575082074 0 -0.00087219302939516897 -0.010721221676145988 0 -0.0007725611122075055 -0.010802144575082074 0 -0.0009316756330438235 -0.010865452120109084 0 -0.0007725611122075055 -0.010802144575082074 0 -0.00084025671224735371 -0.010914826193258514 0 -0.0009316756330438235 -0.010865452120109084 0 -0.0007725611122075055 -0.010802144575082074 0 -0.00073481179250824873 -0.010900924726627358 0 -0.00084025671224735371 -0.010914826193258514 0 -0.00064329730051430184 -0.010815758557944361 0 -0.0007725611122075055 -0.010802144575082074 0 -0.00073481179250824873 -0.010900924726627358 0 -0.00064329730051430184 -0.010815758557944361 0 -0.00063130241543345015 -0.010637934472206284 0 -0.0007725611122075055 -0.010802144575082074 0 -0.00061161185430742826 -0.010939948965671823 0 -0.00064329730051430184 -0.010815758557944361 0 -0.00073481179250824873 -0.010900924726627358 0 -0.0005867123788672301 -0.010320869467052603 0 -0.0036841516586550872 -0.010747922083341356 0 -0.001661039017168068 -0.010711014532704942 0 -0.00050825892388683892 -0.013523789518635391 0 -0.0018900837214232086 -0.017272026058306699 0 -0.00061161185430742826 -0.010939948965671823 0 -0.00073481179250824873 -0.010900924726627358 0 -0.00082816225219544456 -0.011031003145839269 0 -0.00084025671224735371 -0.010914826193258514 0 -0.00082816225219544456 -0.011031003145839269 0 -0.00093868081351221951 -0.010981010775261474 0 -0.00073481179250824873 -0.010900924726627358 0 -0.00084025671224735371 -0.010914826193258514 0 -0.00082816225219544456 -0.011031003145839269 0 -0.0036841516586550872 -0.010747922083341356 0 -0.0031137123108777882 -0.012965748186055382 0 -0.0049963803833495976 -0.012286376154053147 0 -0.0029314082442745723 -0.012695434922237505 0 -0.0041063632144910647 -0.014791494164590913 0 -0.0026576192934089069 -0.014322041636954651 0 -0.0015298271168117138 -0.014865364199847721 0 -0.0020722703935200449 -0.017996120419425068 0 -0.0031137123108777882 -0.012965748186055382 0 -0.0049963803833495976 -0.012286376154053147 0 -0.0049576665691269299 -0.013399905480873584 0 -0.0031137123108777882 -0.012965748186055382 0 -0.0046947479849290315 -0.015184528124480661 0 -0.0049576665691269299 -0.013399905480873584 0 -0.0016668511674862844 -0.014028581315204616 0 -0.0016224234057560624 -0.012723248005252033 0 -0.00082749110545833691 -0.013803166789450847 0 -0.0016668511674862844 -0.014028581315204616 0 -0.0016224234057560624 -0.012723248005252033 0 -0.0026576192934089069 -0.014322041636954651 0 -0.0029314082442745723 -0.012695434922237505 0 -0.0016224234057560624 -0.012723248005252033 0 -0.0026576192934089069 -0.014322041636954651 0 -0.0036841516586550872 -0.010747922083341356 0 -0.0031137123108777882 -0.012965748186055382 0 -0.001661039017168068 -0.010711014532704942 0 -0.0016224234057560624 -0.012723248005252033 0 -0.001661039017168068 -0.010711014532704942 0 -0.00085156544029312226 -0.011426313877782861 0 -0.0015298271168117138 -0.014865364199847721 0 -0.0011393824096444629 -0.01361622584099887 0 -0.0029314082442745723 -0.012695434922237505 0 -0.0016224234057560624 -0.012723248005252033 0 -0.001661039017168068 -0.010711014532704942 0 -0.0005867123788672301 -0.010320869467052603 0 -0.001661039017168068 -0.010711014532704942 0 -0.00085156544029312226 -0.011426313877782861 0 -0.0005867123788672301 -0.010320869467052603 0 0.00021878617107175697 -0.011105789734830354 0 -0.00085156544029312226 -0.011426313877782861 0 0.00021878617107175697 -0.011105789734830354 0 0.0009055888298772363 -0.011805893356792392 0 -0.00061028808495013705 -0.012247359463850733 0 0.00021878617107175697 -0.011105789734830354 0 -0.00085156544029312226 -0.011426313877782861 0 -0.00061028808495013705 -0.012247359463850733 0 -0.0016224234057560624 -0.012723248005252033 0 -0.00085156544029312226 -0.011426313877782861 0 -0.00061028808495013705 -0.012247359463850733 0 0.0021571888445269111 -0.0099510315993947256 0 0.00021878617107175697 -0.011105789734830354 0 0.0009055888298772363 -0.011805893356792392 0 0.0009055888298772363 -0.011805893356792392 0 0.0012811303209679865 -0.013439243266706627 0 0.0019971161401799802 -0.01184178745954903 0 0.0009055888298772363 -0.011805893356792392 0 0.00040914530046753266 -0.013602985442708366 0 -4.9038534334978432e-05 -0.012877930142280289 0 0.0009055888298772363 -0.011805893356792392 0 0.00040914530046753266 -0.013602985442708366 0 0.0012811303209679865 -0.013439243266706627 0 0.0009055888298772363 -0.011805893356792392 0 -0.00061028808495013705 -0.012247359463850733 0 -4.9038534334978432e-05 -0.012877930142280289 0 -0.00061028808495013705 -0.012247359463850733 0 -4.9038534334978432e-05 -0.012877930142280289 0 -0.00082749110545833691 -0.013803166789450847 0 -0.0016224234057560624 -0.012723248005252033 0 -0.00061028808495013705 -0.012247359463850733 0 -0.00082749110545833691 -0.013803166789450847 0 0.00040914530046753266 -0.013602985442708366 0 -4.9038534334978432e-05 -0.012877930142280289 0 -0.00082749110545833691 -0.013803166789450847 0 -0.00082749110545833691 -0.013803166789450847 0 -0.00026683607558609105 -0.015344355461888667 0 -0.0015709190112527863 -0.015300822466495653 0 0.00040914530046753266 -0.013602985442708366 0 -0.00082749110545833691 -0.013803166789450847 0 -0.00026683607558609105 -0.015344355461888667 0 -0.00026683607558609105 -0.015344355461888667 0 -0.00094082937831219409 -0.016137908227672439 0 -0.0015709190112527863 -0.015300822466495653 0 0.0012811303209679865 -0.013439243266706627 0 0.00063586414360300902 -0.014972546677455002 0 0.0016301373335690372 -0.014847949712005117 0 0.00040914530046753266 -0.013602985442708366 0 -0.00026683607558609105 -0.015344355461888667 0 0.00063586414360300902 -0.014972546677455002 0 0.00040914530046753266 -0.013602985442708366 0 0.0012811303209679865 -0.013439243266706627 0 0.00063586414360300902 -0.014972546677455002 0 -0.00026683607558609105 -0.015344355461888667 0 0.00063586414360300902 -0.014972546677455002 0 0.00072930772531819581 -0.016576106233461375 0 0.00063586414360300902 -0.014972546677455002 0 0.001145015662827479 -0.015709742069308467 0 0.00072930772531819581 -0.016576106233461375 0 0.001145015662827479 -0.015709742069308467 0 0.0016301373335690372 -0.014847949712005117 0 0.0016276577431331011 -0.016416322414329755 0 0.00063586414360300902 -0.014972546677455002 0 0.001145015662827479 -0.015709742069308467 0 0.0016301373335690372 -0.014847949712005117 0 0.00072930772531819581 -0.016576106233461375 0 0.0015306163438601197 -0.017951856495519548 0 0.00024997116855131308 -0.018516015544932995 0 0.001145015662827479 -0.015709742069308467 0 0.00072930772531819581 -0.016576106233461375 0 0.0016276577431331011 -0.016416322414329755 0 0.00072930772531819581 -0.016576106233461375 0 0.0016276577431331011 -0.016416322414329755 0 0.0015306163438601197 -0.017951856495519548 0 0.00072930772531819581 -0.016576106233461375 0 -0.00039492326735409593 -0.016951563343243114 0 0.00024997116855131308 -0.018516015544932995 0 -0.00026683607558609105 -0.015344355461888667 0 -0.00094082937831219409 -0.016137908227672439 0 -0.00039492326735409593 -0.016951563343243114 0 -0.00094082937831219409 -0.016137908227672439 0 -0.00039492326735409593 -0.016951563343243114 0 -0.0015051057823935493 -0.016940338015310568 0 -0.00026683607558609105 -0.015344355461888667 0 0.00072930772531819581 -0.016576106233461375 0 -0.00039492326735409593 -0.016951563343243114 0 -0.00039492326735409593 -0.016951563343243114 0 -0.0015051057823935493 -0.016940338015310568 0 -0.00072872879748985312 -0.018131869306659405 0 -0.00094082937831219409 -0.016137908227672439 0 -0.0015051057823935493 -0.016940338015310568 0 -0.0015709190112527863 -0.015300822466495653 0 -0.0015051057823935493 -0.016940338015310568 0 -0.0028122642183880009 -0.017499197096184468 0 -0.0026949217702156802 -0.015979566422104949 0 -0.0015051057823935493 -0.016940338015310568 0 -0.0026949217702156802 -0.015979566422104949 0 -0.0015709190112527863 -0.015300822466495653 0 -0.0015051057823935493 -0.016940338015310568 0 -0.0028122642183880009 -0.017499197096184468 0 -0.0016735840987123032 -0.018620560436378324 0 -0.0028122642183880009 -0.017499197096184468 0 -0.0038259395857460987 -0.016568464166877184 0 -0.004044170879222788 -0.017806465946759241 0 -0.0028122642183880009 -0.017499197096184468 0 -0.0038259395857460987 -0.016568464166877184 0 -0.0026949217702156802 -0.015979566422104949 0 -0.0038259395857460987 -0.016568464166877184 0 -0.0026949217702156802 -0.015979566422104949 0 -0.0041063632144910647 -0.014791494164590913 0 -0.0026949217702156802 -0.015979566422104949 0 -0.0041063632144910647 -0.014791494164590913 0 -0.0026576192934089069 -0.014322041636954651 0 -0.0016668511674862844 -0.014028581315204616 0 -0.0026576192934089069 -0.014322041636954651 0 -0.0015709190112527863 -0.015300822466495653 0 -0.0016668511674862844 -0.014028581315204616 0 -0.00082749110545833691 -0.013803166789450847 0 -0.0015709190112527863 -0.015300822466495653 0 -0.0026949217702156802 -0.015979566422104949 0 -0.0026576192934089069 -0.014322041636954651 0 -0.0015709190112527863 -0.015300822466495653 0 -0.00036132323942313646 -0.0069895794237260205 0 7.8764875633008396e-05 -0.0073275486923673732 0 -0.00057017068109608605 -0.0073899654320538303 0 7.8764875633008396e-05 -0.0073275486923673732 0 -0.00057017068109608605 -0.0073899654320538303 0 0.00064426888241349452 -0.0081775001047948472 0 -0.00057017068109608605 -0.0073899654320538303 0 -5.9688499372132386e-05 -0.008981816250183525 0 0.00064426888241349452 -0.0081775001047948472 0 -0.00062824554128041506 -0.0062677483307836505 0 -0.00087063753700170195 -0.0053398019946757974 0 -0.00057017068109608605 -0.0073899654320538303 0 -0.00046424241958766433 -0.010779329818929118 0 -0.00057017068109608605 -0.0073899654320538303 0 -5.9688499372132386e-05 -0.008981816250183525 0 -0.00042209223059014154 -0.0079399140856043042 0 -0.00044053249253794325 -0.0075970664412216542 0 -5.9688499372132386e-05 -0.008981816250183525 0 0.00064426888241349452 -0.0081775001047948472 0 0.0011134870996158796 -0.009317911783534855 0 0.0024869668368050139 -0.010185908211896256 0 0.0011134870996158796 -0.009317911783534855 0 0.0019190743623973877 -0.0093591541447861516 0 0.00064426888241349452 -0.0081775001047948472 0 0.0011134870996158796 -0.009317911783534855 0 0.0019190743623973877 -0.0093591541447861516 0 7.8764875633008396e-05 -0.0073275486923673732 0 0.0014052946257493673 -0.008168788818103484 0 0.00067111139408414808 -0.0064883534222401548 0 7.8764875633008396e-05 -0.0073275486923673732 0 0.00064426888241349452 -0.0081775001047948472 0 0.0014052946257493673 -0.008168788818103484 0 0.00064426888241349452 -0.0081775001047948472 0 0.0019190743623973877 -0.0093591541447861516 0 0.0014052946257493673 -0.008168788818103484 0 0.0014052946257493673 -0.008168788818103484 0 0.0031547378435306246 -0.010146917673617877 0 0.0031236215752397482 -0.0075636893513960834 0 0.0017654291547796286 -0.011281071582774745 0 0.0016127024918539238 -0.011603521788422604 0 0.0019190743623973877 -0.0093591541447861516 0 0.0014052946257493673 -0.008168788818103484 0 0.0031547378435306246 -0.010146917673617877 0 0.0031547378435306246 -0.010146917673617877 0 0.0024370368543407978 -0.013126570713838544 0 0.0041759592985642757 -0.013486582060877538 0 0.0024869668368050139 -0.010185908211896256 0 0.0019190743623973877 -0.0093591541447861516 0 0.0031547378435306246 -0.010146917673617877 0 0.0024869668368050139 -0.010185908211896256 0 0.0031547378435306246 -0.010146917673617877 0 0.0024913234164009091 -0.01049225512810726 0 0.0031547378435306246 -0.010146917673617877 0 0.0024913234164009091 -0.01049225512810726 0 0.0019971161401799802 -0.01184178745954903 0 0.0009055888298772363 -0.011805893356792392 0 0.0024913234164009091 -0.01049225512810726 0 0.0019971161401799802 -0.01184178745954903 0 0.0021571888445269111 -0.0099510315993947256 0 0.0009055888298772363 -0.011805893356792392 0 0.0024913234164009091 -0.01049225512810726 0 0.0031547378435306246 -0.010146917673617877 0 0.0019971161401799802 -0.01184178745954903 0 0.0024370368543407978 -0.013126570713838544 0 0.0012811303209679865 -0.013439243266706627 0 0.0019971161401799802 -0.01184178745954903 0 0.0024370368543407978 -0.013126570713838544 0 0.0012811303209679865 -0.013439243266706627 0 0.0024370368543407978 -0.013126570713838544 0 0.0016301373335690372 -0.014847949712005117 0 0.0024370368543407978 -0.013126570713838544 0 0.0028294474592864601 -0.014815958355714247 0 0.0016301373335690372 -0.014847949712005117 0 0.0024370368543407978 -0.013126570713838544 0 0.0028294474592864601 -0.014815958355714247 0 0.0041759592985642757 -0.013486582060877538 0 0.0028294474592864601 -0.014815958355714247 0 0.0028235288497765031 -0.0165262080417562 0 0.004299158216871584 -0.01615248981886426 0 0.0028294474592864601 -0.014815958355714247 0 0.0022385668041103564 -0.015803512769368058 0 0.0028235288497765031 -0.0165262080417562 0 0.0028294474592864601 -0.014815958355714247 0 0.0022385668041103564 -0.015803512769368058 0 0.0016301373335690372 -0.014847949712005117 0 0.0022385668041103564 -0.015803512769368058 0 0.0016301373335690372 -0.014847949712005117 0 0.0016276577431331011 -0.016416322414329755 0 0.0021492356985873436 -0.017241509110656712 0 0.0028235288497765031 -0.0165262080417562 0 0.0026985225731357976 -0.019038743939136401 0 0.0022385668041103564 -0.015803512769368058 0 0.0016276577431331011 -0.016416322414329755 0 0.0021492356985873436 -0.017241509110656712 0 0.0016276577431331011 -0.016416322414329755 0 0.0021492356985873436 -0.017241509110656712 0 0.0015306163438601197 -0.017951856495519548 0 0.0022385668041103564 -0.015803512769368058 0 0.0021492356985873436 -0.017241509110656712 0 0.0028235288497765031 -0.0165262080417562 0 0.0028235288497765031 -0.0165262080417562 0 0.0035014727812678814 -0.016362548849722238 0 0.0026985225731357976 -0.019038743939136401 0 -0.00069304425044702941 -0.012823910993738048 0 -7.1273662810915426e-05 -0.013240843453982229 0 -0.00071502528455331124 -0.013913509236189151 0 0.0010780021916246502 -0.012727790195079115 0 0.00080308848093371438 -0.015622995739191453 0 0.0012252933636142181 -0.012811828431204939 0 0.0010780021916246502 -0.012727790195079115 0 0.0030172516333442346 -0.0059481421004098306 0 0.0031236215752397482 -0.0075636893513960834 0 0.00067111139408414808 -0.0064883534222401548 0 0.0028294474592864601 -0.014815958355714247 0 0.004299158216871584 -0.01615248981886426 0 0.0041759592985642757 -0.013486582060877538 0 0.0010780021916246502 -0.012727790195079115 0 0.0016127024918539238 -0.011603521788422604 0 0.0010780021916246502 -0.012727790195079115 0 0.00086341720324455769 -0.010943381471416777 0 0.0014052946257493673 -0.008168788818103484 0 0.0031236215752397482 -0.0075636893513960834 0 0.00067111139408414808 -0.0064883534222401548 0 0.00028508734025771952 -0.012668070870134461 0 -7.1273662810915426e-05 -0.013240843453982229 0 0.00053793512023569382 -0.013372181133238672 0 -0.00069304425044702941 -0.012823910993738048 0 0.00028508734025771952 -0.012668070870134461 0 -7.1273662810915426e-05 -0.013240843453982229 0 0.000985653703902865 -0.013062329783063755 0 0.00028508734025771952 -0.012668070870134461 0 0.00053793512023569382 -0.013372181133238672 0 0.000985653703902865 -0.013062329783063755 0 0.00090101745614660318 -0.01353508747149554 0 0.00053793512023569382 -0.013372181133238672 0 0.00099262462924449017 -0.012604961498559159 0 0.000985653703902865 -0.013062329783063755 0 0.00028508734025771952 -0.012668070870134461 0 -0.00038011136417728352 -0.0070902201391908294 0 7.8764875633008396e-05 -0.0073275486923673732 0 0.00067111139408414808 -0.0064883534222401548 0 0.00069182551341638175 -0.0098763877324907316 0 0.00086341720324455769 -0.010943381471416777 0 0.0011066586731482235 -0.014472106153295918 0 0.0006430720024309714 -0.014640037900619213 0 0.00083305837306854558 -0.014299820498565194 0 0.0006430720024309714 -0.014640037900619213 0 0.00083305837306854558 -0.014299820498565194 0 0.00064507230448886273 -0.014021163049535386 0 0.0006430720024309714 -0.014640037900619213 0 0.00064507230448886273 -0.014021163049535386 0 0.00015957506373171347 -0.014560696604958697 0 0.0011066586731482235 -0.014472106153295918 0 0.00083305837306854558 -0.014299820498565194 0 0.00096082283893800073 -0.013932459953608567 0 0.00083305837306854558 -0.014299820498565194 0 0.00096082283893800073 -0.013932459953608567 0 0.00064507230448886273 -0.014021163049535386 0 0.00096082283893800073 -0.013932459953608567 0 0.00090101745614660318 -0.01353508747149554 0 0.00064507230448886273 -0.014021163049535386 0 0.00090101745614660318 -0.01353508747149554 0 0.00053793512023569382 -0.013372181133238672 0 0.00064507230448886273 -0.014021163049535386 0 0.00053793512023569382 -0.013372181133238672 0 0.00064507230448886273 -0.014021163049535386 0 0.0001288052168347093 -0.013802542431452116 0 -7.1273662810915426e-05 -0.013240843453982229 0 0.0001288052168347093 -0.013802542431452116 0 -0.00071502528455331124 -0.013913509236189151 0 0.0001288052168347093 -0.013802542431452116 0 0.00015957506373171347 -0.014560696604958697 0 -0.00071502528455331124 -0.013913509236189151 0 -7.1273662810915426e-05 -0.013240843453982229 0 0.00053793512023569382 -0.013372181133238672 0 0.0001288052168347093 -0.013802542431452116 0 0.00064507230448886273 -0.014021163049535386 0 0.0001288052168347093 -0.013802542431452116 0 0.00015957506373171347 -0.014560696604958697 0 0.00015957506373171347 -0.014560696604958697 0 -0.00071502528455331124 -0.013913509236189151 0 -0.00063637361277430989 -0.015435203296651311 0 0.0026985225731357976 -0.019038743939136401 0 0.0012576790079280164 -0.020241481208015659 0 0.0010268805544219673 -0.020319666407286052 0 0.00080308848093371438 -0.015622995739191453 0 0.00038700770016125686 -0.017028230912809739 0 0.0021492356985873436 -0.017241509110656712 0 0.0026985225731357976 -0.019038743939136401 0 0.0015306163438601197 -0.017951856495519548 0 0.0026985225731357976 -0.019038743939136401 0 0.0015306163438601197 -0.017951856495519548 0 0.001037531828759999 -0.019550347720045679 0 0.0026985225731357976 -0.019038743939136401 0 0.0012576790079280164 -0.020241481208015659 0 0.001037531828759999 -0.019550347720045679 0 0.0012576790079280164 -0.020241481208015659 0 0.00084024134761281411 -0.020193546851102223 0 0.0010268805544219673 -0.020319666407286052 0 0.0012576790079280164 -0.020241481208015659 0 0.00084024134761281411 -0.020193546851102223 0 0.00062639703560687628 -0.021191459049435892 0 0.00084024134761281411 -0.020193546851102223 0 8.2719762220596863e-09 -0.017747244917121371 0 1.6558591205125327e-06 -0.020964520699395015 0 -3.8915363010488401e-06 -0.017733119836534566 0 -0.00063637361277430989 -0.015435203296651311 0 3.5028825093657687e-06 -0.017033842718704759 0 0.00084024134761281411 -0.020193546851102223 0 8.2719762220596863e-09 -0.017747244917121371 0 0.0010268805544219673 -0.020319666407286052 0 7.5053283181727555e-07 -0.01774128031909946 0 0.00038700770016125686 -0.017028230912809739 0 0.00015957506373171347 -0.014560696604958697 0 -0.00063637361277430989 -0.015435203296651311 0 0.00062484317422188706 -0.015742297901387585 0 0.0006430720024309714 -0.014640037900619213 0 0.00015957506373171347 -0.014560696604958697 0 0.00062484317422188706 -0.015742297901387585 0 4.2193744963873356e-07 -0.017022877312131628 0 0.00058995499920832194 -0.015403530012368218 0 -1.6298089793075474e-06 -0.017021635065750881 0 8.2750069295816482e-07 -0.014685377375446571 0 -7.954227375345837e-05 -0.013832277168614409 0 -0.00063637361277430989 -0.015435203296651311 0 3.5028825093657687e-06 -0.017033842718704759 0 0.00062484317422188706 -0.015742297901387585 0 0.00041677985935135444 -0.013242573605091391 0 8.2750069295816482e-07 -0.014685377375446571 0 -7.954227375345837e-05 -0.013832277168614409 0 0.00087398195015204007 -0.014536014818027748 0 0.00058995499920832194 -0.015403530012368218 0 0.0011066586731482235 -0.014472106153295918 0 0.0006430720024309714 -0.014640037900619213 0 0.00062484317422188706 -0.015742297901387585 0 0.00050173777627142294 -0.013299760344646057 0 0.00041677985935135444 -0.013242573605091391 0 -7.954227375345837e-05 -0.013832277168614409 0 0.00050173777627142294 -0.013299760344646057 0 0.00052864272925527657 -0.013261769402344661 0 -7.954227375345837e-05 -0.013832277168614409 0 -0.0013738537199688866 -0.020521206872187916 0 -0.00067833419495178415 -0.019342472762944492 0 0.00011439938007666311 -0.020359956216172873 0 -0.0013738537199688866 -0.020521206872187916 0 0.00011439938007666311 -0.020359956216172873 0 -0.00026904879746120458 -0.022788279879841201 0 -0.0013738537199688866 -0.020521206872187916 0 -0.0029436110604831372 -0.019172030301545368 0 -0.0033759458703371691 -0.022497966351389124 0 -0.0013738537199688866 -0.020521206872187916 0 -0.0029436110604831372 -0.019172030301545368 0 -0.0016735840987123032 -0.018620560436378324 0 -0.0028122642183880009 -0.017499197096184468 0 -0.0029436110604831372 -0.019172030301545368 0 -0.004044170879222788 -0.017806465946759241 0 -0.0028122642183880009 -0.017499197096184468 0 -0.0029436110604831372 -0.019172030301545368 0 -0.0016735840987123032 -0.018620560436378324 0 -0.0013738537199688866 -0.020521206872187916 0 -0.0016735840987123032 -0.018620560436378324 0 -0.00067833419495178415 -0.019342472762944492 0 -0.0016735840987123032 -0.018620560436378324 0 -0.00067833419495178415 -0.019342472762944492 0 -0.00072872879748985312 -0.018131869306659405 0 -0.0015051057823935493 -0.016940338015310568 0 -0.0016735840987123032 -0.018620560436378324 0 -0.00072872879748985312 -0.018131869306659405 0 -0.00067833419495178415 -0.019342472762944492 0 0.00024997116855131308 -0.018516015544932995 0 0.00011439938007666311 -0.020359956216172873 0 -0.00039492326735409593 -0.016951563343243114 0 -0.00072872879748985312 -0.018131869306659405 0 0.00024997116855131308 -0.018516015544932995 0 -0.00067833419495178415 -0.019342472762944492 0 -0.00072872879748985312 -0.018131869306659405 0 0.00024997116855131308 -0.018516015544932995 0 0.0015306163438601197 -0.017951856495519548 0 0.00024997116855131308 -0.018516015544932995 0 0.001037531828759999 -0.019550347720045679 0 0.0012576790079280164 -0.020241481208015659 0 0.001037531828759999 -0.019550347720045679 0 0.00062639703560687628 -0.021191459049435892 0 0.00024997116855131308 -0.018516015544932995 0 0.001037531828759999 -0.019550347720045679 0 0.00011439938007666311 -0.020359956216172873 0 0.001037531828759999 -0.019550347720045679 0 0.00011439938007666311 -0.020359956216172873 0 0.00062639703560687628 -0.021191459049435892 0 0.00011439938007666311 -0.020359956216172873 0 0.00062639703560687628 -0.021191459049435892 0 -0.00026904879746120458 -0.022788279879841201 0 0.00084024134761281411 -0.020193546851102223 0 0.00062639703560687628 -0.021191459049435892 0 1.6558591205125327e-06 -0.020964520699395015 0 0.00062639703560687628 -0.021191459049435892 0 1.6558591205125327e-06 -0.020964520699395015 0 1.9892724567118513e-06 -0.024189395115564696 0 0.00062639703560687628 -0.021191459049435892 0 1.9892724567118513e-06 -0.024189395115564696 0 -0.00026904879746120458 -0.022788279879841201 0 1.9892724567118513e-06 -0.024189395115564696 0 -0.00026904879746120458 -0.022788279879841201 0 -7.8683776274199786e-06 -0.027405952456181961 0 -0.0013738537199688866 -0.020521206872187916 0 -0.00026904879746120458 -0.022788279879841201 0 -0.0033759458703371691 -0.022497966351389124 0 -0.00026904879746120458 -0.022788279879841201 0 -7.8683776274199786e-06 -0.027405952456181961 0 -0.0033759458703371691 -0.022497966351389124 0 -3.403933208293471e-06 -0.027417266573381657 0 -0.00012773124300596416 -0.029224844661858873 0 1.1341646682681738e-06 -0.029887468834337891 0 -3.403933208293471e-06 -0.027417266573381657 0 -0.00012773124300596416 -0.029224844661858873 0 -0.0010550572349611177 -0.032062084208009448 0 -2.4807670998489614e-06 -0.027412517103117075 0 -0.001285945016138037 -0.027191848358373377 0 -0.00012773124300596416 -0.029224844661858873 0 5.9660873150563043e-05 -0.031191951621553159 0 -0.00022566924192520861 -0.031045794786619198 0 -0.00012773124300596416 -0.029224844661858873 0 1.1341646682681738e-06 -0.029887468834337891 0 5.9660873150563043e-05 -0.031191951621553159 0 1.1341646682681738e-06 -0.029887468834337891 0 5.9660873150563043e-05 -0.031191951621553159 0 0.00018738706313881486 -0.03173811119693265 0 5.9660873150563043e-05 -0.031191951621553159 0 0.00027090985643558196 -0.032434413946560499 0 0.00018738706313881486 -0.03173811119693265 0 5.9660873150563043e-05 -0.031191951621553159 0 -0.00018892299009147615 -0.031710387484785996 0 -0.00022566924192520861 -0.031045794786619198 0 5.9660873150563043e-05 -0.031191951621553159 0 -0.00018892299009147615 -0.031710387484785996 0 7.9548555764555272e-05 -0.032195934397671176 0 -0.00018892299009147615 -0.031710387484785996 0 7.9548555764555272e-05 -0.032195934397671176 0 -0.0002208108941781442 -0.032499425648301841 0 5.9660873150563043e-05 -0.031191951621553159 0 7.9548555764555272e-05 -0.032195934397671176 0 0.00027090985643558196 -0.032434413946560499 0 -0.0011571204852636745 -0.030510014368710918 0 -0.0013224848810818278 -0.030609491693512739 0 -0.00012773124300596416 -0.029224844661858873 0 -0.0010550572349611177 -0.032062084208009448 0 -0.00062268094027680002 -0.032687719037910866 0 -0.00012773124300596416 -0.029224844661858873 0 -0.00022566924192520861 -0.031045794786619198 0 -0.00086384864715975185 -0.032164617513423206 0 -0.00018892299009147615 -0.031710387484785996 0 -0.00022566924192520861 -0.031045794786619198 0 -0.00086384864715975185 -0.032164617513423206 0 -0.00018892299009147615 -0.031710387484785996 0 -0.00086384864715975185 -0.032164617513423206 0 -0.0002208108941781442 -0.032499425648301841 0 -0.00086384864715975185 -0.032164617513423206 0 -0.0002208108941781442 -0.032499425648301841 0 -0.00057268126498657035 -0.033181029560080226 0 -0.0029436110604831372 -0.019172030301545368 0 -0.0033759458703371691 -0.022497966351389124 0 -0.0049746277611727365 -0.019082155271374027 0 -0.001285945016138037 -0.027191848358373377 0 -0.0020813354750891899 -0.02724882159459158 0 -0.0013224848810818278 -0.030609491693512739 0 -0.0020813354750891899 -0.02724882159459158 0 -0.0010550572349611177 -0.032062084208009448 0 -0.00062268094027680002 -0.032687719037910866 0 -0.00044392959832874866 -0.035780370611518696 0 7.9548555764555272e-05 -0.032195934397671176 0 0.00029901096718133719 -0.032894428325114085 0 0.00027090985643558196 -0.032434413946560499 0 7.9548555764555272e-05 -0.032195934397671176 0 -0.0002208108941781442 -0.032499425648301841 0 0.00029901096718133719 -0.032894428325114085 0 -0.0002208108941781442 -0.032499425648301841 0 -0.00057268126498657035 -0.033181029560080226 0 0.00029901096718133719 -0.032894428325114085 0 -0.003095158921668052 -0.028991593902997537 0 -0.002829413670739217 -0.025480128804653824 0 0.00029901096718133719 -0.032894428325114085 0 0.00045532781037812219 -0.032697264969336462 0 0.00030632653787839481 -0.032749827601498936 0 -0.00057268126498657035 -0.033181029560080226 0 0.00029901096718133719 -0.032894428325114085 0 -0.00042241758399534928 -0.03385694941204128 0 -0.0020813354750891899 -0.02724882159459158 0 -0.0027384189680978704 -0.023852950459427504 0 -0.0029436110604831372 -0.019172030301545368 0 -0.0049746277611727365 -0.019082155271374027 0 -0.004044170879222788 -0.017806465946759241 0 -0.0049746277611727365 -0.019082155271374027 0 -0.0053645884800739806 -0.0168110712363925 0 -0.004044170879222788 -0.017806465946759241 0 -0.0020813354750891899 -0.02724882159459158 0 -0.002829413670739217 -0.025480128804653824 0 0.0001545263475861048 -0.032887751555247639 0 8.7310893991203646e-06 -0.032839534842931749 0 9.9045668295657865e-05 -0.032717474429682335 0 0.0001545263475861048 -0.032887751555247639 0 0.00021982977966626124 -0.032788059441901968 0 9.9045668295657865e-05 -0.032717474429682335 0 0.00021982977966626124 -0.032788059441901968 0 0.00029901096718133719 -0.032894428325114085 0 0.00030632653787839481 -0.032749827601498936 0 0.0001545263475861048 -0.032887751555247639 0 0.00021982977966626124 -0.032788059441901968 0 0.00029901096718133719 -0.032894428325114085 0 0.00029901096718133719 -0.032894428325114085 0 0.00024484890423965715 -0.033136830103081202 0 0.00027090985643558196 -0.032434413946560499 0 0.0001545263475861048 -0.032887751555247639 0 0.00029901096718133719 -0.032894428325114085 0 0.00024484890423965715 -0.033136830103081202 0 0.0002652570328026417 -0.034168688677691877 0 0.00019952089020995039 -0.034308699156185875 0 0.0001545263475861048 -0.032887751555247639 0 0.00024484890423965715 -0.033136830103081202 0 -4.9545629938559616e-05 -0.033027542357640889 0 0.00024484890423965715 -0.033136830103081202 0 0.00021096827255445108 -0.033457898775734754 0 8.7833824624238113e-05 -0.034525574278273331 0 0.00024484890423965715 -0.033136830103081202 0 0.00021096827255445108 -0.033457898775734754 0 0.00027090985643558196 -0.032434413946560499 0 0.00021096827255445108 -0.033457898775734754 0 0.00027090985643558196 -0.032434413946560499 0 0.00018738706313881486 -0.03173811119693265 0 0.00021096827255445108 -0.033457898775734754 0 5.1834121036578892e-07 -0.032364776835424422 0 0.00018738706313881486 -0.03173811119693265 0 1.1341646682681738e-06 -0.029887468834337891 0 5.1834121036578892e-07 -0.032364776835424422 0 0.00018738706313881486 -0.03173811119693265 0 0.00021096827255445108 -0.033457898775734754 0 5.1834121036578892e-07 -0.032364776835424422 0 1.3465778686584982e-07 -0.034833905910090085 0 0.00021096827255445108 -0.033457898775734754 0 1.3465778686584982e-07 -0.034833905910090085 0 2.8135050370155489e-05 -0.034427529015901466 0 7.5105659692472089e-07 -0.034840811301559721 0 0.00043950092835932187 -0.035937543578964642 0 1.3465778686584982e-07 -0.034833905910090085 0 2.8135050370155489e-05 -0.034427529015901466 0 0.00014874663027879107 -0.034560316063128552 0 -5.214622478817368e-07 -0.034839858414742859 0 -6.9472776557116146e-08 -0.037790852733790813 0 -8.5817694191755778e-05 -0.037874602912978242 0 2.8135050370155489e-05 -0.034427529015901466 0 0.00014874663027879107 -0.034560316063128552 0 0.00018371441059070276 -0.034800803694371711 0 2.8135050370155489e-05 -0.034427529015901466 0 0.00018371441059070276 -0.034800803694371711 0 0.00012071307813789723 -0.034466624329336212 0 0.00018371441059070276 -0.034800803694371711 0 0.00033626498576964112 -0.035170008316114526 0 0.00012071307813789723 -0.034466624329336212 0 0.00021096827255445108 -0.033457898775734754 0 2.8135050370155489e-05 -0.034427529015901466 0 0.00012071307813789723 -0.034466624329336212 0 0.00021096827255445108 -0.033457898775734754 0 0.00012071307813789723 -0.034466624329336212 0 8.7833824624238113e-05 -0.034525574278273331 0 2.8078124020642321e-06 -0.040741569361799741 0 0.00024619738914430015 -0.039898410653279183 0 0.00059542320185322498 -0.03962713742796839 0 -6.9472776557116146e-08 -0.037790852733790813 0 -8.5817694191755778e-05 -0.037874602912978242 0 0.00059542320185322498 -0.03962713742796839 0 0.00014874663027879107 -0.034560316063128552 0 0.00018371441059070276 -0.034800803694371711 0 0.00067820832209956395 -0.035821397874493142 0 -6.9472776557116146e-08 -0.037790852733790813 0 2.8078124020642321e-06 -0.040741569361799741 0 0.00059542320185322498 -0.03962713742796839 0 0.00043950092835932187 -0.035937543578964642 0 0.00026244767554215652 -0.03657691948951039 0 0.00018371441059070276 -0.034800803694371711 0 0.00033626498576964112 -0.035170008316114526 0 0.00067820832209956395 -0.035821397874493142 0 0.00033626498576964112 -0.035170008316114526 0 0.00067820832209956395 -0.035821397874493142 0 0.0006283767080545508 -0.035972191705499978 0 0.00026244767554215652 -0.03657691948951039 0 -3.5794055705888554e-05 -0.036736622794259287 0 0.00067820832209956395 -0.035821397874493142 0 0.00044665354374661152 -0.036922901394075884 0 7.6631065539433667e-05 -0.038202893412536361 0 0.00024619738914430015 -0.039898410653279183 0 0.00059542320185322498 -0.03962713742796839 0 7.6631065539433667e-05 -0.038202893412536361 0 0.00067820832209956395 -0.035821397874493142 0 0.00044665354374661152 -0.036922901394075884 0 0.0006283767080545508 -0.035972191705499978 0 0.00041287342076270079 -0.036105667484908142 0 0.0006283767080545508 -0.035972191705499978 0 0.00056112472663985102 -0.035866556779901713 0 0.00041287342076270079 -0.036105667484908142 0 0.00044665354374661152 -0.036922901394075884 0 0.0006283767080545508 -0.035972191705499978 0 0.00033626498576964112 -0.035170008316114526 0 0.0006283767080545508 -0.035972191705499978 0 0.0004325213712410333 -0.035597906432953415 0 -0.00033197690201346348 -0.032821429496111693 0 -0.00047822943412369385 -0.03286786604212686 0 -0.00026468772143708411 -0.032942704092704965 0 -0.00016844903584964195 -0.03510888671694281 0 5.8876270623062422e-05 -0.034634089277146986 0 0.0006283767080545508 -0.035972191705499978 0 0.00056112472663985102 -0.035866556779901713 0 0.0004325213712410333 -0.035597906432953415 0 -0.00072492100549906822 -0.035914796504067821 0 -0.00051707364013609002 -0.036331370028122291 0 -0.00022019883532667362 -0.036183885299928664 0 0.00014014145452734562 -0.036857901502126159 0 0.00045841417209122726 -0.036355531348899753 0 -0.00021150946004089166 -0.036472510537333046 0 -0.00016844903584964195 -0.03510888671694281 0 -9.3686805613788825e-05 -0.03524850810958622 0 0.00045841417209122726 -0.036355531348899753 0 -0.00022019883532667362 -0.036183885299928664 0 -0.00021150946004089166 -0.036472510537333046 0 -0.00028497716110976502 -0.035770336354615975 0 -0.00016844903584964195 -0.03510888671694281 0 0.00033626498576964112 -0.035170008316114526 0 8.7833824624238113e-05 -0.034525574278273331 0 0.0004325213712410333 -0.035597906432953415 0 0.00019952089020995039 -0.034308699156185875 0 5.8876270623062422e-05 -0.034634089277146986 0 0.00033626498576964112 -0.035170008316114526 0 0.00012071307813789723 -0.034466624329336212 0 8.7833824624238113e-05 -0.034525574278273331 0 -0.00033197690201346348 -0.032821429496111693 0 -0.00026468772143708411 -0.032942704092704965 0 -0.00020465507911533441 -0.032777181395909211 0 -0.00026468772143708411 -0.032942704092704965 0 -0.00010964169531107233 -0.032870383716755686 0 -0.00020465507911533441 -0.032777181395909211 0 -4.9545629938559616e-05 -0.033027542357640889 0 -0.00026468772143708411 -0.032942704092704965 0 -0.00010964169531107233 -0.032870383716755686 0 -4.9545629938559616e-05 -0.033027542357640889 0 -0.00010964169531107233 -0.032870383716755686 0 8.7310893991203646e-06 -0.032839534842931749 0 -0.00010964169531107233 -0.032870383716755686 0 8.7310893991203646e-06 -0.032839534842931749 0 -5.6985892081564425e-05 -0.032719220578899616 0 0.0001545263475861048 -0.032887751555247639 0 -4.9545629938559616e-05 -0.033027542357640889 0 8.7310893991203646e-06 -0.032839534842931749 0 8.7310893991203646e-06 -0.032839534842931749 0 -5.6985892081564425e-05 -0.032719220578899616 0 9.9045668295657865e-05 -0.032717474429682335 0 -5.6985892081564425e-05 -0.032719220578899616 0 1.2067306422259448e-05 -0.032607150335797266 0 -6.9430677313691099e-05 -0.032592014458096119 0 -5.6985892081564425e-05 -0.032719220578899616 0 1.2067306422259448e-05 -0.032607150335797266 0 9.9045668295657865e-05 -0.032717474429682335 0 -5.6985892081564425e-05 -0.032719220578899616 0 -0.00014599951105472421 -0.032624215343071146 0 -6.9430677313691099e-05 -0.032592014458096119 0 -0.00010964169531107233 -0.032870383716755686 0 -5.6985892081564425e-05 -0.032719220578899616 0 -0.00020465507911533441 -0.032777181395909211 0 -0.00020465507911533441 -0.032777181395909211 0 -0.00014599951105472421 -0.032624215343071146 0 -0.00030934964848740082 -0.032671637284911938 0 -0.00033197690201346348 -0.032821429496111693 0 -0.00020465507911533441 -0.032777181395909211 0 -0.00030934964848740082 -0.032671637284911938 0 -5.6985892081564425e-05 -0.032719220578899616 0 -0.00020465507911533441 -0.032777181395909211 0 -0.00014599951105472421 -0.032624215343071146 0 -0.0023063144509777936 -0.037731370695564016 0 -0.0015269640479185385 -0.036768362835269061 0 -0.0015825109832826522 -0.037519783724023273 0 -0.00014599951105472421 -0.032624215343071146 0 -0.00014106937469835076 -0.032486081518939947 0 -0.00030934964848740082 -0.032671637284911938 0 -0.0009720756759030206 -0.036795715830555908 0 -0.00046900527191578989 -0.035491387444656554 0 -0.00014599951105472421 -0.032624215343071146 0 -0.00014106937469835076 -0.032486081518939947 0 -9.5038936573656039e-05 -0.03250311644883945 0 -0.0009720756759030206 -0.036795715830555908 0 -0.00098260851443307952 -0.036748218400417997 0 -0.00013789396455693632 -0.032489149430339315 0 -9.5038936573656039e-05 -0.03250311644883945 0 -4.2870766651624401e-05 -0.032481333680806031 0 -9.5038936573656039e-05 -0.03250311644883945 0 -3.270071517257897e-05 -0.032538835167818324 0 -6.9430677313691099e-05 -0.032592014458096119 0 -9.5038936573656039e-05 -0.03250311644883945 0 -3.270071517257897e-05 -0.032538835167818324 0 -4.2870766651624401e-05 -0.032481333680806031 0 -3.270071517257897e-05 -0.032538835167818324 0 1.2067306422259448e-05 -0.032607150335797266 0 3.1881261896399927e-05 -0.032512023387620319 0 -3.270071517257897e-05 -0.032538835167818324 0 -4.2870766651624401e-05 -0.032481333680806031 0 3.1881261896399927e-05 -0.032512023387620319 0 -3.270071517257897e-05 -0.032538835167818324 0 1.2067306422259448e-05 -0.032607150335797266 0 -6.9430677313691099e-05 -0.032592014458096119 0 -0.00014599951105472421 -0.032624215343071146 0 -9.5038936573656039e-05 -0.03250311644883945 0 -6.9430677313691099e-05 -0.032592014458096119 0 -0.00072492100549906822 -0.035914796504067821 0 -0.00051707364013609002 -0.036331370028122291 0 -0.00084383399419138948 -0.036633789375070391 0 -0.0003046407417772206 -0.036673309878649196 0 -0.00051707364013609002 -0.036331370028122291 0 -0.00022019883532667362 -0.036183885299928664 0 -0.0003046407417772206 -0.036673309878649196 0 -0.00051707364013609002 -0.036331370028122291 0 -0.00084383399419138948 -0.036633789375070391 0 -0.00016844903584964195 -0.03510888671694281 0 -0.00046900527191578989 -0.035491387444656554 0 -0.00033197690201346348 -0.032821429496111693 0 -0.00047822943412369385 -0.03286786604212686 0 -0.00030934964848740082 -0.032671637284911938 0 -0.00072492100549906822 -0.035914796504067821 0 -0.00084383399419138948 -0.036633789375070391 0 -0.0015269640479185385 -0.036768362835269061 0 -0.00084383399419138948 -0.036633789375070391 0 -0.0015269640479185385 -0.036768362835269061 0 -0.0010126732378643983 -0.037556684317700012 0 -0.0015269640479185385 -0.036768362835269061 0 -0.0015825109832826522 -0.037519783724023273 0 -0.0010126732378643983 -0.037556684317700012 0 -0.0015825109832826522 -0.037519783724023273 0 -0.0010126732378643983 -0.037556684317700012 0 -0.0015074880419296277 -0.037996560861953944 0 -0.0003046407417772206 -0.036673309878649196 0 -0.00084383399419138948 -0.036633789375070391 0 -0.0010126732378643983 -0.037556684317700012 0 -0.00054155280285817019 -0.037288243211650154 0 -0.0010126732378643983 -0.037556684317700012 0 -0.00054039840311437672 -0.037750362584680001 0 0.00017856937031128056 -0.038297559343769445 0 -9.1343715697145797e-06 -0.038198575417083637 0 -0.00051768939822300676 -0.038118544809076095 0 -0.00082435243329352572 -0.038171004807985374 0 -0.00021875728890433587 -0.038411864195685236 0 -0.0010126732378643983 -0.037556684317700012 0 -0.00054039840311437672 -0.037750362584680001 0 -0.00084771229965890634 -0.038195574306658972 0 -0.00054039840311437672 -0.037750362584680001 0 -0.00051768939822300676 -0.038118544809076095 0 -0.00084771229965890634 -0.038195574306658972 0 -0.0002517511298887536 -0.040835077509777551 0 -0.0002447136392612407 -0.040964777436796607 0 -0.00070546171128541848 -0.038946506021840112 0 -0.00077130593086276113 -0.03891565896667689 0 -0.00080749136810450415 -0.038954764547614325 0 -0.0002447136392612407 -0.040964777436796607 0 -0.00075556589522999314 -0.040732567503917246 0 -0.0002447136392612407 -0.040964777436796607 0 -0.0008286454875561976 -0.03877189246479662 0 -0.0010126732378643983 -0.037556684317700012 0 -0.00084771229965890634 -0.038195574306658972 0 -0.0015074880419296277 -0.037996560861953944 0 0.00025527392617748175 -0.055230969637374651 0 0.001091550564900242 -0.055090688092179596 0 0.00066376335047076498 -0.054584513905760315 0 -0.0002447136392612407 -0.040964777436796607 0 0.00067191428212011624 -0.044314745066507608 0 0.00025527392617748175 -0.055230969637374651 0 -0.00040453616399048779 -0.054988795377816854 0 -0.00011412394602059132 -0.054481955019416765 0 0.00025527392617748175 -0.055230969637374651 0 -0.00011412394602059132 -0.054481955019416765 0 0.00066376335047076498 -0.054584513905760315 0 -0.00013789396455693632 -0.032489149430339315 0 -4.2870766651624401e-05 -0.032481333680806031 0 2.4538652774982622e-05 -0.032410186074434182 0 -0.00083489444192375397 -0.038888269830888875 0 -0.00080749136810450415 -0.038954764547614325 0 -0.00090457049104732254 -0.038965122332860806 0 -0.0009720756759030206 -0.036795715830555908 0 -0.0013439068613547074 -0.036838539474050094 0 -0.00013789396455693632 -0.032489149430339315 0 3.084507213009143e-05 -0.032293154029960962 0 2.4538652774982622e-05 -0.032410186074434182 0 -4.2870766651624401e-05 -0.032481333680806031 0 2.4538652774982622e-05 -0.032410186074434182 0 3.1881261896399927e-05 -0.032512023387620319 0 -0.00083489444192375397 -0.038888269830888875 0 -0.00077130593086276113 -0.03891565896667689 0 -0.00080749136810450415 -0.038954764547614325 0 -0.0009720756759030206 -0.036795715830555908 0 -0.0008286454875561976 -0.03877189246479662 0 -0.0023063144509777936 -0.037731370695564016 0 -0.0015825109832826522 -0.037519783724023273 0 -0.0015074880419296277 -0.037996560861953944 0 0.001091550564900242 -0.055090688092179596 0 0.0014009562325857886 -0.054407538015126912 0 0.00066376335047076498 -0.054584513905760315 0 0.001091550564900242 -0.055090688092179596 0 0.001963435145271909 -0.054925939406037641 0 0.0014009562325857886 -0.054407538015126912 0 -0.00075556589522999314 -0.040732567503917246 0 -0.0013439068613547074 -0.036838539474050094 0 -0.0020243485163322352 -0.033336076157434821 0 -0.0010480258408690768 -0.033162242474306061 0 -0.001327638900569575 -0.032532216535035394 0 -0.0013439068613547074 -0.036838539474050094 0 -0.001151850027505144 -0.032250162150930947 0 -0.0013439068613547074 -0.036838539474050094 0 -0.001622814484900516 -0.038408522303608347 0 3.084507213009143e-05 -0.032293154029960962 0 0.00020000851186888831 -0.032382083577672319 0 0.00019417677019611962 -0.032258981371920091 0 2.4538652774982622e-05 -0.032410186074434182 0 0.00012386611440274911 -0.032477315228784089 0 0.00020000851186888831 -0.032382083577672319 0 3.084507213009143e-05 -0.032293154029960962 0 2.4538652774982622e-05 -0.032410186074434182 0 0.00020000851186888831 -0.032382083577672319 0 2.4538652774982622e-05 -0.032410186074434182 0 0.00012386611440274911 -0.032477315228784089 0 3.1881261896399927e-05 -0.032512023387620319 0 0.00020000851186888831 -0.032382083577672319 0 0.00041013386712302554 -0.032463756072883668 0 0.00023812831670309007 -0.032530327867583288 0 0.00012386611440274911 -0.032477315228784089 0 0.00020000851186888831 -0.032382083577672319 0 0.00023812831670309007 -0.032530327867583288 0 -0.001151850027505144 -0.032250162150930947 0 -0.0017505113281433525 -0.027641910365696739 0 0.00020000851186888831 -0.032382083577672319 0 0.00019417677019611962 -0.032258981371920091 0 0.00035442615020430936 -0.032223874833100401 0 -0.0010480258408690768 -0.033162242474306061 0 -0.00052497861974141016 -0.032906869252106952 0 -8.4996106222271848e-05 -0.032981495952274821 0 -0.00088701730857764503 -0.032760040027838021 0 -0.0010480258408690768 -0.033162242474306061 0 -0.001327638900569575 -0.032532216535035394 0 -0.00088701730857764503 -0.032760040027838021 0 -0.0010480258408690768 -0.033162242474306061 0 -0.00052497861974141016 -0.032906869252106952 0 -0.00052497861974141016 -0.032906869252106952 0 -8.4996106222271848e-05 -0.032981495952274821 0 -0.00011023983912589186 -0.032868545249329979 0 -0.001874035597872649 -0.028321933500471363 0 -0.0012567512030091366 -0.028273690370264958 0 -0.001957393190652113 -0.027941165067701505 0 -0.00052497861974141016 -0.032906869252106952 0 -0.00010696859225785174 -0.032873115736611239 0 -0.0001633641919093748 -0.032618908837516988 0 -0.0078874906995375343 -0.011389449160189365 0 -0.0067871977922771354 -0.012373186579793765 0 -0.007200387339500759 -0.013427008242095032 0 -0.0017505113281433525 -0.027641910365696739 0 -0.0035337285531937303 -0.022176071896163236 0 -0.0016175974587440719 -0.027589932627058444 0 -0.0017068285458728563 -0.027470795002865724 0 -0.0017068285458728563 -0.027470795002865724 0 -0.0016613112919044949 -0.029331186812945026 0 -0.0078874906995375343 -0.011389449160189365 0 -0.0079405218329396034 -0.011145917672897965 0 -0.0070398696061724862 -0.011072680764724939 0 -0.0017505113281433525 -0.027641910365696739 0 -0.0017068285458728563 -0.027470795002865724 0 -0.0078874906995375343 -0.011389449160189365 0 -0.0068787353734718259 -0.011259748638572476 0 -0.0065811330273013793 -0.011781302053672994 0 -0.0078874906995375343 -0.011389449160189365 0 -0.0070398696061724862 -0.011072680764724939 0 -0.0068787353734718259 -0.011259748638572476 0 -0.0017068285458728563 -0.027470795002865724 0 -0.0033678351450660161 -0.025505699748520558 0 -0.0033678351450660161 -0.025505699748520558 0 -0.0034187794498772924 -0.025427947672249727 0 -0.0078874906995375343 -0.011389449160189365 0 -0.0067871977922771354 -0.012373186579793765 0 -0.0065811330273013793 -0.011781302053672994 0 -0.0036841516586550872 -0.010747922083341356 0 -0.0070415247176370613 -0.01107247476175093 0 -0.0059010795556453778 -0.01155662922272078 0 -0.0018900837214232086 -0.017272026058306699 0 -0.0033678351450660161 -0.025505699748520558 0 -0.0036841516586550872 -0.010747922083341356 0 -0.0059010795556453778 -0.01155662922272078 0 -0.0049963803833495976 -0.012286376154053147 0 -0.0068787353734718259 -0.011259748638572476 0 -0.0059010795556453778 -0.01155662922272078 0 -0.0065811330273013793 -0.011781302053672994 0 -0.0070415247176370613 -0.01107247476175093 0 -0.0068787353734718259 -0.011259748638572476 0 -0.0059010795556453778 -0.01155662922272078 0 -0.0059010795556453778 -0.01155662922272078 0 -0.0062219044053989734 -0.012194783356656089 0 -0.0065811330273013793 -0.011781302053672994 0 -0.0067871977922771354 -0.012373186579793765 0 -0.0062219044053989734 -0.012194783356656089 0 -0.0065811330273013793 -0.011781302053672994 0 -0.0067871977922771354 -0.012373186579793765 0 -0.0063442569611256144 -0.012588600739525778 0 -0.0065163788919894265 -0.01300461097916601 0 -0.0067871977922771354 -0.012373186579793765 0 -0.0062219044053989734 -0.012194783356656089 0 -0.0063442569611256144 -0.012588600739525778 0 -0.0062219044053989734 -0.012194783356656089 0 -0.0063442569611256144 -0.012588600739525778 0 -0.0058544222400936981 -0.012780879133192124 0 -0.0062219044053989734 -0.012194783356656089 0 -0.0049963803833495976 -0.012286376154053147 0 -0.0058544222400936981 -0.012780879133192124 0 -0.0059010795556453778 -0.01155662922272078 0 -0.0062219044053989734 -0.012194783356656089 0 -0.0049963803833495976 -0.012286376154053147 0 -0.0062190534007787205 -0.014248269120410984 0 -0.0067118248096807139 -0.013518673981004722 0 -0.0065164733705310278 -0.015505866392463251 0 -0.0044031799160120042 -0.018063868899971917 0 -0.0039832479289070976 -0.020085144875050226 0 -0.0049963803833495976 -0.012286376154053147 0 -0.0049576665691269299 -0.013399905480873584 0 -0.0058544222400936981 -0.012780879133192124 0 -0.0049576665691269299 -0.013399905480873584 0 -0.0059954530625988805 -0.013496016975691272 0 -0.0058544222400936981 -0.012780879133192124 0 -0.0059954530625988805 -0.013496016975691272 0 -0.0058544222400936981 -0.012780879133192124 0 -0.0065163788919894265 -0.01300461097916601 0 -0.0063442569611256144 -0.012588600739525778 0 -0.0058544222400936981 -0.012780879133192124 0 -0.0065163788919894265 -0.01300461097916601 0 -0.0059954530625988805 -0.013496016975691272 0 -0.0065163788919894265 -0.01300461097916601 0 -0.0067118248096807139 -0.013518673981004722 0 -0.0059954530625988805 -0.013496016975691272 0 -0.0062190534007787205 -0.014248269120410984 0 -0.0067118248096807139 -0.013518673981004722 0 -0.0062190534007787205 -0.014248269120410984 0 -0.005620360974712287 -0.014169668559068599 0 -0.0058633579435000797 -0.015079001603097327 0 -0.0059954530625988805 -0.013496016975691272 0 -0.0062190534007787205 -0.014248269120410984 0 -0.005620360974712287 -0.014169668559068599 0 -0.0049576665691269299 -0.013399905480873584 0 -0.0059954530625988805 -0.013496016975691272 0 -0.005620360974712287 -0.014169668559068599 0 -0.0046947479849290315 -0.015184528124480661 0 -0.0049576665691269299 -0.013399905480873584 0 -0.005620360974712287 -0.014169668559068599 0 -0.0025284322125598909 -0.024694558209138975 0 -0.0025381033979674076 -0.025322426655814932 0 -0.0029648022295582555 -0.024097272999446428 0 -0.0020603962221075844 -0.026540238751279949 0 -0.0025284322125598909 -0.024694558209138975 0 -0.0025381033979674076 -0.025322426655814932 0 -0.0067118248096807139 -0.013518673981004722 0 -0.007200387339500759 -0.013427008242095032 0 -0.0064902456760957336 -0.015802789390974372 0 -0.0017505113281433525 -0.027641910365696739 0 -0.0018055848455993599 -0.027920282557903367 0 -0.0035337285531937303 -0.022176071896163236 0 -0.0039832479289070976 -0.020085144875050226 0 0.00020000851186888831 -0.032382083577672319 0 0.00035442615020430936 -0.032223874833100401 0 0.00041013386712302554 -0.032463756072883668 0 -0.0067871977922771354 -0.012373186579793765 0 -0.0065163788919894265 -0.01300461097916601 0 -0.007200387339500759 -0.013427008242095032 0 -0.0065163788919894265 -0.01300461097916601 0 -0.0067118248096807139 -0.013518673981004722 0 -0.007200387339500759 -0.013427008242095032 0 -0.0025284322125598909 -0.024694558209138975 0 -0.0029648022295582555 -0.024097272999446428 0 -0.0029820936496888144 -0.022851004723395449 0 -0.0018055848455993599 -0.027920282557903367 0 -0.002829413670739217 -0.025480128804653824 0 0.00041013386712302554 -0.032463756072883668 0 0.00032429268795566195 -0.032620723957774753 0 0.00023812831670309007 -0.032530327867583288 0 0.00041013386712302554 -0.032463756072883668 0 0.00032429268795566195 -0.032620723957774753 0 0.00045532781037812219 -0.032697264969336462 0 -0.0046947479849290315 -0.015184528124480661 0 -0.0062614239258780213 -0.016302337730497544 0 -0.0063132301001944859 -0.017375650803218987 0 -0.0020722703935200449 -0.017996120419425068 0 -0.0027384189680978704 -0.023852950459427504 0 -0.0046947479849290315 -0.015184528124480661 0 -0.005620360974712287 -0.014169668559068599 0 -0.0058633579435000797 -0.015079001603097327 0 -0.0046947479849290315 -0.015184528124480661 0 -0.0058633579435000797 -0.015079001603097327 0 -0.0062614239258780213 -0.016302337730497544 0 -0.0062190534007787205 -0.014248269120410984 0 -0.0058633579435000797 -0.015079001603097327 0 -0.0065164733705310278 -0.015505866392463251 0 -0.0065119226659721488 -0.015515127335687075 0 -0.0062614239258780213 -0.016302337730497544 0 -0.0063132301001944859 -0.017375650803218987 0 -0.0058633579435000797 -0.015079001603097327 0 -0.0065164733705310278 -0.015505866392463251 0 -0.0062614239258780213 -0.016302337730497544 0 -0.0039832479289070976 -0.020085144875050226 0 -0.0027384189680978704 -0.023852950459427504 0 -0.0039832479289070976 -0.020085144875050226 0 -0.0040962647321109592 -0.019790864108999526 0 -0.0038259395857460987 -0.016568464166877184 0 -0.0041063632144910647 -0.014791494164590913 0 -0.0053645884800739806 -0.0168110712363925 0 -0.0026821861398739059 -0.026505246517231462 0 -0.0027557346872265046 -0.025749399852518326 0 -0.0028234655832658864 -0.025839244134370335 0 -0.0029648022295582555 -0.024097272999446428 0 -0.0031030809865374644 -0.023014721366870487 0 -0.0029820936496888144 -0.022851004723395449 0 -0.0027384189680978704 -0.023852950459427504 0 -0.002829413670739217 -0.025480128804653824 0 -0.0038259395857460987 -0.016568464166877184 0 -0.0053645884800739806 -0.0168110712363925 0 -0.004044170879222788 -0.017806465946759241 0 0.00032429268795566195 -0.032620723957774753 0 0.00045532781037812219 -0.032697264969336462 0 0.00030632653787839481 -0.032749827601498936 0 0.00032429268795566195 -0.032620723957774753 0 0.00030632653787839481 -0.032749827601498936 0 0.00021061782430440291 -0.032657851831490559 0 0.00021982977966626124 -0.032788059441901968 0 0.00030632653787839481 -0.032749827601498936 0 0.00021061782430440291 -0.032657851831490559 0 0.00021982977966626124 -0.032788059441901968 0 0.00021061782430440291 -0.032657851831490559 0 9.9045668295657865e-05 -0.032717474429682335 0 1.2067306422259448e-05 -0.032607150335797266 0 9.9045668295657865e-05 -0.032717474429682335 0 0.00012002145823918647 -0.03258351316126188 0 0.00021061782430440291 -0.032657851831490559 0 9.9045668295657865e-05 -0.032717474429682335 0 0.00012002145823918647 -0.03258351316126188 0 1.2067306422259448e-05 -0.032607150335797266 0 0.00012002145823918647 -0.03258351316126188 0 3.1881261896399927e-05 -0.032512023387620319 0 0.00012386611440274911 -0.032477315228784089 0 0.00012002145823918647 -0.03258351316126188 0 3.1881261896399927e-05 -0.032512023387620319 0 0.00012386611440274911 -0.032477315228784089 0 0.00012002145823918647 -0.03258351316126188 0 0.00023812831670309007 -0.032530327867583288 0 0.00032429268795566195 -0.032620723957774753 0 0.00021061782430440291 -0.032657851831490559 0 0.00023812831670309007 -0.032530327867583288 0 0.00021061782430440291 -0.032657851831490559 0 0.00012002145823918647 -0.03258351316126188 0 0.00023812831670309007 -0.032530327867583288 0 2.2809344961757232e-06 -0.054993765382647337 0 0.00028557620039160886 -0.053759119413919629 0 0.00014632490477238904 -0.054650455519400565 0 2.2809344961757232e-06 -0.054993765382647337 0 -7.0596794464199324e-07 -0.055000960460665271 0 0.00014632490477238904 -0.054650455519400565 0 0.00028557620039160886 -0.053759119413919629 0 -3.0803178125438373e-05 -0.054285983591326595 0 0.00014632490477238904 -0.054650455519400565 0 -0.00029191676294164224 -0.054322620214807972 0 -9.6154444720767659e-05 -0.054676322344808674 0 2.2809344961757232e-06 -0.054993765382647337 0 0.00028557620039160886 -0.053759119413919629 0 -3.4446338011947271e-06 -0.049117815795594426 0 0.00028557620039160886 -0.053759119413919629 0 -0.00041897343638568258 -0.052366059834000493 0 -0.00058980496372226018 -0.053557350865881641 0 0.00028557620039160886 -0.053759119413919629 0 -3.4446338011947271e-06 -0.049117815795594426 0 -0.00041897343638568258 -0.052366059834000493 0 -8.9906211225072291e-07 -0.049105443603081521 0 -0.00064592384392000784 -0.04889796509757198 0 -3.4446338011947271e-06 -0.049117815795594426 0 -0.00041897343638568258 -0.052366059834000493 0 -0.0018525761296716637 -0.052529188305170137 0 -0.00041897343638568258 -0.052366059834000493 0 -0.00058980496372226018 -0.053557350865881641 0 -0.0018525761296716637 -0.052529188305170137 0 -0.00058980496372226018 -0.053557350865881641 0 -0.00079278953675016495 -0.054152107335287886 0 -0.0013277902310695486 -0.053707179483452099 0 -0.00045332375735019379 -0.05410449461279989 0 -0.00029191676294164224 -0.054322620214807972 0 0.00028557620039160886 -0.053759119413919629 0 -0.00058980496372226018 -0.053557350865881641 0 -3.0803178125438373e-05 -0.054285983591326595 0 -0.00028479543112508617 -0.054130927310976053 0 -0.00079278953675016495 -0.054152107335287886 0 -0.00038770295274907676 -0.054561825159794658 0 -0.00058980496372226018 -0.053557350865881641 0 -0.00028479543112508617 -0.054130927310976053 0 -0.00079278953675016495 -0.054152107335287886 0 -0.00079278953675016495 -0.054152107335287886 0 -0.001532843045840545 -0.054047073396414805 0 -0.0013277902310695486 -0.053707179483452099 0 -0.00079278953675016495 -0.054152107335287886 0 -0.001532843045840545 -0.054047073396414805 0 -0.00085591061604891488 -0.054645351250171767 0 -0.001532843045840545 -0.054047073396414805 0 -0.0017770871951492176 -0.053743179601477967 0 -0.0013277902310695486 -0.053707179483452099 0 -0.0011370255865720542 -0.04824004618207732 0 -8.4294024419746108e-05 -0.044158698490716172 0 -0.001532843045840545 -0.054047073396414805 0 -0.0017770871951492176 -0.053743179601477967 0 -0.0016879994165545538 -0.054124096794957083 0 5.5380876288284965e-05 -0.046151256641662419 0 6.3909440093601482e-05 -0.046164748689128891 0 6.6761063980642378e-05 -0.046169618750317033 0 5.5380876288284965e-05 -0.046151256641662419 0 6.3909440093601482e-05 -0.046164748689128891 0 0.00012109390676341425 -0.046127634782358096 0 -0.00058980496372226018 -0.053557350865881641 0 -0.0013277902310695486 -0.053707179483452099 0 -0.0018525761296716637 -0.052529188305170137 0 -0.0017770871951492176 -0.053743179601477967 0 -0.0013277902310695486 -0.053707179483452099 0 -0.0018525761296716637 -0.052529188305170137 0 -0.0011370255865720542 -0.04824004618207732 0 -0.00064592384392000784 -0.04889796509757198 0 -1.7546526810792911e-06 -0.049102282496626515 0 6.6761063980642378e-05 -0.046169618750317033 0 1.7168011366786277e-06 -0.046399894854358643 0 1.7168011366786277e-06 -0.046399894854358643 0 0.00019387561629306818 -0.045731388129358272 0 -1.6791461628694083e-06 -0.043697180423955165 0 6.6761063980642378e-05 -0.046169618750317033 0 1.7168011366786277e-06 -0.046399894854358643 0 0.00019387561629306818 -0.045731388129358272 0 6.3909440093601482e-05 -0.046164748689128891 0 6.6761063980642378e-05 -0.046169618750317033 0 0.00019387561629306818 -0.045731388129358272 0 6.3909440093601482e-05 -0.046164748689128891 0 0.00019387561629306818 -0.045731388129358272 0 -0.00036867183638754976 -0.045921590167920849 0 -0.0018766708722743411 -0.038857364333573834 0 -0.00016772289225372363 -0.039389321557381972 0 -0.00074169584908334455 -0.03774772645531374 0 -0.0018766708722743411 -0.038857364333573834 0 -5.0347226151992101e-06 -0.043688280717638681 0 -6.2030944318722977e-05 -0.040916081120419577 0 0.00019387561629306818 -0.045731388129358272 0 -0.00036867183638754976 -0.045921590167920849 0 -1.6791461628694083e-06 -0.043697180423955165 0 -0.00030611912200147418 -0.042521621600077851 0 -7.3181308893919285e-07 -0.043691797218161604 0 2.8078124020642321e-06 -0.040741569361799741 0 -5.0347226151992101e-06 -0.043688280717638681 0 -6.2030944318722977e-05 -0.040916081120419577 0 2.8078124020642321e-06 -0.040741569361799741 0 0.00024619738914430015 -0.039898410653279183 0 -6.2030944318722977e-05 -0.040916081120419577 0 0.00024619738914430015 -0.039898410653279183 0 -0.00016772289225372363 -0.039389321557381972 0 7.6631065539433667e-05 -0.038202893412536361 0 0.00024619738914430015 -0.039898410653279183 0 -6.2030944318722977e-05 -0.040916081120419577 0 -0.00016772289225372363 -0.039389321557381972 0 -0.0018766708722743411 -0.038857364333573834 0 -6.2030944318722977e-05 -0.040916081120419577 0 -0.00016772289225372363 -0.039389321557381972 0 -0.00016772289225372363 -0.039389321557381972 0 7.6631065539433667e-05 -0.038202893412536361 0 -0.00074169584908334455 -0.03774772645531374 0 -0.00020038317356088807 -0.037692633444574145 0 7.6631065539433667e-05 -0.038202893412536361 0 -0.00074169584908334455 -0.03774772645531374 0 0.00044665354374661152 -0.036922901394075884 0 -0.00020038317356088807 -0.037692633444574145 0 7.6631065539433667e-05 -0.038202893412536361 0 0.00041287342076270079 -0.036105667484908142 0 0.00044665354374661152 -0.036922901394075884 0 -0.00020038317356088807 -0.037692633444574145 0 -0.00028497716110976502 -0.035770336354615975 0 -0.00039143434850101545 -0.036081195432853042 0 0.00014014145452734562 -0.036857901502126159 0 -0.00049395287167250715 -0.036844545263699277 0 -0.00021150946004089166 -0.036472510537333046 0 0.00014014145452734562 -0.036857901502126159 0 -0.00020038317356088807 -0.037692633444574145 0 -0.00049395287167250715 -0.036844545263699277 0 -0.00020038317356088807 -0.037692633444574145 0 -0.00049395287167250715 -0.036844545263699277 0 -0.00074169584908334455 -0.03774772645531374 0 6.3909440093601482e-05 -0.046164748689128891 0 -0.00036867183638754976 -0.045921590167920849 0 -0.00024968506714245141 -0.046462302161019167 0 -0.00030611912200147418 -0.042521621600077851 0 -0.00031350340678531807 -0.041793323458545445 0 -0.0018766708722743411 -0.038857364333573834 0 -0.00074169584908334455 -0.03774772645531374 0 -0.0014708726187159448 -0.036570566524500289 0 -0.00074560370382281227 -0.042680138553788188 0 -0.00031350340678531807 -0.041793323458545445 0 -0.00049395287167250715 -0.036844545263699277 0 -0.00074169584908334455 -0.03774772645531374 0 -0.0014708726187159448 -0.036570566524500289 0 5.5380876288284965e-05 -0.046151256641662419 0 0.00012109390676341425 -0.046127634782358096 0 0.00012168241037432975 -0.046047485095138486 0 -0.00031350340678531807 -0.041793323458545445 0 -8.4294024419746108e-05 -0.044158698490716172 0 0.00012383900246891105 -0.036735029701692123 0 -0.0001759439378925469 -0.037011177867386343 0 0.00015304469107851903 -0.037092419530753463 0 -0.00031350340678531807 -0.041793323458545445 0 0.00032819333388063972 -0.039112516014772905 0 -0.00049395287167250715 -0.036844545263699277 0 -0.00029167777457940209 -0.036081158450902984 0 -0.00021150946004089166 -0.036472510537333046 0 -0.00049395287167250715 -0.036844545263699277 0 -0.0014708726187159448 -0.036570566524500289 0 -0.00029167777457940209 -0.036081158450902984 0 -0.00029167777457940209 -0.036081158450902984 0 -0.00022019883532667362 -0.036183885299928664 0 -0.00021150946004089166 -0.036472510537333046 0 -0.00018221397647060256 -0.037256662085833669 0 0.00015304469107851903 -0.037092419530753463 0 -0.00018783813640566938 -0.037646201397096693 0 -0.00054155280285817019 -0.037288243211650154 0 -0.0001759439378925469 -0.037011177867386343 0 -0.00018221397647060256 -0.037256662085833669 0 -0.0003046407417772206 -0.036673309878649196 0 -0.00029167777457940209 -0.036081158450902984 0 -0.00022019883532667362 -0.036183885299928664 0 0.00017856937031128056 -0.038297559343769445 0 0.00032819333388063972 -0.039112516014772905 0 -0.0001759439378925469 -0.037011177867386343 0 -0.00018221397647060256 -0.037256662085833669 0 0.00015304469107851903 -0.037092419530753463 0 -8.4294024419746108e-05 -0.044158698490716172 0 0.0012915382903024913 -0.040406885707671494 0 -8.4294024419746108e-05 -0.044158698490716172 0 0.00059940716298192585 -0.045842328550888718 0 0.00027018793541804025 -0.037049955597468091 0 0.00033179038013863736 -0.037811555990624149 0 -0.00018783813640566938 -0.037646201397096693 0 -0.00054155280285817019 -0.037288243211650154 0 -0.00018221397647060256 -0.037256662085833669 0 -0.00018783813640566938 -0.037646201397096693 0 -0.00054155280285817019 -0.037288243211650154 0 -0.00054039840311437672 -0.037750362584680001 0 -0.00018783813640566938 -0.037646201397096693 0 -0.00054039840311437672 -0.037750362584680001 0 -0.00051768939822300676 -0.038118544809076095 0 -0.0001552526497248777 -0.03802876661824213 0 0.00033179038013863736 -0.037811555990624149 0 -0.00018783813640566938 -0.037646201397096693 0 -0.0001552526497248777 -0.03802876661824213 0 -0.00054039840311437672 -0.037750362584680001 0 -0.00018783813640566938 -0.037646201397096693 0 -0.0001552526497248777 -0.03802876661824213 0 -0.00051768939822300676 -0.038118544809076095 0 -0.0001552526497248777 -0.03802876661824213 0 -0.00021875728890433587 -0.038411864195685236 0 -0.0001552526497248777 -0.03802876661824213 0 -0.00021875728890433587 -0.038411864195685236 0 0.0003987869782255361 -0.038663084380001357 0 0.00067191428212011624 -0.044314745066507608 0 0.0021168862945057381 -0.046660897287830162 0 -0.00040453616399048779 -0.054988795377816854 0 -0.0010022068507852006 -0.054750072850646501 0 -0.00078387419399128077 -0.054504287074208485 0 0.0021168862945057381 -0.046660897287830162 0 0.0020854231668325598 -0.046727504849350156 0 -0.0010064977325104909 -0.054749854186980917 0 -0.0010092491466588117 -0.054665968172531845 0 -0.0011575364743420277 -0.054664557769558746 0 0.0021168862945057381 -0.046660897287830162 0 0.0021102287553163993 -0.046769652312219703 0 0.00033179038013863736 -0.037811555990624149 0 -0.0001552526497248777 -0.03802876661824213 0 0.0003987869782255361 -0.038663084380001357 0 0.00059940716298192585 -0.045842328550888718 0 0.0021168862945057381 -0.046660897287830162 0 -0.0014806221136588365 -0.054427104758867695 0 -0.0012039544852872988 -0.054618978764343164 0 -0.0012279609459763584 -0.054454046416122351 0 -0.0014806221136588365 -0.054427104758867695 0 -0.001217706706506088 -0.054649338546312001 0 -0.0012039544852872988 -0.054618978764343164 0 -0.0012039544852872988 -0.054618978764343164 0 -0.0011595198021457729 -0.054658385331117089 0 -0.0011579759666133526 -0.054621851190262624 0 -0.0012039544852872988 -0.054618978764343164 0 -0.0011575364743420277 -0.054664557769558746 0 -0.0011579759666133526 -0.054621851190262624 0 -0.001217706706506088 -0.054649338546312001 0 -0.0012039544852872988 -0.054618978764343164 0 -0.0011575364743420277 -0.054664557769558746 0 -0.0012039544852872988 -0.054618978764343164 0 -0.001078051620278319 -0.054635775374434287 0 -0.0011595198021457729 -0.054658385331117089 0 -0.0012039544852872988 -0.054618978764343164 0 -0.0012279609459763584 -0.054454046416122351 0 -0.001078051620278319 -0.054635775374434287 0 -0.0012279609459763584 -0.054454046416122351 0 -0.0014227206784362711 -0.054250245937067919 0 -0.0010761787371783528 -0.054185878362686277 0 -0.0016879994165545538 -0.054124096794957083 0 -0.0014806221136588365 -0.054427104758867695 0 -0.0014227206784362711 -0.054250245937067919 0 -0.0014806221136588365 -0.054427104758867695 0 -0.0012279609459763584 -0.054454046416122351 0 -0.0014227206784362711 -0.054250245937067919 0 -0.001532843045840545 -0.054047073396414805 0 -0.0016879994165545538 -0.054124096794957083 0 -0.0014227206784362711 -0.054250245937067919 0 -0.0011565977677337076 -0.054248410113762455 0 -0.00092911766505946109 -0.054404941742103807 0 -0.001532843045840545 -0.054047073396414805 0 -0.0014227206784362711 -0.054250245937067919 0 -0.0010761787371783528 -0.054185878362686277 0 -0.00079278953675016495 -0.054152107335287886 0 -0.00085591061604891488 -0.054645351250171767 0 -0.00038770295274907676 -0.054561825159794658 0 -0.00085591061604891488 -0.054645351250171767 0 -0.00038770295274907676 -0.054561825159794658 0 -0.00031034561733052297 -0.054912106026802125 0 -0.00092911766505946109 -0.054404941742103807 0 -0.00060375020372757952 -0.054619159440063222 0 -0.0010761787371783528 -0.054185878362686277 0 -0.0006975915930755983 -0.054371769601710154 0 -0.00098405364088419481 -0.054471838180221437 0 -0.0012279609459763584 -0.054454046416122351 0 -0.0010761787371783528 -0.054185878362686277 0 -0.00098405364088419481 -0.054471838180221437 0 -0.0012279609459763584 -0.054454046416122351 0 -0.00098405364088419481 -0.054471838180221437 0 -0.001078051620278319 -0.054635775374434287 0 -0.00098405364088419481 -0.054471838180221437 0 -0.001078051620278319 -0.054635775374434287 0 -0.00076157891969667153 -0.054725902809001407 0 -0.001078051620278319 -0.054635775374434287 0 -0.00094687974825579529 -0.054776190016099839 0 -0.0011595198021457729 -0.054658385331117089 0 -0.001078051620278319 -0.054635775374434287 0 -0.00076157891969667153 -0.054725902809001407 0 -0.00094687974825579529 -0.054776190016099839 0 -0.00076157891969667153 -0.054725902809001407 0 -0.00050427318615610449 -0.055037094741483571 0 -0.00094687974825579529 -0.054776190016099839 0 -0.0006975915930755983 -0.054371769601710154 0 -0.00098405364088419481 -0.054471838180221437 0 -0.00076157891969667153 -0.054725902809001407 0 -0.00060375020372757952 -0.054619159440063222 0 -0.00043457165044259759 -0.05473452993158251 0 -0.0006975915930755983 -0.054371769601710154 0 -0.00076157891969667153 -0.054725902809001407 0 -0.00018403554627644333 -0.054868963771893951 0 -0.00076157891969667153 -0.054725902809001407 0 -0.00018403554627644333 -0.054868963771893951 0 -0.00050427318615610449 -0.055037094741483571 0 -8.2359274246064981e-08 -0.055000227256430327 0 -0.00018403554627644333 -0.054868963771893951 0 -0.00050427318615610449 -0.055037094741483571 0 -8.2359274246064981e-08 -0.055000227256430327 0 -2.0809469880988166e-07 -0.054999809819490438 0 -0.00018403554627644333 -0.054868963771893951 0 -2.0809469880988166e-07 -0.054999809819490438 0 -0.00018403554627644333 -0.054868963771893951 0 1.3913722179573181e-07 -0.054999425363304974 0 -0.00031034561733052297 -0.054912106026802125 0 1.3913722179573181e-07 -0.054999425363304974 0 -9.4030264112285447e-05 -0.054627459637595938 0 -0.00031034561733052297 -0.054912106026802125 0 -0.00018403554627644333 -0.054868963771893951 0 1.3913722179573181e-07 -0.054999425363304974 0 -0.00038770295274907676 -0.054561825159794658 0 -0.00031034561733052297 -0.054912106026802125 0 -9.4030264112285447e-05 -0.054627459637595938 0 -0.00028479543112508617 -0.054130927310976053 0 -0.00038770295274907676 -0.054561825159794658 0 -9.4030264112285447e-05 -0.054627459637595938 0 7.6681474580128851e-08 -0.054999525664021477 0 -9.6154444720767659e-05 -0.054676322344808674 0 -6.3682729196347404e-09 -0.054999964473554819 0 -1.3072993891143497e-05 -0.054968191203155777 0 -7.0887315305064734e-06 -0.054972701659159996 0 -1.3072993891143497e-05 -0.054968191203155777 0 -1.7275915985392811e-05 -0.054943470211448631 0 -7.0887315305064734e-06 -0.054972701659159996 0 -6.3682729196347404e-09 -0.054999964473554819 0 -1.3072993891143497e-05 -0.054968191203155777 0 -1.1033548795318526e-08 -0.054999967378858011 0 -2.1306257718847834e-10 -0.054999984688692195 0 -1.1033548795318526e-08 -0.054999967378858011 0 -1.1377104264702498e-05 -0.05497629939732282 0 -2.567523279303949e-07 -0.054999752223254553 0 -0.00022541044885507314 -0.054884660324813567 0 -1.3072993891143497e-05 -0.054968191203155777 0 -1.1033548795318526e-08 -0.054999967378858011 0 -1.1377104264702498e-05 -0.05497629939732282 0 -1.3072993891143497e-05 -0.054968191203155777 0 -1.1377104264702498e-05 -0.05497629939732282 0 -2.3657898196337196e-05 -0.054947434886774456 0 -0.00022541044885507314 -0.054884660324813567 0 -0.00041704456178194349 -0.054696981693845473 0 -0.00050427318615610449 -0.055037094741483571 0 -0.00094687974825579529 -0.054776190016099839 0 -0.0010243370618862409 -0.05482578341632139 0 -0.00094687974825579529 -0.054776190016099839 0 -0.0010243370618862409 -0.05482578341632139 0 -0.0011595198021457729 -0.054658385331117089 0 -2.3657898196337196e-05 -0.054947434886774456 0 -2.5514855355536258e-05 -0.054937149191553201 0 -3.6778490073355065e-05 -0.054928976541795592 0 -1.3072993891143497e-05 -0.054968191203155777 0 -2.3657898196337196e-05 -0.054947434886774456 0 -2.5514855355536258e-05 -0.054937149191553201 0 -1.3072993891143497e-05 -0.054968191203155777 0 -2.5514855355536258e-05 -0.054937149191553201 0 -1.7275915985392811e-05 -0.054943470211448631 0 -2.5514855355536258e-05 -0.054937149191553201 0 -1.7275915985392811e-05 -0.054943470211448631 0 -2.9180040455291855e-05 -0.05489860027388084 0 -1.7275915985392811e-05 -0.054943470211448631 0 -2.9180040455291855e-05 -0.05489860027388084 0 -1.8773709921406388e-05 -0.054912629635314993 0 -2.9180040455291855e-05 -0.05489860027388084 0 -3.6599558451455692e-05 -0.054841033246206948 0 -1.993636689928261e-05 -0.054838669812590474 0 -3.6599558451455692e-05 -0.054841033246206948 0 -3.6778490073355065e-05 -0.054928976541795592 0 4.3342012730070954e-06 -0.054938246989382454 0 -0.00048634698661247766 -0.054367758413675867 0 -0.00037341902166524701 -0.053813524465407346 0 -2.5514855355536258e-05 -0.054937149191553201 0 -2.9180040455291855e-05 -0.05489860027388084 0 -3.6778490073355065e-05 -0.054928976541795592 0 -2.9180040455291855e-05 -0.05489860027388084 0 -3.6599558451455692e-05 -0.054841033246206948 0 -3.6778490073355065e-05 -0.054928976541795592 0 -0.0010243370618862409 -0.05482578341632139 0 -0.0012087174603900241 -0.054355401253866849 0 -0.0011595198021457729 -0.054658385331117089 0 -0.00041704456178194349 -0.054696981693845473 0 -0.00048634698661247766 -0.054367758413675867 0 -0.0011595198021457729 -0.054658385331117089 0 -0.0011579759666133526 -0.054621851190262624 0 -0.00109308038944769 -0.054458773138525852 0 -0.0010879109472268949 -0.054574950293445258 0 -0.0011579759666133526 -0.054621851190262624 0 -0.00109308038944769 -0.054458773138525852 0 -0.0011575364743420277 -0.054664557769558746 0 -0.0010879109472268949 -0.054574950293445258 0 -0.0011579759666133526 -0.054621851190262624 0 -0.0010092491466588117 -0.054665968172531845 0 -0.0011575364743420277 -0.054664557769558746 0 -0.0010879109472268949 -0.054574950293445258 0 -0.0010879109472268949 -0.054574950293445258 0 -0.00109308038944769 -0.054458773138525852 0 -0.00099442220013807583 -0.054547322915988121 0 -0.0012087174603900241 -0.054355401253866849 0 -0.00109308038944769 -0.054458773138525852 0 -0.0008812287945088493 -0.054166842812019889 0 -0.0012087174603900241 -0.054355401253866849 0 -0.0011595198021457729 -0.054658385331117089 0 -0.00109308038944769 -0.054458773138525852 0 -0.0012087174603900241 -0.054355401253866849 0 -0.0008812287945088493 -0.054166842812019889 0 -0.00083340035840089976 -0.053680594575688009 0 -0.0008812287945088493 -0.054166842812019889 0 -0.00056348030611939675 -0.05411068059290821 0 -0.00083340035840089976 -0.053680594575688009 0 -0.0008812287945088493 -0.054166842812019889 0 -0.00078387419399128077 -0.054504287074208485 0 -0.00056348030611939675 -0.05411068059290821 0 -0.00109308038944769 -0.054458773138525852 0 -0.00078387419399128077 -0.054504287074208485 0 -0.00099442220013807583 -0.054547322915988121 0 -0.00109308038944769 -0.054458773138525852 0 -0.0008812287945088493 -0.054166842812019889 0 -0.00078387419399128077 -0.054504287074208485 0 -0.0010092491466588117 -0.054665968172531845 0 -0.00078387419399128077 -0.054504287074208485 0 -0.00099442220013807583 -0.054547322915988121 0 -0.0010022068507852006 -0.054750072850646501 0 -0.0010092491466588117 -0.054665968172531845 0 -0.00078387419399128077 -0.054504287074208485 0 -0.0010092491466588117 -0.054665968172531845 0 -0.0010879109472268949 -0.054574950293445258 0 -0.00099442220013807583 -0.054547322915988121 0 -0.00040453616399048779 -0.054988795377816854 0 -0.00078387419399128077 -0.054504287074208485 0 -0.00011412394602059132 -0.054481955019416765 0 -0.00078387419399128077 -0.054504287074208485 0 -0.00056348030611939675 -0.05411068059290821 0 -0.00011412394602059132 -0.054481955019416765 0 -0.00056348030611939675 -0.05411068059290821 0 -0.00083340035840089976 -0.053680594575688009 0 -0.00010508917418864903 -0.053749604148708018 0 -0.00056348030611939675 -0.05411068059290821 0 -0.00011412394602059132 -0.054481955019416765 0 -0.00010508917418864903 -0.053749604148708018 0 -0.00037341902166524701 -0.053813524465407346 0 -0.00011328014202920566 -0.052860015400711155 0 -0.00083340035840089976 -0.053680594575688009 0 -0.00010508917418864903 -0.053749604148708018 0 -8.2492200962624616e-05 -0.053069535405877527 0 -3.6599558451455692e-05 -0.054841033246206948 0 4.3342012730070954e-06 -0.054938246989382454 0 -1.5614442095157673e-05 -0.05465728253653783 0 4.3342012730070954e-06 -0.054938246989382454 0 -1.5614442095157673e-05 -0.05465728253653783 0 0.00031129952369111382 -0.054917400308326446 0 -1.5614442095157673e-05 -0.05465728253653783 0 0.00031129952369111382 -0.054917400308326446 0 0.00036088211545005721 -0.054489082692078861 0 -1.5614442095157673e-05 -0.05465728253653783 0 0.00022540135358307069 -0.053931541764246645 0 0.00036088211545005721 -0.054489082692078861 0 -3.6599558451455692e-05 -0.054841033246206948 0 -1.5614442095157673e-05 -0.05465728253653783 0 -1.993636689928261e-05 -0.054838669812590474 0 -1.5614442095157673e-05 -0.05465728253653783 0 -2.3300438506466148e-05 -0.054791541141551076 0 -1.993636689928261e-05 -0.054838669812590474 0 -2.3300438506466148e-05 -0.054791541141551076 0 -3.8403043250496315e-05 -0.054852486893400221 0 -2.0039937646836834e-05 -0.054843798082046258 0 -2.3300438506466148e-05 -0.054791541141551076 0 -0.00011303837267256738 -0.054792448441389079 0 -6.7408280260700473e-05 -0.054831590600644416 0 -1.5614442095157673e-05 -0.05465728253653783 0 -2.3300438506466148e-05 -0.054791541141551076 0 -0.00011303837267256738 -0.054792448441389079 0 -0.0001873682867011635 -0.053785762787838531 0 -2.4924151281486257e-05 -0.053355265268103344 0 -0.00011303837267256738 -0.054792448441389079 0 -9.756727100317961e-05 -0.054842999517104973 0 -6.7408280260700473e-05 -0.054831590600644416 0 -9.756727100317961e-05 -0.054842999517104973 0 -6.7408280260700473e-05 -0.054831590600644416 0 -6.7752610609372199e-05 -0.054862339497194969 0 -9.756727100317961e-05 -0.054842999517104973 0 -6.7752610609372199e-05 -0.054862339497194969 0 -9.0841882590553952e-05 -0.054872772963324948 0 -6.7752610609372199e-05 -0.054862339497194969 0 -9.0841882590553952e-05 -0.054872772963324948 0 -6.3666950658769651e-05 -0.054893645230547773 0 -9.0841882590553952e-05 -0.054872772963324948 0 -6.3666950658769651e-05 -0.054893645230547773 0 -8.9700345006917863e-05 -0.054906443922628986 0 -4.540416653681254e-05 -0.05490726994491904 0 -4.2454938975631756e-05 -0.054882651692112386 0 -2.6749397020104537e-05 -0.054906345245313841 0 -6.3666950658769651e-05 -0.054893645230547773 0 -4.540416653681254e-05 -0.05490726994491904 0 -5.3763702602982e-05 -0.054916349195267569 0 -6.3666950658769651e-05 -0.054893645230547773 0 -4.540416653681254e-05 -0.05490726994491904 0 -4.2454938975631756e-05 -0.054882651692112386 0 -6.7752610609372199e-05 -0.054862339497194969 0 -6.3666950658769651e-05 -0.054893645230547773 0 -4.2454938975631756e-05 -0.054882651692112386 0 -4.2454938975631756e-05 -0.054882651692112386 0 -3.8403043250496315e-05 -0.054852486893400221 0 -2.5759405964133612e-05 -0.05487561342170913 0 -6.7752610609372199e-05 -0.054862339497194969 0 -4.2454938975631756e-05 -0.054882651692112386 0 -3.8403043250496315e-05 -0.054852486893400221 0 -2.3300438506466148e-05 -0.054791541141551076 0 -6.7408280260700473e-05 -0.054831590600644416 0 -3.8403043250496315e-05 -0.054852486893400221 0 -6.7408280260700473e-05 -0.054831590600644416 0 -6.7752610609372199e-05 -0.054862339497194969 0 -3.8403043250496315e-05 -0.054852486893400221 0 -3.8403043250496315e-05 -0.054852486893400221 0 -2.5759405964133612e-05 -0.05487561342170913 0 -2.0039937646836834e-05 -0.054843798082046258 0 -2.5759405964133612e-05 -0.05487561342170913 0 -2.6749397020104537e-05 -0.054906345245313841 0 -1.4450067162366781e-05 -0.054889153175542806 0 -2.5759405964133612e-05 -0.05487561342170913 0 -1.4450067162366781e-05 -0.054889153175542806 0 -2.0039937646836834e-05 -0.054843798082046258 0 -4.2454938975631756e-05 -0.054882651692112386 0 -2.5759405964133612e-05 -0.05487561342170913 0 -2.6749397020104537e-05 -0.054906345245313841 0 -4.540416653681254e-05 -0.05490726994491904 0 -2.6749397020104537e-05 -0.054906345245313841 0 -3.5178838654837255e-05 -0.054918034687403888 0 -2.6749397020104537e-05 -0.054906345245313841 0 -1.286773371719171e-05 -0.054924869671969967 0 -2.2977598478402274e-05 -0.054926408989623608 0 -2.6749397020104537e-05 -0.054906345245313841 0 -1.286773371719171e-05 -0.054924869671969967 0 -1.4450067162366781e-05 -0.054889153175542806 0 -1.286773371719171e-05 -0.054924869671969967 0 -1.4450067162366781e-05 -0.054889153175542806 0 -6.751404817146958e-06 -0.054930351846855845 0 -1.4450067162366781e-05 -0.054889153175542806 0 -1.993636689928261e-05 -0.054838669812590474 0 -1.1284384326825265e-05 -0.054908386939161398 0 -1.993636689928261e-05 -0.054838669812590474 0 -1.8773709921406388e-05 -0.054912629635314993 0 -1.1284384326825265e-05 -0.054908386939161398 0 -2.3300438506466148e-05 -0.054791541141551076 0 -2.0039937646836834e-05 -0.054843798082046258 0 -1.993636689928261e-05 -0.054838669812590474 0 -1.4450067162366781e-05 -0.054889153175542806 0 -2.0039937646836834e-05 -0.054843798082046258 0 -1.993636689928261e-05 -0.054838669812590474 0 -2.9180040455291855e-05 -0.05489860027388084 0 -1.993636689928261e-05 -0.054838669812590474 0 -1.8773709921406388e-05 -0.054912629635314993 0 -1.7275915985392811e-05 -0.054943470211448631 0 -1.8773709921406388e-05 -0.054912629635314993 0 -7.3319421502926887e-06 -0.054948100551724686 0 -1.8773709921406388e-05 -0.054912629635314993 0 -7.3319421502926887e-06 -0.054948100551724686 0 -1.1284384326825265e-05 -0.054908386939161398 0 -1.4450067162366781e-05 -0.054889153175542806 0 -1.1284384326825265e-05 -0.054908386939161398 0 -6.751404817146958e-06 -0.054930351846855845 0 -7.3319421502926887e-06 -0.054948100551724686 0 -1.1284384326825265e-05 -0.054908386939161398 0 -6.751404817146958e-06 -0.054930351846855845 0 -1.286773371719171e-05 -0.054924869671969967 0 -6.751404817146958e-06 -0.054930351846855845 0 -5.4651701990512766e-06 -0.05495251845215067 0 -6.751404817146958e-06 -0.054930351846855845 0 -1.9424396758034161e-06 -0.054961004958016813 0 -5.4651701990512766e-06 -0.05495251845215067 0 -7.3319421502926887e-06 -0.054948100551724686 0 -6.751404817146958e-06 -0.054930351846855845 0 -1.9424396758034161e-06 -0.054961004958016813 0 -7.3319421502926887e-06 -0.054948100551724686 0 -1.9424396758034161e-06 -0.054961004958016813 0 -1.2105861012391019e-06 -0.054974640900580955 0 -1.9424396758034161e-06 -0.054961004958016813 0 -1.2105861012391019e-06 -0.054974640900580955 0 8.3507322280090683e-07 -0.05498351469558535 0 -1.9424396758034161e-06 -0.054961004958016813 0 8.3507322280090683e-07 -0.05498351469558535 0 -2.3546760583885881e-07 -0.054977913237155326 0 8.3507322280090683e-07 -0.05498351469558535 0 1.4236282200907569e-09 -0.054999966505235115 0 2.4973159636947126e-09 -0.054999975257391219 0 -1.2105861012391019e-06 -0.054974640900580955 0 8.3507322280090683e-07 -0.05498351469558535 0 1.4236282200907569e-09 -0.054999966505235115 0 -1.2105861012391019e-06 -0.054974640900580955 0 1.4236282200907569e-09 -0.054999966505235115 0 -3.6031747630847077e-09 -0.054999960816647722 0 -7.3319421502926887e-06 -0.054948100551724686 0 -1.2105861012391019e-06 -0.054974640900580955 0 -3.6031747630847077e-09 -0.054999960816647722 0 -7.3319421502926887e-06 -0.054948100551724686 0 -3.6031747630847077e-09 -0.054999960816647722 0 -7.0887315305064734e-06 -0.054972701659159996 0 -1.7275915985392811e-05 -0.054943470211448631 0 -7.3319421502926887e-06 -0.054948100551724686 0 -7.0887315305064734e-06 -0.054972701659159996 0 -6.3682729196347404e-09 -0.054999964473554819 0 -3.6031747630847077e-09 -0.054999960816647722 0 -7.0887315305064734e-06 -0.054972701659159996 0 -0.0015449766403630458 -0.049793560733460925 0 0.00037734540359130405 -0.049847005558104555 0 -0.0020152617781062166 -0.046852391227634009 0 -0.0015449766403630458 -0.049793560733460925 0 -0.0019337961791705612 -0.050731517004167941 0 -0.0028770081932725624 -0.046808156941183302 0 -5.5852928781326066e-05 -0.032660946034071908 0 -0.00015740513532878965 -0.032818261317790476 0 -5.5852928781326066e-05 -0.032660946034071908 0 -0.00085499293412196994 -0.033721584149441666 0 -0.0015449766403630458 -0.049793560733460925 0 -0.0019337961791705612 -0.050731517004167941 0 -0.00050881601980817261 -0.050109153252944669 0 -0.0013942867804049893 -0.05047526920964903 0 -0.00050881601980817261 -0.050109153252944669 0 -0.00044727902260796587 -0.051049598961832608 0 0.002223823865491996 -0.053177537491733817 0 0.0022766734923399473 -0.053640635484759565 0 0.0018033161373636102 -0.053560860460194794 0 0.00037734540359130405 -0.049847005558104555 0 -0.00050881601980817261 -0.050109153252944669 0 0.00029440116525245963 -0.050964552394337975 0 -0.0015449766403630458 -0.049793560733460925 0 0.00037734540359130405 -0.049847005558104555 0 -0.00050881601980817261 -0.050109153252944669 0 -0.00044727902260796587 -0.051049598961832608 0 0.00029440116525245963 -0.050964552394337975 0 0.0003597261110798216 -0.051622663194706098 0 0.00029440116525245963 -0.050964552394337975 0 0.0003597261110798216 -0.051622663194706098 0 0.0014961391145881843 -0.052346851275076975 0 0.00037734540359130405 -0.049847005558104555 0 0.00029440116525245963 -0.050964552394337975 0 0.0014961391145881843 -0.052346851275076975 0 -0.00050881601980817261 -0.050109153252944669 0 -0.00044727902260796587 -0.051049598961832608 0 0.00029440116525245963 -0.050964552394337975 0 0.0003597261110798216 -0.051622663194706098 0 -0.00096124492049473305 -0.052009133922191794 0 0.00028627617467503216 -0.052330099829696913 0 -0.00044727902260796587 -0.051049598961832608 0 0.0003597261110798216 -0.051622663194706098 0 -0.00096124492049473305 -0.052009133922191794 0 0.0031611267455640968 -0.017594302858537438 0 0.0032362767390342229 -0.017449561367820051 0 0.0031365830408196906 -0.017428172383329263 0 -0.0013942867804049893 -0.05047526920964903 0 -0.00044727902260796587 -0.051049598961832608 0 -0.00096124492049473305 -0.052009133922191794 0 -5.5852928781326066e-05 -0.032660946034071908 0 0.0014215354347692794 -0.035113857658728639 0 -5.5852928781326066e-05 -0.032660946034071908 0 0.002628611317855 -0.024966160952449565 0 0.0031611267455640968 -0.017594302858537438 0 0.0032362767390342229 -0.017449561367820051 0 0.003339481030792785 -0.017488478521102642 0 0.0032362767390342229 -0.017449561367820051 0 0.003339481030792785 -0.017488478521102642 0 0.0033031138829306742 -0.017351767855502964 0 0.003339481030792785 -0.017488478521102642 0 0.0033951745111589333 -0.017345453621043162 0 0.0033031138829306742 -0.017351767855502964 0 0.002628611317855 -0.024966160952449565 0 0.004184117001185669 -0.0188344943864713 0 0.003339481030792785 -0.017488478521102642 0 0.0034801522193860721 -0.017355840969762108 0 0.0033951745111589333 -0.017345453621043162 0 0.0016186172671704498 -0.025138645025072529 0 0.0047066970935709957 -0.024021115217264286 0 0.0020494374656291779 -0.027093057734697449 0 0.004184117001185669 -0.0188344943864713 0 0.0027406444944195903 -0.02328413143083246 0 -0.00087219302939516897 -0.010721221676145988 0 -0.0010282810595572693 -0.010735208101754266 0 -0.0009316756330438235 -0.010865452120109084 0 -0.00087219302939516897 -0.010721221676145988 0 -0.00089595190873349208 -0.010568692511882619 0 -0.0010282810595572693 -0.010735208101754266 0 -0.0014599163264269457 -0.026252306934224326 0 0.0016186172671704498 -0.025138645025072529 0 0.0020494374656291779 -0.027093057734697449 0 0.0027406444944195903 -0.02328413143083246 0 -0.00015740513532878965 -0.032818261317790476 0 -0.0014599163264269457 -0.026252306934224326 0 0.0020494374656291779 -0.027093057734697449 0 -0.00060011395701390529 -0.030151173955085216 0 -0.0010282810595572693 -0.010735208101754266 0 -0.0010556033954079516 -0.010889494758108948 0 -0.0011671379828003974 -0.010915616851445072 0 -0.0010556033954079516 -0.010889494758108948 0 -0.0011448924946588722 -0.011017283689339141 0 -0.0011671379828003974 -0.010915616851445072 0 -0.0017661476275294165 -0.030380116244470519 0 -0.00015740513532878965 -0.032818261317790476 0 -0.0010282810595572693 -0.010735208101754266 0 -0.0010556033954079516 -0.010889494758108948 0 -0.0009316756330438235 -0.010865452120109084 0 -0.0010556033954079516 -0.010889494758108948 0 -0.0009316756330438235 -0.010865452120109084 0 -0.0010371306880843133 -0.010993212553636129 0 -0.00082816225219544456 -0.011031003145839269 0 -0.0010586238658715419 -0.011108127913577102 0 -0.00093868081351221951 -0.010981010775261474 0 -0.00084025671224735371 -0.010914826193258514 0 -0.0009316756330438235 -0.010865452120109084 0 -0.00093868081351221951 -0.010981010775261474 0 -0.0009316756330438235 -0.010865452120109084 0 -0.00093868081351221951 -0.010981010775261474 0 -0.0010371306880843133 -0.010993212553636129 0 -0.0010586238658715419 -0.011108127913577102 0 -0.00093868081351221951 -0.010981010775261474 0 -0.0010371306880843133 -0.010993212553636129 0 -0.0016208512103586721 -0.031681350507235015 0 -0.0012851002667971729 -0.032075948796205671 0 -0.00087597529716644063 -0.034995411741824807 0 -0.0018643672715650183 -0.030096972903617035 0 -0.0018697799522368666 -0.030088744642661317 0 -0.0018623259968177468 -0.030141873425531988 0 -0.0017661476275294165 -0.030380116244470519 0 -0.0014191268423488434 -0.031655839249614605 0 -0.0010556033954079516 -0.010889494758108948 0 -0.0011448924946588722 -0.011017283689339141 0 -0.0010371306880843133 -0.010993212553636129 0 -0.0010586238658715419 -0.011108127913577102 0 -0.0011448924946588722 -0.011017283689339141 0 -0.0010371306880843133 -0.010993212553636129 0 -0.0017661476275294165 -0.030380116244470519 0 -0.0016613112919044949 -0.029331186812945026 0 -0.0012567512030091366 -0.028273690370264958 0 -0.0021026190533471709 -0.027277273081482284 0 -0.001957393190652113 -0.027941165067701505 0 -0.0033678351450660161 -0.025505699748520558 0 -0.0017661476275294165 -0.030380116244470519 0 -0.0014191268423488434 -0.031655839249614605 0 -0.0016613112919044949 -0.029331186812945026 0 -0.00052497861974141016 -0.032906869252106952 0 -0.0001633641919093748 -0.032618908837516988 0 -0.00065011043961866533 -0.03243849768635626 0 0.0028384032385392719 -0.053905590532698971 0 0.0022307704126022713 -0.053918182380868727 0 0.0024047809173122965 -0.054421028212616983 0 -0.00033032592678355172 -0.032093131817130645 0 -0.0001633641919093748 -0.032618908837516988 0 -0.00065011043961866533 -0.03243849768635626 0 -0.00088701730857764503 -0.032760040027838021 0 -0.00052497861974141016 -0.032906869252106952 0 -0.00065011043961866533 -0.03243849768635626 0 -0.00088701730857764503 -0.032760040027838021 0 -0.00065011043961866533 -0.03243849768635626 0 -0.001327638900569575 -0.032532216535035394 0 -0.00065011043961866533 -0.03243849768635626 0 -0.00063269504365237573 -0.031738319818343505 0 -0.001327638900569575 -0.032532216535035394 0 -0.00075388994630954287 -0.03633254704926947 0 -0.001622814484900516 -0.038408522303608347 0 -0.00033032592678355172 -0.032093131817130645 0 -0.00065011043961866533 -0.03243849768635626 0 -0.00063269504365237573 -0.031738319818343505 0 -0.0014191268423488434 -0.031655839249614605 0 -0.00075388994630954287 -0.03633254704926947 0 -0.0014191268423488434 -0.031655839249614605 0 -0.0005769201110214534 -0.034583233542430161 0 0.00045638073918974722 -0.040455011842518838 0 -0.0005769201110214534 -0.034583233542430161 0 -0.0015449766403630458 -0.049793560733460925 0 -0.0026224135521962988 -0.046510933082533866 0 -0.0028770081932725624 -0.046808156941183302 0 -0.0012851002667971729 -0.032075948796205671 0 -0.00048850675839391634 -0.034546967577702516 0 -0.00087597529716644063 -0.034995411741824807 0 0.0030096567545442937 -0.047214753386864296 0 -0.00075388994630954287 -0.03633254704926947 0 -0.0010159066213985019 -0.034494938274865758 0 -0.00041903565698844401 -0.036351035955635387 0 7.488659331804388e-05 -0.035779908826183142 0 -0.0015449766403630458 -0.049793560733460925 0 -0.0023517539888023875 -0.047238519230346915 0 -0.0020152617781062166 -0.046852391227634009 0 -0.0005769201110214534 -0.034583233542430161 0 -0.00075388994630954287 -0.03633254704926947 0 -0.0005769201110214534 -0.034583233542430161 0 -0.00015740513532878965 -0.032818261317790476 0 0.0022307704126022713 -0.053918182380868727 0 0.0018800289383020441 -0.054195221359362646 0 0.0018033161373636102 -0.053560860460194794 0 0.0028384032385392719 -0.053905590532698971 0 0.0022766734923399473 -0.053640635484759565 0 0.0022307704126022713 -0.053918182380868727 0 0.002223823865491996 -0.053177537491733817 0 0.0028384032385392719 -0.053905590532698971 0 0.0022766734923399473 -0.053640635484759565 0 0.0022766734923399473 -0.053640635484759565 0 0.0022307704126022713 -0.053918182380868727 0 0.0018033161373636102 -0.053560860460194794 0 0.001963435145271909 -0.054925939406037641 0 0.0024047809173122965 -0.054421028212616983 0 0.0018800289383020441 -0.054195221359362646 0 0.0022307704126022713 -0.053918182380868727 0 0.0024047809173122965 -0.054421028212616983 0 0.0018800289383020441 -0.054195221359362646 0 0.001963435145271909 -0.054925939406037641 0 0.0018800289383020441 -0.054195221359362646 0 0.0014009562325857886 -0.054407538015126912 0 0.0018800289383020441 -0.054195221359362646 0 0.0014009562325857886 -0.054407538015126912 0 0.0014801060790088688 -0.053924666342740749 0 0.0014009562325857886 -0.054407538015126912 0 0.00094365897702043374 -0.053989976676395532 0 0.0014801060790088688 -0.053924666342740749 0 0.0014009562325857886 -0.054407538015126912 0 0.00094365897702043374 -0.053989976676395532 0 0.00066376335047076498 -0.054584513905760315 0 0.00094365897702043374 -0.053989976676395532 0 0.00062883459342990579 -0.053405127471799749 0 0.0012550538929847709 -0.053420283237696285 0 0.00094365897702043374 -0.053989976676395532 0 0.0014801060790088688 -0.053924666342740749 0 0.0012550538929847709 -0.053420283237696285 0 0.0018033161373636102 -0.053560860460194794 0 0.0014801060790088688 -0.053924666342740749 0 0.0012550538929847709 -0.053420283237696285 0 0.0018800289383020441 -0.054195221359362646 0 0.0018033161373636102 -0.053560860460194794 0 0.0014801060790088688 -0.053924666342740749 0 -0.00011412394602059132 -0.054481955019416765 0 0.00066376335047076498 -0.054584513905760315 0 0.00037737250831534642 -0.054084311005612735 0 0.00094365897702043374 -0.053989976676395532 0 0.00066376335047076498 -0.054584513905760315 0 0.00037737250831534642 -0.054084311005612735 0 0.00094365897702043374 -0.053989976676395532 0 0.00037737250831534642 -0.054084311005612735 0 0.00062883459342990579 -0.053405127471799749 0 0.00037737250831534642 -0.054084311005612735 0 -0.00010508917418864903 -0.053749604148708018 0 0.00062883459342990579 -0.053405127471799749 0 -0.00011412394602059132 -0.054481955019416765 0 0.00037737250831534642 -0.054084311005612735 0 -0.00010508917418864903 -0.053749604148708018 0 -0.00010508917418864903 -0.053749604148708018 0 0.00062883459342990579 -0.053405127471799749 0 -8.2492200962624616e-05 -0.053069535405877527 0 0.0011029790171824981 -0.05476339617786103 0 0.00031129952369111382 -0.054917400308326446 0 0.00069835550950370843 -0.054536778598546394 0 0.0001260468090148184 -0.05107489443631643 0 -0.00011328014202920566 -0.052860015400711155 0 0.00062883459342990579 -0.053405127471799749 0 0.00084848694024678719 -0.052519386750881483 0 -8.2492200962624616e-05 -0.053069535405877527 0 0.00031129952369111382 -0.054917400308326446 0 0.00036088211545005721 -0.054489082692078861 0 0.00069835550950370843 -0.054536778598546394 0 0.0018033161373636102 -0.053560860460194794 0 0.001583250745350653 -0.053053034100239767 0 0.0012550538929847709 -0.053420283237696285 0 0.002223823865491996 -0.053177537491733817 0 0.0018033161373636102 -0.053560860460194794 0 0.001583250745350653 -0.053053034100239767 0 0.00062883459342990579 -0.053405127471799749 0 0.0012550538929847709 -0.053420283237696285 0 0.0011695095401437596 -0.05290679757242478 0 0.001583250745350653 -0.053053034100239767 0 0.0012550538929847709 -0.053420283237696285 0 0.0011695095401437596 -0.05290679757242478 0 0.00084848694024678719 -0.052519386750881483 0 0.0011695095401437596 -0.05290679757242478 0 0.0014961391145881843 -0.052346851275076975 0 0.00062883459342990579 -0.053405127471799749 0 0.00084848694024678719 -0.052519386750881483 0 0.0011695095401437596 -0.05290679757242478 0 0.001583250745350653 -0.053053034100239767 0 0.0011695095401437596 -0.05290679757242478 0 0.0014961391145881843 -0.052346851275076975 0 0.0030096567545442937 -0.047214753386864296 0 0.0032587793021172889 -0.049299287227985149 0 0.0003597261110798216 -0.051622663194706098 0 0.0014961391145881843 -0.052346851275076975 0 0.0009407913807161722 -0.052178903797038705 0 0.002223823865491996 -0.053177537491733817 0 0.001583250745350653 -0.053053034100239767 0 0.0014961391145881843 -0.052346851275076975 0 0.0014961391145881843 -0.052346851275076975 0 0.0014838282472941118 -0.052406468837705986 0 0.0009407913807161722 -0.052178903797038705 0 0.0014838282472941118 -0.052406468837705986 0 0.0009407913807161722 -0.052178903797038705 0 0.00028627617467503216 -0.052330099829696913 0 0.0011029790171824981 -0.05476339617786103 0 0.0020209132541649934 -0.054358121754898868 0 0.0011047816506539801 -0.05439183303727859 0 0.0020209132541649934 -0.054358121754898868 0 0.0020032569866010948 -0.054055497106925983 0 0.0011047816506539801 -0.05439183303727859 0 0.00084848694024678719 -0.052519386750881483 0 0.0014961391145881843 -0.052346851275076975 0 0.0014838282472941118 -0.052406468837705986 0 0.0023030677678574545 -0.045571247007214058 0 0.0014531368695070222 -0.047731182716483876 0 0.0001260468090148184 -0.05107489443631643 0 0.00026844031233708724 -0.047354696931719731 0 0.0052699773196966835 -0.053720439933099606 0 0.00316225075629837 -0.053114037458377797 0 0.0011047816506539801 -0.05439183303727859 0 0.00316225075629837 -0.053114037458377797 0 0.0018446858939102401 -0.053359967566305372 0 0.0011047816506539801 -0.05439183303727859 0 0.00316225075629837 -0.053114037458377797 0 0.0018446858939102401 -0.053359967566305372 0 0.0016801360521467284 -0.052142884333117971 0 0.0018446858939102401 -0.053359967566305372 0 0.0016801360521467284 -0.052142884333117971 0 0.0011122994919997738 -0.053875235269060212 0 0.00316225075629837 -0.053114037458377797 0 0.0016801360521467284 -0.052142884333117971 0 0.0026712508133630436 -0.050647479357780918 0 0.00316225075629837 -0.053114037458377797 0 0.0046379350902473531 -0.051960534840701456 0 0.0026712508133630436 -0.050647479357780918 0 0.0046379350902473531 -0.051960534840701456 0 0.0060575318935723651 -0.052408137064551767 0 0.0068823778227864061 -0.050843437600498247 0 0.0052699773196966835 -0.053720439933099606 0 0.0060575318935723651 -0.052408137064551767 0 0.0047773180735648357 -0.052802208553973086 0 0.00316225075629837 -0.053114037458377797 0 0.0046379350902473531 -0.051960534840701456 0 0.0047773180735648357 -0.052802208553973086 0 0.0052699773196966835 -0.053720439933099606 0 0.00316225075629837 -0.053114037458377797 0 0.0047773180735648357 -0.052802208553973086 0 0.0046379350902473531 -0.051960534840701456 0 0.0060575318935723651 -0.052408137064551767 0 0.0047773180735648357 -0.052802208553973086 0 0.00036088211545005721 -0.054489082692078861 0 0.0006497780981086802 -0.054247829712449985 0 0.00069835550950370843 -0.054536778598546394 0 0.00036088211545005721 -0.054489082692078861 0 0.0006497780981086802 -0.054247829712449985 0 0.00048385860106568425 -0.054113535402415383 0 0.00083153389708944144 -0.054211281158590995 0 0.00069835550950370843 -0.054536778598546394 0 0.0011047816506539801 -0.05439183303727859 0 0.00083153389708944144 -0.054211281158590995 0 0.0011122994919997738 -0.053875235269060212 0 0.00077997308278334127 -0.053960400675813085 0 0.0006497780981086802 -0.054247829712449985 0 0.00083153389708944144 -0.054211281158590995 0 0.00069835550950370843 -0.054536778598546394 0 0.0006497780981086802 -0.054247829712449985 0 0.00083153389708944144 -0.054211281158590995 0 0.00077997308278334127 -0.053960400675813085 0 0.0011029790171824981 -0.05476339617786103 0 0.00069835550950370843 -0.054536778598546394 0 0.0011047816506539801 -0.05439183303727859 0 0.00083153389708944144 -0.054211281158590995 0 0.0011047816506539801 -0.05439183303727859 0 0.0011122994919997738 -0.053875235269060212 0 0.0018446858939102401 -0.053359967566305372 0 0.0011047816506539801 -0.05439183303727859 0 0.0011122994919997738 -0.053875235269060212 0 0.0011122994919997738 -0.053875235269060212 0 0.00077997308278334127 -0.053960400675813085 0 0.00073515572362906696 -0.05376354670276056 0 0.0016801360521467284 -0.052142884333117971 0 0.0011122994919997738 -0.053875235269060212 0 -0.00074681766538288192 -0.050932212999177516 0 0.0016801360521467284 -0.052142884333117971 0 -0.00074681766538288192 -0.050932212999177516 0 0.0026712508133630436 -0.050647479357780918 0 0.00099039980429352771 -0.052031458746299657 0 0.00067198367388714012 -0.051224180046627155 0 0.00077997308278334127 -0.053960400675813085 0 0.00067515600870033906 -0.053860138114085042 0 0.00073515572362906696 -0.05376354670276056 0 0.00060669318559734744 -0.05136146756270326 0 0.00067198367388714012 -0.051224180046627155 0 0.00022540135358307069 -0.053931541764246645 0 0.00036088211545005721 -0.054489082692078861 0 0.00048385860106568425 -0.054113535402415383 0 0.00022540135358307069 -0.053931541764246645 0 0.00067515600870033906 -0.053860138114085042 0 0.00060159234824936172 -0.053373528356675741 0 0.00064744369027229249 -0.054025683038105177 0 0.00067515600870033906 -0.053860138114085042 0 0.00048385860106568425 -0.054113535402415383 0 0.0006497780981086802 -0.054247829712449985 0 0.00064744369027229249 -0.054025683038105177 0 0.00048385860106568425 -0.054113535402415383 0 0.0006497780981086802 -0.054247829712449985 0 0.00077997308278334127 -0.053960400675813085 0 0.00064744369027229249 -0.054025683038105177 0 0.00077997308278334127 -0.053960400675813085 0 0.00064744369027229249 -0.054025683038105177 0 0.00067515600870033906 -0.053860138114085042 0 0.00022540135358307069 -0.053931541764246645 0 0.00067515600870033906 -0.053860138114085042 0 0.00048385860106568425 -0.054113535402415383 0 -2.4924151281486257e-05 -0.053355265268103344 0 0.0007766207901595334 -0.051592363854002274 0 -0.00011303837267256738 -0.054792448441389079 0 -9.756727100317961e-05 -0.054842999517104973 0 -0.00013933897131701225 -0.054852869816771781 0 0.00067515600870033906 -0.053860138114085042 0 0.00060159234824936172 -0.053373528356675741 0 0.00079823154849695537 -0.053695067463470136 0 -9.756727100317961e-05 -0.054842999517104973 0 -9.0841882590553952e-05 -0.054872772963324948 0 -0.00013933897131701225 -0.054852869816771781 0 0.0007766207901595334 -0.051592363854002274 0 0.00067198367388714012 -0.051224180046627155 0 0.00067198367388714012 -0.051224180046627155 0 0.0011617629721430824 -0.047773233789778137 0 0.0011660496743023563 -0.048751869692421602 0 0.0010923272691415167 -0.048636376462149807 0 0.00092669651937851922 -0.048845694365441832 0 -0.00074681766538288192 -0.050932212999177516 0 0.0026712508133630436 -0.050647479357780918 0 0.001805802106439039 -0.047458540723611997 0 0.0007766207901595334 -0.051592363854002274 0 0.0013778113306971561 -0.049832737319593014 0 0.0011660496743023563 -0.048751869692421602 0 0.0010192112568988537 -0.048961634507662589 0 0.00092669651937851922 -0.048845694365441832 0 0.0014809776168881587 -0.048339756619586512 0 0.0011567490929493655 -0.04878153330835084 0 0.001459106385904563 -0.048906085311605244 0 -9.0841882590553952e-05 -0.054872772963324948 0 -0.00013933897131701225 -0.054852869816771781 0 -8.9700345006917863e-05 -0.054906443922628986 0 0.0014809776168881587 -0.048339756619586512 0 0.001459106385904563 -0.048906085311605244 0 0.0017753944272371283 -0.04879284439456151 0 0.0007766207901595334 -0.051592363854002274 0 0.00082004516157207542 -0.051888661947507082 0 0.0046379350902473531 -0.051960534840701456 0 0.0052738231380783721 -0.048322906123838522 0 0.0026712508133630436 -0.050647479357780918 0 0.0046379350902473531 -0.051960534840701456 0 0.0052738231380783721 -0.048322906123838522 0 0.0068823778227864061 -0.050843437600498247 0 0.0052738231380783721 -0.048322906123838522 0 0.0026712508133630436 -0.050647479357780918 0 0.001805802106439039 -0.047458540723611997 0 0.0011617629721430824 -0.047773233789778137 0 0.0018132954039592182 -0.043736272195891476 0 0.0052738231380783721 -0.048322906123838522 0 0.001805802106439039 -0.047458540723611997 0 0.0043562927476826488 -0.043972764086332917 0 0.0010192112568988537 -0.048961634507662589 0 0.00092669651937851922 -0.048845694365441832 0 0.0007256463443701635 -0.049089576776165496 0 0.0052738231380783721 -0.048322906123838522 0 0.0078423145657746645 -0.044609196680866589 0 0.0043562927476826488 -0.043972764086332917 0 0.0042731554816108448 -0.034287936973524218 0 0.0046677959876903234 -0.032636413540264565 0 0.0040886038249065872 -0.017613545907840998 0 0.0042449330088002455 -0.017407728579005563 0 0.0043702803174695808 -0.017769465059248212 0 0.0052738231380783721 -0.048322906123838522 0 0.008723229912434665 -0.048717508424901732 0 0.0078423145657746645 -0.044609196680866589 0 0.0040886038249065872 -0.017613545907840998 0 0.0039912626291110252 -0.017436255045199713 0 0.0042449330088002455 -0.017407728579005563 0 0.0040886038249065872 -0.017613545907840998 0 0.0039912626291110252 -0.017436255045199713 0 0.0039071888283132832 -0.017623516280944305 0 0.0039912626291110252 -0.017436255045199713 0 0.0040234723939389528 -0.017266248511709856 0 0.0042449330088002455 -0.017407728579005563 0 0.0040234723939389528 -0.017266248511709856 0 0.0042449330088002455 -0.017407728579005563 0 0.0041479456333987624 -0.017091731963471902 0 0.0039912626291110252 -0.017436255045199713 0 0.0040234723939389528 -0.017266248511709856 0 0.0038610952519280255 -0.017314059305080225 0 0.0052738231380783721 -0.048322906123838522 0 0.008723229912434665 -0.048717508424901732 0 0.0068823778227864061 -0.050843437600498247 0 0.008723229912434665 -0.048717508424901732 0 0.0068823778227864061 -0.050843437600498247 0 0.0096139067817412691 -0.052798688624150047 0 0.0042731554816108448 -0.034287936973524218 0 0.0030588782319645458 -0.038262960698683915 0 0.0023030677678574545 -0.045571247007214058 0 0.0030588782319645458 -0.038262960698683915 0 0.0060575318935723651 -0.052408137064551767 0 0.0068823778227864061 -0.050843437600498247 0 0.0096139067817412691 -0.052798688624150047 0 0.0052699773196966835 -0.053720439933099606 0 0.0060575318935723651 -0.052408137064551767 0 0.0096139067817412691 -0.052798688624150047 0 0.0020032569866010948 -0.054055497106925983 0 0.0031025990489386007 -0.05372611971463459 0 0.0031266359294273649 -0.053837620978003195 0 0.0040234723939389528 -0.017266248511709856 0 0.003980965350408313 -0.017105423907836634 0 0.0041479456333987624 -0.017091731963471902 0 0.0040234723939389528 -0.017266248511709856 0 0.003980965350408313 -0.017105423907836634 0 0.0038601429796201554 -0.017113788173790823 0 0.0043443174138503926 -0.035284846532302502 0 0.003079008922317268 -0.038101855010039543 0 0.00321503606540007 -0.017229104470031835 0 0.0031108055736603266 -0.017290274071834172 0 0.0032125939706625526 -0.017337871032736506 0 0.0039510164053786169 -0.036479072906258916 0 0.0027469693190865429 -0.036727644675866138 0 0.0028033997878638764 -0.036982684926067821 0 0.0043443174138503926 -0.035284846532302502 0 0.0030588782319645458 -0.038262960698683915 0 0.0030588782319645458 -0.038262960698683915 0 0.003079008922317268 -0.038101855010039543 0 0.003079008922317268 -0.038101855010039543 0 0.0014215354347692794 -0.035113857658728639 0 0.0031108055736603266 -0.017290274071834172 0 0.0032125939706625526 -0.017337871032736506 0 0.0031365830408196906 -0.017428172383329263 0 -0.00056787655490448741 -0.053412468260546971 0 -0.00096124492049473305 -0.052009133922191794 0 0.00028627617467503216 -0.052330099829696913 0 0.0032362767390342229 -0.017449561367820051 0 0.0032125939706625526 -0.017337871032736506 0 0.0031365830408196906 -0.017428172383329263 0 0.0014838282472941118 -0.052406468837705986 0 -0.00056787655490448741 -0.053412468260546971 0 0.00028627617467503216 -0.052330099829696913 0 0.0020209132541649934 -0.054358121754898868 0 0.0020032569866010948 -0.054055497106925983 0 0.0031266359294273649 -0.053837620978003195 0 0.00026844031233708724 -0.047354696931719731 0 0.003079008922317268 -0.038101855010039543 0 0.0003597261110798216 -0.051622663194706098 0 0.0009407913807161722 -0.052178903797038705 0 0.00028627617467503216 -0.052330099829696913 0 0.0033853374681829945 -0.017265025029779561 0 0.0034580326129077313 -0.017248814367303293 0 0.0033951745111589333 -0.017345453621043162 0 0.0034801522193860721 -0.017355840969762108 0 0.0034580326129077313 -0.017248814367303293 0 0.0033951745111589333 -0.017345453621043162 0 0.0033853374681829945 -0.017265025029779561 0 0.0033951745111589333 -0.017345453621043162 0 0.0033031138829306742 -0.017351767855502964 0 0.0032362767390342229 -0.017449561367820051 0 0.0032125939706625526 -0.017337871032736506 0 0.0033031138829306742 -0.017351767855502964 0 0.00321503606540007 -0.017229104470031835 0 0.0032125939706625526 -0.017337871032736506 0 0.0032822301043411973 -0.017278262332789576 0 0.0032125939706625526 -0.017337871032736506 0 0.0033031138829306742 -0.017351767855502964 0 0.0032822301043411973 -0.017278262332789576 0 0.0033853374681829945 -0.017265025029779561 0 0.0033031138829306742 -0.017351767855502964 0 0.0032822301043411973 -0.017278262332789576 0 0.0033853374681829945 -0.017265025029779561 0 0.0032822301043411973 -0.017278262332789576 0 0.0032939510639520375 -0.017201607705261777 0 0.0043443174138503926 -0.035284846532302502 0 0.0048451747541866279 -0.032769400009033577 0 0.00321503606540007 -0.017229104470031835 0 0.0032822301043411973 -0.017278262332789576 0 0.0032939510639520375 -0.017201607705261777 0 0.0048451747541866279 -0.032769400009033577 0 0.0052018101064698254 -0.030321042936109956 0 0.0033853374681829945 -0.017265025029779561 0 0.0032939510639520375 -0.017201607705261777 0 0.0035096266659472193 -0.017168324500029333 0 0.0033853374681829945 -0.017265025029779561 0 0.0034580326129077313 -0.017248814367303293 0 0.0035096266659472193 -0.017168324500029333 0 0.0038601429796201554 -0.017113788173790823 0 0.0035096266659472193 -0.017168324500029333 0 0.0036652761460754554 -0.017313930349714519 0 0.0035096266659472193 -0.017168324500029333 0 0.0036652761460754554 -0.017313930349714519 0 0.0035438238479846475 -0.017339319391128431 0 0.0036652761460754554 -0.017313930349714519 0 0.0035438238479846475 -0.017339319391128431 0 0.0037558288248480979 -0.017435457615556583 0 0.0039912626291110252 -0.017436255045199713 0 0.0038610952519280255 -0.017314059305080225 0 0.0037558288248480979 -0.017435457615556583 0 0.0038601429796201554 -0.017113788173790823 0 0.0036652761460754554 -0.017313930349714519 0 0.0038610952519280255 -0.017314059305080225 0 0.0040234723939389528 -0.017266248511709856 0 0.0038601429796201554 -0.017113788173790823 0 0.0038610952519280255 -0.017314059305080225 0 0.0036652761460754554 -0.017313930349714519 0 0.0038610952519280255 -0.017314059305080225 0 0.0037558288248480979 -0.017435457615556583 0 0.0039912626291110252 -0.017436255045199713 0 0.0037558288248480979 -0.017435457615556583 0 0.0039071888283132832 -0.017623516280944305 0 0.0037558288248480979 -0.017435457615556583 0 0.0039071888283132832 -0.017623516280944305 0 0.0036891185161526717 -0.017626914616075524 0 0.0034535796055355896 -0.017493156603073674 0 0.0035438238479846475 -0.017339319391128431 0 0.0036891185161526717 -0.017626914616075524 0 0.0035438238479846475 -0.017339319391128431 0 0.0037558288248480979 -0.017435457615556583 0 0.0036891185161526717 -0.017626914616075524 0 0.0034535796055355896 -0.017493156603073674 0 0.0036891185161526717 -0.017626914616075524 0 0.0035791557736000244 -0.017773873881059526 0 0.0036891185161526717 -0.017626914616075524 0 0.0037540491122688567 -0.01791428380251231 0 0.0035791557736000244 -0.017773873881059526 0 0.0036891185161526717 -0.017626914616075524 0 0.0038907174563494601 -0.017824778484522324 0 0.0037540491122688567 -0.01791428380251231 0 0.0039071888283132832 -0.017623516280944305 0 0.0036891185161526717 -0.017626914616075524 0 0.0038907174563494601 -0.017824778484522324 0 0.0039071888283132832 -0.017623516280944305 0 0.0038907174563494601 -0.017824778484522324 0 0.0040611847487101744 -0.017805601399051612 0 0.003922162128847345 -0.017980885581795995 0 0.003777763401889045 -0.018069217922050154 0 0.0040651263847428275 -0.018124612124833912 0 0.0038907174563494601 -0.017824778484522324 0 0.003922162128847345 -0.017980885581795995 0 0.0037540491122688567 -0.01791428380251231 0 0.003922162128847345 -0.017980885581795995 0 0.0037540491122688567 -0.01791428380251231 0 0.003777763401889045 -0.018069217922050154 0 0.0037540491122688567 -0.01791428380251231 0 0.0036341117349628343 -0.017946205400298704 0 0.0035791557736000244 -0.017773873881059526 0 0.0037540491122688567 -0.01791428380251231 0 0.0036341117349628343 -0.017946205400298704 0 0.003777763401889045 -0.018069217922050154 0 0.0041336549695520025 -0.018521022818092252 0 0.0046208490657818476 -0.018223784020717573 0 0.0045600650559475507 -0.019093379241891587 0 0.0044677523564370224 -0.023521778757058055 0 0.0041475493801295914 -0.02258341779580594 0 0.0036341117349628343 -0.017946205400298704 0 0.003777763401889045 -0.018069217922050154 0 0.0035160558140102539 -0.018079817447139331 0 0.0041336549695520025 -0.018521022818092252 0 0.0046208490657818476 -0.018223784020717573 0 0.0037184092705455749 -0.01818053597460511 0 0.0046208490657818476 -0.018223784020717573 0 0.0037184092705455749 -0.01818053597460511 0 0.0035160558140102539 -0.018079817447139331 0 0.0041336549695520025 -0.018521022818092252 0 0.0045600650559475507 -0.019093379241891587 0 0.0034676408489877197 -0.018502128974980367 0 0.0036286446648021949 -0.025542192478293622 0 0.0027840528118085327 -0.021862228105309779 0 0.0044677523564370224 -0.023521778757058055 0 0.0050188937961751934 -0.026732096870002019 0 0.0046208490657818476 -0.018223784020717573 0 0.0054027496424743993 -0.018627749209804902 0 0.0057031353400050864 -0.018268729452784172 0 0.0046208490657818476 -0.018223784020717573 0 0.0054027496424743993 -0.018627749209804902 0 0.0052441344282728132 -0.018987815100710532 0 0.0046208490657818476 -0.018223784020717573 0 0.0052441344282728132 -0.018987815100710532 0 0.0045600650559475507 -0.019093379241891587 0 0.0036286446648021949 -0.025542192478293622 0 0.0058625601915630477 -0.031246836003387506 0 0.0033656471949444593 -0.026388708227928256 0 0.0036757584321516594 -0.026544314154142351 0 0.0034075297972428818 -0.026594498282044458 0 0.0052441344282728132 -0.018987815100710532 0 0.0045600650559475507 -0.019093379241891587 0 0.0055794740623191074 -0.019623714407578187 0 0.0033656471949444593 -0.026388708227928256 0 0.003055220980532636 -0.026233992193831164 0 0.0031612467042447809 -0.026467614236296642 0 0.0033656471949444593 -0.026388708227928256 0 0.0032780890948072555 -0.026552722994281741 0 0.0034075297972428818 -0.026594498282044458 0 0.0033656471949444593 -0.026388708227928256 0 0.0032780890948072555 -0.026552722994281741 0 0.0031612467042447809 -0.026467614236296642 0 0.0032780890948072555 -0.026552722994281741 0 0.0031612467042447809 -0.026467614236296642 0 0.0031645325341705904 -0.026594425141267326 0 0.0084166683509945533 -0.039758798142477084 0 0.0097594294500435667 -0.040429456740962356 0 0.0089008349288904436 -0.040843043284392443 0 0.0084166683509945533 -0.039758798142477084 0 0.0089008349288904436 -0.040843043284392443 0 0.0080929709943516268 -0.040937491138160323 0 0.0084166683509945533 -0.039758798142477084 0 0.0097594294500435667 -0.040429456740962356 0 0.0097812530289453394 -0.039030604095052261 0 0.0097594294500435667 -0.040429456740962356 0 0.0097812530289453394 -0.039030604095052261 0 0.010722136049722468 -0.039719624075651848 0 0.0097594294500435667 -0.040429456740962356 0 0.0095557177054190947 -0.041467784232667712 0 0.011170582785169992 -0.041751032917525702 0 0.0097594294500435667 -0.040429456740962356 0 0.0095557177054190947 -0.041467784232667712 0 0.0089008349288904436 -0.040843043284392443 0 0.0095557177054190947 -0.041467784232667712 0 0.0089008349288904436 -0.040843043284392443 0 0.008713011409576317 -0.041749170659976909 0 0.0089008349288904436 -0.040843043284392443 0 0.0081725191929386317 -0.041327509536928229 0 0.0080929709943516268 -0.040937491138160323 0 0.008713011409576317 -0.041749170659976909 0 0.0081725191929386317 -0.041327509536928229 0 0.0080155214864842152 -0.041846853076050801 0 0.0089008349288904436 -0.040843043284392443 0 0.008713011409576317 -0.041749170659976909 0 0.0081725191929386317 -0.041327509536928229 0 0.0067547047463726749 -0.031786436080729417 0 0.0066520569118214612 -0.03269418353907004 0 0.0084166683509945533 -0.039758798142477084 0 0.0080929709943516268 -0.040937491138160323 0 0.0068771644458221603 -0.041819965119308453 0 0.0081725191929386317 -0.041327509536928229 0 0.0080929709943516268 -0.040937491138160323 0 0.0068771644458221603 -0.041819965119308453 0 0.0081725191929386317 -0.041327509536928229 0 0.0068771644458221603 -0.041819965119308453 0 0.0080155214864842152 -0.041846853076050801 0 0.0058625601915630477 -0.031246836003387506 0 0.0066506363349617794 -0.029568231223080822 0 0.0055794740623191074 -0.019623714407578187 0 0.0055848732425172786 -0.019194156147537597 0 0.0059101587783489395 -0.019187074286981281 0 0.005557312066660971 -0.019693854403319336 0 0.0059101587783489395 -0.019187074286981281 0 0.0056761323136477757 -0.019746743356443431 0 0.0058625601915630477 -0.031246836003387506 0 0.0066520569118214612 -0.03269418353907004 0 0.0052441344282728132 -0.018987815100710532 0 0.0055794740623191074 -0.019623714407578187 0 0.0055848732425172786 -0.019194156147537597 0 0.0056037675498079387 -0.018977058941478438 0 0.0059101587783489395 -0.019187074286981281 0 0.005826440052440653 -0.018769954219425278 0 0.0055848732425172786 -0.019194156147537597 0 0.0056037675498079387 -0.018977058941478438 0 0.0059101587783489395 -0.019187074286981281 0 0.0052441344282728132 -0.018987815100710532 0 0.0055848732425172786 -0.019194156147537597 0 0.0056037675498079387 -0.018977058941478438 0 0.0062280095493748838 -0.018945241094735072 0 0.0059101587783489395 -0.019187074286981281 0 0.0056761323136477757 -0.019746743356443431 0 0.0062280095493748838 -0.018945241094735072 0 0.0059101587783489395 -0.019187074286981281 0 0.005826440052440653 -0.018769954219425278 0 0.0062280095493748838 -0.018945241094735072 0 0.005826440052440653 -0.018769954219425278 0 0.0060295357351767978 -0.018634810973621803 0 0.005826440052440653 -0.018769954219425278 0 0.0060295357351767978 -0.018634810973621803 0 0.0057031353400050864 -0.018268729452784172 0 0.0062280095493748838 -0.018945241094735072 0 0.0060295357351767978 -0.018634810973621803 0 0.0062251148268465013 -0.018488375723793415 0 0.0054027496424743993 -0.018627749209804902 0 0.005826440052440653 -0.018769954219425278 0 0.0057031353400050864 -0.018268729452784172 0 0.0054027496424743993 -0.018627749209804902 0 0.0056037675498079387 -0.018977058941478438 0 0.005826440052440653 -0.018769954219425278 0 0.0054027496424743993 -0.018627749209804902 0 0.0052441344282728132 -0.018987815100710532 0 0.0056037675498079387 -0.018977058941478438 0 0.0060295357351767978 -0.018634810973621803 0 0.0057031353400050864 -0.018268729452784172 0 0.0062251148268465013 -0.018488375723793415 0 0.0050188937961751934 -0.026732096870002019 0 0.0052115502306806652 -0.033576605205170466 0 0.0057031353400050864 -0.018268729452784172 0 0.0062251148268465013 -0.018488375723793415 0 0.0067359868374435826 -0.018273512414952127 0 0.0062280095493748838 -0.018945241094735072 0 0.0062251148268465013 -0.018488375723793415 0 0.0067359868374435826 -0.018273512414952127 0 0.0067547047463726749 -0.031786436080729417 0 0.0052115502306806652 -0.033576605205170466 0 0.0097812530289453394 -0.039030604095052261 0 0.010264424921977561 -0.037685694494618394 0 0.010722136049722468 -0.039719624075651848 0 0.0084166683509945533 -0.039758798142477084 0 0.0097812530289453394 -0.039030604095052261 0 0.0099321446584883614 -0.037700673848420588 0 0.0097812530289453394 -0.039030604095052261 0 0.0099321446584883614 -0.037700673848420588 0 0.010264424921977561 -0.037685694494618394 0 0.0052115502306806652 -0.033576605205170466 0 0.0048938262276284096 -0.034693391539358895 0 0.0021624683153537352 -0.034461411228821487 0 0.0035611215677449526 -0.034399943545419066 0 0.0032456586154358726 -0.033033454688147494 0 0.0048614044452285092 -0.034336125732026615 0 0.0046677959876903234 -0.032636413540264565 0 0.0044105838441684505 -0.018169866853904759 0 0.0044409746146698301 -0.018133899511861624 0 0.004154501735126004 -0.017962533886587483 0 0.0048614044452285092 -0.034336125732026615 0 0.0022840255884206558 -0.02800908103472706 0 0.0044921358383081603 -0.018238808943793795 0 0.0041533910848044137 -0.018045686269592787 0 0.0043702803174695808 -0.017769465059248212 0 0.0048938262276284096 -0.034693391539358895 0 0.0048614044452285092 -0.034336125732026615 0 0.0052115502306806652 -0.033576605205170466 0 0.0048614044452285092 -0.034336125732026615 0 0.0018176862563404716 -0.026243937260111001 0 0.0022840255884206558 -0.02800908103472706 0 0.003922162128847345 -0.017980885581795995 0 0.0040651263847428275 -0.018124612124833912 0 0.004154501735126004 -0.017962533886587483 0 0.0038907174563494601 -0.017824778484522324 0 0.003922162128847345 -0.017980885581795995 0 0.004154501735126004 -0.017962533886587483 0 0.0040651263847428275 -0.018124612124833912 0 0.0044105838441684505 -0.018169866853904759 0 0.004154501735126004 -0.017962533886587483 0 0.0038907174563494601 -0.017824778484522324 0 0.0041533910848044137 -0.018045686269592787 0 0.0040611847487101744 -0.017805601399051612 0 0.0040886038249065872 -0.017613545907840998 0 0.0040611847487101744 -0.017805601399051612 0 0.0043702803174695808 -0.017769465059248212 0 0.0041533910848044137 -0.018045686269592787 0 0.0040611847487101744 -0.017805601399051612 0 0.0043702803174695808 -0.017769465059248212 0 0.0040886038249065872 -0.017613545907840998 0 0.0039071888283132832 -0.017623516280944305 0 0.0040611847487101744 -0.017805601399051612 0 0.00694236113581538 -0.040468817876677311 0 0.0078423145657746645 -0.044609196680866589 0 0.0043562927476826488 -0.043972764086332917 0 0.0013778113306971561 -0.049832737319593014 0 0.0013588218770842367 -0.049591388430231628 0 0.0010192112568988537 -0.048961634507662589 0 0.0007256463443701635 -0.049089576776165496 0 0.00085084310796516708 -0.049219764228727689 0 0.0007256463443701635 -0.049089576776165496 0 0.00085084310796516708 -0.049219764228727689 0 0.000694251571085915 -0.049331193973030422 0 0.00085084310796516708 -0.049219764228727689 0 0.0010139673971232717 -0.049419260297828768 0 0.0011200087635857389 -0.049283676541494827 0 0.00085084310796516708 -0.049219764228727689 0 0.0010139673971232717 -0.049419260297828768 0 0.00087546195913419287 -0.049432895371288178 0 0.0010139673971232717 -0.049419260297828768 0 0.00087546195913419287 -0.049432895371288178 0 0.001045167582069744 -0.049584362530017675 0 0.00087546195913419287 -0.049432895371288178 0 0.000694251571085915 -0.049331193973030422 0 0.00069567039896370757 -0.049443222996968059 0 0.00085084310796516708 -0.049219764228727689 0 0.00087546195913419287 -0.049432895371288178 0 0.000694251571085915 -0.049331193973030422 0 0.00048135292549217633 -0.049387968668014863 0 0.0007256463443701635 -0.049089576776165496 0 0.000694251571085915 -0.049331193973030422 0 0.0048614044452285092 -0.034336125732026615 0 0.0018132954039592182 -0.043736272195891476 0 0.000694251571085915 -0.049331193973030422 0 0.00055580257245734801 -0.049428865198694265 0 0.00069567039896370757 -0.049443222996968059 0 0.00048135292549217633 -0.049387968668014863 0 0.000694251571085915 -0.049331193973030422 0 0.00055580257245734801 -0.049428865198694265 0 0.0048614044452285092 -0.034336125732026615 0 0.0044648684106252095 -0.035682511719860151 0 0.0016703569255423795 -0.049112203089299651 0 0.001459106385904563 -0.048906085311605244 0 0.0017753944272371283 -0.04879284439456151 0 0.0016703569255423795 -0.049112203089299651 0 0.001459106385904563 -0.048906085311605244 0 0.0013886155850464121 -0.049232371482082413 0 0.0011567490929493655 -0.04878153330835084 0 0.00085084310796516708 -0.049219764228727689 0 0.0011908712238033325 -0.049085129301967567 0 0.001459106385904563 -0.048906085311605244 0 0.0011908712238033325 -0.049085129301967567 0 0.0013886155850464121 -0.049232371482082413 0 0.0011567490929493655 -0.04878153330835084 0 0.001459106385904563 -0.048906085311605244 0 0.0011908712238033325 -0.049085129301967567 0 0.00085084310796516708 -0.049219764228727689 0 0.0011908712238033325 -0.049085129301967567 0 0.0011200087635857389 -0.049283676541494827 0 0.0010139673971232717 -0.049419260297828768 0 0.0012255028139781189 -0.049465091784972881 0 0.001045167582069744 -0.049584362530017675 0 0.0010139673971232717 -0.049419260297828768 0 0.0011200087635857389 -0.049283676541494827 0 0.0012255028139781189 -0.049465091784972881 0 0.0012255028139781189 -0.049465091784972881 0 0.0014815151429090592 -0.049421321848766374 0 0.001420620407486383 -0.049594278425130658 0 0.0012255028139781189 -0.049465091784972881 0 0.0013886155850464121 -0.049232371482082413 0 0.0014815151429090592 -0.049421321848766374 0 0.0011200087635857389 -0.049283676541494827 0 0.0012255028139781189 -0.049465091784972881 0 0.0013886155850464121 -0.049232371482082413 0 0.0011908712238033325 -0.049085129301967567 0 0.0011200087635857389 -0.049283676541494827 0 0.0013886155850464121 -0.049232371482082413 0 0.0013886155850464121 -0.049232371482082413 0 0.0014815151429090592 -0.049421321848766374 0 0.0016677090911118549 -0.049344757805943891 0 0.0014815151429090592 -0.049421321848766374 0 0.0016677090911118549 -0.049344757805943891 0 0.0016826292307595414 -0.049596744078017098 0 0.0016677090911118549 -0.049344757805943891 0 0.0016826292307595414 -0.049596744078017098 0 0.0019119995431458509 -0.049477043439776533 0 0.0016703569255423795 -0.049112203089299651 0 0.0016677090911118549 -0.049344757805943891 0 0.0017918985041730574 -0.049276501367602844 0 0.0016703569255423795 -0.049112203089299651 0 0.0013886155850464121 -0.049232371482082413 0 0.0016677090911118549 -0.049344757805943891 0 0.0016826292307595414 -0.049596744078017098 0 0.0015330629083454329 -0.049837540011450299 0 0.0017935093337760938 -0.049883425353429517 0 0.0014815151429090592 -0.049421321848766374 0 0.0016826292307595414 -0.049596744078017098 0 0.001420620407486383 -0.049594278425130658 0 0.001420620407486383 -0.049594278425130658 0 0.0015330629083454329 -0.049837540011450299 0 0.0012382768096196048 -0.049704753771371193 0 0.0016826292307595414 -0.049596744078017098 0 0.001420620407486383 -0.049594278425130658 0 0.0015330629083454329 -0.049837540011450299 0 0.002821447244252514 -0.046474126081356974 0 0.002850122875194623 -0.043497184292387983 0 0.0012382768096196048 -0.049704753771371193 0 0.0013196341468853089 -0.050013665494859472 0 0.00086941388717943038 -0.049759795702417974 0 0.0015330629083454329 -0.049837540011450299 0 0.0012382768096196048 -0.049704753771371193 0 0.0013196341468853089 -0.050013665494859472 0 0.0012255028139781189 -0.049465091784972881 0 0.001420620407486383 -0.049594278425130658 0 0.0012382768096196048 -0.049704753771371193 0 0.0012382768096196048 -0.049704753771371193 0 0.001045167582069744 -0.049584362530017675 0 0.00086941388717943038 -0.049759795702417974 0 0.0012255028139781189 -0.049465091784972881 0 0.0012382768096196048 -0.049704753771371193 0 0.001045167582069744 -0.049584362530017675 0 0.0014923003527121306 -0.050470713005775159 0 0.0016830663830963365 -0.050433413696521608 0 0.0013859766511615916 -0.050287701748944459 0 0.0014923003527121306 -0.050470713005775159 0 0.0015991504832615039 -0.050623860780285822 0 0.0013676037655487878 -0.050618882518307165 0 0.0014923003527121306 -0.050470713005775159 0 0.0015991504832615039 -0.050623860780285822 0 0.0016830663830963365 -0.050433413696521608 0 0.0015330629083454329 -0.049837540011450299 0 0.0017935093337760938 -0.049883425353429517 0 0.0017669802457187451 -0.050293431362218456 0 0.0015991504832615039 -0.050623860780285822 0 0.0016830663830963365 -0.050433413696521608 0 0.0019744158457716461 -0.050551730817345791 0 0.002821447244252514 -0.046474126081356974 0 0.0028151102998966076 -0.047933441738663145 0 0.0015330629083454329 -0.049837540011450299 0 0.0013196341468853089 -0.050013665494859472 0 0.0017669802457187451 -0.050293431362218456 0 0.0044648684106252095 -0.035682511719860151 0 0.002850122875194623 -0.043497184292387983 0 0.004988970838150193 -0.04055843342430461 0 0.0054484703226475306 -0.040777913855248482 0 0.0049696066632173653 -0.04087674921134677 0 0.00054353048910429523 -0.049427978401504542 0 0.00069567039896370757 -0.049443222996968059 0 0.00092458458729362215 -0.049667543672781311 0 0.0048938262276284096 -0.034693391539358895 0 0.0048416700617449349 -0.039992661459382239 0 0.0049011544092636798 -0.040560382030268356 0 0.004988970838150193 -0.04055843342430461 0 0.0049696066632173653 -0.04087674921134677 0 0.0048938262276284096 -0.034693391539358895 0 0.0044648684106252095 -0.035682511719860151 0 0.0051451899532012251 -0.035689025528288405 0 0.0052145741321912549 -0.035989383179152186 0 0.0046072751386282088 -0.035713661961195707 0 0.0044648684106252095 -0.035682511719860151 0 0.0039677220429453208 -0.03612552226980921 0 0.00087546195913419287 -0.049432895371288178 0 0.00069567039896370757 -0.049443222996968059 0 0.00092458458729362215 -0.049667543672781311 0 0.00087546195913419287 -0.049432895371288178 0 0.001045167582069744 -0.049584362530017675 0 0.00092458458729362215 -0.049667543672781311 0 0.002393070795653234 -0.044103068341791701 0 0.002850122875194623 -0.043497184292387983 0 0.0014923003527121306 -0.050470713005775159 0 0.0013859766511615916 -0.050287701748944459 0 0.0013676037655487878 -0.050618882518307165 0 0.002850122875194623 -0.043497184292387983 0 0.0040869435822113442 -0.044633073257267245 0 0.0013859766511615916 -0.050287701748944459 0 0.0013676037655487878 -0.050618882518307165 0 0.0010498794495616397 -0.050624479510029456 0 0.0054484703226475306 -0.040777913855248482 0 0.0049696066632173653 -0.04087674921134677 0 0.0050378934929808097 -0.041190510218725211 0 0.0048416700617449349 -0.039992661459382239 0 0.0040869435822113442 -0.044633073257267245 0 0.0097594294500435667 -0.040429456740962356 0 0.010722136049722468 -0.039719624075651848 0 0.011170582785169992 -0.041751032917525702 0 0.0010498794495616397 -0.050624479510029456 0 0.0012516065046902663 -0.050791833761105416 0 0.0011497021482909878 -0.051010016684909502 0 0.0011137560569788585 -0.050787848938799451 0 0.0010534253570706508 -0.050987863255506152 0 0.0011497021482909878 -0.051010016684909502 0 0.0040869435822113442 -0.044633073257267245 0 0.0040085359763926279 -0.047273512044812983 0 0.0013676037655487878 -0.050618882518307165 0 0.0010498794495616397 -0.050624479510029456 0 0.0012516065046902663 -0.050791833761105416 0 0.0014214325475639495 -0.050904561695593091 0 0.0012516065046902663 -0.050791833761105416 0 0.0011497021482909878 -0.051010016684909502 0 0.0015991504832615039 -0.050623860780285822 0 0.0013676037655487878 -0.050618882518307165 0 0.0014214325475639495 -0.050904561695593091 0 0.0013676037655487878 -0.050618882518307165 0 0.0014214325475639495 -0.050904561695593091 0 0.0012516065046902663 -0.050791833761105416 0 0.0014214325475639495 -0.050904561695593091 0 0.0014484243143708978 -0.051179118853226457 0 0.001215995291519657 -0.051183612621667388 0 0.0014214325475639495 -0.050904561695593091 0 0.0011497021482909878 -0.051010016684909502 0 0.001215995291519657 -0.051183612621667388 0 0.0011497021482909878 -0.051010016684909502 0 0.001215995291519657 -0.051183612621667388 0 0.0010366806255818937 -0.051141417747065931 0 0.0010534253570706508 -0.050987863255506152 0 0.0011497021482909878 -0.051010016684909502 0 0.0010366806255818937 -0.051141417747065931 0 0.0015991504832615039 -0.050623860780285822 0 0.0016918177883301186 -0.050807213070302289 0 0.0019744158457716461 -0.050551730817345791 0 0.0016918177883301186 -0.050807213070302289 0 0.0018635715793117286 -0.05090177409242936 0 0.0019744158457716461 -0.050551730817345791 0 0.0018635715793117286 -0.05090177409242936 0 0.0019744158457716461 -0.050551730817345791 0 0.0020502399842792047 -0.050834350529533667 0 0.0015991504832615039 -0.050623860780285822 0 0.0014214325475639495 -0.050904561695593091 0 0.0016918177883301186 -0.050807213070302289 0 0.0014214325475639495 -0.050904561695593091 0 0.0016918177883301186 -0.050807213070302289 0 0.001639178386392971 -0.05104121712283597 0 0.0014214325475639495 -0.050904561695593091 0 0.001639178386392971 -0.05104121712283597 0 0.0014484243143708978 -0.051179118853226457 0 0.0016918177883301186 -0.050807213070302289 0 0.001639178386392971 -0.05104121712283597 0 0.0018635715793117286 -0.05090177409242936 0 0.001639178386392971 -0.05104121712283597 0 0.00185160640229775 -0.051129063235811213 0 0.0018635715793117286 -0.05090177409242936 0 0.00185160640229775 -0.051129063235811213 0 0.0018635715793117286 -0.05090177409242936 0 0.0020065241388222952 -0.051022398053045016 0 0.0018462868129144262 -0.051322918218032504 0 0.0016472134934579729 -0.051364709500824897 0 0.0019308627832900008 -0.051495800512315545 0 0.001639178386392971 -0.05104121712283597 0 0.00185160640229775 -0.051129063235811213 0 0.0016472134934579729 -0.051364709500824897 0 0.0018462868129144262 -0.051322918218032504 0 0.0019308627832900008 -0.051495800512315545 0 0.0020654829921591599 -0.051251726910205637 0 0.00185160640229775 -0.051129063235811213 0 0.0018462868129144262 -0.051322918218032504 0 0.0020654829921591599 -0.051251726910205637 0 0.00185160640229775 -0.051129063235811213 0 0.0018462868129144262 -0.051322918218032504 0 0.0016472134934579729 -0.051364709500824897 0 0.0014484243143708978 -0.051179118853226457 0 0.0016472134934579729 -0.051364709500824897 0 0.001335480862283402 -0.051368722934559907 0 0.001639178386392971 -0.05104121712283597 0 0.0014484243143708978 -0.051179118853226457 0 0.0016472134934579729 -0.051364709500824897 0 0.001487061481807876 -0.051491528361462362 0 0.0017596113197414325 -0.051617159219446596 0 0.0015535717580159461 -0.051677867702135637 0 0.0016472134934579729 -0.051364709500824897 0 0.001487061481807876 -0.051491528361462362 0 0.001335480862283402 -0.051368722934559907 0 0.0016472134934579729 -0.051364709500824897 0 0.001487061481807876 -0.051491528361462362 0 0.0017596113197414325 -0.051617159219446596 0 0.001487061481807876 -0.051491528361462362 0 0.0012921680847812322 -0.051540599898049801 0 0.0015535717580159461 -0.051677867702135637 0 0.0016472134934579729 -0.051364709500824897 0 0.0017596113197414325 -0.051617159219446596 0 0.0019308627832900008 -0.051495800512315545 0 0.0017596113197414325 -0.051617159219446596 0 0.0019308627832900008 -0.051495800512315545 0 0.0021167802345355012 -0.051654813223248094 0 0.0010610903477159927 -0.051299118615452131 0 0.001215995291519657 -0.051183612621667388 0 0.0010366806255818937 -0.051141417747065931 0 0.0011534131844793349 -0.051344867256851369 0 0.0010610903477159927 -0.051299118615452131 0 0.0010441017313954591 -0.051425132507300804 0 0.0011534131844793349 -0.051344867256851369 0 0.0010610903477159927 -0.051299118615452131 0 0.001215995291519657 -0.051183612621667388 0 0.0014484243143708978 -0.051179118853226457 0 0.001215995291519657 -0.051183612621667388 0 0.001335480862283402 -0.051368722934559907 0 0.0011534131844793349 -0.051344867256851369 0 0.001215995291519657 -0.051183612621667388 0 0.001335480862283402 -0.051368722934559907 0 0.0011534131844793349 -0.051344867256851369 0 0.001335480862283402 -0.051368722934559907 0 0.0011498328193391904 -0.051503646926570848 0 0.001335480862283402 -0.051368722934559907 0 0.0012921680847812322 -0.051540599898049801 0 0.0011498328193391904 -0.051503646926570848 0 0.001487061481807876 -0.051491528361462362 0 0.001335480862283402 -0.051368722934559907 0 0.0012921680847812322 -0.051540599898049801 0 0.0012921680847812322 -0.051540599898049801 0 0.0011498328193391904 -0.051503646926570848 0 0.0011848716200239902 -0.051599132849209743 0 0.0011534131844793349 -0.051344867256851369 0 0.0011498328193391904 -0.051503646926570848 0 0.0010441017313954591 -0.051425132507300804 0 0.0011498328193391904 -0.051503646926570848 0 0.0010260406829345767 -0.051556471835886061 0 0.0011014817603388234 -0.051619544631962673 0 0.0011498328193391904 -0.051503646926570848 0 0.0010441017313954591 -0.051425132507300804 0 0.0010260406829345767 -0.051556471835886061 0 0.0010260406829345767 -0.051556471835886061 0 0.00093254522649499052 -0.05149755396664743 0 0.00093341117355349231 -0.051621297824689313 0 0.00093254522649499052 -0.05149755396664743 0 0.00087507869836662804 -0.051596915630143549 0 0.00093341117355349231 -0.051621297824689313 0 0.0010441017313954591 -0.051425132507300804 0 0.0010260406829345767 -0.051556471835886061 0 0.00093254522649499052 -0.05149755396664743 0 0.0010441017313954591 -0.051425132507300804 0 0.00093254522649499052 -0.05149755396664743 0 0.00096577887646375133 -0.051328275793130512 0 0.0010610903477159927 -0.051299118615452131 0 0.0010441017313954591 -0.051425132507300804 0 0.00096577887646375133 -0.051328275793130512 0 0.00096577887646375133 -0.051328275793130512 0 0.00090813014113371609 -0.051241633728757195 0 0.000880696877607977 -0.051390725576969679 0 0.00093254522649499052 -0.05149755396664743 0 0.00096577887646375133 -0.051328275793130512 0 0.000880696877607977 -0.051390725576969679 0 0.00096577887646375133 -0.051328275793130512 0 0.00090813014113371609 -0.051241633728757195 0 0.0010366806255818937 -0.051141417747065931 0 0.0010610903477159927 -0.051299118615452131 0 0.00096577887646375133 -0.051328275793130512 0 0.0010366806255818937 -0.051141417747065931 0 0.00090813014113371609 -0.051241633728757195 0 0.00075344540859955224 -0.051301819223401671 0 0.000880696877607977 -0.051390725576969679 0 0.00075344540859955224 -0.051301819223401671 0 0.000880696877607977 -0.051390725576969679 0 0.00082293849792002547 -0.051483130040942564 0 0.00093254522649499052 -0.05149755396664743 0 0.000880696877607977 -0.051390725576969679 0 0.00082293849792002547 -0.051483130040942564 0 0.00093254522649499052 -0.05149755396664743 0 0.00082293849792002547 -0.051483130040942564 0 0.00087507869836662804 -0.051596915630143549 0 0.00082293849792002547 -0.051483130040942564 0 0.00082310832257494648 -0.051625459125659877 0 0.00087507869836662804 -0.051596915630143549 0 0.00075344540859955224 -0.051301819223401671 0 0.00082293849792002547 -0.051483130040942564 0 0.00074234994182796317 -0.051568218134945526 0 0.00087903837845253749 -0.051881550449251641 0 0.00085556975393418649 -0.051895353704292671 0 0.00086997830099361088 -0.051902997144990026 0 0.00082293849792002547 -0.051483130040942564 0 0.00074234994182796317 -0.051568218134945526 0 0.00082310832257494648 -0.051625459125659877 0 0.00085556975393418649 -0.051895353704292671 0 0.00086997830099361088 -0.051902997144990026 0 0.0009595610901612121 -0.051869056457068415 0 0.0045443151661087563 -0.048388191292908785 0 0.0031771016816108497 -0.048904868111052394 0 0.0027441020216548637 -0.050189794848879275 0 0.0026143093140378422 -0.049711333398830944 0 0.0019295589061783219 -0.05058267158651019 0 0.0045443151661087563 -0.048388191292908785 0 0.0031771016816108497 -0.048904868111052394 0 0.0037332030343681932 -0.047614880680390749 0 0.0031771016816108497 -0.048904868111052394 0 0.0026435333374734285 -0.04762249761233385 0 0.0037332030343681932 -0.047614880680390749 0 0.0032863741884422582 -0.037480525068085746 0 0.0040817626462789428 -0.035204454030650999 0 0.0026435333374734285 -0.04762249761233385 0 0.0041382903202721926 -0.046531478281332375 0 0.0046400882627018183 -0.04467730149641002 0 0.0031803953795718136 -0.027209639114618118 0 0.0034217364154140442 -0.026872902020797777 0 0.0031908252375240842 -0.026951720675545153 0 0.0026435333374734285 -0.04762249761233385 0 0.0037332030343681932 -0.047614880680390749 0 0.0041382903202721926 -0.046531478281332375 0 0.0045443151661087563 -0.048388191292908785 0 0.0037332030343681932 -0.047614880680390749 0 0.0041382903202721926 -0.046531478281332375 0 0.0064641773684015512 -0.046429267571838656 0 0.0045443151661087563 -0.048388191292908785 0 0.0041382903202721926 -0.046531478281332375 0 0.0064641773684015512 -0.046429267571838656 0 0.0041382903202721926 -0.046531478281332375 0 0.0049455527800545207 -0.045693734304865709 0 0.0035026082791983545 -0.048426593949658508 0 0.0018232959194731718 -0.050993064000962977 0 0.0035026082791983545 -0.048426593949658508 0 0.0026143093140378422 -0.049711333398830944 0 0.0064641773684015512 -0.046429267571838656 0 0.0055675938043597325 -0.045128549372495219 0 0.0065842041078857895 -0.04463003279892977 0 0.0064641773684015512 -0.046429267571838656 0 0.0055675938043597325 -0.045128549372495219 0 0.0049455527800545207 -0.045693734304865709 0 0.0055675938043597325 -0.045128549372495219 0 0.0049455527800545207 -0.045693734304865709 0 0.0046400882627018183 -0.04467730149641002 0 0.0041382903202721926 -0.046531478281332375 0 0.0049455527800545207 -0.045693734304865709 0 0.0046400882627018183 -0.04467730149641002 0 0.0055675938043597325 -0.045128549372495219 0 0.0046400882627018183 -0.04467730149641002 0 0.0054226457835097946 -0.044187611004895155 0 0.0055675938043597325 -0.045128549372495219 0 0.0054226457835097946 -0.044187611004895155 0 0.0065842041078857895 -0.04463003279892977 0 0.0054226457835097946 -0.044187611004895155 0 0.0063822615071552086 -0.043979994260256804 0 0.0065842041078857895 -0.04463003279892977 0 0.0034217364154140442 -0.026872902020797777 0 0.0031908252375240842 -0.026951720675545153 0 0.0032990994927723648 -0.026808056666739539 0 0.0034217364154140442 -0.026872902020797777 0 0.0032990994927723648 -0.026808056666739539 0 0.0034135652669514838 -0.026716918018903392 0 0.0031908252375240842 -0.026951720675545153 0 0.0032990994927723648 -0.026808056666739539 0 0.0031831433163574474 -0.026805387382930413 0 0.0032746723775698267 -0.026705535073908909 0 0.0031073202582992533 -0.026707606735573035 0 0.0031645325341705904 -0.026594425141267326 0 0.0031831433163574474 -0.026805387382930413 0 0.0032746723775698267 -0.026705535073908909 0 0.0031073202582992533 -0.026707606735573035 0 0.0032990994927723648 -0.026808056666739539 0 0.0031831433163574474 -0.026805387382930413 0 0.0032746723775698267 -0.026705535073908909 0 0.0032990994927723648 -0.026808056666739539 0 0.0032746723775698267 -0.026705535073908909 0 0.0034135652669514838 -0.026716918018903392 0 0.0032746723775698267 -0.026705535073908909 0 0.0034135652669514838 -0.026716918018903392 0 0.0034075297972428818 -0.026594498282044458 0 0.0032746723775698267 -0.026705535073908909 0 0.0032780890948072555 -0.026552722994281741 0 0.0034075297972428818 -0.026594498282044458 0 0.0032746723775698267 -0.026705535073908909 0 0.0032780890948072555 -0.026552722994281741 0 0.0031645325341705904 -0.026594425141267326 0 0.0036757584321516594 -0.026544314154142351 0 0.0034135652669514838 -0.026716918018903392 0 0.0034075297972428818 -0.026594498282044458 0 0.0058625601915630477 -0.031246836003387506 0 0.0040817626462789428 -0.035204454030650999 0 0.0036757584321516594 -0.026544314154142351 0 0.0034217364154140442 -0.026872902020797777 0 0.0034135652669514838 -0.026716918018903392 0 0.0054226457835097946 -0.044187611004895155 0 0.0070514223682065927 -0.041952973398172014 0 0.0066118142690820255 -0.043356271368978599 0 0.0069441132210669452 -0.041441920947034742 0 0.0046400882627018183 -0.04467730149641002 0 0.0054226457835097946 -0.044187611004895155 0 0.0046408440224355004 -0.03718159969509624 0 0.0066520569118214612 -0.03269418353907004 0 0.0054226457835097946 -0.044187611004895155 0 0.0063822615071552086 -0.043979994260256804 0 0.0066118142690820255 -0.043356271368978599 0 0.0070514223682065927 -0.041952973398172014 0 0.007224800553943183 -0.042779135457924028 0 0.0066118142690820255 -0.043356271368978599 0 0.0069441132210669452 -0.041441920947034742 0 0.0054226457835097946 -0.044187611004895155 0 0.0072588253979808514 -0.041585806559621637 0 0.0070514223682065927 -0.041952973398172014 0 0.007224800553943183 -0.042779135457924028 0 0.0075651745962397113 -0.042485259557879511 0 0.0069107936075005622 -0.043748462214972306 0 0.0080229460994841652 -0.043024487560254343 0 0.0065842041078857895 -0.04463003279892977 0 0.007224800553943183 -0.042779135457924028 0 0.0066118142690820255 -0.043356271368978599 0 0.0072387102002842447 -0.043269144411860833 0 0.0066118142690820255 -0.043356271368978599 0 0.0072387102002842447 -0.043269144411860833 0 0.0069107936075005622 -0.043748462214972306 0 0.0063822615071552086 -0.043979994260256804 0 0.0066118142690820255 -0.043356271368978599 0 0.0069107936075005622 -0.043748462214972306 0 0.0072387102002842447 -0.043269144411860833 0 0.0069107936075005622 -0.043748462214972306 0 0.0080229460994841652 -0.043024487560254343 0 0.0072387102002842447 -0.043269144411860833 0 0.0075336728786667174 -0.042973780425346053 0 0.0080229460994841652 -0.043024487560254343 0 0.007224800553943183 -0.042779135457924028 0 0.0072387102002842447 -0.043269144411860833 0 0.0075336728786667174 -0.042973780425346053 0 0.0075336728786667174 -0.042973780425346053 0 0.0080229460994841652 -0.043024487560254343 0 0.0076941175229404794 -0.042715109082659047 0 0.0068771644458221603 -0.041819965119308453 0 0.0080155214864842152 -0.041846853076050801 0 0.0082956720520370557 -0.042490399616786127 0 0.0070514223682065927 -0.041952973398172014 0 0.0075651745962397113 -0.042485259557879511 0 0.0082956720520370557 -0.042490399616786127 0 0.0076941175229404794 -0.042715109082659047 0 0.0075651745962397113 -0.042485259557879511 0 0.0082956720520370557 -0.042490399616786127 0 0.0080229460994841652 -0.043024487560254343 0 0.0076941175229404794 -0.042715109082659047 0 0.0082956720520370557 -0.042490399616786127 0 0.0066520569118214612 -0.03269418353907004 0 0.0073149529080483184 -0.033442565945123272 0 0.007224800553943183 -0.042779135457924028 0 0.0076941175229404794 -0.042715109082659047 0 0.0075651745962397113 -0.042485259557879511 0 0.007224800553943183 -0.042779135457924028 0 0.0075336728786667174 -0.042973780425346053 0 0.0076941175229404794 -0.042715109082659047 0 0.011170582785169992 -0.041751032917525702 0 0.009313985615735567 -0.042551744092801137 0 0.0087042472964793966 -0.044244993204524158 0 0.008713011409576317 -0.041749170659976909 0 0.0080155214864842152 -0.041846853076050801 0 0.0082956720520370557 -0.042490399616786127 0 0.0095557177054190947 -0.041467784232667712 0 0.008713011409576317 -0.041749170659976909 0 0.009313985615735567 -0.042551744092801137 0 0.0011137560569788585 -0.050787848938799451 0 0.0010534253570706508 -0.050987863255506152 0 0.00090992148332189949 -0.051026665185738111 0 0.008713011409576317 -0.041749170659976909 0 0.009313985615735567 -0.042551744092801137 0 0.0082956720520370557 -0.042490399616786127 0 0.0040869435822113442 -0.044633073257267245 0 0.0040071078040463679 -0.046796461003682933 0 0.0080229460994841652 -0.043024487560254343 0 0.0082956720520370557 -0.042490399616786127 0 0.0085818533438154071 -0.043074321911997969 0 0.009313985615735567 -0.042551744092801137 0 0.0082956720520370557 -0.042490399616786127 0 0.0085818533438154071 -0.043074321911997969 0 0.0095557177054190947 -0.041467784232667712 0 0.011170582785169992 -0.041751032917525702 0 0.009313985615735567 -0.042551744092801137 0 0.009313985615735567 -0.042551744092801137 0 0.0085818533438154071 -0.043074321911997969 0 0.0087042472964793966 -0.044244993204524158 0 0.0080229460994841652 -0.043024487560254343 0 0.0085818533438154071 -0.043074321911997969 0 0.0087042472964793966 -0.044244993204524158 0 0.0010534253570706508 -0.050987863255506152 0 0.00090992148332189949 -0.051026665185738111 0 0.0010366806255818937 -0.051141417747065931 0 0.00090813014113371609 -0.051241633728757195 0 0.00090992148332189949 -0.051026665185738111 0 0.0010366806255818937 -0.051141417747065931 0 0.0061102822751580238 -0.046800209725298005 0 0.0080229460994841652 -0.043024487560254343 0 0.0087042472964793966 -0.044244993204524158 0 0.0035026082791983545 -0.048426593949658508 0 0.0040071078040463679 -0.046796461003682933 0 0.00090813014113371609 -0.051241633728757195 0 0.00075344540859955224 -0.051301819223401671 0 0.00090992148332189949 -0.051026665185738111 0 0.0035026082791983545 -0.048426593949658508 0 0.0057243707051699913 -0.045028910655234379 0 0.0064641773684015512 -0.046429267571838656 0 0.0080229460994841652 -0.043024487560254343 0 0.0065842041078857895 -0.04463003279892977 0 0.0063822615071552086 -0.043979994260256804 0 0.0069107936075005622 -0.043748462214972306 0 0.0065842041078857895 -0.04463003279892977 0 4.2338676244242712e-09 -0.054999997531200447 0 2.3981444492318399e-06 -0.054998070692928447 0 1.7407868137267675e-09 -0.054999995425488522 0 2.2892728626367416e-06 -0.054998014587513334 0 2.3981444492318399e-06 -0.054998070692928447 0 1.7407868137267675e-09 -0.054999995425488522 0 2.2892728626367416e-06 -0.054998014587513334 0 6.2997835437577501e-06 -0.054996830008611094 0 9.7727299484476496e-06 -0.054995196671051537 0 2.2892728626367416e-06 -0.054998014587513334 0 6.2997835437577501e-06 -0.054996830008611094 0 2.3981444492318399e-06 -0.054998070692928447 0 5.0779050284427451e-06 -0.054995653774757583 0 2.3981444492318399e-06 -0.054998070692928447 0 1.2204195601105052e-06 -0.054994190765712755 0 6.2997835437577501e-06 -0.054996830008611094 0 5.0779050284427451e-06 -0.054995653774757583 0 2.3981444492318399e-06 -0.054998070692928447 0 4.2338676244242712e-09 -0.054999997531200447 0 2.3981444492318399e-06 -0.054998070692928447 0 1.2204195601105052e-06 -0.054994190765712755 0 4.2338676244242712e-09 -0.054999997531200447 0 1.4817174190424479e-06 -0.054990849858538027 0 2.4973159636947126e-09 -0.054999975257391219 0 4.2338676244242712e-09 -0.054999997531200447 0 1.4817174190424479e-06 -0.054990849858538027 0 1.2204195601105052e-06 -0.054994190765712755 0 8.3507322280090683e-07 -0.05498351469558535 0 1.4817174190424479e-06 -0.054990849858538027 0 2.4973159636947126e-09 -0.054999975257391219 0 8.3507322280090683e-07 -0.05498351469558535 0 1.4817174190424479e-06 -0.054990849858538027 0 -2.3546760583885881e-07 -0.054977913237155326 0 -2.3546760583885881e-07 -0.054977913237155326 0 1.2204195601105052e-06 -0.054994190765712755 0 -3.0314797215041766e-06 -0.054972325138362747 0 5.0779050284427451e-06 -0.054995653774757583 0 1.2204195601105052e-06 -0.054994190765712755 0 1.1859570845974402e-05 -0.054998949075373983 0 1.4817174190424479e-06 -0.054990849858538027 0 -2.3546760583885881e-07 -0.054977913237155326 0 1.2204195601105052e-06 -0.054994190765712755 0 1.5107957638085661e-05 -0.054950661470093622 0 1.8616688476472575e-05 -0.054940683182847616 0 5.0779050284427451e-06 -0.054995653774757583 0 1.1859570845974402e-05 -0.054998949075373983 0 2.2603679329447743e-05 -0.054991858005448403 0 -1.9424396758034161e-06 -0.054961004958016813 0 -2.3546760583885881e-07 -0.054977913237155326 0 -2.7352179510307626e-06 -0.054966021276817857 0 -3.0314797215041766e-06 -0.054972325138362747 0 -2.7352179510307626e-06 -0.054966021276817857 0 -5.4651701990512766e-06 -0.05495251845215067 0 -1.9424396758034161e-06 -0.054961004958016813 0 -2.7352179510307626e-06 -0.054966021276817857 0 -5.4651701990512766e-06 -0.05495251845215067 0 -2.3546760583885881e-07 -0.054977913237155326 0 -3.0314797215041766e-06 -0.054972325138362747 0 -2.7352179510307626e-06 -0.054966021276817857 0 -5.4651701990512766e-06 -0.05495251845215067 0 -1.1519348017368171e-05 -0.054953565937728904 0 -1.3957728289278677e-05 -0.054939394449087048 0 -1.286773371719171e-05 -0.054924869671969967 0 -5.4651701990512766e-06 -0.05495251845215067 0 -1.3957728289278677e-05 -0.054939394449087048 0 1.8616688476472575e-05 -0.054940683182847616 0 3.3355046804153735e-05 -0.054909083975784853 0 2.2603679329447743e-05 -0.054991858005448403 0 3.7616614834573641e-05 -0.054984770920464859 0 3.2734847774956853e-05 -0.054999835526672501 0 1.1859570845974402e-05 -0.054998949075373983 0 2.2603679329447743e-05 -0.054991858005448403 0 3.2734847774956853e-05 -0.054999835526672501 0 -3.0314797215041766e-06 -0.054972325138362747 0 -5.4651701990512766e-06 -0.05495251845215067 0 -1.1519348017368171e-05 -0.054953565937728904 0 2.4300984841714573e-05 -0.054977950495936373 0 2.2603679329447743e-05 -0.054991858005448403 0 3.7616614834573641e-05 -0.054984770920464859 0 -9.3807693547802689e-05 -0.054706045581246761 0 -7.1235720931608117e-05 -0.054561955948422718 0 5.0779050284427451e-06 -0.054995653774757583 0 2.4300984841714573e-05 -0.054977950495936373 0 2.2603679329447743e-05 -0.054991858005448403 0 6.2997835437577501e-06 -0.054996830008611094 0 5.0779050284427451e-06 -0.054995653774757583 0 1.7274950019012454e-05 -0.054998966202985458 0 6.2997835437577501e-06 -0.054996830008611094 0 1.7274950019012454e-05 -0.054998966202985458 0 9.7727299484476496e-06 -0.054995196671051537 0 1.7274950019012454e-05 -0.054998966202985458 0 2.8166030688341348e-05 -0.05498939376815503 0 2.1682270711109393e-05 -0.054990819272897208 0 1.7274950019012454e-05 -0.054998966202985458 0 1.6164165212152871e-05 -0.054992964233735016 0 2.1682270711109393e-05 -0.054990819272897208 0 1.7274950019012454e-05 -0.054998966202985458 0 9.7727299484476496e-06 -0.054995196671051537 0 1.6164165212152871e-05 -0.054992964233735016 0 2.4300984841714573e-05 -0.054977950495936373 0 5.0469537489451568e-05 -0.054960993249938958 0 4.1334276062781827e-05 -0.054976540576892788 0 -7.1235720931608117e-05 -0.054561955948422718 0 0.00029077593764078636 -0.053877281880115077 0 1.7274950019012454e-05 -0.054998966202985458 0 3.4815347607049893e-05 -0.05499183921377393 0 2.8166030688341348e-05 -0.05498939376815503 0 5.0469537489451568e-05 -0.054960993249938958 0 5.3194346898690735e-05 -0.054982506282885951 0 4.1334276062781827e-05 -0.054976540576892788 0 0.00067765610450069619 -0.053235218264164504 0 0.00085671521788357129 -0.052662836439948749 0 0.00029077593764078636 -0.053877281880115077 0 0.00018487754265541852 -0.054604916389590225 0 -7.6034430724601504e-05 -0.054843887600428964 0 -6.4010157977310384e-05 -0.054837839491372629 0 -7.0723059800216584e-05 -0.054890444516831297 0 -6.4010157977310384e-05 -0.054837839491372629 0 -7.0723059800216584e-05 -0.054890444516831297 0 -4.2018241045157145e-05 -0.05488777698264443 0 0.00029077593764078636 -0.053877281880115077 0 0.00067765610450069619 -0.053235218264164504 0 -7.0723059800216584e-05 -0.054890444516831297 0 -5.1064419548912218e-05 -0.054910491432075069 0 -4.2018241045157145e-05 -0.05488777698264443 0 5.3194346898690735e-05 -0.054982506282885951 0 4.1334276062781827e-05 -0.054976540576892788 0 3.7616614834573641e-05 -0.054984770920464859 0 5.3194346898690735e-05 -0.054982506282885951 0 3.7616614834573641e-05 -0.054984770920464859 0 4.5030602916075613e-05 -0.054991392023079892 0 2.4300984841714573e-05 -0.054977950495936373 0 4.1334276062781827e-05 -0.054976540576892788 0 3.7616614834573641e-05 -0.054984770920464859 0 3.7616614834573641e-05 -0.054984770920464859 0 4.5030602916075613e-05 -0.054991392023079892 0 3.2734847774956853e-05 -0.054999835526672501 0 -1.1519348017368171e-05 -0.054953565937728904 0 -2.1884779690924497e-05 -0.054938785894180407 0 -3.4328817303644251e-05 -0.054939668126680621 0 3.3355046804153735e-05 -0.054909083975784853 0 8.4785602243260533e-05 -0.054846649654483173 0 4.5030602916075613e-05 -0.054991392023079892 0 3.2734847774956853e-05 -0.054999835526672501 0 5.5973392627776531e-05 -0.055001901244796279 0 -1.1519348017368171e-05 -0.054953565937728904 0 -1.3957728289278677e-05 -0.054939394449087048 0 -2.1884779690924497e-05 -0.054938785894180407 0 -1.3957728289278677e-05 -0.054939394449087048 0 -2.1884779690924497e-05 -0.054938785894180407 0 -2.2977598478402274e-05 -0.054926408989623608 0 -1.286773371719171e-05 -0.054924869671969967 0 -1.3957728289278677e-05 -0.054939394449087048 0 -2.2977598478402274e-05 -0.054926408989623608 0 -2.6749397020104537e-05 -0.054906345245313841 0 -2.2977598478402274e-05 -0.054926408989623608 0 -3.5178838654837255e-05 -0.054918034687403888 0 -2.2977598478402274e-05 -0.054926408989623608 0 -3.5178838654837255e-05 -0.054918034687403888 0 -3.6282115842845424e-05 -0.054929084861850178 0 -2.1884779690924497e-05 -0.054938785894180407 0 -3.6282115842845424e-05 -0.054929084861850178 0 -3.4328817303644251e-05 -0.054939668126680621 0 -2.1884779690924497e-05 -0.054938785894180407 0 -2.2977598478402274e-05 -0.054926408989623608 0 -3.6282115842845424e-05 -0.054929084861850178 0 -3.5178838654837255e-05 -0.054918034687403888 0 -3.6282115842845424e-05 -0.054929084861850178 0 -4.4926500415830006e-05 -0.054919217063583617 0 0.00018487754265541852 -0.054604916389590225 0 8.4785602243260533e-05 -0.054846649654483173 0 -3.6282115842845424e-05 -0.054929084861850178 0 -3.664502464705859e-05 -0.054932029947196315 0 -4.7519523657112088e-05 -0.054925704949847567 0 -6.3137676419930812e-05 -0.054925282718207749 0 -5.1064419548912218e-05 -0.054910491432075069 0 -4.7519523657112088e-05 -0.054925704949847567 0 8.4785602243260533e-05 -0.054846649654483173 0 7.0152154925868563e-05 -0.05484804998489428 0 -7.0723059800216584e-05 -0.054890444516831297 0 -6.3137676419930812e-05 -0.054925282718207749 0 -5.1064419548912218e-05 -0.054910491432075069 0 5.3194346898690735e-05 -0.054982506282885951 0 4.5030602916075613e-05 -0.054991392023079892 0 5.5973392627776531e-05 -0.055001901244796279 0 8.3431705525863542e-05 -0.054850538030224973 0 8.4785602243260533e-05 -0.054846649654483173 0 -5.1064419548912218e-05 -0.054910491432075069 0 -4.8267342987384842e-05 -0.054924137882844476 0 -4.2018241045157145e-05 -0.05488777698264443 0 -5.1064419548912218e-05 -0.054910491432075069 0 -4.7519523657112088e-05 -0.054925704949847567 0 -4.8267342987384842e-05 -0.054924137882844476 0 0.00087125092140279885 -0.052236473301839823 0 0.00085671521788357129 -0.052662836439948749 0 -4.7519523657112088e-05 -0.054925704949847567 0 -5.3763702602982e-05 -0.054916349195267569 0 -4.4926500415830006e-05 -0.054919217063583617 0 -3.6282115842845424e-05 -0.054929084861850178 0 -4.7519523657112088e-05 -0.054925704949847567 0 -4.4926500415830006e-05 -0.054919217063583617 0 -4.7519523657112088e-05 -0.054925704949847567 0 -5.3763702602982e-05 -0.054916349195267569 0 -4.8267342987384842e-05 -0.054924137882844476 0 -4.540416653681254e-05 -0.05490726994491904 0 -3.5178838654837255e-05 -0.054918034687403888 0 -4.4926500415830006e-05 -0.054919217063583617 0 -4.540416653681254e-05 -0.05490726994491904 0 -5.3763702602982e-05 -0.054916349195267569 0 -4.4926500415830006e-05 -0.054919217063583617 0 0.00082004516157207542 -0.051888661947507082 0 0.00087125092140279885 -0.052236473301839823 0 -5.3763702602982e-05 -0.054916349195267569 0 -8.9700345006917863e-05 -0.054906443922628986 0 -4.8267342987384842e-05 -0.054924137882844476 0 0.0017753944272371283 -0.04879284439456151 0 0.0019183445998792383 -0.049173530065880447 0 0.0021192400590512037 -0.049329159546309981 0 -6.3666950658769651e-05 -0.054893645230547773 0 -5.3763702602982e-05 -0.054916349195267569 0 -8.9700345006917863e-05 -0.054906443922628986 0 0.0016703569255423795 -0.049112203089299651 0 0.0017753944272371283 -0.04879284439456151 0 0.0019183445998792383 -0.049173530065880447 0 0.0019183445998792383 -0.049173530065880447 0 0.0017918985041730574 -0.049276501367602844 0 0.0019119995431458509 -0.049477043439776533 0 0.0019183445998792383 -0.049173530065880447 0 0.0019119995431458509 -0.049477043439776533 0 0.002271694815188895 -0.049778159661731075 0 0.0019183445998792383 -0.049173530065880447 0 0.0021192400590512037 -0.049329159546309981 0 0.00224606394282872 -0.049945399097381264 0 0.0016703569255423795 -0.049112203089299651 0 0.0019183445998792383 -0.049173530065880447 0 0.0017918985041730574 -0.049276501367602844 0 0.0013838533583726579 -0.05003186688110417 0 0.0013587136720085598 -0.050663176768376013 0 0.0016677090911118549 -0.049344757805943891 0 0.0017918985041730574 -0.049276501367602844 0 0.0019119995431458509 -0.049477043439776533 0 0.0016826292307595414 -0.049596744078017098 0 0.0019119995431458509 -0.049477043439776533 0 0.0019426131084452813 -0.049743375559063094 0 0.0016826292307595414 -0.049596744078017098 0 0.0019426131084452813 -0.049743375559063094 0 0.0017935093337760938 -0.049883425353429517 0 0.0019426131084452813 -0.049743375559063094 0 0.0017935093337760938 -0.049883425353429517 0 0.0020653209103208888 -0.049991161068679298 0 0.0019426131084452813 -0.049743375559063094 0 0.002271694815188895 -0.049778159661731075 0 0.0020653209103208888 -0.049991161068679298 0 0.0019119995431458509 -0.049477043439776533 0 0.0019426131084452813 -0.049743375559063094 0 0.002271694815188895 -0.049778159661731075 0 0.0021192400590512037 -0.049329159546309981 0 0.0024879390722926009 -0.049969923773871577 0 0.00224606394282872 -0.049945399097381264 0 0.0013587136720085598 -0.050663176768376013 0 0.0011498489473108816 -0.052763133855452581 0 0.002271694815188895 -0.049778159661731075 0 0.0024800343588116227 -0.050301375704973943 0 0.0020653209103208888 -0.049991161068679298 0 0.0028891999251077277 -0.050649628141735507 0 0.00224606394282872 -0.049945399097381264 0 0.0026304342656813949 -0.050780876164910276 0 0.0024800343588116227 -0.050301375704973943 0 0.0021108263636249454 -0.050268027370191641 0 0.0020653209103208888 -0.049991161068679298 0 0.002271694815188895 -0.049778159661731075 0 0.0024800343588116227 -0.050301375704973943 0 0.0026705980511201976 -0.050553275726198985 0 0.0028891999251077277 -0.050649628141735507 0 0.0024879390722926009 -0.049969923773871577 0 0.00224606394282872 -0.049945399097381264 0 0.0024800343588116227 -0.050301375704973943 0 0.0022899159229114461 -0.050395008755707453 0 0.0021108263636249454 -0.050268027370191641 0 0.0024800343588116227 -0.050301375704973943 0 0.0022899159229114461 -0.050395008755707453 0 0.0025267590774600943 -0.050643852121835038 0 0.0022899159229114461 -0.050395008755707453 0 0.0021108263636249454 -0.050268027370191641 0 0.0022970125204322847 -0.050635678893640471 0 0.0021108263636249454 -0.050268027370191641 0 0.0017669802457187451 -0.050293431362218456 0 0.0022970125204322847 -0.050635678893640471 0 0.0017935093337760938 -0.049883425353429517 0 0.0017669802457187451 -0.050293431362218456 0 0.0020653209103208888 -0.049991161068679298 0 0.0021108263636249454 -0.050268027370191641 0 0.0017669802457187451 -0.050293431362218456 0 0.0020653209103208888 -0.049991161068679298 0 0.0019744158457716461 -0.050551730817345791 0 0.0021657951289743909 -0.050746067760651242 0 0.0020502399842792047 -0.050834350529533667 0 0.0028151102998966076 -0.047933441738663145 0 0.0028713198121149519 -0.048396681196118854 0 0.0019744158457716461 -0.050551730817345791 0 0.0021657951289743909 -0.050746067760651242 0 0.0022970125204322847 -0.050635678893640471 0 0.0021657951289743909 -0.050746067760651242 0 0.0023252089490538646 -0.050730472105550324 0 0.0022078373594400015 -0.050994294850265937 0 0.0021657951289743909 -0.050746067760651242 0 0.0020502399842792047 -0.050834350529533667 0 0.0022078373594400015 -0.050994294850265937 0 0.0021657951289743909 -0.050746067760651242 0 0.0022970125204322847 -0.050635678893640471 0 0.0023252089490538646 -0.050730472105550324 0 0.0024333255733324927 -0.050676832540719127 0 0.0023252089490538646 -0.050730472105550324 0 0.0024808999957305925 -0.051110737765433484 0 0.0022899159229114461 -0.050395008755707453 0 0.0022970125204322847 -0.050635678893640471 0 0.0025267590774600943 -0.050643852121835038 0 0.0022970125204322847 -0.050635678893640471 0 0.0025267590774600943 -0.050643852121835038 0 0.0023252089490538646 -0.050730472105550324 0 0.0012062031113654165 -0.052730694858454996 0 0.0013230540498230159 -0.052644677476251428 0 0.0012277590796686843 -0.052389207603555275 0 0.0012062031113654165 -0.052730694858454996 0 0.0024800343588116227 -0.050301375704973943 0 0.0026705980511201976 -0.050553275726198985 0 0.0025277976198507116 -0.050626595635488464 0 0.0011498489473108816 -0.052763133855452581 0 0.0012062031113654165 -0.052730694858454996 0 0.0023252089490538646 -0.050730472105550324 0 0.0024808999957305925 -0.051110737765433484 0 0.0022078373594400015 -0.050994294850265937 0 0.0012062031113654165 -0.052730694858454996 0 0.0011787060416407671 -0.053029736434323266 0 0.0024808999957305925 -0.051110737765433484 0 0.0022078373594400015 -0.050994294850265937 0 0.0023009194040516218 -0.051300265883054141 0 0.0020502399842792047 -0.050834350529533667 0 0.0022078373594400015 -0.050994294850265937 0 0.0020065241388222952 -0.051022398053045016 0 0.0018635715793117286 -0.05090177409242936 0 0.0020502399842792047 -0.050834350529533667 0 0.0020065241388222952 -0.051022398053045016 0 0.00185160640229775 -0.051129063235811213 0 0.0020065241388222952 -0.051022398053045016 0 0.0020654829921591599 -0.051251726910205637 0 0.0022078373594400015 -0.050994294850265937 0 0.0020065241388222952 -0.051022398053045016 0 0.0020654829921591599 -0.051251726910205637 0 0.0022078373594400015 -0.050994294850265937 0 0.0020654829921591599 -0.051251726910205637 0 0.0023009194040516218 -0.051300265883054141 0 0.0020654829921591599 -0.051251726910205637 0 0.0021326497376886015 -0.051460485156489891 0 0.0023009194040516218 -0.051300265883054141 0 0.0019308627832900008 -0.051495800512315545 0 0.0020654829921591599 -0.051251726910205637 0 0.0021326497376886015 -0.051460485156489891 0 0.0019308627832900008 -0.051495800512315545 0 0.0021326497376886015 -0.051460485156489891 0 0.0021167802345355012 -0.051654813223248094 0 0.0021326497376886015 -0.051460485156489891 0 0.0021167802345355012 -0.051654813223248094 0 0.002318953263249992 -0.05149692032903818 0 0.002338800630206798 -0.051651679574981679 0 0.002318953263249992 -0.05149692032903818 0 0.0025190758310236214 -0.051529832334740823 0 0.002338800630206798 -0.051651679574981679 0 0.0025190758310236214 -0.051529832334740823 0 0.0025398545776537575 -0.051677284671974147 0 0.0021167802345355012 -0.051654813223248094 0 0.002338800630206798 -0.051651679574981679 0 0.002318953263249992 -0.05149692032903818 0 0.0021326497376886015 -0.051460485156489891 0 0.002318953263249992 -0.05149692032903818 0 0.0023009194040516218 -0.051300265883054141 0 0.002318953263249992 -0.05149692032903818 0 0.0023009194040516218 -0.051300265883054141 0 0.00253064916344378 -0.05153120307403402 0 0.0013771554006091515 -0.053419944484359529 0 0.0011688093013308108 -0.053517747141230428 0 0.0024808999957305925 -0.051110737765433484 0 0.0023009194040516218 -0.051300265883054141 0 0.00253064916344378 -0.05153120307403402 0 0.0011787060416407671 -0.053029736434323266 0 0.0011688093013308108 -0.053517747141230428 0 -0.00010943856889589631 -0.054832803041591188 0 -3.6257036268184381e-05 -0.054863746718666839 0 -3.3601320145853159e-05 -0.054927886676157993 0 -0.00010943856889589631 -0.054832803041591188 0 -3.3601320145853159e-05 -0.054927886676157993 0 -6.5823152833780255e-05 -0.054994606198268611 0 -3.6257036268184381e-05 -0.054863746718666839 0 -1.197942054409495e-06 -0.054892680136062792 0 -3.3601320145853159e-05 -0.054927886676157993 0 -1.197942054409495e-06 -0.054892680136062792 0 5.6247881796652751e-05 -0.054802168275982381 0 7.8720745913195081e-07 -0.054842778923074612 0 -3.6257036268184381e-05 -0.054863746718666839 0 -1.197942054409495e-06 -0.054892680136062792 0 7.8720745913195081e-07 -0.054842778923074612 0 -1.197942054409495e-06 -0.054892680136062792 0 -3.3601320145853159e-05 -0.054927886676157993 0 2.6528428386703288e-05 -0.054962566325848144 0 -3.3601320145853159e-05 -0.054927886676157993 0 -6.5823152833780255e-05 -0.054994606198268611 0 1.196500438789924e-05 -0.0549901120288964 0 -3.3601320145853159e-05 -0.054927886676157993 0 1.196500438789924e-05 -0.0549901120288964 0 2.6528428386703288e-05 -0.054962566325848144 0 0.0011688093013308108 -0.053517747141230428 0 0.00059922139065942553 -0.053969277534811511 0 0.00029535229986072764 -0.054891603819634885 0 0.00038149125584050159 -0.054839532545152087 0 0.00033135431240845817 -0.054784935298056579 0 0.00059922139065942553 -0.053969277534811511 0 0.0011212426230712026 -0.053617670023994139 0 0.0010494382358099614 -0.05367228872265583 0 0.0012536058775475 -0.053702755880856774 0 0.0010704985078765466 -0.053822433943274635 0 0.0011688093013308108 -0.053517747141230428 0 0.0011212426230712026 -0.053617670023994139 0 1.196500438789924e-05 -0.0549901120288964 0 2.6528428386703288e-05 -0.054962566325848144 0 3.0514898677342327e-05 -0.054969715729185881 0 0.00059922139065942553 -0.053969277534811511 0 0.00019286821511529947 -0.05450108834570612 0 0.00029535229986072764 -0.054891603819634885 0 0.00010936178539874016 -0.054866700133391046 0 0.00018952682145654089 -0.054779621400605424 0 0.00059922139065942553 -0.053969277534811511 0 0.00013424571336424681 -0.054412342665599384 0 3.7178770004139364e-05 -0.054964001642378239 0 3.0514898677342327e-05 -0.054969715729185881 0 2.6046938067168009e-05 -0.054967881474350562 0 -1.197942054409495e-06 -0.054892680136062792 0 2.6528428386703288e-05 -0.054962566325848144 0 5.6247881796652751e-05 -0.054802168275982381 0 0.00040867977734810945 -0.054600575519674746 0 0.00043546061352956692 -0.054465341431176865 0 2.6528428386703288e-05 -0.054962566325848144 0 2.8812830051611257e-05 -0.05497210904105701 0 3.0514898677342327e-05 -0.054969715729185881 0 2.6528428386703288e-05 -0.054962566325848144 0 2.8812830051611257e-05 -0.05497210904105701 0 3.4076975073927576e-05 -0.054975488456859616 0 2.8812830051611257e-05 -0.05497210904105701 0 2.9456120499799545e-05 -0.054976843232796259 0 2.3305592452380958e-05 -0.054981990965670982 0 3.3030430312458565e-05 -0.054981792300963346 0 3.4076975073927576e-05 -0.054975488456859616 0 3.4575640856623994e-05 -0.054983949277795069 0 2.8812830051611257e-05 -0.05497210904105701 0 2.9456120499799545e-05 -0.054976843232796259 0 3.4076975073927576e-05 -0.054975488456859616 0 0.00043546061352956692 -0.054465341431176865 0 0.00051000387607202133 -0.053977477747842888 0 2.9641378640860212e-05 -0.054979967122050444 0 2.7150843804581511e-05 -0.054985080983031454 0 2.3305592452380958e-05 -0.054981990965670982 0 2.9456120499799545e-05 -0.054976843232796259 0 2.9641378640860212e-05 -0.054979967122050444 0 2.3305592452380958e-05 -0.054981990965670982 0 2.9641378640860212e-05 -0.054979967122050444 0 3.3030430312458565e-05 -0.054981792300963346 0 2.7150843804581511e-05 -0.054985080983031454 0 2.9641378640860212e-05 -0.054979967122050444 0 3.3030430312458565e-05 -0.054981792300963346 0 3.4076975073927576e-05 -0.054975488456859616 0 2.9456120499799545e-05 -0.054976843232796259 0 2.9641378640860212e-05 -0.054979967122050444 0 3.4076975073927576e-05 -0.054975488456859616 0 7.8720745913195081e-07 -0.054842778923074612 0 -4.5628001097499429e-05 -0.054797917382275012 0 -4.1455663221355576e-05 -0.054722758751154919 0 -0.00014229372881351791 -0.054612182550899446 0 -0.00010943856889589631 -0.054832803041591188 0 -4.1455663221355576e-05 -0.054722758751154919 0 5.6247881796652751e-05 -0.054802168275982381 0 7.8720745913195081e-07 -0.054842778923074612 0 -0.00010425562910782257 -0.054639814999977977 0 0.0010060953673184402 -0.05379070224651912 0 0.0010436937490414929 -0.053552844256925643 0 5.6247881796652751e-05 -0.054802168275982381 0 -0.00010425562910782257 -0.054639814999977977 0 2.8905507271665301e-05 -0.054552957160475118 0 -3.6257036268184381e-05 -0.054863746718666839 0 7.8720745913195081e-07 -0.054842778923074612 0 -4.5628001097499429e-05 -0.054797917382275012 0 -0.00010943856889589631 -0.054832803041591188 0 -3.6257036268184381e-05 -0.054863746718666839 0 -4.5628001097499429e-05 -0.054797917382275012 0 -0.00010943856889589631 -0.054832803041591188 0 -4.5628001097499429e-05 -0.054797917382275012 0 -4.1455663221355576e-05 -0.054722758751154919 0 -0.00010425562910782257 -0.054639814999977977 0 2.8905507271665301e-05 -0.054552957160475118 0 -9.3466224289572649e-05 -0.054490927918554873 0 0.0011498489473108816 -0.052763133855452581 0 0.0010436937490414929 -0.053552844256925643 0 -0.00010085600149676892 -0.054590753839461457 0 -0.00014229372881351791 -0.054612182550899446 0 -4.1455663221355576e-05 -0.054722758751154919 0 -0.00021227879264636669 -0.054416441466773775 0 -0.00010425562910782257 -0.054639814999977977 0 -9.3466224289572649e-05 -0.054490927918554873 0 0.00067765610450069619 -0.053235218264164504 0 0.0011498489473108816 -0.052763133855452581 0 -8.713618798914709e-05 -0.054353724641251197 0 -0.00021227879264636669 -0.054416441466773775 0 -9.3466224289572649e-05 -0.054490927918554873 0 0.00067765610450069619 -0.053235218264164504 0 0.00051000387607202133 -0.053977477747842888 0 0.00029077593764078636 -0.053877281880115077 0 0.00051000387607202133 -0.053977477747842888 0 -8.713618798914709e-05 -0.054353724641251197 0 2.8905507271665301e-05 -0.054552957160475118 0 -9.3466224289572649e-05 -0.054490927918554873 0 0.00058827958467862532 -0.052948015754927823 0 0.00025109764742617098 -0.05311822531306256 0 0.00074241161906144621 -0.053917796914755955 0 3.4815347607049893e-05 -0.05499183921377393 0 3.3964494049014951e-05 -0.054984098116758015 0 2.8166030688341348e-05 -0.05498939376815503 0 2.8166030688341348e-05 -0.05498939376815503 0 2.7150843804581511e-05 -0.054985080983031454 0 2.1682270711109393e-05 -0.054990819272897208 0 2.8166030688341348e-05 -0.05498939376815503 0 2.7150843804581511e-05 -0.054985080983031454 0 3.0534842936685916e-05 -0.054985030852413228 0 3.3030430312458565e-05 -0.054981792300963346 0 2.7150843804581511e-05 -0.054985080983031454 0 3.0534842936685916e-05 -0.054985030852413228 0 3.3964494049014951e-05 -0.054984098116758015 0 2.8166030688341348e-05 -0.05498939376815503 0 3.0534842936685916e-05 -0.054985030852413228 0 3.3030430312458565e-05 -0.054981792300963346 0 3.3964494049014951e-05 -0.054984098116758015 0 3.0534842936685916e-05 -0.054985030852413228 0 0.0005152436421395223 -0.054006933617273989 0 0.00051000387607202133 -0.053977477747842888 0 2.005983596732077e-05 -0.054988227292759928 0 1.3020805035908931e-05 -0.054989763301286111 0 2.3305592452380958e-05 -0.054981990965670982 0 2.7150843804581511e-05 -0.054985080983031454 0 2.005983596732077e-05 -0.054988227292759928 0 2.1682270711109393e-05 -0.054990819272897208 0 2.7150843804581511e-05 -0.054985080983031454 0 2.005983596732077e-05 -0.054988227292759928 0 2.3305592452380958e-05 -0.054981990965670982 0 1.6164165212152871e-05 -0.054992964233735016 0 2.005983596732077e-05 -0.054988227292759928 0 2.1682270711109393e-05 -0.054990819272897208 0 1.6164165212152871e-05 -0.054992964233735016 0 2.005983596732077e-05 -0.054988227292759928 0 1.3020805035908931e-05 -0.054989763301286111 0 9.7727299484476496e-06 -0.054995196671051537 0 1.6164165212152871e-05 -0.054992964233735016 0 1.3020805035908931e-05 -0.054989763301286111 0 9.7727299484476496e-06 -0.054995196671051537 0 1.3020805035908931e-05 -0.054989763301286111 0 6.4325285536583068e-06 -0.054994307681454434 0 1.3020805035908931e-05 -0.054989763301286111 0 2.0159718836136829e-05 -0.054980875346893179 0 1.1215507062691901e-05 -0.054987031920945319 0 1.3020805035908931e-05 -0.054989763301286111 0 2.3305592452380958e-05 -0.054981990965670982 0 2.0159718836136829e-05 -0.054980875346893179 0 2.8812830051611257e-05 -0.05497210904105701 0 2.3305592452380958e-05 -0.054981990965670982 0 2.0159718836136829e-05 -0.054980875346893179 0 2.8812830051611257e-05 -0.05497210904105701 0 2.0159718836136829e-05 -0.054980875346893179 0 3.0514898677342327e-05 -0.054969715729185881 0 2.0159718836136829e-05 -0.054980875346893179 0 3.0514898677342327e-05 -0.054969715729185881 0 1.8636490502645386e-05 -0.054977375997366337 0 3.0514898677342327e-05 -0.054969715729185881 0 2.6046938067168009e-05 -0.054967881474350562 0 1.8636490502645386e-05 -0.054977375997366337 0 0.00019286821511529947 -0.05450108834570612 0 4.3998740469504825e-05 -0.054791168918643253 0 2.6046938067168009e-05 -0.054967881474350562 0 1.8636490502645386e-05 -0.054977375997366337 0 8.5710261544518967e-06 -0.054981991429141751 0 1.1215507062691901e-05 -0.054987031920945319 0 1.8636490502645386e-05 -0.054977375997366337 0 8.5710261544518967e-06 -0.054981991429141751 0 2.0159718836136829e-05 -0.054980875346893179 0 1.1215507062691901e-05 -0.054987031920945319 0 1.8636490502645386e-05 -0.054977375997366337 0 1.1215507062691901e-05 -0.054987031920945319 0 4.7468690891428617e-06 -0.054993382325377087 0 8.5710261544518967e-06 -0.054981991429141751 0 9.656389706870254e-11 -0.054999993000649193 0 4.7468690891428617e-06 -0.054993382325377087 0 8.5710261544518967e-06 -0.054981991429141751 0 9.656389706870254e-11 -0.054999993000649193 0 3.8575723367543468e-09 -0.05499998062116207 0 8.5710261544518967e-06 -0.054981991429141751 0 9.656389706870254e-11 -0.054999993000649193 0 4.7468690891428617e-06 -0.054993382325377087 0 7.1532782720852333e-09 -0.054999985779897689 0 3.8460268239857211e-09 -0.05499999520460179 0 2.7345223875025191e-06 -0.054998714648643705 0 4.7468690891428617e-06 -0.054993382325377087 0 7.1532782720852333e-09 -0.054999985779897689 0 6.4325285536583068e-06 -0.054994307681454434 0 1.3020805035908931e-05 -0.054989763301286111 0 1.1215507062691901e-05 -0.054987031920945319 0 6.4325285536583068e-06 -0.054994307681454434 0 1.1215507062691901e-05 -0.054987031920945319 0 4.7468690891428617e-06 -0.054993382325377087 0 6.4325285536583068e-06 -0.054994307681454434 0 4.8812588533156831e-06 -0.054998970526242384 0 2.7345223875025191e-06 -0.054998714648643705 0 2.2892728626367416e-06 -0.054998014587513334 0 9.7727299484476496e-06 -0.054995196671051537 0 2.1848737828028907e-06 -0.054997487042469095 0 4.7835333136853414e-11 -0.054999998544707399 0 2.1848737828028907e-06 -0.054997487042469095 0 1.7407868137267675e-09 -0.054999995425488522 0 2.2892728626367416e-06 -0.054998014587513334 0 2.1848737828028907e-06 -0.054997487042469095 0 1.7407868137267675e-09 -0.054999995425488522 0 3.7130173012927063e-05 -0.054970584308131579 0 2.0971768653844647e-08 -0.054999927375935349 0 2.4675137283024545e-05 -0.054999620486610314 0 3.7130173012927063e-05 -0.054970584308131579 0 7.728738102900584e-05 -0.054991950422984034 0 2.4675137283024545e-05 -0.054999620486610314 0 3.7130173012927063e-05 -0.054970584308131579 0 2.942067062271561e-05 -0.054960298222942752 0 5.7272868681958265e-05 -0.054929709388129695 0 3.7130173012927063e-05 -0.054970584308131579 0 2.0971768653844647e-08 -0.054999927375935349 0 2.942067062271561e-05 -0.054960298222942752 0 0.00015707163288917225 -0.054946136758139079 0 7.728738102900584e-05 -0.054991950422984034 0 0.00024510051108383736 -0.055039819476749505 0 0.00035687793159770286 -0.054803292046244921 0 6.5573797515594407e-05 -0.054859008475570487 0 7.7056164420078629e-05 -0.054887394095941365 0 3.7130173012927063e-05 -0.054970584308131579 0 5.7272868681958265e-05 -0.054929709388129695 0 7.8789842499327065e-05 -0.054944897618166004 0 5.7272868681958265e-05 -0.054929709388129695 0 8.4380256246307812e-05 -0.054915661876522588 0 7.7056164420078629e-05 -0.054887394095941365 0 5.7272868681958265e-05 -0.054929709388129695 0 8.4380256246307812e-05 -0.054915661876522588 0 7.8789842499327065e-05 -0.054944897618166004 0 8.4380256246307812e-05 -0.054915661876522588 0 0.00013754133196673048 -0.054905292247543425 0 7.7056164420078629e-05 -0.054887394095941365 0 8.4380256246307812e-05 -0.054915661876522588 0 0.00013754133196673048 -0.054905292247543425 0 7.8789842499327065e-05 -0.054944897618166004 0 0.00013754133196673048 -0.054905292247543425 0 0.00015707163288917225 -0.054946136758139079 0 7.8789842499327065e-05 -0.054944897618166004 0 0.00015707163288917225 -0.054946136758139079 0 7.8789842499327065e-05 -0.054944897618166004 0 7.728738102900584e-05 -0.054991950422984034 0 3.7130173012927063e-05 -0.054970584308131579 0 7.8789842499327065e-05 -0.054944897618166004 0 7.728738102900584e-05 -0.054991950422984034 0 8.2894982404632195e-05 -0.054860690973408732 0 0.00018722588411116837 -0.054707525532405252 0 -4.4935212561969548e-05 -0.054767437684283701 0 1.4522533892935417e-05 -0.054692052909265876 0 5.6190268128910339e-06 -0.054556966585959286 0 7.728738102900584e-05 -0.054991950422984034 0 2.4675137283024545e-05 -0.054999620486610314 0 4.5520600581899796e-05 -0.055046433768388296 0 7.728738102900584e-05 -0.054991950422984034 0 4.5520600581899796e-05 -0.055046433768388296 0 0.00024510051108383736 -0.055039819476749505 0 1.9500386711184638e-08 -0.055000047868953697 0 2.4675137283024545e-05 -0.054999620486610314 0 4.5520600581899796e-05 -0.055046433768388296 0 2.0971768653844647e-08 -0.054999927375935349 0 1.9500386711184638e-08 -0.055000047868953697 0 2.4675137283024545e-05 -0.054999620486610314 0 -8.5456857364595756e-08 -0.054999817115135873 0 -1.9236163289846075e-05 -0.054892102690575956 0 -4.4935212561969548e-05 -0.054767437684283701 0 1.9500386711184638e-08 -0.055000047868953697 0 1.099601823671277e-09 -0.055000032094988813 0 4.5520600581899796e-05 -0.055046433768388296 0 7.5877439432811961e-08 -0.054999788875699472 0 8.2894982404632195e-05 -0.054860690973408732 0 -8.5456857364595756e-08 -0.054999817115135873 0 -1.1086057360735481e-08 -0.054999953642889496 0 -1.9236163289846075e-05 -0.054892102690575956 0 -1.1086057360735481e-08 -0.054999953642889496 0 -1.9236163289846075e-05 -0.054892102690575956 0 -9.7235343505335846e-06 -0.054873675460000347 0 3.1464457724483109e-08 -0.054999630473260536 0 4.3998740469504825e-05 -0.054791168918643253 0 -1.9236163289846075e-05 -0.054892102690575956 0 -9.7235343505335846e-06 -0.054873675460000347 0 2.5832179980523299e-05 -0.054783520588144757 0 -4.4935212561969548e-05 -0.054767437684283701 0 1.4522533892935417e-05 -0.054692052909265876 0 2.5832179980523299e-05 -0.054783520588144757 0 -1.9236163289846075e-05 -0.054892102690575956 0 -4.4935212561969548e-05 -0.054767437684283701 0 2.5832179980523299e-05 -0.054783520588144757 0 1.4522533892935417e-05 -0.054692052909265876 0 2.5832179980523299e-05 -0.054783520588144757 0 8.6658566734264332e-05 -0.054651761356029616 0 0.00010936178539874016 -0.054866700133391046 0 -9.7235343505335846e-06 -0.054873675460000347 0 2.5832179980523299e-05 -0.054783520588144757 0 0.00010936178539874016 -0.054866700133391046 0 0.00013481100501284643 -0.054729362455234833 0 0.00018952682145654089 -0.054779621400605424 0 0.00010936178539874016 -0.054866700133391046 0 2.5832179980523299e-05 -0.054783520588144757 0 0.00013481100501284643 -0.054729362455234833 0 2.5832179980523299e-05 -0.054783520588144757 0 0.00013481100501284643 -0.054729362455234833 0 8.6658566734264332e-05 -0.054651761356029616 0 0.00013481100501284643 -0.054729362455234833 0 0.00016135194715344013 -0.054595065848252702 0 0.00020516283519557302 -0.054638119078085259 0 0.00013481100501284643 -0.054729362455234833 0 8.6658566734264332e-05 -0.054651761356029616 0 0.00016135194715344013 -0.054595065848252702 0 8.6658566734264332e-05 -0.054651761356029616 0 0.00016135194715344013 -0.054595065848252702 0 0.00011250455107635356 -0.054524472466152267 0 8.6658566734264332e-05 -0.054651761356029616 0 0.00011250455107635356 -0.054524472466152267 0 5.6190268128910339e-06 -0.054556966585959286 0 0.00016135194715344013 -0.054595065848252702 0 0.00011250455107635356 -0.054524472466152267 0 0.00019303470305797655 -0.054455848132410688 0 1.4522533892935417e-05 -0.054692052909265876 0 8.6658566734264332e-05 -0.054651761356029616 0 5.6190268128910339e-06 -0.054556966585959286 0 0.00035687793159770286 -0.054803292046244921 0 0.00066270608630285353 -0.054763662654377147 0 0.0003234270479324037 -0.054561300487848817 0 0.00015896661200479208 -0.054880615868200276 0 4.9588259927781379e-05 -0.054858947551506478 0 0.00013754133196673048 -0.054905292247543425 0 0.00035687793159770286 -0.054803292046244921 0 7.7056164420078629e-05 -0.054887394095941365 0 0.00024510051108383736 -0.055039819476749505 0 0.00035687793159770286 -0.054803292046244921 0 0.00066270608630285353 -0.054763662654377147 0 0.00015707163288917225 -0.054946136758139079 0 0.00024510051108383736 -0.055039819476749505 0 0.00035687793159770286 -0.054803292046244921 0 0.00013754133196673048 -0.054905292247543425 0 0.00015707163288917225 -0.054946136758139079 0 0.00035687793159770286 -0.054803292046244921 0 0.00018722588411116837 -0.054707525532405252 0 0.0003356681332684314 -0.054498726286753438 0 0.00011250455107635356 -0.054524472466152267 0 5.6190268128910339e-06 -0.054556966585959286 0 0.00011958936955750959 -0.054351962083594246 0 0.00011250455107635356 -0.054524472466152267 0 0.00011958936955750959 -0.054351962083594246 0 0.00019303470305797655 -0.054455848132410688 0 0.00023473801665000317 -0.054325904903223116 0 0.00028898309688918643 -0.054384761836214296 0 0.00019303470305797655 -0.054455848132410688 0 0.00011958936955750959 -0.054351962083594246 0 0.00023473801665000317 -0.054325904903223116 0 0.00019303470305797655 -0.054455848132410688 0 0.00028898309688918643 -0.054384761836214296 0 0.00039978392140015915 -0.054303530993213424 0 0.00031067621783163144 -0.05425790285365998 0 0.00023473801665000317 -0.054325904903223116 0 0.00028898309688918643 -0.054384761836214296 0 0.00031067621783163144 -0.05425790285365998 0 0.00028898309688918643 -0.054384761836214296 0 0.00035650861417465434 -0.054487009792412139 0 0.00039978392140015915 -0.054303530993213424 0 0.00028898309688918643 -0.054384761836214296 0 0.00035650861417465434 -0.054487009792412139 0 0.00025353081255537001 -0.054536521233621071 0 0.00035650861417465434 -0.054487009792412139 0 0.00031046088738933815 -0.05456822068106576 0 0.00034979031017919884 -0.054614082759596061 0 0.00035650861417465434 -0.054487009792412139 0 0.00025353081255537001 -0.054536521233621071 0 0.00031046088738933815 -0.05456822068106576 0 0.00025353081255537001 -0.054536521233621071 0 0.00026192848930016373 -0.054615949680731204 0 0.00031046088738933815 -0.05456822068106576 0 0.00028898309688918643 -0.054384761836214296 0 0.00025353081255537001 -0.054536521233621071 0 0.00019303470305797655 -0.054455848132410688 0 0.00016135194715344013 -0.054595065848252702 0 0.00025353081255537001 -0.054536521233621071 0 0.00019303470305797655 -0.054455848132410688 0 0.00016135194715344013 -0.054595065848252702 0 0.00025353081255537001 -0.054536521233621071 0 0.00020516283519557302 -0.054638119078085259 0 0.00020516283519557302 -0.054638119078085259 0 0.00026192848930016373 -0.054615949680731204 0 0.00022151805870878859 -0.054700114166706157 0 0.00025353081255537001 -0.054536521233621071 0 0.00020516283519557302 -0.054638119078085259 0 0.00026192848930016373 -0.054615949680731204 0 0.00022151805870878859 -0.054700114166706157 0 0.00025629039604079608 -0.054738117605681355 0 0.00029156560279325642 -0.054673132674289145 0 0.00026192848930016373 -0.054615949680731204 0 0.00022151805870878859 -0.054700114166706157 0 0.00029156560279325642 -0.054673132674289145 0 0.00013481100501284643 -0.054729362455234833 0 0.00020516283519557302 -0.054638119078085259 0 0.00022151805870878859 -0.054700114166706157 0 0.00022151805870878859 -0.054700114166706157 0 0.00018952682145654089 -0.054779621400605424 0 0.00025629039604079608 -0.054738117605681355 0 0.00029535229986072764 -0.054891603819634885 0 0.00018952682145654089 -0.054779621400605424 0 0.0002772413771313026 -0.054791987021253485 0 0.00013481100501284643 -0.054729362455234833 0 0.00022151805870878859 -0.054700114166706157 0 0.00018952682145654089 -0.054779621400605424 0 0.00018952682145654089 -0.054779621400605424 0 0.00025629039604079608 -0.054738117605681355 0 0.0002772413771313026 -0.054791987021253485 0 0.00025629039604079608 -0.054738117605681355 0 0.0002772413771313026 -0.054791987021253485 0 0.00030634806063680164 -0.05474111149435372 0 0.00038149125584050159 -0.054839532545152087 0 0.00033135431240845817 -0.054784935298056579 0 0.00036947993357368107 -0.05471722144455872 0 0.0011212426230712026 -0.053617670023994139 0 0.0010942375702473581 -0.053858089561654263 0 0.00029535229986072764 -0.054891603819634885 0 0.0002772413771313026 -0.054791987021253485 0 0.00033135431240845817 -0.054784935298056579 0 0.00033135431240845817 -0.054784935298056579 0 0.00030634806063680164 -0.05474111149435372 0 0.00036947993357368107 -0.05471722144455872 0 0.0002772413771313026 -0.054791987021253485 0 0.00033135431240845817 -0.054784935298056579 0 0.00030634806063680164 -0.05474111149435372 0 0.00025629039604079608 -0.054738117605681355 0 0.00030634806063680164 -0.05474111149435372 0 0.00029156560279325642 -0.054673132674289145 0 0.00030634806063680164 -0.05474111149435372 0 0.00036947993357368107 -0.05471722144455872 0 0.00032706905347010506 -0.054687552475111902 0 0.00036947993357368107 -0.05471722144455872 0 0.00032706905347010506 -0.054687552475111902 0 0.00034979031017919884 -0.054614082759596061 0 0.0010942375702473581 -0.053858089561654263 0 0.0010753362942827929 -0.053960316823151902 0 0.00035532287656397102 -0.054684156894974301 0 0.00034979031017919884 -0.054614082759596061 0 0.00042437317491705336 -0.05463953971581953 0 0.00030634806063680164 -0.05474111149435372 0 0.00032706905347010506 -0.054687552475111902 0 0.00029156560279325642 -0.054673132674289145 0 0.00032706905347010506 -0.054687552475111902 0 0.00029156560279325642 -0.054673132674289145 0 0.00034979031017919884 -0.054614082759596061 0 0.00029156560279325642 -0.054673132674289145 0 0.00031046088738933815 -0.05456822068106576 0 0.00034979031017919884 -0.054614082759596061 0 0.00026192848930016373 -0.054615949680731204 0 0.00029156560279325642 -0.054673132674289145 0 0.00031046088738933815 -0.05456822068106576 0 0.00035650861417465434 -0.054487009792412139 0 0.00034979031017919884 -0.054614082759596061 0 0.0004553514348788288 -0.054559044080702446 0 0.0004553514348788288 -0.054559044080702446 0 0.00042437317491705336 -0.05463953971581953 0 0.00054968320488115417 -0.05470994338590511 0 0.00034979031017919884 -0.054614082759596061 0 0.0004553514348788288 -0.054559044080702446 0 0.00042437317491705336 -0.05463953971581953 0 0.00035532287656397102 -0.054684156894974301 0 0.00042437317491705336 -0.05463953971581953 0 0.00054968320488115417 -0.05470994338590511 0 0.0011212426230712026 -0.053617670023994139 0 0.0011750813484952554 -0.05374869220746601 0 0.0010942375702473581 -0.053858089561654263 0 0.0011750813484952554 -0.05374869220746601 0 0.0010545357515028171 -0.053811008881113044 0 0.0010443841637123872 -0.053738600228857417 0 0.00115196361305027 -0.053747775413490323 0 0.002338800630206798 -0.051651679574981679 0 0.0025398545776537575 -0.051677284671974147 0 0.0021951564895192404 -0.051902131525209075 0 0.0021167802345355012 -0.051654813223248094 0 0.0021951564895192404 -0.051902131525209075 0 0.0017636460194687586 -0.051861906527594488 0 0.0011750813484952554 -0.05374869220746601 0 0.0011767525911195319 -0.05332896594995333 0 0.0021167802345355012 -0.051654813223248094 0 0.002338800630206798 -0.051651679574981679 0 0.0021951564895192404 -0.051902131525209075 0 0.0011750813484952554 -0.05374869220746601 0 0.00075550638738500827 -0.05416708487949836 0 0.00054968320488115417 -0.05470994338590511 0 0.00059387329476864664 -0.05448875930964367 0 0.00080073708312269789 -0.054559182260366976 0 0.0004553514348788288 -0.054559044080702446 0 0.00054968320488115417 -0.05470994338590511 0 0.00059387329476864664 -0.05448875930964367 0 0.00059387329476864664 -0.05448875930964367 0 0.00046644442486859652 -0.05442716474988999 0 0.00054650035604911034 -0.054299069687132107 0 0.00059387329476864664 -0.05448875930964367 0 0.00054650035604911034 -0.054299069687132107 0 0.00070610853734514049 -0.0543161250437868 0 0.0004553514348788288 -0.054559044080702446 0 0.00059387329476864664 -0.05448875930964367 0 0.00046644442486859652 -0.05442716474988999 0 0.00035650861417465434 -0.054487009792412139 0 0.00046644442486859652 -0.05442716474988999 0 0.00039978392140015915 -0.054303530993213424 0 0.00035650861417465434 -0.054487009792412139 0 0.0004553514348788288 -0.054559044080702446 0 0.00046644442486859652 -0.05442716474988999 0 0.00039978392140015915 -0.054303530993213424 0 0.00054650035604911034 -0.054299069687132107 0 0.00050113603230908836 -0.054117760043293849 0 0.00046644442486859652 -0.05442716474988999 0 0.00039978392140015915 -0.054303530993213424 0 0.00054650035604911034 -0.054299069687132107 0 0.00054650035604911034 -0.054299069687132107 0 0.00064054456838797617 -0.05410069187027635 0 0.00050113603230908836 -0.054117760043293849 0 0.00054650035604911034 -0.054299069687132107 0 0.00064054456838797617 -0.05410069187027635 0 0.00070610853734514049 -0.0543161250437868 0 0.00064054456838797617 -0.05410069187027635 0 0.00052731549201653601 -0.053885300267270418 0 0.00066928524893999572 -0.053763290164471421 0 0.00064054456838797617 -0.05410069187027635 0 0.00050113603230908836 -0.054117760043293849 0 0.00052731549201653601 -0.053885300267270418 0 0.00050113603230908836 -0.054117760043293849 0 0.0004269050383087044 -0.053953680912487485 0 0.00034733930908638431 -0.054026615083907478 0 0.00039978392140015915 -0.054303530993213424 0 0.00050113603230908836 -0.054117760043293849 0 0.00038488296607952011 -0.054180583183456837 0 0.00042752657798682719 -0.054248585228988046 0 0.00039790978586406626 -0.054258708083844427 0 0.0004269050383087044 -0.053953680912487485 0 0.00035774134062553122 -0.053932976124128819 0 0.00034733930908638431 -0.054026615083907478 0 0.00050113603230908836 -0.054117760043293849 0 0.0004269050383087044 -0.053953680912487485 0 0.00052731549201653601 -0.053885300267270418 0 0.0004269050383087044 -0.053953680912487485 0 0.00043212209978923623 -0.05382491029944441 0 0.00052731549201653601 -0.053885300267270418 0 0.0004269050383087044 -0.053953680912487485 0 0.00043212209978923623 -0.05382491029944441 0 0.00035774134062553122 -0.053932976124128819 0 0.00043212209978923623 -0.05382491029944441 0 0.00052731549201653601 -0.053885300267270418 0 0.00053211995196783589 -0.053701839755657933 0 0.00052731549201653601 -0.053885300267270418 0 0.00053211995196783589 -0.053701839755657933 0 0.00066928524893999572 -0.053763290164471421 0 0.00053211995196783589 -0.053701839755657933 0 0.00047750927397606285 -0.053722516718423846 0 0.00068012532421704607 -0.053462751078569626 0 0.000553339787570878 -0.053601578825512489 0 0.00047750927397606285 -0.053722516718423846 0 0.00068012532421704607 -0.053462751078569626 0 0.00043212209978923623 -0.05382491029944441 0 0.00047750927397606285 -0.053722516718423846 0 0.00031832623424580056 -0.053884141260280467 0 0.00043212209978923623 -0.05382491029944441 0 0.00053211995196783589 -0.053701839755657933 0 0.00047750927397606285 -0.053722516718423846 0 0.00047750927397606285 -0.053722516718423846 0 0.00031832623424580056 -0.053884141260280467 0 0.00028497152232509959 -0.053807709933560821 0 0.00040582047274343428 -0.053875723244780904 0 0.00047750927397606285 -0.053722516718423846 0 0.00029661948305571807 -0.054077907279886477 0 0.00033708650590887464 -0.053908582919246342 0 0.00026869962284451897 -0.053954688888409034 0 0.00026869962284451897 -0.053954688888409034 0 0.00019860240212932052 -0.054018239227926264 0 0.00031832623424580056 -0.053884141260280467 0 0.00028497152232509959 -0.053807709933560821 0 0.00020532405046056829 -0.05394979517782119 0 0.00028497152232509959 -0.053807709933560821 0 0.00020532405046056829 -0.05394979517782119 0 0.00014543868077861242 -0.053946081309188126 0 0.00031832623424580056 -0.053884141260280467 0 0.00020532405046056829 -0.05394979517782119 0 0.0002444824585634715 -0.053974060095011246 0 0.0002444824585634715 -0.053974060095011246 0 0.00026951416421677001 -0.054005542375551337 0 0.0001583714981844433 -0.0540353619028828 0 0.0002444824585634715 -0.053974060095011246 0 0.00029184537946390978 -0.053981681996529529 0 0.00026951416421677001 -0.054005542375551337 0 0.00043212209978923623 -0.05382491029944441 0 0.00031832623424580056 -0.053884141260280467 0 0.00035774134062553122 -0.053932976124128819 0 0.00031832623424580056 -0.053884141260280467 0 0.0002444824585634715 -0.053974060095011246 0 0.00029184537946390978 -0.053981681996529529 0 0.00031832623424580056 -0.053884141260280467 0 0.00035774134062553122 -0.053932976124128819 0 0.00029184537946390978 -0.053981681996529529 0 0.00039790978586406626 -0.054258708083844427 0 0.00039112993686547971 -0.054310126541119115 0 0.00029184537946390978 -0.053981681996529529 0 0.00034733930908638431 -0.054026615083907478 0 0.00026780156770618243 -0.054000980691595958 0 0.00038488296607952011 -0.054180583183456837 0 0.00031067621783163144 -0.05425790285365998 0 0.00026253141056549885 -0.054180607107588784 0 0.00039336149971512893 -0.054302026082393408 0 0.00039112993686547971 -0.054310126541119115 0 0.00035774134062553122 -0.053932976124128819 0 0.00029184537946390978 -0.053981681996529529 0 0.00034733930908638431 -0.054026615083907478 0 0.00039978392140015915 -0.054303530993213424 0 0.00038488296607952011 -0.054180583183456837 0 0.00031067621783163144 -0.05425790285365998 0 0.00039112993686547971 -0.054310126541119115 0 0.00029911216931151726 -0.05422854882423804 0 0.0003356681332684314 -0.054498726286753438 0 0.00039112993686547971 -0.054310126541119115 0 0.00011958936955750959 -0.054351962083594246 0 0.00023473801665000317 -0.054325904903223116 0 0.00026253141056549885 -0.054180607107588784 0 0.00023473801665000317 -0.054325904903223116 0 0.00031067621783163144 -0.05425790285365998 0 0.00026253141056549885 -0.054180607107588784 0 0.00066270608630285353 -0.054763662654377147 0 0.001057189627088633 -0.054444371006970721 0 0.00051153085774863574 -0.054309591427368305 0 0.00066270608630285353 -0.054763662654377147 0 0.0003234270479324037 -0.054561300487848817 0 0.00051153085774863574 -0.054309591427368305 0 0.0003234270479324037 -0.054561300487848817 0 0.00022594579709933794 -0.054361271767691122 0 0.00051153085774863574 -0.054309591427368305 0 0.00035687793159770286 -0.054803292046244921 0 0.0003234270479324037 -0.054561300487848817 0 2.5445904238236681e-05 -0.054562052074232467 0 0.0003234270479324037 -0.054561300487848817 0 0.00022594579709933794 -0.054361271767691122 0 0.00014462657637507727 -0.054450005021114321 0 0.00029911216931151726 -0.05422854882423804 0 0.00017354711362896583 -0.054184657015201261 0 0.00022594579709933794 -0.054361271767691122 0 0.00051153085774863574 -0.054309591427368305 0 7.5247129525425805e-05 -0.054125390913897023 0 0.0001583714981844433 -0.0540353619028828 0 0.00013450979380609087 -0.054025757321617351 0 7.5247129525425805e-05 -0.054125390913897023 0 0.00020532405046056829 -0.05394979517782119 0 0.0002444824585634715 -0.053974060095011246 0 0.0001583714981844433 -0.0540353619028828 0 0.00020532405046056829 -0.05394979517782119 0 0.0001583714981844433 -0.0540353619028828 0 0.00013450979380609087 -0.054025757321617351 0 0.00020532405046056829 -0.05394979517782119 0 0.00014543868077861242 -0.053946081309188126 0 0.00013450979380609087 -0.054025757321617351 0 0.00015487310713425265 -0.05420311054940119 0 0.00029661948305571807 -0.054077907279886477 0 0.00013033464241156946 -0.054219331413160834 0 0.00013033464241156946 -0.054219331413160834 0 0.00012355216054590228 -0.054123693042697769 0 0.00011944919053388781 -0.054197762666069613 0 0.0001041745677480465 -0.054261121878087626 0 0.00013033464241156946 -0.054219331413160834 0 0.00011944919053388781 -0.054197762666069613 0 0.00015487310713425265 -0.05420311054940119 0 0.0001041745677480465 -0.054261121878087626 0 0.00013033464241156946 -0.054219331413160834 0 0.00019860240212932052 -0.054018239227926264 0 0.00018673520723640338 -0.054042800545000977 0 0.00014543868077861242 -0.053946081309188126 0 0.00013450979380609087 -0.054025757321617351 0 0.00010032212848084192 -0.054080704984089616 0 0.00014543868077861242 -0.053946081309188126 0 0.00010032212848084192 -0.054080704984089616 0 0.00012355216054590228 -0.054123693042697769 0 0.00012355216054590228 -0.054123693042697769 0 0.0001714071624884868 -0.054144536438959043 0 4.0938085924737161e-05 -0.054090503131992297 0 6.3043778919522021e-05 -0.054638777960523612 0 4.3602422587918001e-05 -0.05467706615889828 0 0.00010032212848084192 -0.054080704984089616 0 0.00012355216054590228 -0.054123693042697769 0 4.0938085924737161e-05 -0.054090503131992297 0 0.00012355216054590228 -0.054123693042697769 0 0.00011944919053388781 -0.054197762666069613 0 0.0001714071624884868 -0.054144536438959043 0 0.00015085786593786054 -0.054267054687582979 0 0.00011944919053388781 -0.054197762666069613 0 0.0001714071624884868 -0.054144536438959043 0 0.0001041745677480465 -0.054261121878087626 0 0.00015085786593786054 -0.054267054687582979 0 0.00011944919053388781 -0.054197762666069613 0 0.00025709579435352061 -0.054371089235083048 0 0.00015085786593786054 -0.054267054687582979 0 0.0001714071624884868 -0.054144536438959043 0 8.0482983426503703e-05 -0.054669434096284997 0 6.3043778919522021e-05 -0.054638777960523612 0 -8.6478519658215233e-11 -0.055000067307724519 0 5.455663327517957e-06 -0.055002025076615932 0 6.1304286292808208e-09 -0.054999986650723524 0 6.1304286292808208e-09 -0.054999986650723524 0 2.088761443057648e-06 -0.05500079556912945 0 1.0618298833872677e-10 -0.055000008125756866 0 5.455663327517957e-06 -0.055002025076615932 0 2.088761443057648e-06 -0.05500079556912945 0 5.6025489244774078e-07 -0.054999894843511067 0 5.455663327517957e-06 -0.055002025076615932 0 6.1304286292808208e-09 -0.054999986650723524 0 2.088761443057648e-06 -0.05500079556912945 0 2.088761443057648e-06 -0.05500079556912945 0 5.6025489244774078e-07 -0.054999894843511067 0 1.0618298833872677e-10 -0.055000008125756866 0 0.00013450979380609087 -0.054025757321617351 0 0.00010032212848084192 -0.054080704984089616 0 7.5247129525425805e-05 -0.054125390913897023 0 0.00010032212848084192 -0.054080704984089616 0 7.5247129525425805e-05 -0.054125390913897023 0 4.0938085924737161e-05 -0.054090503131992297 0 0.00022594579709933794 -0.054361271767691122 0 7.5247129525425805e-05 -0.054125390913897023 0 9.5048965263877741e-05 -0.054312659821860544 0 4.0938085924737161e-05 -0.054090503131992297 0 9.5048965263877741e-05 -0.054312659821860544 0 6.9191225318394756e-05 -0.054382233350077781 0 7.5247129525425805e-05 -0.054125390913897023 0 4.0938085924737161e-05 -0.054090503131992297 0 9.5048965263877741e-05 -0.054312659821860544 0 0.0003234270479324037 -0.054561300487848817 0 0.00014462657637507727 -0.054450005021114321 0 2.5445904238236681e-05 -0.054562052074232467 0 4.0938085924737161e-05 -0.054090503131992297 0 6.9191225318394756e-05 -0.054382233350077781 0 2.5445904238236681e-05 -0.054562052074232467 0 4.3602422587918001e-05 -0.05467706615889828 0 4.9588259927781379e-05 -0.054858947551506478 0 0.00022594579709933794 -0.054361271767691122 0 9.5048965263877741e-05 -0.054312659821860544 0 0.00014462657637507727 -0.054450005021114321 0 6.9191225318394756e-05 -0.054382233350077781 0 0.00014462657637507727 -0.054450005021114321 0 2.5445904238236681e-05 -0.054562052074232467 0 9.5048965263877741e-05 -0.054312659821860544 0 6.9191225318394756e-05 -0.054382233350077781 0 0.00014462657637507727 -0.054450005021114321 0 4.9588259927781379e-05 -0.054858947551506478 0 4.979354929602774e-05 -0.054859581824685505 0 2.942067062271561e-05 -0.054960298222942752 0 5.7272868681958265e-05 -0.054929709388129695 0 6.9909804676440034e-05 -0.054903287637995381 0 5.7272868681958265e-05 -0.054929709388129695 0 6.9909804676440034e-05 -0.054903287637995381 0 7.7056164420078629e-05 -0.054887394095941365 0 2.0971768653844647e-08 -0.054999927375935349 0 2.942067062271561e-05 -0.054960298222942752 0 7.8634659372615752e-09 -0.054999924744031141 0 4.9588259927781379e-05 -0.054858947551506478 0 1.3572849812611973e-07 -0.054999765378432416 0 5.6025489244774078e-07 -0.054999894843511067 0 2.658090406047201e-07 -0.054999623250821784 0 1.0618298833872677e-10 -0.055000008125756866 0 2.942067062271561e-05 -0.054960298222942752 0 6.9909804676440034e-05 -0.054903287637995381 0 7.8634659372615752e-09 -0.054999924744031141 0 0.00086356766802446667 -0.051787438914351835 0 0.00084414783211002049 -0.051883524991407068 0 0.00080315563891696442 -0.051832837598900686 0 0.00086356766802446667 -0.051787438914351835 0 0.00082628697063044155 -0.051790184481691259 0 0.00084755704847748958 -0.051747227472157729 0 0.00086356766802446667 -0.051787438914351835 0 0.00080315563891696442 -0.051832837598900686 0 0.00082628697063044155 -0.051790184481691259 0 0.00086356766802446667 -0.051787438914351835 0 0.00094255985102109142 -0.051802784362753533 0 0.00084414783211002049 -0.051883524991407068 0 0.00086356766802446667 -0.051787438914351835 0 0.00094255985102109142 -0.051802784362753533 0 0.000969874902266488 -0.05173412192514918 0 0.00084414783211002049 -0.051883524991407068 0 0.00080315563891696442 -0.051832837598900686 0 0.00074771336016875572 -0.051886444672390925 0 0.00080315563891696442 -0.051832837598900686 0 0.00078339221770082324 -0.051807495673323656 0 0.00074771336016875572 -0.051886444672390925 0 0.00078339221770082324 -0.051807495673323656 0 0.00081275832627418737 -0.051807497197585858 0 0.00085783282371736981 -0.051796998623977672 0 0.00080315563891696442 -0.051832837598900686 0 0.00078339221770082324 -0.051807495673323656 0 0.00081275832627418737 -0.051807497197585858 0 0.00078339221770082324 -0.051807495673323656 0 0.00087148193933602033 -0.051775006466273608 0 0.00085783282371736981 -0.051796998623977672 0 0.00087148193933602033 -0.051775006466273608 0 0.00090644750452212016 -0.051720737299096972 0 0.00096151707730132794 -0.051749593529179551 0 0.00078339221770082324 -0.051807495673323656 0 0.00087148193933602033 -0.051775006466273608 0 0.00083207497393256744 -0.051759303617983372 0 0.00087148193933602033 -0.051775006466273608 0 0.00090644750452212016 -0.051720737299096972 0 0.00083207497393256744 -0.051759303617983372 0 0.00087148193933602033 -0.051775006466273608 0 0.00093905037393880795 -0.051799319511452377 0 0.00085783282371736981 -0.051796998623977672 0 0.00087148193933602033 -0.051775006466273608 0 0.00093905037393880795 -0.051799319511452377 0 0.00096151707730132794 -0.051749593529179551 0 0.00093905037393880795 -0.051799319511452377 0 0.00085783282371736981 -0.051796998623977672 0 0.00094830018205386982 -0.051804853311043127 0 0.00085783282371736981 -0.051796998623977672 0 0.00094830018205386982 -0.051804853311043127 0 0.00088515514388793476 -0.05178190791244866 0 0.00080315563891696442 -0.051832837598900686 0 0.00081275832627418737 -0.051807497197585858 0 0.00082628697063044155 -0.051790184481691259 0 0.00081275832627418737 -0.051807497197585858 0 0.00085783282371736981 -0.051796998623977672 0 0.00082628697063044155 -0.051790184481691259 0 0.00085783282371736981 -0.051796998623977672 0 0.00082628697063044155 -0.051790184481691259 0 0.00088515514388793476 -0.05178190791244866 0 0.00082628697063044155 -0.051790184481691259 0 0.00084265496650675405 -0.051762474557897155 0 0.00084755704847748958 -0.051747227472157729 0 0.00082628697063044155 -0.051790184481691259 0 0.00084265496650675405 -0.051762474557897155 0 0.00088515514388793476 -0.05178190791244866 0 0.00084265496650675405 -0.051762474557897155 0 0.00086921001901166218 -0.051772952617471925 0 0.00082753050052397669 -0.051711008673846946 0 0.00084265496650675405 -0.051762474557897155 0 0.00082753050052397669 -0.051711008673846946 0 0.00084755704847748958 -0.051747227472157729 0 0.00094830018205386982 -0.051804853311043127 0 0.00096335987523128968 -0.051775878019596988 0 0.00088515514388793476 -0.05178190791244866 0 0.00084265496650675405 -0.051762474557897155 0 0.00088515514388793476 -0.05178190791244866 0 0.00086921001901166218 -0.051772952617471925 0 0.00096335987523128968 -0.051775878019596988 0 0.00088515514388793476 -0.05178190791244866 0 0.00086921001901166218 -0.051772952617471925 0 0.00096335987523128968 -0.051775878019596988 0 0.00086921001901166218 -0.051772952617471925 0 0.0010028272901850841 -0.051752118144034173 0 0.00085556975393418649 -0.051895353704292671 0 0.00086921001901166218 -0.051772952617471925 0 0.0009595610901612121 -0.051869056457068415 0 0.00086921001901166218 -0.051772952617471925 0 0.0009595610901612121 -0.051869056457068415 0 0.0010028272901850841 -0.051752118144034173 0 0.0018232959194731718 -0.050993064000962977 0 0.0014806833638235117 -0.051460590382986178 0 0.00074234994182796317 -0.051568218134945526 0 0.00086921001901166218 -0.051772952617471925 0 0.00080987984322998627 -0.051673299419673649 0 0.00086921001901166218 -0.051772952617471925 0 0.00082753050052397669 -0.051711008673846946 0 0.00080987984322998627 -0.051673299419673649 0 0.00082753050052397669 -0.051711008673846946 0 0.00080987984322998627 -0.051673299419673649 0 0.00082310832257494648 -0.051625459125659877 0 0.00074234994182796317 -0.051568218134945526 0 0.00080987984322998627 -0.051673299419673649 0 0.00082310832257494648 -0.051625459125659877 0 0.00082310832257494648 -0.051625459125659877 0 0.00087507869836662804 -0.051596915630143549 0 0.00086432314113076567 -0.051677832979397341 0 0.00087507869836662804 -0.051596915630143549 0 0.00086432314113076567 -0.051677832979397341 0 0.00093341117355349231 -0.051621297824689313 0 0.00086432314113076567 -0.051677832979397341 0 0.0009078035724525218 -0.051712227785177506 0 0.00093341117355349231 -0.051621297824689313 0 0.00082753050052397669 -0.051711008673846946 0 0.00082310832257494648 -0.051625459125659877 0 0.00086432314113076567 -0.051677832979397341 0 0.00082753050052397669 -0.051711008673846946 0 0.00086432314113076567 -0.051677832979397341 0 0.00084755704847748958 -0.051747227472157729 0 0.00086356766802446667 -0.051787438914351835 0 0.00084755704847748958 -0.051747227472157729 0 0.0009078035724525218 -0.051712227785177506 0 0.00086432314113076567 -0.051677832979397341 0 0.00084755704847748958 -0.051747227472157729 0 0.0009078035724525218 -0.051712227785177506 0 0.00086356766802446667 -0.051787438914351835 0 0.000969874902266488 -0.05173412192514918 0 0.0009078035724525218 -0.051712227785177506 0 0.000969874902266488 -0.05173412192514918 0 0.0009078035724525218 -0.051712227785177506 0 0.00099579380154499859 -0.0516604302044587 0 0.0009078035724525218 -0.051712227785177506 0 0.00099579380154499859 -0.0516604302044587 0 0.00093341117355349231 -0.051621297824689313 0 0.0010260406829345767 -0.051556471835886061 0 0.00099579380154499859 -0.0516604302044587 0 0.00093341117355349231 -0.051621297824689313 0 0.0010260406829345767 -0.051556471835886061 0 0.00099579380154499859 -0.0516604302044587 0 0.0011014817603388234 -0.051619544631962673 0 0.00099579380154499859 -0.0516604302044587 0 0.0011014817603388234 -0.051619544631962673 0 0.001050077594150598 -0.051688717533483072 0 0.0011014817603388234 -0.051619544631962673 0 0.001131408928983197 -0.051680804752638282 0 0.001050077594150598 -0.051688717533483072 0 0.0011014817603388234 -0.051619544631962673 0 0.0011526265775383055 -0.051637505803880317 0 0.001131408928983197 -0.051680804752638282 0 0.0011014817603388234 -0.051619544631962673 0 0.0011848716200239902 -0.051599132849209743 0 0.0011526265775383055 -0.051637505803880317 0 0.0011498328193391904 -0.051503646926570848 0 0.0011014817603388234 -0.051619544631962673 0 0.0011848716200239902 -0.051599132849209743 0 0.0012921680847812322 -0.051540599898049801 0 0.0011848716200239902 -0.051599132849209743 0 0.001207396790982609 -0.051648926921334957 0 0.0011848716200239902 -0.051599132849209743 0 0.001207396790982609 -0.051648926921334957 0 0.001188317148925872 -0.051646428426706775 0 0.0011848716200239902 -0.051599132849209743 0 0.0011526265775383055 -0.051637505803880317 0 0.001188317148925872 -0.051646428426706775 0 0.00082380005266933674 -0.05252942622691352 0 0.00079900003326828744 -0.052892547293599698 0 0.0012921680847812322 -0.051540599898049801 0 0.0013075745034454337 -0.05182218344772465 0 0.0015535717580159461 -0.051677867702135637 0 0.00079900003326828744 -0.052892547293599698 0 0.00080181729544683748 -0.052889927794330015 0 0.0011526265775383055 -0.051637505803880317 0 0.001188317148925872 -0.051646428426706775 0 0.001131408928983197 -0.051680804752638282 0 0.0011960775441736081 -0.051646448741147641 0 0.001188317148925872 -0.051646428426706775 0 0.001131408928983197 -0.051680804752638282 0 0.00079900003326828744 -0.052892547293599698 0 0.00096888488151677075 -0.05306543651491253 0 0.0011960775441736081 -0.051646448741147641 0 0.001131408928983197 -0.051680804752638282 0 0.0011416801098517756 -0.051766689080888169 0 0.001131408928983197 -0.051680804752638282 0 0.0010556647299651434 -0.051750442632979593 0 0.0011416801098517756 -0.051766689080888169 0 0.00113443303714446 -0.05478858442939754 0 0.00097692698870170355 -0.054627078737703838 0 0.001126109311189713 -0.054511529357061786 0 0.00094255985102109142 -0.051802784362753533 0 0.000969874902266488 -0.05173412192514918 0 0.0010556647299651434 -0.051750442632979593 0 0.000969874902266488 -0.05173412192514918 0 0.00099579380154499859 -0.0516604302044587 0 0.001050077594150598 -0.051688717533483072 0 0.000969874902266488 -0.05173412192514918 0 0.0010556647299651434 -0.051750442632979593 0 0.001050077594150598 -0.051688717533483072 0 0.001131408928983197 -0.051680804752638282 0 0.0010556647299651434 -0.051750442632979593 0 0.001050077594150598 -0.051688717533483072 0 0.0017596113197414325 -0.051617159219446596 0 0.0021167802345355012 -0.051654813223248094 0 0.0017636460194687586 -0.051861906527594488 0 0.0013075745034454337 -0.05182218344772465 0 0.0017636460194687586 -0.051861906527594488 0 0.0015535717580159461 -0.051677867702135637 0 0.00079900003326828744 -0.052892547293599698 0 0.0011767525911195319 -0.05332896594995333 0 0.00113443303714446 -0.05478858442939754 0 0.00082956393662772488 -0.054761840829751864 0 0.00097692698870170355 -0.054627078737703838 0 0.0017596113197414325 -0.051617159219446596 0 0.0017636460194687586 -0.051861906527594488 0 0.0015535717580159461 -0.051677867702135637 0 0.00053649068890157287 -0.05473193975133922 0 0.00082956393662772488 -0.054761840829751864 0 0.00080073708312269789 -0.054559182260366976 0 0.00082956393662772488 -0.054761840829751864 0 0.00097692698870170355 -0.054627078737703838 0 0.00080073708312269789 -0.054559182260366976 0 0.00059387329476864664 -0.05448875930964367 0 0.00080073708312269789 -0.054559182260366976 0 0.00070610853734514049 -0.0543161250437868 0 0.00080073708312269789 -0.054559182260366976 0 0.00093189926728655013 -0.054389218722136909 0 0.00070610853734514049 -0.0543161250437868 0 0.00097692698870170355 -0.054627078737703838 0 0.00080073708312269789 -0.054559182260366976 0 0.00093189926728655013 -0.054389218722136909 0 0.00093189926728655013 -0.054389218722136909 0 0.001126109311189713 -0.054511529357061786 0 0.0011356679895811067 -0.054211002827232867 0 0.00097692698870170355 -0.054627078737703838 0 0.00093189926728655013 -0.054389218722136909 0 0.001126109311189713 -0.054511529357061786 0 0.00093189926728655013 -0.054389218722136909 0 0.0011356679895811067 -0.054211002827232867 0 0.00084528010832426027 -0.054048317533199441 0 0.00093189926728655013 -0.054389218722136909 0 0.00070610853734514049 -0.0543161250437868 0 0.00084528010832426027 -0.054048317533199441 0 0.00064054456838797617 -0.05410069187027635 0 0.00070610853734514049 -0.0543161250437868 0 0.00084528010832426027 -0.054048317533199441 0 0.00094255985102109142 -0.051802784362753533 0 0.0010556647299651434 -0.051750442632979593 0 0.0010130775527707055 -0.051847835747273939 0 0.0011416801098517756 -0.051766689080888169 0 0.0011488145572340137 -0.051917577738653416 0 0.0010130775527707055 -0.051847835747273939 0 0.00096888488151677075 -0.05306543651491253 0 0.0010483460254454302 -0.053062500470120254 0 0.0010556647299651434 -0.051750442632979593 0 0.0011416801098517756 -0.051766689080888169 0 0.0010130775527707055 -0.051847835747273939 0 0.0011488145572340137 -0.051917577738653416 0 0.0010130775527707055 -0.051847835747273939 0 0.00093317245951409118 -0.052065342538015986 0 0.00084414783211002049 -0.051883524991407068 0 0.0010130775527707055 -0.051847835747273939 0 0.00093317245951409118 -0.052065342538015986 0 0.00094255985102109142 -0.051802784362753533 0 0.00084414783211002049 -0.051883524991407068 0 0.0010130775527707055 -0.051847835747273939 0 0.0010483460254454302 -0.053062500470120254 0 0.0010793267672068022 -0.053036247120760709 0 0.0011488145572340137 -0.051917577738653416 0 0.00093317245951409118 -0.052065342538015986 0 0.0012029166335529257 -0.052233693161085934 0 0.00093317245951409118 -0.052065342538015986 0 0.00094151439708570997 -0.052483094885298273 0 0.0012029166335529257 -0.052233693161085934 0 0.00094151439708570997 -0.052483094885298273 0 0.0012029166335529257 -0.052233693161085934 0 0.0010317231579948319 -0.053079064160679881 0 0.0010793267672068022 -0.053036247120760709 0 0.0010789091032618425 -0.0530305111062934 0 0.00093317245951409118 -0.052065342538015986 0 0.00094151439708570997 -0.052483094885298273 0 0.00082071160657930589 -0.052310858055972159 0 0.00093317245951409118 -0.052065342538015986 0 0.00082071160657930589 -0.052310858055972159 0 0.0007684192419033886 -0.052037082776040203 0 0.00064054456838797617 -0.05410069187027635 0 0.00084528010832426027 -0.054048317533199441 0 0.00066928524893999572 -0.053763290164471421 0 0.0011356679895811067 -0.054211002827232867 0 0.001151514832396964 -0.053824974304501477 0 0.00084528010832426027 -0.054048317533199441 0 0.001151514832396964 -0.053824974304501477 0 0.00085491915957865898 -0.053580049416856783 0 0.0010317231579948319 -0.053079064160679881 0 0.001151514832396964 -0.053824974304501477 0 0.00084528010832426027 -0.054048317533199441 0 0.00085491915957865898 -0.053580049416856783 0 0.00084528010832426027 -0.054048317533199441 0 0.00085491915957865898 -0.053580049416856783 0 0.00066928524893999572 -0.053763290164471421 0 0.00053211995196783589 -0.053701839755657933 0 0.00066928524893999572 -0.053763290164471421 0 0.00068012532421704607 -0.053462751078569626 0 0.00085491915957865898 -0.053580049416856783 0 0.00066928524893999572 -0.053763290164471421 0 0.00068012532421704607 -0.053462751078569626 0 0.00085491915957865898 -0.053580049416856783 0 0.00068012532421704607 -0.053462751078569626 0 0.0010317231579948319 -0.053079064160679881 0 0.00072420101715022877 -0.053327550215383226 0 0.00068012532421704607 -0.053462751078569626 0 0.0010317231579948319 -0.053079064160679881 0 0.00082343271704206551 -0.053084648537849069 0 0.00072420101715022877 -0.053327550215383226 0 0.0010317231579948319 -0.053079064160679881 0 0.00072420101715022877 -0.053327550215383226 0 0.000553339787570878 -0.053601578825512489 0 0.00068012532421704607 -0.053462751078569626 0 0.00082071160657930589 -0.052310858055972159 0 0.00086167853470179559 -0.052722659651543533 0 0.00071813734535743654 -0.052232510660035425 0 0.00094151439708570997 -0.052483094885298273 0 0.00082071160657930589 -0.052310858055972159 0 0.00086167853470179559 -0.052722659651543533 0 0.00086167853470179559 -0.052722659651543533 0 0.00078081355764984394 -0.052625352593395638 0 0.00071813734535743654 -0.052232510660035425 0 0.00094151439708570997 -0.052483094885298273 0 0.00086167853470179559 -0.052722659651543533 0 0.0010317231579948319 -0.053079064160679881 0 0.00082343271704206551 -0.053084648537849069 0 0.00086167853470179559 -0.052722659651543533 0 0.0010317231579948319 -0.053079064160679881 0 0.00082343271704206551 -0.053084648537849069 0 0.00086167853470179559 -0.052722659651543533 0 0.00078081355764984394 -0.052625352593395638 0 0.00077554297859205976 -0.052887334339667136 0 0.00078081355764984394 -0.052625352593395638 0 0.00070663644039542072 -0.052573049347902134 0 0.00078081355764984394 -0.052625352593395638 0 0.00070663644039542072 -0.052573049347902134 0 0.00064422700868995049 -0.052196525327748287 0 0.00070663644039542072 -0.052573049347902134 0 0.00057718018126362873 -0.052236644708416352 0 0.00064422700868995049 -0.052196525327748287 0 0.00061766206606785209 -0.05269013304487552 0 0.00070663644039542072 -0.052573049347902134 0 0.00057718018126362873 -0.052236644708416352 0 0.00057718018126362873 -0.052236644708416352 0 0.00064422700868995049 -0.052196525327748287 0 0.00052429579547936666 -0.0519108579759021 0 0.00064422700868995049 -0.052196525327748287 0 0.00062147938481985977 -0.051983916345488559 0 0.00071813734535743654 -0.052232510660035425 0 0.00064422700868995049 -0.052196525327748287 0 0.00062147938481985977 -0.051983916345488559 0 0.00052429579547936666 -0.0519108579759021 0 0.00078081355764984394 -0.052625352593395638 0 0.00064422700868995049 -0.052196525327748287 0 0.00071813734535743654 -0.052232510660035425 0 0.00082071160657930589 -0.052310858055972159 0 0.00071813734535743654 -0.052232510660035425 0 0.0007684192419033886 -0.052037082776040203 0 0.00071813734535743654 -0.052232510660035425 0 0.00068245979750134551 -0.051950565658135134 0 0.0007684192419033886 -0.052037082776040203 0 0.00062147938481985977 -0.051983916345488559 0 0.00071813734535743654 -0.052232510660035425 0 0.00068245979750134551 -0.051950565658135134 0 0.00062147938481985977 -0.051983916345488559 0 0.00068245979750134551 -0.051950565658135134 0 0.00065955465754510703 -0.051867247221960962 0 0.00068245979750134551 -0.051950565658135134 0 0.00072292913637258974 -0.051841650073972831 0 0.00065955465754510703 -0.051867247221960962 0 0.00068245979750134551 -0.051950565658135134 0 0.00074771336016875572 -0.051886444672390925 0 0.00072292913637258974 -0.051841650073972831 0 0.00068245979750134551 -0.051950565658135134 0 0.00074771336016875572 -0.051886444672390925 0 0.0007684192419033886 -0.052037082776040203 0 0.00084414783211002049 -0.051883524991407068 0 0.00074771336016875572 -0.051886444672390925 0 0.0007684192419033886 -0.052037082776040203 0 0.00084414783211002049 -0.051883524991407068 0 0.00093317245951409118 -0.052065342538015986 0 0.0007684192419033886 -0.052037082776040203 0 0.00085247216267533941 -0.051709166485500307 0 0.00079546257734258545 -0.051704367299538007 0 0.00089697913340059938 -0.051628036182114742 0 0.00085247216267533941 -0.051709166485500307 0 0.00077552720794095756 -0.051773338944669393 0 0.00079546257734258545 -0.051704367299538007 0 0.00085247216267533941 -0.051709166485500307 0 0.00089697913340059938 -0.051628036182114742 0 0.00096084605193387052 -0.051632210978198104 0 0.00085247216267533941 -0.051709166485500307 0 0.00090644750452212016 -0.051720737299096972 0 0.00096084605193387052 -0.051632210978198104 0 0.00085247216267533941 -0.051709166485500307 0 0.00083207497393256744 -0.051759303617983372 0 0.00077552720794095756 -0.051773338944669393 0 0.00085247216267533941 -0.051709166485500307 0 0.00090644750452212016 -0.051720737299096972 0 0.00083207497393256744 -0.051759303617983372 0 0.00078339221770082324 -0.051807495673323656 0 0.00083207497393256744 -0.051759303617983372 0 0.00077552720794095756 -0.051773338944669393 0 0.00078339221770082324 -0.051807495673323656 0 0.00074771336016875572 -0.051886444672390925 0 0.00072292913637258974 -0.051841650073972831 0 0.00078339221770082324 -0.051807495673323656 0 0.00072292913637258974 -0.051841650073972831 0 0.00077552720794095756 -0.051773338944669393 0 0.00077552720794095756 -0.051773338944669393 0 0.00071650882175662209 -0.051794374224027794 0 0.00079546257734258545 -0.051704367299538007 0 0.00072292913637258974 -0.051841650073972831 0 0.00077552720794095756 -0.051773338944669393 0 0.00071650882175662209 -0.051794374224027794 0 0.00071650882175662209 -0.051794374224027794 0 0.0007286710650202706 -0.051684460139034091 0 0.00079546257734258545 -0.051704367299538007 0 0.00072292913637258974 -0.051841650073972831 0 0.00071650882175662209 -0.051794374224027794 0 0.00065955465754510703 -0.051867247221960962 0 0.00071650882175662209 -0.051794374224027794 0 0.00065955465754510703 -0.051867247221960962 0 0.00061966161069171625 -0.051812381004463171 0 0.00062147938481985977 -0.051983916345488559 0 0.00065955465754510703 -0.051867247221960962 0 0.00061966161069171625 -0.051812381004463171 0 0.00071650882175662209 -0.051794374224027794 0 0.0007286710650202706 -0.051684460139034091 0 0.00061966161069171625 -0.051812381004463171 0 0.00083151212048287006 -0.051626458129536375 0 0.0007286710650202706 -0.051684460139034091 0 0.00079546257734258545 -0.051704367299538007 0 0.00083151212048287006 -0.051626458129536375 0 0.0007286710650202706 -0.051684460139034091 0 0.00093725677605968258 -0.051483614174784906 0 0.00083151212048287006 -0.051626458129536375 0 0.00079546257734258545 -0.051704367299538007 0 0.00089697913340059938 -0.051628036182114742 0 0.00089697913340059938 -0.051628036182114742 0 0.00093725677605968258 -0.051483614174784906 0 0.0010336589650014167 -0.051502643273965878 0 0.00083151212048287006 -0.051626458129536375 0 0.00089697913340059938 -0.051628036182114742 0 0.00093725677605968258 -0.051483614174784906 0 0.0007286710650202706 -0.051684460139034091 0 0.00077175348306087095 -0.051545776036602667 0 0.0005568035468276033 -0.051743684064048286 0 0.0007286710650202706 -0.051684460139034091 0 0.00093725677605968258 -0.051483614174784906 0 0.00077175348306087095 -0.051545776036602667 0 0.00093725677605968258 -0.051483614174784906 0 0.00077175348306087095 -0.051545776036602667 0 0.0009610343655070768 -0.051285658524162614 0 0.00062147938481985977 -0.051983916345488559 0 0.00061966161069171625 -0.051812381004463171 0 0.00052429579547936666 -0.0519108579759021 0 0.0007286710650202706 -0.051684460139034091 0 0.00061966161069171625 -0.051812381004463171 0 0.0005568035468276033 -0.051743684064048286 0 0.0005568035468276033 -0.051743684064048286 0 0.00052429579547936666 -0.0519108579759021 0 0.00036977085458331899 -0.05178719894290891 0 0.00061966161069171625 -0.051812381004463171 0 0.0005568035468276033 -0.051743684064048286 0 0.00052429579547936666 -0.0519108579759021 0 0.00055369355008507717 -0.050204170124719547 0 0.00036977085458331899 -0.05178719894290891 0 0.00074586367618049954 -0.051262771904291918 0 0.00057718018126362873 -0.052236644708416352 0 0.00052429579547936666 -0.0519108579759021 0 0.00036977085458331899 -0.05178719894290891 0 0.0005568035468276033 -0.051743684064048286 0 0.00036977085458331899 -0.05178719894290891 0 0.00074586367618049954 -0.051262771904291918 0 0.00040920704585246237 -0.052443502898127096 0 0.00057718018126362873 -0.052236644708416352 0 0.00036977085458331899 -0.05178719894290891 0 0.0009610343655070768 -0.051285658524162614 0 0.00074586367618049954 -0.051262771904291918 0 0.0010088861413686213 -0.051024449925092787 0 0.00077175348306087095 -0.051545776036602667 0 0.0005568035468276033 -0.051743684064048286 0 0.00074586367618049954 -0.051262771904291918 0 0.00077175348306087095 -0.051545776036602667 0 0.0009610343655070768 -0.051285658524162614 0 0.00074586367618049954 -0.051262771904291918 0 0.00091746385997527478 -0.050892323245502503 0 0.00074586367618049954 -0.051262771904291918 0 0.0010088861413686213 -0.051024449925092787 0 0.00091746385997527478 -0.050892323245502503 0 0.0010612862433495953 -0.050760398037350739 0 0.0010088861413686213 -0.051024449925092787 0 0.0010088861413686213 -0.051024449925092787 0 0.0011756560048637439 -0.050852505853280737 0 0.0011922798856572158 -0.051023816697521956 0 0.0010612862433495953 -0.050760398037350739 0 0.0010088861413686213 -0.051024449925092787 0 0.0011756560048637439 -0.050852505853280737 0 0.0009610343655070768 -0.051285658524162614 0 0.0010088861413686213 -0.051024449925092787 0 0.0011922798856572158 -0.051023816697521956 0 0.0011922798856572158 -0.051023816697521956 0 0.001476980122089097 -0.05082646601839283 0 0.0012839872542954429 -0.051089279880001483 0 0.0011756560048637439 -0.050852505853280737 0 0.0011922798856572158 -0.051023816697521956 0 0.0013712298774852436 -0.050733939538736457 0 0.001646745056036949 -0.050569978670229651 0 0.001476980122089097 -0.05082646601839283 0 0.0018401014492615444 -0.05062683105575725 0 0.001646745056036949 -0.050569978670229651 0 0.0013712298774852436 -0.050733939538736457 0 0.001476980122089097 -0.05082646601839283 0 0.001476980122089097 -0.05082646601839283 0 0.0015557661190915134 -0.050911950703409252 0 0.0018401014492615444 -0.05062683105575725 0 0.0011922798856572158 -0.051023816697521956 0 0.0013712298774852436 -0.050733939538736457 0 0.001476980122089097 -0.05082646601839283 0 0.001476980122089097 -0.05082646601839283 0 0.0015557661190915134 -0.050911950703409252 0 0.0012839872542954429 -0.051089279880001483 0 0.0015557661190915134 -0.050911950703409252 0 0.0013592612028750953 -0.051129245057360884 0 0.0014454722114683129 -0.051147642310758516 0 0.0015557661190915134 -0.050911950703409252 0 0.0013592612028750953 -0.051129245057360884 0 0.0012839872542954429 -0.051089279880001483 0 0.0013592612028750953 -0.051129245057360884 0 0.0012839872542954429 -0.051089279880001483 0 0.0011362470515924813 -0.05133282663238066 0 0.0010945844028073478 -0.051253644419278557 0 0.0012839872542954429 -0.051089279880001483 0 0.0011362470515924813 -0.05133282663238066 0 0.00093725677605968258 -0.051483614174784906 0 0.0010945844028073478 -0.051253644419278557 0 0.0011362470515924813 -0.05133282663238066 0 0.00093725677605968258 -0.051483614174784906 0 0.0009610343655070768 -0.051285658524162614 0 0.0010945844028073478 -0.051253644419278557 0 0.0009610343655070768 -0.051285658524162614 0 0.0011922798856572158 -0.051023816697521956 0 0.0010945844028073478 -0.051253644419278557 0 0.0011922798856572158 -0.051023816697521956 0 0.0010945844028073478 -0.051253644419278557 0 0.0012839872542954429 -0.051089279880001483 0 0.0020683687967833772 -0.050464049280929554 0 0.0021023385110467453 -0.050548183015075722 0 0.0018401014492615444 -0.05062683105575725 0 0.0021023385110467453 -0.050548183015075722 0 0.0018401014492615444 -0.05062683105575725 0 0.0020076055347442372 -0.050575240420620608 0 0.0015557661190915134 -0.050911950703409252 0 0.0018401014492615444 -0.05062683105575725 0 0.0017951413526099413 -0.050789404103078251 0 0.0018401014492615444 -0.05062683105575725 0 0.0017951413526099413 -0.050789404103078251 0 0.0020076055347442372 -0.050575240420620608 0 0.0015557661190915134 -0.050911950703409252 0 0.0017951413526099413 -0.050789404103078251 0 0.0014454722114683129 -0.051147642310758516 0 0.0017951413526099413 -0.050789404103078251 0 0.0020076055347442372 -0.050575240420620608 0 0.0021919996006677699 -0.050409976362821483 0 0.0021023385110467453 -0.050548183015075722 0 0.0020076055347442372 -0.050575240420620608 0 0.0021919996006677699 -0.050409976362821483 0 0.0021023385110467453 -0.050548183015075722 0 0.0021919996006677699 -0.050409976362821483 0 0.0022167449907794325 -0.050511740726389948 0 0.0021919996006677699 -0.050409976362821483 0 0.0019801023904966143 -0.05083979858482212 0 0.0026436145943936305 -0.049874296726382418 0 0.0017951413526099413 -0.050789404103078251 0 0.0021919996006677699 -0.050409976362821483 0 0.0019801023904966143 -0.05083979858482212 0 0.0019801023904966143 -0.05083979858482212 0 0.0016007327944777151 -0.051118909221071714 0 0.0016682140542359941 -0.051336283444913401 0 0.0017951413526099413 -0.050789404103078251 0 0.0019801023904966143 -0.05083979858482212 0 0.0016007327944777151 -0.051118909221071714 0 0.0017951413526099413 -0.050789404103078251 0 0.0016007327944777151 -0.051118909221071714 0 0.0014454722114683129 -0.051147642310758516 0 0.0016007327944777151 -0.051118909221071714 0 0.0016682140542359941 -0.051336283444913401 0 0.0014395197597587199 -0.05137908857562451 0 0.0014442994485978024 -0.051521717318743804 0 0.0016682140542359941 -0.051336283444913401 0 0.0014395197597587199 -0.05137908857562451 0 0.0014442994485978024 -0.051521717318743804 0 0.0016682140542359941 -0.051336283444913401 0 0.0017341371400090057 -0.051578939311758186 0 0.0016682140542359941 -0.051336283444913401 0 0.0019964317080819515 -0.05128442317351449 0 0.0017341371400090057 -0.051578939311758186 0 0.0019801023904966143 -0.05083979858482212 0 0.0019964317080819515 -0.05128442317351449 0 0.0026472557459278692 -0.051092775915402587 0 0.0019801023904966143 -0.05083979858482212 0 0.0016682140542359941 -0.051336283444913401 0 0.0019964317080819515 -0.05128442317351449 0 0.0011958613809024458 -0.051369095276060872 0 0.0010336589650014167 -0.051502643273965878 0 0.0011045866602418636 -0.051541012935841894 0 0.0011958613809024458 -0.051369095276060872 0 0.0012910135087479604 -0.051362088853697835 0 0.0011045866602418636 -0.051541012935841894 0 0.00093725677605968258 -0.051483614174784906 0 0.0010336589650014167 -0.051502643273965878 0 0.0011362470515924813 -0.05133282663238066 0 0.0011958613809024458 -0.051369095276060872 0 0.0010336589650014167 -0.051502643273965878 0 0.0011362470515924813 -0.05133282663238066 0 0.0013592612028750953 -0.051129245057360884 0 0.0011958613809024458 -0.051369095276060872 0 0.0011362470515924813 -0.05133282663238066 0 0.0013592612028750953 -0.051129245057360884 0 0.0011958613809024458 -0.051369095276060872 0 0.0014454722114683129 -0.051147642310758516 0 0.0016007327944777151 -0.051118909221071714 0 0.0014454722114683129 -0.051147642310758516 0 0.0012910135087479604 -0.051362088853697835 0 0.0011958613809024458 -0.051369095276060872 0 0.0014454722114683129 -0.051147642310758516 0 0.0012910135087479604 -0.051362088853697835 0 0.0012910135087479604 -0.051362088853697835 0 0.0012373543456197134 -0.051543128772985287 0 0.0011045866602418636 -0.051541012935841894 0 0.0012910135087479604 -0.051362088853697835 0 0.0014395197597587199 -0.05137908857562451 0 0.0012373543456197134 -0.051543128772985287 0 0.0016007327944777151 -0.051118909221071714 0 0.0012910135087479604 -0.051362088853697835 0 0.0014395197597587199 -0.05137908857562451 0 0.0014442994485978024 -0.051521717318743804 0 0.0012373543456197134 -0.051543128772985287 0 0.0012957342722390006 -0.051610706170000312 0 0.0014442994485978024 -0.051521717318743804 0 0.0014395197597587199 -0.05137908857562451 0 0.0012373543456197134 -0.051543128772985287 0 0.0012373543456197134 -0.051543128772985287 0 0.0011110970729077782 -0.051632579289304453 0 0.0011045866602418636 -0.051541012935841894 0 0.0011110970729077782 -0.051632579289304453 0 0.0011045866602418636 -0.051541012935841894 0 0.0010089852353846083 -0.051668989855142046 0 0.00089697913340059938 -0.051628036182114742 0 0.0010336589650014167 -0.051502643273965878 0 0.00096084605193387052 -0.051632210978198104 0 0.0010336589650014167 -0.051502643273965878 0 0.0011045866602418636 -0.051541012935841894 0 0.00096084605193387052 -0.051632210978198104 0 0.00090644750452212016 -0.051720737299096972 0 0.00096084605193387052 -0.051632210978198104 0 0.0010089852353846083 -0.051668989855142046 0 0.0011045866602418636 -0.051541012935841894 0 0.00096084605193387052 -0.051632210978198104 0 0.0010089852353846083 -0.051668989855142046 0 0.00090644750452212016 -0.051720737299096972 0 0.0010089852353846083 -0.051668989855142046 0 0.00096151707730132794 -0.051749593529179551 0 0.0010089852353846083 -0.051668989855142046 0 0.00096151707730132794 -0.051749593529179551 0 0.0010614719038518914 -0.051720564110194371 0 0.0011110970729077782 -0.051632579289304453 0 0.0010089852353846083 -0.051668989855142046 0 0.0010614719038518914 -0.051720564110194371 0 0.0011110970729077782 -0.051632579289304453 0 0.0010614719038518914 -0.051720564110194371 0 0.001177968442131436 -0.051661801724783331 0 0.0010614719038518914 -0.051720564110194371 0 0.0010157139063898611 -0.051792680306716223 0 0.0011330226646687916 -0.051777769739354142 0 0.00093905037393880795 -0.051799319511452377 0 0.00096151707730132794 -0.051749593529179551 0 0.0010157139063898611 -0.051792680306716223 0 0.00096151707730132794 -0.051749593529179551 0 0.0010614719038518914 -0.051720564110194371 0 0.0010157139063898611 -0.051792680306716223 0 0.00093905037393880795 -0.051799319511452377 0 0.00094830018205386982 -0.051804853311043127 0 0.001000845735271496 -0.051831954017598401 0 0.00093905037393880795 -0.051799319511452377 0 0.0010157139063898611 -0.051792680306716223 0 0.001000845735271496 -0.051831954017598401 0 0.0010157139063898611 -0.051792680306716223 0 0.001000845735271496 -0.051831954017598401 0 0.001056616284774242 -0.051842516143122928 0 0.0010157139063898611 -0.051792680306716223 0 0.001056616284774242 -0.051842516143122928 0 0.0011330226646687916 -0.051777769739354142 0 0.001000845735271496 -0.051831954017598401 0 0.0010375340084960434 -0.051879010001092303 0 0.0010191910846411411 -0.051833959508610347 0 0.001000845735271496 -0.051831954017598401 0 0.001056616284774242 -0.051842516143122928 0 0.0010375340084960434 -0.051879010001092303 0 0.001056616284774242 -0.051842516143122928 0 0.0010375340084960434 -0.051879010001092303 0 0.0010556433893461673 -0.051925136432002771 0 0.0010375340084960434 -0.051879010001092303 0 0.0010556433893461673 -0.051925136432002771 0 0.0010404150939935302 -0.051904064160531449 0 0.0010375340084960434 -0.051879010001092303 0 0.0010191910846411411 -0.051833959508610347 0 0.0010404150939935302 -0.051904064160531449 0 0.00094830018205386982 -0.051804853311043127 0 0.001000845735271496 -0.051831954017598401 0 0.0010191910846411411 -0.051833959508610347 0 0.0012075576813835457 -0.051903545058054071 0 0.001187678960281689 -0.051975459976611113 0 0.0010556433893461673 -0.051925136432002771 0 0.0012075576813835457 -0.051903545058054071 0 0.001187678960281689 -0.051975459976611113 0 0.0013444531388895177 -0.051927600244225533 0 0.001187678960281689 -0.051975459976611113 0 0.0013444531388895177 -0.051927600244225533 0 0.0013311962490867503 -0.052001304649377605 0 0.001187678960281689 -0.051975459976611113 0 0.0013311962490867503 -0.052001304649377605 0 0.0012451529914303359 -0.052056206563604969 0 0.001187678960281689 -0.051975459976611113 0 0.0010556433893461673 -0.051925136432002771 0 0.00090583018862211775 -0.052017191814337171 0 0.0012075576813835457 -0.051903545058054071 0 0.0010556433893461673 -0.051925136432002771 0 0.0011561895324433919 -0.051850231506074165 0 0.001056616284774242 -0.051842516143122928 0 0.0011561895324433919 -0.051850231506074165 0 0.0011330226646687916 -0.051777769739354142 0 0.001056616284774242 -0.051842516143122928 0 0.0010556433893461673 -0.051925136432002771 0 0.0011561895324433919 -0.051850231506074165 0 0.0011561895324433919 -0.051850231506074165 0 0.0012380064784400014 -0.051784099514379817 0 0.0011330226646687916 -0.051777769739354142 0 0.0011561895324433919 -0.051850231506074165 0 0.0013218772279617759 -0.051833725053127624 0 0.0012380064784400014 -0.051784099514379817 0 0.0012075576813835457 -0.051903545058054071 0 0.0011561895324433919 -0.051850231506074165 0 0.0013218772279617759 -0.051833725053127624 0 0.0012075576813835457 -0.051903545058054071 0 0.0013218772279617759 -0.051833725053127624 0 0.0013444531388895177 -0.051927600244225533 0 0.0013218772279617759 -0.051833725053127624 0 0.0012380064784400014 -0.051784099514379817 0 0.0014080250423081492 -0.051711898109262973 0 0.0012542311934539026 -0.051708233621093343 0 0.0012957342722390006 -0.051610706170000312 0 0.0014080250423081492 -0.051711898109262973 0 0.0012380064784400014 -0.051784099514379817 0 0.0012542311934539026 -0.051708233621093343 0 0.0014080250423081492 -0.051711898109262973 0 0.0010614719038518914 -0.051720564110194371 0 0.0011330226646687916 -0.051777769739354142 0 0.001177968442131436 -0.051661801724783331 0 0.0012542311934539026 -0.051708233621093343 0 0.0011330226646687916 -0.051777769739354142 0 0.001177968442131436 -0.051661801724783331 0 0.0012380064784400014 -0.051784099514379817 0 0.0012542311934539026 -0.051708233621093343 0 0.0011330226646687916 -0.051777769739354142 0 0.0012373543456197134 -0.051543128772985287 0 0.0011110970729077782 -0.051632579289304453 0 0.001177968442131436 -0.051661801724783331 0 0.0012373543456197134 -0.051543128772985287 0 0.001177968442131436 -0.051661801724783331 0 0.0012957342722390006 -0.051610706170000312 0 0.0012542311934539026 -0.051708233621093343 0 0.001177968442131436 -0.051661801724783331 0 0.0012957342722390006 -0.051610706170000312 0 0.0014442994485978024 -0.051521717318743804 0 0.0012957342722390006 -0.051610706170000312 0 0.0014080250423081492 -0.051711898109262973 0 0.0014442994485978024 -0.051521717318743804 0 0.0017341371400090057 -0.051578939311758186 0 0.0014080250423081492 -0.051711898109262973 0 0.0017341371400090057 -0.051578939311758186 0 0.0014080250423081492 -0.051711898109262973 0 0.001613600759024192 -0.051804645158327209 0 0.0017341371400090057 -0.051578939311758186 0 0.0019878094073737533 -0.051869735341784615 0 0.001613600759024192 -0.051804645158327209 0 0.0019964317080819515 -0.05128442317351449 0 0.0017341371400090057 -0.051578939311758186 0 0.0021645437178356079 -0.051518921659591627 0 0.0017341371400090057 -0.051578939311758186 0 0.0021645437178356079 -0.051518921659591627 0 0.0019878094073737533 -0.051869735341784615 0 0.0019878094073737533 -0.051869735341784615 0 0.0020048211252075314 -0.052205660417011315 0 0.0025679441014278882 -0.052158896731124733 0 0.0019878094073737533 -0.051869735341784615 0 0.0015706551888559636 -0.051989900696227241 0 0.0020048211252075314 -0.052205660417011315 0 0.0015706551888559636 -0.051989900696227241 0 0.0014173233144167921 -0.052193793081944759 0 0.0020048211252075314 -0.052205660417011315 0 0.0013218772279617759 -0.051833725053127624 0 0.0014080250423081492 -0.051711898109262973 0 0.0014542483539225846 -0.051868335740236214 0 0.0014542483539225846 -0.051868335740236214 0 0.001613600759024192 -0.051804645158327209 0 0.0015706551888559636 -0.051989900696227241 0 0.0014080250423081492 -0.051711898109262973 0 0.0014542483539225846 -0.051868335740236214 0 0.001613600759024192 -0.051804645158327209 0 0.0013218772279617759 -0.051833725053127624 0 0.0014542483539225846 -0.051868335740236214 0 0.0013444531388895177 -0.051927600244225533 0 0.0019878094073737533 -0.051869735341784615 0 0.001613600759024192 -0.051804645158327209 0 0.0015706551888559636 -0.051989900696227241 0 0.0014542483539225846 -0.051868335740236214 0 0.0015706551888559636 -0.051989900696227241 0 0.0013444531388895177 -0.051927600244225533 0 0.0015706551888559636 -0.051989900696227241 0 0.0013444531388895177 -0.051927600244225533 0 0.0013311962490867503 -0.052001304649377605 0 0.0015706551888559636 -0.051989900696227241 0 0.0013311962490867503 -0.052001304649377605 0 0.00142680627634394 -0.052056906520182404 0 0.0015706551888559636 -0.051989900696227241 0 0.00142680627634394 -0.052056906520182404 0 0.0014173233144167921 -0.052193793081944759 0 0.0013311962490867503 -0.052001304649377605 0 0.0013817645619276387 -0.052102437452187934 0 0.0012451529914303359 -0.052056206563604969 0 0.0013311962490867503 -0.052001304649377605 0 0.00142680627634394 -0.052056906520182404 0 0.0013817645619276387 -0.052102437452187934 0 0.0013817645619276387 -0.052102437452187934 0 0.0014173233144167921 -0.052193793081944759 0 0.0012451529914303359 -0.052056206563604969 0 0.00142680627634394 -0.052056906520182404 0 0.0013817645619276387 -0.052102437452187934 0 0.0014173233144167921 -0.052193793081944759 0 0.0034001725079574165 -0.041957102283642779 0 0.0017950945210266351 -0.039895351143282236 0 0.0026834999988170172 -0.028012781620620011 0 0.002468577378089028 -0.027848910227735446 0 0.0022803665137991866 -0.028076609041265407 0 0.0026834999988170172 -0.028012781620620011 0 0.0026243377592438137 -0.027788331078504404 0 0.0027352645993530753 -0.027679807540149141 0 0.0026834999988170172 -0.028012781620620011 0 0.002468577378089028 -0.027848910227735446 0 0.0026243377592438137 -0.027788331078504404 0 0.0022803665137991866 -0.028076609041265407 0 0.0022485802163979733 -0.027711712243962454 0 0.0019752928549271933 -0.027842880671917026 0 0.002468577378089028 -0.027848910227735446 0 0.0022803665137991866 -0.028076609041265407 0 0.0022485802163979733 -0.027711712243962454 0 0.0022485802163979733 -0.027711712243962454 0 0.0023279362901424648 -0.027468968778146995 0 0.0025439018543304045 -0.02760817991835576 0 0.002468577378089028 -0.027848910227735446 0 0.0022485802163979733 -0.027711712243962454 0 0.0025439018543304045 -0.02760817991835576 0 0.0022485802163979733 -0.027711712243962454 0 0.0023279362901424648 -0.027468968778146995 0 0.0020662256327408472 -0.027429686048619784 0 0.0026243377592438137 -0.027788331078504404 0 0.0025439018543304045 -0.02760817991835576 0 0.0027352645993530753 -0.027679807540149141 0 0.002468577378089028 -0.027848910227735446 0 0.0026243377592438137 -0.027788331078504404 0 0.0025439018543304045 -0.02760817991835576 0 0.0025439018543304045 -0.02760817991835576 0 0.0027352645993530753 -0.027679807540149141 0 0.002758608941114063 -0.027419725264848385 0 0.0027352645993530753 -0.027679807540149141 0 0.0029475702360565342 -0.0275760041442626 0 0.002758608941114063 -0.027419725264848385 0 0.0026834999988170172 -0.028012781620620011 0 0.0027352645993530753 -0.027679807540149141 0 0.0029475702360565342 -0.0275760041442626 0 0.0027441020216548637 -0.050189794848879275 0 0.00092506083288486905 -0.050383665417640451 0 0.0011614344745529269 -0.051632823570439634 0 0.0031771016816108497 -0.048904868111052394 0 0.0027441020216548637 -0.050189794848879275 0 0.00092506083288486905 -0.050383665417640451 0 0.0009595610901612121 -0.051869056457068415 0 0.0011614344745529269 -0.051632823570439634 0 0.0010028272901850841 -0.051752118144034173 0 0.0019295589061783219 -0.05058267158651019 0 0.0016123175955356224 -0.05094947675650404 0 0.00096335987523128968 -0.051775878019596988 0 0.0010028272901850841 -0.051752118144034173 0 0.001062377187628078 -0.051764409597708012 0 0.0011614344745529269 -0.051632823570439634 0 0.0010028272901850841 -0.051752118144034173 0 0.001062377187628078 -0.051764409597708012 0 0.00096335987523128968 -0.051775878019596988 0 0.001062377187628078 -0.051764409597708012 0 0.0010191910846411411 -0.051833959508610347 0 0.00094830018205386982 -0.051804853311043127 0 0.00096335987523128968 -0.051775878019596988 0 0.0010191910846411411 -0.051833959508610347 0 0.0011614344745529269 -0.051632823570439634 0 0.001062377187628078 -0.051764409597708012 0 0.0010404150939935302 -0.051904064160531449 0 0.001062377187628078 -0.051764409597708012 0 0.0010191910846411411 -0.051833959508610347 0 0.0010404150939935302 -0.051904064160531449 0 0.0011614344745529269 -0.051632823570439634 0 0.0010404150939935302 -0.051904064160531449 0 0.00090583018862211775 -0.052017191814337171 0 0.0010556433893461673 -0.051925136432002771 0 0.0010404150939935302 -0.051904064160531449 0 0.00090583018862211775 -0.052017191814337171 0 0.0034001725079574165 -0.041957102283642779 0 0.0029665134703288545 -0.039522935411534718 0 -8.3232921129972125e-06 -0.052163490288015597 0 0.00092506083288486905 -0.050383665417640451 0 0.0011614344745529269 -0.051632823570439634 0 -8.3232921129972125e-06 -0.052163490288015597 0 0.0011614344745529269 -0.051632823570439634 0 0.00090583018862211775 -0.052017191814337171 0 0.001187678960281689 -0.051975459976611113 0 0.00090583018862211775 -0.052017191814337171 0 0.0012451529914303359 -0.052056206563604969 0 0.0014173233144167921 -0.052193793081944759 0 0.00090583018862211775 -0.052017191814337171 0 0.0012451529914303359 -0.052056206563604969 0 0.0034001725079574165 -0.041957102283642779 0 0.0025971783321027254 -0.042757801557351274 0 -0.0033151916519680935 -0.029141020184509658 0 -0.0012023831980322451 -0.03009931058105705 0 -0.0044152024326539457 -0.031303412555357811 0 -0.0033151916519680935 -0.029141020184509658 0 -0.0012023831980322451 -0.03009931058105705 0 -0.0019841337322742238 -0.027832826332342377 0 -0.0012023831980322451 -0.03009931058105705 0 -0.0044152024326539457 -0.031303412555357811 0 -0.00151750229769258 -0.032786309402556849 0 -0.0044152024326539457 -0.031303412555357811 0 -0.0064441224894539973 -0.031237795829727001 0 -0.0071348575922792114 -0.034038133054915952 0 -0.0064441224894539973 -0.031237795829727001 0 -0.008237771248331572 -0.031253563638837342 0 -0.0071348575922792114 -0.034038133054915952 0 -0.008237771248331572 -0.031253563638837342 0 -0.0060027151056370196 -0.02850267277138456 0 -0.0093059372260834803 -0.027862076346803797 0 -0.0064441224894539973 -0.031237795829727001 0 -0.008237771248331572 -0.031253563638837342 0 -0.0060027151056370196 -0.02850267277138456 0 -0.0044152024326539457 -0.031303412555357811 0 -0.0064441224894539973 -0.031237795829727001 0 -0.0060027151056370196 -0.02850267277138456 0 -0.0033151916519680935 -0.029141020184509658 0 -0.0044152024326539457 -0.031303412555357811 0 -0.0060027151056370196 -0.02850267277138456 0 -0.0060027151056370196 -0.02850267277138456 0 -0.0032610762353540768 -0.026991461661043759 0 -0.0052394357798235865 -0.02445821101338946 0 -0.0060027151056370196 -0.02850267277138456 0 -0.0076601190888504244 -0.025816636150251735 0 -0.0052394357798235865 -0.02445821101338946 0 -0.0060027151056370196 -0.02850267277138456 0 -0.0076601190888504244 -0.025816636150251735 0 -0.0093059372260834803 -0.027862076346803797 0 -0.0023484844027473572 -0.025445325337291297 0 -0.0032610762353540768 -0.026991461661043759 0 -0.0052394357798235865 -0.02445821101338946 0 -0.0023484844027473572 -0.025445325337291297 0 -0.0032610762353540768 -0.026991461661043759 0 -0.0017419985982077256 -0.026373432486900758 0 -0.0033151916519680935 -0.029141020184509658 0 -0.0032610762353540768 -0.026991461661043759 0 -0.0019841337322742238 -0.027832826332342377 0 -0.0033151916519680935 -0.029141020184509658 0 -0.0060027151056370196 -0.02850267277138456 0 -0.0032610762353540768 -0.026991461661043759 0 -0.0012023831980322451 -0.03009931058105705 0 -0.0019841337322742238 -0.027832826332342377 0 -0.00079726813102874608 -0.026606492270568462 0 -0.0032610762353540768 -0.026991461661043759 0 -0.0019841337322742238 -0.027832826332342377 0 -0.0017419985982077256 -0.026373432486900758 0 -0.0019841337322742238 -0.027832826332342377 0 -0.00079726813102874608 -0.026606492270568462 0 -0.0017419985982077256 -0.026373432486900758 0 -0.00079726813102874608 -0.026606492270568462 0 -0.0017419985982077256 -0.026373432486900758 0 -0.0010183277416636394 -0.025060277146539446 0 -0.0023484844027473572 -0.025445325337291297 0 -0.0017419985982077256 -0.026373432486900758 0 -0.0010183277416636394 -0.025060277146539446 0 -0.0023484844027473572 -0.025445325337291297 0 -0.0010183277416636394 -0.025060277146539446 0 -0.0019177191691797462 -0.023832365099546188 0 -0.00010204967477359213 -0.028000165164342155 0 0.0010678020475939261 -0.026436726907731682 0 -0.00028192725839532403 -0.02518497729383468 0 0.00027960496202793125 -0.025535975224209216 0 0.00013353312423203769 -0.023928157065383593 0 -0.0012023831980322451 -0.03009931058105705 0 0.0017776565116602455 -0.027195824564233723 0 0.0017612291269482145 -0.027607838572794811 0 -0.0012023831980322451 -0.03009931058105705 0 0.00027960496202793125 -0.025535975224209216 0 0.0018658001903328037 -0.024515690506712647 0 -0.0012023831980322451 -0.03009931058105705 0 -0.00079726813102874608 -0.026606492270568462 0 0.00027960496202793125 -0.025535975224209216 0 -0.00079726813102874608 -0.026606492270568462 0 -0.00028192725839532403 -0.02518497729383468 0 0.00027960496202793125 -0.025535975224209216 0 -0.00079726813102874608 -0.026606492270568462 0 -0.0010183277416636394 -0.025060277146539446 0 -0.00028192725839532403 -0.02518497729383468 0 0.00027960496202793125 -0.025535975224209216 0 0.0018658001903328037 -0.024515690506712647 0 0.00096837487264781613 -0.024217822163584667 0 0.0022485802163979733 -0.027711712243962454 0 0.0020662256327408472 -0.027429686048619784 0 0.0019955476905068586 -0.027663905226038569 0 0.0017612291269482145 -0.027607838572794811 0 0.0020662256327408472 -0.027429686048619784 0 0.0019955476905068586 -0.027663905226038569 0 0.0017776565116602455 -0.027195824564233723 0 0.0017612291269482145 -0.027607838572794811 0 0.0020662256327408472 -0.027429686048619784 0 0.0017612291269482145 -0.027607838572794811 0 0.0019955476905068586 -0.027663905226038569 0 0.0019752928549271933 -0.027842880671917026 0 0.0022485802163979733 -0.027711712243962454 0 0.0019955476905068586 -0.027663905226038569 0 0.0019752928549271933 -0.027842880671917026 0 0.0022803665137991866 -0.028076609041265407 0 0.0019752928549271933 -0.027842880671917026 0 0.001852243306758 -0.028132154478219311 0 -0.00014565579645697442 -0.031667378511884801 0 -0.00044720046574816614 -0.037785591215637078 0 0.0017950945210266351 -0.039895351143282236 0 -0.00044720046574816614 -0.037785591215637078 0 0.0017612291269482145 -0.027607838572794811 0 0.0019752928549271933 -0.027842880671917026 0 0.001852243306758 -0.028132154478219311 0 -0.0012023831980322451 -0.03009931058105705 0 0.0023381295082011153 -0.032028431910884024 0 -0.00151750229769258 -0.032786309402556849 0 -0.0012023831980322451 -0.03009931058105705 0 0.0017612291269482145 -0.027607838572794811 0 0.0023381295082011153 -0.032028431910884024 0 -0.00073069124689020858 -0.037449771374109986 0 0.0032921425839450963 -0.033603794863987568 0 -0.0020243716702903923 -0.034040124203649907 0 -0.00073069124689020858 -0.037449771374109986 0 0.0032921425839450963 -0.033603794863987568 0 0.0036653465949894239 -0.038985097240253591 0 -0.00044720046574816614 -0.037785591215637078 0 -0.0020137285162171504 -0.036338231404714053 0 0.0019878094073737533 -0.051869735341784615 0 0.0025679441014278882 -0.052158896731124733 0 0.0025567026181629203 -0.051658151639571534 0 -0.00044720046574816614 -0.037785591215637078 0 0.0011838765099176918 -0.043707919463591864 0 0.0021645437178356079 -0.051518921659591627 0 0.0025567026181629203 -0.051658151639571534 0 0.0026472557459278692 -0.051092775915402587 0 0.0021645437178356079 -0.051518921659591627 0 0.0019878094073737533 -0.051869735341784615 0 0.0025567026181629203 -0.051658151639571534 0 -0.00073069124689020858 -0.037449771374109986 0 0.0036653465949894239 -0.038985097240253591 0 0.00089956178925639169 -0.041237521519322438 0 0.0036653465949894239 -0.038985097240253591 0 0.00089956178925639169 -0.041237521519322438 0 0.0036911917944369948 -0.04457238866053493 0 -0.00073069124689020858 -0.037449771374109986 0 0.00089956178925639169 -0.041237521519322438 0 -0.0017681163607987333 -0.040805490454440464 0 -0.0017681163607987333 -0.040805490454440464 0 -0.0045353143289416035 -0.039635445735917221 0 -0.0034377718823542535 -0.038093466937029238 0 -0.0017681163607987333 -0.040805490454440464 0 -0.0045353143289416035 -0.039635445735917221 0 -0.0028455161557905824 -0.042787165179989865 0 -0.0045353143289416035 -0.039635445735917221 0 -0.0034377718823542535 -0.038093466937029238 0 -0.0054528045121404242 -0.036818598418002432 0 -0.00073069124689020858 -0.037449771374109986 0 -0.0017681163607987333 -0.040805490454440464 0 -0.0034377718823542535 -0.038093466937029238 0 -0.0044152024326539457 -0.031303412555357811 0 -0.00151750229769258 -0.032786309402556849 0 -0.0071348575922792114 -0.034038133054915952 0 -0.00073069124689020858 -0.037449771374109986 0 -0.0037875593797073756 -0.035904955684797471 0 -0.0020243716702903923 -0.034040124203649907 0 -0.0020137285162171504 -0.036338231404714053 0 -0.0037400188144188586 -0.036037818880782384 0 -0.00073069124689020858 -0.037449771374109986 0 -0.0034377718823542535 -0.038093466937029238 0 -0.0037875593797073756 -0.035904955684797471 0 -0.0037875593797073756 -0.035904955684797471 0 -0.0020243716702903923 -0.034040124203649907 0 -0.0071348575922792114 -0.034038133054915952 0 -0.0034377718823542535 -0.038093466937029238 0 -0.0037875593797073756 -0.035904955684797471 0 -0.0054528045121404242 -0.036818598418002432 0 -0.008237771248331572 -0.031253563638837342 0 -0.0071348575922792114 -0.034038133054915952 0 -0.0084911630600401494 -0.036142968642646968 0 -0.0037875593797073756 -0.035904955684797471 0 -0.0071348575922792114 -0.034038133054915952 0 -0.0054528045121404242 -0.036818598418002432 0 -0.0071348575922792114 -0.034038133054915952 0 -0.0054528045121404242 -0.036818598418002432 0 -0.0084911630600401494 -0.036142968642646968 0 0.011897288899747645 0.031095566221132406 0 0.012586071920474355 0.029251744501334449 0 0.013682543996778778 0.028387524844042805 0 0.0011574267167272273 -0.0032668370167405134 0 0.0047357699139468547 -0.0066091693898307274 0 -0.0045353143289416035 -0.039635445735917221 0 -0.0084911630600401494 -0.036142968642646968 0 -0.0052257319517902074 -0.042681160221673446 0 0.011897288899747645 0.031095566221132406 0 0.01196581959620726 0.029546840219991877 0 0.012586071920474355 0.029251744501334449 0 -0.0045353143289416035 -0.039635445735917221 0 -0.0054528045121404242 -0.036818598418002432 0 -0.0084911630600401494 -0.036142968642646968 0 0.01196581959620726 0.029546840219991877 0 0.012586071920474355 0.029251744501334449 0 0.012809203677132869 0.027984159974814904 0 0.012809203677132869 0.027984159974814904 0 0.013682543996778778 0.028387524844042805 0 0.015307437744741964 0.026427225830491761 0 0.012465528783562222 0.02903773910629507 0 0.011901310247980055 0.02794159867078139 0 0.010721106960672555 0.028725899905996877 0 0.012586071920474355 0.029251744501334449 0 0.012809203677132869 0.027984159974814904 0 0.013682543996778778 0.028387524844042805 0 -0.0045353143289416035 -0.039635445735917221 0 -0.0052257319517902074 -0.042681160221673446 0 -0.0028455161557905824 -0.042787165179989865 0 -0.0017681163607987333 -0.040805490454440464 0 -0.0028455161557905824 -0.042787165179989865 0 -0.00040553940855021179 -0.044278648238252422 0 -0.0023927952691873058 -0.045512177551209065 0 -0.00040553940855021179 -0.044278648238252422 0 -0.00073931058369233608 -0.046523559697314622 0 -0.0028455161557905824 -0.042787165179989865 0 -0.0023927952691873058 -0.045512177551209065 0 -0.00040553940855021179 -0.044278648238252422 0 -0.0052257319517902074 -0.042681160221673446 0 -0.0028455161557905824 -0.042787165179989865 0 -0.0023927952691873058 -0.045512177551209065 0 -0.0052257319517902074 -0.042681160221673446 0 -0.0023927952691873058 -0.045512177551209065 0 -0.001380120668694312 -0.048699935870443682 0 0.013682543996778778 0.028387524844042805 0 0.015307437744741964 0.026427225830491761 0 0.015663754693336269 0.026353896068487564 0 0.012465528783562222 0.02903773910629507 0 0.015307437744741964 0.026427225830491761 0 0.013790319510072188 0.026971729468050432 0 0.012462895324220281 0.028658952495095855 0 0.013588642280398265 0.0276067104207454 0 0.0047357699139468547 -0.0066091693898307274 0 0.0081184325593803251 -0.0087833777729194856 0 -0.0023927952691873058 -0.045512177551209065 0 -0.0012234192215659914 -0.047170583179067527 0 -0.001380120668694312 -0.048699935870443682 0 -0.0023927952691873058 -0.045512177551209065 0 -0.0012234192215659914 -0.047170583179067527 0 -0.00073931058369233608 -0.046523559697314622 0 -0.0012234192215659914 -0.047170583179067527 0 -0.001380120668694312 -0.048699935870443682 0 -0.000453955569872888 -0.047903218799526318 0 0.015307437744741964 0.026427225830491761 0 0.014591107428828165 0.026025978772216799 0 0.015311568553839354 0.025791890844576025 0 0.015307437744741964 0.026427225830491761 0 0.015663754693336269 0.026353896068487564 0 0.015311568553839354 0.025791890844576025 0 0.015307437744741964 0.026427225830491761 0 0.014591107428828165 0.026025978772216799 0 0.013790319510072188 0.026971729468050432 0 0.014591107428828165 0.026025978772216799 0 0.013790319510072188 0.026971729468050432 0 0.013638843761678652 0.025917649152203615 0 0.012465528783562222 0.02903773910629507 0 0.013790319510072188 0.026971729468050432 0 0.01287807236727876 0.027294078833595276 0 0.013790319510072188 0.026971729468050432 0 0.01287807236727876 0.027294078833595276 0 0.013638843761678652 0.025917649152203615 0 0.011637571851776862 0.02668547137318918 0 0.01287807236727876 0.027294078833595276 0 0.013638843761678652 0.025917649152203615 0 0.011637571851776862 0.02668547137318918 0 0.011901310247980055 0.02794159867078139 0 0.01287807236727876 0.027294078833595276 0 0.012465528783562222 0.02903773910629507 0 0.011901310247980055 0.02794159867078139 0 0.01287807236727876 0.027294078833595276 0 0.0011838765099176918 -0.043707919463591864 0 0.0019126712228151638 -0.04656026229320346 0 0.0019964317080819515 -0.05128442317351449 0 0.0021645437178356079 -0.051518921659591627 0 0.0026472557459278692 -0.051092775915402587 0 0.00089956178925639169 -0.041237521519322438 0 0.0036911917944369948 -0.04457238866053493 0 -0.00040553940855021179 -0.044278648238252422 0 0.0036911917944369948 -0.04457238866053493 0 -0.00040553940855021179 -0.044278648238252422 0 0.0011385065462010016 -0.047260129782093763 0 0.00089956178925639169 -0.041237521519322438 0 -0.0017681163607987333 -0.040805490454440464 0 -0.00040553940855021179 -0.044278648238252422 0 -0.00073931058369233608 -0.046523559697314622 0 -0.000453955569872888 -0.047903218799526318 0 0.0011385065462010016 -0.047260129782093763 0 -0.00040553940855021179 -0.044278648238252422 0 -0.00073931058369233608 -0.046523559697314622 0 0.0011385065462010016 -0.047260129782093763 0 -0.0012234192215659914 -0.047170583179067527 0 -0.00073931058369233608 -0.046523559697314622 0 -0.000453955569872888 -0.047903218799526318 0 -0.001380120668694312 -0.048699935870443682 0 -0.00033402234690121019 -0.048629482537154656 0 0.00049496158668649857 -0.049446177839328309 0 -0.000453955569872888 -0.047903218799526318 0 0.00034032385345480744 -0.048540715087238853 0 0.0011385065462010016 -0.047260129782093763 0 -0.001380120668694312 -0.048699935870443682 0 -0.000453955569872888 -0.047903218799526318 0 -0.00033402234690121019 -0.048629482537154656 0 -0.000453955569872888 -0.047903218799526318 0 -0.00033402234690121019 -0.048629482537154656 0 0.00034032385345480744 -0.048540715087238853 0 -0.00033402234690121019 -0.048629482537154656 0 0.00034032385345480744 -0.048540715087238853 0 0.00049496158668649857 -0.049446177839328309 0 0.0014795790439724183 -0.049151911064595932 0 0.0011385065462010016 -0.047260129782093763 0 0.0026436145943936305 -0.049874296726382418 0 0.00034032385345480744 -0.048540715087238853 0 0.0014795790439724183 -0.049151911064595932 0 0.0011385065462010016 -0.047260129782093763 0 0.0036911917944369948 -0.04457238866053493 0 0.0011385065462010016 -0.047260129782093763 0 0.0026436145943936305 -0.049874296726382418 0 0.0019801023904966143 -0.05083979858482212 0 0.0026472557459278692 -0.051092775915402587 0 0.0026436145943936305 -0.049874296726382418 0 0.0019126712228151638 -0.04656026229320346 0 0.0021048964683741149 -0.047630850743183031 0 0.0021919996006677699 -0.050409976362821483 0 0.0022167449907794325 -0.050511740726389948 0 0.0026436145943936305 -0.049874296726382418 0 0.0014795790439724183 -0.049151911064595932 0 0.0026436145943936305 -0.049874296726382418 0 0.002029375689523417 -0.050276650075405854 0 0.0022167449907794325 -0.050511740726389948 0 0.002029375689523417 -0.050276650075405854 0 0.001874724975271016 -0.050848088319171626 0 0.0022167449907794325 -0.050511740726389948 0 0.0026436145943936305 -0.049874296726382418 0 0.002029375689523417 -0.050276650075405854 0 0.015663754693336269 0.026353896068487564 0 0.018026122052349613 0.022770490537523544 0 0.015977670589111835 0.024735390759315103 0 -0.001380120668694312 -0.048699935870443682 0 0.00049496158668649857 -0.049446177839328309 0 0.0016686710578367038 -0.051289834102470878 0 0.0014256418976130222 -0.050297202846657126 0 0.00049496158668649857 -0.049446177839328309 0 0.0016686710578367038 -0.051289834102470878 0 0.0081184325593803251 -0.0087833777729194856 0 0.0099118542264967219 -0.0054482258542646557 0 0.002029375689523417 -0.050276650075405854 0 0.0014256418976130222 -0.050297202846657126 0 0.001874724975271016 -0.050848088319171626 0 0.002029375689523417 -0.050276650075405854 0 0.0014256418976130222 -0.050297202846657126 0 0.0013063156834133621 -0.049752819285497289 0 0.0014795790439724183 -0.049151911064595932 0 0.002029375689523417 -0.050276650075405854 0 0.0013063156834133621 -0.049752819285497289 0 0.0014256418976130222 -0.050297202846657126 0 0.0013063156834133621 -0.049752819285497289 0 0.00049496158668649857 -0.049446177839328309 0 0.00034032385345480744 -0.048540715087238853 0 0.0014795790439724183 -0.049151911064595932 0 0.00049496158668649857 -0.049446177839328309 0 0.0014795790439724183 -0.049151911064595932 0 0.0013063156834133621 -0.049752819285497289 0 0.00049496158668649857 -0.049446177839328309 0 0.018026122052349613 0.022770490537523544 0 0.016017570214415744 0.023776344041501262 0 0.015977670589111835 0.024735390759315103 0 0.018026122052349613 0.022770490537523544 0 0.016017570214415744 0.023776344041501262 0 0.016012902865349433 0.022299557953953726 0 0.0014256418976130222 -0.050297202846657126 0 0.0016686710578367038 -0.051289834102470878 0 0.001874724975271016 -0.050848088319171626 0 0.0019794114280938034 -0.050756526271005326 0 0.001874724975271016 -0.050848088319171626 0 0.0021013393993383426 -0.050603878055276552 0 0.0099118542264967219 -0.0054482258542646557 0 0.0094590389850923995 -0.0061579669087101279 0 0.011408045464402857 -0.013379095418908644 0 0.0099118542264967219 -0.0054482258542646557 0 0.0022085539677304286 -0.050398271904243994 0 0.0019794114280938034 -0.050756526271005326 0 0.0021013393993383426 -0.050603878055276552 0 0.0022167449907794325 -0.050511740726389948 0 0.001874724975271016 -0.050848088319171626 0 0.0021013393993383426 -0.050603878055276552 0 0.0020683687967833772 -0.050464049280929554 0 0.0021023385110467453 -0.050548183015075722 0 0.0021013393993383426 -0.050603878055276552 0 0.0021023385110467453 -0.050548183015075722 0 0.0022167449907794325 -0.050511740726389948 0 0.0021013393993383426 -0.050603878055276552 0 0.013859921208515874 0.02462006048084435 0 0.01235649784599359 0.024339582818804713 0 0.01461043627298622 0.023202182166347899 0 0.011637571851776862 0.02668547137318918 0 0.01235649784599359 0.024339582818804713 0 0.013638843761678652 0.025917649152203615 0 0.013859921208515874 0.02462006048084435 0 0.01235649784599359 0.024339582818804713 0 0.013638843761678652 0.025917649152203615 0 0.014591107428828165 0.026025978772216799 0 0.013638843761678652 0.025917649152203615 0 0.014904022256106708 0.0249766563129648 0 0.013859921208515874 0.02462006048084435 0 0.013638843761678652 0.025917649152203615 0 0.014904022256106708 0.0249766563129648 0 0.014591107428828165 0.026025978772216799 0 0.014904022256106708 0.0249766563129648 0 0.015311568553839354 0.025791890844576025 0 0.015663754693336269 0.026353896068487564 0 0.015311568553839354 0.025791890844576025 0 0.015977670589111835 0.024735390759315103 0 0.014904022256106708 0.0249766563129648 0 0.015311568553839354 0.025791890844576025 0 0.015977670589111835 0.024735390759315103 0 0.014904022256106708 0.0249766563129648 0 0.016017570214415744 0.023776344041501262 0 0.01461043627298622 0.023202182166347899 0 0.014904022256106708 0.0249766563129648 0 0.016017570214415744 0.023776344041501262 0 0.015977670589111835 0.024735390759315103 0 0.013859921208515874 0.02462006048084435 0 0.014904022256106708 0.0249766563129648 0 0.01461043627298622 0.023202182166347899 0 0.01539523329809228 0.019416142155929416 0 0.01461043627298622 0.023202182166347899 0 0.016012902865349433 0.022299557953953726 0 0.01539523329809228 0.019416142155929416 0 0.018026122052349613 0.022770490537523544 0 0.016012902865349433 0.022299557953953726 0 0.01539523329809228 0.019416142155929416 0 0.01461043627298622 0.023202182166347899 0 0.012743343898298435 0.021731859301956754 0 0.016017570214415744 0.023776344041501262 0 0.01461043627298622 0.023202182166347899 0 0.016012902865349433 0.022299557953953726 0 0.01235649784599359 0.024339582818804713 0 0.01461043627298622 0.023202182166347899 0 0.012743343898298435 0.021731859301956754 0 0.01235649784599359 0.024339582818804713 0 0.012743343898298435 0.021731859301956754 0 0.010075214175124594 0.02225971096135403 0 0.01235649784599359 0.024339582818804713 0 0.010075214175124594 0.02225971096135403 0 0.0091011314225277178 0.025249260499314797 0 0.011637571851776862 0.02668547137318918 0 0.01235649784599359 0.024339582818804713 0 0.0091011314225277178 0.025249260499314797 0 0.0091011314225277178 0.025249260499314797 0 0.0068634068567249851 0.023903101756626702 0 0.0056498813734483849 0.026594962243748684 0 0.0078177647370262053 0.021465390669009002 0 0.010075214175124594 0.02225971096135403 0 0.0068634068567249851 0.023903101756626702 0 0.010075214175124594 0.02225971096135403 0 0.0091011314225277178 0.025249260499314797 0 0.0068634068567249851 0.023903101756626702 0 0.0068634068567249851 0.023903101756626702 0 0.0048604906503883815 0.022448521576027853 0 0.0039554864452109578 0.02554401649804617 0 0.0078177647370262053 0.021465390669009002 0 0.0068634068567249851 0.023903101756626702 0 0.0048604906503883815 0.022448521576027853 0 0.0048604906503883815 0.022448521576027853 0 0.0020583040582148617 0.022649360702747295 0 0.0039554864452109578 0.02554401649804617 0 0.0032265041038138736 0.020981207850627622 0 0.0048604906503883815 0.022448521576027853 0 0.0020583040582148617 0.022649360702747295 0 0.0024815628787023475 0.023493393026209151 0 0.0027948600204969836 0.024039201252552527 0 0.0036471469037445865 0.025429244623515129 0 0.0039554864452109578 0.02554401649804617 0 0.0034042138164379282 0.025940644795977408 0 0.0039554864452109578 0.02554401649804617 0 0.0034042138164379282 0.025940644795977408 0 0.0034954219362648507 0.027228073761857301 0 0.0039554864452109578 0.02554401649804617 0 0.0056498813734483849 0.026594962243748684 0 0.0034954219362648507 0.027228073761857301 0 0.0068634068567249851 0.023903101756626702 0 0.0039554864452109578 0.02554401649804617 0 0.0056498813734483849 0.026594962243748684 0 0.0056498813734483849 0.026594962243748684 0 0.0046805134235384455 0.028569668109101814 0 0.0076377066886326858 0.028003830377613729 0 0.0058868521260995428 0.028589813963050579 0 0.008221512265206718 0.027844969025691477 0 0.0056498813734483849 0.026594962243748684 0 0.0046805134235384455 0.028569668109101814 0 0.0034954219362648507 0.027228073761857301 0 0.0065283626129923967 0.028592966021703765 0 0.0042214120663518397 0.029424841049711666 0 0.0057794014261295752 0.030660492607930852 0 0.0065283626129923967 0.028592966021703765 0 0.0089303922149794063 0.02773088459361607 0 0.0079214870738856039 0.030404165547037201 0 0.0094449916112180309 0.029438441826876723 0 0.010721106960672555 0.028725899905996877 0 0.0089303922149794063 0.02773088459361607 0 0.0094449916112180309 0.029438441826876723 0 0.0089303922149794063 0.02773088459361607 0 0.0079214870738856039 0.030404165547037201 0 0.012465528783562222 0.02903773910629507 0 0.010721106960672555 0.028725899905996877 0 0.010232199670579764 0.030846844167905507 0 0.0094449916112180309 0.029438441826876723 0 0.010721106960672555 0.028725899905996877 0 0.010232199670579764 0.030846844167905507 0 0.011637571851776862 0.02668547137318918 0 0.011901310247980055 0.02794159867078139 0 0.010721106960672555 0.028725899905996877 0 0.011637571851776862 0.02668547137318918 0 0.010721106960672555 0.028725899905996877 0 0.0089303922149794063 0.02773088459361607 0 0.011637571851776862 0.02668547137318918 0 0.0091011314225277178 0.025249260499314797 0 0.0076377066886326858 0.028003830377613729 0 0.0097103544293507919 0.02736660070571759 0 0.008221512265206718 0.027844969025691477 0 0.0091011314225277178 0.025249260499314797 0 0.0056498813734483849 0.026594962243748684 0 0.0076377066886326858 0.028003830377613729 0 -0.00057086314626416572 0.027881276388125778 0 0.00054633788789900121 0.02613294986076968 0 0.00075973620563242917 0.028359630554473023 0 0.00071221234336315891 0.025216638768469805 0 -0.00013342313552808165 0.025376131976532334 0 0.00054633788789900121 0.02613294986076968 0 0.00054633788789900121 0.02613294986076968 0 0.0016793083652886938 0.026843774086560229 0 0.0020736609664522613 0.025299584544823211 0 0.00092111351967845195 0.024585223978502057 0 0.0014306971880131336 0.023950706402656393 0 0.00071221234336315891 0.025216638768469805 0 0.00054633788789900121 0.02613294986076968 0 0.0019680944581699691 0.025366125262909024 0 0.00054633788789900121 0.02613294986076968 0 0.0016793083652886938 0.026843774086560229 0 0.00075973620563242917 0.028359630554473023 0 0.0016793083652886938 0.026843774086560229 0 0.0026789839386319601 0.026490350546980197 0 0.0022486510996605371 0.028088327155013651 0 0.0016793083652886938 0.026843774086560229 0 0.0026789839386319601 0.026490350546980197 0 0.0020736609664522613 0.025299584544823211 0 0.0026789839386319601 0.026490350546980197 0 0.0020736609664522613 0.025299584544823211 0 0.0030662869965560665 0.025560840090211701 0 0.0033186213052138953 0.024700375342529918 0 0.0036471469037445865 0.025429244623515129 0 0.0030662869965560665 0.025560840090211701 0 0.0036471469037445865 0.025429244623515129 0 0.0030662869965560665 0.025560840090211701 0 0.0034042138164379282 0.025940644795977408 0 0.0026789839386319601 0.026490350546980197 0 0.0034042138164379282 0.025940644795977408 0 0.0034954219362648507 0.027228073761857301 0 0.0026789839386319601 0.026490350546980197 0 0.0030662869965560665 0.025560840090211701 0 0.0034042138164379282 0.025940644795977408 0 0.0034954219362648507 0.027228073761857301 0 0.0030540993143651938 0.029154043652661658 0 0.0022486510996605371 0.028088327155013651 0 0.0058868521260995428 0.028589813963050579 0 0.0038855701867580384 0.029267008666504883 0 0.0046805134235384455 0.028569668109101814 0 0.0034954219362648507 0.027228073761857301 0 0.0030540993143651938 0.029154043652661658 0 0.0038855701867580384 0.029267008666504883 0 0.0028649760209236348 0.029637783205556417 0 0.0030540993143651938 0.029154043652661658 0 0.0022486510996605371 0.028088327155013651 0 0.0018731414337661784 0.030246262044169987 0 0.0026789839386319601 0.026490350546980197 0 0.0034954219362648507 0.027228073761857301 0 0.0022486510996605371 0.028088327155013651 0 0.0016793083652886938 0.026843774086560229 0 0.0022486510996605371 0.028088327155013651 0 0.00075973620563242917 0.028359630554473023 0 0.0022486510996605371 0.028088327155013651 0 0.00075973620563242917 0.028359630554473023 0 0.0018731414337661784 0.030246262044169987 0 -0.00072621351045621524 0.029414839865527561 0 0.00075973620563242917 0.028359630554473023 0 0.00019320141292883476 0.030608984937889896 0 0.00075973620563242917 0.028359630554473023 0 0.00019320141292883476 0.030608984937889896 0 0.0018731414337661784 0.030246262044169987 0 0.00089688568969519651 0.032366997131251199 0 0.0018731414337661784 0.030246262044169987 0 0.0024197451279629827 0.0332340586422313 0 -0.0003129951581594559 0.032226801937844211 0 0.00089688568969519651 0.032366997131251199 0 0.00019320141292883476 0.030608984937889896 0 -0.0003129951581594559 0.032226801937844211 0 5.9621811517294163e-05 0.033552646583156348 0 0.00089688568969519651 0.032366997131251199 0 0.00089688568969519651 0.032366997131251199 0 0.00019320141292883476 0.030608984937889896 0 0.0018731414337661784 0.030246262044169987 0 0.0018731414337661784 0.030246262044169987 0 0.0036025154952621583 0.031542009004261462 0 0.0024197451279629827 0.0332340586422313 0 0.0036025154952621583 0.031542009004261462 0 0.0037943383927510799 0.033195643877035039 0 0.0024197451279629827 0.0332340586422313 0 0.0042214120663518397 0.029424841049711666 0 0.0018731414337661784 0.030246262044169987 0 0.0036025154952621583 0.031542009004261462 0 0.0042214120663518397 0.029424841049711666 0 0.0036025154952621583 0.031542009004261462 0 0.0057794014261295752 0.030660492607930852 0 0.0036025154952621583 0.031542009004261462 0 0.0050898645095869902 0.032481484808129513 0 0.0057794014261295752 0.030660492607930852 0 0.0036025154952621583 0.031542009004261462 0 0.0050898645095869902 0.032481484808129513 0 0.0037943383927510799 0.033195643877035039 0 0.0050898645095869902 0.032481484808129513 0 0.0047668497134232849 0.034014367220452167 0 0.0037943383927510799 0.033195643877035039 0 0.0047668497134232849 0.034014367220452167 0 0.0058641226557995139 0.034685032912952517 0 0.0045018780165349504 0.035419985990730124 0 0.0047668497134232849 0.034014367220452167 0 0.003163380908267652 0.034584153068065296 0 0.0045018780165349504 0.035419985990730124 0 0.003163380908267652 0.034584153068065296 0 0.0034059714538405418 0.035582641066226106 0 0.0045018780165349504 0.035419985990730124 0 0.003163380908267652 0.034584153068065296 0 0.0020329709684802277 0.035615536942163753 0 0.0034059714538405418 0.035582641066226106 0 0.0047668497134232849 0.034014367220452167 0 0.003163380908267652 0.034584153068065296 0 0.0037943383927510799 0.033195643877035039 0 0.003163380908267652 0.034584153068065296 0 0.0037943383927510799 0.033195643877035039 0 0.0024197451279629827 0.0332340586422313 0 0.003163380908267652 0.034584153068065296 0 0.0024197451279629827 0.0332340586422313 0 0.0012384897949726831 0.034501441524787534 0 0.00089688568969519651 0.032366997131251199 0 0.0024197451279629827 0.0332340586422313 0 0.0012384897949726831 0.034501441524787534 0 0.003163380908267652 0.034584153068065296 0 0.0012384897949726831 0.034501441524787534 0 0.0020329709684802277 0.035615536942163753 0 3.7020351255429244e-05 0.035147729649196505 0 0.0005108186449555947 0.036038607161958558 0 0.0012384897949726831 0.034501441524787534 0 5.9621811517294163e-05 0.033552646583156348 0 0.00089688568969519651 0.032366997131251199 0 0.0012384897949726831 0.034501441524787534 0 3.7020351255429244e-05 0.035147729649196505 0 5.9621811517294163e-05 0.033552646583156348 0 0.0012384897949726831 0.034501441524787534 0 0.0083681936557300392 0.032454475125857689 0 0.010176470810772987 0.031877880991851695 0 0.010398420614674615 0.030159552357555679 0 0.0083681936557300392 0.032454475125857689 0 0.010232199670579764 0.030846844167905507 0 0.0079214870738856039 0.030404165547037201 0 0.0096887806721672673 0.031312487583169596 0 0.010688885272707702 0.030336446784406945 0 0.011897288899747645 0.031095566221132406 0 0.010176470810772987 0.031877880991851695 0 0.010345537980891086 0.032401896794810689 0 0.011897288899747645 0.031095566221132406 0 0.010966472202539126 0.030869112752569729 0 0.011385546047459663 0.030330469156117323 0 0.011897288899747645 0.031095566221132406 0 0.010176470810772987 0.031877880991851695 0 0.010966472202539126 0.030869112752569729 0 0.010176470810772987 0.031877880991851695 0 0.010966472202539126 0.030869112752569729 0 0.010398420614674615 0.030159552357555679 0 0.01196581959620726 0.029546840219991877 0 0.012809203677132869 0.027984159974814904 0 0.010398420614674615 0.030159552357555679 0 0.012462895324220281 0.028658952495095855 0 0.010688885272707702 0.030336446784406945 0 0.01196581959620726 0.029546840219991877 0 0.010398420614674615 0.030159552357555679 0 0.011385546047459663 0.030330469156117323 0 0.010966472202539126 0.030869112752569729 0 0.010398420614674615 0.030159552357555679 0 0.011385546047459663 0.030330469156117323 0 0.011897288899747645 0.031095566221132406 0 0.01196581959620726 0.029546840219991877 0 0.011385546047459663 0.030330469156117323 0 0.0094449916112180309 0.029438441826876723 0 0.010232199670579764 0.030846844167905507 0 0.0079214870738856039 0.030404165547037201 0 0.0065283626129923967 0.028592966021703765 0 0.0079214870738856039 0.030404165547037201 0 0.0057794014261295752 0.030660492607930852 0 0.0079214870738856039 0.030404165547037201 0 0.0057794014261295752 0.030660492607930852 0 0.0068432109388437872 0.032199690791801495 0 0.0050898645095869902 0.032481484808129513 0 0.0057794014261295752 0.030660492607930852 0 0.0068432109388437872 0.032199690791801495 0 0.0083681936557300392 0.032454475125857689 0 0.0079214870738856039 0.030404165547037201 0 0.0068432109388437872 0.032199690791801495 0 0.0083681936557300392 0.032454475125857689 0 0.0068432109388437872 0.032199690791801495 0 0.007910002006660909 0.033518247140481787 0 0.0068432109388437872 0.032199690791801495 0 0.007910002006660909 0.033518247140481787 0 0.006264205406152341 0.033642017856115605 0 0.007910002006660909 0.033518247140481787 0 0.006264205406152341 0.033642017856115605 0 0.0070204520513947556 0.034540507745255092 0 0.0050898645095869902 0.032481484808129513 0 0.0068432109388437872 0.032199690791801495 0 0.006264205406152341 0.033642017856115605 0 0.0050898645095869902 0.032481484808129513 0 0.0047668497134232849 0.034014367220452167 0 0.006264205406152341 0.033642017856115605 0 0.0058641226557995139 0.034685032912952517 0 0.0068380489749334337 0.035760027710781878 0 0.0045018780165349504 0.035419985990730124 0 0.0047668497134232849 0.034014367220452167 0 0.006264205406152341 0.033642017856115605 0 0.0058641226557995139 0.034685032912952517 0 0.006264205406152341 0.033642017856115605 0 0.0058641226557995139 0.034685032912952517 0 0.0070204520513947556 0.034540507745255092 0 0.0058641226557995139 0.034685032912952517 0 0.0070204520513947556 0.034540507745255092 0 0.0068380489749334337 0.035760027710781878 0 0.007910002006660909 0.033518247140481787 0 0.0070204520513947556 0.034540507745255092 0 0.0081850307338862827 0.034882259738134615 0 0.0027444322333532384 0.020405406977511989 0 0.0035304859312589201 0.014018214074442375 0 0.0070204520513947556 0.034540507745255092 0 0.0081850307338862827 0.034882259738134615 0 0.0068380489749334337 0.035760027710781878 0 -0.011851724545803705 -0.029507002940961036 0 -0.012106216230085292 -0.025700363947706976 0 -0.015433050904942795 -0.023105277525987976 0 -0.0024428048784628288 -0.0010254926425181483 0 -0.0043059336104271503 -0.0057644984163680935 0 0.007910002006660909 0.033518247140481787 0 0.0081850307338862827 0.034882259738134615 0 0.009585034784953728 0.03389389187022946 0 0.009585034784953728 0.03389389187022946 0 0.010095448558054545 0.033638377535375873 0 0.0089606012869341677 0.035099462435409325 0 0.008596225638699731 0.034417441863485547 0 0.009585034784953728 0.03389389187022946 0 0.0089606012869341677 0.035099462435409325 0 0.0027444322333532384 0.020405406977511989 0 0.0028992045465536906 0.02211668890440734 0 0.0083681936557300392 0.032454475125857689 0 0.010176470810772987 0.031877880991851695 0 0.009309920753710732 0.032983007876932917 0 0.007910002006660909 0.033518247140481787 0 0.009585034784953728 0.03389389187022946 0 0.009309920753710732 0.032983007876932917 0 0.009585034784953728 0.03389389187022946 0 0.009309920753710732 0.032983007876932917 0 0.010095448558054545 0.033638377535375873 0 0.010176470810772987 0.031877880991851695 0 0.009309920753710732 0.032983007876932917 0 0.010345537980891086 0.032401896794810689 0 0.0083681936557300392 0.032454475125857689 0 0.007910002006660909 0.033518247140481787 0 0.009309920753710732 0.032983007876932917 0 0.0011574267167272273 -0.0032668370167405134 0 -0.0024428048784628288 -0.0010254926425181483 0 -0.008237771248331572 -0.031253563638837342 0 -0.0084911630600401494 -0.036142968642646968 0 -0.011851724545803705 -0.029507002940961036 0 0.011897288899747645 0.031095566221132406 0 0.010345537980891086 0.032401896794810689 0 0.010095448558054545 0.033638377535375873 0 0.009309920753710732 0.032983007876932917 0 0.010345537980891086 0.032401896794810689 0 0.010095448558054545 0.033638377535375873 0 -0.008237771248331572 -0.031253563638837342 0 -0.011851724545803705 -0.029507002940961036 0 -0.0093059372260834803 -0.027862076346803797 0 -0.011851724545803705 -0.029507002940961036 0 -0.0093059372260834803 -0.027862076346803797 0 -0.012106216230085292 -0.025700363947706976 0 -0.0076601190888504244 -0.025816636150251735 0 -0.0093045360846801643 -0.02550630971111013 0 -0.0081463110654427726 -0.022634118198948634 0 -0.012106216230085292 -0.025700363947706976 0 -0.0093045360846801643 -0.02550630971111013 0 -0.0081463110654427726 -0.022634118198948634 0 -0.0076601190888504244 -0.025816636150251735 0 -0.0093059372260834803 -0.027862076346803797 0 -0.0093045360846801643 -0.02550630971111013 0 -0.0093059372260834803 -0.027862076346803797 0 -0.012106216230085292 -0.025700363947706976 0 -0.0093045360846801643 -0.02550630971111013 0 -0.012106216230085292 -0.025700363947706976 0 -0.015433050904942795 -0.023105277525987976 0 -0.0081463110654427726 -0.022634118198948634 0 -0.0043059336104271503 -0.0057644984163680935 0 -0.0051396367774658577 -0.013743954954708849 0 -0.0028222402631667043 -0.021109969544915279 0 -0.0030177097478939498 -0.021402125012015313 0 -0.0021443911311853588 -0.022069256102851733 0 -0.0022064724277606742 -0.021430964873018193 0 -0.0028222402631667043 -0.021109969544915279 0 -0.0021443911311853588 -0.022069256102851733 0 -0.0028222402631667043 -0.021109969544915279 0 -0.0024267009660290865 -0.021008505684852647 0 -0.0028312458452252748 -0.02072134162647505 0 -0.0022064724277606742 -0.021430964873018193 0 -0.0024267009660290865 -0.021008505684852647 0 -0.0019471930914810207 -0.02107617985565741 0 -0.0022064724277606742 -0.021430964873018193 0 -0.0028222402631667043 -0.021109969544915279 0 -0.0024267009660290865 -0.021008505684852647 0 -0.0028222402631667043 -0.021109969544915279 0 -0.0034185154595200926 -0.020863840566616474 0 -0.0033018552368891856 -0.020615278311073296 0 -0.0031952194452274435 -0.019968672907319473 0 -0.0031034986615555626 -0.019567630914021399 0 -0.0028222402631667043 -0.021109969544915279 0 -0.0030177097478939498 -0.021402125012015313 0 -0.0034185154595200926 -0.020863840566616474 0 -0.0030177097478939498 -0.021402125012015313 0 -0.0032479752798003974 -0.022033506607962362 0 -0.0021443911311853588 -0.022069256102851733 0 -0.0030177097478939498 -0.021402125012015313 0 -0.0032479752798003974 -0.022033506607962362 0 -0.0034185154595200926 -0.020863840566616474 0 -0.0033781176137280388 -0.02042261536303315 0 -0.0039453110222390673 -0.020511407619525884 0 -0.0040247158497461553 -0.020064311568548068 0 0.008596225638699731 0.034417441863485547 0 0.0089606012869341677 0.035099462435409325 0 0.0077292114183867156 0.034957217511056959 0 -0.0043059336104271503 -0.0057644984163680935 0 0.0035304859312589201 0.014018214074442375 0 0.0035304859312589201 0.014018214074442375 0 0.0050329092578303486 0.018213671419084983 0 0.0060008911239795692 0.035462136718056356 0 0.0045018780165349504 0.035419985990730124 0 0.0043748579366021199 0.036575362125615414 0 -0.0039453110222390673 -0.020511407619525884 0 -0.0040247158497461553 -0.020064311568548068 0 -0.0049211438568119766 -0.020036586686628926 0 0.0035304859312589201 0.014018214074442375 0 0.0010294578576073323 0.011044587426000847 0 -0.0040247158497461553 -0.020064311568548068 0 -0.0044454186036238944 -0.019344739627603101 0 -0.0049211438568119766 -0.020036586686628926 0 -0.0040247158497461553 -0.020064311568548068 0 -0.0037851211223498579 -0.019787290791684273 0 -0.0044454186036238944 -0.019344739627603101 0 -0.0043059336104271503 -0.0057644984163680935 0 -0.0013343280282607276 -0.014508412970602246 0 -0.0032479752798003974 -0.022033506607962362 0 -0.0034185154595200926 -0.020863840566616474 0 -0.0037851211223498579 -0.019787290791684273 0 -0.0034185154595200926 -0.020863840566616474 0 -0.0037851211223498579 -0.019787290791684273 0 -0.0028957218047051055 -0.019276281946354584 0 -0.0033781176137280388 -0.02042261536303315 0 -0.0040247158497461553 -0.020064311568548068 0 -0.0037851211223498579 -0.019787290791684273 0 -0.0037851211223498579 -0.019787290791684273 0 -0.0034285016123059759 -0.018940001535747888 0 -0.0028957218047051055 -0.019276281946354584 0 -0.0037851211223498579 -0.019787290791684273 0 -0.0034285016123059759 -0.018940001535747888 0 -0.0040778978823899845 -0.019109696586713777 0 -0.0034285016123059759 -0.018940001535747888 0 -0.0040778978823899845 -0.019109696586713777 0 -0.0036745328356224361 -0.01845260660601071 0 -0.0037851211223498579 -0.019787290791684273 0 -0.0044454186036238944 -0.019344739627603101 0 -0.0040778978823899845 -0.019109696586713777 0 -0.0040778978823899845 -0.019109696586713777 0 -0.0044899571732371409 -0.018622821052742711 0 -0.0036745328356224361 -0.01845260660601071 0 -0.0044454186036238944 -0.019344739627603101 0 -0.0040778978823899845 -0.019109696586713777 0 -0.0044899571732371409 -0.018622821052742711 0 -0.0044454186036238944 -0.019344739627603101 0 -0.0044899571732371409 -0.018622821052742711 0 -0.0050373106756080111 -0.018587440730502253 0 -0.0036161183811082892 -0.01842465312475192 0 -0.0033177907867239925 -0.018543527130768428 0 -0.0039078111860105513 -0.017961789602485685 0 -0.0040784753347440509 -0.016935485192797736 0 -0.0023659761043546531 -0.017086328746125971 0 -0.0040784753347440509 -0.016935485192797736 0 -0.0023659761043546531 -0.017086328746125971 0 -0.0037624995742308615 -0.015927570251772639 0 -0.0036161183811082892 -0.01842465312475192 0 -0.0029580759187671384 -0.017990542514682489 0 -0.0039078111860105513 -0.017961789602485685 0 -0.0040784753347440509 -0.016935485192797736 0 -0.004758080399458047 -0.017723035429552305 0 -0.0032183126632394517 -0.018274656272435064 0 -0.0032280501973396278 -0.018315785988139193 0 -0.003094903618788974 -0.018280286332325327 0 -0.0033177907867239925 -0.018543527130768428 0 -0.0029183681714342012 -0.018689411207610775 0 -0.0034285016123059759 -0.018940001535747888 0 -0.0036745328356224361 -0.01845260660601071 0 -0.00266461337025773 -0.018167897803672874 0 -0.0033638591031575561 -0.01835200420062124 0 -0.0032183126632394517 -0.018274656272435064 0 -0.0032280501973396278 -0.018315785988139193 0 -0.0029580759187671384 -0.017990542514682489 0 -0.0026917685587779451 -0.017842907604779919 0 -0.0032183126632394517 -0.018274656272435064 0 -0.003094903618788974 -0.018280286332325327 0 -0.00307571636213928 -0.01819902682537267 0 -0.003219120735686093 -0.019786872346067109 0 -0.0025201421044452163 -0.020018778569658478 0 -0.0029050609719520415 -0.020322658290652589 0 -0.0029183681714342012 -0.018689411207610775 0 -0.0026917685587779451 -0.017842907604779919 0 -0.003219120735686093 -0.019786872346067109 0 -0.00215886830157113 -0.019383612061217404 0 -0.0025201421044452163 -0.020018778569658478 0 -0.0035607545949350177 -0.019700764914220185 0 -0.0021662811059947966 -0.019352719677317685 0 -0.0034064729679247107 -0.019047950603475038 0 -0.0029183681714342012 -0.018689411207610775 0 -0.0022569914640831953 -0.018864361886484309 0 -0.00215886830157113 -0.019383612061217404 0 -0.0025201421044452163 -0.020018778569658478 0 -0.0017345467581608087 -0.020105861635937382 0 -0.0025201421044452163 -0.020018778569658478 0 -0.0023517106878472613 -0.020547183341820756 0 -0.0029050609719520415 -0.020322658290652589 0 -0.0023517106878472613 -0.020547183341820756 0 -0.0028312458452252748 -0.02072134162647505 0 -0.0029050609719520415 -0.020322658290652589 0 -0.0025201421044452163 -0.020018778569658478 0 -0.0023517106878472613 -0.020547183341820756 0 -0.0017345467581608087 -0.020105861635937382 0 -0.0024267009660290865 -0.021008505684852647 0 -0.0023517106878472613 -0.020547183341820756 0 -0.0019471930914810207 -0.02107617985565741 0 -0.0024267009660290865 -0.021008505684852647 0 -0.0023517106878472613 -0.020547183341820756 0 -0.0028312458452252748 -0.02072134162647505 0 -0.0029183681714342012 -0.018689411207610775 0 -0.0031034986615555626 -0.019567630914021399 0 -0.0034285016123059759 -0.018940001535747888 0 -0.00266461337025773 -0.018167897803672874 0 -0.0028957218047051055 -0.019276281946354584 0 -0.0028222402631667043 -0.021109969544915279 0 -0.0028312458452252748 -0.02072134162647505 0 -0.0033018552368891856 -0.020615278311073296 0 -0.0028312458452252748 -0.02072134162647505 0 -0.0033018552368891856 -0.020615278311073296 0 -0.0029050609719520415 -0.020322658290652589 0 -0.003219120735686093 -0.019786872346067109 0 -0.0033018552368891856 -0.020615278311073296 0 -0.0029050609719520415 -0.020322658290652589 0 0.0005108186449555947 0.036038607161958558 0 0.00072893629736939269 0.036963108481743855 0 0.0016772610454638388 0.036743818272253766 0 0.0005108186449555947 0.036038607161958558 0 0.0020329709684802277 0.035615536942163753 0 0.0016772610454638388 0.036743818272253766 0 0.0005108186449555947 0.036038607161958558 0 0.0012384897949726831 0.034501441524787534 0 0.0020329709684802277 0.035615536942163753 0 0.0020329709684802277 0.035615536942163753 0 0.0016772610454638388 0.036743818272253766 0 0.0029618920168230718 0.036402440625622257 0 0.0016772610454638388 0.036743818272253766 0 0.0029618920168230718 0.036402440625622257 0 0.0025033335232487056 0.037427398589773155 0 0.0029618920168230718 0.036402440625622257 0 0.0043748579366021199 0.036575362125615414 0 0.0025033335232487056 0.037427398589773155 0 -0.0049211438568119766 -0.020036586686628926 0 -0.00528889243574819 -0.019219605841483873 0 -0.0072844797854267054 -0.018754599762694994 0 0.0010294578576073323 0.011044587426000847 0 -0.001543068346016752 0.010874182386801969 0 0.0029618920168230718 0.036402440625622257 0 0.0034059714538405418 0.035582641066226106 0 0.0043748579366021199 0.036575362125615414 0 0.0020329709684802277 0.035615536942163753 0 0.0029618920168230718 0.036402440625622257 0 0.0034059714538405418 0.035582641066226106 0 0.0034059714538405418 0.035582641066226106 0 0.0045018780165349504 0.035419985990730124 0 0.0043748579366021199 0.036575362125615414 0 -0.0044454186036238944 -0.019344739627603101 0 -0.0049211438568119766 -0.020036586686628926 0 -0.00528889243574819 -0.019219605841483873 0 -0.0044454186036238944 -0.019344739627603101 0 -0.00528889243574819 -0.019219605841483873 0 -0.0050373106756080111 -0.018587440730502253 0 -0.00528889243574819 -0.019219605841483873 0 -0.0050373106756080111 -0.018587440730502253 0 -0.0059755391206705658 -0.018678571721606731 0 -0.0050373106756080111 -0.018587440730502253 0 -0.004758080399458047 -0.017723035429552305 0 -0.0059755391206705658 -0.018678571721606731 0 -0.0036161183811082892 -0.01842465312475192 0 -0.0039081307363744633 -0.01853614963297966 0 -0.0039078111860105513 -0.017961789602485685 0 -0.0050373106756080111 -0.018587440730502253 0 -0.004758080399458047 -0.017723035429552305 0 -0.004758080399458047 -0.017723035429552305 0 -0.0053491157864088658 -0.017004217820458672 0 -0.0059755391206705658 -0.018678571721606731 0 -0.0040784753347440509 -0.016935485192797736 0 -0.004758080399458047 -0.017723035429552305 0 -0.0053491157864088658 -0.017004217820458672 0 -0.0040784753347440509 -0.016935485192797736 0 -0.0053491157864088658 -0.017004217820458672 0 -0.0047701846180730955 -0.016211402691681916 0 -0.0045985059584382247 -0.015968065201870822 0 -0.0045355882804054681 -0.013867723155948112 0 -0.0053491157864088658 -0.017004217820458672 0 -0.0059755391206705658 -0.018678571721606731 0 -0.0067394904945077237 -0.01652057896390895 0 -0.00528889243574819 -0.019219605841483873 0 -0.0072844797854267054 -0.018754599762694994 0 -0.0059755391206705658 -0.018678571721606731 0 -0.0072844797854267054 -0.018754599762694994 0 -0.0059755391206705658 -0.018678571721606731 0 -0.0069018332043734648 -0.014404772873358391 0 -0.001543068346016752 0.010874182386801969 0 -0.0038701384291197423 0.012081353928789238 0 0.0016772610454638388 0.036743818272253766 0 0.0025033335232487056 0.037427398589773155 0 0.001023621345959627 0.037943206717688562 0 -0.0072844797854267054 -0.018754599762694994 0 -0.010972277723371837 -0.016101910952945355 0 -0.0069018332043734648 -0.014404772873358391 0 0.0003186132443922054 0.03737940106346474 0 0.00072893629736939269 0.036963108481743855 0 0.001023621345959627 0.037943206717688562 0 0.00072893629736939269 0.036963108481743855 0 0.0016772610454638388 0.036743818272253766 0 0.001023621345959627 0.037943206717688562 0 -0.011874534453729648 -0.010222798315422941 0 -0.010190727327978304 -0.010646952885618427 0 -0.010721082866086929 -0.0087263048409614262 0 -0.010190727327978304 -0.010646952885618427 0 -0.009699525762827222 -0.009333971400148338 0 -0.010721082866086929 -0.0087263048409614262 0 -0.011874534453729648 -0.010222798315422941 0 -0.010190727327978304 -0.010646952885618427 0 -0.010608490045254647 -0.012701616549937648 0 -0.012755257942871573 -0.012422376079202544 0 -0.011874534453729648 -0.010222798315422941 0 -0.010608490045254647 -0.012701616549937648 0 -0.012755257942871573 -0.012422376079202544 0 -0.010972277723371837 -0.016101910952945355 0 -0.010608490045254647 -0.012701616549937648 0 -0.010972277723371837 -0.016101910952945355 0 -0.010608490045254647 -0.012701616549937648 0 -0.0069018332043734648 -0.014404772873358391 0 -0.010190727327978304 -0.010646952885618427 0 -0.010608490045254647 -0.012701616549937648 0 -0.0069018332043734648 -0.014404772873358391 0 -0.0035352996261341298 -0.0085264593356463147 0 -0.0045355882804054681 -0.013867723155948112 0 -0.010190727327978304 -0.010646952885618427 0 -0.0083269259818185646 -0.0099617914384760829 0 -0.0069018332043734648 -0.014404772873358391 0 -0.0076438875837018475 -0.014133109002216046 0 -0.006969374075430388 -0.014711084624097676 0 -0.0067394904945077237 -0.01652057896390895 0 -0.010190727327978304 -0.010646952885618427 0 -0.0083269259818185646 -0.0099617914384760829 0 -0.009699525762827222 -0.009333971400148338 0 -0.0076438875837018475 -0.014133109002216046 0 -0.0073642867871201159 -0.014082960770382104 0 -0.007242593831141092 -0.014283156598641151 0 -0.0076438875837018475 -0.014133109002216046 0 -0.0073642867871201159 -0.014082960770382104 0 -0.0071804251532803422 -0.013696739226189433 0 -0.0073642867871201159 -0.014082960770382104 0 -0.0070294304327033815 -0.014153548891707002 0 -0.0071804251532803422 -0.013696739226189433 0 -0.0073642867871201159 -0.014082960770382104 0 -0.0070294304327033815 -0.014153548891707002 0 -0.007242593831141092 -0.014283156598641151 0 -0.0076438875837018475 -0.014133109002216046 0 -0.007242593831141092 -0.014283156598641151 0 -0.006969374075430388 -0.014711084624097676 0 -0.0070294304327033815 -0.014153548891707002 0 -0.007242593831141092 -0.014283156598641151 0 -0.006969374075430388 -0.014711084624097676 0 -0.006646122129773337 -0.014358488816353427 0 -0.0066402439519240141 -0.013880701925825837 0 -0.0058376914001527294 -0.014014915009834705 0 -0.0070294304327033815 -0.014153548891707002 0 -0.006646122129773337 -0.014358488816353427 0 -0.006969374075430388 -0.014711084624097676 0 -0.0070294304327033815 -0.014153548891707002 0 -0.006646122129773337 -0.014358488816353427 0 -0.0066402439519240141 -0.013880701925825837 0 -0.0070294304327033815 -0.014153548891707002 0 -0.0066402439519240141 -0.013880701925825837 0 -0.0071804251532803422 -0.013696739226189433 0 -0.0058376914001527294 -0.014014915009834705 0 -0.0061389126408564346 -0.014715752020556205 0 -0.0052905148495191266 -0.01472190738756134 0 -0.006646122129773337 -0.014358488816353427 0 -0.0058376914001527294 -0.014014915009834705 0 -0.0061389126408564346 -0.014715752020556205 0 -0.0061389126408564346 -0.014715752020556205 0 -0.0058725848488751908 -0.01581670409846913 0 -0.0052905148495191266 -0.01472190738756134 0 -0.006646122129773337 -0.014358488816353427 0 -0.0061389126408564346 -0.014715752020556205 0 -0.006969374075430388 -0.014711084624097676 0 -0.0061389126408564346 -0.014715752020556205 0 -0.006969374075430388 -0.014711084624097676 0 -0.0058725848488751908 -0.01581670409846913 0 -0.0053491157864088658 -0.017004217820458672 0 -0.0067394904945077237 -0.01652057896390895 0 -0.0058725848488751908 -0.01581670409846913 0 -0.006969374075430388 -0.014711084624097676 0 -0.0067394904945077237 -0.01652057896390895 0 -0.0058725848488751908 -0.01581670409846913 0 -0.0058725848488751908 -0.01581670409846913 0 -0.0048144693172272072 -0.015381134641056452 0 -0.0052905148495191266 -0.01472190738756134 0 -0.0058725848488751908 -0.01581670409846913 0 -0.0047701846180730955 -0.016211402691681916 0 -0.0048144693172272072 -0.015381134641056452 0 -0.0053491157864088658 -0.017004217820458672 0 -0.0058725848488751908 -0.01581670409846913 0 -0.0047701846180730955 -0.016211402691681916 0 -0.0047701846180730955 -0.016211402691681916 0 -0.0048144693172272072 -0.015381134641056452 0 -0.0037624995742308615 -0.015927570251772639 0 -0.0042009796809033221 -0.014222258083912646 0 -0.0037345227495264493 -0.01322822882479158 0 -0.0048144693172272072 -0.015381134641056452 0 -0.0046686490672438073 -0.014141832893384594 0 -0.0037400481080879498 -0.013254357508136291 0 -0.0048144693172272072 -0.015381134641056452 0 -0.0052905148495191266 -0.01472190738756134 0 -0.0046686490672438073 -0.014141832893384594 0 -0.0058376914001527294 -0.014014915009834705 0 -0.0052905148495191266 -0.01472190738756134 0 -0.0046686490672438073 -0.014141832893384594 0 -0.0046686490672438073 -0.014141832893384594 0 -0.0041338279128023845 -0.012508279627349263 0 -0.0037400481080879498 -0.013254357508136291 0 -0.0046686490672438073 -0.014141832893384594 0 -0.0053325944297817991 -0.013101708495487091 0 -0.0041521052942972859 -0.012094555281142914 0 -0.0041086823132968466 -0.012722733262958958 0 -0.0038720994187486884 -0.011847668736565276 0 -0.0058376914001527294 -0.014014915009834705 0 -0.0046686490672438073 -0.014141832893384594 0 -0.0053325944297817991 -0.013101708495487091 0 -0.0053325944297817991 -0.013101708495487091 0 -0.0041521052942972859 -0.012094555281142914 0 -0.0056110611709539347 -0.012073981281650817 0 -0.0036736043728462456 -0.010035603771407435 0 -0.0041521052942972859 -0.012094555281142914 0 -0.0049659038499024885 -0.01095512167654074 0 -0.0041521052942972859 -0.012094555281142914 0 -0.0049659038499024885 -0.01095512167654074 0 -0.0056110611709539347 -0.012073981281650817 0 -0.0049659038499024885 -0.01095512167654074 0 -0.0056110611709539347 -0.012073981281650817 0 -0.0065816580234501912 -0.011100547068048774 0 -0.0056110611709539347 -0.012073981281650817 0 -0.0065816580234501912 -0.011100547068048774 0 -0.006821678507539934 -0.012427115258942224 0 -0.006821678507539934 -0.012427115258942224 0 -0.0063545451547761733 -0.013152925606531994 0 -0.007354056332768864 -0.013177213713442331 0 -0.0053325944297817991 -0.013101708495487091 0 -0.0056110611709539347 -0.012073981281650817 0 -0.0063545451547761733 -0.013152925606531994 0 -0.0056110611709539347 -0.012073981281650817 0 -0.006821678507539934 -0.012427115258942224 0 -0.0063545451547761733 -0.013152925606531994 0 -0.0066402439519240141 -0.013880701925825837 0 -0.0058376914001527294 -0.014014915009834705 0 -0.0063545451547761733 -0.013152925606531994 0 -0.0058376914001527294 -0.014014915009834705 0 -0.0053325944297817991 -0.013101708495487091 0 -0.0063545451547761733 -0.013152925606531994 0 -0.0066402439519240141 -0.013880701925825837 0 -0.0063545451547761733 -0.013152925606531994 0 -0.0071804251532803422 -0.013696739226189433 0 -0.0063545451547761733 -0.013152925606531994 0 -0.007354056332768864 -0.013177213713442331 0 -0.0071804251532803422 -0.013696739226189433 0 -0.0032782843632902046 -0.0073470914673986728 0 -0.0032543076042883499 -0.0074075619555709783 0 -0.0032410396967524819 -0.0073956715341200845 0 -0.0035352996261341298 -0.0085264593356463147 0 -0.0026838505367595715 -0.0060918441989585535 0 -0.0076438875837018475 -0.014133109002216046 0 -0.007354056332768864 -0.013177213713442331 0 -0.0081981638376098596 -0.012624199226077357 0 -0.0076438875837018475 -0.014133109002216046 0 -0.007354056332768864 -0.013177213713442331 0 -0.0071804251532803422 -0.013696739226189433 0 -0.0035352996261341298 -0.0085264593356463147 0 -0.0031842621037436463 -0.0064617078596376732 0 -0.0083269259818185646 -0.0099617914384760829 0 -0.009699525762827222 -0.009333971400148338 0 -0.009763872455782802 -0.0078514464030135685 0 -0.0026838505367595715 -0.0060918441989585535 0 -0.0031842621037436463 -0.0064617078596376732 0 -0.006821678507539934 -0.012427115258942224 0 -0.007354056332768864 -0.013177213713442331 0 -0.0081981638376098596 -0.012624199226077357 0 0.0039075594970315727 0.0010083720737966986 0 0.0035102257299710732 0.0023472868464133748 0 0.0033456343262619247 0.0014619874980005797 0 0.0025958965158786197 0.0016103615743914518 0 0.0035102257299710732 0.0023472868464133748 0 0.0033456343262619247 0.0014619874980005797 0 -0.0065816580234501912 -0.011100547068048774 0 -0.006821678507539934 -0.012427115258942224 0 -0.0081981638376098596 -0.012624199226077357 0 -0.001991505036604771 -0.0053378517045153707 0 -0.0026838505367595715 -0.0060918441989585535 0 0.0039075594970315727 0.0010083720737966986 0 0.0036281619900334424 0.0017174943002784013 0 0.0040206645448369674 0.0014259727873555347 0 -0.0019111455828898483 -0.0026868185775641624 0 -0.0026838505367595715 -0.0060918441989585535 0 -0.0037269152623917948 -0.0024285665652190066 0 -0.0031842621037436463 -0.0064617078596376732 0 0.0043973830560865915 0.00097627198790437052 0 0.0041315615925907869 0.00099078107505668378 0 0.0040206645448369674 0.0014259727873555347 0 -0.0042468464067176581 0.0014700884414627084 0 -0.0037269152623917948 -0.0024285665652190066 0 -0.012806146298519986 -0.0075549526001249369 0 -0.01119969767953595 -0.0057216050318585178 0 -0.011161891409117424 -0.0072537121357725267 0 -0.012806146298519986 -0.0075549526001249369 0 -0.011161891409117424 -0.0072537121357725267 0 -0.010721082866086929 -0.0087263048409614262 0 -0.012806146298519986 -0.0075549526001249369 0 -0.011874534453729648 -0.010222798315422941 0 -0.010721082866086929 -0.0087263048409614262 0 -0.011161891409117424 -0.0072537121357725267 0 -0.0097428737597878099 -0.0078359993252174465 0 -0.010721082866086929 -0.0087263048409614262 0 0.0036281619900334424 0.0017174943002784013 0 0.0040206645448369674 0.0014259727873555347 0 0.0037279289924942978 0.0018082542745345056 0 -0.01119969767953595 -0.0057216050318585178 0 -0.011161891409117424 -0.0072537121357725267 0 -0.0097428737597878099 -0.0078359993252174465 0 -0.009699525762827222 -0.009333971400148338 0 -0.009763872455782802 -0.0078514464030135685 0 -0.010721082866086929 -0.0087263048409614262 0 -0.0031842621037436463 -0.0064617078596376732 0 -0.0037247709290915347 -0.0068372502968132107 0 -0.0014124554125998013 -0.01492265837605479 0 -0.00046581083138533703 -0.014233661831895238 0 -0.0012114727711084849 -0.013456626824104711 0 -0.002069189518294736 -0.015614308732244888 0 -0.0026917685587779451 -0.017842907604779919 0 -0.0014124554125998013 -0.01492265837605479 0 -0.0024575597054700997 -0.014684945217148859 0 -0.0012114727711084849 -0.013456626824104711 0 -0.0014124554125998013 -0.01492265837605479 0 -0.00046581083138533703 -0.014233661831895238 0 -0.00092343397145779028 -0.016288661696047872 0 -0.0040679976620256594 -0.017158191587338674 0 -0.0026543709622464493 -0.01759053435533527 0 -0.0029532077147664229 -0.018805410358736244 0 -0.0040679976620256594 -0.017158191587338674 0 -0.0026543709622464493 -0.01759053435533527 0 -0.0023873043727779182 -0.016535290710177033 0 -0.0021662811059947966 -0.019352719677317685 0 -0.002289026153984491 -0.018463511459310026 0 -0.0034064729679247107 -0.019047950603475038 0 -0.0040679976620256594 -0.017158191587338674 0 -0.0029532077147664229 -0.018805410358736244 0 -0.0046523379178079844 -0.019686238017597047 0 -0.0026204994998036434 -0.018074543434885921 0 -0.0026917685587779451 -0.017842907604779919 0 -0.0014124554125998013 -0.01492265837605479 0 -0.00092343397145779028 -0.016288661696047872 0 -0.0020912320387660244 -0.015877192624207906 0 -0.0023659761043546531 -0.017086328746125971 0 -0.00092343397145779028 -0.016288661696047872 0 -0.0020912320387660244 -0.015877192624207906 0 -0.0020912320387660244 -0.015877192624207906 0 -0.0037624995742308615 -0.015927570251772639 0 -0.0024575597054700997 -0.014684945217148859 0 -0.0023659761043546531 -0.017086328746125971 0 -0.0020912320387660244 -0.015877192624207906 0 -0.0037624995742308615 -0.015927570251772639 0 -0.0048144693172272072 -0.015381134641056452 0 -0.0037624995742308615 -0.015927570251772639 0 -0.0035575850281633634 -0.01456121194572094 0 -0.0040784753347440509 -0.016935485192797736 0 -0.0047701846180730955 -0.016211402691681916 0 -0.0037624995742308615 -0.015927570251772639 0 -0.0029495746013241532 -0.01498038249901841 0 -0.0024270917302801707 -0.014425908215904282 0 -0.0048144693172272072 -0.015381134641056452 0 -0.0035575850281633634 -0.01456121194572094 0 -0.0038336807357698863 -0.013350598938430724 0 -0.0037624995742308615 -0.015927570251772639 0 -0.0035575850281633634 -0.01456121194572094 0 -0.0024849071445164836 -0.014544290003039164 0 -0.0014124554125998013 -0.01492265837605479 0 -0.0020912320387660244 -0.015877192624207906 0 -0.0024575597054700997 -0.014684945217148859 0 -0.0035575850281633634 -0.01456121194572094 0 -0.0024849071445164836 -0.014544290003039164 0 -0.0029133298571701288 -0.013662699047584506 0 -0.0024270917302801707 -0.014425908215904282 0 -0.0015886259034801574 -0.013491385381596636 0 -0.0029133298571701288 -0.013662699047584506 0 -0.0025683163666623461 -0.012783036042631297 0 -0.0013405006754847765 -0.013262784463989957 0 -0.0024849071445164836 -0.014544290003039164 0 -0.0029133298571701288 -0.013662699047584506 0 -0.0013405006754847765 -0.013262784463989957 0 -0.0029133298571701288 -0.013662699047584506 0 -0.0038336807357698863 -0.013350598938430724 0 -0.0025683163666623461 -0.012783036042631297 0 -0.0035575850281633634 -0.01456121194572094 0 -0.0029133298571701288 -0.013662699047584506 0 -0.0038336807357698863 -0.013350598938430724 0 -0.0029121694579820985 -0.011493833635049968 0 -0.0037406711650179621 -0.011088547896639628 0 -0.0041338279128023845 -0.012508279627349263 0 -0.0030067244782758878 -0.011685286135008428 0 -0.0037345227495264493 -0.01322822882479158 0 -0.0029079064954905583 -0.011531205745944169 0 -0.0038336807357698863 -0.013350598938430724 0 -0.0025683163666623461 -0.012783036042631297 0 -0.0029121694579820985 -0.011493833635049968 0 -0.0041338279128023845 -0.012508279627349263 0 -0.0037400481080879498 -0.013254357508136291 0 -0.0033275278478919518 -0.0099186840583948624 0 -0.0038720994187486884 -0.011847668736565276 0 -0.0029079064954905583 -0.011531205745944169 0 -0.0025683163666623461 -0.012783036042631297 0 -0.0023180842334062195 -0.011941109554243481 0 -0.0025683163666623461 -0.012783036042631297 0 -0.001637596618710263 -0.012162742650909695 0 -0.0013405006754847765 -0.013262784463989957 0 -0.0025683163666623461 -0.012783036042631297 0 -0.0023180842334062195 -0.011941109554243481 0 -0.001637596618710263 -0.012162742650909695 0 -0.0020351995696719608 -0.011470985146462295 0 -0.0023180842334062195 -0.011941109554243481 0 -0.001637596618710263 -0.012162742650909695 0 -0.0015886259034801574 -0.013491385381596636 0 -0.0012258524875075085 -0.012957018750271188 0 -0.001637596618710263 -0.012162742650909695 0 -0.0013405006754847765 -0.013262784463989957 0 -0.00030642965540965091 -0.012062276663802931 0 -0.0014267362657367508 -0.011148945508993639 0 -0.001637596618710263 -0.012162742650909695 0 -0.00030642965540965091 -0.012062276663802931 0 -0.00046581083138533703 -0.014233661831895238 0 -0.0012114727711084849 -0.013456626824104711 0 -4.9542433137890119e-06 -0.012235824305230012 0 -0.0040679976620256594 -0.017158191587338674 0 -0.0035404420406970022 -0.01458693925338847 0 -0.0023873043727779182 -0.016535290710177033 0 -0.002069189518294736 -0.015614308732244888 0 -0.0012258524875075085 -0.012957018750271188 0 -0.0035404420406970022 -0.01458693925338847 0 -0.0012721434188183289 -0.015470582122272524 0 -0.00081760482715147631 -0.013979806285293326 0 -0.0012721434188183289 -0.015470582122272524 0 -0.00081760482715147631 -0.013979806285293326 0 0.00050180577770769883 -0.015381717513990329 0 0.0011314669363530891 -0.013400047227734276 0 -0.00081760482715147631 -0.013979806285293326 0 0.00050180577770769883 -0.015381717513990329 0 -0.0012721434188183289 -0.015470582122272524 0 -0.00050589196303489777 -0.016807945850127411 0 0.00050180577770769883 -0.015381717513990329 0 -0.0035404420406970022 -0.01458693925338847 0 -0.0012721434188183289 -0.015470582122272524 0 -0.0023873043727779182 -0.016535290710177033 0 -0.0012721434188183289 -0.015470582122272524 0 -0.00050589196303489777 -0.016807945850127411 0 -0.0023873043727779182 -0.016535290710177033 0 -0.0026204994998036434 -0.018074543434885921 0 -0.0022604399904124313 -0.017967005311457312 0 -0.00050589196303489777 -0.016807945850127411 0 -0.0023873043727779182 -0.016535290710177033 0 -0.001192106526297879 -0.017875926102596969 0 -0.0026543709622464493 -0.01759053435533527 0 -0.0029532077147664229 -0.018805410358736244 0 -0.001192106526297879 -0.017875926102596969 0 -0.0026543709622464493 -0.01759053435533527 0 -0.0023873043727779182 -0.016535290710177033 0 -0.001192106526297879 -0.017875926102596969 0 -0.00050589196303489777 -0.016807945850127411 0 -0.001192106526297879 -0.017875926102596969 0 -3.35094211036279e-05 -0.01805089644176933 0 -0.001192106526297879 -0.017875926102596969 0 -3.35094211036279e-05 -0.01805089644176933 0 -0.00070015425649063052 -0.01899379786748356 0 -3.35094211036279e-05 -0.01805089644176933 0 -0.00070015425649063052 -0.01899379786748356 0 0.00059797083379465254 -0.01895492801322906 0 -0.0021662811059947966 -0.019352719677317685 0 -0.00070015425649063052 -0.01899379786748356 0 -0.0015589029044471084 -0.018656230124721236 0 -0.002289026153984491 -0.018463511459310026 0 -0.001192106526297879 -0.017875926102596969 0 -0.0015589029044471084 -0.018656230124721236 0 -0.001192106526297879 -0.017875926102596969 0 -0.00070015425649063052 -0.01899379786748356 0 -0.0015589029044471084 -0.018656230124721236 0 -0.0022569914640831953 -0.018864361886484309 0 -0.0017178022214824368 -0.018824753926030224 0 -0.0021662811059947966 -0.019352719677317685 0 -0.002289026153984491 -0.018463511459310026 0 -0.0015589029044471084 -0.018656230124721236 0 0.0017146929932433789 -0.018716855887648241 0 0.00059797083379465254 -0.01895492801322906 0 0.0012829213745358858 -0.019650532075588721 0 0.0017146929932433789 -0.018716855887648241 0 0.00059797083379465254 -0.01895492801322906 0 0.0012734298691349849 -0.01725564656648022 0 -3.35094211036279e-05 -0.01805089644176933 0 0.00059797083379465254 -0.01895492801322906 0 0.0012734298691349849 -0.01725564656648022 0 -0.00050589196303489777 -0.016807945850127411 0 -3.35094211036279e-05 -0.01805089644176933 0 0.0012734298691349849 -0.01725564656648022 0 0.0017146929932433789 -0.018716855887648241 0 0.0012734298691349849 -0.01725564656648022 0 0.0021479519707843591 -0.01791352785224189 0 0.0021732766235234347 -0.016812414126114644 0 0.002757114640946085 -0.016266476729255304 0 0.0012734298691349849 -0.01725564656648022 0 0.0021934237519577343 -0.017198540969448194 0 0.0021479519707843591 -0.01791352785224189 0 0.0012734298691349849 -0.01725564656648022 0 0.00050180577770769883 -0.015381717513990329 0 0.00314648311835231 -0.014940976028874037 0 -0.00050589196303489777 -0.016807945850127411 0 0.0012734298691349849 -0.01725564656648022 0 0.00050180577770769883 -0.015381717513990329 0 0.0011314669363530891 -0.013400047227734276 0 0.00050180577770769883 -0.015381717513990329 0 0.00314648311835231 -0.014940976028874037 0 0.0037405978337930789 -0.015452059313907782 0 0.002757114640946085 -0.016266476729255304 0 0.0027922317296260762 -0.017147859422641774 0 0.0021934237519577343 -0.017198540969448194 0 0.0030039508465881876 -0.01747083280266077 0 0.0030039508465881876 -0.01747083280266077 0 0.0026953395094578103 -0.017731447349421108 0 0.0033370822316628936 -0.017963233518340695 0 0.0021934237519577343 -0.017198540969448194 0 0.0026953395094578103 -0.017731447349421108 0 0.0021479519707843591 -0.01791352785224189 0 0.0021934237519577343 -0.017198540969448194 0 0.0030039508465881876 -0.01747083280266077 0 0.0026953395094578103 -0.017731447349421108 0 0.0034535796055355896 -0.017493156603073674 0 0.0033966495563925816 -0.017738849917775412 0 0.0035791557736000244 -0.017773873881059526 0 0.0031825917731855636 -0.01731000160763017 0 0.0030039508465881876 -0.01747083280266077 0 0.0032637509422626422 -0.017495491518063806 0 0.0034535796055355896 -0.017493156603073674 0 0.0032637509422626422 -0.017495491518063806 0 0.0033966495563925816 -0.017738849917775412 0 0.0030039508465881876 -0.01747083280266077 0 0.0032637509422626422 -0.017495491518063806 0 0.0033966495563925816 -0.017738849917775412 0 0.0030039508465881876 -0.01747083280266077 0 0.0033966495563925816 -0.017738849917775412 0 0.0033370822316628936 -0.017963233518340695 0 0.0033966495563925816 -0.017738849917775412 0 0.0034536128831074513 -0.017975624896511094 0 0.0033370822316628936 -0.017963233518340695 0 0.0033966495563925816 -0.017738849917775412 0 0.0035120453974495404 -0.017895318695256866 0 0.0035791557736000244 -0.017773873881059526 0 0.0034536128831074513 -0.017975624896511094 0 0.0035120453974495404 -0.017895318695256866 0 0.0035160558140102539 -0.018079817447139331 0 0.0033966495563925816 -0.017738849917775412 0 0.0034536128831074513 -0.017975624896511094 0 0.0035120453974495404 -0.017895318695256866 0 0.0036341117349628343 -0.017946205400298704 0 0.0035120453974495404 -0.017895318695256866 0 0.0035160558140102539 -0.018079817447139331 0 0.0036341117349628343 -0.017946205400298704 0 0.0035120453974495404 -0.017895318695256866 0 0.0035791557736000244 -0.017773873881059526 0 0.0041336549695520025 -0.018521022818092252 0 0.0034676408489877197 -0.018502128974980367 0 0.0037184092705455749 -0.01818053597460511 0 0.0027840528118085327 -0.021862228105309779 0 0.0029250101886201759 -0.021647077688329928 0 0.0035080327280679682 -0.018199763749773275 0 0.0037184092705455749 -0.01818053597460511 0 0.0035160558140102539 -0.018079817447139331 0 0.0034536128831074513 -0.017975624896511094 0 0.0035080327280679682 -0.018199763749773275 0 0.0035160558140102539 -0.018079817447139331 0 0.0033370822316628936 -0.017963233518340695 0 0.0036027303559299684 -0.018554106508484859 0 0.0031966836528160409 -0.018689481366016676 0 0.0027840528118085327 -0.021862228105309779 0 0.0026502740035466593 -0.02110291465695981 0 0.0034536128831074513 -0.017975624896511094 0 0.0035080327280679682 -0.018199763749773275 0 0.0033370822316628936 -0.017963233518340695 0 0.004249523226209753 -0.018326436849306696 0 0.0033370822316628936 -0.017963233518340695 0 0.0036027303559299684 -0.018554106508484859 0 0.0027840528118085327 -0.021862228105309779 0 0.0028922970471374652 -0.022738318121969338 0 0.004249523226209753 -0.018326436849306696 0 0.0036027303559299684 -0.018554106508484859 0 0.0036352035094896155 -0.019194218085725082 0 0.0036027303559299684 -0.018554106508484859 0 0.0031966836528160409 -0.018689481366016676 0 0.0036352035094896155 -0.019194218085725082 0 0.003055220980532636 -0.026233992193831164 0 0.0031612467042447809 -0.026467614236296642 0 0.0030172198103623278 -0.026549994089480052 0 0.003055220980532636 -0.026233992193831164 0 0.0030172198103623278 -0.026549994089480052 0 0.0027938742821825833 -0.026536979040000987 0 0.0031612467042447809 -0.026467614236296642 0 0.0031645325341705904 -0.026594425141267326 0 0.0030172198103623278 -0.026549994089480052 0 0.0021479519707843591 -0.01791352785224189 0 0.0027705765311116619 -0.018238669861922619 0 0.0025365692026287539 -0.018835277070498799 0 0.0026953395094578103 -0.017731447349421108 0 0.0021479519707843591 -0.01791352785224189 0 0.0027705765311116619 -0.018238669861922619 0 0.0026953395094578103 -0.017731447349421108 0 0.0033370822316628936 -0.017963233518340695 0 0.0027705765311116619 -0.018238669861922619 0 0.0033370822316628936 -0.017963233518340695 0 0.0027705765311116619 -0.018238669861922619 0 0.0031966836528160409 -0.018689481366016676 0 0.0031966836528160409 -0.018689481366016676 0 0.0025365692026287539 -0.018835277070498799 0 0.0030841901102093149 -0.019436034326104284 0 0.0027705765311116619 -0.018238669861922619 0 0.0031966836528160409 -0.018689481366016676 0 0.0025365692026287539 -0.018835277070498799 0 0.0031966836528160409 -0.018689481366016676 0 0.0030841901102093149 -0.019436034326104284 0 0.0036352035094896155 -0.019194218085725082 0 0.0017146929932433789 -0.018716855887648241 0 0.0025365692026287539 -0.018835277070498799 0 0.0021176111514434443 -0.019401376809270555 0 0.0017146929932433789 -0.018716855887648241 0 0.0021479519707843591 -0.01791352785224189 0 0.0025365692026287539 -0.018835277070498799 0 0.0025365692026287539 -0.018835277070498799 0 0.0021176111514434443 -0.019401376809270555 0 0.0030841901102093149 -0.019436034326104284 0 0.0021176111514434443 -0.019401376809270555 0 0.0030841901102093149 -0.019436034326104284 0 0.0019590539869894607 -0.020523693424294519 0 0.0025982435525759031 -0.020040773971555563 0 0.0020366129139227029 -0.020588936755613418 0 0.0030841901102093149 -0.019436034326104284 0 0.0032747519461705614 -0.020218155036534135 0 0.0036352035094896155 -0.019194218085725082 0 0.0026654945591469354 -0.023642955150524385 0 0.0028922970471374652 -0.022738318121969338 0 0.0025223933492304865 -0.026830489164270905 0 0.0027938742821825833 -0.026536979040000987 0 0.0027521467468899223 -0.026793947878318611 0 0.0025223933492304865 -0.026830489164270905 0 0.0026799753445730483 -0.02697699593306226 0 0.0025151424804862924 -0.027077351572009929 0 0.0025223933492304865 -0.026830489164270905 0 0.0026799753445730483 -0.02697699593306226 0 0.0027521467468899223 -0.026793947878318611 0 0.0030841901102093149 -0.019436034326104284 0 0.0032747519461705614 -0.020218155036534135 0 0.0026420738306907974 -0.020383694530343083 0 0.0032747519461705614 -0.020218155036534135 0 0.0026420738306907974 -0.020383694530343083 0 0.0029224969920143219 -0.02168253883616416 0 0.0031073202582992533 -0.026707606735573035 0 0.0031645325341705904 -0.026594425141267326 0 0.0030172198103623278 -0.026549994089480052 0 0.0031073202582992533 -0.026707606735573035 0 0.0029133255487673974 -0.026725068888183965 0 0.0030432274551620282 -0.026854671349817616 0 0.0031073202582992533 -0.026707606735573035 0 0.0030172198103623278 -0.026549994089480052 0 0.0029133255487673974 -0.026725068888183965 0 0.0029133255487673974 -0.026725068888183965 0 0.0027938742821825833 -0.026536979040000987 0 0.0027521467468899223 -0.026793947878318611 0 0.0030172198103623278 -0.026549994089480052 0 0.0029133255487673974 -0.026725068888183965 0 0.0027938742821825833 -0.026536979040000987 0 0.0026799753445730483 -0.02697699593306226 0 0.0028512724738411436 -0.026901594645215302 0 0.0028279019921329464 -0.027071921535389936 0 0.0026799753445730483 -0.02697699593306226 0 0.0027521467468899223 -0.026793947878318611 0 0.0028512724738411436 -0.026901594645215302 0 0.0029133255487673974 -0.026725068888183965 0 0.0028512724738411436 -0.026901594645215302 0 0.0030432274551620282 -0.026854671349817616 0 0.0029133255487673974 -0.026725068888183965 0 0.0027521467468899223 -0.026793947878318611 0 0.0028512724738411436 -0.026901594645215302 0 0.0028512724738411436 -0.026901594645215302 0 0.0030432274551620282 -0.026854671349817616 0 0.0030012790797907451 -0.027052214436324155 0 0.0031908252375240842 -0.026951720675545153 0 0.0030432274551620282 -0.026854671349817616 0 0.0030012790797907451 -0.027052214436324155 0 0.0031831433163574474 -0.026805387382930413 0 0.0031073202582992533 -0.026707606735573035 0 0.0030432274551620282 -0.026854671349817616 0 0.0031908252375240842 -0.026951720675545153 0 0.0031831433163574474 -0.026805387382930413 0 0.0030432274551620282 -0.026854671349817616 0 0.0031803953795718136 -0.027209639114618118 0 0.0031908252375240842 -0.026951720675545153 0 0.0030012790797907451 -0.027052214436324155 0 0.0031803953795718136 -0.027209639114618118 0 0.0030012790797907451 -0.027052214436324155 0 0.002905463040941623 -0.027248417212628419 0 0.0030012790797907451 -0.027052214436324155 0 0.0028279019921329464 -0.027071921535389936 0 0.002905463040941623 -0.027248417212628419 0 0.0028512724738411436 -0.026901594645215302 0 0.0030012790797907451 -0.027052214436324155 0 0.0028279019921329464 -0.027071921535389936 0 0.0026799753445730483 -0.02697699593306226 0 0.0028279019921329464 -0.027071921535389936 0 0.0027014226396006487 -0.027186315611322419 0 0.0028279019921329464 -0.027071921535389936 0 0.002905463040941623 -0.027248417212628419 0 0.0027014226396006487 -0.027186315611322419 0 0.0029475702360565342 -0.0275760041442626 0 0.002758608941114063 -0.027419725264848385 0 0.002905463040941623 -0.027248417212628419 0 0.002758608941114063 -0.027419725264848385 0 0.002905463040941623 -0.027248417212628419 0 0.0027014226396006487 -0.027186315611322419 0 0.0032863741884422582 -0.037480525068085746 0 0.0029665134703288545 -0.039522935411534718 0 0.0031803953795718136 -0.027209639114618118 0 0.0029475702360565342 -0.0275760041442626 0 0.002905463040941623 -0.027248417212628419 0 0.0031771016816108497 -0.048904868111052394 0 0.0026435333374734285 -0.04762249761233385 0 0.00092506083288486905 -0.050383665417640451 0 0.0026654945591469354 -0.023642955150524385 0 0.0021509987246732224 -0.024757521285271745 0 0.0025223933492304865 -0.026830489164270905 0 0.0022304121062444691 -0.027109824788492953 0 0.0025151424804862924 -0.027077351572009929 0 0.0022304121062444691 -0.027109824788492953 0 0.0025151424804862924 -0.027077351572009929 0 0.0024565182890044883 -0.027290062951352678 0 0.0026799753445730483 -0.02697699593306226 0 0.0025151424804862924 -0.027077351572009929 0 0.0027014226396006487 -0.027186315611322419 0 0.0025151424804862924 -0.027077351572009929 0 0.0027014226396006487 -0.027186315611322419 0 0.0024565182890044883 -0.027290062951352678 0 0.0025439018543304045 -0.02760817991835576 0 0.002758608941114063 -0.027419725264848385 0 0.0024565182890044883 -0.027290062951352678 0 0.002758608941114063 -0.027419725264848385 0 0.0027014226396006487 -0.027186315611322419 0 0.0024565182890044883 -0.027290062951352678 0 0.0022304121062444691 -0.027109824788492953 0 0.0024565182890044883 -0.027290062951352678 0 0.0021850940302539741 -0.027287163496803872 0 0.0023279362901424648 -0.027468968778146995 0 0.0025439018543304045 -0.02760817991835576 0 0.0024565182890044883 -0.027290062951352678 0 0.0023279362901424648 -0.027468968778146995 0 0.0024565182890044883 -0.027290062951352678 0 0.0021850940302539741 -0.027287163496803872 0 0.0023279362901424648 -0.027468968778146995 0 0.0020662256327408472 -0.027429686048619784 0 0.0021850940302539741 -0.027287163496803872 0 0.0010678020475939261 -0.026436726907731682 0 0.0021509987246732224 -0.024757521285271745 0 0.0017776565116602455 -0.027195824564233723 0 0.0020662256327408472 -0.027429686048619784 0 0.0021850940302539741 -0.027287163496803872 0 0.0017776565116602455 -0.027195824564233723 0 0.0022304121062444691 -0.027109824788492953 0 0.0021850940302539741 -0.027287163496803872 0 0.0018658001903328037 -0.024515690506712647 0 0.0029224969920143219 -0.02168253883616416 0 0.0013217659332698006 -0.023047593480295708 0 0.0029224969920143219 -0.02168253883616416 0 0.0013100527039335401 -0.021643901730134651 0 0.0013217659332698006 -0.023047593480295708 0 0.0020366129139227029 -0.020588936755613418 0 0.00078146619664508658 -0.021748739826786948 0 0.0026420738306907974 -0.020383694530343083 0 0.0029224969920143219 -0.02168253883616416 0 0.0013100527039335401 -0.021643901730134651 0 0.00085860555228961511 -0.021605320344523189 0 -0.0012962647837932398 -0.022977850571082672 0 -0.00069259724217860419 -0.021508088225191596 0 0.00085860555228961511 -0.021605320344523189 0 -0.00069259724217860419 -0.021508088225191596 0 -8.9469914633965293e-05 -0.020684473896055329 0 0.00085860555228961511 -0.021605320344523189 0 -0.0012962647837932398 -0.022977850571082672 0 -0.0019177191691797462 -0.023832365099546188 0 0.00078146619664508658 -0.021748739826786948 0 -0.00029814475877852479 -0.022708882318589616 0 0.0013100527039335401 -0.021643901730134651 0 0.0013217659332698006 -0.023047593480295708 0 0.00013353312423203769 -0.023928157065383593 0 0.0013100527039335401 -0.021643901730134651 0 0.00013353312423203769 -0.023928157065383593 0 -0.0019177191691797462 -0.023832365099546188 0 0.0013217659332698006 -0.023047593480295708 0 0.00096837487264781613 -0.024217822163584667 0 0.00013353312423203769 -0.023928157065383593 0 0.0018658001903328037 -0.024515690506712647 0 0.0013217659332698006 -0.023047593480295708 0 0.00096837487264781613 -0.024217822163584667 0 0.00027960496202793125 -0.025535975224209216 0 0.00096837487264781613 -0.024217822163584667 0 0.00013353312423203769 -0.023928157065383593 0 -0.0010183277416636394 -0.025060277146539446 0 -0.00028192725839532403 -0.02518497729383468 0 0.00013353312423203769 -0.023928157065383593 0 -0.0012962647837932398 -0.022977850571082672 0 -0.0019177191691797462 -0.023832365099546188 0 -0.0052394357798235865 -0.02445821101338946 0 -0.0010183277416636394 -0.025060277146539446 0 0.00013353312423203769 -0.023928157065383593 0 -0.0019177191691797462 -0.023832365099546188 0 -0.0023484844027473572 -0.025445325337291297 0 -0.0019177191691797462 -0.023832365099546188 0 -0.0052394357798235865 -0.02445821101338946 0 -0.0037237343245368599 -0.015892272016488702 0 -0.0051396367774658577 -0.013743954954708849 0 -0.0012962647837932398 -0.022977850571082672 0 -0.0021443911311853588 -0.022069256102851733 0 -0.0016919820100075678 -0.021819759779167676 0 -0.0012962647837932398 -0.022977850571082672 0 -0.0081463110654427726 -0.022634118198948634 0 -0.0052394357798235865 -0.02445821101338946 0 -0.0076601190888504244 -0.025816636150251735 0 -0.0081463110654427726 -0.022634118198948634 0 -0.0052394357798235865 -0.02445821101338946 0 -0.0016919820100075678 -0.021819759779167676 0 -0.0019471930914810207 -0.02107617985565741 0 -0.001214088734194716 -0.02072125049360684 0 -0.0022064724277606742 -0.021430964873018193 0 -0.0021443911311853588 -0.022069256102851733 0 -0.0016919820100075678 -0.021819759779167676 0 -0.0022064724277606742 -0.021430964873018193 0 -0.0016919820100075678 -0.021819759779167676 0 -0.0019471930914810207 -0.02107617985565741 0 -0.0012962647837932398 -0.022977850571082672 0 -0.0016919820100075678 -0.021819759779167676 0 -0.00069259724217860419 -0.021508088225191596 0 -0.0016919820100075678 -0.021819759779167676 0 -0.00069259724217860419 -0.021508088225191596 0 -0.001214088734194716 -0.02072125049360684 0 -0.001214088734194716 -0.02072125049360684 0 -0.0017345467581608087 -0.020105861635937382 0 -0.0006308391098028168 -0.019880290711530378 0 -0.00069259724217860419 -0.021508088225191596 0 -0.001214088734194716 -0.02072125049360684 0 -8.9469914633965293e-05 -0.020684473896055329 0 -0.001214088734194716 -0.02072125049360684 0 -0.0006308391098028168 -0.019880290711530378 0 -8.9469914633965293e-05 -0.020684473896055329 0 -0.0023517106878472613 -0.020547183341820756 0 -0.0019471930914810207 -0.02107617985565741 0 -0.0018222875326499009 -0.020610357339221241 0 -0.0019471930914810207 -0.02107617985565741 0 -0.001214088734194716 -0.02072125049360684 0 -0.0018222875326499009 -0.020610357339221241 0 -0.001214088734194716 -0.02072125049360684 0 -0.0018222875326499009 -0.020610357339221241 0 -0.0017345467581608087 -0.020105861635937382 0 -0.0023517106878472613 -0.020547183341820756 0 -0.0018222875326499009 -0.020610357339221241 0 -0.0017345467581608087 -0.020105861635937382 0 -0.00215886830157113 -0.019383612061217404 0 -0.00070015425649063052 -0.01899379786748356 0 -0.0017345467581608087 -0.020105861635937382 0 -0.00070015425649063052 -0.01899379786748356 0 -0.0017345467581608087 -0.020105861635937382 0 -0.0006308391098028168 -0.019880290711530378 0 -0.00070015425649063052 -0.01899379786748356 0 0.00059797083379465254 -0.01895492801322906 0 -0.0006308391098028168 -0.019880290711530378 0 0.00059797083379465254 -0.01895492801322906 0 0.00038158849530881971 -0.019920807597188801 0 0.0012829213745358858 -0.019650532075588721 0 0.00059797083379465254 -0.01895492801322906 0 -0.0006308391098028168 -0.019880290711530378 0 0.00038158849530881971 -0.019920807597188801 0 0.00038158849530881971 -0.019920807597188801 0 0.0012829213745358858 -0.019650532075588721 0 0.00089423235983686182 -0.02043752297937727 0 0.0021176111514434443 -0.019401376809270555 0 0.0019590539869894607 -0.020523693424294519 0 0.0012829213745358858 -0.019650532075588721 0 0.0017146929932433789 -0.018716855887648241 0 0.0021176111514434443 -0.019401376809270555 0 0.0012829213745358858 -0.019650532075588721 0 0.0019590539869894607 -0.020523693424294519 0 0.00085860555228961511 -0.021605320344523189 0 0.00089423235983686182 -0.02043752297937727 0 0.0019590539869894607 -0.020523693424294519 0 0.0012829213745358858 -0.019650532075588721 0 0.00089423235983686182 -0.02043752297937727 0 0.00085860555228961511 -0.021605320344523189 0 -8.9469914633965293e-05 -0.020684473896055329 0 0.00089423235983686182 -0.02043752297937727 0 0.00038158849530881971 -0.019920807597188801 0 -8.9469914633965293e-05 -0.020684473896055329 0 0.00089423235983686182 -0.02043752297937727 0 -0.0006308391098028168 -0.019880290711530378 0 0.00038158849530881971 -0.019920807597188801 0 -8.9469914633965293e-05 -0.020684473896055329 0 
</DataArray>
</PointData>
<CellData Scalars="region_id,cross_section_updated," Vectors="" Tensors="stress,">
<DataArray type="Float64" Name="region_id" format="ascii">
5 5 5 5 5 6 5 5 5 5 5 5 5 6 5 5 5 5 6 5 5 6 5 5 5 5 6 5 5 5 5 6 5 5 5 5 5 5 5 5 5 5 5 5 5 6 5 5 6 5 5 5 5 5 6 5 5 5 5 5 5 5 6 5 5 5 5 6 5 5 5 5 5 5 5 5 5 6 5 5 6 5 5 6 5 5 5 5 6 5 5 5 5 5 5 5 6 6 6 5 5 6 5 5 5 5 5 6 5 5 5 5 5 5 5 5 5 5 5 5 5 6 5 5 5 6 5 5 5 5 5 5 6 5 5 5 5 5 5 5 5 5 5 5 5 5 5 5 5 5 5 5 5 5 5 5 5 5 6 5 5 5 6 5 5 6 5 5 5 5 5 5 5 5 5 5 5 6 5 5 5 5 5 5 5 5 6 5 5 5 5 5 5 5 5 6 5 5 5 5 5 5 5 5 5 6 5 5 5 5 5 5 5 5 5 5 5 5 5 5 5 5 5 5 5 5 5 5 5 6 5 5 5 6 5 6 5 6 5 5 6 5 5 5 6 5 6 5 6 5 6 6 5 6 5 5 6 5 6 5 5 5 6 5 6 6 5 5 6 5 5 5 6 5 6 6 6 5 6 5 5 5 6 5 6 6 6 5 5 6 6 5 5 5 5 6 5 6 5 5 6 5 5 5 6 5 6 6 6 5 5 5 6 5 6 6 6 6 5 5 5 6 6 5 5 6 6 6 5 6 5 5 5 5 6 5 5 5 5 5 5 5 6 5 5 5 5 5 5 6 6 5 5 5 6 5 5 5 6 5 6 5 6 6 5 5 5 5 6 5 5 6 5 5 5 5 6 5 6 5 5 5 5 5 6 6 5 5 5 5 5 5 5 5 6 5 5 5 6 5 5 6 5 6 5 5 5 5 5 5 5 5 5 5 5 6 5 6 5 6 5 5 5 6 5 6 5 6 5 5 5 5 5 5 6 5 6 5 5 5 6 5 5 5 6 5 6 6 5 5 5 5 6 5 5 5 5 6 6 5 5 6 5 6 5 6 6 5 5 5 6 5 5 5 5 6 5 5 5 5 5 5 5 5 5 5 5 6 5 5 5 5 6 5 5 5 6 5 6 6 6 5 5 5 6 6 5 6 5 5 6 5 5 5 5 6 5 5 5 5 5 5 5 5 5 5 5 6 6 5 5 6 5 5 5 6 5 5 5 5 5 5 6 5 5 5 6 5 5 5 6 5 5 5 5 5 5 5 5 5 5 5 6 5 5 5 6 5 5 5 5 5 5 5 6 5 5 5 5 5 6 5 5 5 5 5 5 5 5 5 5 5 5 5 5 5 5 5 5 5 6 5 5 5 5 6 5 5 6 5 5 5 5 5 5 5 6 5 5 5 5 5 5 5 5 6 5 6 5 5 6 5 5 5 6 5 5 6 5 5 5 6 5 6 5 5 6 5 6 5 5 5 5 5 5 5 5 5 5 5 5 5 5 5 5 5 5 5 5 5 5 6 5 6 5 6 5 5 5 5 5 5 5 5 5 5 5 5 5 5 5 6 5 5 5 5 5 5 5 5 5 6 5 5 5 5 5 5 5 5 5 5 5 5 5 5 5 5 5 5 5 5 5 5 5 5 5 5 5 5 5 6 5 5 6 5 5 5 6 6 5 6 5 5 5 5 5 6 5 5 5 5 5 6 5 5 5 5 5 5 5 5 5 5 5 5 5 5 5 5 5 5 5 5 5 5 5 5 5 5 5 5 5 5 5 5 5 5 5 5 5 5 5 5 5 5 5 5 5 5 5 5 5 6 5 5 5 5 5 5 5 5 5 5 5 5 5 5 5 6 5 5 5 5 6 5 5 5 5 5 5 5 5 5 5 5 5 5 5 5 5 5 5 5 5 5 5 5 5 5 5 5 6 5 5 6 5 6 6 6 6 5 5 6 5 5 5 5 5 5 5 5 5 5 5 5 5 5 5 5 5 6 5 5 6 5 6 5 5 5 5 6 5 6 5 5 5 5 6 5 5 5 6 5 5 5 5 5 6 5 6 5 5 6 6 5 6 5 5 5 5 5 5 5 5 5 5 5 6 5 5 5 6 5 5 5 6 5 5 6 6 6 5 5 5 5 5 5 5 5 5 5 5 6 5 5 5 5 5 5 5 5 6 6 6 5 5 5 5 5 5 5 5 6 6 5 5 5 6 5 5 6 5 5 5 5 5 5 5 5 5 5 5 6 5 5 5 5 5 5 5 5 6 5 5 5 5 5 5 5 5 5 5 6 5 6 6 6 5 5 5 5 5 5 5 6 6 5 6 5 5 5 5 5 6 5 6 6 5 5 5 6 5 6 5 5 5 5 6 5 5 5 5 5 5 5 5 5 5 5 5 5 5 5 5 5 6 5 5 5 6 5 5 5 5 5 6 5 5 5 5 5 5 6 5 6 5 5 5 5 5 5 5 5 6 5 5 5 6 5 5 5 5 5 5 5 5 5 5 5 5 5 5 5 5 5 5 5 5 5 5 5 5 5 6 6 6 5 5 5 5 6 5 5 5 5 6 5 5 5 5 5 5 5 6 5 5 5 5 5 5 5 5 6 5 5 5 5 5 5 5 5 5 5 5 5 6 5 5 5 5 5 5 6 5 5 5 5 5 5 5 5 6 5 5 5 6 5 5 5 5 5 5 5 5 5 5 5 5 6 5 5 5 5 5 5 5 5 5 5 5 5 5 5 5 5 5 5 5 5 5 5 5 5 5 5 5 5 5 5 5 5 5 5 5 5 5 5 5 5 5 5 5 5 5 5 5 6 5 5 5 5 5 5 5 5 5 5 5 5 5 5 5 5 5 5 5 5 5 5 5 5 6 5 5 5 5 5 5 5 5 5 5 6 5 5 6 5 5 5 5 5 5 5 5 5 6 5 6 5 5 5 5 6 5 5 6 5 6 5 5 5 5 5 6 5 5 5 5 5 5 5 5 6 5 5 5 5 5 5 5 5 5 5 5 5 5 5 6 5 6 6 5 5 5 5 5 6 5 5 5 5 5 5 5 5 5 5 5 5 5 5 5 6 5 5 5 5 5 5 5 5 5 5 5 5 5 5 5 5 6 5 5 5 5 5 6 6 5 5 6 5 5 5 5 5 5 5 5 5 5 6 5 5 5 5 5 5 5 5 5 6 5 6 5 5 5 5 5 6 5 5 5 5 6 5 5 5 6 5 5 5 6 5 5 6 5 5 5 5 5 5 5 5 5 5 5 5 5 5 5 5 6 5 5 5 5 5 5 5 6 5 5 5 5 5 5 5 5 5 5 5 5 5 5 5 5 5 5 5 5 5 5 5 5 5 5 5 6 5 5 5 5 6 5 5 5 6 5 5 5 5 5 5 5 5 5 6 5 6 5 5 5 5 5 5 5 5 5 5 5 5 5 5 5 5 5 5 6 6 5 5 5 6 5 5 6 5 5 6 5 5 5 6 5 5 6 5 5 5 5 5 5 5 5 5 5 5 5 5 5 5 5 5 5 5 5 6 5 6 5 5 5 5 5 5 5 5 5 5 5 6 5 6 5 5 5 6 5 5 5 5 5 6 5 5 5 5 5 5 6 5 5 5 5 5 5 5 5 5 5 5 6 5 5 5 5 5 5 5 5 6 5 5 5 6 5 5 6 5 5 5 5 5 6 5 5 5 5 5 5 5 5 5 6 5 5 6 5 6 5 6 6 6 5 6 5 5 5 5 5 5 6 5 5 5 5 5 5 6 5 5 5 5 5 5 5 6 5 5 5 5 6 5 5 5 5 5 6 5 6 5 5 5 5 5 5 5 5 5 5 6 5 5 5 5 5 5 5 6 5 5 5 5 5 5 5 6 5 6 5 5 5 5 5 5 5 5 6 5 5 5 6 6 5 5 5 5 5 6 6 5 6 5 5 6 5 5 6 5 5 5 5 5 5 5 5 6 5 5 5 5 5 6 5 5 5 5 6 5 5 6 5 5 5 5 5 5 5 5 5 5 5 5 5 5 5 5 5 5 5 5 5 5 5 5 5 5 5 5 5 5 5 5 5 5 5 5 5 5 5 5 5 6 5 5 6 5 5 5 5 5 6 5 5 5 5 6 5 5 5 5 5 5 5 5 5 5 5 5 5 5 5 5 5 5 5 5 5 5 5 5 6 5 5 5 6 5 5 5 5 5 5 6 5 5 5 5 5 5 5 5 5 5 5 6 5 6 6 5 5 6 5 5 5 5 5 5 5 5 5 5 5 6 5 5 6 5 5 5 5 5 5 5 5 5 5 5 5 5 5 5 6 5 5 5 5 5 5 5 6 5 6 5 5 5 5 6 5 6 5 5 5 5 5 5 5 5 5 6 5 5 5 5 5 5 5 5 5 5 5 5 5 5 5 5 5 6 5 5 5 5 5 5 5 5 5 5 5 5 5 5 5 5 5 5 5 5 5 5 5 5 5 6 6 5 5 5 5 5 5 5 5 5 5 5 6 5 5 5 5 6 5 5 5 5 6 5 5 5 5 5 5 5 5 6 5 5 5 5 5 5 5 5 5 6 5 5 5 5 5 5 5 5 5 5 5 5 5 5 5 5 5 5 5 5 6 5 5 5 5 5 5 5 5 5 5 5 5 5 5 6 5 6 5 5 5 5 5 5 5 5 6 5 5 6 5 5 5 5 5 5 5 5 5 5 5 5 5 5 5 5 5 5 5 5 5 5 5 5 5 5 5 5 5 5 5 5 5 5 5 5 6 5 5 6 5 5 5 5 6 5 6 5 5 6 5 6 5 5 5 5 5 6 5 5 5 5 5 5 5 5 5 5 5 5 6 5 5 5 6 5 5 5 5 5 5 5 5 5 6 5 5 5 5 6 6 5 5 5 5 5 5 5 5 6 5 5 5 5 5 6 5 5 5 6 5 5 5 6 5 5 5 5 6 5 5 5 5 5 5 5 5 5 5 5 5 5 5 6 5 5 5 5 5 5 6 5 6 6 5 6 5 6 5 5 5 5 6 5 5 5 5 6 5 5 5 5 5 5 5 5 5 6 5 5 5 5 5 5 5 5 5 5 5 5 5 5 6 5 5 5 6 5 5 5 6 5 6 5 5 5 5 5 5 5 5 5 5 5 5 5 5 5 5 6 5 5 5 5 5 5 6 5 5 5 5 5 5 5 5 5 5 5 5 5 5 5 5 5 5 6 5 5 5 5 5 5 5 5 5 5 5 5 5 5 5 5 5 5 5 5 5 5 5 5 5 5 5 5 5 5 5 5 5 5 6 5 5 5 5 6 5 5 5 5 5 5 5 6 5 5 5 5 5 5 5 5 5 6 5 5 6 5 5 5 5 5 6 5 5 5 6 5 5 6 5 5 5 5 5 5 5 5 5 5 5 5 5 5 5 5 5 5 5 5 6 5 5 5 5 5 5 5 5 5 5 6 6 5 6 5 5 5 5 5 6 5 5 5 5 6 5 5 5 5 5 6 5 6 5 5 6 5 5 5 5 5 5 5 5 6 5 5 5 5 5 5 6 5 5 5 5 5 5 6 5 5 5 5 6 5 5 6 5 6 5 5 6 5 5 5 5 5 5 6 5 5 5 5 6 5 5 5 5 5 5 5 5 6 6 5 5 5 5 5 5 5 5 6 5 5 5 5 5 5 6 5 5 5 5 5 5 5 6 5 5 5 6 5 5 5 5 5 5 5 5 5 5 5 5 6 5 5 5 5 6 5 5 6 5 5 5 5 6 5 5 5 6 6 5 5 5 6 5 5 5 6 5 5 5 5 5 5 5 5 5 6 5 5 5 6 5 5 5 5 5 5 5 5 5 5 5 5 6 5 6 5 5 6 5 5 6 5 5 5 5 5 5 5 6 5 5 5 5 5 6 5 6 5 5 5 6 6 5 6 6 5 6 5 5 5 5 5 5 6 5 6 5 5 5 5 5 5 5 5 5 5 5 5 5 6 5 5 6 5 6 5 5 6 5 5 5 6 6 5 5 6 5 5 5 5 5 5 5 5 5 5 5 5 5 5 5 5 5 5 5 5 5 5 5 6 6 5 6 5 6 5 5 6 6 5 5 6 5 5 6 5 5 6 5 6 5 5 5 5 6 5 5 5 5 6 5 6 6 5 6 5 5 6 6 5 5 5 6 5 5 5 5 6 6 5 5 5 5 5 6 5 5 5 5 5 5 5 5 5 5 5 6 5 6 5 6 5 5 6 5 6 5 5 5 5 5 5 5 5 6 5 5 6 5 5 5 5 6 5 5 5 5 5 5 5 5 5 5 5 5 6 5 5 5 5 5 5 5 5 5 5 5 6 5 5 5 5 5 5 6 5 6 5 5 6 5 5 5 5 5 5 5 5 5 5 5 5 5 5 5 5 5 6 6 5 5 5 6 5 5 6 5 5 5 5 5 5 5 5 5 5 5 5 5 5 5 5 5 5 5 5 5 5 5 5 5 6 6 5 5 5 5 5 5 5 5 5 5 5 6 5 5 5 5 5 5 5 5 5 5 5 5 5 5 5 5 5 5 5 5 5 5 5 5 5 5 5 5 5 5 5 5 5 6 5 5 5 5 5 6 5 5 6 5 5 6 6 5 5 5 5 5 5 5 5 5 5 5 5 5 6 5 5 6 5 5 5 5 5 5 6 5 5 6 5 5 5 5 5 5 5 5 5 5 5 5 5 6 5 5 5 5 5 5 5 6 5 5 5 5 5 5 5 5 5 5 5 5 6 5 5 6 5 5 5 5 5 5 5 5 5 5 5 5 5 5 5 5 5 5 5 5 6 5 5 6 5 6 5 5 5 6 5 5 6 5 6 5 5 5 6 5 5 5 5 6 5 5 5 5 5 5 5 6 5 5 5 6 5 5 5 5 5 5 5 5 5 5 5 5 6 5 5 5 5 5 5 5 5 6 5 5 5 5 5 5 5 5 5 5 5 6 5 5 5 5 5 5 5 5 5 5 5 5 5 5 5 5 5 5 5 6 6 5 5 5 6 5 5 5 5 5 5 5 5 5 5 5 5 6 5 5 5 5 5 5 5 5 5 6 5 5 5 5 5 5 5 5 5 5 5 5 5 5 5 5 6 5 6 5 5 5 5 5 6 5 5 5 5 6 5 5 5 6 5 5 5 6 5 5 5 5 5 5 5 5 5 6 5 5 5 6 5 5 6 5 5 5 5 5 5 6 5 5 5 5 5 5 5 5 6 5 5 5 6 5 5 5 5 5 5 5 5 5 5 5 5 5 5 5 5 5 5 5 5 5 5 5 5 5 5 5 6 5 5 5 5 5 5 5 6 5 5 5 5 5 5 5 5 5 5 5 5 5 5 5 5 5 5 5 5 5 5 5 5 5 6 5 6 5 5 5 5 5 5 6 5 5 5 6 5 5 6 5 5 5 5 5 5 5 5 5 5 5 5 6 5 5 5 5 5 6 5 5 5 5 5 5 5 5 5 5 5 5 5 6 5 5 5 6 5 5 5 5 5 5 5 5 5 5 5 5 6 6 5 5 5 5 6 5 5 5 5 5 5 5 5 5 6 6 5 5 5 5 5 6 5 5 5 5 5 6 5 5 5 5 5 6 5 6 5 5 5 5 6 5 6 5 6 6 5 5 5 5 5 5 5 6 6 5 5 5 5 5 5 6 6 6 5 6 6 5 5 5 6 5 5 5 5 5 6 6 6 5 6 5 5 5 6 5 6 6 5 5 5 5 5 5 5 6 6 5 5 6 6 6 5 5 5 5 5 5 5 5 5 5 5 5 5 5 5 5 5 5 5 5 5 5 5 5 5 5 5 5 5 5 5 5 5 5 5 5 5 5 5 5 6 5 5 5 5 5 5 5 5 5 5 6 5 5 5 5 5 5 6 5 5 6 5 5 5 5 5 5 5 5 5 5 5 5 5 6 5 6 5 5 5 5 6 5 5 5 6 5 5 6 5 5 5 6 5 5 6 5 5 5 5 5 6 5 5 5 5 5 5 5 6 5 5 5 5 5 5 5 6 5 5 6 5 5 5 5 6 5 6 5 5 5 5 5 6 5 5 5 5 6 5 5 5 5 5 5 6 6 5 5 5 5 5 6 5 5 6 5 5 5 5 5 5 5 5 5 5 6 5 5 5 5 5 5 5 5 5 5 5 5 5 5 5 5 5 5 6 5 5 5 5 5 5 6 5 5 5 5 5 5 5 6 6 5 5 5 5 6 5 5 5 5 5 5 5 6 5 5 6 5 6 6 6 5 5 5 5 5 5 6 5 5 5 5 5 6 5 5 5 5 6 5 5 5 6 5 5 5 6 5 5 5 5 5 5 5 5 5 5 5 5 5 5 5 5 5 5 5 5 5 5 5 5 5 6 5 5 5 5 5 5 5 6 5 6 5 5 5 5 5 5 6 5 5 6 5 5 5 6 5 5 6 5 5 5 5 5 6 5 5 5 6 6 5 5 5 5 5 5 5 5 5 5 5 5 6 5 5 5 5 5 5 5 5 5 6 5 5 5 5 5 6 6 5 5 5 5 5 5 5 5 5 6 5 5 5 5 5 5 5 5 6 5 5 5 5 5 5 5 5 5 5 5 5 5 5 5 5 5 5 6 5 5 5 5 6 5 6 5 6 5 5 5 5 5 5 5 5 5 5 5 5 5 5 5 5 5 6 5 5 5 5 5 6 5 5 5 6 6 5 5 5 5 5 6 5 5 5 5 6 5 5 5 5 5 5 5 5 6 5 5 5 5 5 5 5 6 5 5 5 5 5 5 5 5 5 6 5 5 5 5 5 5 5 5 5 5 5 5 5 5 5 5 5 5 6 5 5 5 5 5 5 5 5 5 5 5 5 5 6 5 5 5 5 5 5 6 5 5 6 5 5 6 5 5 5 5 5 5 5 5 5 5 5 5 5 5 5 5 5 5 5 5 5 5 5 5 5 5 6 5 6 5 6 6 5 5 5 6 5 5 5 5 5 5 5 5 5 6 6 5 6 5 5 5 5 5 5 5 5 5 5 5 5 5 5 6 5 6 6 5 6 5 5 5 5 5 5 5 5 5 6 6 5 5 5 5 5 5 5 5 5 5 5 5 5 5 5 5 5 5 5 5 5 5 6 5 5 5 5 5 6 5 5 5 5 5 6 5 5 5 6 5 5 5 5 5 5 5 5 5 6 5 5 5 5 6 5 5 5 5 5 5 6 5 5 5 5 5 5 5 6 5 5 5 5 6 5 5 5 5 5 5 5 5 5 5 6 5 5 5 5 6 5 5 5 6 5 5 5 5 5 6 5 5 5 5 5 5 5 5 5 5 5 5 5 5 6 6 5 5 6 5 5 5 5 5 5 5 6 5 5 5 5 5 5 6 5 5 5 5 5 5 5 5 5 5 5 5 5 5 5 5 5 5 5 5 5 5 5 6 5 5 5 5 5 5 5 5 6 5 5 5 5 6 5 5 5 5 5 6 5 6 5 6 5 5 5 5 5 5 5 6 5 5 5 6 5 5 5 5 5 6 5 5 5 5 5 6 5 6 5 5 6 5 6 5 5 5 5 5 6 5 5 5 6 5 5 5 5 5 5 5 5 5 5 6 5 5 5 5 5 5 5 5 5 5 5 5 5 5 5 5 5 5 5 5 5 5 6 5 5 5 5 5 5 5 5 5 5 5 5 5 5 5 5 5 5 6 5 5 5 6 5 5 5 5 5 5 6 5 5 5 6 6 5 6 5 6 6 5 6 5 5 6 5 5 6 6 5 5 5 5 5 5 5 5 6 5 6 5 5 5 5 5 5 5 5 5 5 5 5 5 5 5 5 5 5 5 5 5 5 6 5 5 5 5 5 5 5 5 6 5 5 6 5 5 6 6 5 5 6 5 5 5 5 5 5 5 5 5 5 5 5 5 5 5 5 5 5 5 5 5 5 5 5 5 5 5 5 5 5 5 5 5 5 5 5 5 5 5 6 5 6 5 5 5 5 5 5 5 5 5 5 5 5 5 5 5 5 5 5 5 5 5 5 5 5 5 5 5 5 5 5 5 5 5 5 5 5 5 5 5 5 6 5 5 6 5 5 5 5 5 6 5 6 5 5 6 5 5 5 5 5 5 6 5 5 5 5 5 5 5 5 5 5 5 6 5 5 6 6 5 6 5 5 6 5 5 5 5 6 5 5 5 5 5 5 5 5 5 6 5 6 5 5 5 5 5 5 5 6 5 6 5 5 5 5 5 5 5 5 5 6 5 6 5 5 5 5 5 5 5 5 5 5 6 5 5 5 6 5 5 6 5 5 6 5 5 5 5 6 5 5 5 6 5 5 5 5 5 5 5 5 5 5 5 5 5 5 6 5 5 5 5 5 5 6 5 6 5 6 5 5 5 6 5 5 5 5 5 5 5 5 6 5 5 5 5 5 6 5 5 6 5 5 5 5 5 5 5 5 5 6 5 5 5 6 5 5 5 5 5 5 6 5 5 5 5 5 5 5 5 5 5 5 5 5 5 5 5 5 5 5 5 5 5 5 5 5 5 5 5 5 5 5 6 5 5 5 5 5 6 5 5 6 6 5 5 5 5 6 5 5 5 5 5 6 5 5 5 5 5 5 5 5 5 5 5 5 5 5 5 5 6 5 5 5 5 5 5 5 5 6 6 5 5 5 5 5 5 6 5 5 5 5 6 5 5 5 5 5 5 5 5 5 5 5 5 5 5 5 5 5 5 5 5 5 5 5 5 6 5 5 6 5 5 5 5 5 5 5 5 5 5 5 5 5 5 5 5 5 5 5 5 5 5 5 5 5 5 5 6 5 6 5 5 5 5 5 6 5 5 5 5 5 5 5 5 5 5 5 5 5 5 5 5 5 5 5 5 6 6 5 6 5 5 5 5 5 5 5 5 5 5 5 5 5 5 5 5 6 5 5 5 6 5 5 5 5 5 5 5 5 5 5 5 5 5 6 5 5 5 5 5 5 5 5 5 5 5 5 5 5 5 5 5 5 5 5 5 5 6 5 5 5 5 5 5 5 5 5 5 5 5 5 6 5 6 5 5 6 6 5 5 5 5 5 5 5 5 5 5 5 5 5 5 5 5 5 5 5 5 6 5 5 6 5 5 5 6 5 5 5 5 5 5 6 5 5 5 6 5 5 5 5 5 5 5 5 6 5 5 6 5 5 6 5 6 5 5 5 5 6 6 5 5 6 6 5 5 6 5 5 5 5 6 5 5 6 6 5 6 5 5 5 5 5 5 5 5 5 5 5 5 5 5 5 5 5 5 5 5 6 5 5 5 5 6 5 5 5 5 6 6 5 5 5 5 5 5 5 5 5 5 5 5 6 5 5 5 6 5 5 5 5 5 5 5 6 5 5 5 6 5 5 6 6 5 5 5 6 5 5 5 6 5 5 5 5 5 5 5 5 5 5 5 5 5 5 5 5 5 5 6 5 5 5 5 5 5 5 5 5 5 5 5 5 5 5 5 5 5 6 6 5 5 5 5 5 6 6 5 6 5 5 5 5 5 5 5 5 5 6 5 5 5 6 5 5 5 5 5 5 5 5 5 5 5 5 5 5 6 5 5 5 5 5 5 5 6 5 5 6 5 5 5 5 5 5 6 5 5 5 5 6 5 5 5 5 5 5 6 5 5 5 5 5 5 5 5 6 6 5 5 5 6 6 5 5 5 5 5 6 5 5 5 5 5 5 6 5 5 5 5 6 5 5 5 5 5 6 5 5 5 5 6 5 5 5 5 5 5 5 5 5 5 5 5 5 5 5 5 5 5 5 5 5 5 5 5 5 6 5 5 5 5 6 5 6 5 6 5 5 6 5 5 6 5 5 6 5 5 5 5 5 5 6 5 5 6 5 6 6 6 5 5 6 5 6 6 5 5 5 6 5 6 5 5 5 5 5 5 6 5 5 5 6 5 5 5 5 5 5 5 6 5 5 5 6 5 6 6 5 5 5 5 5 5 5 6 5 5 5 5 5 5 5 5 6 6 5 5 5 5 6 5 5 6 5 5 5 6 5 5 5 6 6 5 5 5 5 6 5 5 5 5 5 6 6 5 5 5 5 5 5 5 5 5 5 5 5 5 5 5 5 5 5 5 5 5 5 5 5 5 5 5 5 5 5 5 6 5 5 5 6 5 5 5 5 5 5 5 5 5 5 5 5 5 5 5 6 5 6 6 5 5 6 5 5 5 5 5 5 5 5 5 5 5 5 5 5 5 5 5 5 5 5 5 5 5 6 5 5 6 6 5 5 5 5 5 5 5 6 5 5 5 6 5 5 5 5 6 6 5 5 5 5 5 5 5 6 5 5 5 5 6 5 5 5 5 6 5 5 5 5 5 5 5 5 5 5 5 5 5 5 5 5 5 5 5 6 5 5 5 5 5 5 5 5 5 5 5 5 5 5 5 5 6 5 5 5 6 5 5 5 5 5 5 5 5 5 6 5 5 5 5 5 5 5 5 5 5 5 5 5 5 5 5 5 5 5 5 5 6 5 5 5 5 5 5 5 5 5 5 5 5 5 5 5 5 5 6 5 5 5 5 5 6 5 5 5 5 5 5 5 5 5 5 5 5 5 5 5 5 5 5 5 5 5 5 5 5 5 5 5 6 5 5 6 5 5 5 6 5 5 5 5 5 5 5 5 5 5 5 5 5 5 5 6 5 6 5 5 5 5 5 5 5 5 5 6 5 5 5 5 5 5 5 5 5 6 6 5 5 5 5 5 5 5 5 5 5 5 5 5 5 5 5 5 5 5 5 5 5 5 5 5 5 5 5 5 5 5 5 5 5 5 5 5 5 5 5 5 5 5 5 5 5 5 5 5 5 5 5 5 5 5 5 5 5 5 5 5 5 5 5 5 5 5 5 5 5 5 6 5 5 5 5 5 5 6 5 5 5 5 5 5 5 5 5 6 5 6 5 5 5 5 5 5 5 5 5 5 5 5 5 5 5 5 5 5 5 5 5 5 5 5 5 5 5 5 5 5 5 5 5 5 6 5 5 5 6 6 5 5 5 5 5 5 5 5 5 5 5 5 5 5 5 5 5 5 5 5 5 5 6 6 5 5 5 5 5 5 5 5 6 5 5 5 5 5 5 6 5 5 5 5 5 6 5 5 5 5 6 5 5 5 6 5 5 5 6 5 5 6 5 5 5 5 5 5 5 5 5 5 5 5 5 6 5 5 5 5 5 5 5 5 6 5 5 5 5 5 5 5 5 5 5 5 6 5 5 5 6 5 5 5 5 6 5 5 5 5 5 5 5 5 6 5 6 5 5 6 5 5 5 5 5 6 5 5 5 5 5 5 5 5 5 5 5 5 6 5 5 5 5 5 5 5 5 5 6 5 5 5 5 5 5 6 5 5 5 5 5 5 5 6 5 5 5 5 5 6 5 5 5 5 5 5 5 5 5 5 5 5 5 5 5 5 5 5 5 5 5 5 5 5 5 5 5 5 5 5 5 5 5 5 5 5 5 5 5 5 5 5 5 5 5 5 5 6 5 6 5 5 5 5 5 5 5 5 5 5 5 5 5 5 6 5 5 5 5 5 5 5 5 5 5 5 5 5 5 5 6 5 5 6 5 6 5 5 5 5 5 6 5 5 5 5 5 5 5 5 5 5 5 5 5 5 5 5 5 5 5 5 6 5 5 5 5 5 5 5 5 5 5 5 6 5 6 5 5 6 5 6 5 5 5 5 5 5 5 6 5 6 5 5 5 5 6 5 5 5 5 6 6 5 5 6 5 5 5 5 5 5 5 5 5 5 5 5 5 5 5 5 6 5 5 5 5 5 5 5 5 5 5 5 5 5 5 6 5 6 5 5 5 5 5 5 5 6 5 6 5 5 5 5 5 5 5 5 5 6 6 5 5 5 6 5 5 5 5 6 5 6 5 5 6 5 6 6 6 5 5 6 5 5 5 6 6 6 5 5 5 5 5 5 5 5 5 5 5 6 5 5 5 5 5 5 6 5 5 5 6 5 5 5 5 5 5 5 5 6 5 5 5 6 5 5 5 5 5 5 5 5 5 5 5 5 5 5 5 5 5 5 5 5 5 5 5 5 5 5 5 5 5 5 5 5 5 5 5 5 5 5 5 5 5 5 5 5 5 5 5 5 5 5 5 5 5 5 5 5 5 5 5 5 6 5 5 5 5 5 6 5 5 5 5 6 5 5 5 6 5 5 5 5 5 5 5 5 5 5 5 5 5 5 5 5 5 5 5 5 5 5 5 5 5 5 5 5 5 5 5 5 5 5 5 5 5 5 5 5 6 5 5 6 5 5 5 5 5 5 5 6 5 5 5 5 5 5 5 5 5 5 5 6 5 5 6 5 6 5 5 5 6 5 5 5 5 5 5 5 5 6 5 5 5 5 6 5 5 5 5 6 5 6 5 5 5 5 5 5 5 5 5 5 5 5 6 5 6 5 5 5 5 5 5 5 5 5 5 5 5 5 6 5 5 5 5 5 5 5 5 5 6 5 5 5 6 5 5 5 5 5 5 5 5 5 5 5 5 5 5 5 5 5 5 5 5 5 5 5 5 5 5 5 5 5 5 5 5 5 5 5 6 5 5 6 5 5 5 5 6 5 5 5 5 5 5 5 5 5 5 5 5 5 5 5 6 5 5 5 5 5 5 5 5 5 6 5 6 5 5 5 5 5 5 5 6 5 5 5 5 5 5 5 5 5 5 5 5 5 5 6 5 5 5 5 5 5 5 5 5 5 5 6 5 5 5 5 5 5 5 5 5 5 5 5 5 5 5 5 5 5 5 5 5 5 5 6 5 6 5 5 5 5 5 5 6 5 6 5 5 5 6 5 5 5 6 5 5 5 6 5 5 6 5 5 5 5 5 5 5 6 5 5 5 5 5 5 5 6 5 5 5 5 5 5 5 5 5 5 5 5 5 6 5 5 5 5 5 5 5 5 6 5 5 5 5 5 5 5 5 5 5 5 5 5 5 5 5 5 5 5 5 6 5 5 5 5 5 5 5 5 5 5 5 5 5 5 5 5 5 5 5 5 5 5 5 5 5 5 5 5 5 5 5 5 5 5 5 5 5 5 5 5 5 5 5 5 5 5 5 5 5 5 6 5 6 5 5 5 6 5 5 6 6 5 6 5 5 5 5 5 5 5 5 5 5 5 5 5 5 5 5 5 5 5 5 5 5 5 5 5 5 5 5 5 5 5 5 5 5 5 6 5 5 5 5 6 5 5 6 5 5 5 6 5 5 5 5 6 5 6 6 5 5 5 5 6 5 5 5 6 5 5 5 6 5 5 5 5 5 5 6 5 5 5 5 5 5 5 5 5 5 5 5 5 5 5 5 5 5 5 5 6 5 5 5 5 5 5 5 5 5 5 5 5 5 5 5 5 5 5 6 5 5 6 5 5 6 5 5 5 5 5 5 5 5 5 5 5 6 5 5 5 5 6 5 5 5 5 6 5 5 5 6 5 5 5 5 5 5 5 5 5 5 5 5 5 5 5 5 5 5 5 5 5 5 5 5 5 6 5 5 5 5 5 5 5 5 6 5 5 5 6 5 5 5 5 5 5 5 5 5 5 5 5 5 5 5 5 5 5 5 5 5 5 5 5 6 5 5 5 6 5 5 5 5 5 5 5 5 6 5 5 6 5 5 5 5 6 5 5 5 5 5 5 5 6 5 6 5 5 6 5 5 6 6 5 5 5 5 5 5 5 5 5 5 5 5 5 5 5 5 5 5 5 5 5 6 5 5 5 5 6 5 5 5 5 5 5 5 5 5 5 5 5 5 6 5 5 6 5 5 5 5 5 5 5 5 5 5 5 5 5 5 5 5 5 5 5 5 5 5 5 5 5 5 5 5 5 5 5 5 5 5 5 5 5 5 5 5 5 5 5 5 5 5 5 5 5 5 5 5 5 5 5 5 5 5 5 5 5 5 5 5 5 5 5 5 5 5 5 5 5 5 5 5 5 5 5 5 5 5 5 5 5 5 5 5 5 5 5 5 5 5 5 5 5 5 5 5 5 5 5 5 5 5 5 5 5 5 5 5 5 5 5 5 5 5 5 5 5 5 5 5 5 5 5 5 6 5 5 5 5 5 5 5 6 5 5 5 5 5 5 5 5 5 6 5 6 5 5 5 6 5 5 6 5 5 5 5 5 5 5 5 5 5 5 5 5 5 5 5 5 5 5 5 5 5 5 5 5 5 5 5 5 5 5 5 5 5 5 5 5 6 5 5 6 6 5 5 6 5 5 6 5 5 5 6 5 5 5 5 5 5 5 5 5 6 5 5 5 5 5 5 6 5 5 5 5 5 5 5 5 5 5 5 5 5 5 5 5 5 5 5 5 5 5 5 5 5 5 5 5 5 5 5 6 5 5 5 5 5 5 5 5 5 5 5 5 5 5 5 5 5 5 5 5 5 5 5 5 5 5 5 5 5 5 5 5 5 5 5 5 5 5 5 5 5 5 5 5 5 5 6 5 6 5 5 5 5 6 5 5 5 5 6 5 5 5 5 6 5 5 5 5 5 5 5 5 6 5 5 6 5 6 5 5 5 5 6 5 5 6 6 5 5 5 5 5 5 6 5 5 5 5 5 5 5 5 5 5 6 6 5 5 5 5 5 6 5 5 6 5 5 5 5 6 5 5 6 5 5 5 5 5 5 5 5 5 5 5 5 5 5 5 5 5 5 5 5 5 5 5 5 5 5 5 5 5 6 5 6 5 5 5 5 5 5 5 5 5 5 5 5 5 6 5 5 5 5 6 6 5 5 5 5 5 5 5 5 5 5 5 5 5 5 5 5 5 5 5 5 5 5 5 5 5 5 5 5 5 5 5 5 5 5 5 5 5 5 5 5 5 5 6 5 5 5 6 5 5 5 5 5 5 5 5 5 5 5 5 5 5 5 5 5 5 5 5 6 5 5 6 5 5 5 5 5 5 5 5 5 6 5 5 5 5 5 6 5 5 5 5 5 6 5 6 5 5 5 5 5 5 5 5 5 5 5 5 5 6 5 5 5 6 6 5 5 5 5 5 5 5 5 6 5 5 6 5 5 6 6 5 5 5 5 5 6 5 5 5 5 5 5 5 6 5 5 6 6 5 5 5 5 5 5 6 6 5 5 5 6 5 5 5 5 5 5 5 6 5 5 5 5 5 5 5 5 5 5 5 5 5 5 5 5 5 5 5 5 5 5 5 5 5 5 6 5 5 5 5 5 5 5 6 5 5 5 5 5 5 5 5 5 5 5 6 5 5 5 5 5 5 5 5 6 5 5 5 5 5 5 5 5 5 5 5 5 5 5 5 5 6 5 5 5 6 5 5 5 5 5 6 5 5 5 5 5 5 5 5 5 5 5 5 5 5 6 5 5 5 5 6 5 5 6 5 5 5 5 5 6 5 5 5 5 5 5 5 5 5 5 5 5 5 5 6 5 6 5 5 5 6 5 6 5 6 5 5 5 5 5 5 6 6 5 5 5 5 5 5 6 5 6 5 5 5 5 5 5 5 5 5 5 5 5 5 5 5 5 5 6 5 5 5 6 6 5 5 5 5 5 6 5 5 6 6 5 5 5 5 5 5 5 5 5 5 5 5 5 5 5 5 5 5 5 5 5 5 5 5 5 5 5 5 5 5 5 5 5 5 5 5 5 5 5 5 5 5 5 5 6 5 5 6 6 6 5 5 5 5 5 5 6 5 5 5 5 5 5 5 5 5 6 5 5 5 6 5 5 5 5 5 5 5 5 5 5 5 5 5 5 5 5 5 5 5 5 6 5 5 5 5 6 5 5 5 5 5 5 5 5 5 5 5 5 5 5 5 5 5 5 5 5 5 5 5 5 5 5 5 5 5 5 5 5 5 5 6 5 6 5 5 5 5 5 5 5 5 6 5 5 5 6 5 6 5 5 5 5 5 5 5 5 6 5 5 5 5 6 5 5 5 5 6 5 5 5 5 5 5 5 6 5 5 5 5 6 5 5 5 5 5 5 5 5 5 5 5 5 5 5 5 5 5 5 5 5 5 5 5 5 5 5 5 5 5 5 5 5 5 5 5 5 5 5 5 5 5 5 5 5 5 5 6 5 5 5 5 6 6 5 5 6 6 5 5 5 5 5 5 5 5 5 5 5 5 5 5 5 5 5 5 5 6 5 5 5 6 6 5 5 5 5 5 5 5 5 5 5 5 5 5 5 5 5 5 5 5 5 5 5 5 5 5 5 5 6 5 5 5 5 5 5 5 6 5 5 5 5 5 5 5 5 5 5 5 5 5 5 5 6 5 5 5 5 5 5 5 5 6 5 6 6 5 5 5 5 5 5 5 5 5 5 5 5 6 5 5 5 5 5 5 5 5 5 5 5 5 5 5 5 5 5 5 6 5 5 5 6 5 5 5 5 5 5 5 5 6 5 5 5 5 5 5 5 5 5 5 5 5 5 5 5 6 5 5 5 6 5 5 5 5 5 5 5 5 5 5 5 5 5 5 5 5 5 5 5 5 5 5 5 5 5 5 5 5 5 5 5 5 5 6 5 6 5 5 5 5 5 5 5 5 6 5 5 5 5 5 5 5 5 5 6 5 5 6 5 5 5 5 5 6 5 5 5 5 6 5 5 5 5 6 5 5 5 6 5 6 5 5 6 5 5 5 5 5 5 5 5 5 5 5 5 5 5 6 5 5 6 5 6 5 5 5 6 5 5 6 5 5 5 5 6 5 6 5 5 5 5 5 5 6 5 6 5 5 5 5 5 6 5 5 5 5 6 5 5 5 5 5 5 6 5 5 5 5 5 5 5 5 5 5 5 5 5 5 5 5 5 5 5 5 5 5 5 5 5 5 5 5 5 5 5 5 5 6 6 5 5 5 5 5 5 5 5 5 5 6 5 5 6 6 5 6 5 5 5 5 5 5 5 6 5 5 5 5 5 5 5 5 5 5 5 5 6 5 5 5 5 6 5 5 5 5 5 5 5 5 5 5 5 5 6 5 5 5 5 5 5 5 5 5 5 5 5 5 5 5 5 5 6 5 5 5 5 5 6 5 5 5 6 5 5 5 5 5 5 6 5 6 5 5 5 6 5 5 5 5 5 5 5 5 5 6 5 5 6 5 5 5 5 5 5 5 6 5 5 5 5 5 5 5 5 5 5 5 5 5 6 5 5 6 5 5 5 5 5 5 6 5 5 5 5 5 5 6 5 5 5 5 5 5 5 6 5 5 5 5 5 5 5 5 5 5 5 5 5 5 5 5 5 5 5 5 5 5 6 5 5 5 5 5 5 5 5 5 5 6 5 5 5 5 6 6 5 5 5 5 6 5 5 5 5 5 5 5 5 5 6 5 5 5 5 5 5 5 5 5 5 5 6 5 5 5 6 5 5 5 6 5 5 5 5 5 5 5 5 5 5 5 5 6 5 5 5 5 5 6 5 5 6 5 5 5 5 5 5 5 5 5 5 5 5 5 5 6 5 5 5 5 5 5 5 6 5 5 5 6 5 5 5 5 5 6 5 5 5 5 5 5 5 5 5 6 5 5 5 5 5 5 5 5 6 5 5 5 5 5 6 5 5 5 5 5 5 5 6 5 5 5 5 5 5 5 5 5 5 5 5 5 5 5 5 5 5 5 5 5 5 5 5 5 5 5 5 5 5 5 5 5 5 5 5 5 5 5 5 5 5 5 5 5 5 5 5 6 5 5 5 5 5 5 5 6 5 5 5 5 5 5 5 5 5 5 5 5 5 5 5 5 5 5 5 5 5 5 6 6 5 5 6 6 5 5 5 5 5 5 5 6 5 5 5 5 5 5 5 5 5 5 5 5 5 5 6 5 5 5 5 5 5 5 5 6 5 5 6 5 5 5 6 5 5 5 5 5 5 5 5 5 5 5 5 5 5 5 5 5 5 5 5 5 5 5 5 5 5 5 5 6 5 5 5 5 5 5 5 5 6 5 5 5 5 5 5 6 6 5 5 5 5 6 5 5 6 5 5 6 5 5 5 5 5 5 6 5 5 5 5 5 5 5 5 6 5 5 5 5 5 5 5 5 5 5 5 6 5 5 6 5 5 5 5 5 5 5 6 5 5 5 6 5 6 5 6 5 5 5 5 5 5 5 5 5 5 5 5 5 5 5 5 5 6 5 6 5 5 5 5 5 5 5 5 5 5 6 5 5 5 5 5 5 5 6 5 5 5 6 5 6 6 5 5 6 5 5 5 5 6 5 5 5 6 5 5 5 6 5 6 6 5 5 5 5 5 5 6 5 5 5 5 5 5 5 5 6 6 6 5 6 5 5 6 6 5 5 6 5 5 5 5 5 5 5 5 5 5 5 6 5 5 5 5 5 5 5 5 5 5 5 5 5 6 6 5 5 5 5 6 5 5 5 6 5 5 5 5 5 6 6 5 5 5 6 5 5 5 5 5 5 5 5 5 5 5 5 5 5 5 6 5 5 5 6 5 5 5 6 5 5 5 5 5 5 6 5 5 5 5 5 6 5 5 5 5 5 5 5 5 6 5 5 5 5 5 5 5 5 5 6 5 5 5 5 6 5 6 5 5 6 5 6 5 5 5 5 5 5 6 5 6 6 5 5 5 5 5 5 5 5 6 5 6 5 6 5 6 5 5 5 5 5 5 5 5 5 5 5 6 5 5 5 6 5 5 5 5 5 5 5 5 6 5 5 5 5 5 5 5 5 5 6 5 5 5 5 6 5 5 6 5 5 5 5 5 5 5 5 5 6 5 5 5 6 5 5 5 5 5 5 5 5 5 5 5 5 5 5 5 5 5 5 5 6 5 5 5 5 5 5 5 5 5 5 6 5 5 5 5 5 5 5 5 5 5 5 5 5 5 5 5 5 5 5 5 5 5 5 5 5 5 5 5 5 5 5 5 5 5 5 5 5 5 5 5 5 5 5 5 5 6 6 5 5 5 5 5 5 5 5 5 5 5 5 5 6 6 5 5 5 6 5 5 6 5 5 5 6 5 5 5 6 5 5 5 5 5 5 5 5 6 5 5 6 5 6 6 5 5 5 5 5 5 6 5 6 6 6 5 5 6 5 5 6 6 5 5 5 5 5 5 5 5 5 5 5 5 5 5 5 5 5 5 5 5 5 6 5 5 5 5 5 5 5 5 5 6 5 5 5 5 5 5 5 6 6 5 5 5 5 5 5 5 5 5 5 5 5 5 5 5 5 5 5 5 5 5 5 5 6 5 6 5 5 5 5 5 5 5 6 5 5 5 6 6 5 5 6 5 5 5 5 6 5 5 5 6 5 5 5 6 5 5 5 5 5 5 5 5 5 6 6 5 5 5 5 5 6 5 5 6 6 6 5 5 5 5 5 6 5 5 5 5 5 5 5 5 5 6 5 6 5 5 5 5 5 5 5 5 5 5 5 5 5 5 5 5 5 5 5 5 5 5 5 5 6 5 5 5 5 6 6 5 5 5 6 5 5 5 5 5 5 5 5 5 5 5 5 5 5 5 5 6 5 5 5 6 5 5 6 5 5 5 5 5 5 5 5 5 5 5 5 5 6 5 5 6 5 5 5 6 5 6 5 6 5 6 6 6 5 5 5 5 5 5 5 5 6 5 5 5 5 5 5 5 5 6 5 5 6 5 5 5 5 5 5 5 5 5 5 5 5 5 5 5 5 5 5 5 5 5 6 5 5 5 5 5 5 5 5 5 5 6 5 6 5 5 6 5 6 5 6 5 5 6 5 6 5 5 6 5 5 5 6 5 5 5 5 5 5 5 5 5 5 5 5 5 5 5 5 5 5 5 5 5 5 5 5 5 5 5 5 5 5 5 5 5 5 5 5 5 5 5 5 5 5 5 5 5 5 5 5 5 5 5 5 5 5 5 5 5 5 5 5 5 6 5 5 6 5 5 5 5 5 5 6 6 5 5 5 5 5 5 5 5 5 5 5 5 5 5 5 5 5 5 6 5 5 5 6 5 5 5 5 5 5 5 5 5 5 5 5 5 5 5 5 6 5 5 5 5 5 5 5 6 5 5 5 5 5 5 5 5 6 5 6 5 5 5 5 5 5 5 5 5 5 5 5 5 5 5 5 6 5 5 5 5 5 5 5 6 5 5 5 5 6 5 5 5 5 5 5 5 6 5 5 6 6 5 5 6 5 5 5 5 5 5 6 5 5 5 5 5 5 5 5 5 6 5 5 6 5 5 6 5 5 6 5 5 5 5 5 6 5 5 5 5 5 5 5 5 6 5 5 5 5 5 5 5 6 5 5 5 5 5 5 5 5 5 5 5 5 6 5 5 5 5 5 5 5 6 6 5 6 5 6 5 5 5 5 5 5 5 5 5 5 5 5 5 5 5 6 5 6 5 5 5 5 5 5 5 5 6 5 6 5 6 5 6 5 6 5 5 6 5 5 5 5 5 6 5 5 5 5 5 5 5 5 6 5 5 5 5 5 6 5 5 6 5 6 6 5 5 5 5 5 5 5 5 6 5 5 5 5 5 5 5 5 5 5 5 5 5 6 5 5 5 5 5 5 5 6 5 5 5 6 5 5 5 5 5 5 5 5 5 5 5 5 5 5 5 5 5 6 5 5 5 5 5 5 5 6 5 5 6 5 5 5 5 5 5 5 5 5 5 5 5 5 5 5 6 5 5 5 5 6 5 5 5 5 5 5 5 5 5 5 5 5 5 5 5 5 5 5 5 5 5 5 5 5 5 6 5 5 5 5 5 5 6 5 5 5 5 5 5 5 5 5 6 6 5 5 5 6 5 6 5 5 5 5 5 5 5 5 5 5 5 5 5 5 5 6 5 5 5 5 5 5 5 5 5 5 5 5 6 6 5 5 5 5 5 5 5 5 6 5 5 6 5 5 6 6 5 5 5 5 5 5 5 6 5 5 5 5 5 5 5 5 5 6 5 5 5 6 5 5 5 5 5 6 5 5 5 5 5 5 5 5 5 5 5 5 6 5 5 5 6 5 5 5 6 5 5 5 5 5 5 5 5 5 5 5 5 5 5 5 5 5 5 5 5 5 5 5 5 5 5 5 5 5 5 5 5 6 5 5 5 5 5 5 5 5 5 5 5 5 5 5 5 5 5 5 5 5 5 5 5 5 6 5 6 5 5 6 5 5 5 5 5 5 5 5 5 6 5 5 5 5 5 5 5 5 5 5 5 5 5 5 6 5 5 5 5 6 5 5 5 6 5 5 5 5 5 5 5 5 5 5 5 5 5 5 5 5 5 5 5 5 5 5 5 5 5 5 5 5 5 5 5 5 5 5 5 5 5 5 5 5 5 5 5 5 5 5 5 5 5 5 5 5 5 5 5 5 5 5 5 5 5 5 5 5 5 5 5 5 5 5 5 5 5 5 5 5 5 5 5 5 5 5 5 5 5 5 5 5 5 5 5 5 5 5 5 5 5 5 5 5 5 5 5 5 5 5 5 5 5 5 5 5 5 5 5 5 5 5 5 5 5 5 5 5 5 5 5 5 5 5 5 5 5 5 5 5 5 5 5 5 5 5 5 5 5 5 5 5 5 5 5 5 5 5 5 5 5 5 5 5 5 5 5 5 5 5 5 5 5 5 5 5 5 5 5 5 5 5 5 5 5 5 5 5 5 5 5 5 5 6 5 5 5 5 5 5 5 5 5 5 5 5 5 5 5 5 6 5 5 5 5 5 5 5 5 6 5 5 5 5 6 5 5 5 5 5 5 5 5 5 5 5 5 5 5 5 5 5 5 5 5 5 5 6 5 5 5 5 5 5 5 5 5 5 5 5 5 6 6 5 5 5 5 5 6 5 6 5 5 5 5 5 5 5 5 5 5 5 6 5 5 5 5 5 5 5 6 5 5 5 5 5 5 5 5 5 5 5 5 5 5 5 6 6 5 5 5 5 5 5 5 5 5 5 5 5 6 5 5 5 5 5 5 5 5 5 5 5 5 5 5 5 5 6 5 5 5 5 5 5 5 6 5 5 5 5 5 5 5 5 5 5 6 6 5 5 5 5 5 5 5 5 5 5 5 5 5 5 5 5 5 5 5 5 5 5 5 5 5 5 5 5 5 5 6 5 5 5 5 5 6 5 5 5 5 5 5 5 5 5 5 6 5 5 5 5 6 5 5 5 5 5 5 5 5 5 5 6 5 6 5 5 5 5 5 5 5 5 5 5 5 5 5 5 5 5 5 5 5 5 5 5 5 5 5 5 5 5 5 5 5 6 5 5 5 5 5 6 5 5 5 5 5 5 5 5 5 5 5 5 5 5 5 5 5 5 6 5 5 6 5 5 5 6 5 5 5 5 5 6 5 5 5 5 5 5 5 5 5 5 6 5 5 5 5 5 5 6 5 5 5 5 5 6 6 5 5 6 5 5 6 5 5 5 5 5 5 5 5 5 5 6 5 5 6 5 5 6 5 5 6 5 5 6 5 5 6 5 5 5 5 5 5 6 5 5 5 5 5 5 5 5 5 5 5 6 5 5 5 5 5 5 5 6 5 5 5 5 6 5 5 5 6 5 5 5 5 5 5 5 5 5 5 5 6 5 5 5 5 5 5 5 5 5 5 5 5 5 5 5 5 5 5 5 5 5 5 5 5 6 5 5 5 5 5 6 5 5 5 5 5 5 5 5 5 5 5 5 5 5 6 5 5 6 5 6 5 5 5 5 6 5 6 6 5 6 5 5 5 5 5 5 5 6 5 6 5 5 5 5 5 5 6 5 5 5 5 5 5 6 5 5 5 5 6 5 5 5 5 5 6 5 5 6 5 5 5 5 6 5 5 5 5 6 5 5 5 5 5 5 6 5 5 5 5 5 5 5 5 5 6 5 5 5 5 5 5 6 5 5 5 5 6 5 5 5 5 5 5 5 5 5 5 5 5 5 5 5 5 6 5 5 5 6 5 5 6 5 5 5 5 5 5 5 5 5 5 5 5 5 5 5 5 6 5 6 5 5 5 5 5 5 5 5 5 5 5 5 5 5 5 5 5 5 5 5 5 5 5 5 5 5 6 5 5 6 5 5 5 5 5 5 5 5 5 5 6 5 5 5 5 6 5 5 5 5 6 5 5 5 5 5 5 5 5 5 6 5 5 5 5 5 5 5 5 5 5 5 5 5 5 5 5 5 5 5 5 5 5 5 5 5 5 5 5 
</DataArray>
<DataArray type="Float64" Name="stress" NumberOfComponents="9" format="ascii">
-357871196.4109726 -1280874807.5363312 0 -1280874807.5363312 3457853261.179039 0 0 0 0 -228325681.09388337 -213699729.71103668 0 -213699729.71103668 2417516202.7705536 0 0 0 0 1642643.6058294659 -188335719.22383118 0 -188335719.22383118 1912503901.9367065 0 0 0 0 248310204.15839785 -489162070.3311348 0 -489162070.3311348 935248604.33526611 0 0 0 0 -54972239.983551815 -285556053.34275055 0 -285556053.34275055 939946236.22933137 0 0 0 0 -445605.54078292113 -232970.91475470364 0 -232970.91475470364 2786790.3812344391 0 0 0 0 -6021052.1005592346 128116270.90205383 0 128116270.90205383 -73103794.945140839 0 0 0 0 111598846.68177819 -37448113.824157715 0 -37448113.824157715 24659109.051086426 0 0 0 0 153639298.79563031 -1013628533.5786247 0 -1013628533.5786247 2159420269.4434052 0 0 0 0 567319133.08947682 -548581292.83031845 0 -548581292.83031845 859526786.14826965 0 0 0 0 8435404.9641871452 -372038277.89664459 0 -372038277.89664459 1065596571.6259613 0 0 0 0 2230884342.4670715 -1870660981.1050873 0 -1870660981.1050873 663717350.08586121 0 0 0 0 783176399.31945419 2021848290.2330265 0 2021848290.2330265 3459525361.5237427 0 0 0 0 2556056.2158871726 108278.57641226985 0 108278.57641226985 5010121.8851912245 0 0 0 0 -128556161.63561217 871206299.7598629 0 871206299.7598629 2514931906.6888733 0 0 0 0 -524939991.26486963 329096889.51220703 0 329096889.51220703 3465419974.3373137 0 0 0 0 -9239286.4022880793 665145917.37820053 0 665145917.37820053 1405922038.300827 0 0 0 0 67648588.987840354 390301105.8327179 0 390301105.8327179 1469730579.1492195 0 0 0 0 2395518.3329844712 -1544790.0757219195 0 -1544790.0757219195 11859655.709102392 0 0 0 0 219879604.5456664 290282095.50414658 0 290282095.50414658 756502300.36049652 0 0 0 0 -206304308.85807544 -180584785.70915985 0 -180584785.70915985 1875516947.2133636 0 0 0 0 1228250.9575910382 4006588.5565376282 0 4006588.5565376282 12713221.590370478 0 0 0 0 -54782132.619802177 29874648.388168335 0 29874648.388168335 18268450.620529175 0 0 0 0 -119373062.74847412 11708679.579303741 0 11708679.579303741 56167442.614334106 0 0 0 0 -31499810.830747604 13889542.08631897 0 13889542.08631897 27443299.678672791 0 0 0 0 -136474579.87493801 -123908109.11634445 0 -123908109.11634445 -47203290.929290771 0 0 0 0 -197237.47150386573 -6243405.1218739059 0 -6243405.1218739059 24004722.061289735 0 0 0 0 102611308.07950258 -102736086.87979126 0 -102736086.87979126 -67528280.24729538 0 0 0 0 -22604216.032357216 -36466452.336917877 0 -36466452.336917877 26699667.66696167 0 0 0 0 -46616770.903758287 -20458813.870594978 0 -20458813.870594978 66355490.747146606 0 0 0 0 135352322.37690759 6914306.4455871582 0 6914306.4455871582 -191932293.707901 0 0 0 0 -2199522.2318396168 -1213795.7283579037 0 -1213795.7283579037 10043213.336258816 0 0 0 0 464334032.08684641 -343714692.22115898 0 -343714692.22115898 274841703.12635803 0 0 0 0 155610939.94546127 83052823.964645386 0 83052823.964645386 94849586.413284302 0 0 0 0 29798544.379896045 -97878167.015773773 0 -97878167.015773773 159046335.06793213 0 0 0 0 48741209.757851124 -103582901.96854401 0 -103582901.96854401 -73355025.211853027 0 0 0 0 -75677267.198040307 1033816.7426925153 0 1033816.7426925153 203547778.19348145 0 0 0 0 -24811186.353783637 -27125225.187562943 0 -27125225.187562943 201749043.1815033 0 0 0 0 -29316103.466305256 -104905388.11090088 0 -104905388.11090088 240002116.96423721 0 0 0 0 -13728456.020656586 -78299455.550506592 0 -78299455.550506592 234992753.18798828 0 0 0 0 -75803915.63195011 -28937876.389576584 0 -28937876.389576584 306790195.74160767 0 0 0 0 68245534.489355564 -11689355.675872803 0 -11689355.675872803 125183377.09708405 0 0 0 0 261504264.04567242 217131470.30923462 0 217131470.30923462 395661611.05853271 0 0 0 0 376309940.51372945 -103108263.38565445 0 -103108263.38565445 148265881.70983887 0 0 0 0 41737304.278142929 42654737.129333496 0 42654737.129333496 470206672.57342529 0 0 0 0 140152.28805452195 466886.43539172504 0 466886.43539172504 575300.3873860389 0 0 0 0 221825407.81730843 -182525227.50721741 0 -182525227.50721741 176192359.15722656 0 0 0 0 363104830.48217851 240816426.33142853 0 240816426.33142853 192359641.85073853 0 0 0 0 -19738.31429824105 308082.63825369626 0 308082.63825369626 269476.64494837821 0 0 0 0 68398596.291110516 -166114677.19419861 0 -166114677.19419861 45063990.593811035 0 0 0 0 -4214694.6339359283 -57217080.604354858 0 -57217080.604354858 267928268.36114502 0 0 0 0 -107925975.0147028 -170803163.22583008 0 -170803163.22583008 658241749.63095093 0 0 0 0 -26082780.554519653 -88160068.134124756 0 -88160068.134124756 266719893.16042519 0 0 0 0 -2396365.8400483131 5739990.442276001 0 5739990.442276001 15204411.74316597 0 0 0 0 -1246324.9002070413 1168800.7628811439 0 1168800.7628811439 3942821.8368276209 0 0 0 0 -47109772.845190287 -5419844.4940757751 0 -5419844.4940757751 53679250.963363647 0 0 0 0 4867092.8936344385 10710961.630958557 0 10710961.630958557 44458745.025642395 0 0 0 0 6682434.8587098941 -8612017.8723640442 0 -8612017.8723640442 99068497.033096313 0 0 0 0 9449724.1029381454 -47763107.570623398 0 -47763107.570623398 107837583.41363525 0 0 0 0 -30691634.292820692 -48819440.820556641 0 -48819440.820556641 123808686.0473175 0 0 0 0 -235161179.8339293 -135363100.26297379 0 -135363100.26297379 86464162.941223145 0 0 0 0 -25549620.796550751 -38238681.856273651 0 -38238681.856273651 26868267.541557312 0 0 0 0 40602.36202494707 -5694718.5673404858 0 -5694718.5673404858 22862798.750060901 0 0 0 0 -57040338.975930691 30576244.588882446 0 30576244.588882446 19472611.322296143 0 0 0 0 -146806110.96686494 35699325.511379242 0 35699325.511379242 143862410.69842529 0 0 0 0 41349515.345963001 -29046486.659042358 0 -29046486.659042358 118639404.25259399 0 0 0 0 104460639.32348585 124177151.31299591 0 124177151.31299591 40373157.873245239 0 0 0 0 1127191.0923973084 1658800.91383221 0 1658800.91383221 -32599.031662993133 0 0 0 0 32280805.477303982 138161383.51245117 0 138161383.51245117 161260793.85948944 0 0 0 0 120033149.0468843 76937134.287376404 0 76937134.287376404 82979123.970077515 0 0 0 0 -44236719.907547474 9672488.9051322937 0 9672488.9051322937 53591042.918945312 0 0 0 0 -80060720.061497808 36506407.21672821 0 36506407.21672821 74790569.999252319 0 0 0 0 -96961882.933481693 12641169.111198425 0 12641169.111198425 37418272.089370728 0 0 0 0 -86372122.371261835 47420403.785881042 0 47420403.785881042 56158051.730400085 0 0 0 0 -26404542.467879891 66952484.353939056 0 66952484.353939056 55418693.051727295 0 0 0 0 -61518154.414261878 13879541.031425476 0 13879541.031425476 51113911.957794189 0 0 0 0 93486567.714512825 38581762.133224487 0 38581762.133224487 20022412.816238403 0 0 0 0 204456.36280469573 3901055.6662545837 0 3901055.6662545837 1312444.080019325 0 0 0 0 -144953.90180373192 4001290.0091590881 0 4001290.0091590881 5979247.7942962646 0 0 0 0 -1215701.6966538429 1796034.6344718933 0 1796034.6344718933 4050138.7909851074 0 0 0 0 -738398.41253225785 2123289.0855420046 0 2123289.0855420046 11299200.515100909 0 0 0 0 -1894766.1378141046 10125946.698051453 0 10125946.698051453 47418300.303436279 0 0 0 0 20579537.862882867 24317956.223473549 0 24317956.223473549 46757573.061187744 0 0 0 0 1193902.9959631155 4411094.1744610742 0 4411094.1744610742 11021303.149811698 0 0 0 0 26374103.896532536 70962333.394447327 0 70962333.394447327 42590125.474578857 0 0 0 0 767225.77799987793 3552866.2016906738 0 3552866.2016906738 4100600.8350524902 0 0 0 0 -1413890.0293443203 -6843995.2820968628 0 -6843995.2820968628 4371368.6659088135 0 0 0 0 -13235743.2140522 15272016.148162842 0 15272016.148162842 8052155.9131622314 0 0 0 0 -1699419.3883785754 2345092.5322294394 0 2345092.5322294394 6647903.0206700563 0 0 0 0 7368086.5285482407 11502717.813293457 0 11502717.813293457 -1328520.7298431396 0 0 0 0 -611101.26817035675 122642.76048278809 0 122642.76048278809 8089011.9004421234 0 0 0 0 5564525.0868647099 -658180.19108581543 0 -658180.19108581543 -6142896.8906097412 0 0 0 0 20973766.575762033 22614394.021339417 0 22614394.021339417 14886332.99082756 0 0 0 0 13975279.377434433 295770.19637298584 0 295770.19637298584 -4778086.7730865479 0 0 0 0 109395693.42393243 -20713820.803894043 0 -20713820.803894043 50516693.78238678 0 0 0 0 -741217.44852399209 -116070.69181060791 0 -116070.69181060791 1954151.8900146484 0 0 0 0 -136350.51468602114 -36818.36841109395 0 -36818.36841109395 169264.08173434809 0 0 0 0 -1815.213372182483 -9166.5587039254606 0 -9166.5587039254606 -8454.137897208333 0 0 0 0 49840.434515042689 173944.97958469763 0 173944.97958469763 63486.357017107308 0 0 0 0 -4422253.9253066014 4951978.7282028198 0 4951978.7282028198 4240248.7656860352 0 0 0 0 -3584793.9310596585 -1659956.8134307861 0 -1659956.8134307861 751205.88377761841 0 0 0 0 291164.41130722367 478754.50509892404 0 478754.50509892404 -482771.05080252886 0 0 0 0 -223095.94568003714 1263688.5694885254 0 1263688.5694885254 654373.62675476074 0 0 0 0 -1308483.620349701 1852021.1301879883 0 1852021.1301879883 929194.41088867188 0 0 0 0 -658300.01564639644 -2279330.1488418579 0 -2279330.1488418579 -353076.9772644043 0 0 0 0 -677983.70713466313 1973055.066619873 0 1973055.066619873 -451673.1701965332 0 0 0 0 -1174872.5871028812 1618144.7163543701 0 1618144.7163543701 1299439.4037475586 0 0 0 0 7684.8674186879816 -39999.812597058713 0 -39999.812597058713 112933.5543178767 0 0 0 0 -311491.12690933421 -730805.85992431641 0 -730805.85992431641 4143875.9092941284 0 0 0 0 337120.75065776135 -25164702.89182663 0 -25164702.89182663 111888062.04922485 0 0 0 0 -16228419.430565022 -100984774.76211166 0 -100984774.76211166 248251673.52800751 0 0 0 0 148780235.57590827 -181921038.69321442 0 -181921038.69321442 236472846.92898369 0 0 0 0 -188341.78696040236 -76353150.493646994 0 -76353150.493646994 523191432.7966156 0 0 0 0 36013151.719747484 -108305789.37552643 0 -108305789.37552643 374394634.39128113 0 0 0 0 207436244.08472979 -386282501.59059906 0 -386282501.59059906 451507786.60255432 0 0 0 0 245830765.05026209 -192201371.55313301 0 -192201371.55313301 189833864.0796051 0 0 0 0 23178689.632314324 9657337.0763549805 0 9657337.0763549805 191163374.01821458 0 0 0 0 9741682.3984096125 -2853780.4829688072 0 -2853780.4829688072 179578840.63580322 0 0 0 0 11221738.486639738 11161737.947143555 0 11161737.947143555 109560421.28865051 0 0 0 0 13890574.432281971 -37017163.436645508 0 -37017163.436645508 97108215.329711914 0 0 0 0 31993840.441045105 29281688.37612915 0 29281688.37612915 144955781.69422913 0 0 0 0 -82240.875599709369 66416.417317923158 0 66416.417317923158 132852.98344603926 0 0 0 0 -32306741.548632264 -82670287.808807373 0 -82670287.808807373 177296652.87416077 0 0 0 0 -56987220.008853078 -10898624.511535645 0 -10898624.511535645 117475716.8012085 0 0 0 0 152361962.7891596 -80981894.246635437 0 -80981894.246635437 162097242.18157959 0 0 0 0 2027601.3207682013 2286108.9203388169 0 2286108.9203388169 4911155.6166109592 0 0 0 0 273300112.44970363 237564971.69869184 0 237564971.69869184 96079575.981193542 0 0 0 0 -203508972.79925948 169951486.9900322 0 169951486.9900322 11818164.407024384 0 0 0 0 109000752.23398106 159841660.35193992 0 159841660.35193992 -147589828.17818451 0 0 0 0 133152743.94196704 -74115667.259918213 0 -74115667.259918213 -216653973.27656555 0 0 0 0 66827071.926680297 -38166150.343204498 0 -38166150.343204498 1192209709.4631882 0 0 0 0 309443935.74664688 -36429100.130525589 0 -36429100.130525589 -194562343.97492981 0 0 0 0 670754.99785860314 481147.14065959305 0 481147.14065959305 2017585.9055788293 0 0 0 0 -83597260.061504424 -636974167.98455429 0 -636974167.98455429 1161364941.8810501 0 0 0 0 850723832.49998212 753444919.49983883 0 753444919.49983883 934279800.40182495 0 0 0 0 389651964.18624061 -169565231.19712973 0 -169565231.19712973 2681931108.3884201 0 0 0 0 307752693.41538185 -708254510.76717043 0 -708254510.76717043 2339781522.0226212 0 0 0 0 -369096087.6839481 -103303928.46618652 0 -103303928.46618652 3465427443.6681099 0 0 0 0 -287103833.61819386 -93152350.593658447 0 -93152350.593658447 2697889907.7186127 0 0 0 0 -50965130.575553238 -173338072.94019508 0 -173338072.94019508 1232095501.0677261 0 0 0 0 -48796540.425266296 289374313.87292862 0 289374313.87292862 1393333910.2692261 0 0 0 0 -258820168.11566114 131046974.4006176 0 131046974.4006176 2767771132.7342224 0 0 0 0 -264458835.3800559 286445168.16001892 0 286445168.16001892 3464763813.4550781 0 0 0 0 -313977887.35525066 55226746.546154022 0 55226746.546154022 2787421960.4320755 0 0 0 0 634370811.6712743 313193734.26835632 0 313193734.26835632 2956660536.129715 0 0 0 0 406146485.49283385 896535519.46647263 0 896535519.46647263 626205243.06954193 0 0 0 0 -198790576.05807072 525712663.38754272 0 525712663.38754272 3076268278.3804512 0 0 0 0 -37866509.017727852 -59434821.764289856 0 -59434821.764289856 671664273.19377899 0 0 0 0 56418835.126931369 -152826892.80260468 0 -152826892.80260468 49912576.354217529 0 0 0 0 -3309944.6029906273 -56926256.833366394 0 -56926256.833366394 404370903.45904922 0 0 0 0 287548195.9073863 16501249.746738434 0 16501249.746738434 333991304.46831512 0 0 0 0 240362964.82601833 -82929929.693275452 0 -82929929.693275452 327774289.15403748 0 0 0 0 -39769.816791892052 211367069.27471161 0 211367069.27471161 1417741451.9493179 0 0 0 0 30079296.751886576 234160867.35651779 0 234160867.35651779 113425769.40132523 0 0 0 0 39743982.788885348 -284625063.03820962 0 -284625063.03820962 -26632323.545166016 0 0 0 0 101277687.21418762 -31608307.077438354 0 -31608307.077438354 -325008380.621521 0 0 0 0 92997144.369719863 -97543945.70639801 0 -97543945.70639801 -97049435.460746765 0 0 0 0 -61177905.0712502 -52402537.528831482 0 -52402537.528831482 -18258310.258640289 0 0 0 0 153324.64491843712 344528.49210531265 0 344528.49210531265 93618.584488876164 0 0 0 0 2374002.6154475212 23135665.450138092 0 23135665.450138092 -10460281.051278114 0 0 0 0 -166191642.92455316 -178617656.57292557 0 -178617656.57292557 72547356.827606201 0 0 0 0 105179450.23915207 -94009285.968788147 0 -94009285.968788147 74963528.165916443 0 0 0 0 1134483.8761991714 -383313.64416046254 0 -383313.64416046254 1121147.6468829587 0 0 0 0 72056273.251371861 -36244503.303724289 0 -36244503.303724289 88269636.462997437 0 0 0 0 24742843.326900482 -169867762.80401611 0 -169867762.80401611 85049168.104125977 0 0 0 0 524425.41419210529 191580.33209672011 0 191580.33209672011 1095990.736131385 0 0 0 0 -74990374.958497286 -33002697.2356987 0 -33002697.2356987 54889922.777160645 0 0 0 0 29119373.642738342 -32298495.286842346 0 -32298495.286842346 152707119.8583374 0 0 0 0 52241068.563697338 -89816426.908321381 0 -89816426.908321381 125253708.21652222 0 0 0 0 -104488006.66063404 -32497956.182079315 0 -32497956.182079315 164135130.84591675 0 0 0 0 -35781310.940859795 -126466764.25688171 0 -126466764.25688171 165351165.22494507 0 0 0 0 -123623507.67594576 27371975.735481262 0 27371975.735481262 313516168.52736664 0 0 0 0 -126286863.96353137 84802929.107746124 0 84802929.107746124 242926740.22012329 0 0 0 0 -95665751.5331738 -106421769.99250793 0 -106421769.99250793 361126488.11505127 0 0 0 0 -58621176.770623207 -78357796.031105042 0 -78357796.031105042 -11531129.871444702 0 0 0 0 -78959756.453441143 98056009.571151733 0 98056009.571151733 320948044.18872833 0 0 0 0 235559732.84871149 319299540.29078293 0 319299540.29078293 -524594566.93980408 0 0 0 0 1128814.9087928394 1045494.1716669984 0 1045494.1716669984 1840665.7223644368 0 0 0 0 14179283.35931468 -267530518.32817841 0 -267530518.32817841 4959429542.2071953 0 0 0 0 -114027331.16628265 -401545691.93144989 0 -401545691.93144989 93008791.324951172 0 0 0 0 294604599.76655215 -84637279.226379395 0 -84637279.226379395 3465471941.2185359 0 0 0 0 497919739.26002812 216171472.83048248 0 216171472.83048248 3726333465.6764069 0 0 0 0 427539634.73647565 404063306.94418144 0 404063306.94418144 4448243774.7325897 0 0 0 0 94378721.498909205 -588478743.1361618 0 -588478743.1361618 4229799328.969574 0 0 0 0 94846932.665221021 -526401683.35025549 0 -526401683.35025549 3292144651.0515366 0 0 0 0 -30935042.816954851 56720864.398395538 0 56720864.398395538 3512514460.7617798 0 0 0 0 2408686.997851151 3122569.7790064588 0 3122569.7790064588 4930431.5260690395 0 0 0 0 -16226499.672337562 -266727223.3722229 0 -266727223.3722229 3055386873.0774384 0 0 0 0 2000954.4207954407 82414708.072681427 0 82414708.072681427 -238333364.15969849 0 0 0 0 -237415535.22475433 187498251.95309448 0 187498251.95309448 668120629.87989807 0 0 0 0 -133421670.70035028 173073660.46265411 0 173073660.46265411 87960556.692228317 0 0 0 0 -90355533.342583477 -424916778.53652382 0 -424916778.53652382 2753536901.005722 0 0 0 0 -259457243.78930455 -124829458.89974213 0 -124829458.89974213 3464366813.666748 0 0 0 0 -478135184.8311609 324773947.93491364 0 324773947.93491364 2942870538.3106766 0 0 0 0 -56854624.028345406 89785512.085006714 0 89785512.085006714 2074338865.934021 0 0 0 0 2388056.4258622769 4195755.1870849505 0 4195755.1870849505 7976366.8175690081 0 0 0 0 -84931762.844899416 -105761455.54498482 0 -105761455.54498482 132406626.81010437 0 0 0 0 302044761.97525406 146526553.36038971 0 146526553.36038971 -98233085.155414581 0 0 0 0 112590710.29808235 -103382330.87090302 0 -103382330.87090302 40293569.726928711 0 0 0 0 -222946191.93212891 60492318.008483887 0 60492318.008483887 319482629.80834961 0 0 0 0 -159112062.46585464 -98350353.878128052 0 -98350353.878128052 106138917.78736877 0 0 0 0 -55291950.786697388 33756540.442977905 0 33756540.442977905 193626055.44985199 0 0 0 0 27808971.681294441 32164431.647506714 0 32164431.647506714 150334806.26553345 0 0 0 0 126328493.59075165 -1612527.7775878906 0 -1612527.7775878906 -4252236.433380127 0 0 0 0 -41448116.95138073 199218435.02134705 0 199218435.02134705 295168370.87704754 0 0 0 0 500276.30792236794 -117997.73337948509 0 -117997.73337948509 263758.33664246649 0 0 0 0 26979082.071598053 13585067.694488525 0 13585067.694488525 -5755589.5741424561 0 0 0 0 21302847.695017815 6290143.4494934082 0 6290143.4494934082 79902003.350234985 0 0 0 0 -14143040.989697456 17880906.972465515 0 17880906.972465515 18277785.210968018 0 0 0 0 6593085.3092861176 -23365790.265518188 0 -23365790.265518188 20507583.18081665 0 0 0 0 9964224.9375162125 -3397574.1764907837 0 -3397574.1764907837 15249896.30758667 0 0 0 0 15281016.476614952 2167221.6002960205 0 2167221.6002960205 20940830.218521118 0 0 0 0 27349305.266545296 -4033743.1975631714 0 -4033743.1975631714 5999895.6215515137 0 0 0 0 12796956.522842407 -23253031.843299866 0 -23253031.843299866 2702349.7497329712 0 0 0 0 -2651781.4697341919 -69971861.685695648 0 -69971861.685695648 31372768.666992188 0 0 0 0 86453818.410199165 -22928357.979171753 0 -22928357.979171753 -1839512.887512207 0 0 0 0 -4075446.4450378418 -15591026.180225372 0 -15591026.180225372 6599948.5955200195 0 0 0 0 3008519.6317038536 -16812258.199951172 0 -16812258.199951172 2561725.4033050537 0 0 0 0 4313220.1228060722 -10334040.95129776 0 -10334040.95129776 1084015.7864990234 0 0 0 0 10757225.945741415 -3126033.7176094055 0 -3126033.7176094055 4268680.4212493896 0 0 0 0 19586618.609007835 -10780325.901161194 0 -10780325.901161194 469004.95327758789 0 0 0 0 11939847.897298336 -5585473.6863250732 0 -5585473.6863250732 -241495.51669311523 0 0 0 0 5267521.3657436371 884003.10721206665 0 884003.10721206665 1476419.6845092773 0 0 0 0 6201905.8529663086 -11508106.603874207 0 -11508106.603874207 855671.98613357544 0 0 0 0 2605068.6885442734 -10361653.852409363 0 -10361653.852409363 1300096.849105835 0 0 0 0 -2312157.7385911942 -6872145.9754905701 0 -6872145.9754905701 8258739.4922103882 0 0 0 0 3662786.9200344086 -6984233.6150588989 0 -6984233.6150588989 -660914.58201599121 0 0 0 0 18297.471509933472 -5967083.0334777832 0 -5967083.0334777832 -238946.26385116577 0 0 0 0 2577144.2991676331 -364082.79243087769 0 -364082.79243087769 2661409.765045166 0 0 0 0 -46604.361558665056 96066.259231649339 0 96066.259231649339 224145.32577980869 0 0 0 0 -280498.2618265152 -4498924.9509620667 0 -4498924.9509620667 3399809.0631103516 0 0 0 0 1023328.2221412659 -6506761.0074157715 0 -6506761.0074157715 720576.09588623047 0 0 0 0 -7158547.2655258179 -17160494.234451294 0 -17160494.234451294 3755948.4549484253 0 0 0 0 -824027.40098300844 -4014432.2232986242 0 -4014432.2232986242 22790463.691415951 0 0 0 0 -3850194.3512501717 -9817280.7903289795 0 -9817280.7903289795 4586882.2227935791 0 0 0 0 -58476.306871416629 356834.15438824892 0 356834.15438824892 3774737.2946389802 0 0 0 0 -20996938.632737756 -21065944.523681641 0 -21065944.523681641 23336488.215070724 0 0 0 0 1131913.4101032426 -3887491.0369270891 0 -3887491.0369270891 12930510.170749165 0 0 0 0 -6037027.091989398 -5018299.5532455444 0 -5018299.5532455444 32590203.084686279 0 0 0 0 4456526.9178340733 4674135.68019104 0 4674135.68019104 31717956.788475037 0 0 0 0 2546555.6633968088 5622924.7563767098 0 5622924.7563767098 14206530.213086801 0 0 0 0 313285.43559622765 5043338.6229095459 0 5043338.6229095459 41948296.082687378 0 0 0 0 -3514210.5532894135 -2772447.072063446 0 -2772447.072063446 5857504.6980056763 0 0 0 0 -1917077.0187125206 -1284254.1298313141 0 -1284254.1298313141 9010971.637298584 0 0 0 0 -1502598.4713011009 -2135946.135526442 0 -2135946.135526442 7130829.5978404582 0 0 0 0 -2647768.705915451 3587914.8695068359 0 3587914.8695068359 4717888.3325195312 0 0 0 0 -2132875.8031666121 869965.71472170204 0 869965.71472170204 17506406.826734357 0 0 0 0 -3433199.3614952564 1084608.6103515625 0 1084608.6103515625 2896362.4701080322 0 0 0 0 -1078678.0485941903 919678.99102332816 0 919678.99102332816 21553960.634313535 0 0 0 0 -4659995.895647049 -1554199.9502258301 0 -1554199.9502258301 4758867.7559814453 0 0 0 0 -1493895.4129166445 -56503.428888166323 0 -56503.428888166323 17689323.425423361 0 0 0 0 -1154234.5013203896 -1440435.7444499359 0 -1440435.7444499359 15383358.629516505 0 0 0 0 -3186438.9758138657 -1186553.1481533051 0 -1186553.1481533051 8301576.5468444824 0 0 0 0 -586157.63848401373 342192.2530470565 0 342192.2530470565 12179956.441074008 0 0 0 0 -431427.12346982956 268495.15742111206 0 268495.15742111206 8818272.2305831909 0 0 0 0 -1187630.3987379074 -1337194.0788345337 0 -1337194.0788345337 5487040.0225973129 0 0 0 0 -783749.03217073064 664874.47433372959 0 664874.47433372959 15471746.289052771 0 0 0 0 -2213394.5629298687 -781123.78448486328 0 -781123.78448486328 9468853.1106796265 0 0 0 0 -1066155.4719164781 -433033.19574040174 0 -433033.19574040174 13126328.865361929 0 0 0 0 -2460244.9190540314 -1024874.7904205322 0 -1024874.7904205322 10040361.068634033 0 0 0 0 -1407030.952709198 1097249.8045196533 0 1097249.8045196533 14211330.763829708 0 0 0 0 -404099.96820497513 1078392.9986553192 0 1078392.9986553192 9231883.9677886963 0 0 0 0 253632.91948938603 1949013.2188143469 0 1949013.2188143469 8770670.5488022491 0 0 0 0 -93319.627764940262 -68309.985272407532 0 -68309.985272407532 6895013.2337722778 0 0 0 0 619468.85905999132 -32836.565526854247 0 -32836.565526854247 5622820.2073464319 0 0 0 0 270686.95678628702 52051.95764773339 0 52051.95764773339 8519808.3401937205 0 0 0 0 764370.51882457733 -341583.74318313599 0 -341583.74318313599 5146837.055141449 0 0 0 0 1342433.3269805908 -468514.3493347168 0 -468514.3493347168 3764098.0147209167 0 0 0 0 657216.43373638578 -914241.74993696064 0 -914241.74993696064 5985476.178108817 0 0 0 0 1322288.9611532688 -510037.23631095886 0 -510037.23631095886 3920606.743850708 0 0 0 0 -1358828.1746196747 -3677462.7690582275 0 -3677462.7690582275 2241449.7542114258 0 0 0 0 -618310.35214519501 -2658925.7299690247 0 -2658925.7299690247 3086633.262857914 0 0 0 0 1147170.4585958775 -1786557.5940556861 0 -1786557.5940556861 2226001.8192015514 0 0 0 0 1061613.6357145309 -842644.71911239624 0 -842644.71911239624 4074960.8232116699 0 0 0 0 -355042.68097590189 -5452832.0016159201 0 -5452832.0016159201 2927936.1808862388 0 0 0 0 -128346.50680510211 -1207890.2016198351 0 -1207890.2016198351 2143009.233131662 0 0 0 0 1050614.4207759507 13989.863171093166 0 13989.863171093166 1459439.6662403643 0 0 0 0 -827032.36322402954 -515624.32615661621 0 -515624.32615661621 663228.66166687012 0 0 0 0 376337.71378422156 -894393.24340131506 0 -894393.24340131506 4925492.10259437 0 0 0 0 -486413.3719959259 5850553.0554351807 0 5850553.0554351807 -1855451.4974708557 0 0 0 0 -301548.19338679314 -650862.72628974915 0 -650862.72628974915 2726059.415802002 0 0 0 0 -462498.46808099747 -952718.90896987915 0 -952718.90896987915 2764335.3581390381 0 0 0 0 -37033.538982769474 241723.30474361032 0 241723.30474361032 260051.54770642519 0 0 0 0 -1213127.5426139832 1354965.1912384033 0 1354965.1912384033 2060595.1245574951 0 0 0 0 910836.76369332604 -1634293.8622357165 0 -1634293.8622357165 2960585.8393229395 0 0 0 0 1419672.6829209579 -655591.48948543891 0 -655591.48948543891 3697692.3347723857 0 0 0 0 1403279.0951557055 417819.16656319797 0 417819.16656319797 -607361.5842526406 0 0 0 0 8847134.1287732124 -10203905.857059479 0 -10203905.857059479 -14211649.413074493 0 0 0 0 4185231.3425473571 4451952.3985671997 0 4451952.3985671997 -2312854.7713317871 0 0 0 0 2428427.1893421826 -1369219.3421758339 0 -1369219.3421758339 4888747.6885732636 0 0 0 0 2970998.4206810244 48151.346703294665 0 48151.346703294665 3269935.7661304334 0 0 0 0 -8640902.7373408079 -44847194.819591522 0 -44847194.819591522 -121475448.9513092 0 0 0 0 370331.0395526886 198135.15396118164 0 198135.15396118164 1326473.0759468079 0 0 0 0 -420728.71669256687 -5166116.1379051208 0 -5166116.1379051208 -9932776.4546508789 0 0 0 0 -32196528.954076886 97295584.690475464 0 97295584.690475464 -153143690.81354523 0 0 0 0 4479917.138615448 2042040.3505689837 0 2042040.3505689837 4199937.9999023108 0 0 0 0 2419869.6036958694 1588095.865234375 0 1588095.865234375 5656059.8798141479 0 0 0 0 989474.92859459016 731814.69919900061 0 731814.69919900061 -625126.55289924145 0 0 0 0 -37675909.624799207 -81509230.708567142 0 -81509230.708567142 -151881235.67410278 0 0 0 0 1796250.4543123245 1282176.0666122437 0 1282176.0666122437 6825444.9633102417 0 0 0 0 1708906.7812211779 499315.49451312667 0 499315.49451312667 3418831.6772205532 0 0 0 0 1909144.4974269867 1581406.7691574097 0 1581406.7691574097 7250129.938583374 0 0 0 0 578509.36890697479 1025440.6188354492 0 1025440.6188354492 1769268.1809692383 0 0 0 0 431417.21921253204 223109.25783157349 0 223109.25783157349 1321678.9160461426 0 0 0 0 1125487.5991674261 1381686.855287835 0 1381686.855287835 2531647.7404180393 0 0 0 0 891918.18177032471 251410.02389144897 0 251410.02389144897 4370706.7330818176 0 0 0 0 1494422.5423073922 891122.35880123451 0 891122.35880123451 2821009.3703255802 0 0 0 0 1437682.7859342052 865717.31961295754 0 865717.31961295754 3245127.2353930995 0 0 0 0 1941422.5766999694 847840.44201956876 0 847840.44201956876 1184146.4134763554 0 0 0 0 313367.23764419556 308092.47882843018 0 308092.47882843018 942758.05333328247 0 0 0 0 166561.7453327179 -35691.200408935547 0 -35691.200408935547 6768897.0320739746 0 0 0 0 1000017.9225616455 715941.73184204102 0 715941.73184204102 811005.7369260788 0 0 0 0 -528203.7257600571 407030.37809676304 0 407030.37809676304 9490094.7544057034 0 0 0 0 -940618.81936073303 -305092.82877349854 0 -305092.82877349854 969509.22796630859 0 0 0 0 1316145.9896467701 669439.12502459437 0 669439.12502459437 3452533.0003485009 0 0 0 0 1272123.7675126782 -203000.59904469829 0 -203000.59904469829 5768479.6522741988 0 0 0 0 -904134.57187620364 940549.88629817963 0 940549.88629817963 17216515.812553603 0 0 0 0 706136.03531741258 -507769.64326179028 0 -507769.64326179028 9256812.7728459481 0 0 0 0 -552060.20002174377 4186685.8610687256 0 4186685.8610687256 9159848.8381347656 0 0 0 0 -1566829.7556228638 1901906.0720901489 0 1901906.0720901489 10217929.939445496 0 0 0 0 717462.37852287292 5730500.4576339722 0 5730500.4576339722 8197686.3078308105 0 0 0 0 2255395.9116519727 5241184.2822880959 0 5241184.2822880959 4815726.7828196213 0 0 0 0 -448621.09027526714 513484.03461081162 0 513484.03461081162 599556.3292465508 0 0 0 0 80498.096878051758 -660411.2373046875 0 -660411.2373046875 7716803.6252441406 0 0 0 0 -2879316.4156036377 1435722.5148086548 0 1435722.5148086548 2065363.1948242188 0 0 0 0 142619.44071795 3453356.2672365718 0 3453356.2672365718 5539063.9044401869 0 0 0 0 -367754.0738119313 943685.45264244266 0 943685.45264244266 4634827.1823726185 0 0 0 0 -698717.47266715672 964815.5206797868 0 964815.5206797868 17429322.558074564 0 0 0 0 -401677.70719528198 5695036.2646560669 0 5695036.2646560669 15226619.107498169 0 0 0 0 -1058742.2455308083 1948998.9101887848 0 1948998.9101887848 14021576.812208986 0 0 0 0 5233243.9492359161 -900217.26246643066 0 -900217.26246643066 7367229.9847488403 0 0 0 0 -6458732.2739648819 -2960824.5076637268 0 -2960824.5076637268 -4890490.684753418 0 0 0 0 -18996.993129730225 11575467.616569519 0 11575467.616569519 25752476.888427734 0 0 0 0 -1808599.3239364624 14958266.328032494 0 14958266.328032494 23594878.082336426 0 0 0 0 -805428.22120308084 1378786.1777053867 0 1378786.1777053867 1459046.7718045376 0 0 0 0 -12591199.659891129 -4945963.7306632996 0 -4945963.7306632996 16348987.867889404 0 0 0 0 -9893905.2969093323 -943199.51266479492 0 -943199.51266479492 19900392.893955231 0 0 0 0 -7274203.2296943665 -5384936.3739013672 0 -5384936.3739013672 25065401.004760742 0 0 0 0 2156742.9049987793 -7916856.4281921387 0 -7916856.4281921387 27860315.519828796 0 0 0 0 -203711.07778739929 -3279395.5231018066 0 -3279395.5231018066 18749960.053634644 0 0 0 0 6363465.733297348 13964387.906143188 0 13964387.906143188 -1549737.2935409546 0 0 0 0 -5853018.3038024902 2086334.4286956787 0 2086334.4286956787 44592966.943328857 0 0 0 0 1059329.6284292731 2330383.4629959315 0 2330383.4629959315 9782078.7087737676 0 0 0 0 1255593.8199691772 1250177.1564788818 0 1250177.1564788818 10579673.486122131 0 0 0 0 -5951931.8018102646 5534122.2406463623 0 5534122.2406463623 18547393.029663086 0 0 0 0 -7206508.2574090958 2308537.9129142761 0 2308537.9129142761 13890558.4688797 0 0 0 0 -7431347.1424179077 3616983.6408462524 0 3616983.6408462524 10708827.586612701 0 0 0 0 1458056.0947799683 -2545736.5866699219 0 -2545736.5866699219 6737153.3645629883 0 0 0 0 -565281.28940963745 4371271.1318359375 0 4371271.1318359375 13192695.451950073 0 0 0 0 3640496.4782299385 1548933.9620694038 0 1548933.9620694038 2627360.457277678 0 0 0 0 -186153.65746033425 49128.039239866659 0 49128.039239866659 378646.87729885802 0 0 0 0 738496.74633598328 1418600.8063735962 0 1418600.8063735962 10543611.134391785 0 0 0 0 -1215197.2228765488 11592398.513594627 0 11592398.513594627 14863371.64691925 0 0 0 0 6119756.127679944 -14070420.47361958 0 -14070420.47361958 -3646302.3320617676 0 0 0 0 584775.56512168795 2308829.838146437 0 2308829.838146437 9816749.0963352285 0 0 0 0 1190112.0033817291 2915069.4603729248 0 2915069.4603729248 9136675.782654047 0 0 0 0 11022655.898433685 35291270.039718628 0 35291270.039718628 26687513.594390869 0 0 0 0 7825509.2146492004 5698179.7619094849 0 5698179.7619094849 -5916473.2653198242 0 0 0 0 -436770.43413179344 2198353.1243306249 0 2198353.1243306249 882969.77645316347 0 0 0 0 4552536.8774013519 -4979892.7734909058 0 -4979892.7734909058 19387809.618759155 0 0 0 0 -658045.82425693702 2426618.3372996505 0 2426618.3372996505 11624125.875651265 0 0 0 0 -5774155.8559970856 6021505.7503433228 0 6021505.7503433228 23586776.225513458 0 0 0 0 -3177607.2831494398 -293480.05705343001 0 -293480.05705343001 6141211.2959625022 0 0 0 0 2304727.83359499 6982595.0640922403 0 6982595.0640922403 6527597.1738144048 0 0 0 0 -21050623.133226395 13267586.986839294 0 13267586.986839294 39340347.410812378 0 0 0 0 -24873218.099928856 20416680.417993546 0 20416680.417993546 32077842.235881805 0 0 0 0 -6801324.1480789185 13123049.468849182 0 13123049.468849182 -4220707.2126998901 0 0 0 0 153745.96412658691 -12526456.105392456 0 -12526456.105392456 -7464737.9477500916 0 0 0 0 -824804.21577614453 -151830.88013562188 0 -151830.88013562188 4757764.0039514462 0 0 0 0 3335553.9365081787 43345214.587371826 0 43345214.587371826 -55459109.813533783 0 0 0 0 10069266.472038269 26339080.458862305 0 26339080.458862305 14002318.621870041 0 0 0 0 3120648.2720348299 5085451.1546293572 0 5085451.1546293572 7141160.6309475526 0 0 0 0 1470018.6339497566 3757475.6409626007 0 3757475.6409626007 6872010.3332214355 0 0 0 0 1899828.9744930267 2642808.5427474976 0 2642808.5427474976 6816084.5341129303 0 0 0 0 -81425295.812604904 -3108174.5860881805 0 -3108174.5860881805 9348748.615272522 0 0 0 0 -95494738.410092354 -41326419.770183563 0 -41326419.770183563 42760998.585494995 0 0 0 0 506945.95248556836 2061447.9890709249 0 2061447.9890709249 352343.63230574876 0 0 0 0 -201838245.65746117 -7905566.7000617981 0 -7905566.7000617981 33390774.648880005 0 0 0 0 -555933.94406067766 -330103.75942333601 0 -330103.75942333601 441670.48115127161 0 0 0 0 2552646.8626070023 2026991.0288925171 0 2026991.0288925171 6683104.2823448181 0 0 0 0 1105638.5120363235 2592266.4724273682 0 2592266.4724273682 8304443.3343276978 0 0 0 0 1872900.823466897 1412345.3569555283 0 1412345.3569555283 7054267.2085113525 0 0 0 0 2465358.3933649063 2389234.9692935944 0 2389234.9692935944 5192766.2088317871 0 0 0 0 2750896.472328186 3105649.0121574402 0 3105649.0121574402 4089185.7612457275 0 0 0 0 3819836.7861507768 6514361.4353918405 0 6514361.4353918405 6083249.1257900894 0 0 0 0 4321501.1851304192 3205188.8168698791 0 3205188.8168698791 5126681.0973346932 0 0 0 0 2161940.9698829651 3246016.1353988647 0 3246016.1353988647 5501290.5035858154 0 0 0 0 -95765120.63712883 35703190.13334465 0 35703190.13334465 33960733.069213867 0 0 0 0 -447807267.55448055 -101115162.44556236 0 -101115162.44556236 246763206.26435852 0 0 0 0 -166586992.44708347 -17722450.161291122 0 -17722450.161291122 192948389.95877838 0 0 0 0 -310960542.66826439 -33176885.997554779 0 -33176885.997554779 232775031.28966522 0 0 0 0 -172067909.55219126 -7086686.0902194977 0 -7086686.0902194977 228991604.39646149 0 0 0 0 -417976559.76260948 49452713.319086075 0 49452713.319086075 305471586.0202179 0 0 0 0 28131694.32289505 23017269.59714222 0 23017269.59714222 25300081.597553253 0 0 0 0 -259754.50706352957 1530328.2608123198 0 1530328.2608123198 1183084.0939899366 0 0 0 0 -299660007.90220261 19143504.321201324 0 19143504.321201324 571456804.37663269 0 0 0 0 27590869.270656705 85451253.293427199 0 85451253.293427199 55126019.859306335 0 0 0 0 2659626.0709934235 8719854.2663106918 0 8719854.2663106918 -135843876.13199806 0 0 0 0 -2098609.1494282731 4713244.0664916979 0 4713244.0664916979 4000461.50847858 0 0 0 0 35829044.173942089 -23300482.261358261 0 -23300482.261358261 -132463687.13752556 0 0 0 0 -72988271.739312172 -24949159.810063362 0 -24949159.810063362 86793085.509872437 0 0 0 0 -2290182.6217108388 -282686.1970356144 0 -282686.1970356144 12278436.498228464 0 0 0 0 -55395824.668018341 -68759374.730899811 0 -68759374.730899811 -46713727.694620132 0 0 0 0 -106830.6755681131 226453.67515938915 0 226453.67515938915 416519.65524539258 0 0 0 0 -184880131.7903347 -72979228.920116425 0 -72979228.920116425 -140706309.59510803 0 0 0 0 -343863236.24549103 -175245165.58348656 0 -175245165.58348656 42521206.465026855 0 0 0 0 -325120526.67017174 -102506788.16013193 0 -102506788.16013193 167023575.92853546 0 0 0 0 -134609520.77479553 29681794.524810791 0 29681794.524810791 29658845.856021881 0 0 0 0 -106444533.73040533 -20458581.754845619 0 -20458581.754845619 99685531.077888489 0 0 0 0 -163349259.29772568 121992324.32906151 0 121992324.32906151 -31796369.425210953 0 0 0 0 -72146882.2418437 161680724.57463074 0 161680724.57463074 83339610.899711609 0 0 0 0 -135768956.81314802 79056788.322698593 0 79056788.322698593 15064504.294807434 0 0 0 0 -62868792.791172028 91588353.085025787 0 91588353.085025787 -124265715.03826904 0 0 0 0 -56044566.806522369 140492825.22666168 0 140492825.22666168 -69402167.195224762 0 0 0 0 -127297732.63312531 124715755.10166931 0 124715755.10166931 25424767.49170208 0 0 0 0 -1149449.4166790987 2878894.5281676333 0 2878894.5281676333 9447507.2009417526 0 0 0 0 -1729185.3020267487 4967156.680305481 0 4967156.680305481 189988.19107031822 0 0 0 0 -931182.92731746216 7481877.4443576252 0 7481877.4443576252 4868659.7651407868 0 0 0 0 14482745.009296417 -6573868.0568504333 0 -6573868.0568504333 -12834327.423995972 0 0 0 0 479866.43602548726 5950072.6512608565 0 5950072.6512608565 4321073.7117297631 0 0 0 0 -147732767.02600574 65080670.83719492 0 65080670.83719492 -33858798.089046478 0 0 0 0 -203173483.49980116 76970405.511489868 0 76970405.511489868 15986689.493873596 0 0 0 0 8887867.6659417152 32310398.610630512 0 32310398.610630512 6465426.86693573 0 0 0 0 -847628.8524474958 6058098.395207406 0 6058098.395207406 3877743.1253482308 0 0 0 0 -866871.24113464355 1699985.8790168762 0 1699985.8790168762 7773059.3340187073 0 0 0 0 -433160.91843026085 -715162.15343863331 0 -715162.15343863331 819758.2123019807 0 0 0 0 -4466805.295987606 4597270.0658397675 0 4597270.0658397675 8092054.3178768158 0 0 0 0 -716126.60517563159 4420873.4885260146 0 4420873.4885260146 6970753.3258673549 0 0 0 0 -4427946.6350898743 1904328.5883102417 0 1904328.5883102417 9451917.5327978134 0 0 0 0 -3842858.9837121964 4934366.5051403046 0 4934366.5051403046 5184145.0669021606 0 0 0 0 -4786038.0826950073 2270627.7173728943 0 2270627.7173728943 5454133.7682259083 0 0 0 0 -3124236.6299133301 1362837.581703186 0 1362837.581703186 8274634.4497308731 0 0 0 0 -1095319.2705554962 1617178.67137146 0 1617178.67137146 7016543.4247436523 0 0 0 0 -4137854.0536851883 563791.44309997559 0 563791.44309997559 7903859.5945739746 0 0 0 0 31163.623391333094 1741332.3264363455 0 1741332.3264363455 5965136.6927926391 0 0 0 0 -2548012.904545784 -342720.55759811401 0 -342720.55759811401 5260821.254989624 0 0 0 0 -332573.90214868123 4294135.6684816349 0 4294135.6684816349 12980635.426962357 0 0 0 0 -25930153.075570583 -5830340.6752967834 0 -5830340.6752967834 39570130.704437256 0 0 0 0 -12063620.440804601 7871135.3055882454 0 7871135.3055882454 15229199.908798218 0 0 0 0 -5599642.0490341187 3016529.6366462708 0 3016529.6366462708 5358744.9042772055 0 0 0 0 141549.31344552868 1082287.3051433824 0 1082287.3051433824 6324892.364872884 0 0 0 0 2527242.7394943237 10490731.744949341 0 10490731.744949341 13976642.872528076 0 0 0 0 -445418.09731674194 21355205.182144165 0 21355205.182144165 21386179.011981964 0 0 0 0 26021326.801695108 8957274.4590816498 0 8957274.4590816498 10063160.99609375 0 0 0 0 -666488.70984687959 4679053.0529625826 0 4679053.0529625826 12377904.780698039 0 0 0 0 -4653454.5200271606 4158640.5205802917 0 4158640.5205802917 4709707.397567749 0 0 0 0 283140.70159753785 6551723.2337700641 0 6551723.2337700641 8990340.4103409797 0 0 0 0 1252346.1526880069 4281135.9605178945 0 4281135.9605178945 14087457.667686306 0 0 0 0 5474276.0716972351 1108432.5610275269 0 1108432.5610275269 3877031.7748985291 0 0 0 0 -4428387.4727487564 -5482886.7554931641 0 -5482886.7554931641 15563380.030044556 0 0 0 0 -11847750.195692062 -7107652.5375156403 0 -7107652.5375156403 14231088.652626038 0 0 0 0 -9094193.4048309326 10176481.424049377 0 10176481.424049377 35894298.839702606 0 0 0 0 -4990377.14848225 4977227.3786510024 0 4977227.3786510024 20194800.701888572 0 0 0 0 7466184.2267608643 9119612.365020752 0 9119612.365020752 30525185.980004311 0 0 0 0 -4878880.543844223 2840152.7452945709 0 2840152.7452945709 18753765.81470108 0 0 0 0 -10809851.709742069 27750299.072871685 0 27750299.072871685 50739041.174301147 0 0 0 0 -2794722.2237014771 -1276377.696937561 0 -1276377.696937561 21441727.241241455 0 0 0 0 -1903442.3772883648 4502819.7383148484 0 4502819.7383148484 18980572.185602464 0 0 0 0 1861555.6799341626 1698214.6188988015 0 1698214.6188988015 20618590.085706796 0 0 0 0 -3594163.2039852142 2065240.0675125122 0 2065240.0675125122 5763145.0066223145 0 0 0 0 -6812685.7960557938 2912884.9223136902 0 2912884.9223136902 11581979.075668335 0 0 0 0 -1722108.5948950397 -862346.99090317823 0 -862346.99090317823 23496690.749227129 0 0 0 0 -598577.07704925537 3938326.4060287476 0 3938326.4060287476 4863624.8083496094 0 0 0 0 1467484.1480878629 3292252.1478905054 0 3292252.1478905054 4493052.8227179758 0 0 0 0 -10584519.689471245 -2647759.6893615723 0 -2647759.6893615723 33739247.198669434 0 0 0 0 -935302.53750299639 -171442.92554040253 0 -171442.92554040253 20864340.550244998 0 0 0 0 -734669.26106758276 -312715.84400511533 0 -312715.84400511533 21607039.958425973 0 0 0 0 -779389.24096488953 -1510139.9339427948 0 -1510139.9339427948 23353472.385719299 0 0 0 0 519354.17275774479 -9332337.3051919937 0 -9332337.3051919937 45215633.373657227 0 0 0 0 14890734.83692193 40641797.285890579 0 40641797.285890579 33224405.316772461 0 0 0 0 -1532438.1817806698 2182649.6270060837 0 2182649.6270060837 5046409.0472243726 0 0 0 0 6570704.3233160973 4637680.1210021973 0 4637680.1210021973 22827039.029882431 0 0 0 0 -5045528.2337551117 29365283.868735313 0 29365283.868735313 54064017.31199646 0 0 0 0 -20260135.532324076 10965709.097558975 0 10965709.097558975 56689547.231765747 0 0 0 0 38503349.511716843 4238253.6430053711 0 4238253.6430053711 16343073.978889465 0 0 0 0 335188.51588126272 1512041.7778285127 0 1512041.7778285127 10166401.81118279 0 0 0 0 -10818407.014667034 -3020804.2977771759 0 -3020804.2977771759 15286075.971755981 0 0 0 0 6492067.1263895035 -6446381.2252960205 0 -6446381.2252960205 14681208.568222046 0 0 0 0 10709686.692066193 1043746.5721282959 0 1043746.5721282959 8189669.7680225372 0 0 0 0 -4320909.888437748 2609339.5111293793 0 2609339.5111293793 14238981.296066284 0 0 0 0 19499576.16418457 18151538.089073181 0 18151538.089073181 25415218.587890625 0 0 0 0 -2883049.6117992401 1016152.388168335 0 1016152.388168335 14626132.699047089 0 0 0 0 2684352.7240014076 22618116.554847717 0 22618116.554847717 49883961.332092285 0 0 0 0 -1591235.0054140091 12872777.706928253 0 12872777.706928253 35909265.041248322 0 0 0 0 -1613405.4783284664 12491180.177335739 0 12491180.177335739 31465665.246582031 0 0 0 0 -2164871.3984355927 6380806.4362792969 0 6380806.4362792969 32435811.285629272 0 0 0 0 1652516.6489715576 9195317.0283432007 0 9195317.0283432007 26023221.34324646 0 0 0 0 -398171.13794913329 975868.83307120577 0 975868.83307120577 1510023.4107451215 0 0 0 0 4940004.0996322632 17809261.733085632 0 17809261.733085632 33725447.014167786 0 0 0 0 469287.22177505493 -1414983.9865112305 0 -1414983.9865112305 13435926.490661621 0 0 0 0 5226484.7903785706 13736183.016983032 0 13736183.016983032 30014754.864318848 0 0 0 0 -3543690.4395182133 4845521.0285987854 0 4845521.0285987854 11073754.477462769 0 0 0 0 631478.77860866394 1201450.923466485 0 1201450.923466485 12989311.818796501 0 0 0 0 -2630967.1049766541 2789344.4795532227 0 2789344.4795532227 4323158.1305541992 0 0 0 0 -1642738.0161170959 4097599.8284912109 0 4097599.8284912109 10208884.57421875 0 0 0 0 -2542881.8597463369 3295371.6986112595 0 3295371.6986112595 12199043.675842285 0 0 0 0 2212611.3489769707 3497976.7329050992 0 3497976.7329050992 8565121.2045698389 0 0 0 0 22734776.520202637 20333425.201263428 0 20333425.201263428 7697920.5337524414 0 0 0 0 -1382409.7583110337 -642362.41541637853 0 -642362.41541637853 3830481.0612423271 0 0 0 0 4108329.0367744928 6774901.357430811 0 6774901.357430811 2699033.804027833 0 0 0 0 265582.42728015292 415337.61796025746 0 415337.61796025746 -209875.83562894166 0 0 0 0 388979.56301021576 847030.69721984863 0 847030.69721984863 12578452.636140823 0 0 0 0 2606159.2975549698 8890684.4954681396 0 8890684.4954681396 21119959.211532593 0 0 0 0 5229710.3474974632 5833810.5261449814 0 5833810.5261449814 18783669.768753052 0 0 0 0 2725397.4010466635 2583917.4278962947 0 2583917.4278962947 13800049.715935111 0 0 0 0 -2065251.3069018757 -3257068.5968311466 0 -3257068.5968311466 21179212.059211925 0 0 0 0 -3891359.5155305862 2928032.7882843018 0 2928032.7882843018 25702415.759887695 0 0 0 0 -2863425.8787015527 -2874631.4302174039 0 -2874631.4302174039 23365231.526076503 0 0 0 0 -3793487.6462911367 3272001.4460029602 0 3272001.4460029602 36249077.071105957 0 0 0 0 -4262951.0793418884 -7371009.8295249939 0 -7371009.8295249939 25195323.534353256 0 0 0 0 -1417879.9127277569 1028978.0365916416 0 1028978.0365916416 15064388.354863971 0 0 0 0 -1648698.5958912373 1139826.5972290039 0 1139826.5972290039 37828382.944587708 0 0 0 0 -671500.12911871169 -14978705.834411621 0 -14978705.834411621 26434844.724388123 0 0 0 0 -6230809.7490436137 -10541669.289749146 0 -10541669.289749146 23624620.199062347 0 0 0 0 -7699049.8330938816 -11255896.742004395 0 -11255896.742004395 28641948.235366821 0 0 0 0 -888417.68092969223 -4316668.2958280966 0 -4316668.2958280966 22905828.815677233 0 0 0 0 -8109224.745625101 -13139640.158643723 0 -13139640.158643723 29673322.130386353 0 0 0 0 -9535768.4696357101 -16477762.277549744 0 -16477762.277549744 26383060.232269287 0 0 0 0 -29337700.608301371 -7901389.1522731781 0 -7901389.1522731781 44113258.137161255 0 0 0 0 -24807262.800078399 -26157107.879608154 0 -26157107.879608154 64037209.869384766 0 0 0 0 -78216630.157948971 -30887888.460723877 0 -30887888.460723877 74175303.373504639 0 0 0 0 -53008647.971699268 -22474665.969985962 0 -22474665.969985962 63755936.540892601 0 0 0 0 -31053804.379725367 5536217.4690856934 0 5536217.4690856934 57992227.451591492 0 0 0 0 -22370509.972322077 9041059.2364768982 0 9041059.2364768982 30361662.224746704 0 0 0 0 -17336602.807661995 -7651808.5057373047 0 -7651808.5057373047 39260532.714546204 0 0 0 0 -4876733.0507800579 -5792159.5267620087 0 -5792159.5267620087 32876016.491905212 0 0 0 0 -11390297.623479664 863343.74132919312 0 863343.74132919312 36813333.424162865 0 0 0 0 -1330521.8220416147 -2489353.260781901 0 -2489353.260781901 26794407.329993404 0 0 0 0 -1943596.0210011909 5497208.3682959098 0 5497208.3682959098 24357706.888704084 0 0 0 0 -17121985.836241275 2622308.3854370117 0 2622308.3854370117 37246296.250572205 0 0 0 0 -12419760.822282314 9654422.9476623535 0 9654422.9476623535 17289634.129104614 0 0 0 0 -2759806.7760982104 12240639.722524563 0 12240639.722524563 20183490.952515274 0 0 0 0 -31197869.244429111 16415819.247623444 0 16415819.247623444 18522199.71937561 0 0 0 0 -11567501.659938812 2076868.3312206268 0 2076868.3312206268 20854310.570007324 0 0 0 0 4698005.5478358269 4290368.988494873 0 4290368.988494873 15441097.165039062 0 0 0 0 -1676811.0874211267 -1351721.8179489039 0 -1351721.8179489039 2702133.8725122213 0 0 0 0 -10465804.576128691 4724899.8968567848 0 4724899.8968567848 17220674.717880249 0 0 0 0 -10105795.180191398 1947906.5465106964 0 1947906.5465106964 23203791.585174561 0 0 0 0 1919992.4687576294 583205.84543991089 0 583205.84543991089 23655643.90189743 0 0 0 0 992172.50589752197 -625015.49069213867 0 -625015.49069213867 27752784.470198631 0 0 0 0 -7211269.83259058 -4571006.0531396866 0 -4571006.0531396866 22323759.421653748 0 0 0 0 -6519368.5318762064 -2389997.0417852402 0 -2389997.0417852402 16460182.791519165 0 0 0 0 -634615.084199765 6406225.7896041805 0 6406225.7896041805 26517252.094862692 0 0 0 0 -17087945.539739609 2151512.9519615173 0 2151512.9519615173 28161023.489044189 0 0 0 0 -17340670.792250633 51266674.292438507 0 51266674.292438507 33609308.683834076 0 0 0 0 -13004793.889725685 50002051.61686039 0 50002051.61686039 23020722.319828033 0 0 0 0 -966373.27377664717 8109489.7738924474 0 8109489.7738924474 3885194.3826584183 0 0 0 0 -13098145.7706604 46158661.181152344 0 46158661.181152344 37789892.793800354 0 0 0 0 -5654115.0061783791 4416189.2946739197 0 4416189.2946739197 9781171.2927360535 0 0 0 0 -30756699.781909943 -4019051.7296924591 0 -4019051.7296924591 31645940.403709412 0 0 0 0 -3489647.5229679067 2429458.5329148127 0 2429458.5329148127 14491803.323463539 0 0 0 0 -27189695.639980316 6295117.7004909515 0 6295117.7004909515 19306836.319595337 0 0 0 0 -10875448.360584259 43175677.120262146 0 43175677.120262146 44484492.770690918 0 0 0 0 -684548.31611633301 35257815.062904358 0 35257815.062904358 46818128.243927002 0 0 0 0 8911814.9898071289 34401955.012443542 0 34401955.012443542 31681337.13293457 0 0 0 0 18609469.004249573 17575089.555984497 0 17575089.555984497 51530719.261564255 0 0 0 0 41178434.873985291 35784792.153131485 0 35784792.153131485 28039569.856498718 0 0 0 0 -3181703.1049995422 26692833.105068207 0 26692833.105068207 48003764.133094788 0 0 0 0 65998850.651992798 13024912.302865982 0 13024912.302865982 27854864.712593079 0 0 0 0 -19338534.830028534 36078360.426343918 0 36078360.426343918 52108613.352390289 0 0 0 0 -22653902.380249023 -4586416.3801708221 0 -4586416.3801708221 25366461.542970657 0 0 0 0 -94235569.660689354 26296619.143627167 0 26296619.143627167 60316275.062419891 0 0 0 0 -1217184.6679335921 4192813.0661920151 0 4192813.0661920151 27058733.070128981 0 0 0 0 -2454401.6826238632 25329104.432287455 0 25329104.432287455 8033238.1032905579 0 0 0 0 -47579211.001789093 -12224312.196826935 0 -12224312.196826935 49504757.614959717 0 0 0 0 -24637832.426517487 17425346.26609993 0 17425346.26609993 12463186.610357285 0 0 0 0 -3197597.7976093702 -514558.70977803273 0 -514558.70977803273 27858339.354079042 0 0 0 0 -85077578.541024208 -10694496.9655056 0 -10694496.9655056 63836009.615263939 0 0 0 0 13237619.758249283 33157326.779683113 0 33157326.779683113 61648070.561193466 0 0 0 0 -42645616.102930069 -5580626.0714454651 0 -5580626.0714454651 103510190.97985268 0 0 0 0 -25383737.880970955 19143146.911077499 0 19143146.911077499 74208142.451023102 0 0 0 0 26113607.055519104 31598273.010258675 0 31598273.010258675 27272434.309749603 0 0 0 0 22950385.259188652 20153236.045597076 0 20153236.045597076 71401628.834078789 0 0 0 0 16998787.129339457 53581106.609735489 0 53581106.609735489 93004140.64655304 0 0 0 0 265224.16406651307 748661.00871222559 0 748661.00871222559 1770088.0563834701 0 0 0 0 70007690.125119686 108137754.60511804 0 108137754.60511804 188970888.05368233 0 0 0 0 21105501.15677166 -140162605.63399696 0 -140162605.63399696 -24830139.012346506 0 0 0 0 8806789.9987277985 -53391209.734171867 0 -53391209.734171867 -45859900.7032547 0 0 0 0 -142640717.66424274 -77647617.981788635 0 -77647617.981788635 44354404.865783691 0 0 0 0 73246719.72461015 83142258.91795975 0 83142258.91795975 47250837.057926178 0 0 0 0 285652.69214068679 3230098.8871031692 0 3230098.8871031692 6813774.6622445583 0 0 0 0 -118924097.6377449 -25427176.599838734 0 -25427176.599838734 37795440.345100403 0 0 0 0 -104991801.63201046 -46203637.066082001 0 -46203637.066082001 484222.73584747314 0 0 0 0 -146250617.98180389 -11176837.618225098 0 -11176837.618225098 30502707.053684235 0 0 0 0 -98656680.378425598 14673986.116149902 0 14673986.116149902 47088938.685974121 0 0 0 0 -87002610.171073914 17559695.799331665 0 17559695.799331665 43549476.374515533 0 0 0 0 -157068719.13888931 38142760.449213028 0 38142760.449213028 102034805.89951324 0 0 0 0 -33384042.18334198 -2991827.2621917725 0 -2991827.2621917725 7482738.411696434 0 0 0 0 -72615634.470594406 -7607744.9435653687 0 -7607744.9435653687 29352980.075515747 0 0 0 0 -33677574.474445343 5451957.6498088837 0 5451957.6498088837 38011115.089279175 0 0 0 0 -27874453.507591248 11459233.867931366 0 11459233.867931366 33008705.014997482 0 0 0 0 -43844850.742346764 47604095.243226051 0 47604095.243226051 65893322.78704834 0 0 0 0 -101089377.18992615 60863179.684047699 0 60863179.684047699 104071182.25345612 0 0 0 0 -262580683.4753933 108411823.69989586 0 108411823.69989586 307124119.09427643 0 0 0 0 -72330249.53608799 -15307949.367277145 0 -15307949.367277145 -10357132.997410774 0 0 0 0 -245002873.34368646 431583986.01468086 0 431583986.01468086 54958615.816490173 0 0 0 0 -193300895.87635422 6290298.563117981 0 6290298.563117981 77368990.419326782 0 0 0 0 -168212305.15559649 -164709702.36730242 0 -164709702.36730242 -243038990.95240021 0 0 0 0 -10783370.553468943 -10395449.662918091 0 -10395449.662918091 20889457.94770813 0 0 0 0 2579553.6996078715 28021525.61504364 0 28021525.61504364 -17246842.994415283 0 0 0 0 -433551.618007401 -510143.32561453432 0 -510143.32561453432 2329834.7884400934 0 0 0 0 -7312321.3097229302 1438860.8586950302 0 1438860.8586950302 10587757.016342163 0 0 0 0 35333841.293152809 -53457904.264345169 0 -53457904.264345169 89726173.881851196 0 0 0 0 13447267.181327514 -10023843.434356689 0 -10023843.434356689 125873689.65701294 0 0 0 0 -24245053.353428006 -40426845.878158569 0 -40426845.878158569 104010103.16015625 0 0 0 0 -145857.00974640407 -182424.85600072145 0 -182424.85600072145 1263951.4157538675 0 0 0 0 -4356716.2852796465 -34334667.415325165 0 -34334667.415325165 107704157.96856689 0 0 0 0 34416138.105012342 -92391994.937042236 0 -92391994.937042236 33882471.665878296 0 0 0 0 5969.5942562448663 -126028.90785372257 0 -126028.90785372257 797026.05746022984 0 0 0 0 -37605.657662306789 628024.48836517334 0 628024.48836517334 18347991.963165283 0 0 0 0 25935261.477367036 -7499219.0827331543 0 -7499219.0827331543 -57884615.045974731 0 0 0 0 -7754895.5960037988 2225300.9511537552 0 2225300.9511537552 18824824.790405273 0 0 0 0 30977708.649802923 -32821816.191978455 0 -32821816.191978455 13232885.16103363 0 0 0 0 15467056.044409903 16922191.901485443 0 16922191.901485443 13968620.256027222 0 0 0 0 -6042246.1054788958 14977767.88149929 0 14977767.88149929 73745490.324615479 0 0 0 0 -41551420.939565301 40458732.733139038 0 40458732.733139038 126146823.03060913 0 0 0 0 -69577.489418922196 -61873.457178412005 0 -61873.457178412005 270172.75006584078 0 0 0 0 5656845.5467954716 -121780.51167297363 0 -121780.51167297363 -2016529.7279968262 0 0 0 0 7162044.3469878407 8444926.3304367065 0 8444926.3304367065 5433214.6936340332 0 0 0 0 3346.4020361173016 5501356.9437103271 0 5501356.9437103271 19534147.527648926 0 0 0 0 9068.0812557101508 865660.50855612336 0 865660.50855612336 1260135.3121948242 0 0 0 0 442713.9078378696 1955343.8584136963 0 1955343.8584136963 3519140.3089332581 0 0 0 0 -4098787.4510217188 -1696225.7350540161 0 -1696225.7350540161 3241654.7196350098 0 0 0 0 -4379062.9765741751 -899317.94486236572 0 -899317.94486236572 1313539.8298339844 0 0 0 0 734190.37274982699 2040177.649848938 0 2040177.649848938 814507.70880126953 0 0 0 0 -6887.6268790933009 99818.835718072951 0 99818.835718072951 151610.56472804747 0 0 0 0 2934468.9377079904 -5898519.1802616119 0 -5898519.1802616119 9702814.4822998047 0 0 0 0 -227826.95627607201 -184015.25984343328 0 -184015.25984343328 795141.15414918959 0 0 0 0 8008990.4220171273 -7555850.5609951019 0 -7555850.5609951019 9521155.8489532471 0 0 0 0 -699848.59752678871 -3078975.9685325623 0 -3078975.9685325623 8170672.7322998047 0 0 0 0 155643.70188228181 936284.74947696179 0 936284.74947696179 2440944.3909932254 0 0 0 0 -523787.11371386051 -1976993.9823951721 0 -1976993.9823951721 11487693.708465576 0 0 0 0 -915385.28457021713 -1319687.4209213257 0 -1319687.4209213257 10613034.559322119 0 0 0 0 -774163.03590297699 -972499.01821136475 0 -972499.01821136475 11153299.242324829 0 0 0 0 -53959.628221087274 1203748.1758688986 0 1203748.1758688986 5016707.5045758756 0 0 0 0 -1233027.9791704416 -950669.80493164062 0 -950669.80493164062 11256692.876266479 0 0 0 0 5413934.8567328602 -23947800.97308445 0 -23947800.97308445 67751600.026382446 0 0 0 0 -957988.50752074667 -913002.7700083591 0 -913002.7700083591 4973062.0990098305 0 0 0 0 -1554329.9426231384 -1359595.0182495117 0 -1359595.0182495117 11913979.123046875 0 0 0 0 -2397790.0542895794 2561286.2046203613 0 2561286.2046203613 9698511.7434234619 0 0 0 0 -1136238.0524091721 -156253.23606109619 0 -156253.23606109619 13340685.638153315 0 0 0 0 76195.156711461721 2826401.2668668665 0 2826401.2668668665 9490194.3734196201 0 0 0 0 -2832191.8952374458 1840100.3183479309 0 1840100.3183479309 8504684.7271475792 0 0 0 0 -2773043.1642055865 -495022.23243441153 0 -495022.23243441153 7953861.0033275858 0 0 0 0 -901011.58801388741 -10103737.693267822 0 -10103737.693267822 31691306.284378052 0 0 0 0 -11270450.590782791 -24340579.788375854 0 -24340579.788375854 70191778.687103271 0 0 0 0 122794.24461484943 -537203.8946723938 0 -537203.8946723938 -154810.9380762279 0 0 0 0 -8905921.1291345358 -10847115.853534698 0 -10847115.853534698 31646223.126373291 0 0 0 0 -2959400.4799085171 -4657048.5725985505 0 -4657048.5725985505 10331652.373523355 0 0 0 0 -4806712.1466830969 -7013268.1482543945 0 -7013268.1482543945 30252972.604064941 0 0 0 0 -1282913.9842063487 -159907.52629852295 0 -159907.52629852295 22837014.523132324 0 0 0 0 -6128996.6914387345 -202440.23700714111 0 -202440.23700714111 36933011.832855225 0 0 0 0 -6179108.2105001211 6402.755443572998 0 6402.755443572998 40378217.840667725 0 0 0 0 2686237.7712826431 -12629007.561662674 0 -12629007.561662674 49483423.083328247 0 0 0 0 -5460403.5745881796 -2434930.7399978638 0 -2434930.7399978638 48320818.968780518 0 0 0 0 -10308143.030949831 6400613.4286956787 0 6400613.4286956787 40104485.526901245 0 0 0 0 -911035.42880392075 -2187061.6013946533 0 -2187061.6013946533 36737377.052001953 0 0 0 0 -11313140.172558486 -2769033.182226181 0 -2769033.182226181 60164524.32093811 0 0 0 0 -4546315.8892936707 8170430.7444458008 0 8170430.7444458008 40368532.140434265 0 0 0 0 -6418741.1625725031 15842138.400032043 0 15842138.400032043 9740616.0557250977 0 0 0 0 -4728266.954511106 7580576.2658042908 0 7580576.2658042908 38479296.432723999 0 0 0 0 -1637266.7084946884 7230860.5976872593 0 7230860.5976872593 35560238.122924805 0 0 0 0 13285727.561000884 -20931154.622131348 0 -20931154.622131348 59301146.810668945 0 0 0 0 2413090.2227731347 -37801398.206703186 0 -37801398.206703186 82390724.021652222 0 0 0 0 -11472113.296589315 -19153269.470046997 0 -19153269.470046997 71918491.249389648 0 0 0 0 -40572563.215121776 -11119414.33127594 0 -11119414.33127594 78316661.131889343 0 0 0 0 -27017433.616517931 20459974.997928619 0 20459974.997928619 41889453.477108002 0 0 0 0 13964687.195496932 6610618.2306861877 0 6610618.2306861877 -3392905.1625137329 0 0 0 0 -21559764.506038211 -12962983.019034386 0 -12962983.019034386 14308685.877197266 0 0 0 0 -26375397.890973613 15792270.227850914 0 15792270.227850914 14167293.36177063 0 0 0 0 -3904669.2662850916 7823487.7028045654 0 7823487.7028045654 16934904.878044128 0 0 0 0 -5290.9969355097419 -29613.511951381341 0 -29613.511951381341 215251.03735677153 0 0 0 0 -26763498.375027373 11540037.940177917 0 11540037.940177917 44240067.11907959 0 0 0 0 -449716.02680428611 -273005.24429906905 0 -273005.24429906905 6919511.7926716339 0 0 0 0 1714339.0422348492 -13063848.196998596 0 -13063848.196998596 19338235.233455658 0 0 0 0 -111814.40622379078 -168114.60760997981 0 -168114.60760997981 2011677.1461009942 0 0 0 0 1197635.9162001908 -14706894.615013123 0 -14706894.615013123 5094723.5908851624 0 0 0 0 2478801.7254097173 -11450940.437355042 0 -11450940.437355042 13364085.579620361 0 0 0 0 2658766.8731928319 -9216670.0435333252 0 -9216670.0435333252 10026264.29801178 0 0 0 0 12084772.450668663 -25018600.214599609 0 -25018600.214599609 17565620.473514557 0 0 0 0 -1518459.9309613258 -26624126.886146545 0 -26624126.886146545 38504713.128646851 0 0 0 0 -1399271.1537891468 -25111947.671205521 0 -25111947.671205521 26297392.665283203 0 0 0 0 -19903480.00693281 -26598074.340873718 0 -26598074.340873718 42319952.896949768 0 0 0 0 27444207.198949635 -21617506.421195984 0 -21617506.421195984 15561711.874000549 0 0 0 0 11721072.075506166 -38746000.317512512 0 -38746000.317512512 40085729.80305481 0 0 0 0 50683297.323488846 -60509573.642272949 0 -60509573.642272949 59034727.883468628 0 0 0 0 25763058.368357241 -7049883.3784637451 0 -7049883.3784637451 115253596.10997009 0 0 0 0 4747014.0597150698 -33464579.722915649 0 -33464579.722915649 43987568.692558289 0 0 0 0 1602490.7913135421 -48254968.660636902 0 -48254968.660636902 58369083.312316895 0 0 0 0 -35358098.287250936 -52118178.039611816 0 -52118178.039611816 77426307.627792358 0 0 0 0 2086747.2843098193 6539916.1092147827 0 6539916.1092147827 3136080.9690246582 0 0 0 0 -5195.0470477889612 -4255.3199518583715 0 -4255.3199518583715 118111.01440028846 0 0 0 0 26807090.779866561 -38336656.019920349 0 -38336656.019920349 31491451.393447876 0 0 0 0 39912301.833532266 82893753.002490997 0 82893753.002490997 104313196.97913361 0 0 0 0 1726853.5968478471 35661269.422592163 0 35661269.422592163 91741235.406700134 0 0 0 0 6896440.1446485519 50826570.092781067 0 50826570.092781067 58140580.3412323 0 0 0 0 8105714.494100973 21708883.697433472 0 21708883.697433472 31979149.238792419 0 0 0 0 3707372.4557597823 27664649.164619446 0 27664649.164619446 3171743.1461181641 0 0 0 0 10046482.546202421 7954059.8348083496 0 7954059.8348083496 45066339.833030701 0 0 0 0 3002108.9923671857 -32264607.376659393 0 -32264607.376659393 41397910.594238281 0 0 0 0 6056921.5216057152 -18791829.257904053 0 -18791829.257904053 98585232.372962952 0 0 0 0 7818.7291925939062 -26760.997151661664 0 -26760.997151661664 94245.006383538246 0 0 0 0 17879100.371109471 25859986.925956726 0 25859986.925956726 90348833.229811311 0 0 0 0 -26897333.830721781 -53185508.904647827 0 -53185508.904647827 53302221.075256348 0 0 0 0 -3287448.6443195939 -46648428.537490845 0 -46648428.537490845 25479788.226051331 0 0 0 0 7565686.6104800459 -26089149.624557495 0 -26089149.624557495 151465260.35480118 0 0 0 0 17428846.326894291 -16896893.639579773 0 -16896893.639579773 65281884.571365356 0 0 0 0 11037955.916449718 14174616.807069778 0 14174616.807069778 82945709.650466919 0 0 0 0 11567428.587385101 9938825.7015609741 0 9938825.7015609741 85855756.841567993 0 0 0 0 64883.137752056915 10579896.510456085 0 10579896.510456085 91535253.501052856 0 0 0 0 -5039.1801624173968 18987876.643974304 0 18987876.643974304 78780090.013847351 0 0 0 0 13821442.847800517 19185277.695316315 0 19185277.695316315 67401182.904998779 0 0 0 0 -223730.65902363509 29909037.453041077 0 29909037.453041077 75545333.593364716 0 0 0 0 2792584.9272363768 23989972.991035461 0 23989972.991035461 86099410.778556824 0 0 0 0 -9240.3349990253464 16459928.08442688 0 16459928.08442688 84800680.154251099 0 0 0 0 -7235539.2700264417 19835492.210990906 0 19835492.210990906 86263910.69634819 0 0 0 0 -5417620.8693607971 25126300.61507988 0 25126300.61507988 101202058.45306396 0 0 0 0 -13775520.803960778 7655096.4817733765 0 7655096.4817733765 95347895.363479614 0 0 0 0 -10360940.755475506 1930342.4762878418 0 1930342.4762878418 78622392.776796341 0 0 0 0 -7039103.2575424314 42591454.280727386 0 42591454.280727386 128440015.51093292 0 0 0 0 -7993595.3389449269 30613741.709236145 0 30613741.709236145 90782628.231676102 0 0 0 0 -10714320.414662849 7558957.487953186 0 7558957.487953186 84599937.773857117 0 0 0 0 -11653236.043806612 -7234856.4782218933 0 -7234856.4782218933 141400521.70144653 0 0 0 0 925141.91498883069 -10428488.309864521 0 -10428488.309864521 88103734.789077759 0 0 0 0 2930087.7793527925 -24187385.056596279 0 -24187385.056596279 63402737.84287262 0 0 0 0 176765.50769469887 3357077.2703132629 0 3357077.2703132629 35972803.58290863 0 0 0 0 -9746.1683238646729 11513902.719810486 0 11513902.719810486 59394557.931678772 0 0 0 0 3529404.7412298657 -4714598.1786231995 0 -4714598.1786231995 13002957.551391602 0 0 0 0 -3868775.9702833593 -3671325.6942214966 0 -3671325.6942214966 49198752.463527679 0 0 0 0 3236.8920514199781 8424073.5031967163 0 8424073.5031967163 13384545.991729736 0 0 0 0 -867560.8934450224 -3084152.7151107788 0 -3084152.7151107788 -5020167.1617279053 0 0 0 0 518807.15189216909 849174.76646154374 0 849174.76646154374 1356845.5071089566 0 0 0 0 -1102.7707724679437 19022.567337036133 0 19022.567337036133 1245955.7928619385 0 0 0 0 -664375.20647391188 2852953.6295166016 0 2852953.6295166016 245615.59866333008 0 0 0 0 -516790.52036947309 -80741.317765265703 0 -80741.317765265703 1387697.71149005 0 0 0 0 -4928334.0851798058 5691082.2864761353 0 5691082.2864761353 3823920.1650204659 0 0 0 0 -3328840.2655248642 4610412.1381454468 0 4610412.1381454468 3784885.3700625896 0 0 0 0 -134785.1688402447 -1777957.424428463 0 -1777957.424428463 -313880.49824523926 0 0 0 0 -1301838.965720457 170375.03743543103 0 170375.03743543103 1931819.8767740354 0 0 0 0 1078067.8236767082 1571370.6733361967 0 1571370.6733361967 1687267.4207261801 0 0 0 0 4799646.3682755344 9160322.5270900726 0 9160322.5270900726 8902569.0365905762 0 0 0 0 1336483.016871627 1032181.0755044222 0 1032181.0755044222 819204.02303203195 0 0 0 0 -19989070.609660149 16082923.169540405 0 16082923.169540405 -6125442.4419937134 0 0 0 0 -25688811.806962192 8027806.2083072662 0 8027806.2083072662 15077440.825317383 0 0 0 0 -26868802.119470596 2461838.705581665 0 2461838.705581665 9972899.9764938354 0 0 0 0 -3071832.6012339592 2007714.6790466309 0 2007714.6790466309 5343202.1975131035 0 0 0 0 -5744322.4309050441 3230698.6257400513 0 3230698.6257400513 5411531.8360900879 0 0 0 0 -1377600.6090163626 -436624.94682975858 0 -436624.94682975858 1905618.9675849676 0 0 0 0 -1030646.2175016571 -3256035.385055542 0 -3256035.385055542 2206127.76820755 0 0 0 0 -16846849.080892026 -3821074.837348938 0 -3821074.837348938 6501985.0830383301 0 0 0 0 -21143681.105233669 -13767904.093276978 0 -13767904.093276978 -4165057.8577518463 0 0 0 0 -16855188.551477313 -4365963.8970737457 0 -4365963.8970737457 13981389.370437622 0 0 0 0 -19967853.070364475 -26762841.862030029 0 -26762841.862030029 -6288266.8322181702 0 0 0 0 -1188494.8929661058 -854221.43121754378 0 -854221.43121754378 1840097.7854155153 0 0 0 0 2275496.3509761393 2814251.866607666 0 2814251.866607666 3473850.0805950165 0 0 0 0 5392380.7175195199 -616110.14092254639 0 -616110.14092254639 5764289.9633712769 0 0 0 0 -1524151.5524751917 2525322.8484420776 0 2525322.8484420776 11255928.329292297 0 0 0 0 3154821.6800502855 8851025.7138595581 0 8851025.7138595581 18170606.581104279 0 0 0 0 -29573.230044281841 1950614.5665859785 0 1950614.5665859785 5330091.9764404297 0 0 0 0 2023592.5139149888 2567411.2820892334 0 2567411.2820892334 -94078.976013183594 0 0 0 0 3313614.6395431394 -1737472.4596281052 0 -1737472.4596281052 -452585.17848205566 0 0 0 0 -318284.4887462277 3050549.4754104614 0 3050549.4754104614 3439717.4883422852 0 0 0 0 -2171846.2991156578 -42996438.365386963 0 -42996438.365386963 77598745.394443512 0 0 0 0 40354655.328139007 -47063126.096128464 0 -47063126.096128464 2098470.9624328613 0 0 0 0 -4788168.4221223593 -26112826.018882751 0 -26112826.018882751 14330139.832977295 0 0 0 0 29341170.886603151 -6996012.0079212189 0 -6996012.0079212189 3738218.1125488281 0 0 0 0 87584352.394466206 -59404356.170982361 0 -59404356.170982361 48283700.510444641 0 0 0 0 -1823306.931231305 -21364331.774368286 0 -21364331.774368286 -424748.83396911621 0 0 0 0 24832510.583510816 -31367157.637008667 0 -31367157.637008667 -47263199.316665649 0 0 0 0 8519690.5115479827 -24714829.6353302 0 -24714829.6353302 -7413736.1828155518 0 0 0 0 -726479.03324389458 -39200521.7864151 0 -39200521.7864151 14275366.633300781 0 0 0 0 15145852.705766439 -34382444.002399445 0 -34382444.002399445 -26313671.31451416 0 0 0 0 4706677.2177417278 -21767904.339385986 0 -21767904.339385986 -32137909.467391968 0 0 0 0 -3538123.4933400154 -30301989.092544556 0 -30301989.092544556 -17685912.117672563 0 0 0 0 -2147847.2611638308 -27572602.590179443 0 -27572602.590179443 -30629779.633056641 0 0 0 0 -13534547.606902838 -21308487.639480591 0 -21308487.639480591 -18595288.901153564 0 0 0 0 -5984322.9864883423 -28496863.340301514 0 -28496863.340301514 -19545412.832548141 0 0 0 0 -8195729.4748066664 -33278980.094604492 0 -33278980.094604492 2608922.1747741699 0 0 0 0 -2378123.5255818367 -28402924.633056641 0 -28402924.633056641 -17699917.603885174 0 0 0 0 -23232743.618201494 -15888546.390647888 0 -15888546.390647888 -14295088.025802612 0 0 0 0 -17905048.965540946 -27208342.613807678 0 -27208342.613807678 1744182.9849243164 0 0 0 0 -22759965.275813341 -11755676.028236389 0 -11755676.028236389 27729611.462059021 0 0 0 0 -15811502.246021986 -23748277.315567017 0 -23748277.315567017 1140339.8369235992 0 0 0 0 -12298714.382866144 -32070032.959396362 0 -32070032.959396362 33225425.170318604 0 0 0 0 -15572709.626425028 -19270698.078826904 0 -19270698.078826904 10863558.471229553 0 0 0 0 -19337753.712134123 -1027693.0059204102 0 -1027693.0059204102 51742461.142082214 0 0 0 0 -21272065.576533258 -8769492.6731643677 0 -8769492.6731643677 24137768.850830078 0 0 0 0 -27222792.564802647 616930.14849090576 0 616930.14849090576 38373234.923561096 0 0 0 0 -18778677.819657087 9986794.9505653381 0 9986794.9505653381 -6194004.5976104736 0 0 0 0 -17506145.443797588 24198428.487770081 0 24198428.487770081 23851394.352508545 0 0 0 0 -11743846.938049197 14808687.31073761 0 14808687.31073761 24374282.105712891 0 0 0 0 13971404.628621846 44728655.451675415 0 44728655.451675415 69632492.959625244 0 0 0 0 13545958.721479148 46606043.78679657 0 46606043.78679657 63477673.765701294 0 0 0 0 39575941.496073365 97584856.523971558 0 97584856.523971558 40576298.547058105 0 0 0 0 -15106579.371168733 -10571065.071475983 0 -10571065.071475983 71115479.727371216 0 0 0 0 1163052.9938941598 -1709743.4619827271 0 -1709743.4619827271 66235440.583314896 0 0 0 0 25772624.450614139 33753402.131843567 0 33753402.131843567 353438367.31256104 0 0 0 0 29240843.815143228 48530598.599372864 0 48530598.599372864 108707357.54023743 0 0 0 0 -4902719.0470272228 -208612.33121681213 0 -208612.33121681213 179223268.76220703 0 0 0 0 102391890.02893943 145471589.1913147 0 145471589.1913147 106032177.27540588 0 0 0 0 21848257.312088966 67938338.869338989 0 67938338.869338989 136345882.73683167 0 0 0 0 99590346.793083191 88554605.794311523 0 88554605.794311523 54293464.878662109 0 0 0 0 102208579.16260678 92701584.271141052 0 92701584.271141052 -19479042.00668335 0 0 0 0 -806159.64851810341 -1124028.1901803166 0 -1124028.1901803166 2109644.1740070954 0 0 0 0 -19201290.083188415 -44372911.182861328 0 -44372911.182861328 126617216.18899536 0 0 0 0 -24664222.126246318 139715092.9708271 0 139715092.9708271 -41121165.824798584 0 0 0 0 -6478614.0587602854 78142528.266830444 0 78142528.266830444 -69520795.61895752 0 0 0 0 68251633.834837437 99692740.864364624 0 99692740.864364624 -29367106.395675659 0 0 0 0 -17004657.873511702 114790046.79737663 0 114790046.79737663 17234972.888366699 0 0 0 0 48193387.720321596 66809294.757034302 0 66809294.757034302 47220699.428405762 0 0 0 0 44077866.714880705 70313818.75667572 0 70313818.75667572 -4522287.6870956421 0 0 0 0 69407668.660406575 85410431.888950348 0 85410431.888950348 -27905739.749221802 0 0 0 0 63103175.761728108 152159922.56082535 0 152159922.56082535 101313903.81443787 0 0 0 0 149585756.71313751 124795868.83818054 0 124795868.83818054 -12519491.750579834 0 0 0 0 -28741416.827703834 105651684.22583008 0 105651684.22583008 23372445.304199219 0 0 0 0 -44695155.696156025 31459170.042293549 0 31459170.042293549 42177186.644836426 0 0 0 0 -106553574.30770189 50524192.574478149 0 50524192.574478149 -9161943.482208252 0 0 0 0 18413703.766414627 80945998.884712219 0 80945998.884712219 -12164998.28515625 0 0 0 0 -14480.319935411215 110884336.04345703 0 110884336.04345703 -7807798.764251709 0 0 0 0 1036594.8362016217 657706.01838111132 0 657706.01838111132 449169.02404989302 0 0 0 0 -33030734.251882076 52213261.520515442 0 52213261.520515442 -21977042.075222015 0 0 0 0 -17137012.614263535 4731120.4906768799 0 4731120.4906768799 -16357149.907836914 0 0 0 0 56018171.415615439 50200419.897773743 0 50200419.897773743 8516918.7643737793 0 0 0 0 123381220.94378215 41036446.780586243 0 41036446.780586243 -64738209.027675629 0 0 0 0 442815.82996628335 221243.64974321425 0 221243.64974321425 126794.24706795067 0 0 0 0 13837514.405646205 -16381577.635917664 0 -16381577.635917664 90472610.949241638 0 0 0 0 1975348.0188730657 -33858694.601650238 0 -33858694.601650238 255673844.01091766 0 0 0 0 91553845.428466424 83577773.850505829 0 83577773.850505829 188972584.15976715 0 0 0 0 7797163.7220733389 23027771.790870667 0 23027771.790870667 145615814.73962402 0 0 0 0 -41034210.939367682 21573496.086669922 0 21573496.086669922 72177993.379760742 0 0 0 0 -97495747.833349228 63310823.731414795 0 63310823.731414795 59741531.167053223 0 0 0 0 -111123626.95678401 9012443.8185424805 0 9012443.8185424805 81393402.322631836 0 0 0 0 114942053.89118199 -63536048.543096542 0 -63536048.543096542 103031685.96534729 0 0 0 0 -25962105.240923569 86280800.341781616 0 86280800.341781616 195570497.48388672 0 0 0 0 -9064512.8454718366 -41598533.099990845 0 -41598533.099990845 191934962.17555046 0 0 0 0 162930918.94836766 37350843.644607544 0 37350843.644607544 94361971.74987793 0 0 0 0 -59105.939463362098 -23301901.790153503 0 -23301901.790153503 106922864.61071014 0 0 0 0 -5771597.2420807108 -50554467.145809174 0 -50554467.145809174 65386771.202575684 0 0 0 0 -67650829.959894747 -24285695.593109131 0 -24285695.593109131 113977163.34716797 0 0 0 0 -40580459.030508876 -28701882.230812073 0 -28701882.230812073 69608336.550262451 0 0 0 0 -85795911.649629772 -9178672.2969055176 0 -9178672.2969055176 58483344.033813477 0 0 0 0 -62660762.656067222 -45601752.604766846 0 -45601752.604766846 74862871.550506592 0 0 0 0 -70736694.712139696 28648410.453580856 0 28648410.453580856 79541464.652740479 0 0 0 0 -172436713.31134492 8494869.0234985352 0 8494869.0234985352 75825731.158996582 0 0 0 0 -107248465.5856626 3807293.3040771484 0 3807293.3040771484 35900253.760040283 0 0 0 0 -159375502.99240923 -35828903.695495605 0 -35828903.695495605 9260833.7315063477 0 0 0 0 -101929812.44586372 -30440840.745401382 0 -30440840.745401382 30875603.517822266 0 0 0 0 -120743460.77820241 13359158.101318359 0 13359158.101318359 42919815.652885437 0 0 0 0 -121011116.86789669 18229386.152582169 0 18229386.152582169 -38177855.647827148 0 0 0 0 -88926555.836671948 14239216.074966431 0 14239216.074966431 50464246.359886169 0 0 0 0 -168477201.79855591 22691649.822891235 0 22691649.822891235 55146718.988830566 0 0 0 0 -137157437.57423317 53264355.652893066 0 53264355.652893066 66536350.047973633 0 0 0 0 -3424474.711236788 944969.19491088577 0 944969.19491088577 10779810.115933143 0 0 0 0 -87461730.058941126 10042416.176322937 0 10042416.176322937 19409503.038696289 0 0 0 0 -175592945.83781493 61748280.61554718 0 61748280.61554718 38945755.689025879 0 0 0 0 -1370891.3438059026 -1184528.5806896798 0 -1184528.5806896798 4353114.6559612677 0 0 0 0 -11848841.271169662 1118701.2390403748 0 1118701.2390403748 5899571.8284225464 0 0 0 0 -1406339.8728286624 304022.1923715435 0 304022.1923715435 14837335.677739821 0 0 0 0 -1660332.658244133 -4321812.3290545046 0 -4321812.3290545046 7505838.4458790049 0 0 0 0 -2579445.2951482055 10517587.950983353 0 10517587.950983353 4571372.4902412444 0 0 0 0 814764.65783962212 8181714.4086635411 0 8181714.4086635411 21333786.444040589 0 0 0 0 10501018.930917919 9768201.2089385986 0 9768201.2089385986 -12332368.115020752 0 0 0 0 -9434497.4095500782 37587278.69704628 0 37587278.69704628 37258754.751785278 0 0 0 0 944019.19404743903 2938304.3484920328 0 2938304.3484920328 -969371.21493521333 0 0 0 0 -204115503.79750958 -11410547.525436401 0 -11410547.525436401 65782038.999755859 0 0 0 0 -4076676.4757771492 6652531.8872718811 0 6652531.8872718811 25420723.636566162 0 0 0 0 -2296069.0972442627 3520306.5191879272 0 3520306.5191879272 20193208.822124481 0 0 0 0 -6476082.627124548 1588137.8737297058 0 1588137.8737297058 24058816.817932129 0 0 0 0 -6778057.0134730339 1201002.4394741058 0 1201002.4394741058 23842468.838409424 0 0 0 0 -5897236.4692649841 3882482.7465801239 0 3882482.7465801239 25152007.531982422 0 0 0 0 -5263933.8132550716 911328.64667510986 0 911328.64667510986 20772152.735168457 0 0 0 0 -576563.03082299232 3851819.435218811 0 3851819.435218811 31560289.695098877 0 0 0 0 -5661785.743894577 253359.12578582764 0 253359.12578582764 26235802.817489624 0 0 0 0 -4389323.0146903992 4836575.4781227112 0 4836575.4781227112 25551750.836517334 0 0 0 0 -2641678.5490970612 2674476.464553833 0 2674476.464553833 24235480.312019348 0 0 0 0 -3338663.4174747467 4290484.3504676819 0 4290484.3504676819 30424854.787490845 0 0 0 0 -908944.0556678772 1635176.7954483032 0 1635176.7954483032 26114049.405968666 0 0 0 0 2410470.0327634811 8380859.1831207275 0 8380859.1831207275 25848663.269386292 0 0 0 0 1642515.5996832848 3067505.7193908691 0 3067505.7193908691 8017421.0809173584 0 0 0 0 -759130.00800132751 3530083.0598678589 0 3530083.0598678589 26021746.441429138 0 0 0 0 -2076521.9451503754 3655227.3149642944 0 3655227.3149642944 30068777.826309204 0 0 0 0 -1062827.6644370952 -213353.53117730469 0 -213353.53117730469 11409719.263584696 0 0 0 0 -486137.48376274109 5360993.1911849976 0 5360993.1911849976 30677251.1120224 0 0 0 0 1520586.1694599688 3007174.8800849915 0 3007174.8800849915 9246059.034576416 0 0 0 0 -4222733.091138131 -2697489.5082498863 0 -2697489.5082498863 30378920.925228104 0 0 0 0 4002679.0343885422 5915252.8774604797 0 5915252.8774604797 28834014.341527939 0 0 0 0 1940210.5150239482 2303367.1581333019 0 2303367.1581333019 27865255.915123984 0 0 0 0 -23940550.713329792 -20635497.231658936 0 -20635497.231658936 -24161510.910777092 0 0 0 0 -2723697.1207852364 2267134.4963264465 0 2267134.4963264465 35936475.206718445 0 0 0 0 237683.92723655701 2058110.3657989502 0 2058110.3657989502 31444625.928874969 0 0 0 0 -17841089.287241116 -61537629.928222656 0 -61537629.928222656 -3561758.9890136719 0 0 0 0 -3039492.3219344486 -4881704.7227524072 0 -4881704.7227524072 16998954.381588716 0 0 0 0 -3508138.2042655945 -41002454.568126678 0 -41002454.568126678 -40252335.399902344 0 0 0 0 2463222.3541762708 -3456875.9394980296 0 -3456875.9394980296 -9162820.9908152521 0 0 0 0 17671408.41691944 -5634893.0290679932 0 -5634893.0290679932 4463871.9647064209 0 0 0 0 -59542501.385093212 9795347.9166259766 0 9795347.9166259766 -74397292.266738892 0 0 0 0 -130112.59406113625 -2992276.3170566559 0 -2992276.3170566559 7528474.1772918701 0 0 0 0 2060239.9336023331 4578032.9652938843 0 4578032.9652938843 16899172.943359375 0 0 0 0 1833942.4022544539 -1882510.8728098646 0 -1882510.8728098646 -4000876.6160253435 0 0 0 0 -6963470.7910034657 -9459615.9526977539 0 -9459615.9526977539 17471971.426383018 0 0 0 0 892535.51501429081 -3569435.8845596313 0 -3569435.8845596313 -1465044.057220459 0 0 0 0 -2759616.821993351 -3758471.9057617188 0 -3758471.9057617188 7659328.2915115356 0 0 0 0 -1387600.0269435106 -3129608.2301264824 0 -3129608.2301264824 8744401.3379758894 0 0 0 0 -374309.44728326797 -2982829.7975158691 0 -2982829.7975158691 6246099.614906311 0 0 0 0 -2229638.0280043781 -3182862.0629615784 0 -3182862.0629615784 9516859.9045410156 0 0 0 0 -3538660.2632456422 -1815373.4056091309 0 -1815373.4056091309 20749790.148605347 0 0 0 0 3108575.9874649048 -10665676.071533203 0 -10665676.071533203 1213368.9290161133 0 0 0 0 -2068155.9181966782 -533139.73075866699 0 -533139.73075866699 1647938.2705740929 0 0 0 0 -25658.010430930299 -1439194.9995057881 0 -1439194.9995057881 4620217.1852263091 0 0 0 0 -143183821.63153207 115319871.6480484 0 115319871.6480484 -42714087.238220215 0 0 0 0 -2703483.2014260907 -3178626.9216678776 0 -3178626.9216678776 6052976.2530286759 0 0 0 0 -159054515.38962698 92098172.238189697 0 92098172.238189697 -6154660.5637969971 0 0 0 0 -108359757.88985616 34084967.454135895 0 34084967.454135895 -14647401.72833252 0 0 0 0 -211520.08148624178 -570157.95183766633 0 -570157.95183766633 3663251.8114446849 0 0 0 0 -2072666.005985776 953752.56034719944 0 953752.56034719944 8909147.2640233636 0 0 0 0 -1882542.836427927 -3289957.116859436 0 -3289957.116859436 8446435.6995697021 0 0 0 0 -1220345.4931104311 -1078921.0751803219 0 -1078921.0751803219 9598026.4351759255 0 0 0 0 -2439803.7961754799 -1165245.0450439453 0 -1165245.0450439453 6922350.2836303711 0 0 0 0 -2348233.8105156422 -1240331.6219749451 0 -1240331.6219749451 6945223.7592773438 0 0 0 0 9917355.0382833481 25555391.003216267 0 25555391.003216267 7572206.2179641724 0 0 0 0 39306279.772379875 -43823236.998669624 0 -43823236.998669624 -59681775.844352722 0 0 0 0 15800964.589197636 -61805715.571831703 0 -61805715.571831703 172208867.16892815 0 0 0 0 16839020.392827034 -15040534.429755211 0 -15040534.429755211 43061498.920822144 0 0 0 0 -10009078.852609634 -42742412.89031601 0 -42742412.89031601 36983769.384893656 0 0 0 0 -6259774.5159621239 -35574827.531720161 0 -35574827.531720161 -11623119.00778389 0 0 0 0 -32112121.442708015 -21678915.888898849 0 -21678915.888898849 25534168.254333496 0 0 0 0 -24187241.341007233 -43368857.815724373 0 -43368857.815724373 19825418.846706867 0 0 0 0 -9308734.5654988289 -47756991.062819958 0 -47756991.062819958 55302708.221847534 0 0 0 0 -1262974.5363550612 -2339077.1264577657 0 -2339077.1264577657 30698543.890681647 0 0 0 0 -53324866.504428864 -38967980.947862625 0 -38967980.947862625 38098978.170292139 0 0 0 0 -42706756.518539786 -8900233.9549717903 0 -8900233.9549717903 34558371.408477783 0 0 0 0 -7665307.2849381864 -4211390.2114458084 0 -4211390.2114458084 24917666.526901245 0 0 0 0 -154954.0832228479 -4885168.8488078518 0 -4885168.8488078518 26880687.717653129 0 0 0 0 1251042.9570889473 -710609.27510452271 0 -710609.27510452271 25252415.173994064 0 0 0 0 1120243.6228451729 504623.11380386353 0 504623.11380386353 31153735.551559448 0 0 0 0 6344661.6949821711 2014697.0646896362 0 2014697.0646896362 23442135.336601257 0 0 0 0 2052259.1842200607 1743641.3454690129 0 1743641.3454690129 28234004.573851667 0 0 0 0 556512.67197704315 -2894340.7899131775 0 -2894340.7899131775 22665660.151222229 0 0 0 0 -6921142.621234417 5101661.012295723 0 5101661.012295723 53387948.450050354 0 0 0 0 -2247435.5719468966 -2245156.9137626458 0 -2245156.9137626458 28737370.711582646 0 0 0 0 -605502.52790861949 1733670.2491399581 0 1733670.2491399581 15496724.427690372 0 0 0 0 -144833.45084096212 175090.62880809978 0 175090.62880809978 4685286.0920226537 0 0 0 0 -451210.48641252518 11703004.585110188 0 11703004.585110188 45474773.306442261 0 0 0 0 -29065026.674711227 -6469560.7851915359 0 -6469560.7851915359 41660780.428288221 0 0 0 0 6740050.6234779358 9763260.3190727234 0 9763260.3190727234 52059298.894237518 0 0 0 0 -12109759.840911865 -6153860.4319391251 0 -6153860.4319391251 74627792.197746277 0 0 0 0 -25291161.314038515 -3737929.8087105751 0 -3737929.8087105751 46507861.532714844 0 0 0 0 -15818085.86775589 15969076.536477089 0 15969076.536477089 59585917.082241058 0 0 0 0 -44557476.58951664 -58671933.599912167 0 -58671933.599912167 80435910.562345505 0 0 0 0 -29104058.246801376 -11171110.929319382 0 -11171110.929319382 58088578.957897186 0 0 0 0 -15195167.699995041 -37210854.504631042 0 -37210854.504631042 84942304.292976379 0 0 0 0 -11283719.479316235 -22835227.777057886 0 -22835227.777057886 45555532.500778198 0 0 0 0 37968921.636791229 -13544972.174448013 0 -13544972.174448013 -89840174.425865173 0 0 0 0 2263285.5706834034 -6091410.1941802772 0 -6091410.1941802772 -2635259.0495685618 0 0 0 0 -211975.67549300194 -47996975.568882704 0 -47996975.568882704 22410989.358345032 0 0 0 0 223974.99892616272 -53230044.574134827 0 -53230044.574134827 65687519.71197319 0 0 0 0 1580174.8023953438 -39844319.290844202 0 -39844319.290844202 42442838.866493225 0 0 0 0 -16867222.196702957 5992207.9478917122 0 5992207.9478917122 43835470.750923157 0 0 0 0 23708.688888549805 -18081118.121828079 0 -18081118.121828079 56389073.451347351 0 0 0 0 3376458.3561911583 -21204899.625862122 0 -21204899.625862122 13914974.492523193 0 0 0 0 2651111.8921079636 -18931302.129648209 0 -18931302.129648209 55048155.666488647 0 0 0 0 2078236.6021914482 -7774083.3455429077 0 -7774083.3455429077 16803833.953170776 0 0 0 0 -418489.04504176253 -4703767.4761717916 0 -4703767.4761717916 24417125.357419305 0 0 0 0 309103.79830140423 -2669986.0053723827 0 -2669986.0053723827 35182387.816514492 0 0 0 0 3703720.1771491314 -7955608.0044824919 0 -7955608.0044824919 18347870.445168 0 0 0 0 1059676.1109204292 83208.168930053711 0 83208.168930053711 17802851.30809021 0 0 0 0 8629206.5645915568 -309958849.91778564 0 -309958849.91778564 -106346382.43577003 0 0 0 0 273433693.30172318 11711243.200042725 0 11711243.200042725 10361414.19896698 0 0 0 0 72898167.464845732 114125128.95185852 0 114125128.95185852 88724949.283622742 0 0 0 0 55618321.560007095 109751814.72203064 0 109751814.72203064 -127358086.90197754 0 0 0 0 -218635877.55590484 -36897897.031265259 0 -36897897.031265259 47599138.475841522 0 0 0 0 3098807.7332339287 3122159.7506446838 0 3122159.7506446838 23417312.467161655 0 0 0 0 74989767.662556171 -136004357.38269043 0 -136004357.38269043 -179910596.57466125 0 0 0 0 -353878.7040432801 -4980734.7588084191 0 -4980734.7588084191 22341698.168902453 0 0 0 0 -47392.400665092515 -414155.019842159 0 -414155.019842159 -311981.91267425753 0 0 0 0 -57300158.256669044 8317388.3515014648 0 8317388.3515014648 -39341661.248378634 0 0 0 0 -42788297.720128536 -74127385.60874939 0 -74127385.60874939 -43723848.860870361 0 0 0 0 10132298.921595573 -69947231.273376465 0 -69947231.273376465 12991383.628173828 0 0 0 0 2066309.4126639639 -1740375.1987257153 0 -1740375.1987257153 -7369445.018931441 0 0 0 0 31643699.564436488 57253050.41787529 0 57253050.41787529 104004293.44039917 0 0 0 0 30449532.281604096 42331874.373466492 0 42331874.373466492 59928547.237564087 0 0 0 0 1226186.2340435493 -1868201.1693369299 0 -1868201.1693369299 -1775057.1733801886 0 0 0 0 90789390.160626292 12961952.461700439 0 12961952.461700439 -4118503.9573364258 0 0 0 0 -6492311.7852345854 25795695.197181702 0 25795695.197181702 155260674.39340973 0 0 0 0 17742381.013500325 64202487.884531021 0 64202487.884531021 105808921.79408264 0 0 0 0 20048778.051441927 49142398.846805573 0 49142398.846805573 203316374.7862854 0 0 0 0 41229022.606119104 -4551771.7071037292 0 -4551771.7071037292 54358929.182647705 0 0 0 0 52930269.985928804 -58752894.500564575 0 -58752894.500564575 71302935.750051498 0 0 0 0 50855088.574394643 -98593357.754219055 0 -98593357.754219055 119778401.56876373 0 0 0 0 30825191.136590004 14341067.268188477 0 14341067.268188477 228478866.60183716 0 0 0 0 275631328.0045929 -101660098.27938843 0 -101660098.27938843 253692847.65057373 0 0 0 0 148477174.20099327 58857882.511627197 0 58857882.511627197 161913602.92036438 0 0 0 0 74247527.272822231 47539424.388022542 0 47539424.388022542 216460624.82818604 0 0 0 0 394242.79259540548 -580568.20375578105 0 -580568.20375578105 -517291.22656337917 0 0 0 0 25995254.341526151 -108091422.06391907 0 -108091422.06391907 -161353779.71357727 0 0 0 0 116004207.83001037 -288816925.71697998 0 -288816925.71697998 172637628.17230225 0 0 0 0 -364728248.58705854 -40913997.952178955 0 -40913997.952178955 153107914.91522217 0 0 0 0 -82010410.779036522 16437353.138526917 0 16437353.138526917 57102847.761138916 0 0 0 0 -58413998.744725943 -52882201.67855072 0 -52882201.67855072 258711790.5836792 0 0 0 0 121877247.67184472 123680063.91244507 0 123680063.91244507 257135552.25658035 0 0 0 0 329449226.51373267 -48369297.538619995 0 -48369297.538619995 201606759.39019775 0 0 0 0 111702789.20390064 49748209.664108276 0 49748209.664108276 343209907.68950653 0 0 0 0 547791.88823003077 543250.98880563676 0 543250.98880563676 1153629.2163014039 0 0 0 0 238144449.18769634 282950758.28298187 0 282950758.28298187 179949358.45127869 0 0 0 0 -82281325.999161601 118151158.16741943 0 118151158.16741943 140849212.37607193 0 0 0 0 211249232.7513299 83742136.643562317 0 83742136.643562317 21431078.270004272 0 0 0 0 -45496452.547096521 -6306340.316947937 0 -6306340.316947937 101414536.33355713 0 0 0 0 58225645.781813085 150091622.73898315 0 150091622.73898315 155259137.93234253 0 0 0 0 -125389315.06476688 37839495.626434326 0 37839495.626434326 127653404.16916656 0 0 0 0 -300657249.089019 -91841052.021713257 0 -91841052.021713257 67431850.984344482 0 0 0 0 -181604411.82638502 112653317.64126587 0 112653317.64126587 113320881.30577087 0 0 0 0 -63598310.330897421 38203176.229465485 0 38203176.229465485 -56200968.415679932 0 0 0 0 -245385222.81645969 -125255376.43374634 0 -125255376.43374634 6459981.4503326416 0 0 0 0 -1712689.5727621152 1294194.4166603312 0 1294194.4166603312 4061310.6072033271 0 0 0 0 -6433144.6415739059 2490550.7183017731 0 2490550.7183017731 6617315.9358825684 0 0 0 0 -6324254.1332179308 -514426.06112157367 0 -514426.06112157367 37519467.170555532 0 0 0 0 -14810396.840718083 -855055.26554032788 0 -855055.26554032788 48360311.086557165 0 0 0 0 3961089.5867869183 7854196.3459523376 0 7854196.3459523376 9964891.4027836546 0 0 0 0 -313388260.65085834 -41532190.515182495 0 -41532190.515182495 126685341.82061768 0 0 0 0 -420396465.76301259 43270028.382141113 0 43270028.382141113 59663272.467285156 0 0 0 0 -683347.0565495491 1044490.3886656761 0 1044490.3886656761 8099029.6873016357 0 0 0 0 -260728618.23950493 -76828187.778656006 0 -76828187.778656006 174125157.99176788 0 0 0 0 -270887120.10582656 -31160932.434043884 0 -31160932.434043884 14754417.003051758 0 0 0 0 -17106782.764358521 -12617871.01890564 0 -12617871.01890564 -3221130.4816894531 0 0 0 0 -407135036.8127414 -216155274.96118927 0 -216155274.96118927 67668308.220794678 0 0 0 0 1007200.865470178 -4786956.5065072458 0 -4786956.5065072458 32127434.236456089 0 0 0 0 1342806.7749175727 1090830.7180931084 0 1090830.7180931084 34179255.903092682 0 0 0 0 -2070574.4392805099 -9727377.2164783478 0 -9727377.2164783478 13961879.317028046 0 0 0 0 5310707.3518792102 -7568881.1500409432 0 -7568881.1500409432 -970650.29693001136 0 0 0 0 -8241152.980055809 16509544.908065796 0 16509544.908065796 134178334.51544189 0 0 0 0 -34208621.847619057 8653683.8121795654 0 8653683.8121795654 189474644.80934143 0 0 0 0 7580002.3394724131 72088066.076202393 0 72088066.076202393 326132905.85891724 0 0 0 0 243864520.55462658 -29150555.378326416 0 -29150555.378326416 101883452.79013062 0 0 0 0 42327309.728326082 -90566010.418365479 0 -90566010.418365479 180457327.71209717 0 0 0 0 -16588.390241579327 -1528315.7821840933 0 -1528315.7821840933 945147.69080357999 0 0 0 0 149599905.98358378 24640020.39397049 0 24640020.39397049 11938499.470947266 0 0 0 0 -153340.90577883972 -287756.63523648679 0 -287756.63523648679 568749.17251291499 0 0 0 0 1062376.2862941311 -2343390.265659295 0 -2343390.265659295 1539553.8697718177 0 0 0 0 -1326025.1346921921 -5067231.2169189453 0 -5067231.2169189453 3849731.4438781738 0 0 0 0 34986390.494204581 -43314700.165206909 0 -43314700.165206909 53785323.301391602 0 0 0 0 -23988643.378779233 14554396.140083313 0 14554396.140083313 147060286.63443947 0 0 0 0 455183.83173137187 -2457414.6967138872 0 -2457414.6967138872 1547958.6603200715 0 0 0 0 -2880247.8472011089 -14460317.823394775 0 -14460317.823394775 -9013921.7340774536 0 0 0 0 -138386.26296523435 -2323587.7152836584 0 -2323587.7152836584 1751952.1868702229 0 0 0 0 69680517.640312433 -65708371.316802979 0 -65708371.316802979 -15285164.067993164 0 0 0 0 9303851.0106464922 43704277.689483643 0 43704277.689483643 96462065.528339386 0 0 0 0 12362763.970401525 31094607.09375 0 31094607.09375 -8729089.0579528809 0 0 0 0 -1336852.5387355685 34424945.596511841 0 34424945.596511841 -8772335.7366333008 0 0 0 0 475599.70919298159 -548094.5607031174 0 -548094.5607031174 -1134987.2095708698 0 0 0 0 -31484525.565425158 5011560.50730896 0 5011560.50730896 2530242.4258880615 0 0 0 0 647679.76462066174 43462499.669631958 0 43462499.669631958 115069426.67088318 0 0 0 0 -4617410.1944676042 49032374.829818726 0 49032374.829818726 117507032.21886826 0 0 0 0 -3575814.8579293489 61197531.271766663 0 61197531.271766663 109684450.96313477 0 0 0 0 -32990827.632755429 24009993.844517946 0 24009993.844517946 137355726.73608398 0 0 0 0 -52304818.298454583 23106291.142547607 0 23106291.142547607 138580407.26339722 0 0 0 0 -5531156.0082120299 26065418.41456604 0 26065418.41456604 70245096.428817749 0 0 0 0 -40142935.263192758 66193010.150464058 0 66193010.150464058 111772383.13301086 0 0 0 0 -49756042.686051011 68101885.402259827 0 68101885.402259827 33025965.470916748 0 0 0 0 -84201329.102802157 -17081917.831504822 0 -17081917.831504822 35565147.579162598 0 0 0 0 16024177.405310929 41037824.404541016 0 41037824.404541016 -149610094.24803925 0 0 0 0 -42295862.786125287 40829975.570903778 0 40829975.570903778 145382556.51454163 0 0 0 0 -29624154.088360757 52126350.344512939 0 52126350.344512939 69116236.664863586 0 0 0 0 78091899.746996313 14106199.215812683 0 14106199.215812683 -11042956.335647583 0 0 0 0 39282508.969546035 19832956.588165283 0 19832956.588165283 90660612.328769684 0 0 0 0 51743147.911150977 -14305714.26379776 0 -14305714.26379776 -95810119.139274597 0 0 0 0 -24715646.179352999 11500945.99130249 0 11500945.99130249 -11085399.320789337 0 0 0 0 -571142.81382845086 -450032.74594790861 0 -450032.74594790861 443233.20999342948 0 0 0 0 -281062.02845263481 -11471707.565929413 0 -11471707.565929413 13862548.372253418 0 0 0 0 8433107.7285205722 42859023.742988586 0 42859023.742988586 -123049296.77467346 0 0 0 0 7578900.6733258963 -7747657.1361732483 0 -7747657.1361732483 -8596576.0511627197 0 0 0 0 1281121.0077798981 -364328.37612684071 0 -364328.37612684071 379860.23546538688 0 0 0 0 13872454.013394713 -21970708.857055664 0 -21970708.857055664 33130524.187358856 0 0 0 0 -15758399.370691031 -17177519.364719391 0 -17177519.364719391 -22780451.689315796 0 0 0 0 -5547665.1328164935 -1806956.8537559509 0 -1806956.8537559509 -55411.758483886719 0 0 0 0 9608251.2208539248 -2376328.4896278381 0 -2376328.4896278381 -177393.44412231445 0 0 0 0 -32870398.579009175 -985.07025146484375 0 -985.07025146484375 19547788.657077789 0 0 0 0 -186092.93510600779 -113624.17249872535 0 -113624.17249872535 124613.74917377159 0 0 0 0 -52906312.208252549 -23589990.311408997 0 -23589990.311408997 8276818.0146484375 0 0 0 0 11636008.316992879 -52328899.276306152 0 -52328899.276306152 -36577424.558029175 0 0 0 0 36101787.207045548 -21412121.300056458 0 -21412121.300056458 -9427136.7240447998 0 0 0 0 73369657.995765328 -42395483.548728943 0 -42395483.548728943 -22211550.143814087 0 0 0 0 -11459272.798966765 -9145547.6420936584 0 -9145547.6420936584 -16252024.382034302 0 0 0 0 -20714789.292451739 -25342666.600479126 0 -25342666.600479126 7748159.9481105804 0 0 0 0 929440.65642333939 -260699.24115021899 0 -260699.24115021899 214356.19120972976 0 0 0 0 25386786.671229482 -5140632.2688751221 0 -5140632.2688751221 77059013.560348511 0 0 0 0 356878.0875077002 -94444.643319427967 0 -94444.643319427967 79127.703933380544 0 0 0 0 -6399223.9238912389 -32747023.844169617 0 -32747023.844169617 241373003.89050293 0 0 0 0 93459638.732897535 -10797117.489845276 0 -10797117.489845276 -60213812.106086731 0 0 0 0 56660850.232679665 -91183753.019630432 0 -91183753.019630432 185556319.81025696 0 0 0 0 63463191.078740597 -4055472.5023193359 0 -4055472.5023193359 128770215.4417038 0 0 0 0 16128121.436729312 41952208.007472992 0 41952208.007472992 167351715.18609619 0 0 0 0 37280465.519296408 26216656.068878174 0 26216656.068878174 132415825.6917572 0 0 0 0 12794972.350405782 52915059.216759682 0 52915059.216759682 112093745.23431396 0 0 0 0 -8932619.1661146879 -7888585.8256149292 0 -7888585.8256149292 131802599.20785522 0 0 0 0 1281137.1315911787 2099796.6021953747 0 2099796.6021953747 4448750.7553471923 0 0 0 0 18005047.870953448 -5961296.1995155811 0 -5961296.1995155811 -44294399.985229492 0 0 0 0 -186369360.77624115 -24451538.10433197 0 -24451538.10433197 143518765.84680176 0 0 0 0 20786045.15336271 143197783.70222247 0 143197783.70222247 141533057.907547 0 0 0 0 -3219088.913547731 -16679952.170062397 0 -16679952.170062397 24117003.913021952 0 0 0 0 -44951762.862862825 10567913.81879425 0 10567913.81879425 114680838.54519653 0 0 0 0 -78071404.293294311 -87452673.673069 0 -87452673.673069 -34686522.926300049 0 0 0 0 -80425968.618493319 -61318981.69543457 0 -61318981.69543457 47481985.959991455 0 0 0 0 105981813.34585871 -122402141.08596039 0 -122402141.08596039 34860419.325157166 0 0 0 0 51407276.543132856 -75925184.98759079 0 -75925184.98759079 4433947.571395874 0 0 0 0 54923756.20833011 -111951295.65955734 0 -111951295.65955734 -42558510.041320801 0 0 0 0 13302239.721639171 -9340124.0551147461 0 -9340124.0551147461 -42013934.229400635 0 0 0 0 91669725.227471352 -50503814.225456238 0 -50503814.225456238 -25769427.989341736 0 0 0 0 75320102.674293518 -65540169.325275421 0 -65540169.325275421 -28406446.173660278 0 0 0 0 151791589.47612202 -74925904.561080933 0 -74925904.561080933 -41647484.713863373 0 0 0 0 77357384.236861989 -38988099.340942383 0 -38988099.340942383 -29917445.973464966 0 0 0 0 88397376.04691951 33603228.439947128 0 33603228.439947128 95848737.708282471 0 0 0 0 135221460.87090269 -66619913.059675217 0 -66619913.059675217 91552020.763290405 0 0 0 0 5066645.8198637664 -602464.76194763184 0 -602464.76194763184 101484288.92664337 0 0 0 0 2701945.5904475451 23254548.451011658 0 23254548.451011658 57345253.54114151 0 0 0 0 -1645219.3955034614 -36303314.065971375 0 -36303314.065971375 159434049.33435822 0 0 0 0 -7174.904148504138 -46837379.811243057 0 -46837379.811243057 19265369.858673096 0 0 0 0 -63773724.033158064 -16784811.289199829 0 -16784811.289199829 95651465.066482544 0 0 0 0 -65559057.470598936 -28496396.96985054 0 -28496396.96985054 35644251.325866699 0 0 0 0 -52437760.609811008 15079392.185333252 0 15079392.185333252 37816661.057800293 0 0 0 0 -92152619.695172548 -15065543.538627625 0 -15065543.538627625 68541814.710716248 0 0 0 0 -92413824.24419257 -10684129.416752815 0 -10684129.416752815 18723798.581451416 0 0 0 0 -107139768.29149765 -5296292.2863960266 0 -5296292.2863960266 34923312.512214661 0 0 0 0 -106244339.28843381 -42413624.260285378 0 -42413624.260285378 32129941.43737793 0 0 0 0 -98860318.787725687 -18379217.742042542 0 -18379217.742042542 46219018.462310791 0 0 0 0 -344153.68210335751 5960556.0691322461 0 5960556.0691322461 12354039.916920118 0 0 0 0 -2297368.7366449879 -1168550.8568046452 0 -1168550.8568046452 12027083.245768189 0 0 0 0 -1325902.482598162 -2993517.3124596514 0 -2993517.3124596514 10995706.43908561 0 0 0 0 -21105388.135041237 -1472301.3655700684 0 -1472301.3655700684 -9528184.8023376465 0 0 0 0 -104254972.59079075 22519273.718048096 0 22519273.718048096 884326.06762695312 0 0 0 0 -166424209.711981 60871513.215801716 0 60871513.215801716 66245326.585571289 0 0 0 0 -22123546.780890465 28249295.000396729 0 28249295.000396729 70330672.417938232 0 0 0 0 -745712.32546695811 3839703.1514106058 0 3839703.1514106058 6211847.7971229479 0 0 0 0 -14269498.612668335 92094458.883102417 0 92094458.883102417 -138974863.87428284 0 0 0 0 -83599864.189539343 56109311.451187134 0 56109311.451187134 55702733.979827881 0 0 0 0 -158173853.57803068 -37283996.767028809 0 -37283996.767028809 101000918.17306519 0 0 0 0 -100460634.71791889 51442920.39509201 0 51442920.39509201 -10136448.40612793 0 0 0 0 -832499.27402347955 2008245.7698636977 0 2008245.7698636977 5815924.9783449471 0 0 0 0 -84629868.506271556 5647808.7941131592 0 5647808.7941131592 -9327886.6770019531 0 0 0 0 -83447616.82582669 -6882396.270655632 0 -6882396.270655632 31104899.313415527 0 0 0 0 -98996738.088051006 37312108.217277527 0 37312108.217277527 43025038.515808105 0 0 0 0 -65388543.273535013 25631797.896362305 0 25631797.896362305 42097482.710876465 0 0 0 0 -62389367.507271409 16163685.775764465 0 16163685.775764465 70548662.10748291 0 0 0 0 -29440133.400738567 36946845.767681122 0 36946845.767681122 56874315.23638916 0 0 0 0 -45550855.603253275 -848003.67791938782 0 -848003.67791938782 62526543.809951782 0 0 0 0 261756.12905377935 -60596.144699826837 0 -60596.144699826837 -11737.356012103148 0 0 0 0 -78632867.337787986 21670829.568161011 0 21670829.568161011 -94566078.098226547 0 0 0 0 -46959235.803817809 22110737.66986084 0 22110737.66986084 97180560.162338257 0 0 0 0 -79301929.412172556 45795101.343521118 0 45795101.343521118 80452056.245300293 0 0 0 0 4607660.8805264235 17377063.618133545 0 17377063.618133545 61838253.372184753 0 0 0 0 3907440.0309980735 13672285.570859909 0 13672285.570859909 54487135.367950439 0 0 0 0 32021548.090188622 -34215001.814594269 0 -34215001.814594269 116127001.30931091 0 0 0 0 52883256.806262493 22818209.604354858 0 22818209.604354858 53877239.883110046 0 0 0 0 37995183.361466974 17707964.130641937 0 17707964.130641937 8664799.9037780762 0 0 0 0 594803.39295736642 -15647.756169088185 0 -15647.756169088185 9200.1930609624833 0 0 0 0 77459914.640971899 87892512.548950195 0 87892512.548950195 -16374100.458618164 0 0 0 0 46183841.552480817 19621944.342761993 0 19621944.342761993 74244833.061859131 0 0 0 0 7321488.9881124496 128211552.5734024 0 128211552.5734024 273115625.20411682 0 0 0 0 58053562.634262323 164908947.099823 0 164908947.099823 264774606.24996185 0 0 0 0 114196993.96062052 87673680.064136505 0 87673680.064136505 16912682.49331665 0 0 0 0 97781275.589033842 187980151.73725891 0 187980151.73725891 226388933.04335022 0 0 0 0 75146863.628383279 202739180.69817352 0 202739180.69817352 218453084.11408997 0 0 0 0 -34959300.716219366 7903712.7654037476 0 7903712.7654037476 49564848.823074341 0 0 0 0 30603121.635571122 -11596063.135932922 0 -11596063.135932922 -86116179.106910706 0 0 0 0 -216145779.52554238 -71508870.664176941 0 -71508870.664176941 -20699982.05569458 0 0 0 0 -141384807.42781949 5961949.1752243042 0 5961949.1752243042 -552152.18151855469 0 0 0 0 115281842.88625455 89584416.302474976 0 89584416.302474976 -119814710.16123962 0 0 0 0 79319.503275370022 -10224.786628868431 0 -10224.786628868431 1840884.2355314195 0 0 0 0 98706687.541468263 266023797.89268494 0 266023797.89268494 211551321.11805725 0 0 0 0 18804869.825817347 81269205.901733398 0 81269205.901733398 -27981067.327735901 0 0 0 0 56090699.41309379 17626765.647720337 0 17626765.647720337 -133897910.82897949 0 0 0 0 -91404514.3441322 -52276190.07598114 0 -52276190.07598114 -126770220.53512573 0 0 0 0 179399499.23363566 -237136512.96030426 0 -237136512.96030426 257858083.46038818 0 0 0 0 7858723.5216078758 140237985.62843323 0 140237985.62843323 101615081.53394699 0 0 0 0 -1124024.7841627263 -4623875.3290694607 0 -4623875.3290694607 2242014.0426537469 0 0 0 0 118542262.85112798 -242009431.08035278 0 -242009431.08035278 418176395.09735107 0 0 0 0 26160703.06172514 -100562584.31056213 0 -100562584.31056213 178379409.49102783 0 0 0 0 62614098.616090059 -185559718.54072571 0 -185559718.54072571 311108937.35119629 0 0 0 0 87807756.663496017 -163178702.58387756 0 -163178702.58387756 224580733.20031738 0 0 0 0 149546117.36233711 -196087797.42245483 0 -196087797.42245483 176939251.10913086 0 0 0 0 130386185.30793333 -130711788.17016602 0 -130711788.17016602 42035812.431518555 0 0 0 0 179927827.11424637 -172298813.74066162 0 -172298813.74066162 18952376.855865479 0 0 0 0 173234289.87703013 -203594714.28387451 0 -203594714.28387451 76229107.514953613 0 0 0 0 -4791742.4647975611 1022673.1259144712 0 1022673.1259144712 18423812.58008115 0 0 0 0 28394602.302298069 -48344395.934776306 0 -48344395.934776306 -25326832.639099121 0 0 0 0 -19626604.114266872 -20177353.971786499 0 -20177353.971786499 34459966.546035767 0 0 0 0 -234853492.02948856 49144835.850898743 0 49144835.850898743 -15495358.289901733 0 0 0 0 20793.692288541693 -382680.44651559927 0 -382680.44651559927 5660153.2546920627 0 0 0 0 -88771456.557507038 -107033391.4646759 0 -107033391.4646759 22714096.475982666 0 0 0 0 216478141.75977767 111452300.30861664 0 111452300.30861664 154344690.53105927 0 0 0 0 89382504.597898185 128154480.51293945 0 128154480.51293945 298642612.71105194 0 0 0 0 87372830.913763702 109236448.84754181 0 109236448.84754181 223714698.28027344 0 0 0 0 43329161.843042135 85731642.354438782 0 85731642.354438782 223701646.81111145 0 0 0 0 106182142.49194944 66631661.642585754 0 66631661.642585754 159704269.06290627 0 0 0 0 71304928.006005645 16572606.505641937 0 16572606.505641937 127144169.17062378 0 0 0 0 75114655.94068861 8367286.6294784546 0 8367286.6294784546 139272476.61125946 0 0 0 0 58732045.515890479 -52673754.127167702 0 -52673754.127167702 110447083.08120728 0 0 0 0 27806008.563751787 -54280336.095405579 0 -54280336.095405579 120787558.86052704 0 0 0 0 2520160.386764884 13068547.723098755 0 13068547.723098755 71860339.487480164 0 0 0 0 150556653.85730922 -40145472.630233765 0 -40145472.630233765 10914024.242233276 0 0 0 0 339954.83924514009 11007.918526578695 0 11007.918526578695 28089.50824270118 0 0 0 0 155374018.89893281 192031968.09191895 0 192031968.09191895 289686725.59375 0 0 0 0 -4248894.5568833351 60655630.702852249 0 60655630.702852249 335214698.95030212 0 0 0 0 7825214.039219141 180094235.89479828 0 180094235.89479828 401520832.57156754 0 0 0 0 200013668.19065368 139685465.43107224 0 139685465.43107224 315676898.38726807 0 0 0 0 166359990.52935642 99375054.95665741 0 99375054.95665741 292163477.81126404 0 0 0 0 78543843.183643222 163374147.37656784 0 163374147.37656784 347444340.50686646 0 0 0 0 13327557.720826983 125533514.98685455 0 125533514.98685455 334336462.304142 0 0 0 0 -8015049.6133495569 102515211.87110901 0 102515211.87110901 337296214.43743896 0 0 0 0 9812007.9781826735 111015368.45458603 0 111015368.45458603 301872100.45664978 0 0 0 0 35393022.844890416 114865412.5122261 0 114865412.5122261 305972369.37005615 0 0 0 0 24367965.88662231 110725322.84941864 0 110725322.84941864 257925067.71437073 0 0 0 0 40791742.351989746 139079963.76258087 0 139079963.76258087 305813662.54400504 0 0 0 0 10041936.235282004 134897002.65420341 0 134897002.65420341 293895175.40892029 0 0 0 0 10438551.996656179 91871158.467819214 0 91871158.467819214 234899951.2910614 0 0 0 0 14582173.222970843 101893119.64620209 0 101893119.64620209 259137614.57333755 0 0 0 0 49123530.107742667 94302903.612003326 0 94302903.612003326 202593752.62767029 0 0 0 0 -21200113.93492493 128434207.58509064 0 128434207.58509064 315146498.67253113 0 0 0 0 -19637125.170296669 100978852.29927826 0 100978852.29927826 318086895.67959595 0 0 0 0 -21586499.187331498 80771383.62096405 0 80771383.62096405 336241004.72172928 0 0 0 0 -14514792.382360876 93951326.6772995 0 93951326.6772995 263858850.86735535 0 0 0 0 -10401860.724856257 103579035.20139313 0 103579035.20139313 283465747.43933648 0 0 0 0 -6765993.7819527388 120169250.22722626 0 120169250.22722626 283346710.35713041 0 0 0 0 -12994988.156447649 130503567.68952942 0 130503567.68952942 303799574.41539001 0 0 0 0 -21757262.640195191 125196108.06682587 0 125196108.06682587 300623365.19239044 0 0 0 0 -15564287.286844224 135914199.08139038 0 135914199.08139038 278684423.77835083 0 0 0 0 -18434189.032920986 135828351.65565681 0 135828351.65565681 300931178.85726929 0 0 0 0 2511269.754753232 128271774.1437149 0 128271774.1437149 270002678.00187683 0 0 0 0 -8891379.0557231903 71122363.278755188 0 71122363.278755188 320937504.15833282 0 0 0 0 -5143606.7777065039 70338599.05827713 0 70338599.05827713 195292894.09286118 0 0 0 0 8360826.0527376533 163905342.70698547 0 163905342.70698547 171877535.19454193 0 0 0 0 -14952466.357469536 109911659.0648632 0 109911659.0648632 171175205.79519653 0 0 0 0 -10733176.699171841 127041046.20113373 0 127041046.20113373 212924277.27097321 0 0 0 0 -10359433.987485498 128112936.35294724 0 128112936.35294724 334000459.58230591 0 0 0 0 -19559052.379798919 157142295.53205299 0 157142295.53205299 314716474.95877075 0 0 0 0 -25795725.885431767 129396239.93901062 0 129396239.93901062 300558027.26676178 0 0 0 0 -21184988.404805779 150342295.93809509 0 150342295.93809509 267768791.06074524 0 0 0 0 -31143697.125821918 143568948.82204056 0 143568948.82204056 288435055.99404907 0 0 0 0 -31133710.246543717 27751136.862075806 0 27751136.862075806 6568073.8062667847 0 0 0 0 15622219.150352746 6527716.4397201538 0 6527716.4397201538 4385883.2655487061 0 0 0 0 213781644.29489291 157875168.90386963 0 157875168.90386963 58595952.191303253 0 0 0 0 65243575.601218045 123414972.09260559 0 123414972.09260559 55925232.321128845 0 0 0 0 39286080.17913124 193917248.86234283 0 193917248.86234283 208736635.9961853 0 0 0 0 91513976.914760709 184877874.51515198 0 184877874.51515198 316593345.23200989 0 0 0 0 37483745.954931229 165649751.38742542 0 165649751.38742542 309780891.67614746 0 0 0 0 -85648348.167859778 -27819341.668861389 0 -27819341.668861389 21581125.220775604 0 0 0 0 280418845.02918321 278031200.50492859 0 278031200.50492859 262455160.35346985 0 0 0 0 -195490.67656876473 181332969.50532913 0 181332969.50532913 448637183.44909668 0 0 0 0 -38718.8312232436 87914.888399023563 0 87914.888399023563 407896.50824251771 0 0 0 0 91542746.703223944 239232393.91918945 0 239232393.91918945 551744197.72723389 0 0 0 0 45833819.962062001 107294403.80936432 0 107294403.80936432 437665458.45524931 0 0 0 0 139449652.32885888 96298992.682975769 0 96298992.682975769 438270002.82174683 0 0 0 0 58754670.851742625 75298105.0415802 0 75298105.0415802 561681548.31399536 0 0 0 0 51564663.134287804 45646240.571922302 0 45646240.571922302 417739607.95751631 0 0 0 0 57654850.583045185 120502648.17144775 0 120502648.17144775 418594154.64212346 0 0 0 0 15572044.137244437 122745463.90825462 0 122745463.90825462 476315329.16711426 0 0 0 0 13888613.821789861 139308729.89803314 0 139308729.89803314 339166214.2637558 0 0 0 0 33035219.484772548 66484750.597896576 0 66484750.597896576 383461475.62376404 0 0 0 0 38336961.330693707 71737376.558525085 0 71737376.558525085 374566634.78225708 0 0 0 0 56283551.867671371 54092703.657501221 0 54092703.657501221 374024918.31437159 0 0 0 0 179829.18720757955 62252156.660133362 0 62252156.660133362 400952332.79646301 0 0 0 0 -13725554.865869582 142319004.16184998 0 142319004.16184998 309076625.90725708 0 0 0 0 -10608112.566892266 114234187.25660706 0 114234187.25660706 329754327.68508911 0 0 0 0 -26943028.744050086 128411338.96578598 0 128411338.96578598 352806176.10888672 0 0 0 0 -5477513.507896781 118941011.05601501 0 118941011.05601501 327455679.18942642 0 0 0 0 -10848131.109997064 118307467.91213989 0 118307467.91213989 393917600.17431641 0 0 0 0 8351536.5417695642 96484912.501098633 0 96484912.501098633 350478771.7069416 0 0 0 0 26211599.142384827 62911516.136329651 0 62911516.136329651 368736611.54375648 0 0 0 0 5307033.8885787725 95000072.985160828 0 95000072.985160828 362271979.60792542 0 0 0 0 26023419.18226099 86490191.154670715 0 86490191.154670715 339771336.22108459 0 0 0 0 -13140828.624839008 114757554.40226746 0 114757554.40226746 345609587.31509399 0 0 0 0 -12846156.975546092 97957259.637783051 0 97957259.637783051 366678927.10053253 0 0 0 0 -268564.88405662775 23196323.295204163 0 23196323.295204163 558867167.21390533 0 0 0 0 215257.1491881439 142377.44293069839 0 142377.44293069839 211647.75421837345 0 0 0 0 2409076.0417695493 -883996.22626113892 0 -883996.22626113892 313032968.92300415 0 0 0 0 -3694101.834533751 15762941.915237427 0 15762941.915237427 286483864.15061951 0 0 0 0 42868260.699387759 44039481.815551758 0 44039481.815551758 368447499.43254089 0 0 0 0 34233767.705270439 71292329.319664001 0 71292329.319664001 377396541.93258667 0 0 0 0 75307595.293552697 84961745.787765503 0 84961745.787765503 380816917.86151695 0 0 0 0 62159544.327875316 53198953.250274658 0 53198953.250274658 366434685.61134529 0 0 0 0 -69625.9420516393 10924210.110050201 0 10924210.110050201 337740820.45029449 0 0 0 0 45378718.380457297 144989428.25647736 0 144989428.25647736 198175550.28240204 0 0 0 0 81270781.018613517 58851180.872322083 0 58851180.872322083 8323176.665435791 0 0 0 0 44504343.419983752 -11350126.46346283 0 -11350126.46346283 -17402598.721389771 0 0 0 0 -66786.93050618413 -3835.9757653996348 0 -3835.9757653996348 149512.52287776023 0 0 0 0 -14930730.371764034 12498856.395614624 0 12498856.395614624 113233154.15660095 0 0 0 0 101911.01938718157 4659945.9218101501 0 4659945.9218101501 20653492.274187088 0 0 0 0 598439.40423403983 400268.38509640843 0 400268.38509640843 552759.41960733384 0 0 0 0 3445344.9813162088 -1229589.216293335 0 -1229589.216293335 1827287.5921554565 0 0 0 0 -14330249.432062805 9393840.9300174713 0 9393840.9300174713 -3148286.527130127 0 0 0 0 38983425.863080621 14983786.524017334 0 14983786.524017334 -29465701.132255554 0 0 0 0 -19516246.29350429 3681674.8731517792 0 3681674.8731517792 22211784.498641968 0 0 0 0 -7160436.9505772889 13476951.359893799 0 13476951.359893799 49697985.485107422 0 0 0 0 -13354327.910032749 -11847898.102714539 0 -11847898.102714539 15065800.289146423 0 0 0 0 -2531737.0400827192 926911.69373703003 0 926911.69373703003 8892702.0684890747 0 0 0 0 -13982673.799504459 -5798880.2085952759 0 -5798880.2085952759 2865828.7171020508 0 0 0 0 1551210.4086945057 227717.98149108887 0 227717.98149108887 1855132.769317627 0 0 0 0 -220608.3458216947 60740.990794382989 0 60740.990794382989 507462.4941117242 0 0 0 0 -932457.83606425673 260043.96938705444 0 260043.96938705444 7726592.1287002563 0 0 0 0 -339547.42455183517 299472.1301176995 0 299472.1301176995 1103650.8997029848 0 0 0 0 -6944941.6879034042 -21317006.140197754 0 -21317006.140197754 -35344896.67880249 0 0 0 0 -1391168.5625862777 3572948.7230224609 0 3572948.7230224609 5701891.1600952148 0 0 0 0 15902957.682615638 25985407.241943359 0 25985407.241943359 109753682.75741577 0 0 0 0 1388148.2742681503 628765.12689208984 0 628765.12689208984 2811993.8190612793 0 0 0 0 868871.20114292391 627011.90884874761 0 627011.90884874761 928483.15600167587 0 0 0 0 -5980501.0081225634 20814620.918678284 0 20814620.918678284 142702504.43112183 0 0 0 0 -20189652.717974186 -3013339.7735290527 0 -3013339.7735290527 -20504092.162811279 0 0 0 0 -414434.45632752083 -766413.07265659049 0 -766413.07265659049 1455253.3165653851 0 0 0 0 -24190.616749048233 -47301.106201171875 0 -47301.106201171875 275940.93334960938 0 0 0 0 -414775.28748835559 -79279.418411482126 0 -79279.418411482126 1074474.4757605046 0 0 0 0 -3412654.6833257675 -28784618.560455322 0 -28784618.560455322 -36020860.075500488 0 0 0 0 -17929950.729844749 -16875978.734039307 0 -16875978.734039307 -37331137.227966309 0 0 0 0 -7081839.2648367882 -14160236.572570801 0 -14160236.572570801 -40244107.491882324 0 0 0 0 -7372329.0554661751 -27982322.348968506 0 -27982322.348968506 -36060744.664276123 0 0 0 0 -16331012.390971422 -12322078.461669922 0 -12322078.461669922 -36005888.215698242 0 0 0 0 -925743.16236390197 -1194645.9126479439 0 -1194645.9126479439 1703646.3269621283 0 0 0 0 -13218442.088901997 -16738521.866790771 0 -16738521.866790771 -40784261.595336914 0 0 0 0 -4254751.7009074688 -21783377.800384521 0 -21783377.800384521 -36885955.384944916 0 0 0 0 -1382644.1762771606 -24098593.43926239 0 -24098593.43926239 -38322282.564788818 0 0 0 0 -7237491.2241876125 -27032428.808700562 0 -27032428.808700562 -30682968.310058594 0 0 0 0 6399128.6132860184 -26244611.199829102 0 -26244611.199829102 -38795660.976776123 0 0 0 0 10121327.099771976 7211728.8345031738 0 7211728.8345031738 -83593105.877799988 0 0 0 0 6040363.5679090023 -30602867.830535889 0 -30602867.830535889 -35161874.60836792 0 0 0 0 18372893.072706416 -9064277.5317382812 0 -9064277.5317382812 -85146043.134353638 0 0 0 0 -1045982.6083691719 -885408.02899628878 0 -885408.02899628878 1084968.8261579871 0 0 0 0 918346.32229375839 -13067462.604415894 0 -13067462.604415894 -53074310.072463989 0 0 0 0 15465011.820053518 -20249880.528388977 0 -20249880.528388977 -60971073.409362793 0 0 0 0 3029864.5980606079 -2558114.1881103516 0 -2558114.1881103516 -64943058.03937149 0 0 0 0 -21717836.606419086 3575595.0338439941 0 3575595.0338439941 -38190659.300628662 0 0 0 0 -3906309.9502482414 -8048074.2415161133 0 -8048074.2415161133 -47661180.194030762 0 0 0 0 -10121287.114670277 651361.32916259766 0 651361.32916259766 -57956348.42578125 0 0 0 0 -18924864.991343975 9959186.4040222168 0 9959186.4040222168 -51287556.01789856 0 0 0 0 4422369.818013519 -11594986.933553696 0 -11594986.933553696 -52680357.868499756 0 0 0 0 6019870.8709724098 -25155938.022239685 0 -25155938.022239685 -68970193.901809692 0 0 0 0 7628043.8104481697 -12209347.251312256 0 -12209347.251312256 -50118838.624292374 0 0 0 0 1709906.4101996124 -7402172.3751878738 0 -7402172.3751878738 2714923.7799987793 0 0 0 0 2453928.9692687988 5386041.0677642822 0 5386041.0677642822 3026750.5701980591 0 0 0 0 -2519413.7209713459 4992540.3906555176 0 4992540.3906555176 4152646.6075134277 0 0 0 0 2982482.9249560833 514089.46466064453 0 514089.46466064453 -1990793.2899856567 0 0 0 0 1417635.4314957671 -608536.61764389649 0 -608536.61764389649 769010.99689045176 0 0 0 0 -297340.31225681305 458850.96150970459 0 458850.96150970459 550316.55453491211 0 0 0 0 561817.65839036391 -249037.71272802353 0 -249037.71272802353 1594347.731487561 0 0 0 0 365193.52379295026 190711.30929335207 0 190711.30929335207 86565.596526995301 0 0 0 0 4275576.0510282516 -2755923.5403747559 0 -2755923.5403747559 90878071.012207031 0 0 0 0 -11382499.74440825 47168098.790397644 0 47168098.790397644 202896292.42437744 0 0 0 0 18223522.23320961 60793700.759918213 0 60793700.759918213 113509838.8256073 0 0 0 0 14964458.477852404 66948621.560899734 0 66948621.560899734 194540888.14633179 0 0 0 0 23600131.692012072 55547773.006500244 0 55547773.006500244 190055367.37068558 0 0 0 0 99883.296454490861 46948.837483763695 0 46948.837483763695 61713.039082579315 0 0 0 0 16019907.746670902 53230754.007816315 0 53230754.007816315 195591708.27609253 0 0 0 0 26988332.922174573 59150485.123643875 0 59150485.123643875 193565466.8644104 0 0 0 0 20106598.671202898 57825719.696731567 0 57825719.696731567 200428262.35238934 0 0 0 0 -2797557.3971935511 59271049.534797668 0 59271049.534797668 201670463.77992249 0 0 0 0 47926.907390713692 71404748.399261475 0 71404748.399261475 234640282.45063782 0 0 0 0 -21681510.23352766 56174504.730348587 0 56174504.730348587 222760337.46859741 0 0 0 0 -18723175.132732511 70119879.367378235 0 70119879.367378235 265233816.62370825 0 0 0 0 -26647243.014770627 66816778.249099731 0 66816778.249099731 311370537.47090149 0 0 0 0 -20566459.712723404 86546709.387928009 0 86546709.387928009 274944558.56214905 0 0 0 0 -8851132.0137285292 -2963856.0692024231 0 -2963856.0692024231 219245322.37637329 0 0 0 0 3869031.4091309309 -1720300.4537506104 0 -1720300.4537506104 137116420.6658783 0 0 0 0 -9968157.0665132999 30327074.83681488 0 30327074.83681488 233692174.58877563 0 0 0 0 -2603790.1397738457 35368083.082473755 0 35368083.082473755 141377787.94428253 0 0 0 0 -23688232.603443146 377280.39679193497 0 377280.39679193497 -320467361.79107094 0 0 0 0 -125060358.0485878 54489719.56876564 0 54489719.56876564 162183462.23576927 0 0 0 0 -719701.66888318595 -1416738.7992813638 0 -1416738.7992813638 2512421.9178822795 0 0 0 0 -303539570.28345585 -69491261.118144989 0 -69491261.118144989 -32898442.538290501 0 0 0 0 -203449530.76496267 -279772873.94605398 0 -279772873.94605398 -154920642.77246094 0 0 0 0 -4332830.5234556198 -28815817.923599243 0 -28815817.923599243 -66975463.883144379 0 0 0 0 -53173223.527204514 -25709047.435087204 0 -25709047.435087204 -35927574.96005249 0 0 0 0 -65785467.247471131 -143763297.88512599 0 -143763297.88512599 -69224763.434013367 0 0 0 0 39842541.51237154 -146142331.74065399 0 -146142331.74065399 -126178567.493083 0 0 0 0 52890697.915817261 -79646116.381984711 0 -79646116.381984711 -40690194.25850296 0 0 0 0 -18777751.556753159 -58326033.488262177 0 -58326033.488262177 -4997125.6723098755 0 0 0 0 17701987.59299469 -6933278.9838981628 0 -6933278.9838981628 26852397.284704208 0 0 0 0 -27015195.598773003 5931023.1972980499 0 5931023.1972980499 71567246.920909882 0 0 0 0 6187904.057718277 -39881828.812824249 0 -39881828.812824249 -55413197.427055359 0 0 0 0 20497042.38794136 -286840822.8621316 0 -286840822.8621316 -133811453.59000015 0 0 0 0 700661571.38913345 103616515.89870071 0 103616515.89870071 -367123692.43115902 0 0 0 0 134214255.95581627 87425044.504223824 0 87425044.504223824 47248289.411331177 0 0 0 0 127788567.10964787 -3359254.720266223 0 -3359254.720266223 33323652.033927917 0 0 0 0 228873354.37481499 50282446.800076962 0 50282446.800076962 49260224.60879612 0 0 0 0 -911026.76454359386 2332362.1319407374 0 2332362.1319407374 1878033.0079388199 0 0 0 0 280886602.87059116 92088832.43916893 0 92088832.43916893 -80000015.8852005 0 0 0 0 187756552.44059753 116292567.73183179 0 116292567.73183179 -168235010.83830881 0 0 0 0 -226082869.19126606 -354977903.92715931 0 -354977903.92715931 87770268.088060379 0 0 0 0 64312766.426689148 1971437.4564714432 0 1971437.4564714432 34253826.069630384 0 0 0 0 7360034.3647289276 -139362154.26760912 0 -139362154.26760912 -268420697.76580966 0 0 0 0 1216952.0128283747 -3383415.0717319488 0 -3383415.0717319488 4891890.3954574363 0 0 0 0 -1742668.2201043172 420116.37991654768 0 420116.37991654768 2107085.4622071641 0 0 0 0 4097134.3703007698 79399402.336050987 0 79399402.336050987 28790660.028095003 0 0 0 0 126702034.53659707 -106775562.54749012 0 -106775562.54749012 29948077.673489571 0 0 0 0 123921.78500732221 -3052647.8897466809 0 -3052647.8897466809 4495589.1243859576 0 0 0 0 -113312628.98521376 -411831806.34635162 0 -411831806.34635162 -279233951.52293968 0 0 0 0 73597758.886243939 130581743.53616333 0 130581743.53616333 77523958.673521042 0 0 0 0 220150253.33949757 223981576.87351704 0 223981576.87351704 132667699.65775681 0 0 0 0 192301671.91068602 88786656.116017342 0 88786656.116017342 58851088.853616714 0 0 0 0 309170221.01342106 290447899.21890759 0 290447899.21890759 133683221.61881769 0 0 0 0 340075484.03246498 -42596945.026597977 0 -42596945.026597977 40431616.581522703 0 0 0 0 555894407.35736275 384879243.60471439 0 384879243.60471439 -6179568.0724334717 0 0 0 0 -328146311.03569424 4027743.2319009304 0 4027743.2319009304 299831857.5422821 0 0 0 0 451692930.86450768 661933592.60217857 0 661933592.60217857 612429356.14203167 0 0 0 0 -435078548.4318223 1127141943.2377064 0 1127141943.2377064 -1585141781.8193512 0 0 0 0 80543.864102466963 -689490.66503160913 0 -689490.66503160913 1944390.0748187564 0 0 0 0 -348918340.657341 204172988.15486145 0 204172988.15486145 97931956.258203506 0 0 0 0 -77804997.54151535 115303236.67700386 0 115303236.67700386 1117931380.4603577 0 0 0 0 198836681.34854317 -998269791.02585793 0 -998269791.02585793 2956107037.3801575 0 0 0 0 299780081.18363571 -595090317.11572838 0 -595090317.11572838 541077636.65228462 0 0 0 0 164343268.00728792 73679967.285119295 0 73679967.285119295 -313554172.50102425 0 0 0 0 137591693.54541588 -407559565.43287849 0 -407559565.43287849 436350618.92512131 0 0 0 0 204646670.9747529 97959830.451432228 0 97959830.451432228 10968088.964853287 0 0 0 0 233561093.45371532 61192878.194863319 0 61192878.194863319 -50731089.33134079 0 0 0 0 237561184.04015732 135103269.02321053 0 135103269.02321053 -79464157.852936745 0 0 0 0 -1570738.96138477 -502956.52244615974 0 -502956.52244615974 3007710.8147558356 0 0 0 0 323227251.24495602 147847015.9517498 0 147847015.9517498 -36563315.100223541 0 0 0 0 356969.64112285094 8337888.5595645458 0 8337888.5595645458 29285341.342288136 0 0 0 0 -72825686.195331573 34656404.198307991 0 34656404.198307991 16833836.260845184 0 0 0 0 -86590999.030049324 60412821.092213392 0 60412821.092213392 29258108.50255394 0 0 0 0 -33949745.043187141 73163828.809494019 0 73163828.809494019 29274065.558437347 0 0 0 0 -16676949.276287079 205296851.80105972 0 205296851.80105972 -56321966.599542618 0 0 0 0 -43600766.37115097 96954179.078960419 0 96954179.078960419 -28260074.216888428 0 0 0 0 22237.393046466634 3328417.4268013081 0 3328417.4268013081 1123044.7682557143 0 0 0 0 37637272.095705032 15015129.672674656 0 15015129.672674656 -5888805.1942577362 0 0 0 0 119526559.66986465 157754938.14318466 0 157754938.14318466 -51070411.528175354 0 0 0 0 113772622.30110168 83338316.324067116 0 83338316.324067116 -27134272.292618275 0 0 0 0 -62619353.905469388 19775076.912407875 0 19775076.912407875 41513297.879920959 0 0 0 0 1849510.3898302908 10456154.407068811 0 10456154.407068811 31215685.396497592 0 0 0 0 -57405906.562605619 2934348.6374883652 0 2934348.6374883652 47891751.631347656 0 0 0 0 -42770298.669529915 -7135077.1096305847 0 -7135077.1096305847 53907392.970062256 0 0 0 0 -36156541.885552883 11296576.260101318 0 11296576.260101318 26597655.082336426 0 0 0 0 -2426487.2247006539 14238434.666873574 0 14238434.666873574 5988441.7027961286 0 0 0 0 336288610.54054642 -227377422.18201828 0 -227377422.18201828 -198418625.45761108 0 0 0 0 -19208351.512577057 68745090.226558208 0 68745090.226558208 29552171.941998482 0 0 0 0 -8896955.2326319218 45850619.146375656 0 45850619.146375656 52683334.519538879 0 0 0 0 5226288.147121964 10052151.889274172 0 10052151.889274172 25090091.640814412 0 0 0 0 -27863824.986383438 32731219.432231903 0 32731219.432231903 -112839796.66614056 0 0 0 0 105573604.00852203 239158505.44120216 0 239158505.44120216 94412058.553433418 0 0 0 0 -3307072.0527019952 11846596.097430918 0 11846596.097430918 11409310.209367089 0 0 0 0 -8372404.725890398 -1932993.0122642517 0 -1932993.0122642517 32471278.064838409 0 0 0 0 -23936402.798030615 -19393845.23387146 0 -19393845.23387146 43754340.877075195 0 0 0 0 -41162500.190685272 -15078974.008972168 0 -15078974.008972168 43886074.328689575 0 0 0 0 409546570.97738838 305535655.44310951 0 305535655.44310951 65072639.266266823 0 0 0 0 -16099954.829026222 -343636641.76237488 0 -343636641.76237488 -298554445.45659256 0 0 0 0 650996479.77287483 162112572.87540054 0 162112572.87540054 -82717120.078308105 0 0 0 0 596719453.77338028 -45062025.923286438 0 -45062025.923286438 17309161.363388062 0 0 0 0 229652749.33164787 -21160421.574806213 0 -21160421.574806213 131668701.38593292 0 0 0 0 613375502.75778008 -411474923.15172195 0 -411474923.15172195 291697069.01045227 0 0 0 0 840587684.56497765 -159592440.2332077 0 -159592440.2332077 -13326335.073852539 0 0 0 0 216759716.59462261 19094072.515144348 0 19094072.515144348 9685189.8060493469 0 0 0 0 521182300.9593401 193467919.07972336 0 193467919.07972336 -33047809.629482269 0 0 0 0 274142949.5517931 96019853.770961761 0 96019853.770961761 -40193539.279823303 0 0 0 0 -116056467.99883962 -113040996.69939804 0 -113040996.69939804 95443899.32862854 0 0 0 0 98448669.824752808 408550098.91847134 0 408550098.91847134 -282707572.27716017 0 0 0 0 -66392957.331907272 -152332536.03144455 0 -152332536.03144455 -27870667.384899139 0 0 0 0 -975337.42830892885 -235086.94255261309 0 -235086.94255261309 1662977.5812975112 0 0 0 0 207630081.76905823 30462570.857795715 0 30462570.857795715 11649689.093614578 0 0 0 0 -65966864.659151077 57767263.284532547 0 57767263.284532547 38200590.631134033 0 0 0 0 -7135844.7652282715 -34146290.926158905 0 -34146290.926158905 -148073512.56325912 0 0 0 0 3128006.5969791412 -14066949.97077179 0 -14066949.97077179 66274842.870052338 0 0 0 0 60636879.250932693 -148048888.60591698 0 -148048888.60591698 43763959.5274086 0 0 0 0 54479329.772752166 -45613002.046544313 0 -45613002.046544313 47072436.217018127 0 0 0 0 50038759.37289238 -102736863.59581757 0 -102736863.59581757 289451777.81993103 0 0 0 0 -3279695.7487988826 4505006.1038294425 0 4505006.1038294425 7055737.1198979523 0 0 0 0 125457153.28920364 87732959.742744446 0 87732959.742744446 -122220962.93173218 0 0 0 0 -27906849.225377083 32167575.617931366 0 32167575.617931366 -77078105.164443135 0 0 0 0 184622092.99994802 67609172.829232216 0 67609172.829232216 -16275561.576793671 0 0 0 0 3186188.2619333267 -5856533.4483642578 0 -5856533.4483642578 -108649188.19078016 0 0 0 0 -4060303.3279561996 -53191550.256155014 0 -53191550.256155014 -86248453.912986755 0 0 0 0 199362085.14381981 27943850.354189873 0 27943850.354189873 -116268616.99647522 0 0 0 0 256246886.82330793 -62675343.00194931 0 -62675343.00194931 -182743615.63420105 0 0 0 0 250040988.76640469 78646659.30251801 0 78646659.30251801 -237638419.50866699 0 0 0 0 198093557.86172485 -132869715.06074524 0 -132869715.06074524 -264427698.58020782 0 0 0 0 490684158.80229378 -109211961.82749176 0 -109211961.82749176 -299248441.47912598 0 0 0 0 -88434391.302757263 -175932430.29168701 0 -175932430.29168701 861634990.13500977 0 0 0 0 768550938.81798458 331927787.81722641 0 331927787.81722641 -167769286.92626953 0 0 0 0 28126996.450023651 209373630.01002502 0 209373630.01002502 136527394.69244385 0 0 0 0 47215265.468248844 -199179467.95779037 0 -199179467.95779037 -187247687.07475662 0 0 0 0 272154464.33234692 -211987213.48056793 0 -211987213.48056793 -340079063.95207214 0 0 0 0 184141219.20291042 -111254695.42901611 0 -111254695.42901611 -131102377.03881073 0 0 0 0 47347321.631546974 -87364504.182167053 0 -87364504.182167053 -42227644.778320312 0 0 0 0 110553444.90705252 -118676950.22513199 0 -118676950.22513199 -129353729.45085621 0 0 0 0 158632154.83495927 -46331072.815292358 0 -46331072.815292358 -52115750.479133606 0 0 0 0 90347632.422712326 -56455157.047510147 0 -56455157.047510147 -21746879.502983093 0 0 0 0 96195551.696956396 -72477837.591362 0 -72477837.591362 -61186127.942756653 0 0 0 0 67666540.167253494 -59654321.874391079 0 -59654321.874391079 13840369.416679382 0 0 0 0 68929550.332090914 -53461733.694566727 0 -53461733.694566727 24706195.693225861 0 0 0 0 94169189.582006454 -41144332.493026733 0 -41144332.493026733 -11863388.08441925 0 0 0 0 128329493.90572977 -21834933.788404465 0 -21834933.788404465 -952773.68605804443 0 0 0 0 111564125.51926208 12156834.32084322 0 12156834.32084322 52435216.855602264 0 0 0 0 52697805.92538929 -20470794.217258453 0 -20470794.217258453 36845301.713512421 0 0 0 0 5067053.22804981 4504875.8379331557 0 4504875.8379331557 9928819.0367156304 0 0 0 0 4545679.3882312775 -2317958.5918960571 0 -2317958.5918960571 2308947.696434021 0 0 0 0 65024201.089195088 -49063239.282347679 0 -49063239.282347679 35934563.053077698 0 0 0 0 47122799.89846909 -29491939.877674103 0 -29491939.877674103 17641693.340763092 0 0 0 0 4997506.5963935852 -32591498.327560425 0 -32591498.327560425 32567682.559719563 0 0 0 0 -543884.9838649031 2961906.327769774 0 2961906.327769774 3027104.2729128823 0 0 0 0 -29765849.150968552 -30310148.579147339 0 -30310148.579147339 32493266.183639526 0 0 0 0 -54951549.538327694 -19291419.719684601 0 -19291419.719684601 32901713.629499435 0 0 0 0 4780361.1567592621 -3681995.7611351013 0 -3681995.7611351013 1958349.0563354492 0 0 0 0 -906919.8585460654 -124127.0541343363 0 -124127.0541343363 21637968.319434226 0 0 0 0 56008821.714944601 238148730.68415833 0 238148730.68415833 110064945.38565063 0 0 0 0 115663018.09075475 -99074242.59262085 0 -99074242.59262085 70726067.920532227 0 0 0 0 315165862.46582508 -294427857.93922424 0 -294427857.93922424 -43876897.167102814 0 0 0 0 302134670.027215 60654774.291992188 0 60654774.291992188 17442843.729095459 0 0 0 0 52581146.896730423 151581173.44680786 0 151581173.44680786 210856308.66470337 0 0 0 0 -37043884.185477257 38000615.140029907 0 38000615.140029907 262894713.65087509 0 0 0 0 -22041931.364159584 -21911389.239562988 0 -21911389.239562988 3105108.3018798828 0 0 0 0 3716990.734246254 -245868580.91871643 0 -245868580.91871643 5473674.6004638672 0 0 0 0 -4749635.434666872 -26944672.633731842 0 -26944672.633731842 -17292117.816604614 0 0 0 0 30222.406175391399 -3307706.9534735586 0 -3307706.9534735586 17560537.708164763 0 0 0 0 -31658338.993582964 -61346956.789199829 0 -61346956.789199829 -77068578.931915283 0 0 0 0 -301224.95997259032 -149406.71481288597 0 -149406.71481288597 466040.52100256644 0 0 0 0 -63486393.323534489 93232373.478595734 0 93232373.478595734 -30645594.079833984 0 0 0 0 15761562.238019943 67358526.40851593 0 67358526.40851593 -28097069.953125 0 0 0 0 -97408984.894182682 37112020.077358246 0 37112020.077358246 12908109.771179199 0 0 0 0 -43303890.827923775 7134237.9967651367 0 7134237.9967651367 11806893.013427734 0 0 0 0 14039937.969138145 -10634884.74029541 0 -10634884.74029541 -20529062.928058624 0 0 0 0 1852449.3763054609 -4068388.8008546829 0 -4068388.8008546829 2130845.6808395386 0 0 0 0 10114390.34619379 -4608616.5849456787 0 -4608616.5849456787 -8371670.1060028076 0 0 0 0 12014693.892127991 16289945.539367676 0 16289945.539367676 34065037.171699524 0 0 0 0 18108258.354408741 5215149.9204673767 0 5215149.9204673767 9979518.9676055908 0 0 0 0 24030983.543227196 12373212.90422821 0 12373212.90422821 -1051587.0528335571 0 0 0 0 19185024.059678257 -10014444.308218479 0 -10014444.308218479 -24730970.230964661 0 0 0 0 28480741.162673414 -24439862.917871475 0 -24439862.917871475 -27456423.073822021 0 0 0 0 56622147.688619137 30422243.345581055 0 30422243.345581055 -5768097.8408126831 0 0 0 0 -5958516.051273644 -12077236.523445129 0 -12077236.523445129 2072229.8921966553 0 0 0 0 3101785.0976802111 -42241905.285739899 0 -42241905.285739899 -90640482.063720703 0 0 0 0 -23146039.446721554 -17137172.64654541 0 -17137172.64654541 -20403995.136322021 0 0 0 0 -31724079.652075529 -61399166.356414795 0 -61399166.356414795 -64370896.844055176 0 0 0 0 -53699759.300862104 -99415742.433971405 0 -99415742.433971405 -93629870.695068359 0 0 0 0 1083994.7739214757 -424793.43241772614 0 -424793.43241772614 -1282144.8855426088 0 0 0 0 6346195.5270015523 4945802.1713506915 0 4945802.1713506915 4260304.4136614874 0 0 0 0 17339294.705094814 -7112466.2204322815 0 -7112466.2204322815 37263985.614244461 0 0 0 0 14610319.515501022 3557471.1990623474 0 3557471.1990623474 1273103.2801132202 0 0 0 0 9482279.1890788078 6853458.0198554993 0 6853458.0198554993 7423371.1734390259 0 0 0 0 -416337.10213527037 360016.15225977451 0 360016.15225977451 3463928.0890431963 0 0 0 0 15076896.01198101 13908681.231212616 0 13908681.231212616 11354057.236125946 0 0 0 0 59166925.431446075 -62295101.004196167 0 -62295101.004196167 51732238.440841675 0 0 0 0 3345914.380380149 3536446.7907895213 0 3536446.7907895213 2185559.7698571533 0 0 0 0 122417384.20923805 124360983.52590942 0 124360983.52590942 109983483.47187042 0 0 0 0 187949098.53124237 242030742.60534668 0 242030742.60534668 199823826.6298008 0 0 0 0 -782591.75100616692 -1306121.6874294523 0 -1306121.6874294523 4377438.6523180436 0 0 0 0 158947588.37228394 -24472840.901397705 0 -24472840.901397705 2004295.0819549561 0 0 0 0 802664317.8553524 262792134.50749588 0 262792134.50749588 299148496.20246887 0 0 0 0 770175666.7352066 350596786.06715012 0 350596786.06715012 87894169.036323547 0 0 0 0 -990472.09969305014 2766846.9960118695 0 2766846.9960118695 1825436.1026293412 0 0 0 0 345353386.64222693 222924244.84142256 0 222924244.84142256 157487432.90827942 0 0 0 0 198810661.75218964 -71500557.038856506 0 -71500557.038856506 438399450.24279022 0 0 0 0 -678652.73556625657 -867603.36198780313 0 -867603.36198780313 1923632.0843489785 0 0 0 0 29027443.629901409 -131674258.11369896 0 -131674258.11369896 277005950.32052612 0 0 0 0 28660094.224997044 -22184134.123287201 0 -22184134.123287201 44275232.527877808 0 0 0 0 26589148.312034607 -28541450.211239815 0 -28541450.211239815 33828767.849365234 0 0 0 0 37620956.009318948 -53382916.783223152 0 -53382916.783223152 85614557.892311096 0 0 0 0 85561717.257388592 -84535531.452610016 0 -84535531.452610016 43583724.889774323 0 0 0 0 110107461.06501675 -39274317.225336075 0 -39274317.225336075 -1015674.9483947754 0 0 0 0 317554846.58292389 -185206805.70608902 0 -185206805.70608902 4151995.977180481 0 0 0 0 374703660.16235161 -48535175.34741497 0 -48535175.34741497 -118361480.53502655 0 0 0 0 216341968.69048452 64723747.864375591 0 64723747.864375591 -145898247.84688568 0 0 0 0 174632318.32296944 -77670204.755781174 0 -77670204.755781174 -17760183.376154423 0 0 0 0 74898825.506417274 88375682.002422333 0 88375682.002422333 50003041.326007843 0 0 0 0 143383194.63398933 99451178.442516327 0 99451178.442516327 -31090991.565441132 0 0 0 0 68758904.138077974 -10486563.033846259 0 -10486563.033846259 3990900.8369369507 0 0 0 0 55310080.296028614 -69694214.066137314 0 -69694214.066137314 6336389.1638717651 0 0 0 0 70458964.168774605 -40783585.644855499 0 -40783585.644855499 7206478.9111938477 0 0 0 0 -7838641.5108646154 -69074017.316350937 0 -69074017.316350937 -2960125.1318817139 0 0 0 0 49732760.758363247 -22592568.450040817 0 -22592568.450040817 838661.49431610107 0 0 0 0 491155067.11574507 554910945.26285195 0 554910945.26285195 486333620.3706913 0 0 0 0 75949668.747467041 -139640449.64649296 0 -139640449.64649296 855057609.10738802 0 0 0 0 -240340864.58967209 220756799.45456791 0 220756799.45456791 926056428.16114807 0 0 0 0 -1670711.5484975404 4362959.1821468603 0 4362959.1821468603 3409489.9928986281 0 0 0 0 276192773.94696999 438597291.60835457 0 438597291.60835457 -44473140.192977905 0 0 0 0 3475282.1137710521 612592.55683075637 0 612592.55683075637 294074.99196711555 0 0 0 0 275733094.38207901 427969183.07037181 0 427969183.07037181 -272733293.14445877 0 0 0 0 -326350435.72413635 160599638.95206833 0 160599638.95206833 144034257.73370457 0 0 0 0 299665285.72497249 194321443.6780149 0 194321443.6780149 -343352023.56532288 0 0 0 0 703153366.15789366 497642096.66513252 0 497642096.66513252 42471565.502754211 0 0 0 0 299461834.16060257 198629267.29899025 0 198629267.29899025 -100135754.56821632 0 0 0 0 74051910.404153824 221473260.89621353 0 221473260.89621353 391464759.21131897 0 0 0 0 187868423.05688095 119165496.86884308 0 119165496.86884308 399649288.23998642 0 0 0 0 25863704.975528717 58950723.185827255 0 58950723.185827255 58404544.427524567 0 0 0 0 -183360402.80622005 142785486.05055714 0 142785486.05055714 237644565.10868073 0 0 0 0 37639548.685743332 -90334627.591176033 0 -90334627.591176033 140951180.74427986 0 0 0 0 -162879289.48422241 143645090.26598358 0 143645090.26598358 -92416439.143639088 0 0 0 0 5515259.6516046152 131938.15672091022 0 131938.15672091022 5892080.6613463853 0 0 0 0 -360916359.24858856 400041595.40000153 0 400041595.40000153 -56366067.95506382 0 0 0 0 -6961596.3015659433 -5296494.8584142923 0 -5296494.8584142923 28985358.774973132 0 0 0 0 -22667889.570648193 -65551359.718427658 0 -65551359.718427658 53878998.165316105 0 0 0 0 -83291901.476891518 -133732922.1767807 0 -133732922.1767807 -41496959.239494324 0 0 0 0 -286902564.99282265 -162175711.3791275 0 -162175711.3791275 -37275270.252403259 0 0 0 0 -9704976.5449347664 -9278084.6781491823 0 -9278084.6781491823 73272110.603151441 0 0 0 0 -67772523.098199844 -63013280.872591019 0 -63013280.872591019 93403149.91532135 0 0 0 0 -17185259.38344574 -23826882.059557915 0 -23826882.059557915 62106661.499966621 0 0 0 0 -79696179.929759979 -1035448.801864624 0 -1035448.801864624 128525554.85407829 0 0 0 0 -96886182.262523651 31338745.34784317 0 31338745.34784317 101520496.18065453 0 0 0 0 -69352702.66652298 50376007.137080669 0 50376007.137080669 55152689.567224503 0 0 0 0 -7577446.6091199815 1301778.3899950907 0 1301778.3899950907 19561223.908177853 0 0 0 0 -67806969.950357437 -34889043.494126797 0 -34889043.494126797 223131133.10796165 0 0 0 0 -26252665.164791107 75357878.287633896 0 75357878.287633896 136500235.36134052 0 0 0 0 -26688754.677711487 91858903.904626846 0 91858903.904626846 413427117.76783943 0 0 0 0 23656298.690965652 -16063189.575426102 0 -16063189.575426102 137568141.5851841 0 0 0 0 73735653.867860794 -96562165.845472336 0 -96562165.845472336 245654539.29207516 0 0 0 0 -18283649.776226997 14031808.942367554 0 14031808.942367554 25457927.026075363 0 0 0 0 -3765737.7144156792 -10109022.582200754 0 -10109022.582200754 2615948.9091503993 0 0 0 0 94529475.751939774 -7192937.9459381104 0 -7192937.9459381104 -41327163.411697388 0 0 0 0 -26103301.248514354 -59977334.4582901 0 -59977334.4582901 172020098.17346191 0 0 0 0 -18043646.514080048 -15537730.737800598 0 -15537730.737800598 114673710.65615845 0 0 0 0 27327149.590549231 -121391533.63163471 0 -121391533.63163471 203150681.19958496 0 0 0 0 -34654982.581611633 -51867295.549438477 0 -51867295.549438477 277202196.59915161 0 0 0 0 -45530516.454503775 -59720145.60100174 0 -59720145.60100174 329177775.80499268 0 0 0 0 -35061074.940814972 -17064816.337783813 0 -17064816.337783813 192297814.19152069 0 0 0 0 8596696.7975640297 11854716.102020264 0 11854716.102020264 165690648.51341248 0 0 0 0 -44009828.62755537 -19775751.089416504 0 -19775751.089416504 251837836.79725647 0 0 0 0 12596279.528150558 -55952670.775730133 0 -55952670.775730133 41367788.724578857 0 0 0 0 9477663.3707232475 -28154499.953643799 0 -28154499.953643799 26058025.023281097 0 0 0 0 -5645849.0799152795 -11880343.865739226 0 -11880343.865739226 8070264.2661984414 0 0 0 0 6538716.3719210625 -50561328.563369751 0 -50561328.563369751 26016864.970405579 0 0 0 0 -13875788.230536461 -26992848.787910461 0 -26992848.787910461 61256782.786354065 0 0 0 0 7261482.1115638614 -21414266.45055151 0 -21414266.45055151 48768512.490386963 0 0 0 0 35968100.799516678 90517359.579360962 0 90517359.579360962 193611980.20909882 0 0 0 0 18140226.578358173 18891341.477996826 0 18891341.477996826 -13265404.096031189 0 0 0 0 -54864743.016513348 -36165041.957969666 0 -36165041.957969666 60407136.266773224 0 0 0 0 -15535739.048553765 -42462034.664913177 0 -42462034.664913177 16336598.785812378 0 0 0 0 -48031673.430023193 15637397.502081394 0 15637397.502081394 69572248.897502899 0 0 0 0 -10035362.971839882 -11667707.196071092 0 -11667707.196071092 66499514.208917253 0 0 0 0 -48979724.661911011 -78088006.512306213 0 -78088006.512306213 16330353.544698523 0 0 0 0 -30703080.017383575 -57568124.044708252 0 -57568124.044708252 38577175.345035553 0 0 0 0 -19413321.621635437 -26335619.36026001 0 -26335619.36026001 103297883.9934082 0 0 0 0 -6467402.8771000588 -7936303.2791714007 0 -7936303.2791714007 43458262.372411311 0 0 0 0 12931851.583919525 8885260.6004333496 0 8885260.6004333496 40595445.363513947 0 0 0 0 2900383.9554576874 -13173399.500263214 0 -13173399.500263214 60416842.640472412 0 0 0 0 -16663383.559177332 -9714168.7543857172 0 -9714168.7543857172 29242763.081794225 0 0 0 0 -28436050.628902197 -45618681.455314636 0 -45618681.455314636 31265447.797836304 0 0 0 0 872914.27449893951 221256.67994689941 0 221256.67994689941 34621149.684120178 0 0 0 0 -13361981.418162346 -21241181.363666534 0 -21241181.363666534 70482294.24779129 0 0 0 0 -23359858.829068184 -1844934.9129524231 0 -1844934.9129524231 48535581.080345154 0 0 0 0 -24252651.931311607 32716474.766124725 0 32716474.766124725 26227115.817619324 0 0 0 0 441646.2653202982 4410006.2925111856 0 4410006.2925111856 10555658.192801222 0 0 0 0 -96600118.861392677 24755232.319097996 0 24755232.319097996 1251889.7710571289 0 0 0 0 -24524906.741286099 22160327.738608837 0 22160327.738608837 11489230.812553406 0 0 0 0 -96954198.036992073 30786440.246109009 0 30786440.246109009 -6180472.875 0 0 0 0 -30802980.335822105 -10240888.153526306 0 -10240888.153526306 36607063.449752808 0 0 0 0 -1232426.2812714577 -7700520.0492858887 0 -7700520.0492858887 24617538.885894775 0 0 0 0 -45999528.016137123 9692667.4280071259 0 9692667.4280071259 39359515.919418335 0 0 0 0 14760842.544937611 39567305.666793823 0 39567305.666793823 15616769.595001221 0 0 0 0 -79073665.492574692 160104989.83338928 0 160104989.83338928 111317082.19119167 0 0 0 0 -15369164.808538914 16888502.077373505 0 16888502.077373505 30593918.636985779 0 0 0 0 -2545994.7464241735 -5013206.3995904597 0 -5013206.3995904597 3070597.6660548896 0 0 0 0 60037027.583600998 -51975840.606407166 0 -51975840.606407166 -7011508.7004394531 0 0 0 0 -93424784.109676361 -167676160.24532318 0 -167676160.24532318 36847057.110109329 0 0 0 0 -5378435.5986755658 -2897195.6525331186 0 -2897195.6525331186 28476986.185706459 0 0 0 0 -19854644.561396599 31784.673713684082 0 31784.673713684082 4104510.0357666016 0 0 0 0 -2639888.5428776601 -1698352.0687110284 0 -1698352.0687110284 15368690.56184902 0 0 0 0 -19730142.339172363 -294007.37055969238 0 -294007.37055969238 4742553.1115722656 0 0 0 0 -2870719.7795794327 6910391.4177019298 0 6910391.4177019298 23937457.849098958 0 0 0 0 -124142.97013600706 31801.045841128565 0 31801.045841128565 13318120.193884127 0 0 0 0 -3086457.3543844544 -6976714.7705835979 0 -6976714.7705835979 7725696.5586045459 0 0 0 0 19033438.953697205 25435406.136398315 0 25435406.136398315 -4185147.2001953125 0 0 0 0 -1882812.6296920939 2452611.1860150751 0 2452611.1860150751 4331990.6750018261 0 0 0 0 -34502197.094136238 16224100.685816765 0 16224100.685816765 37149208.058929443 0 0 0 0 -29064331.297267914 22781592.859153748 0 22781592.859153748 24008284.724651337 0 0 0 0 -11325614.046522141 -5390586.4608402252 0 -5390586.4608402252 50072728.729690552 0 0 0 0 -56596565.521434784 -7835567.1171951294 0 -7835567.1171951294 33056890.206283569 0 0 0 0 -35433907.620065689 17377728.851222992 0 17377728.851222992 61874524.83140564 0 0 0 0 -32775638.439279556 -48710415.596618652 0 -48710415.596618652 46152140.358329773 0 0 0 0 -8314564.01010474 -2742543.2150066085 0 -2742543.2150066085 42009168.291496545 0 0 0 0 70653638.549381256 -98814768.902727604 0 -98814768.902727604 43841531.008481979 0 0 0 0 -75936360.604293823 -105577220.43936634 0 -105577220.43936634 66423182.002362251 0 0 0 0 -13459826.108960152 28025486.341182709 0 28025486.341182709 34100988.849903107 0 0 0 0 14914190.348758698 8719291.3516292572 0 8719291.3516292572 -5092156.059595108 0 0 0 0 73753909.739423752 141518702.50511026 0 141518702.50511026 137328190.61405659 0 0 0 0 178774288.8659935 26328505.359327316 0 26328505.359327316 14373872.49134922 0 0 0 0 2304324.482202474 -50216.775240510702 0 -50216.775240510702 -1508342.8990441756 0 0 0 0 27758825.265842438 -7468042.1666674316 0 -7468042.1666674316 7305727.2190427035 0 0 0 0 188481310.48113155 -5769963.0904277563 0 -5769963.0904277563 -2387432.8797464371 0 0 0 0 21329514.569778442 65063355.958126068 0 65063355.958126068 38939868.072561741 0 0 0 0 23075613.407112122 58112230.656432629 0 58112230.656432629 37898363.181735501 0 0 0 0 -54757919.936805725 77911240.77648592 0 77911240.77648592 215407313.58184862 0 0 0 0 122592847.76358509 148781113.59026766 0 148781113.59026766 101192589.17067719 0 0 0 0 -55657123.090013504 -41173328.382080078 0 -41173328.382080078 46228289.31930542 0 0 0 0 -8125258.6059844866 2224699.5545289833 0 2224699.5545289833 39157325.895659342 0 0 0 0 -102667520.07802391 -13067844.837047219 0 -13067844.837047219 113386822.05084801 0 0 0 0 6077242.3539505005 56075122.676138997 0 56075122.676138997 53504007.381823301 0 0 0 0 14871431.09835434 71991485.545000672 0 71991485.545000672 68463662.696410179 0 0 0 0 -43082856.607266426 -17434797.198020935 0 -17434797.198020935 392036.99168395996 0 0 0 0 -7159469.2805866441 9526120.145100899 0 9526120.145100899 38294245.163968526 0 0 0 0 -40450537.956571579 -16102532.651947021 0 -16102532.651947021 -903371.18313598633 0 0 0 0 1400823.2842826843 49398044.712365448 0 49398044.712365448 49932672.146349669 0 0 0 0 -42245520.527555466 -14453586.346752167 0 -14453586.346752167 -2408352.3761825562 0 0 0 0 -67063720.098148227 3218080.1567077637 0 3218080.1567077637 96744377.51209259 0 0 0 0 -38379855.585474968 -38181239.002761841 0 -38181239.002761841 46943199.656677246 0 0 0 0 -3479512.1424623877 -5779371.1656100545 0 -5779371.1656100545 25177779.41060815 0 0 0 0 -34474337.465606689 -18638769.949821472 0 -18638769.949821472 -3896377.6963043213 0 0 0 0 -1673778.1407963296 -5192195.8158457056 0 -5192195.8158457056 2170452.3569549918 0 0 0 0 40298141.662834167 130133270.74451303 0 130133270.74451303 96442693.609413624 0 0 0 0 141667061.14776707 95754149.255598426 0 95754149.255598426 22644144.262962341 0 0 0 0 24088264.653324127 104730222.10156965 0 104730222.10156965 122775536.68204618 0 0 0 0 197504076.21233368 200959658.57276917 0 200959658.57276917 154916669.29331589 0 0 0 0 -65932351.345207214 107227833.59891176 0 107227833.59891176 181849260.19407272 0 0 0 0 -62704023.061264038 68965987.046192169 0 68965987.046192169 99056405.078384399 0 0 0 0 17578923.976169586 39086253.151914597 0 39086253.151914597 88053884.174999714 0 0 0 0 -21004406.358234406 61702285.035025358 0 61702285.035025358 69633077.548884392 0 0 0 0 -53772350.622638702 66392700.581406355 0 66392700.581406355 206455239.77021933 0 0 0 0 -15813076.748838425 46337309.058346629 0 46337309.058346629 551323.90094184875 0 0 0 0 4893054.3519477211 -12631.809020348825 0 -12631.809020348825 -2611165.3452246925 0 0 0 0 -14261181.556568146 72210830.584431171 0 72210830.584431171 -11376819.297093451 0 0 0 0 -3913908.3739471436 30540282.121569753 0 30540282.121569753 -57078517.204359174 0 0 0 0 44643205.471767426 85343337.261062145 0 85343337.261062145 -10953202.651004791 0 0 0 0 46641201.455904007 39245967.632193565 0 39245967.632193565 -69133038.870891571 0 0 0 0 42576628.805803061 111135721.15233213 0 111135721.15233213 20277613.280939102 0 0 0 0 53892160.409860611 40703257.528532267 0 40703257.528532267 -75083614.075323105 0 0 0 0 18063604.579253793 -10801974.372485004 0 -10801974.372485004 -114260242.85437799 0 0 0 0 1312138.089440247 -3171912.1143168113 0 -3171912.1143168113 5798483.5409611585 0 0 0 0 6779295.2710976601 1893226.840116024 0 1893226.840116024 13662022.253225803 0 0 0 0 -1387734.9361228943 3304190.88382411 0 3304190.88382411 18107939.145613074 0 0 0 0 10244880.598739624 -3320892.858928293 0 -3320892.858928293 13416400.697346754 0 0 0 0 7817120.6012020111 2476186.8238164783 0 2476186.8238164783 15198989.537067175 0 0 0 0 16506910.337461472 3218995.8140543606 0 3218995.8140543606 11430645.950289428 0 0 0 0 15540043.380271912 6573096.4926486015 0 6573096.4926486015 14099289.106690645 0 0 0 0 6941171.4477615356 4560381.5956449509 0 4560381.5956449509 34961893.381512642 0 0 0 0 199828.96240406111 -122981.68506119912 0 -122981.68506119912 26223.903592425864 0 0 0 0 14018511.285744429 26573899.877705738 0 26573899.877705738 -58254684.217912912 0 0 0 0 6967660.1903736442 -203705.91664772946 0 -203705.91664772946 -3071142.4313098327 0 0 0 0 12717245.762779236 -6420080.4851923138 0 -6420080.4851923138 1288417.3377214074 0 0 0 0 25116247.031349182 -2443438.3760372996 0 -2443438.3760372996 180744.72491258383 0 0 0 0 15842503.00182724 -461207.06654560566 0 -461207.06654560566 -8183834.3992619514 0 0 0 0 22368293.082759857 -5074496.4636342525 0 -5074496.4636342525 -5489030.7920031548 0 0 0 0 11948265.804214478 -2252670.4309644699 0 -2252670.4309644699 -577863.2763723135 0 0 0 0 8982549.8867301941 -1011029.2010567188 0 -1011029.2010567188 480807.63673210144 0 0 0 0 11008427.223865509 -162283.40167951584 0 -162283.40167951584 465781.53316569328 0 0 0 0 8987809.8756103516 -3339742.8618617058 0 -3339742.8618617058 -733247.56975078583 0 0 0 0 10822900.467980754 1867684.3107086867 0 1867684.3107086867 1591515.0790876714 0 0 0 0 4571032.701877594 6544569.029655695 0 6544569.029655695 9409322.4546239376 0 0 0 0 44031080.367461205 -43005728.262088776 0 -43005728.262088776 44785392.755170822 0 0 0 0 16670324.35204792 23121846.401641846 0 23121846.401641846 27789951.164710045 0 0 0 0 16655568.843737993 2500361.0465812264 0 2500361.0465812264 7219386.7176626613 0 0 0 0 2408283.4234247506 1550310.1754617328 0 1550310.1754617328 111282.27960421983 0 0 0 0 25467551.431040764 -37678592.731305122 0 -37678592.731305122 116268124.43444347 0 0 0 0 13925686.901235104 -21570853.393725395 0 -21570853.393725395 132578966.42049026 0 0 0 0 20024630.639582753 -7814931.5317716599 0 -7814931.5317716599 32304781.024591446 0 0 0 0 14781574.778607368 -65990274.426998138 0 -65990274.426998138 130525103.50008583 0 0 0 0 58264447.605865002 -4723262.4934530258 0 -4723262.4934530258 8051694.0591268539 0 0 0 0 7947480.0799919209 2440233.9388199598 0 2440233.9388199598 2091953.4706206296 0 0 0 0 557405.653535777 692412.96454324666 0 692412.96454324666 1026826.355613742 0 0 0 0 44354969.356701732 94029162.44224906 0 94029162.44224906 309856186.36294746 0 0 0 0 7449141.087275371 1579557.6434105933 0 1579557.6434105933 -1383328.7302214326 0 0 0 0 3091317.876241684 -144799.00179604813 0 -144799.00179604813 10769403.518353119 0 0 0 0 2849650.0544540882 1685957.1233096179 0 1685957.1233096179 9525662.5346249044 0 0 0 0 -2778822.0399908032 3816792.0267323712 0 3816792.0267323712 3678869.9945995766 0 0 0 0 5095671.4132270813 -2379645.5370757133 0 -2379645.5370757133 13256609.209556073 0 0 0 0 7088193.7892932892 4421476.3883498907 0 4421476.3883498907 8048277.5293424129 0 0 0 0 5596346.0740225725 807410.17243815213 0 807410.17243815213 8229480.9101997195 0 0 0 0 6208816.5197677612 5401261.0916359425 0 5401261.0916359425 10094038.64795351 0 0 0 0 12183954.335220337 975876.65768051147 0 975876.65768051147 10361287.346147895 0 0 0 0 9636461.5458297729 3720811.8717024326 0 3720811.8717024326 12787131.693479657 0 0 0 0 10180658.79319334 6177963.6151303649 0 6177963.6151303649 8695176.0365688801 0 0 0 0 4414283.4643630981 3874988.4677813053 0 3874988.4677813053 8298290.629304409 0 0 0 0 5820575.4296836853 7676129.6718267202 0 7676129.6718267202 -2896823.8584413528 0 0 0 0 8358516.7713088989 1608072.5776939392 0 1608072.5776939392 3498016.8505830765 0 0 0 0 8525593.8024702072 -28768633.137718201 0 -28768633.137718201 15942370.666600347 0 0 0 0 7041154.2879012693 -1501808.2945324592 0 -1501808.2945324592 19335632.101959549 0 0 0 0 3923383.5121743679 -15627904.463130713 0 -15627904.463130713 19314679.686790466 0 0 0 0 9011312.5354976654 -23118673.137569427 0 -23118673.137569427 22570137.459497929 0 0 0 0 5533991.9198675156 -27914308.27740097 0 -27914308.27740097 21852762.530050993 0 0 0 0 -2912061.8027687073 1149614.9853153229 0 1149614.9853153229 8468347.318862915 0 0 0 0 18627951.349121094 33028528.391671419 0 33028528.391671419 58524465.576072454 0 0 0 0 19289194.822543014 13982398.867063399 0 13982398.867063399 26403340.431535188 0 0 0 0 -37917535.028240204 -23212055.429199219 0 -23212055.429199219 5505662.7823181152 0 0 0 0 3203044.9039878845 48641472.650664985 0 48641472.650664985 31124609.320518017 0 0 0 0 10325152.859710693 53243806.585616469 0 53243806.585616469 21505056.950463295 0 0 0 0 23446954.237976074 58003898.780345023 0 58003898.780345023 34493760.302204967 0 0 0 0 17607147.146055613 9830769.7099231426 0 9830769.7099231426 23830235.207196444 0 0 0 0 11838169.36481905 -17877978.10462904 0 -17877978.10462904 26768170.760072708 0 0 0 0 22603462.187345505 -11894062.877824783 0 -11894062.877824783 -17418104.034696579 0 0 0 0 19566117.254558358 4584401.7272767313 0 4584401.7272767313 11578794.493406286 0 0 0 0 47307323.659297943 30814932.701025248 0 30814932.701025248 -23360243.187870979 0 0 0 0 41597394.417244911 22087851.628437042 0 22087851.628437042 -1731354.0108861923 0 0 0 0 23121843.683067322 21638635.197333455 0 21638635.197333455 -10544947.919538021 0 0 0 0 74732509.780161858 54318856.391293891 0 54318856.391293891 9781263.8784661293 0 0 0 0 75775650.607693255 4980630.5472961832 0 4980630.5472961832 -6340233.3489741087 0 0 0 0 14258206.156703949 10517923.864152908 0 10517923.864152908 -6694332.8906039 0 0 0 0 29066887.796477795 8354321.9732608795 0 8354321.9732608795 64459160.058551788 0 0 0 0 4272262.7140420675 -27910148.786603212 0 -27910148.786603212 49874015.397222519 0 0 0 0 -20082755.153804779 14915212.050442696 0 14915212.050442696 124891871.64605331 0 0 0 0 -2789716.5573749542 8689977.6266155243 0 8689977.6266155243 126721571.66345167 0 0 0 0 44616224.859951973 35083743.013408661 0 35083743.013408661 105776583.9501574 0 0 0 0 -13276875.334234238 26061994.414686203 0 26061994.414686203 184114566.77987289 0 0 0 0 43641845.930553436 22989012.254600525 0 22989012.254600525 103372899.86499262 0 0 0 0 91887105.883143425 88527557.540222168 0 88527557.540222168 192317848.96123886 0 0 0 0 33367084.024219513 -3334122.4050445557 0 -3334122.4050445557 36464094.330818176 0 0 0 0 23003767.659403801 -33616403.504653931 0 -33616403.504653931 42397262.350818634 0 0 0 0 23062202.213876724 -23078809.141204834 0 -23078809.141204834 18116029.605776787 0 0 0 0 41952863.563169479 -18383507.102787018 0 -18383507.102787018 53338977.545036316 0 0 0 0 61139167.41199398 -24024353.440464735 0 -24024353.440464735 49328157.784542084 0 0 0 0 35564267.291505814 -22329490.432935715 0 -22329490.432935715 84463673.158367157 0 0 0 0 136172960.88597679 -6943254.7430362701 0 -6943254.7430362701 85585908.480029225 0 0 0 0 27914079.573949814 -6289856.9368190765 0 -6289856.9368190765 81653075.31039238 0 0 0 0 9025602.8818664551 -26679868.721130371 0 -26679868.721130371 93742565.147571564 0 0 0 0 5133839.7952098846 -10878547.300533295 0 -10878547.300533295 80428084.212251663 0 0 0 0 7551337.5945415497 -33760309.946292877 0 -33760309.946292877 61561059.646865845 0 0 0 0 3224199.212751627 -32690104.328017712 0 -32690104.328017712 63596560.900619507 0 0 0 0 3270603.017868042 -37743657.010473251 0 -37743657.010473251 60775326.21983242 0 0 0 0 24497221.821779251 -42895137.265014648 0 -42895137.265014648 64529037.04000473 0 0 0 0 10394084.541622162 -26094642.017856598 0 -26094642.017856598 46044376.158042908 0 0 0 0 12771989.81729126 -33842897.275365829 0 -33842897.275365829 40958168.841514587 0 0 0 0 6448946.0107574463 -28227549.050746918 0 -28227549.050746918 44151449.68069458 0 0 0 0 60180494.724382401 34737342.224517822 0 34737342.224517822 13931973.625574112 0 0 0 0 56609415.157899857 21580184.280032158 0 21580184.280032158 -21247233.570057869 0 0 0 0 62053350.337734222 37387305.117534637 0 37387305.117534637 15925626.686253548 0 0 0 0 9208468.4565858841 21663337.396202564 0 21663337.396202564 108658280.88626099 0 0 0 0 16332611.90657568 -17214244.703752518 0 -17214244.703752518 77662163.923351288 0 0 0 0 33766832.716313362 -34091542.559371471 0 -34091542.559371471 174203270.99682236 0 0 0 0 104250315.81703186 107082774.07412148 0 107082774.07412148 123197244.57015848 0 0 0 0 50150364.435012817 44608059.301868439 0 44608059.301868439 15870631.420278549 0 0 0 0 57551456.290086269 31046137.418561459 0 31046137.418561459 33143196.500038147 0 0 0 0 -2579488.4713888168 -6041344.2632341385 0 -6041344.2632341385 -11872420.186632156 0 0 0 0 -24624.751537159202 358734.67574172514 0 358734.67574172514 337151.29291268624 0 0 0 0 10052526.163928032 -15006269.428432465 0 -15006269.428432465 11726106.237958908 0 0 0 0 107750521.78295535 23069839.285186172 0 23069839.285186172 -11241849.390396118 0 0 0 0 377807.8128136415 77331.201885450631 0 77331.201885450631 -151580.6237701755 0 0 0 0 550240.66618251801 -37017665.640916824 0 -37017665.640916824 260834704.81205559 0 0 0 0 -448186.59006810188 -48602812.114066362 0 -48602812.114066362 127227029.36591721 0 0 0 0 -20479446.698487282 -444561.78124451637 0 -444561.78124451637 122284967.63466644 0 0 0 0 -1426046.8280382156 -11130641.592290878 0 -11130641.592290878 46309652.109424591 0 0 0 0 -23194285.586116791 -16973694.98384285 0 -16973694.98384285 126444929.97737312 0 0 0 0 767024.84341794252 277946.3660243121 0 277946.3660243121 167507.63552339934 0 0 0 0 -46577056.300141811 -10653256.686809063 0 -10653256.686809063 79064069.403648376 0 0 0 0 -20644399.686818123 22318425.494125366 0 22318425.494125366 47933602.69547379 0 0 0 0 22439326.870136738 -13739349.590672493 0 -13739349.590672493 -10319859.867998123 0 0 0 0 19806419.317489624 -38428885.740141869 0 -38428885.740141869 13370564.560037613 0 0 0 0 -85733.274884553277 311870.2269036416 0 311870.2269036416 666588.1565534994 0 0 0 0 -36385484.401259899 -13822841.758820534 0 -13822841.758820534 8044654.9183149338 0 0 0 0 60681859.393324852 41967140.914733887 0 41967140.914733887 3635171.2787132263 0 0 0 0 -2561863.0267395973 9366389.6037063599 0 9366389.6037063599 9345398.38385427 0 0 0 0 64001645.953186512 62411024.336358547 0 62411024.336358547 45605057.052253723 0 0 0 0 129732249.48438072 -13962661.108581543 0 -13962661.108581543 19294325.430634975 0 0 0 0 153470784.77892023 106773822.03638518 0 106773822.03638518 112169501.85002518 0 0 0 0 130019231.73334455 104363284.79446983 0 104363284.79446983 120980627.31433868 0 0 0 0 124527650.38241419 134276519.807082 0 134276519.807082 203531339.26723289 0 0 0 0 26718113.579723954 36723513.75175643 0 36723513.75175643 236379937.58584976 0 0 0 0 91913019.085076094 35753497.314407349 0 35753497.314407349 138369560.86009979 0 0 0 0 91631286.460251808 27893181.880058289 0 27893181.880058289 200614193.9318037 0 0 0 0 64359763.540543079 -783930.02568244934 0 -783930.02568244934 98064754.90713501 0 0 0 0 24478340.155320168 -6743964.7864437103 0 -6743964.7864437103 175082832.94618607 0 0 0 0 -161989.0804309845 -37396811.22256279 0 -37396811.22256279 145174059.46614075 0 0 0 0 -4182106.3396420479 -25745958.041439056 0 -25745958.041439056 111470349.48471642 0 0 0 0 -13652011.350018501 -31001430.202039719 0 -31001430.202039719 108553745.85750389 0 0 0 0 -2380711.6766624451 -6290846.2932720184 0 -6290846.2932720184 79385642.73298645 0 0 0 0 3166925.6071147919 -24357905.64778614 0 -24357905.64778614 20245326.441684723 0 0 0 0 14338712.763381004 10435298.007444382 0 10435298.007444382 68818290.706524849 0 0 0 0 158395283.78426504 46015178.916656494 0 46015178.916656494 38665458.633861542 0 0 0 0 13635965.904963493 -12888999.94919014 0 -12888999.94919014 97248076.461819649 0 0 0 0 283870099.16124868 85321690.627048492 0 85321690.627048492 -34609678.504957199 0 0 0 0 26523102.627063513 -26190996.862982988 0 -26190996.862982988 3320513.6081256866 0 0 0 0 -13262768.63065052 66828630.570541382 0 66828630.570541382 2505305.7475533485 0 0 0 0 826037.22045831941 303943.996210841 0 303943.996210841 23653.009926924482 0 0 0 0 2425514.3765923977 21045040.9660151 0 21045040.9660151 -17599064.954193115 0 0 0 0 73936765.149856567 16618740.800038338 0 16618740.800038338 -19871218.805614948 0 0 0 0 21006731.756396294 29429887.168863297 0 29429887.168863297 83694322.369005203 0 0 0 0 421292.88235366624 140755.46034526592 0 140755.46034526592 -35788.14744217135 0 0 0 0 78717286.175116539 212068937.36987877 0 212068937.36987877 209576225.15488815 0 0 0 0 210656373.9337337 214531757.0062983 0 214531757.0062983 163889465.82711792 0 0 0 0 158990828.01522017 146699646.65541935 0 146699646.65541935 80693283.557168961 0 0 0 0 160037630.59019923 131452000.20584983 0 131452000.20584983 63108063.938476562 0 0 0 0 159796557.26763058 107917482.42325497 0 107917482.42325497 102093630.38547039 0 0 0 0 80051283.798340559 2032368.0119514465 0 2032368.0119514465 5493315.3381748199 0 0 0 0 248762.94591427175 89445.211064254865 0 89445.211064254865 -170914.30155088939 0 0 0 0 55379058.936820686 34430997.8824296 0 34430997.8824296 18774822.126867294 0 0 0 0 255380609.923908 -6324587.6974835396 0 -6324587.6974835396 -178994747.00608826 0 0 0 0 288813071.88088083 -62758521.417549133 0 -62758521.417549133 -143950199.74006462 0 0 0 0 320693096.34141064 129570673.14901447 0 129570673.14901447 8392077.5502777398 0 0 0 0 220274345.73461556 202720571.5969286 0 202720571.5969286 136931673.6082077 0 0 0 0 -47266882.029487133 13718101.636126518 0 13718101.636126518 25046006.828072548 0 0 0 0 -47634198.824443936 16771489.775898457 0 16771489.775898457 42681417.897514343 0 0 0 0 14944874.16245842 -80286365.374716759 0 -80286365.374716759 60101441.734032869 0 0 0 0 -123515670.3205409 -49366305.422244072 0 -49366305.422244072 69079989.339948654 0 0 0 0 -64420665.428818941 -27562374.581733704 0 -27562374.581733704 9625299.9490776062 0 0 0 0 -29125903.737421751 23798592.028287888 0 23798592.028287888 30646769.834241867 0 0 0 0 -3081683.4707217091 3885439.3862372264 0 3885439.3862372264 24982266.252619475 0 0 0 0 -96187478.663754135 80485345.378391027 0 80485345.378391027 -6584725.7539596558 0 0 0 0 1619242.6390172155 -9498122.4367112387 0 -9498122.4367112387 6330290.3359150095 0 0 0 0 -3053554.338328117 5605794.0844785403 0 5605794.0844785403 5843491.7286927085 0 0 0 0 240470.48383200169 -2053475.7354266644 0 -2053475.7354266644 1179753.790810585 0 0 0 0 -169311145.84478426 60745976.384578705 0 60745976.384578705 12252940.37889576 0 0 0 0 1421361.3362044762 -2480368.0088351644 0 -2480368.0088351644 8723802.265396893 0 0 0 0 9718527.320763588 -3371491.0337991714 0 -3371491.0337991714 18511174.490829468 0 0 0 0 -230688837.6858058 -640304639.61735725 0 -640304639.61735725 -249316116.86946011 0 0 0 0 -403906613.79747391 -49892041.486763 0 -49892041.486763 12207690.732719183 0 0 0 0 -232713166.6046946 -356625208.57888651 0 -356625208.57888651 -309314973.89941025 0 0 0 0 -426336053.95191324 83339583.784440279 0 83339583.784440279 -31402522.369190216 0 0 0 0 580126402.92590666 -73184862.474029541 0 -73184862.474029541 -631041259.40872574 0 0 0 0 -147719731.51368952 -22767036.505025983 0 -22767036.505025983 19283745.005846024 0 0 0 0 -10951203.48417902 500672582.39143085 0 500672582.39143085 1442031236.7925205 0 0 0 0 762058788.71575212 -536097192.93392372 0 -536097192.93392372 263549873.4291687 0 0 0 0 -506495042.95610619 69951754.132591248 0 69951754.132591248 272573539.49142647 0 0 0 0 -17517678.400791168 7357906.0512280464 0 7357906.0512280464 23193906.151042938 0 0 0 0 -2217339.3054462438 -3254546.8670118707 0 -3254546.8670118707 22377163.250575796 0 0 0 0 380164098.22049713 213120068.86553383 0 213120068.86553383 -11455868.922697067 0 0 0 0 949906815.65873575 433802746.89312363 0 433802746.89312363 -224350144.47790909 0 0 0 0 2949140.2738790512 205461.59404541645 0 205461.59404541645 -672208.97002207534 0 0 0 0 200601274.86067271 462272146.08240891 0 462272146.08240891 1052616971.1341438 0 0 0 0 85861402.869226933 135488099.5161829 0 135488099.5161829 215733302.23336792 0 0 0 0 10621714.575581551 16612088.648940682 0 16612088.648940682 45111403.920710564 0 0 0 0 10667418.227556229 14931244.944187284 0 14931244.944187284 1164360.8657156229 0 0 0 0 315865988.2293725 182948776.48694891 0 182948776.48694891 -27888272.845468044 0 0 0 0 329730075.23441744 352146567.88773823 0 352146567.88773823 26436562.724329948 0 0 0 0 306994695.05461025 247765453.07100719 0 247765453.07100719 -114983030.70277405 0 0 0 0 404714922.84518433 248149108.3996644 0 248149108.3996644 -157500354.10698462 0 0 0 0 637287452.6915369 -174960184.54428673 0 -174960184.54428673 -26950164.293183327 0 0 0 0 955172763.04330909 416177212.19455457 0 416177212.19455457 -130040824.28104591 0 0 0 0 -80056535.874909878 497108122.97007799 0 497108122.97007799 211115406.3682673 0 0 0 0 398021949.73361766 219028010.84430766 0 219028010.84430766 -284188610.15564728 0 0 0 0 -20100620.720062256 -2718491.1512951851 0 -2718491.1512951851 19026166.539073944 0 0 0 0 -335521970.75729066 192110441.26915002 0 192110441.26915002 -85964879.714271545 0 0 0 0 -7363837.9846057892 -6233302.3486614227 0 -6233302.3486614227 15995863.867383957 0 0 0 0 -461340.12587921479 -1922046.5263256694 0 -1922046.5263256694 16399031.1070795 0 0 0 0 -18300834.56502533 -6020439.3726186752 0 -6020439.3726186752 23206634.940681458 0 0 0 0 -13908733.539806366 -20424720.634010315 0 -20424720.634010315 13075381.768764019 0 0 0 0 -7196792.7206277847 -15212003.104412079 0 -15212003.104412079 19771770.397895813 0 0 0 0 -11508294.200136185 -7821007.0162220001 0 -7821007.0162220001 7860536.4319629669 0 0 0 0 960295349.43005967 126559192.31055939 0 126559192.31055939 -36124216.372134805 0 0 0 0 428793590.15671873 440851847.06745625 0 440851847.06745625 -210208230.18614936 0 0 0 0 197880528.47355413 152783371.95786858 0 152783371.95786858 95068734.598115921 0 0 0 0 -1751255.3559125997 624880.83417378285 0 624880.83417378285 1987304.8724617246 0 0 0 0 331893150.73031902 341600728.33491993 0 341600728.33491993 35988504.382668972 0 0 0 0 484113.29694954969 -1559184.1856231615 0 -1559184.1856231615 1353040.7753921244 0 0 0 0 587063617.1247797 83018782.314967498 0 83018782.314967498 352342226.82656336 0 0 0 0 328993304.58636093 537733747.25819266 0 537733747.25819266 317570461.65745234 0 0 0 0 752304029.20733106 487111152.47586089 0 487111152.47586089 48483206.715120792 0 0 0 0 7490846.0408813953 12596433.259990424 0 12596433.259990424 288824676.45566988 0 0 0 0 2014204.926755714 -5449514.361910169 0 -5449514.361910169 10135473.249399835 0 0 0 0 521353966.83255541 292367081.11073041 0 292367081.11073041 219667513.25325632 0 0 0 0 -1160415.3160757935 -216101.49285111111 0 -216101.49285111111 1948902.3707081089 0 0 0 0 123945.81174373627 131112121.80848408 0 131112121.80848408 311541109.26635838 0 0 0 0 166430219.03521156 204473347.54333913 0 204473347.54333913 268296859.41531038 0 0 0 0 397694370.18819028 -205280028.52712792 0 -205280028.52712792 63367064.988354683 0 0 0 0 88335767.113221169 440607202.94134855 0 440607202.94134855 106112039.11984952 0 0 0 0 -11305486.772409201 -24031894.523212358 0 -24031894.523212358 17239852.876355171 0 0 0 0 -393183.27104473114 15928686.73138449 0 15928686.73138449 29031670.486239709 0 0 0 0 -3367050.3574385643 7017894.9868772309 0 7017894.9868772309 13058284.252595261 0 0 0 0 -81467494.220025539 -116090662.73233169 0 -116090662.73233169 175274056.50141251 0 0 0 0 224736963.66099453 145924953.1866523 0 145924953.1866523 -41825607.504742563 0 0 0 0 -3318344.2851276477 1621319.675741374 0 1621319.675741374 3885228.1904939734 0 0 0 0 86032461.94586277 218520764.38275909 0 218520764.38275909 142023666.22371352 0 0 0 0 -51250975.92192173 -36721730.005373001 0 -36721730.005373001 81372625.093334198 0 0 0 0 -64614732.374565125 -34051756.149240494 0 -34051756.149240494 83188044.731882095 0 0 0 0 -58751539.196757317 -14843848.063004494 0 -14843848.063004494 60576531.592567444 0 0 0 0 -65109430.61180377 -4287257.2710251808 0 -4287257.2710251808 38241009.959835052 0 0 0 0 -72630835.953220844 -14615580.202215195 0 -14615580.202215195 63106372.578453064 0 0 0 0 -74257074.45286274 -16247962.718514442 0 -16247962.718514442 76718665.407951355 0 0 0 0 -70744587.656790257 29366450.751329422 0 29366450.751329422 15724308.213699341 0 0 0 0 -63521899.469495296 8829150.4579124451 0 8829150.4579124451 53416647.095046997 0 0 0 0 -77743923.346879959 30402095.833671093 0 30402095.833671093 88829685.4659729 0 0 0 0 -94325999.313474655 62861252.893527985 0 62861252.893527985 27638595.409873962 0 0 0 0 -90248155.455751419 5905733.1310806274 0 5905733.1310806274 65097432.912856102 0 0 0 0 -87414908.138399124 -17821569.289851189 0 -17821569.289851189 140641670.33918762 0 0 0 0 -136749341.71260262 50765716.210767746 0 50765716.210767746 179860278.22369003 0 0 0 0 -128047492.12876987 50294847.052178383 0 50294847.052178383 135952462.81075287 0 0 0 0 -260762009.51552439 -84557924.624416351 0 -84557924.624416351 334897076.78977776 0 0 0 0 62043645.498971939 -193761493.91141129 0 -193761493.91141129 197073452.6808691 0 0 0 0 1052065.1837547398 -2837431.0567560326 0 -2837431.0567560326 5762709.6574423686 0 0 0 0 153136859.27551937 -58482690.864344597 0 -58482690.864344597 4742956.478313446 0 0 0 0 160957162.67474604 372502427.55420148 0 372502427.55420148 365979547.02884257 0 0 0 0 -44558077.374001741 296655678.61689699 0 296655678.61689699 408897080.54107094 0 0 0 0 16442339.510147095 -3215258.5246200562 0 -3215258.5246200562 6706405.2884365916 0 0 0 0 -14886750.3922894 -13494719.404865026 0 -13494719.404865026 22808445.971984863 0 0 0 0 39180971.531910896 -72621716.043495178 0 -72621716.043495178 53784796.224615097 0 0 0 0 -64428352.933986902 -70581346.14616847 0 -70581346.14616847 77433764.827720642 0 0 0 0 49810130.92346549 -20669796.348692179 0 -20669796.348692179 5169517.8986434937 0 0 0 0 -13402848.396759987 -29503238.307648659 0 -29503238.307648659 30961478.951705933 0 0 0 0 1647089.4412641525 -29286713.160477638 0 -29286713.160477638 30493622.527078629 0 0 0 0 9090981.2030887604 -18545931.646674156 0 -18545931.646674156 22987665.862010956 0 0 0 0 1959592.0392017365 -7301268.7268314362 0 -7301268.7268314362 15772471.222533226 0 0 0 0 11739511.44707489 -16180478.918951035 0 -16180478.918951035 20213989.121185303 0 0 0 0 -7399879.7508182526 -8611384.5237407684 0 -8611384.5237407684 38546007.874704361 0 0 0 0 13022555.65491581 -31286321.348236084 0 -31286321.348236084 49314456.888948441 0 0 0 0 12605666.538644552 -20391788.532490015 0 -20391788.532490015 37527989.06137085 0 0 0 0 43147420.554421425 10170596.878416061 0 10170596.878416061 37501761.003021717 0 0 0 0 -101926314.40641689 -25369212.835323334 0 -25369212.835323334 60889595.92937088 0 0 0 0 -41041692.698585987 13470644.927995682 0 13470644.927995682 38789833.8359375 0 0 0 0 -73963191.169499397 -11841421.601995468 0 -11841421.601995468 65054226.095233917 0 0 0 0 -54855162.165732622 -28784051.894064426 0 -28784051.894064426 35028488.812065125 0 0 0 0 -55290595.056066513 -33967714.87015152 0 -33967714.87015152 46739125.658103943 0 0 0 0 -77982200.657064438 -30028947.65438652 0 -30028947.65438652 50810258.286745071 0 0 0 0 -91549551.163852692 -52124758.883537292 0 -52124758.883537292 38140398.916231155 0 0 0 0 -119585592.19584274 48832490.479251862 0 48832490.479251862 223009370.5736618 0 0 0 0 328685.69393488485 699274.38034621347 0 699274.38034621347 396674.98961649928 0 0 0 0 -205015.35629281029 540938.78098664712 0 540938.78098664712 3075352.1714477479 0 0 0 0 -98279861.768074989 -20005512.782587051 0 -20005512.782587051 143113967.88933563 0 0 0 0 -41499140.670290947 -48530219.546991348 0 -48530219.546991348 7601577.3872089386 0 0 0 0 -106133337.48681396 -113756795.74908674 0 -113756795.74908674 -75137460.980762482 0 0 0 0 -118815835.1187731 -5246339.090954423 0 -5246339.090954423 21762821.594360352 0 0 0 0 -24204621.91108942 -58016679.607796192 0 -58016679.607796192 -67564827.379711151 0 0 0 0 -87164368.066615582 -7301156.5295991898 0 -7301156.5295991898 2623497.0619506836 0 0 0 0 -28584879.413814545 -50946366.322677612 0 -50946366.322677612 -30606461.533820152 0 0 0 0 -35372822.965920448 -34184532.789869308 0 -34184532.789869308 -20348079.810192108 0 0 0 0 -29208521.334751129 -32412942.646114349 0 -32412942.646114349 -36778375.514453888 0 0 0 0 -38731613.13193512 -39920925.151622772 0 -39920925.151622772 -5160637.758441925 0 0 0 0 -202291726.0797081 -15617190.984157562 0 -15617190.984157562 322947821.22434616 0 0 0 0 -299770.90813635709 543457.91137340572 0 543457.91137340572 785352.74008890428 0 0 0 0 36230489.819238186 -63611647.768610954 0 -63611647.768610954 54887708.536388397 0 0 0 0 -31957484.223348618 -43400886.039291382 0 -43400886.039291382 -4025266.1289577484 0 0 0 0 -60635232.602708817 -25983856.668393135 0 -25983856.668393135 -3320775.857257843 0 0 0 0 24262397.687556744 -4800559.5030097961 0 -4800559.5030097961 -2211074.8158874512 0 0 0 0 -2116423.4104903163 -1183372.1005749833 0 -1183372.1005749833 7969274.7090569427 0 0 0 0 -9765228.3217935562 704916.71958732605 0 704916.71958732605 24603514.677398682 0 0 0 0 -2486703.3561019897 -9320385.8811264038 0 -9320385.8811264038 16319851.17325592 0 0 0 0 -1034080.9148025513 4718036.1838111877 0 4718036.1838111877 25341270.677843094 0 0 0 0 -1665946.9932441711 921194.2961769104 0 921194.2961769104 79241122.806376457 0 0 0 0 149251.83091362473 1000192.4038017821 0 1000192.4038017821 2468778.6554988809 0 0 0 0 -35914473.777523756 -33888894.679760933 0 -33888894.679760933 -675127.44324684143 0 0 0 0 -21342982.205018997 -12913768.149675369 0 -12913768.149675369 26285563.512410641 0 0 0 0 -14567279.75097847 -8014748.0311126709 0 -8014748.0311126709 25669396.622785568 0 0 0 0 -13961324.846542358 -6307182.0136108398 0 -6307182.0136108398 32024331.380034447 0 0 0 0 -3755669.003452301 -1297523.3835792542 0 -1297523.3835792542 28683472.089960098 0 0 0 0 -14608939.771149874 -7770604.9768989086 0 -7770604.9768989086 25011572.759994507 0 0 0 0 -8849454.6907029152 -1371757.7630577087 0 -1371757.7630577087 33943125.070503235 0 0 0 0 -10910094.167423248 92723.941595077515 0 92723.941595077515 39157865.940593719 0 0 0 0 -2926952.9957905347 -1254431.9187884871 0 -1254431.9187884871 7871861.6649617162 0 0 0 0 -5425710.0689105988 5055188.8407783508 0 5055188.8407783508 35041413.986040115 0 0 0 0 6989150.8188226223 -9300217.6080794334 0 -9300217.6080794334 20000380.069698334 0 0 0 0 -22384047.811587334 -18293058.529979706 0 -18293058.529979706 17902555.446300983 0 0 0 0 -13148390.004319668 1739313.7966365814 0 1739313.7966365814 20299926.803094864 0 0 0 0 -6880760.6137533188 -2024049.2386817932 0 -2024049.2386817932 22170170.003570557 0 0 0 0 -7031247.409034729 97377064.940574646 0 97377064.940574646 -86272838.828214169 0 0 0 0 64577591.32427001 -260051940.53911877 0 -260051940.53911877 -41612514.555332184 0 0 0 0 -257909346.31014395 139225528.95445156 0 139225528.95445156 274490053.94633102 0 0 0 0 -62430396.518007278 121456518.62997055 0 121456518.62997055 -9045275.3979568481 0 0 0 0 -1065981.4221057165 -187494.37490724772 0 -187494.37490724772 2170032.7199735707 0 0 0 0 -39454063.608645439 -54043281.1289711 0 -54043281.1289711 8781269.5873804092 0 0 0 0 -155776237.44311714 -47319370.092309952 0 -47319370.092309952 53094972.030399323 0 0 0 0 -48644733.55410862 -11642483.695886612 0 -11642483.695886612 61153274.260679245 0 0 0 0 -212556475.52998233 73867778.750016212 0 73867778.750016212 115790570.80813217 0 0 0 0 -9220643.229739666 92906043.390136719 0 92906043.390136719 88174812.492759705 0 0 0 0 -2387889.1435337067 36627578.303649902 0 36627578.303649902 42194158.139465332 0 0 0 0 -90582685.225783348 37074171.311912537 0 37074171.311912537 60580258.941307068 0 0 0 0 -25935790.2820611 3255788.6461257935 0 3255788.6461257935 38453849.570999146 0 0 0 0 -43404028.409495831 -11059315.29314518 0 -11059315.29314518 35587501.723804474 0 0 0 0 -22854416.042630196 2776186.3492450714 0 2776186.3492450714 32079553.544498444 0 0 0 0 -23402322.820046425 5063222.227563858 0 5063222.227563858 34491134.335727692 0 0 0 0 18392578.917160511 15655951.548374176 0 15655951.548374176 25608407.211359024 0 0 0 0 -16886328.596372843 22416978.06855011 0 22416978.06855011 30998121.85590744 0 0 0 0 -6239101.0739893913 9360274.7907218933 0 9360274.7907218933 35936114.812496185 0 0 0 0 -6018986.1591303349 10142308.760246277 0 10142308.760246277 28146299.596561432 0 0 0 0 -21266562.776246071 6011913.449716568 0 6011913.449716568 32081396.496917725 0 0 0 0 4492635.1190117002 9680272.2028859854 0 9680272.2028859854 19868175.031669617 0 0 0 0 -18010349.663173676 978726.38149261475 0 978726.38149261475 27903276.935899138 0 0 0 0 -109581665.51901913 -16918484.150054932 0 -16918484.150054932 69516736.772132874 0 0 0 0 3397122.6848874092 23144807.209991455 0 23144807.209991455 34193176.213426828 0 0 0 0 -6024792.4953301288 -1606683.2175045246 0 -1606683.2175045246 20132923.198026679 0 0 0 0 -35816882.801527977 47536305.53458786 0 47536305.53458786 -71360542.544966698 0 0 0 0 -12659407.080571413 19106013.483757019 0 19106013.483757019 66197091.588218689 0 0 0 0 -29265093.935665607 -8838959.0697593689 0 -8838959.0697593689 19232279.38968277 0 0 0 0 -39032730.88299787 51963914.717365503 0 51963914.717365503 75695536.605167389 0 0 0 0 -47546625.551382065 -32221184.307998657 0 -32221184.307998657 75605382.325301647 0 0 0 0 -77579522.793670177 -63793922.033588409 0 -63793922.033588409 -37579528.577307701 0 0 0 0 -47614488.46432066 -33773100.264801025 0 -33773100.264801025 40289492.094673157 0 0 0 0 -58206756.717837334 -20854459.058134079 0 -20854459.058134079 56401960.329338074 0 0 0 0 -22376710.601765633 10776737.932449341 0 10776737.932449341 15805486.853672028 0 0 0 0 -34395170.040697098 -4452079.2381019592 0 -4452079.2381019592 22304026.986972809 0 0 0 0 -20986003.195924759 3888886.1155605316 0 3888886.1155605316 23495561.854171753 0 0 0 0 -44480277.216733932 -1212925.4068927765 0 -1212925.4068927765 31133202.127723694 0 0 0 0 -35608482.225759506 7691972.3093109131 0 7691972.3093109131 31420186.320014954 0 0 0 0 -49107521.130494118 8541038.8367857933 0 8541038.8367857933 33434406.186561584 0 0 0 0 -2535881.0351672913 762719.73337645712 0 762719.73337645712 27746820.975950338 0 0 0 0 -110221230.08436412 54392664.628593624 0 54392664.628593624 -11229259.748126984 0 0 0 0 179576.79378937243 101299.07583300956 0 101299.07583300956 -86435.607336230576 0 0 0 0 -107396835.52445638 88099399.031761169 0 88099399.031761169 64919787.064966202 0 0 0 0 -21859823.702495337 23730017.856598854 0 23730017.856598854 85521030.522663116 0 0 0 0 -29182917.660774231 -1485748.6935005188 0 -1485748.6935005188 31661294.058807373 0 0 0 0 -29241347.467512131 893584.88144111633 0 893584.88144111633 24752741.577417195 0 0 0 0 -31157891.998770714 1858797.5740776062 0 1858797.5740776062 31538039.895954132 0 0 0 0 -23648451.612695694 6209376.689953804 0 6209376.689953804 30245620.357551575 0 0 0 0 -36559078.135400772 10436556.371141434 0 10436556.371141434 25011216.563999176 0 0 0 0 -52277848.089953005 15783403.652000427 0 15783403.652000427 27940592.001792908 0 0 0 0 -2418015.6590607921 1641043.7724738105 0 1641043.7724738105 26647657.66579479 0 0 0 0 -28759620.685720086 554669.65609025955 0 554669.65609025955 24914423.165271759 0 0 0 0 -38595519.305100918 -1870770.1323795319 0 -1870770.1323795319 30021373.399705887 0 0 0 0 354519.94705294073 172009.18249187293 0 172009.18249187293 -185016.70561549254 0 0 0 0 -468445.37894199789 -21358147.212801099 0 -21358147.212801099 21701494.657909393 0 0 0 0 64554433.277749538 -47471363.009845734 0 -47471363.009845734 1061045.2603168488 0 0 0 0 4276862.535601601 28106533.313900709 0 28106533.313900709 -19455516.715835571 0 0 0 0 -37804095.793248653 6264622.2577762604 0 6264622.2577762604 -1502109.8259334564 0 0 0 0 51343754.365691185 -20682167.326845169 0 -20682167.326845169 -30391141.386011124 0 0 0 0 70188151.345617294 15047955.642956734 0 15047955.642956734 58139449.602288246 0 0 0 0 75709905.845282316 11698045.588047981 0 11698045.588047981 58890760.79675293 0 0 0 0 43541428.955721617 -35703678.210330009 0 -35703678.210330009 651402.96486711502 0 0 0 0 45974465.796877265 -53923003.765275955 0 -53923003.765275955 26986887.194248199 0 0 0 0 54212217.672771454 -28193747.670475006 0 -28193747.670475006 36897725.000061035 0 0 0 0 33835961.801435947 -46544391.494132996 0 -46544391.494132996 39126097.610935211 0 0 0 0 -27126125.824331284 -26590224.160709381 0 -26590224.160709381 39802140.666262627 0 0 0 0 82399958.249867678 -69863466.073301315 0 -69863466.073301315 30797974.564508438 0 0 0 0 84301367.279399395 -113908997.47050571 0 -113908997.47050571 121578531.45432663 0 0 0 0 135880785.40452003 82660915.760757446 0 82660915.760757446 137599204.50487041 0 0 0 0 -8728272.4285519123 -48231743.859638214 0 -48231743.859638214 86799147.847393036 0 0 0 0 12567804.911056876 -35087014.888082027 0 -35087014.888082027 4580416.903383255 0 0 0 0 -19363628.105914354 28599535.325927734 0 28599535.325927734 91533389.549217224 0 0 0 0 -6947638.4473638535 -23062829.229801893 0 -23062829.229801893 35279473.792186737 0 0 0 0 58005619.522082329 39707154.999658585 0 39707154.999658585 88927208.146747589 0 0 0 0 36389053.717137575 -23167076.183947563 0 -23167076.183947563 18744895.665729523 0 0 0 0 65576148.207147837 -45673759.033611774 0 -45673759.033611774 53747457.398460388 0 0 0 0 92065432.008935928 -38141536.905057907 0 -38141536.905057907 16825189.349858999 0 0 0 0 100071617.70198083 82322335.850004196 0 82322335.850004196 182337499.14746475 0 0 0 0 246240613.06286144 -29204801.607975006 0 -29204801.607975006 55125817.48613286 0 0 0 0 22711796.246630192 -43642728.179393768 0 -43642728.179393768 216828901.72402287 0 0 0 0 24154844.765198946 -32247076.479206085 0 -32247076.479206085 85790271.518730164 0 0 0 0 26939452.221488476 8364746.9688987732 0 8364746.9688987732 108256512.98950768 0 0 0 0 12937799.993171096 33565890.917010307 0 33565890.917010307 114775913.79805756 0 0 0 0 -4041077.5493946075 7023236.9697208405 0 7023236.9697208405 73773880.409639359 0 0 0 0 707822.12542009354 -42062281.747200012 0 -42062281.747200012 105569911.80012512 0 0 0 0 -17392376.907434821 -23051280.171473503 0 -23051280.171473503 89737814.935447693 0 0 0 0 3825416.3323254585 -58444842.41192627 0 -58444842.41192627 63065650.491111755 0 0 0 0 -17376398.682715178 -37662561.593648911 0 -37662561.593648911 50672152.689453125 0 0 0 0 51562482.695579529 -68278047.127845764 0 -68278047.127845764 41863280.691385269 0 0 0 0 4596057.3251200914 -53014168.665549755 0 -53014168.665549755 100348283.69600677 0 0 0 0 3627.7981110946857 -1391497.6665231399 0 -1391497.6665231399 767446.80844181776 0 0 0 0 166226399.82362282 65763009.985077858 0 65763009.985077858 39215747.155193329 0 0 0 0 99372217.711890936 -92607996.805814743 0 -92607996.805814743 92690858.764472961 0 0 0 0 -239374.72038034524 -186272.96499826759 0 -186272.96499826759 871607.92361541092 0 0 0 0 63362495.964763463 -37379552.458404064 0 -37379552.458404064 10359640.36315155 0 0 0 0 50083478.010590315 -47471647.25689888 0 -47471647.25689888 -121027782.68039703 0 0 0 0 -34841408.523173213 133293210.45901966 0 133293210.45901966 299056253.51687622 0 0 0 0 -9506963.628349781 -1306684.1738977432 0 -1306684.1738977432 10415427.943995476 0 0 0 0 -1615815.2444849885 362961.25962159777 0 362961.25962159777 6840006.9828459304 0 0 0 0 -10651142.410484076 -23159726.967588425 0 -23159726.967588425 27005479.238391876 0 0 0 0 -4033632.8152841032 -5067998.7244532285 0 -5067998.7244532285 6614328.2850291962 0 0 0 0 7915214.3522316217 -36094968.548762321 0 -36094968.548762321 29039700.902534485 0 0 0 0 29080520.526098251 -17523698.305959702 0 -17523698.305959702 9854897.5522202253 0 0 0 0 -1462571.406434057 -4215507.5441704188 0 -4215507.5441704188 3105745.7940973518 0 0 0 0 11203985.369502544 -42424808.641399384 0 -42424808.641399384 30464981.91003418 0 0 0 0 1037341.52133879 536958.23375422414 0 536958.23375422414 71118.609744364396 0 0 0 0 -72671832.768403351 91603203.06022954 0 91603203.06022954 -6953751.4871883392 0 0 0 0 -16992364.725916028 74713059.272947311 0 74713059.272947311 -69239500.170402527 0 0 0 0 -4933396.5701713562 -55237646.645768166 0 -55237646.645768166 2658119.5488395691 0 0 0 0 -52665209.244805336 29889240.743494034 0 29889240.743494034 185517927.2878952 0 0 0 0 116317048.62260962 105374249.29123378 0 105374249.29123378 -101841647.70639801 0 0 0 0 515327.83563098719 216546.23250344768 0 216546.23250344768 -23588.759800104424 0 0 0 0 -59450600.029790044 5952139.0384306908 0 5952139.0384306908 130378765.48973465 0 0 0 0 -29777631.715753973 -52787008.156713247 0 -52787008.156713247 130669710.48091888 0 0 0 0 -2693342.2316138744 25223523.776542664 0 25223523.776542664 53884837.599971771 0 0 0 0 -46349580.605433702 -5675156.9298095703 0 -5675156.9298095703 114616395.60249138 0 0 0 0 -2493074.0115428045 34125104.643929511 0 34125104.643929511 35532752.729003906 0 0 0 0 39176035.447768211 133124168.47504044 0 133124168.47504044 155122570.21901989 0 0 0 0 52533743.587414742 29527653.597379684 0 29527653.597379684 10065776.01632309 0 0 0 0 13219219.398565412 7027418.2684698105 0 7027418.2684698105 6868438.1135292053 0 0 0 0 6802754.0864523053 -7880284.7112221718 0 -7880284.7112221718 -142545.83877944946 0 0 0 0 10826947.784423888 2114397.5483307838 0 2114397.5483307838 7207195.3170547485 0 0 0 0 7005803.2265739441 -4416398.7417812347 0 -4416398.7417812347 34563506.148661613 0 0 0 0 -7247094.4360284805 4292504.6106772423 0 4292504.6106772423 7663310.2046694756 0 0 0 0 283702.24876108067 4571953.9781619813 0 4571953.9781619813 9086872.1090570372 0 0 0 0 -6262494.1221048832 2450947.1350598335 0 2450947.1350598335 9548918.0623989105 0 0 0 0 -2934874.9043768644 -3686580.8504250646 0 -3686580.8504250646 11028655.317499161 0 0 0 0 -3266204.9470724761 -960072.35081362724 0 -960072.35081362724 3338095.4497718811 0 0 0 0 -1951639.3457933131 -784545.77011169377 0 -784545.77011169377 8578229.9588246997 0 0 0 0 -63578967.535251141 -25642608.59280014 0 -25642608.59280014 3991669.8089027405 0 0 0 0 213570816.16621161 94556440.382638931 0 94556440.382638931 -162764526.00028229 0 0 0 0 20546957.712905407 -55453642.306463242 0 -55453642.306463242 -68605971.68727684 0 0 0 0 3412156.2122523785 -7298888.2246189117 0 -7298888.2246189117 3575602.8960266113 0 0 0 0 -1942241.4517431259 254071.48375988007 0 254071.48375988007 6733849.3697530404 0 0 0 0 979246.3115530014 1771429.5232410431 0 1771429.5232410431 6703592.37873438 0 0 0 0 -1380780.0221625566 6130695.7659722567 0 6130695.7659722567 2109911.6229639053 0 0 0 0 8494280.5361671448 5472309.2094845772 0 5472309.2094845772 6879744.4715499878 0 0 0 0 -5108560.4076089859 3282690.4027581215 0 3282690.4027581215 7330418.3712940216 0 0 0 0 -488343.95297926385 1151350.1623792858 0 1151350.1623792858 8229849.6697674897 0 0 0 0 -4628792.3696365356 4057375.6470708847 0 4057375.6470708847 11787504.678880453 0 0 0 0 -12052929.936989784 2303082.1342697144 0 2303082.1342697144 5206762.9842095375 0 0 0 0 -6934162.8306560516 8457819.3139822483 0 8457819.3139822483 9359558.7787151337 0 0 0 0 -4424467.1818161011 5325462.2952308655 0 5325462.2952308655 2892353.5090847015 0 0 0 0 -970936.4461873211 458233.35083724489 0 458233.35083724489 8749363.6814354602 0 0 0 0 62290.773776773713 5597912.1999031017 0 5597912.1999031017 3272148.229028652 0 0 0 0 -6867205.3773798943 5849726.2546117306 0 5849726.2546117306 3735244.4853796959 0 0 0 0 -5262277.1092020273 10992972.145052075 0 10992972.145052075 6877314.1304616928 0 0 0 0 5352447.3160171509 25514770.361274719 0 25514770.361274719 -7786703.4967947006 0 0 0 0 -11879440.595806122 6295652.8727207184 0 6295652.8727207184 10678351.146827698 0 0 0 0 26878288.51999855 28650347.882762432 0 28650347.882762432 3864827.9739093781 0 0 0 0 -19854732.372313261 14674222.2221632 0 14674222.2221632 9975741.1916313171 0 0 0 0 20951595.367572784 12194467.35029459 0 12194467.35029459 -5992086.6022605896 0 0 0 0 -4557193.1527938843 24312321.344301224 0 24312321.344301224 40460518.185009003 0 0 0 0 -678465.28668301739 1295240.7572034402 0 1295240.7572034402 856608.16600382794 0 0 0 0 15629087.255213976 14116326.094326735 0 14116326.094326735 13494002.225675583 0 0 0 0 -2018834.7087323666 10811488.638367653 0 10811488.638367653 16999153.308927536 0 0 0 0 11583460.341465473 3341344.8776435852 0 3341344.8776435852 12664835.270967484 0 0 0 0 11655288.038612247 17482691.846315384 0 17482691.846315384 10210880.837715149 0 0 0 0 18825209.000714302 33858453.827644348 0 33858453.827644348 39316986.552341461 0 0 0 0 5917141.315868156 9833869.084415026 0 9833869.084415026 13006518.519305948 0 0 0 0 -4862202.5918540955 3362182.2413201332 0 3362182.2413201332 -4135310.0490131378 0 0 0 0 -5881814.1657586098 -12231561.677988529 0 -12231561.677988529 22657438.647445679 0 0 0 0 -12151642.097387314 18359700.09970665 0 18359700.09970665 54433404.46295929 0 0 0 0 1345104.1915630922 10504158.918572044 0 10504158.918572044 22576964.631909572 0 0 0 0 -5703038.8895263672 27683219.85855484 0 27683219.85855484 18908018.025230408 0 0 0 0 -7726034.5420718193 21670983.586935043 0 21670983.586935043 53527946.675483704 0 0 0 0 -20741041.726032257 33224331.622341156 0 33224331.622341156 70759056.650566101 0 0 0 0 -11143895.205393305 2894470.4437814886 0 2894470.4437814886 29565620.791568391 0 0 0 0 -17520169.003227472 26116743.659513474 0 26116743.659513474 52683928.095146179 0 0 0 0 -15561936.303014994 19423105.593785286 0 19423105.593785286 57833198.759399414 0 0 0 0 -32041755.839051247 14081002.879693031 0 14081002.879693031 26130393.867927551 0 0 0 0 -121563184.65443027 -25877194.457645893 0 -25877194.457645893 65192981.37727356 0 0 0 0 -5329436.501133522 -3610616.2741207285 0 -3610616.2741207285 30205752.684117083 0 0 0 0 -29474773.651134491 9069308.8582267761 0 9069308.8582267761 28305324.079379082 0 0 0 0 -101467485.78123915 -3209914.2576544285 0 -3209914.2576544285 65025581.334465027 0 0 0 0 -99698834.847490281 -42326219.072493732 0 -42326219.072493732 66110837.857757568 0 0 0 0 -53541608.419404984 -33384465.039993286 0 -33384465.039993286 61986902.656333923 0 0 0 0 -31428447.51792717 -47181958.659484863 0 -47181958.659484863 59851620.69511795 0 0 0 0 -19216084.446436048 -30668438.632023811 0 -30668438.632023811 58261381.585716248 0 0 0 0 -59249536.734713554 -38973921.784572601 0 -38973921.784572601 69815116.93132019 0 0 0 0 -79666956.770754352 4798943.5590035915 0 4798943.5590035915 43384645.74716568 0 0 0 0 -54317518.33171463 -26108365.47564888 0 -26108365.47564888 52511434.964645386 0 0 0 0 -74948187.505025387 -33921377.681529999 0 -33921377.681529999 65300994.269966125 0 0 0 0 -43700107.374868393 -31715569.659568787 0 -31715569.659568787 52990096.423377991 0 0 0 0 -66427139.885514259 -18310981.430633545 0 -18310981.430633545 55381156.654518127 0 0 0 0 -5798027.471953392 8155532.7906556129 0 8155532.7906556129 9323481.8173537254 0 0 0 0 -32998881.745771885 -12747806.23134613 0 -12747806.23134613 39483140.68031311 0 0 0 0 -2345623.9101192215 3446461.7893313644 0 3446461.7893313644 26350957.199860703 0 0 0 0 -34022569.785732031 -19946742.330684662 0 -19946742.330684662 49096927.171672821 0 0 0 0 -10444042.083172332 -16518149.861846298 0 -16518149.861846298 40018530.289268494 0 0 0 0 -16563539.143656731 -45651582.69572258 0 -45651582.69572258 49148234.177136898 0 0 0 0 -17918679.239830971 -31441818.730945587 0 -31441818.730945587 44143675.199119568 0 0 0 0 -4699372.9035339355 6508539.4784202576 0 6508539.4784202576 8567123.9053077698 0 0 0 0 15990072.36869812 3836243.6474914551 0 3836243.6474914551 59282554.038715363 0 0 0 0 -505174.27709640563 6314800.5812916625 0 6314800.5812916625 5210027.1382821575 0 0 0 0 -43459780.589056253 -5545815.8526496887 0 -5545815.8526496887 12658838.04990387 0 0 0 0 -3122132.3439156399 -1045221.5693580476 0 -1045221.5693580476 26419402.772202201 0 0 0 0 -1711805.389557411 657219.31388912816 0 657219.31388912816 4009333.8696232568 0 0 0 0 -3715825.336977005 -31396674.672134399 0 -31396674.672134399 807694.16704177856 0 0 0 0 -10813523.141929526 5851133.852887949 0 5851133.852887949 28840261.525822852 0 0 0 0 -8623026.7974004745 1276679.7146568298 0 1276679.7146568298 6563737.8049468994 0 0 0 0 -6520178.3341117017 1502534.8946110518 0 1502534.8946110518 20453138.643900245 0 0 0 0 -44482063.304083109 -120906548.19449759 0 -120906548.19449759 91769656.055583954 0 0 0 0 237933226.22574806 12898409.848625183 0 12898409.848625183 68145539.845415115 0 0 0 0 24870906.501450062 -38231502.958337784 0 -38231502.958337784 152202538.50850296 0 0 0 0 -67783071.665052414 67897494.562519073 0 67897494.562519073 56591443.056709766 0 0 0 0 -60680.025351333315 205433.5528026144 0 205433.5528026144 349026.05619280413 0 0 0 0 257800220.9416976 -56938822.072955132 0 -56938822.072955132 -11911210.547607422 0 0 0 0 9807189.55240345 40927371.695178032 0 40927371.695178032 98636013.214664459 0 0 0 0 119191276.82542419 -172798801.94667625 0 -172798801.94667625 31817684.445049286 0 0 0 0 34751993.103363991 -102188354.56334162 0 -102188354.56334162 80740243.073167801 0 0 0 0 -98660.879695455777 295075.31047009304 0 295075.31047009304 726401.22929443046 0 0 0 0 41683708.957012653 -56094942.01081562 0 -56094942.01081562 -7728042.7062270641 0 0 0 0 -22594770.08766973 -6450682.9103457928 0 -6450682.9103457928 33457957.929922104 0 0 0 0 90618679.328585148 70782141.945202827 0 70782141.945202827 36152288.467286587 0 0 0 0 121140149.63537121 138691757.33089066 0 138691757.33089066 87980478.272556305 0 0 0 0 340604822.63898611 193166352.58664036 0 193166352.58664036 96869188.292497158 0 0 0 0 385313655.35848427 -37822114.287665367 0 -37822114.287665367 110996126.68048096 0 0 0 0 152114772.07597542 126383483.46186638 0 126383483.46186638 47502913.696572661 0 0 0 0 121205892.48759794 78425531.37421608 0 78425531.37421608 31500190.69129324 0 0 0 0 -20344130.393908501 -6765774.6626272202 0 -6765774.6626272202 73054687.125606537 0 0 0 0 543227.78767136019 220153.71010993607 0 220153.71010993607 -24638.400267257355 0 0 0 0 189716030.7795127 47489504.226273298 0 47489504.226273298 -131732593.31637001 0 0 0 0 151759406.56264603 201954901.5961113 0 201954901.5961113 155957040.34996033 0 0 0 0 217679023.15049624 190899042.44589233 0 190899042.44589233 75311450.994295597 0 0 0 0 84802296.656681895 52336158.730854988 0 52336158.730854988 154123930.15165329 0 0 0 0 241038558.83614159 145117532.09396935 0 145117532.09396935 108670616.95682263 0 0 0 0 227590276.40012217 190036458.76021671 0 190036458.76021671 97265054.150119781 0 0 0 0 6154732.3719100952 127377740.0857954 0 127377740.0857954 265101276.32483006 0 0 0 0 219284805.87562186 223334847.18504703 0 223334847.18504703 133633440.92411041 0 0 0 0 140792238.31163692 65541130.254664421 0 65541130.254664421 168088859.93276653 0 0 0 0 131641538.6285553 89762369.195778847 0 89762369.195778847 112137040.65333557 0 0 0 0 5023317.5384645462 5419256.7301025391 0 5419256.7301025391 126063763.20770001 0 0 0 0 -4079309.4283661842 49478669.505275726 0 49478669.505275726 -25136087.642893791 0 0 0 0 27106054.825123787 -22395480.880027771 0 -22395480.880027771 38358682.355951309 0 0 0 0 -24409739.995788574 81198410.024086952 0 81198410.024086952 -90881337.569114685 0 0 0 0 1077425.9476818626 537123.51288886555 0 537123.51288886555 57406.87936087884 0 0 0 0 -32358494.379776955 91439727.22064209 0 91439727.22064209 108216982.0294838 0 0 0 0 11954190.691408634 -49465046.159363747 0 -49465046.159363747 41042119.448049545 0 0 0 0 -19639185.68925786 -8198545.5804338455 0 -8198545.5804338455 144414235.45343399 0 0 0 0 281801.47348244727 711448.04834624333 0 711448.04834624333 613669.95591385663 0 0 0 0 33433141.519579172 -39798355.865519524 0 -39798355.865519524 34758660.322851181 0 0 0 0 627403.82892131805 11607651.369880676 0 11607651.369880676 5968062.2356948853 0 0 0 0 -12218705.712607026 4610665.5124549866 0 4610665.5124549866 11496046.785041809 0 0 0 0 509415.0235375567 2796688.3880056841 0 2796688.3880056841 2411134.8822539598 0 0 0 0 6873469.1001391411 10978483.486419678 0 10978483.486419678 7571993.6670255661 0 0 0 0 1876830.5194610362 556756.76844057208 0 556756.76844057208 -2142602.7606042735 0 0 0 0 17656758.100073457 3586156.1582751274 0 3586156.1582751274 -5839073.3427467346 0 0 0 0 34848057.06738323 56862648.633605003 0 56862648.633605003 92704057.596687317 0 0 0 0 18312726.135373831 6650759.4544200897 0 6650759.4544200897 9194042.2617721558 0 0 0 0 14514754.901684761 19034745.556646347 0 19034745.556646347 43073944.292430878 0 0 0 0 15360644.509494781 8109571.7302322388 0 8109571.7302322388 -3524677.6576576233 0 0 0 0 26319200.578252554 6221448.3157024384 0 6221448.3157024384 -4271884.1415424347 0 0 0 0 26026941.806370258 7938496.193772316 0 7938496.193772316 -12516715.508590698 0 0 0 0 18655708.405869126 11972175.278336525 0 11972175.278336525 31841936.650302887 0 0 0 0 25406872.338425636 -133539.63206481934 0 -133539.63206481934 30686498.741154313 0 0 0 0 7292251.5416693687 -7974386.4846000671 0 -7974386.4846000671 90174294.565547943 0 0 0 0 66683153.959895134 19940025.856773376 0 19940025.856773376 82180791.240888596 0 0 0 0 -16420365.655308425 -17412545.514762402 0 -17412545.514762402 91573694.044830322 0 0 0 0 15849283.889919281 -12531567.767086983 0 -12531567.767086983 86920950.129898071 0 0 0 0 49210962.500772476 1155503.755569458 0 1155503.755569458 40984847.783855438 0 0 0 0 37404284.409879684 41376232.571632385 0 41376232.571632385 138078755.90545654 0 0 0 0 172227084.57471174 236578970.24086213 0 236578970.24086213 224811878.51423264 0 0 0 0 337445.86968216777 975727.76695235167 0 975727.76695235167 676558.35011837631 0 0 0 0 -97254697.566594601 -45692476.719654083 0 -45692476.719654083 166612567.59690285 0 0 0 0 1105111638.0061336 121308075.29497457 0 121308075.29497457 55524661.715465546 0 0 0 0 -24266682.883606434 96721245.549840927 0 96721245.549840927 296958978.22178173 0 0 0 0 -11681867.100663662 44752948.805994034 0 44752948.805994034 1086378.4816169739 0 0 0 0 46711508.186566591 2682054.711045742 0 2682054.711045742 -6586655.2262439728 0 0 0 0 -67086659.865629673 18062178.881493568 0 18062178.881493568 7960071.792298317 0 0 0 0 711761.38029774709 2607749.323387966 0 2607749.323387966 2248342.409151502 0 0 0 0 1081443208.4573073 -242217880.57895589 0 -242217880.57895589 -134844279.6144104 0 0 0 0 250245351.5120573 -229734071.24031448 0 -229734071.24031448 270464737.49013901 0 0 0 0 386793995.36617756 -39183948.582662582 0 -39183948.582662582 167467377.3066864 0 0 0 0 615673204.33934546 108500371.09747696 0 108500371.09747696 33739526.439874649 0 0 0 0 185183573.39288807 -6329493.8847427368 0 -6329493.8847427368 63616697.218387604 0 0 0 0 256845379.02162504 300389857.06532288 0 300389857.06532288 -190513279.81051636 0 0 0 0 208394798.26704335 -4684860.3962759972 0 -4684860.3962759972 -297656245.08213425 0 0 0 0 -88100727.688613892 101699315.98509407 0 101699315.98509407 22413563.829272628 0 0 0 0 315895112.28743076 186842936.6784296 0 186842936.6784296 94782870.860530853 0 0 0 0 74669505.360681534 18878299.848321915 0 18878299.848321915 28732946.275635004 0 0 0 0 21736073.289199829 63934931.499702454 0 63934931.499702454 129455889.65842438 0 0 0 0 -126136977.42334366 -77489258.341081619 0 -77489258.341081619 183304450.29190826 0 0 0 0 35045696.175656557 16878044.914411068 0 16878044.914411068 279011764.11803055 0 0 0 0 323245480.79483938 153948164.68824959 0 153948164.68824959 361123447.15531158 0 0 0 0 217266047.82223892 -57019052.942144394 0 -57019052.942144394 157997420.3555851 0 0 0 0 288543463.96052933 -90850508.523201942 0 -90850508.523201942 224782484.63082504 0 0 0 0 38647966.501832962 -78433494.951488495 0 -78433494.951488495 189226530.42936325 0 0 0 0 45423724.474607468 48360642.877396584 0 48360642.877396584 196285663.28805923 0 0 0 0 6295407.635503334 558423.24443979934 0 558423.24443979934 1234139.3700044891 0 0 0 0 -57401781.619372368 118966626.04286575 0 118966626.04286575 -108773393.17163849 0 0 0 0 -3997421.0786361694 -56105048.459388733 0 -56105048.459388733 123757894.98946047 0 0 0 0 -92859554.646186829 33325007.695930481 0 33325007.695930481 32521112.944869995 0 0 0 0 -141113426.15752602 115920631.08718491 0 115920631.08718491 106053659.2116127 0 0 0 0 -64773769.985386848 -132209573.43409348 0 -132209573.43409348 221357554.62162781 0 0 0 0 588467433.65676403 -187071778.83918381 0 -187071778.83918381 -155892780.41647339 0 0 0 0 1094526734.1685987 155991167.52884674 0 155991167.52884674 29966965.102304459 0 0 0 0 969087787.08569431 64482985.174552917 0 64482985.174552917 -53762281.915283203 0 0 0 0 512311465.74501038 -253184112.91220093 0 -253184112.91220093 -12365489.242926598 0 0 0 0 376082557.16129398 -30015253.240882874 0 -30015253.240882874 68697360.550262451 0 0 0 0 172607643.29325867 -100636135.5753479 0 -100636135.5753479 116302559.25703049 0 0 0 0 406438761.55428696 -48036710.843914032 0 -48036710.843914032 8928507.9284362793 0 0 0 0 144510962.94001245 -65342848.916621208 0 -65342848.916621208 60349616.742095947 0 0 0 0 405712947.03737986 47657735.843476772 0 47657735.843476772 30852267.912261963 0 0 0 0 709816162.80182743 -37668323.430923462 0 -37668323.430923462 -52463332.430221558 0 0 0 0 333090029.65475464 -6317420.5149345398 0 -6317420.5149345398 -34355042.201328278 0 0 0 0 543948907.75488901 43656142.763641357 0 43656142.763641357 -31166318.567344666 0 0 0 0 306914165.9017573 51606823.972436905 0 51606823.972436905 13322208.52961731 0 0 0 0 177034585.09815598 25007153.007785797 0 25007153.007785797 39875462.929260254 0 0 0 0 36583109.12594223 18725874.722839355 0 18725874.722839355 48009447.182201385 0 0 0 0 110464843.17436028 15501470.852525711 0 15501470.852525711 67337240.615646362 0 0 0 0 -19019847.228391647 -61070259.145730972 0 -61070259.145730972 61227974.158248901 0 0 0 0 -80764306.701438904 31839573.446022034 0 31839573.446022034 29193101.900222778 0 0 0 0 -82362255.817401886 39167470.575294495 0 39167470.575294495 80295812.064804077 0 0 0 0 -87741221.227493286 42826235.023799896 0 42826235.023799896 22450493.923431396 0 0 0 0 -84984919.571399689 -26825785.64352417 0 -26825785.64352417 4564358.2993125916 0 0 0 0 -83495489.418949127 -18266832.280406952 0 -18266832.280406952 53684546.309921265 0 0 0 0 -73022064.323068619 -39617051.536388397 0 -39617051.536388397 8718496.4560775757 0 0 0 0 -51803774.395061493 -63915508.399078369 0 -63915508.399078369 36442896.553045273 0 0 0 0 -55287830.275777817 -15327425.960243225 0 -15327425.960243225 66360399.062852859 0 0 0 0 -37076955.639118135 46265213.722964525 0 46265213.722964525 78415156.672203064 0 0 0 0 -35230203.309425354 74251013.139308929 0 74251013.139308929 3374848.9715118408 0 0 0 0 -18237802.185966492 7075679.3989620209 0 7075679.3989620209 51153053.383737564 0 0 0 0 -34327470.550270081 -10418741.70925045 0 -10418741.70925045 109434778.38006592 0 0 0 0 -919983.42265540222 -1154366.5233592205 0 -1154366.5233592205 1646358.7038296955 0 0 0 0 89550914.846496582 59066125.602905273 0 59066125.602905273 143747409.863585 0 0 0 0 333135482.06893206 158623224.45802307 0 158623224.45802307 -477862667.00809479 0 0 0 0 369849773.62221336 12068464.010402679 0 12068464.010402679 41934496.467712402 0 0 0 0 168238129.03286743 48568705.518033981 0 48568705.518033981 -18588086.887313843 0 0 0 0 -246733.1116574551 -1044628.9706500564 0 -1044628.9706500564 1491701.7416523313 0 0 0 0 272739669.82138038 117386605.59515953 0 117386605.59515953 44440034.68447113 0 0 0 0 164151051.02778745 -15359758.403362274 0 -15359758.403362274 -117502217.76961899 0 0 0 0 482959273.17017889 152620710.72438812 0 152620710.72438812 -33988216.530382156 0 0 0 0 457967112.13048077 -82995951.76227951 0 -82995951.76227951 38180692.417983055 0 0 0 0 548898702.94954562 127401288.98035622 0 127401288.98035622 -55386447.227767944 0 0 0 0 -33442870.939010739 20198639.139892101 0 20198639.139892101 8300445.6211090088 0 0 0 0 1027436898.9599009 14660647.062159061 0 14660647.062159061 -209747500.870224 0 0 0 0 713675.72069193562 4261583.5067514228 0 4261583.5067514228 4877346.5668665916 0 0 0 0 563123136.61195564 392457236.35719681 0 392457236.35719681 -229434718.14480972 0 0 0 0 -2157353.0615885258 14791136.724822044 0 14791136.724822044 -2333275.666267395 0 0 0 0 -8843626.6918907166 25745986.86605072 0 25745986.86605072 -2560269.2448158264 0 0 0 0 -889389.47130727768 20300065.727944374 0 20300065.727944374 -2944717.5645523071 0 0 0 0 -14384013.621653557 6596131.8361568451 0 6596131.8361568451 4362679.3647384644 0 0 0 0 -491737.43704032898 11673339.129428864 0 11673339.129428864 2815935.6403932571 0 0 0 0 -506669.77949118614 9422938.0109462738 0 9422938.0109462738 13015842.254199982 0 0 0 0 -2863269.7872657776 15350633.007898331 0 15350633.007898331 10886967.167858124 0 0 0 0 1851703419.6301708 -1510352533.5964584 0 -1510352533.5964584 432762293.29154468 0 0 0 0 3700717.2549889097 2970153.9669294404 0 2970153.9669294404 -4041293.6164462343 0 0 0 0 -3616128.7905311584 15170965.188591957 0 15170965.188591957 14932018.982051849 0 0 0 0 517970185.55815101 159941558.37850761 0 159941558.37850761 36118464.063156128 0 0 0 0 312012.84332199389 6178271.8888857188 0 6178271.8888857188 8675534.0932278298 0 0 0 0 503328694.42759395 153483216.5010643 0 153483216.5010643 41450353.558319092 0 0 0 0 621778971.77847958 161442384.16017914 0 161442384.16017914 -8332452.5930252075 0 0 0 0 612046012.56371355 201945853.80556488 0 201945853.80556488 91910038.225509644 0 0 0 0 551977618.32337558 254733073.38830566 0 254733073.38830566 199152088.52037048 0 0 0 0 -241712252.58045578 333878746.17665863 0 333878746.17665863 505762050.57962036 0 0 0 0 526135.70452327142 871779.68547792127 0 871779.68547792127 -222711.76577708498 0 0 0 0 14215860.863449097 23681218.109985352 0 23681218.109985352 42467379.350814819 0 0 0 0 336730731.11990738 87345160.777549744 0 87345160.777549744 -56528591.109588623 0 0 0 0 943669010.89362717 260857607.68477631 0 260857607.68477631 14736215.560577393 0 0 0 0 41100.338055385277 417305.25463454798 0 417305.25463454798 2429263.0715123881 0 0 0 0 732819542.10368443 389524744.79508209 0 389524744.79508209 179327560.32023621 0 0 0 0 1220263752.2891574 360542392.88982391 0 360542392.88982391 24011517.742286682 0 0 0 0 -138672.24061399279 -1556082.6705710082 0 -1556082.6705710082 3958081.4907325879 0 0 0 0 590689968.77669907 -624018612.61975098 0 -624018612.61975098 358589400.39492798 0 0 0 0 -126748803.80003262 1478288813.5690651 0 1478288813.5690651 48771797.507904053 0 0 0 0 662895148.47943044 -229976027.22150326 0 -229976027.22150326 88885639.829292297 0 0 0 0 -2515915086.6866684 1864915720.7760315 0 1864915720.7760315 189909926.0408783 0 0 0 0 -285278182.6356802 -52469109.934940338 0 -52469109.934940338 327751019.19142151 0 0 0 0 -153420220.63719559 -632496139.68629837 0 -632496139.68629837 1271669054.8015747 0 0 0 0 165470767.45917892 -401755788.20491409 0 -401755788.20491409 317762720.64085388 0 0 0 0 -63174814.900802612 -266673182.60935974 0 -266673182.60935974 497724234.79058075 0 0 0 0 -105332119.8233211 -107587561.12388802 0 -107587561.12388802 149211608.46807861 0 0 0 0 1307180.7917718887 -334699801.26312637 0 -334699801.26312637 324606965.79608917 0 0 0 0 -19015204.295526505 -198860629.30521393 0 -198860629.30521393 -5570602.7324757576 0 0 0 0 -212919850.05219698 111388873.34713554 0 111388873.34713554 280652.4460144043 0 0 0 0 -115718358.14769697 -53283035.875991821 0 -53283035.875991821 261329968.5473938 0 0 0 0 -194464594.93750143 150315647.51490784 0 150315647.51490784 123374925.07497025 0 0 0 0 -199685023.88381788 100562620.51897717 0 100562620.51897717 -62743304.335136414 0 0 0 0 -400804791.7768631 652361069.78253937 0 652361069.78253937 -109484391.54590988 0 0 0 0 -169725605.54251242 55546037.84154892 0 55546037.84154892 428184592.70847321 0 0 0 0 -663339448.81615257 194053295.03003693 0 194053295.03003693 994447176.8353405 0 0 0 0 14058988.064844608 16368926.530071259 0 16368926.530071259 854537.08347320557 0 0 0 0 11515346.703301549 20099075.946299076 0 20099075.946299076 1749951.8250083923 0 0 0 0 4289160.4075175114 4787583.961752547 0 4787583.961752547 -5811431.0883330423 0 0 0 0 2917754.7615480423 21390039.682760239 0 21390039.682760239 -4011078.6635112762 0 0 0 0 13939782.952337503 19109797.875956535 0 19109797.875956535 -6194835.9071502686 0 0 0 0 16342614.656751871 13890110.537895679 0 13890110.537895679 713931.69247817993 0 0 0 0 2017139.0380411148 15513103.618932724 0 15513103.618932724 1800117.192899704 0 0 0 0 10724962.285216331 6859712.6042709351 0 6859712.6042709351 -3844515.628326416 0 0 0 0 13237073.92074883 2832332.8822112083 0 2832332.8822112083 -5962285.383430481 0 0 0 0 23613744.30765073 9224572.2995123863 0 9224572.2995123863 -30929245.624969482 0 0 0 0 -8805246.2391614914 140694533.35840225 0 140694533.35840225 -358018901.05974197 0 0 0 0 -28993637.285650894 26510198.270748138 0 26510198.270748138 37387851.223228455 0 0 0 0 1329550.3763504028 9150853.6944770813 0 9150853.6944770813 6686633.4935569763 0 0 0 0 -118644.55660308717 2892756.5278633563 0 2892756.5278633563 10784543.781758972 0 0 0 0 984110.89052219735 6493353.9949991712 0 6493353.9949991712 -4166013.9951502904 0 0 0 0 -3251407.9116289616 6847810.1082019806 0 6847810.1082019806 5822721.7900662422 0 0 0 0 899839.49361031235 1567876.8390983026 0 1567876.8390983026 6833690.2732883487 0 0 0 0 -2437558.9961214066 7890752.3489933014 0 7890752.3489933014 9159046.0207662582 0 0 0 0 -2950578.2227363586 5437781.3120002747 0 5437781.3120002747 5390197.5734329224 0 0 0 0 -1948967.2873806953 3566546.7750763893 0 3566546.7750763893 2570986.317817688 0 0 0 0 -5908942.976163581 2311004.3842841387 0 2311004.3842841387 17060492.066894531 0 0 0 0 -5396394.7565925717 5700895.2523198128 0 5700895.2523198128 13272637.511276245 0 0 0 0 277076.5276032337 1523175.5914407773 0 1523175.5914407773 8000493.8196750246 0 0 0 0 -2852794.2875359058 2934964.5133256912 0 2934964.5133256912 11617193.02494812 0 0 0 0 481993.31310224533 -308054.72979354858 0 -308054.72979354858 13205425.380172729 0 0 0 0 -801453.35451865196 -1253047.7428874969 0 -1253047.7428874969 16407764.752635956 0 0 0 0 -4104705.369895339 1120833.880074501 0 1120833.880074501 14754610.056343079 0 0 0 0 744438.72598394006 -992638.24134284304 0 -992638.24134284304 5631913.0988404863 0 0 0 0 -278638470.01335359 87932082.313007355 0 87932082.313007355 73685988.810775757 0 0 0 0 1453823.0084576607 -1696573.8079547882 0 -1696573.8079547882 14005343.41714859 0 0 0 0 31607126.013836801 57558369.484327316 0 57558369.484327316 22520413.796318054 0 0 0 0 190335321.31760383 -60347868.370326996 0 -60347868.370326996 -4261001.5008392334 0 0 0 0 -39140221.986409187 15385701.095233917 0 15385701.095233917 65743981.137981415 0 0 0 0 -442206.04762706626 1097370.4681845093 0 1097370.4681845093 2413161.5772208534 0 0 0 0 -39460512.697555542 11288861.464935303 0 11288861.464935303 30799452.567279816 0 0 0 0 107485.92229434056 587540.93974797428 0 587540.93974797428 1727280.3796831071 0 0 0 0 702754.34018802643 45395906.183250427 0 45395906.183250427 5663868.191116333 0 0 0 0 21629138.170878172 16189944.912969589 0 16189944.912969589 28112583.421089172 0 0 0 0 -1990612.3814293428 4293652.1613624357 0 4293652.1613624357 4752885.528756462 0 0 0 0 14527180.539569378 11466514.0509758 0 11466514.0509758 11595182.259397507 0 0 0 0 24562381.733991668 60925396.528653979 0 60925396.528653979 164790698.85060883 0 0 0 0 7967574.7826473713 -19604414.690689087 0 -19604414.690689087 67806962.192733765 0 0 0 0 -2846641.2387773991 14477251.556705475 0 14477251.556705475 74256443.7116642 0 0 0 0 20833246.303385422 29388721.719299793 0 29388721.719299793 32706348.34021759 0 0 0 0 -56904653.429770231 -46399492.380373001 0 -46399492.380373001 33161971.422633171 0 0 0 0 -129057690.04512405 5895012.4363899231 0 5895012.4363899231 169871897.58317566 0 0 0 0 -27190781.039041758 -77737287.597129822 0 -77737287.597129822 230012736.24071503 0 0 0 0 -4519.038508964004 1204609.1565151941 0 1204609.1565151941 672012.6587291602 0 0 0 0 -3166850.669656992 418544507.98880768 0 418544507.98880768 294117855.30220032 0 0 0 0 -111040097.03821659 -104166652.49077606 0 -104166652.49077606 221722453.45286369 0 0 0 0 -181098735.23168617 -420985573.10510874 0 -420985573.10510874 998153139.43145752 0 0 0 0 160573199.56052643 -316373404.97602272 0 -316373404.97602272 336833028.5917244 0 0 0 0 137316310.03395486 -349833727.21417141 0 -349833727.21417141 786766147.98921585 0 0 0 0 17302856.355671644 -35983156.485563278 0 -35983156.485563278 62793209.762119293 0 0 0 0 -196279.86722242762 -674309.22442443855 0 -674309.22442443855 1217591.7098242417 0 0 0 0 12246703.564192533 -15960302.587125778 0 -15960302.587125778 69735432.50869751 0 0 0 0 -32337740.53478162 -36299710.243769646 0 -36299710.243769646 1009088101.6598473 0 0 0 0 -674577022.69684136 -29735122.744199753 0 -29735122.744199753 3467907586.0862961 0 0 0 0 208619978.46110404 -675800955.06336975 0 -675800955.06336975 1560813191.723196 0 0 0 0 -587760434.1951282 264993957.95176697 0 264993957.95176697 2463047883.2161102 0 0 0 0 -52473171.298953056 50831258.373018265 0 50831258.373018265 662140261.29038429 0 0 0 0 -537665.4574090289 302071.89597853646 0 302071.89597853646 1215211.1903342288 0 0 0 0 66027362.658125997 -22946243.205800056 0 -22946243.205800056 -207101352.40153503 0 0 0 0 6028269.0831227303 222644473.92512894 0 222644473.92512894 166627256.50445557 0 0 0 0 -16950346.753671169 -164034891.20291901 0 -164034891.20291901 334778385.30503082 0 0 0 0 85107697.901087761 140383828.90632248 0 140383828.90632248 -262859100.25872803 0 0 0 0 -2896523.5682348325 343002.28581343964 0 343002.28581343964 3403128.9138598396 0 0 0 0 -531700897.4739626 561179838.72667694 0 561179838.72667694 3456912715.6814728 0 0 0 0 921711318.29690659 706298820.01671028 0 706298820.01671028 542883132.96182632 0 0 0 0 -2692148.0398615915 967626.3076291203 0 967626.3076291203 3349524.2597967125 0 0 0 0 806099274.49752474 -1124782347.5691547 0 -1124782347.5691547 1521578024.8672256 0 0 0 0 -4414849.861975654 2292773.9605489857 0 2292773.9605489857 8208064.5166231673 0 0 0 0 -4820843.1625199318 3232504.3808131218 0 3232504.3808131218 -14322671.699325562 0 0 0 0 -22995411.103725433 -62292943.339954376 0 -62292943.339954376 -35798705.778461456 0 0 0 0 -1229869.456874338 1416439.7373599866 0 1416439.7373599866 -299928.15085891634 0 0 0 0 -336832135.49151123 114823389.11618042 0 114823389.11618042 249499506.57154846 0 0 0 0 552288789.9489131 16235333.721305847 0 16235333.721305847 53983562.746133804 0 0 0 0 484716439.27440929 -424008622.81661606 0 -424008622.81661606 342415185.3241756 0 0 0 0 -28230090.32544899 -16589775.998764038 0 -16589775.998764038 704232939.9897995 0 0 0 0 -23625419.973165512 -399333579.50303268 0 -399333579.50303268 440646282.6137104 0 0 0 0 57304606.129113436 -367081368.55926132 0 -367081368.55926132 222039703.17332458 0 0 0 0 463472.53282995033 -808231.49786636583 0 -808231.49786636583 1744479.0425117873 0 0 0 0 310543086.80883229 258274279.61420727 0 258274279.61420727 34996508.796775818 0 0 0 0 40091212.411215782 -323376066.38505363 0 -323376066.38505363 306925388.8045311 0 0 0 0 168146763.12319529 -303938428.56008941 0 -303938428.56008941 127837940.53688049 0 0 0 0 -12538348.388689756 10709470.134212017 0 10709470.134212017 13524383.611152649 0 0 0 0 -548512.93679578463 -52385.083666985855 0 -52385.083666985855 173599.12622443587 0 0 0 0 -38108361.26368618 -325180358.59039307 0 -325180358.59039307 365112926.61122894 0 0 0 0 -38786078.931605816 -356340216.01208591 0 -356340216.01208591 319067601.49801636 0 0 0 0 205416226.73196316 -216055108.68119431 0 -216055108.68119431 240517910.61111832 0 0 0 0 92036274.690757751 98556030.294921875 0 98556030.294921875 -59616117.236904144 0 0 0 0 -88664979.27298069 969955.54937934875 0 969955.54937934875 44587637.902580261 0 0 0 0 -471524178.32290852 -154345916.30317688 0 -154345916.30317688 390129842.75741577 0 0 0 0 183834121.12518299 660729126.2876091 0 660729126.2876091 670533508.12570953 0 0 0 0 861744850.185619 -792063162.41066742 0 -792063162.41066742 632396162.90194452 0 0 0 0 -1100486.1895456011 -4472961.1654973542 0 -4472961.1654973542 10863061.337420754 0 0 0 0 -5502206.3285755208 707128.15839981847 0 707128.15839981847 8872350.6051909737 0 0 0 0 -545903.17369842529 26532393.923065186 0 26532393.923065186 -6186529.1388092041 0 0 0 0 4207450.6364879608 -7516564.785490036 0 -7516564.785490036 -4224202.8373031616 0 0 0 0 367704384.35225797 67986344.78081131 0 67986344.78081131 -185652302.11332703 0 0 0 0 7619040.3103979826 -536636952.46285915 0 -536636952.46285915 1058082770.8994522 0 0 0 0 -326968853.84574723 29390456.493162155 0 29390456.493162155 1626368966.5207825 0 0 0 0 -466930010.67743856 -537324509.4634285 0 -537324509.4634285 3460584384.2331734 0 0 0 0 -89200484.678835467 1315276858.6874962 0 1315276858.6874962 3565239084.9395218 0 0 0 0 -335455585.81842679 -40409247.067225933 0 -40409247.067225933 1053147969.0396118 0 0 0 0 -1674418.7866381884 -119303.20937400684 0 -119303.20937400684 7977444.303125035 0 0 0 0 -74086205.990805775 78978614.021089554 0 78978614.021089554 1031046592.2153778 0 0 0 0 30938299.96821779 -85091775.725959778 0 -85091775.725959778 -78409558.037841797 0 0 0 0 -677900240.21845233 -24242052.314281464 0 -24242052.314281464 128352800.25686646 0 0 0 0 612807815.08866215 -316553071.71654129 0 -316553071.71654129 -339745823.97073746 0 0 0 0 -570196673.55922198 207642150.19890594 0 207642150.19890594 590392345.33959198 0 0 0 0 713925952.54884446 -1608320200.1970901 0 -1608320200.1970901 1201491600.6900253 0 0 0 0 -138618.98303080851 -540580.03129828069 0 -540580.03129828069 3127315.3934129737 0 0 0 0 382839830.55552381 -2093457421.0097294 0 -2093457421.0097294 1853046245.0598907 0 0 0 0 -92459368.118408784 -1226453972.8727493 0 -1226453972.8727493 3550696609.0846658 0 0 0 0 127069898.50180037 -473202614.85032654 0 -473202614.85032654 1972594155.2253079 0 0 0 0 323871896.74742001 -856833843.14109802 0 -856833843.14109802 2170085862.492897 0 0 0 0 448475689.27381837 115618662.41360855 0 115618662.41360855 172414225.67501831 0 0 0 0 575377252.75337982 315357702.70183372 0 315357702.70183372 -230644920.59669495 0 0 0 0 -243832416.40108693 420347167.20426559 0 420347167.20426559 -312413411.65815735 0 0 0 0 -955249.13942224614 -676674.63153015636 0 -676674.63153015636 2214991.3214491773 0 0 0 0 -60671675.193648577 763036624.7167511 0 763036624.7167511 326257752.48943329 0 0 0 0 723871920.84765565 562228264.30263138 0 562228264.30263138 -56476700.909500122 0 0 0 0 -219452604.04281902 19320273.046733856 0 19320273.046733856 433589440.91305351 0 0 0 0 2486666.6362661072 -503097.60331509449 0 -503097.60331509449 161094.26721462049 0 0 0 0 27805905.675389022 707833937.30766582 0 707833937.30766582 1507521260.792099 0 0 0 0 43908643.046871901 498622602.70379639 0 498622602.70379639 127435325.72930145 0 0 0 0 196150489.9418391 292998989.85256577 0 292998989.85256577 399265083.86833954 0 0 0 0 7673572.2237005234 -9702066.7552812099 0 -9702066.7552812099 15577323.157595158 0 0 0 0 336680.78127002716 3025977.902323246 0 3025977.902323246 20616771.735752344 0 0 0 0 -6014207.8595333099 5467882.7749695778 0 5467882.7749695778 3432149.4056243896 0 0 0 0 12937255.382434368 -13073924.979870915 0 -13073924.979870915 37013342.775331497 0 0 0 0 5319518.7197132111 805261.78081661463 0 805261.78081661463 47437974.583499432 0 0 0 0 19188038.992073059 -47808792.894030094 0 -47808792.894030094 49488461.423855148 0 0 0 0 -62030991.084199905 -67414172.355356216 0 -67414172.355356216 100106180.46983385 0 0 0 0 -8710858.9492988586 1554704.9662123919 0 1554704.9662123919 27802997.501752853 0 0 0 0 17734790.306371689 -25535252.860513687 0 -25535252.860513687 2892294.827529192 0 0 0 0 -4409797.5946573336 2769495.9551856085 0 2769495.9551856085 11170745.782983659 0 0 0 0 19928909.519526005 12039397.195020199 0 12039397.195020199 5316191.8925933838 0 0 0 0 -67532359.456532478 42523401.426273793 0 42523401.426273793 264067560.45692217 0 0 0 0 -30186594.672185421 -119005125.69427092 0 -119005125.69427092 65154774.045290291 0 0 0 0 5860234.5181827545 14584097.410916805 0 14584097.410916805 11453416.284572601 0 0 0 0 -466783.42631942476 1218936.1463328204 0 1218936.1463328204 12616497.710114706 0 0 0 0 -19982800.035598874 4249714.9986927509 0 4249714.9986927509 50396429.902075768 0 0 0 0 13280330.07528162 1395970.9299082756 0 1395970.9299082756 1655156.1936836243 0 0 0 0 541927.37744272314 1759381.0530294422 0 1759381.0530294422 405426.99748368468 0 0 0 0 12768201.7932024 8797881.1235752106 0 8797881.1235752106 752756.67866897583 0 0 0 0 16418368.67092514 1706965.4717521667 0 1706965.4717521667 13663333.243366241 0 0 0 0 8131446.9171619415 13207437.958488464 0 13207437.958488464 28453885.435527802 0 0 0 0 8481047.5853257179 8717197.4773437977 0 8717197.4773437977 11561419.872322083 0 0 0 0 -585619.7757659381 564014.48036447586 0 564014.48036447586 4385263.7318197004 0 0 0 0 -16142463.279313564 -8839230.7397968769 0 -8839230.7397968769 16810064.548204422 0 0 0 0 43353273.745900154 29454069.256665707 0 29454069.256665707 23556081.137582779 0 0 0 0 247436764.02240086 31575847.361358166 0 31575847.361358166 -85424846.342795849 0 0 0 0 -8506.5562563814456 -163070.31145128375 0 -163070.31145128375 138453.79068777151 0 0 0 0 -98068.902025337331 384847.37567082024 0 384847.37567082024 5986743.2704167776 0 0 0 0 -2072572.3134891987 6918579.8383135796 0 6918579.8383135796 1068176.7668952942 0 0 0 0 -17418533.935967922 6527577.6791149378 0 6527577.6791149378 10555043.223964691 0 0 0 0 62592845.823028564 49168844.339848995 0 49168844.339848995 -2296876.2902002335 0 0 0 0 -1343437.3813160858 2779744.3712515133 0 2779744.3712515133 1970766.4068827252 0 0 0 0 -41083440.791623592 87081018.159588337 0 87081018.159588337 27773758.146527767 0 0 0 0 19282687.35252285 20213087.675729752 0 20213087.675729752 15827136.755105972 0 0 0 0 -44824869.245140582 -1675006.8150105774 0 -1675006.8150105774 31453044.913743973 0 0 0 0 -4410259.5836260309 2697806.9897491736 0 2697806.9897491736 13823154.473058745 0 0 0 0 21382623.756353378 14612543.113361359 0 14612543.113361359 11464139.130310059 0 0 0 0 14171941.043746114 -1042890.7457556725 0 -1042890.7457556725 2321118.0772190094 0 0 0 0 17013270.496066093 -7413954.4784889221 0 -7413954.4784889221 16353830.482069016 0 0 0 0 3771765.98709023 11462309.938220859 0 11462309.938220859 25614863.707185745 0 0 0 0 7029080.3185799122 14094318.031351566 0 14094318.031351566 23432805.959247589 0 0 0 0 -4268209.7131369114 17622439.326359272 0 17622439.326359272 11032729.861951828 0 0 0 0 3065291.4952096939 8317607.5606479645 0 8317607.5606479645 21735530.502906799 0 0 0 0 8356198.2473840714 10260800.598012924 0 10260800.598012924 15396404.509272575 0 0 0 0 -12280846.540716171 3346607.8974633217 0 3346607.8974633217 20306709.080768585 0 0 0 0 -119765.44576899731 2109609.817249598 0 2109609.817249598 8123058.080225043 0 0 0 0 -6474969.4068870544 -1182873.0970821381 0 -1182873.0970821381 13577622.315803528 0 0 0 0 -8525110.6984176636 236291.1583442688 0 236291.1583442688 15627631.40625 0 0 0 0 615588.38124275208 30991112.71027565 0 30991112.71027565 -5415419.813700676 0 0 0 0 -838117.66296329582 -130496.57961446 0 -130496.57961446 1369097.5237799101 0 0 0 0 1740718.3939533234 -2099904.968773365 0 -2099904.968773365 11375124.905579567 0 0 0 0 -7646114.167386055 3849835.791826725 0 3849835.791826725 8165454.2456022501 0 0 0 0 -13420550.861396074 7176496.894947648 0 7176496.894947648 12551978.396927834 0 0 0 0 -5021958.7945389748 8593321.9944665432 0 8593321.9944665432 16725377.943777084 0 0 0 0 -5265858.7079777718 5574996.1008107662 0 5574996.1008107662 9339394.1595926285 0 0 0 0 -8202660.3568000793 336606.60924196243 0 336606.60924196243 4952230.8322529793 0 0 0 0 -1432204.8392934799 -2268451.2558994293 0 -2268451.2558994293 7424914.9452152252 0 0 0 0 2443890.3970451355 -2289842.5070405006 0 -2289842.5070405006 4279084.4395208359 0 0 0 0 6483131.7382974625 -3179839.9757754803 0 -3179839.9757754803 12643382.892609596 0 0 0 0 11806377.842336178 2073398.4136614799 0 2073398.4136614799 5596323.9745788574 0 0 0 0 798996.82550859451 -2515768.9970068932 0 -2515768.9970068932 16405147.464370728 0 0 0 0 -2656500.9095897675 4086174.9443759918 0 4086174.9443759918 18317783.527670264 0 0 0 0 -548452.36213404348 1072703.5404171727 0 1072703.5404171727 7056039.9206142686 0 0 0 0 5446158.5975823402 -4042144.1300697327 0 -4042144.1300697327 1347679.692899704 0 0 0 0 -70511.549427156802 339680.18728781166 0 339680.18728781166 1758088.4208950982 0 0 0 0 -1472182.2620739937 4222196.0634510517 0 4222196.0634510517 13952523.032999516 0 0 0 0 1269523.8064322174 2987096.0275167227 0 2987096.0275167227 6583258.2086715698 0 0 0 0 721419.59465966583 1056438.1605553031 0 1056438.1605553031 7412182.9533752082 0 0 0 0 -2862946.8045816422 -10033993.997945786 0 -10033993.997945786 4976266.1897315979 0 0 0 0 1665129.284412384 20357971.669551849 0 20357971.669551849 10232903.792366982 0 0 0 0 -663614.31467388012 -1003167.9186329963 0 -1003167.9186329963 8184986.1222747043 0 0 0 0 -4445397.5653076172 -5075471.8721084595 0 -5075471.8721084595 15506350.615671158 0 0 0 0 5728093.0452618599 -9555659.9565725327 0 -9555659.9565725327 -50537623.297995567 0 0 0 0 -5734318.7339019775 -13621377.646671772 0 -13621377.646671772 -17717718.190446377 0 0 0 0 -9528139.4917201996 2770151.4239177704 0 2770151.4239177704 11285712.665456772 0 0 0 0 7202546.6774749756 1742471.6429643631 0 1742471.6429643631 -4679759.0415010452 0 0 0 0 -10160586.828014374 -8777313.6852149963 0 -8777313.6852149963 -70380.398805618286 0 0 0 0 -11258547.042583466 -11859991.421722412 0 -11859991.421722412 -18077398.964722633 0 0 0 0 -275594.62385517469 -979522.97729694424 0 -979522.97729694424 288223.94523230847 0 0 0 0 5111332.4591701031 7029556.9651603699 0 7029556.9651603699 4095863.0441093445 0 0 0 0 4655309.8690087795 -1153364.118144989 0 -1153364.118144989 5414397.3028702736 0 0 0 0 1031799.326369524 2568837.6191444397 0 2568837.6191444397 1591581.727191925 0 0 0 0 7975980.2400248051 2150835.3919086456 0 2150835.3919086456 -334196.55247879028 0 0 0 0 1231217.7448212802 -2278061.3896642774 0 -2278061.3896642774 26216919.978883743 0 0 0 0 -41943.909041626379 386671.69498550612 0 386671.69498550612 811673.33715526387 0 0 0 0 -823335.49488973618 3263476.0325546265 0 3263476.0325546265 2626626.3140363693 0 0 0 0 285519.41671447875 1326287.6711103199 0 1326287.6711103199 5492658.9371072333 0 0 0 0 53138.786203145981 -465111.9191532135 0 -465111.9191532135 1726706.9343694448 0 0 0 0 6181813.1009044647 7862902.3693389893 0 7862902.3693389893 7746263.3622665405 0 0 0 0 -1209919.8344694674 74684.101837158203 0 74684.101837158203 3556602.5655593872 0 0 0 0 -1966979.5737233604 -140236.47632444184 0 -140236.47632444184 7164905.8968210723 0 0 0 0 1555686.6187689465 3678275.4601137526 0 3678275.4601137526 4211229.1465463787 0 0 0 0 -3060933.0834503174 2456008.5604248047 0 2456008.5604248047 5128578.6887359619 0 0 0 0 660547.36373873893 -1175722.9521385124 0 -1175722.9521385124 6667792.7668401822 0 0 0 0 -2898475.9767520735 1699676.0635301624 0 1699676.0635301624 18861848.254728131 0 0 0 0 -301407896.27210045 30456136.158501148 0 30456136.158501148 16751971.834874153 0 0 0 0 -78724.324748974759 -1730358.6228703745 0 -1730358.6228703745 11553386.759398764 0 0 0 0 -394640.17937803268 207930514.10523033 0 207930514.10523033 6806214.4513476938 0 0 0 0 236861401.11181831 -137005972.31319904 0 -137005972.31319904 -48796379.688999176 0 0 0 0 -22568980.592140198 -105227936.3071115 0 -105227936.3071115 171504808.80442783 0 0 0 0 -113861631.47065449 1696631.8358066082 0 1696631.8358066082 154592387.31292534 0 0 0 0 -20115089.853797436 58426822.320907116 0 58426822.320907116 -28383954.223375782 0 0 0 0 1824110.7369742598 -50749740.592745543 0 -50749740.592745543 -24013134.931078434 0 0 0 0 359550.46280866256 398035.88607221394 0 398035.88607221394 -78084.743909949437 0 0 0 0 -2667854.2994139194 25196965.093086243 0 25196965.093086243 4164991.4808425903 0 0 0 0 -896895.29102635616 5668257.0934091164 0 5668257.0934091164 18104611.570588663 0 0 0 0 -360146.93148493767 14165432.820144653 0 14165432.820144653 11122056.771156311 0 0 0 0 -3208716.0721998215 10056440.785953522 0 10056440.785953522 6270301.8212718964 0 0 0 0 -477029.40509533882 20142642.869987488 0 20142642.869987488 30857065.737434387 0 0 0 0 -3810855.8872270584 -7576903.2259755135 0 -7576903.2259755135 57287776.666782022 0 0 0 0 -11152636.74661541 -6024097.3646929264 0 -6024097.3646929264 85175344.08784914 0 0 0 0 3153005.6293067932 8762642.1856923103 0 8762642.1856923103 23729142.250834465 0 0 0 0 6380179.2192342281 513476.75512242317 0 513476.75512242317 11493650.913508415 0 0 0 0 -17337151.063500881 6071020.2920856476 0 6071020.2920856476 54747699.091211319 0 0 0 0 15062575.978910446 -25204453.092905521 0 -25204453.092905521 63977038.87286061 0 0 0 0 -24176751.839056969 5434348.7061634064 0 5434348.7061634064 76125122.637243271 0 0 0 0 -12197386.685626984 17879409.527023315 0 17879409.527023315 7259732.343943119 0 0 0 0 -42548002.702088356 61566488.332708836 0 61566488.332708836 -39568225.64696604 0 0 0 0 -5110147.1303944588 -5475423.4573136568 0 -5475423.4573136568 67386547.765710831 0 0 0 0 92549.280829896685 946728.33798032301 0 946728.33798032301 1082612.2716324152 0 0 0 0 4196088.8991827965 11552468.872287035 0 11552468.872287035 55881345.188536465 0 0 0 0 7137252.4739832878 23031900.858177781 0 23031900.858177781 79867639.396139532 0 0 0 0 665619.05459023151 2899740.1750293472 0 2899740.1750293472 5028291.858037387 0 0 0 0 -5439287.2812933922 16531280.140273094 0 16531280.140273094 -9529173.3681986928 0 0 0 0 1794460.3946265299 1270696.9076203085 0 1270696.9076203085 -1038072.4858903098 0 0 0 0 9302743.6548733711 1384003.7280678749 0 1384003.7280678749 -9058099.5400590897 0 0 0 0 -9709082.8303967416 1258970.0911453366 0 1258970.0911453366 21056512.40411377 0 0 0 0 -1238952.3137316406 3757840.1614673007 0 3757840.1614673007 16289531.694954118 0 0 0 0 -3041480.5837011337 -4309904.1186943054 0 -4309904.1186943054 24163759.099205017 0 0 0 0 -2573418.0259498358 3413784.3239736557 0 3413784.3239736557 6184492.0639982224 0 0 0 0 -2073621.8652098179 1679193.8998608589 0 1679193.8998608589 6634431.9898748398 0 0 0 0 -792363.35048625036 -233897.41359375697 0 -233897.41359375697 5313571.2558427248 0 0 0 0 -355405.31185219984 7527361.6159557048 0 7527361.6159557048 4357077.3124360936 0 0 0 0 -1045658.2621557713 6532686.9173564911 0 6532686.9173564911 32986726.651473999 0 0 0 0 -11210000.937551737 13391187.058961868 0 13391187.058961868 37679048.549194336 0 0 0 0 -627678.2828083802 4996237.5353144128 0 4996237.5353144128 16614495.236932077 0 0 0 0 -17616696.026987076 19275451.608917236 0 19275451.608917236 16666322.847610474 0 0 0 0 -17043700.926997662 6370396.2066059113 0 6370396.2066059113 29319952.666549683 0 0 0 0 -9099969.1814775467 -431433.09169769287 0 -431433.09169769287 25275976.127223969 0 0 0 0 -9791882.9205735475 -1891737.3319135308 0 -1891737.3319135308 31165227.205375671 0 0 0 0 -5362169.2975196838 -8380831.6614494324 0 -8380831.6614494324 24340736.268325806 0 0 0 0 -1432740.191444397 -16420572.571483612 0 -16420572.571483612 39048824.964993954 0 0 0 0 -10703873.061806202 -2522306.0298070908 0 -2522306.0298070908 37457271.815551758 0 0 0 0 21254895.02716732 -29981975.762868881 0 -29981975.762868881 39618208.077959061 0 0 0 0 -3359203.0193533897 -8708550.9444999695 0 -8708550.9444999695 39903900.128041744 0 0 0 0 -4186917.0864076614 -6200182.7290458679 0 -6200182.7290458679 54217900.713745117 0 0 0 0 4095772.6235971451 -10803367.025943756 0 -10803367.025943756 18857301.161683083 0 0 0 0 9470837.057592392 -13405050.55581665 0 -13405050.55581665 19711347.139533997 0 0 0 0 1201762.8395957947 -13847063.359191895 0 -13847063.359191895 20670039.378238678 0 0 0 0 -5178927.2994270325 -8269375.6581935883 0 -8269375.6581935883 23585586.770507812 0 0 0 0 -7367937.2518043518 -7047311.2333679199 0 -7047311.2333679199 23454472.742855072 0 0 0 0 -2923143.9598770142 -10389891.328742981 0 -10389891.328742981 24958465.823554993 0 0 0 0 -4117522.8689396381 -6806819.6499567032 0 -6806819.6499567032 18813872.173690796 0 0 0 0 631434.16331124306 -11627052.845561981 0 -11627052.845561981 18423144.734359741 0 0 0 0 -7277019.089597702 -6377576.9658355713 0 -6377576.9658355713 16854183.404602051 0 0 0 0 4630631.9477152824 -12536065.758441925 0 -12536065.758441925 17187838.02334404 0 0 0 0 -884049.47526299953 -9219183.2259063721 0 -9219183.2259063721 17698925.98456192 0 0 0 0 2856949.0942311287 -1798139.9065151215 0 -1798139.9065151215 700916.10646057129 0 0 0 0 595129593.10706806 -1114987320.9483871 0 -1114987320.9483871 2095781270.3079834 0 0 0 0 2074622.7312633975 -1767493.2771473685 0 -1767493.2771473685 5629517.3300545812 0 0 0 0 5809463.502315457 4202134.0762841236 0 4202134.0762841236 3000562.0294064879 0 0 0 0 390513183.19546121 -1313455829.995115 0 -1313455829.995115 3605461065.996418 0 0 0 0 -462666.39609849773 -2428965.0599407814 0 -2428965.0599407814 2884492.5147082172 0 0 0 0 1839255.1331353188 577751.86809158325 0 577751.86809158325 9016225.2990159988 0 0 0 0 70022.055023509311 18042.12024344597 0 18042.12024344597 6917204.0031936709 0 0 0 0 4029418.0512228012 3732217.669670105 0 3732217.669670105 11918519.837373734 0 0 0 0 -360625.1908493042 -971365.61399745941 0 -971365.61399745941 17127205.010967255 0 0 0 0 111624.95087529847 -22517.579567843117 0 -22517.579567843117 -32309.608368075453 0 0 0 0 1095111.92929446 -1306634.1102116127 0 -1306634.1102116127 10750752.203992 0 0 0 0 -1009819.307115078 538252.26996517181 0 538252.26996517181 3536101.7957363129 0 0 0 0 -6234280.9984939098 -10059846.013271332 0 -10059846.013271332 15366469.617828369 0 0 0 0 -89912.68509567529 -324273.75104272179 0 -324273.75104272179 1064747.4707801333 0 0 0 0 1764244.0020780563 2078701.8489131927 0 2078701.8489131927 10916761.498526096 0 0 0 0 38680845.935496196 434182820.11663055 0 434182820.11663055 3465076479.4113693 0 0 0 0 1380837.221092487 1421236.3265075376 0 1421236.3265075376 6356533.7234067181 0 0 0 0 -59976241.190179341 238869965.9550705 0 238869965.9550705 3435762288.3362293 0 0 0 0 1664853.5374948978 1990326.9603543282 0 1990326.9603543282 11058718.384963989 0 0 0 0 2993440.2874962669 -420090.19476051023 0 -420090.19476051023 10964239.287727937 0 0 0 0 -66645614.102407798 232539744.22685957 0 232539744.22685957 3462183742.5163116 0 0 0 0 1236647.2539182073 581652.99498625286 0 581652.99498625286 5630036.0026406134 0 0 0 0 3645872.4648253918 2366180.7678756714 0 2366180.7678756714 10138639.9126091 0 0 0 0 1772863.0214475393 2345663.5903816223 0 2345663.5903816223 11340832.391479492 0 0 0 0 73601469.557838753 -486825610.82359695 0 -486825610.82359695 3243352335.9585257 0 0 0 0 1096350.2028422356 1506299.924659729 0 1506299.924659729 11779802.752002716 0 0 0 0 3316428.9220655938 966545.5278893658 0 966545.5278893658 -768421.1657852605 0 0 0 0 -82264296.500638887 12221883.897029877 0 12221883.897029877 3436775450.3867335 0 0 0 0 887965.18546104431 2448414.5084781647 0 2448414.5084781647 11605212.357521057 0 0 0 0 18177785.897211879 9343053.3011282682 0 9343053.3011282682 9445938.7816305161 0 0 0 0 4617048.2980531454 7524103.3384685516 0 7524103.3384685516 12860493.399770737 0 0 0 0 10682.363168294076 832066.91424600128 0 832066.91424600128 6369848.7576851752 0 0 0 0 681398611.13167 1480068708.0356064 0 1480068708.0356064 3464507455.2160978 0 0 0 0 2252171.6861348739 2784260.4076151866 0 2784260.4076151866 7091108.6036457159 0 0 0 0 3611846.8098844429 1478942.1040374234 0 1478942.1040374234 3337341.3612011028 0 0 0 0 1270714.7263188362 3014279.6929779053 0 3014279.6929779053 10792816.011890411 0 0 0 0 1880462.8974060421 1985443.9682709696 0 1985443.9682709696 4762923.7722871657 0 0 0 0 -350334.92701816559 1109187.6751704216 0 1109187.6751704216 4350025.3349962234 0 0 0 0 406883278.29653931 -140676555.00089979 0 -140676555.00089979 -365784486.33964419 0 0 0 0 1689406.412454925 1793184.4759450078 0 1793184.4759450078 9442103.2982651275 0 0 0 0 3091558.7625884339 4896837.8437404232 0 4896837.8437404232 9078280.3533969577 0 0 0 0 2594118.3184409142 1680053.7829475403 0 1680053.7829475403 4791027.5809431076 0 0 0 0 3170443.1566246748 4712611.2296276093 0 4712611.2296276093 10822262.521474838 0 0 0 0 1094288.1646709442 2263426.7959251404 0 2263426.7959251404 12770557.238145828 0 0 0 0 431111.01268445421 1835811.3487548898 0 1835811.3487548898 9593434.27075026 0 0 0 0 3644546.7506437004 1127476.036372304 0 1127476.036372304 12234657.310253143 0 0 0 0 -607382.93632793427 723127.76239967346 0 723127.76239967346 6607809.0447554588 0 0 0 0 -101995946.72031593 -36456096.320588112 0 -36456096.320588112 7500120.0949780941 0 0 0 0 -72312523.435113907 235302060.41510892 0 235302060.41510892 -68541631.606195211 0 0 0 0 1412938.7581098739 2476847.3251050874 0 2476847.3251050874 4046473.9943536841 0 0 0 0 -20792.383255497087 1595185.2694700891 0 1595185.2694700891 2007712.505038589 0 0 0 0 114681198.55632836 -572935428.17781222 0 -572935428.17781222 587339337.81776762 0 0 0 0 67609138.162046432 203927151.64743197 0 203927151.64743197 55369909.203052521 0 0 0 0 -150920001.42725372 62529576.771315098 0 62529576.771315098 -25345983.824750423 0 0 0 0 -209508014.45249939 48047718.847140551 0 48047718.847140551 271344520.15506077 0 0 0 0 65628693.882368088 170443485.6777302 0 170443485.6777302 -12066288.385498524 0 0 0 0 -107470.65875156992 103308.74081827956 0 103308.74081827956 1313094.5287913671 0 0 0 0 -37480097.476151466 -83971977.324583173 0 -83971977.324583173 321821400.15801406 0 0 0 0 120862760.81926036 -69007538.151115239 0 -69007538.151115239 15054368.856698513 0 0 0 0 -42507092.150745332 2940185.4902176186 0 2940185.4902176186 20385822.874405861 0 0 0 0 -48459116.502459049 -24135785.876616716 0 -24135785.876616716 10786386.764212608 0 0 0 0 -105132275.49412346 52797926.555860758 0 52797926.555860758 5633515.089217186 0 0 0 0 -160180.58483457565 -1400441.9525547028 0 -1400441.9525547028 19814556.581184387 0 0 0 0 20523695.15019989 18347328.231617928 0 18347328.231617928 31053902.503299713 0 0 0 0 19892436.805808544 11234192.213401914 0 11234192.213401914 22851435.021331787 0 0 0 0 30438228.706289053 55404931.879088782 0 55404931.879088782 14943618.802105665 0 0 0 0 310117258.17227602 175080902.41893029 0 175080902.41893029 -305428569.00232834 0 0 0 0 -23528188.975004196 -24185550.236190319 0 -24185550.236190319 57180239.72656545 0 0 0 0 3496784.743254452 917214.13747433177 0 917214.13747433177 -885409.38840024499 0 0 0 0 12551302.538414001 5073549.6016979218 0 5073549.6016979218 14187628.604341507 0 0 0 0 -3782417.3791385517 2671913.459538131 0 2671913.459538131 8630287.0435823593 0 0 0 0 -199706867.92041779 411870604.08251548 0 411870604.08251548 -220654566.31444883 0 0 0 0 -130496.96475135675 1682435.760776375 0 1682435.760776375 11835071.667094979 0 0 0 0 8672503.3236484528 9678537.637424469 0 9678537.637424469 27322074.365522385 0 0 0 0 20117102.735656738 17637016.742965698 0 17637016.742965698 34298095.192382812 0 0 0 0 -404112.42821516469 576200.56990388292 0 576200.56990388292 1375886.9873112049 0 0 0 0 79335421.67115438 76433634.314225286 0 76433634.314225286 -7350383.5512442589 0 0 0 0 -427987.63666134095 3464897.8862190079 0 3464897.8862190079 15002151.859124418 0 0 0 0 -190906040.03124046 -154609733.80865383 0 -154609733.80865383 -51712400.600558609 0 0 0 0 15337420.350423813 7821763.7618551254 0 7821763.7618551254 24476066.383459091 0 0 0 0 10000389.223709106 7178993.5147180557 0 7178993.5147180557 32880986.600868225 0 0 0 0 10691356.84617281 267388.77260828018 0 267388.77260828018 23879290.907356262 0 0 0 0 -36800.842695634812 -1491288.9968849272 0 -1491288.9968849272 9204476.7724552155 0 0 0 0 2153987.4881374836 3792155.7149597108 0 3792155.7149597108 4827776.6906690598 0 0 0 0 548500226.57303143 1424559028.1529272 0 1424559028.1529272 2624452058.4709926 0 0 0 0 1260058.2312736511 -187423.35010194778 0 -187423.35010194778 4720209.0934815928 0 0 0 0 -768783.46445658221 245179.02845312332 0 245179.02845312332 7151965.1842683721 0 0 0 0 20156.132543563843 1334143.8568248749 0 1334143.8568248749 9235006.2112206221 0 0 0 0 1458873341.4965911 1654079698.347846 0 1654079698.347846 1882635607.1817093 0 0 0 0 3980430.4220575225 3436019.5666398448 0 3436019.5666398448 3573471.8967086761 0 0 0 0 1535966.6752409935 -516979.24336099625 0 -516979.24336099625 6668689.0801386833 0 0 0 0 -462881.85961914062 722329.57307338715 0 722329.57307338715 6232409.8840358257 0 0 0 0 280815.98702669144 2795470.2544131279 0 2795470.2544131279 4782365.6683662087 0 0 0 0 799441816.60150373 1926986468.6296175 0 1926986468.6296175 4220876601.5030746 0 0 0 0 -3485.5503727572504 102234.03232358891 0 102234.03232358891 475795.0587262311 0 0 0 0 968599160.65359151 1403763149.8205736 0 1403763149.8205736 3095364867.1582766 0 0 0 0 210559184.19219929 1122285298.7675803 0 1122285298.7675803 3195177066.1387568 0 0 0 0 389350685.32579976 1363835098.3424761 0 1363835098.3424761 3464611920.1748791 0 0 0 0 555663928.33864045 1365631628.2407923 0 1365631628.2407923 3096039093.5693736 0 0 0 0 193673500.45982352 991279436.1758635 0 991279436.1758635 2790325909.6204848 0 0 0 0 -180713038.11000228 571961634.49109745 0 571961634.49109745 2964128690.7767558 0 0 0 0 -108352290.16374239 905731680.49115729 0 905731680.49115729 3464410632.9237041 0 0 0 0 345176554.57959223 751578175.40665865 0 751578175.40665865 2116739732.1399803 0 0 0 0 509130914.09807229 1031794305.4288778 0 1031794305.4288778 2180407332.846735 0 0 0 0 547836007.24865127 1172911635.5545371 0 1172911635.5545371 2389058850.6698895 0 0 0 0 576972339.03429806 1162488971.0172091 0 1162488971.0172091 2334566113.469943 0 0 0 0 520648752.45083833 1051545187.4796848 0 1051545187.4796848 2130408479.8841972 0 0 0 0 -183763.76967610462 -548268.28644479858 0 -548268.28644479858 6493857.7710239906 0 0 0 0 369668583.41711676 912363243.68815005 0 912363243.68815005 2697932804.5002017 0 0 0 0 -871995067.76651335 -517670072.23116922 0 -517670072.23116922 1886945507.2515144 0 0 0 0 -341022519.9886266 162412392.13632274 0 162412392.13632274 2231443343.9431705 0 0 0 0 -727839062.08753622 164469448.70069838 0 164469448.70069838 3463866575.4463401 0 0 0 0 -51467125.120134592 527221170.32038212 0 527221170.32038212 2333722971.177949 0 0 0 0 -597080719.30349994 347078188.76908469 0 347078188.76908469 2102412467.1731701 0 0 0 0 -667145079.99313092 -485807409.67805099 0 -485807409.67805099 -41803576.486868769 0 0 0 0 -344256521.36113256 1895617128.4679229 0 1895617128.4679229 -92048407.263946533 0 0 0 0 -291531875.60559756 15345392.442649364 0 15345392.442649364 1259241218.3961582 0 0 0 0 204013131.28034484 1370321080.3337679 0 1370321080.3337679 549463270.64998293 0 0 0 0 219949085.14768365 1196393844.4109869 0 1196393844.4109869 2117608672.627882 0 0 0 0 -349867.62079955963 339373.41573838238 0 339373.41573838238 1586247.8373146597 0 0 0 0 -770385573.02019238 1047722453.6719379 0 1047722453.6719379 833851841.29994583 0 0 0 0 -131086230.30993927 687423389.87555981 0 687423389.87555981 -95108231.390483856 0 0 0 0 -288177796.07068181 625789409.37587833 0 625789409.37587833 1153096710.489769 0 0 0 0 650949461.20162487 -240225108.55169487 0 -240225108.55169487 689733639.94775867 0 0 0 0 340192465.96398854 -1001162594.4139576 0 -1001162594.4139576 2171820130.7186766 0 0 0 0 123536490.10128021 202474434.69738197 0 202474434.69738197 2165754550.5149293 0 0 0 0 -20222.832291791216 937999.82646488771 0 937999.82646488771 2096306.4925849568 0 0 0 0 -8901626.4319090843 6502365.7969636917 0 6502365.7969636917 36696585.137044907 0 0 0 0 2399644.4279961772 2262853.4137411313 0 2262853.4137411313 1385381.2187643121 0 0 0 0 13678010.976472855 11128763.476362228 0 11128763.476362228 22412455.74285537 0 0 0 0 538052368.84849584 1014769752.6588383 0 1014769752.6588383 2091344876.045023 0 0 0 0 -406004.9172604084 1046783.9149338636 0 1046783.9149338636 4490824.8629899397 0 0 0 0 527932009.64576185 1010572291.9167132 0 1010572291.9167132 2136365520.6088533 0 0 0 0 489834499.72446299 666909723.39746571 0 666909723.39746571 1520061861.510458 0 0 0 0 -2929428.678409338 39830841.013967037 0 39830841.013967037 -15539888.545310974 0 0 0 0 15789929.386575937 63148953.908765793 0 63148953.908765793 -6089280.0412511826 0 0 0 0 25893748.06611371 104204995.34309959 0 104204995.34309959 -490304669.65628624 0 0 0 0 -259078109.86794043 168008152.7013588 0 168008152.7013588 390873871.94503021 0 0 0 0 -215429833.54550219 105069887.82810593 0 105069887.82810593 117543542.1242733 0 0 0 0 -57115407.930550575 2389426.7069911957 0 2389426.7069911957 23027597.59018898 0 0 0 0 -90875679.933427811 82937747.77047348 0 82937747.77047348 13773486.945276737 0 0 0 0 -6637646.2563085556 65205301.181611061 0 65205301.181611061 16395401.0091362 0 0 0 0 -59178243.254977226 31370541.375713348 0 31370541.375713348 23041257.700292528 0 0 0 0 14064715.429997444 19150064.399852753 0 19150064.399852753 -2481510.5845394135 0 0 0 0 -836301.45770788193 -19546085.201379776 0 -19546085.201379776 18098192.300506592 0 0 0 0 -84002958.937597275 -47695117.437106133 0 -47695117.437106133 10579453.352630615 0 0 0 0 1476961.567615509 9014560.2992706299 0 9014560.2992706299 16566665.23248291 0 0 0 0 9947464.4064483643 13519356.800849915 0 13519356.800849915 8874145.9459381104 0 0 0 0 1731555.6710262299 471481.28055953979 0 471481.28055953979 8867923.4973869324 0 0 0 0 -1656775.6384306611 2517174.8162861979 0 2517174.8162861979 4508078.733560821 0 0 0 0 104418.26996331336 226065.5081868479 0 226065.5081868479 6386163.7973352019 0 0 0 0 11092578.474575043 11611262.963802338 0 11611262.963802338 3830718.9000644684 0 0 0 0 11607058.102840424 16698322.407936096 0 16698322.407936096 18522179.8373909 0 0 0 0 9574704.4476978779 1474630.2474803925 0 1474630.2474803925 -4145420.131111145 0 0 0 0 -156536.87661255492 719351.78521705465 0 719351.78521705465 130027.74075483903 0 0 0 0 -450174344.51835859 -371774675.60310674 0 -371774675.60310674 109580655.3690567 0 0 0 0 6487971.9527587891 -1983444.8542060852 0 -1983444.8542060852 12504887.577312469 0 0 0 0 -211836.53705765773 608767.1852849517 0 608767.1852849517 4685728.1714008991 0 0 0 0 -214363607.45416689 -341346633.4526484 0 -341346633.4526484 -76364094.395759583 0 0 0 0 -381341830.105618 3855345.6079006195 0 3855345.6079006195 121427909.70856857 0 0 0 0 -159800343.52678037 18667167.51581955 0 18667167.51581955 -94603869.718031168 0 0 0 0 -211541980.17286697 -33619830.848180771 0 -33619830.848180771 321282079.01326752 0 0 0 0 -31040683.098465204 174545667.25350761 0 174545667.25350761 498887076.5990181 0 0 0 0 -34656072.699544668 -156709570.12904739 0 -156709570.12904739 520725723.22007561 0 0 0 0 -65361152.163314462 59511623.001350403 0 59511623.001350403 232388262.83498383 0 0 0 0 383391414.45194936 -135183901.39483643 0 -135183901.39483643 168100408.55535507 0 0 0 0 -46973892.927946329 -55108209.687099457 0 -55108209.687099457 142572268.9341774 0 0 0 0 -264271142.60931531 -199010708.51291323 0 -199010708.51291323 288537296.57259369 0 0 0 0 222119542.52748013 53272179.123123169 0 53272179.123123169 806308574.73659182 0 0 0 0 773860979.76930535 641730506.19013846 0 641730506.19013846 766920988.25743484 0 0 0 0 292261801.30703616 185874572.3859024 0 185874572.3859024 502985781.52271652 0 0 0 0 302157439.64976799 299558685.83114481 0 299558685.83114481 665072973.37623596 0 0 0 0 384909462.91712284 -39675612.070522308 0 -39675612.070522308 401424403.99071121 0 0 0 0 276372589.80230546 -41409428.745211601 0 -41409428.745211601 -146517395.46483231 0 0 0 0 460371759.663203 70458949.287975311 0 70458949.287975311 102623635.77446747 0 0 0 0 163730586.61907697 29834775.697706223 0 29834775.697706223 117975811.93488693 0 0 0 0 -86936836.08875525 -266992666.45259666 0 -266992666.45259666 63929503.698352814 0 0 0 0 -102574901.43521428 -58268057.075927734 0 -58268057.075927734 234170953.02651978 0 0 0 0 -87394274.176477432 -102042552.41423416 0 -102042552.41423416 -108229958.79779434 0 0 0 0 219784739.74687165 -97364621.717357159 0 -97364621.717357159 -154101842.8374939 0 0 0 0 -145281741.00668573 -33029793.011798859 0 -33029793.011798859 -171270915.02871704 0 0 0 0 -314933411.05693078 -361041890.00318909 0 -361041890.00318909 -472863178.8965416 0 0 0 0 -401576350.55524427 -60599985.617651701 0 -60599985.617651701 -21127074.149597168 0 0 0 0 -320413.81470758829 -125021.11146567017 0 -125021.11146567017 18339.932687838562 0 0 0 0 80472.686951193667 5198261.6651512245 0 5198261.6651512245 1410067.4016594756 0 0 0 0 4235109.6258454323 6881276.0325145721 0 6881276.0325145721 12905370.280799866 0 0 0 0 -239616174.77897978 -50395579.8133564 0 -50395579.8133564 -13680315.642597198 0 0 0 0 585793.96295070648 -108926560.65584946 0 -108926560.65584946 -272494873.3415184 0 0 0 0 51459737.585916519 -184859353.25551605 0 -184859353.25551605 -191808440.83209991 0 0 0 0 -167122697.25041866 -196666874.66663361 0 -196666874.66663361 -141565613.27474785 0 0 0 0 154818484.9750995 -8376746.7055592537 0 -8376746.7055592537 -135176142.22455597 0 0 0 0 51552392.734498262 -82831975.556213379 0 -82831975.556213379 -153338642.9398303 0 0 0 0 136313680.87198818 5955155.8605670929 0 5955155.8605670929 -122768705.24820709 0 0 0 0 3204676.4242833853 -3285087.3332643509 0 -3285087.3332643509 -52122828.279678345 0 0 0 0 7569282.512532711 3696484.0558853149 0 3696484.0558853149 -122793746.80546975 0 0 0 0 2381123.9914668202 8830680.7738604546 0 8830680.7738604546 8752717.872543335 0 0 0 0 -1261516.6722179307 9428302.3979849461 0 9428302.3979849461 1636629.5511405021 0 0 0 0 -26842058.437527418 -43146884.226528168 0 -43146884.226528168 -75832420.636731148 0 0 0 0 10020237.00972271 18284493.570737839 0 18284493.570737839 6488334.3405990601 0 0 0 0 3054373.9292345047 14279135.082000732 0 14279135.082000732 7562307.8653259277 0 0 0 0 -6224535.1038413048 -61372745.075242996 0 -61372745.075242996 -67739536.76783371 0 0 0 0 5709233.9605937004 8293763.9301757812 0 8293763.9301757812 7028701.3304214478 0 0 0 0 16497869.669738293 16203803.084941864 0 16203803.084941864 2732737.5736083984 0 0 0 0 12321829.013765335 9063616.954498291 0 9063616.954498291 6554318.1303024292 0 0 0 0 16301773.595989227 17013375.363651276 0 17013375.363651276 912224.07252502441 0 0 0 0 16923215.494987011 24786325.549209595 0 24786325.549209595 -1046274.491232872 0 0 0 0 27933000.233736992 14727233.571914673 0 14727233.571914673 1191536.251209259 0 0 0 0 17112908.540756226 18741318.963470459 0 18741318.963470459 1944329.4417572021 0 0 0 0 13938271.522342205 18404460.047805786 0 18404460.047805786 3820462.8690338135 0 0 0 0 14080056.264051914 16746303.129463196 0 16746303.129463196 3238085.7478713989 0 0 0 0 12715661.84956789 19684497.884746552 0 19684497.884746552 8303734.4148330688 0 0 0 0 17758857.186712265 23291658.896903992 0 23291658.896903992 3226471.7376556396 0 0 0 0 7832570.9504985809 24139183.762569427 0 24139183.762569427 4466977.4150009155 0 0 0 0 9806819.1127758026 29259850.839111328 0 29259850.839111328 -1252554.4111175537 0 0 0 0 9894857.0319309235 14578995.85364151 0 14578995.85364151 10656335.315200806 0 0 0 0 -14299505.109447479 16824108.859016418 0 16824108.859016418 40753100.259819031 0 0 0 0 8009794.9126663208 2357504.8105545044 0 2357504.8105545044 27742596.111408234 0 0 0 0 -12501618.00327611 32270668.107441425 0 32270668.107441425 17954367.756576538 0 0 0 0 253075.63854598999 34039880.050315857 0 34039880.050315857 3055338.6182746887 0 0 0 0 2268798.767490387 16762332.270172119 0 16762332.270172119 25495623.032474518 0 0 0 0 7809340.5971713066 24813447.729785919 0 24813447.729785919 12659519.929855347 0 0 0 0 7381593.2739009857 17380283.898864746 0 17380283.898864746 16329352.05645752 0 0 0 0 1325702.0301609039 22783076.406932831 0 22783076.406932831 12247500.051628113 0 0 0 0 7866199.9944248199 11675762.678031921 0 11675762.678031921 18427959.39812088 0 0 0 0 6629515.5139079094 14619057.256521225 0 14619057.256521225 13130685.327934265 0 0 0 0 20102949.089338303 7387151.1715545654 0 7387151.1715545654 15490276.074310303 0 0 0 0 5226273.5077972412 14578421.395095825 0 14578421.395095825 17676649.592857361 0 0 0 0 9095351.4459724426 10341390.40247345 0 10341390.40247345 12416521.019973755 0 0 0 0 12057797.189929008 15238144.477180481 0 15238144.477180481 12883239.539199829 0 0 0 0 7897317.5706129074 14874113.311559677 0 14874113.311559677 12156791.754360199 0 0 0 0 -1232387.7576744698 998929.2276457916 0 998929.2276457916 2077743.1195479408 0 0 0 0 5925111.7177772522 14293741.713769913 0 14293741.713769913 8211613.9450731277 0 0 0 0 7769807.2161521912 15803889.213184357 0 15803889.213184357 11187430.938308716 0 0 0 0 7198664.9668197632 18761419.372066498 0 18761419.372066498 8196787.6035785675 0 0 0 0 9244863.2117643356 11079014.1665802 0 11079014.1665802 11996734.472969055 0 0 0 0 -4273065.0276613235 -33200864.20070076 0 -33200864.20070076 24141989.330604553 0 0 0 0 -261515.08545910288 132105.99451489747 0 132105.99451489747 1957037.786062601 0 0 0 0 3274889.919983387 10338423.496353149 0 10338423.496353149 7957276.518743515 0 0 0 0 -27294319.81104064 -22932936.617380142 0 -22932936.617380142 -4518777.3555908203 0 0 0 0 -1082659.0157256713 -1089192.2101734653 0 -1089192.2101734653 2833664.638462685 0 0 0 0 -34312502.138173103 5528183.5213947296 0 5528183.5213947296 26045346.165138245 0 0 0 0 -101937949.4180243 180589459.00730896 0 180589459.00730896 -96177291.650636673 0 0 0 0 -3549685.1198339802 -735623.41745083593 0 -735623.41745083593 10734898.724969909 0 0 0 0 711679.51230432093 10091582.37825354 0 10091582.37825354 20961812.120654572 0 0 0 0 23813877.490966439 31679845.723090172 0 31679845.723090172 -74898282.777118683 0 0 0 0 -17408130.747722983 54738170.530109406 0 54738170.530109406 -87595797.703083038 0 0 0 0 117689882.59423923 30726520.464499474 0 30726520.464499474 -102314059.18114567 0 0 0 0 78346295.947872639 84398207.324578285 0 84398207.324578285 -131594724.90769196 0 0 0 0 101054000.9387815 147278055.5365448 0 147278055.5365448 -143559287.57894993 0 0 0 0 -121710381.59678602 4689508.0000610352 0 4689508.0000610352 147827899.37091446 0 0 0 0 161852894.1518147 7625426.5756835938 0 7625426.5756835938 213441879.46799564 0 0 0 0 217552269.9732112 177973033.14758396 0 177973033.14758396 89029500.302757263 0 0 0 0 -16842280.414786816 -164333303.84422684 0 -164333303.84422684 558155323.48569107 0 0 0 0 46486832.627948284 236270260.90746498 0 236270260.90746498 464664687.26386261 0 0 0 0 262297585.08104026 8286116.8853645325 0 8286116.8853645325 689260085.00714493 0 0 0 0 -98188887.458467484 -329925757.16944504 0 -329925757.16944504 236378129.68363476 0 0 0 0 -121778845.64800262 23600441.705852509 0 23600441.705852509 83193478.010826111 0 0 0 0 89682.235758997238 7311490.8258146662 0 7311490.8258146662 22073960.459266767 0 0 0 0 -267012663.26687646 302623858.66989994 0 302623858.66989994 76560528.484035492 0 0 0 0 36170261.257145703 -100000205.88481665 0 -100000205.88481665 124139257.90185547 0 0 0 0 196330.76610494847 -148013.38442001864 0 -148013.38442001864 331578.04315223917 0 0 0 0 -15119996.518771648 38622185.393238068 0 38622185.393238068 173992819.84720612 0 0 0 0 -11569893.584214687 -6232235.4692115784 0 -6232235.4692115784 8160552.5419082642 0 0 0 0 5968233.4247198105 86927362.870300293 0 86927362.870300293 -5559393.1072540283 0 0 0 0 15218979.87439245 25767939.687496185 0 25767939.687496185 1735819.4671936035 0 0 0 0 -12358714.461194992 12938937.197446823 0 12938937.197446823 -25176770.454696655 0 0 0 0 -75229219.960526466 74760485.807621002 0 74760485.807621002 12723004.676292419 0 0 0 0 -506283.87484159158 312878.39498211537 0 312878.39498211537 1049483.7798598334 0 0 0 0 -181868244.02821541 -252689311.22748375 0 -252689311.22748375 557397296.2319603 0 0 0 0 6374561.9237246513 5470057.6853294373 0 5470057.6853294373 24078444.484130859 0 0 0 0 -546430.74857616855 5748322.4822101761 0 5748322.4822101761 20687281.892554708 0 0 0 0 -182272526.31743196 -412992793.53844643 0 -412992793.53844643 752140606.42021942 0 0 0 0 -170398856.93542254 -446448626.41311312 0 -446448626.41311312 800581897.99278259 0 0 0 0 61281542.144976735 -295490680.87144089 0 -295490680.87144089 365040919.89816284 0 0 0 0 604000320.13716888 -900946515.04621887 0 -900946515.04621887 476454392.18972301 0 0 0 0 62837221.509903118 -477672265.18601894 0 -477672265.18601894 1075320251.8734131 0 0 0 0 7612636.4959906936 -608641114.05817223 0 -608641114.05817223 869625651.57298279 0 0 0 0 439337942.4536007 -572788461.48190308 0 -572788461.48190308 935021300.15743256 0 0 0 0 -199807682.36114004 -438271040.24068069 0 -438271040.24068069 888525177.5759201 0 0 0 0 -147559090.09063852 -515716257.51608849 0 -515716257.51608849 842456886.40251923 0 0 0 0 -87402153.735664606 -480915872.6109848 0 -480915872.6109848 697980955.44386673 0 0 0 0 -188977931.37076497 -488526936.58470535 0 -488526936.58470535 1039691654.5713997 0 0 0 0 95420470.585241675 -544567083.31871414 0 -544567083.31871414 901580151.13694 0 0 0 0 144676041.59528479 -452655892.22459793 0 -452655892.22459793 1058942787.129921 0 0 0 0 3462830.3473245399 7178427.802995801 0 7178427.802995801 10499395.764434533 0 0 0 0 424635794.28878772 -611905077.31495476 0 -611905077.31495476 1071858849.5647202 0 0 0 0 369201679.14027631 -476422215.34297943 0 -476422215.34297943 991468510.93974304 0 0 0 0 328050174.27421147 -557075065.77485275 0 -557075065.77485275 1211572164.062233 0 0 0 0 165901822.27233216 -447856407.51717472 0 -447856407.51717472 1326941032.3914337 0 0 0 0 445731744.01443088 -553835437.40531063 0 -553835437.40531063 1218540716.9540787 0 0 0 0 622564621.76196015 -1064606998.3150873 0 -1064606998.3150873 1298297355.0774536 0 0 0 0 1148159518.0795732 -1375212523.348732 0 -1375212523.348732 1423421346.4774303 0 0 0 0 783249.59759195975 1026595.1579851145 0 1026595.1579851145 -761013.23713022657 0 0 0 0 376478849.19397634 -535637431.68771172 0 -535637431.68771172 1476823551.8858795 0 0 0 0 442192124.3106916 -649683946.48094749 0 -649683946.48094749 973571993.07576466 0 0 0 0 -16977685.904741287 -92446853.479722977 0 -92446853.479722977 1461443072.2976151 0 0 0 0 -159516822.03471088 -210033338.26332474 0 -210033338.26332474 599595607.04351425 0 0 0 0 -163019024.50181198 -197583054.38086605 0 -197583054.38086605 933843857.59600067 0 0 0 0 -195934085.31945992 -489413055.34602165 0 -489413055.34602165 921993983.42719746 0 0 0 0 -182608080.36797404 -469475140.22067261 0 -469475140.22067261 782187208.71453476 0 0 0 0 -193850649.32704651 -473178400.66759682 0 -473178400.66759682 835616561.83726883 0 0 0 0 -186795868.90678537 -448642179.97970486 0 -448642179.97970486 809300066.8774147 0 0 0 0 -290170857.01862681 -245695910.80331993 0 -245695910.80331993 724969965.1154511 0 0 0 0 129398106.5223577 -326181594.23969841 0 -326181594.23969841 729495864.81362152 0 0 0 0 -711680825.59410536 205415201.53102809 0 205415201.53102809 1433280391.0622215 0 0 0 0 -570957.06623256765 1818928.7018227247 0 1818928.7018227247 4778948.996888848 0 0 0 0 -307483438.00315344 -513010992.99066162 0 -513010992.99066162 776022353.89731979 0 0 0 0 478133480.16816491 -1198388782.7173328 0 -1198388782.7173328 1637384548.7717648 0 0 0 0 -422711.70891629515 831726.94508539978 0 831726.94508539978 2645710.5673125861 0 0 0 0 231417319.38370299 -1383473728.5592861 0 -1383473728.5592861 4088389345.0790634 0 0 0 0 -908842468.19353616 -565289844.44938815 0 -565289844.44938815 3464817565.766387 0 0 0 0 7120426.1984499991 -149629404.43700504 0 -149629404.43700504 2240514716.7213669 0 0 0 0 24081774.397797287 -3018173.1941223145 0 -3018173.1941223145 1565013621.9155445 0 0 0 0 303407731.77319217 -569062472.08457947 0 -569062472.08457947 1808483718.5391769 0 0 0 0 276244683.75142503 -471542522.77574158 0 -471542522.77574158 1192772852.9357452 0 0 0 0 110727540.06196749 -390045466.70088196 0 -390045466.70088196 1168538402.7933807 0 0 0 0 303666377.88828838 -436328556.85668564 0 -436328556.85668564 1180582925.4546127 0 0 0 0 -74673503.16109246 -184291097.42443466 0 -184291097.42443466 1209219073.9478607 0 0 0 0 -30399349.606623769 -168847600.8136673 0 -168847600.8136673 34385305.298622131 0 0 0 0 122436916.46602124 -312563819.86676407 0 -312563819.86676407 883716539.36155868 0 0 0 0 59727527.094044775 -42639645.067045212 0 -42639645.067045212 855774033.72377396 0 0 0 0 -489978216.93857962 825968644.73874235 0 825968644.73874235 2105101732.6896591 0 0 0 0 -424110145.08145142 1057007345.3584023 0 1057007345.3584023 383110852.71347523 0 0 0 0 754733253.85116088 202030092.34017944 0 202030092.34017944 3465956139.4357777 0 0 0 0 -514934709.85855645 110428300.87431335 0 110428300.87431335 3473900813.3175392 0 0 0 0 -381651744.9227466 -14161072.395115852 0 -14161072.395115852 2199381552.7413025 0 0 0 0 -315896569.85871589 -588665721.07498074 0 -588665721.07498074 3465014359.9841576 0 0 0 0 390665778.09681326 -670152405.98209763 0 -670152405.98209763 1308687791.4773369 0 0 0 0 263655445.25749642 -457074596.23455238 0 -457074596.23455238 1575439374.4757376 0 0 0 0 1178051.3661262654 6422687.2855186723 0 6422687.2855186723 11189269.848342424 0 0 0 0 367703079.36581159 -974783068.12059021 0 -974783068.12059021 1916847152.8441563 0 0 0 0 723517936.19569016 -1716292266.6265278 0 -1716292266.6265278 3459001494.7512026 0 0 0 0 1395355.4552239093 4458582.3479012176 0 4458582.3479012176 455631.3564943634 0 0 0 0 343743364.82504576 94274049.741289854 0 94274049.741289854 -46964238.666931152 0 0 0 0 4489398.1041644141 3440517.2478291038 0 3440517.2478291038 1302721.1662126705 0 0 0 0 -583335866.36541486 609043734.88415146 0 609043734.88415146 3459512115.4182091 0 0 0 0 250093831.53007171 292291372.12459564 0 292291372.12459564 1288114110.4622269 0 0 0 0 5241993.4738836661 1776030246.132164 0 1776030246.132164 1586590782.079834 0 0 0 0 -270030.78709557169 1466898.8111311141 0 1466898.8111311141 -47887.555233754218 0 0 0 0 -212673314.66941738 -228307747.62286377 0 -228307747.62286377 800338780.17486572 0 0 0 0 -222168538.68579984 -17010738.341962814 0 -17010738.341962814 130669225.97556305 0 0 0 0 -1146970.6593068291 5973103.4060201459 0 5973103.4060201459 2195969.6000496671 0 0 0 0 31652252.736321688 -28622046.02562809 0 -28622046.02562809 36171775.711875916 0 0 0 0 -1256775.9772749317 2027819.1128873397 0 2027819.1128873397 6866138.0725418441 0 0 0 0 -1314297.3923202753 7386957.894329071 0 7386957.894329071 -487579.40401077271 0 0 0 0 -510167.46974432468 8013677.5675888062 0 8013677.5675888062 -1390701.2021865845 0 0 0 0 2416640.218454659 3493300.6753005981 0 3493300.6753005981 -1874674.0741958618 0 0 0 0 -1396028.1802341123 3479039.947484564 0 3479039.947484564 2828193.2140282691 0 0 0 0 -46566.443246811628 1570950.6360282898 0 1570950.6360282898 -482511.25233364105 0 0 0 0 -499791.36194431782 1847566.7923183441 0 1847566.7923183441 -121253.69618225098 0 0 0 0 -8165965.9594855309 4120730.7041778564 0 4120730.7041778564 -7589015.1476564407 0 0 0 0 -131167.75357031822 1310822.9316234589 0 1310822.9316234589 -10342494.068321228 0 0 0 0 666907.0592999931 826101.71189857274 0 826101.71189857274 -1302688.6546200663 0 0 0 0 40970129.866733551 45196730.345844269 0 45196730.345844269 -20221510.167060852 0 0 0 0 -10050543.880098835 36487393.584008336 0 36487393.584008336 -11949523.453681946 0 0 0 0 60597832.423614502 -14718940.672801971 0 -14718940.672801971 -20123087.522016525 0 0 0 0 13833406.327836037 39826719.889152527 0 39826719.889152527 -42677111.774944305 0 0 0 0 -16966955.636474848 11013197.224359512 0 11013197.224359512 3167045.1701660156 0 0 0 0 -2499027.4727087021 10252101.589818001 0 10252101.589818001 -7101257.4291915894 0 0 0 0 14121169.867381096 10753502.08656311 0 10753502.08656311 -33141805.381046295 0 0 0 0 2761043.4553846242 3123088.3064837325 0 3123088.3064837325 -4980307.6630406976 0 0 0 0 -250943306.34041214 -179120774.50071335 0 -179120774.50071335 2447525027.9508286 0 0 0 0 106817422.10444975 -192665214.86167908 0 -192665214.86167908 1167649000.8220825 0 0 0 0 -90425178.199856699 444973138.26382256 0 444973138.26382256 1915023405.7481995 0 0 0 0 -723697.87863566168 5898.4754339307547 0 5898.4754339307547 1438662.6803233027 0 0 0 0 -483697755.79514247 1031030181.2973824 0 1031030181.2973824 2583816200.5499001 0 0 0 0 -582156848.92205691 466297077.79278183 0 466297077.79278183 3045164776.6254768 0 0 0 0 -832948528.86580563 1397055325.7538548 0 1397055325.7538548 3458907077.8459587 0 0 0 0 -138789894.01967385 848301744.79175568 0 848301744.79175568 1260047620.7649078 0 0 0 0 -125988225.41765767 969340570.26262665 0 969340570.26262665 1817151682.5917892 0 0 0 0 -154477179.11680284 176437345.90142393 0 176437345.90142393 1476178954.3107224 0 0 0 0 -16111129.616224706 525586791.40979004 0 525586791.40979004 1134708790.1662292 0 0 0 0 58579346.323422372 133555819.02555084 0 133555819.02555084 459255426.97164154 0 0 0 0 252487736.93380511 -120291138.38834763 0 -120291138.38834763 102987367.21291351 0 0 0 0 655021806.43079746 769449861.23868561 0 769449861.23868561 876484988.97594452 0 0 0 0 1103788611.8703165 2218714716.1106796 0 2218714716.1106796 1888648759.9262619 0 0 0 0 1332229622.3408384 915704754.43977332 0 915704754.43977332 -445654156.68499756 0 0 0 0 2066835.1305374857 1044188.9057735857 0 1044188.9057735857 540931.41105803102 0 0 0 0 6628243.7209769674 -978722255.63091278 0 -978722255.63091278 3464504775.4708424 0 0 0 0 -48699233.956991553 -659819549.89437103 0 -659819549.89437103 1630841673.6155853 0 0 0 0 -222720410.66308784 168221494.97721863 0 168221494.97721863 -108433448.03224182 0 0 0 0 -234523079.35086155 93276224.709728241 0 93276224.709728241 276163125.13404083 0 0 0 0 8953363.2273802757 -219038589.24355698 0 -219038589.24355698 243054674.7647686 0 0 0 0 -171459086.15485954 -11171264.707427979 0 -11171264.707427979 11791589.249732971 0 0 0 0 -71668191.256412029 -71441355.232135773 0 -71441355.232135773 -73079809.931793213 0 0 0 0 2013227.4791767597 -135376235.45526505 0 -135376235.45526505 -17622566.816542625 0 0 0 0 -519369.85669976647 -580177.60128496215 0 -580177.60128496215 -93357.633879519999 0 0 0 0 100963770.32154036 -69992083.548912048 0 -69992083.548912048 -517866626.66498566 0 0 0 0 -13471418.11775589 -59004028.628170013 0 -59004028.628170013 -160336979.70584106 0 0 0 0 25215254.234149382 -14942040.251909733 0 -14942040.251909733 66923489.173828125 0 0 0 0 12581447.713672638 -226253395.26115417 0 -226253395.26115417 53741994.83303833 0 0 0 0 173291781.02223408 -27371219.854629517 0 -27371219.854629517 140336767.55882263 0 0 0 0 3549199.4563003778 55512705.496078491 0 55512705.496078491 531945173.536026 0 0 0 0 154483427.49116397 -128097959.35031509 0 -128097959.35031509 513991496.50864792 0 0 0 0 -52895192.69939208 343683810.50363445 0 343683810.50363445 90471907.96811676 0 0 0 0 35771875.761234462 -150446343.81206512 0 -150446343.81206512 201163118.74555206 0 0 0 0 -57412291.153623641 -186152623.5874176 0 -186152623.5874176 -105920334.26798248 0 0 0 0 -26569521.250874639 -165961530.96377563 0 -165961530.96377563 -17977184.630729675 0 0 0 0 -271446.85438060295 139406.440465983 0 139406.440465983 110562.42615712807 0 0 0 0 126953970.52449322 502237896.12610292 0 502237896.12610292 -111575891.19847107 0 0 0 0 144438024.91120982 76513915.876491547 0 76513915.876491547 -202055311.27596283 0 0 0 0 9153663.5473327637 47628232.502819061 0 47628232.502819061 -17325134.946777344 0 0 0 0 69479467.823696375 -392957994.54270172 0 -392957994.54270172 -202463106.2253418 0 0 0 0 56947985.055409908 -30980251.223991394 0 -30980251.223991394 95711450.860542297 0 0 0 0 323407578.11917806 -207152249.91678619 0 -207152249.91678619 122547133.33759308 0 0 0 0 -34572537.800531626 94505814.160161972 0 94505814.160161972 1031146015.0414581 0 0 0 0 21948019.182962865 -7388021.4291074276 0 -7388021.4291074276 32734176.344223022 0 0 0 0 23579565.37112844 -25184715.390018463 0 -25184715.390018463 49056428.063079834 0 0 0 0 165155110.34323841 44892862.45660162 0 44892862.45660162 14915401.131340027 0 0 0 0 131767842.2914035 -117442877.74168682 0 -117442877.74168682 -50642356.530044556 0 0 0 0 -20579863.717518985 -43476478.490348816 0 -43476478.490348816 30005392.910865784 0 0 0 0 -193574412.75523433 -86348890.909225464 0 -86348890.909225464 58202388.411315918 0 0 0 0 -25104262.970133603 -56724996.354206085 0 -56724996.354206085 35491385.518312454 0 0 0 0 -53692572.33634305 -9464384.2027168274 0 -9464384.2027168274 51763356.658920288 0 0 0 0 -19172138.377541095 11444.51770401001 0 11444.51770401001 9349737.9003295898 0 0 0 0 -140751832.89257699 83237661.289335251 0 83237661.289335251 -40361695.003509521 0 0 0 0 -36825228.6383515 8841434.8826408386 0 8841434.8826408386 12249843.93963623 0 0 0 0 -29209501.022345006 19525230.974487305 0 19525230.974487305 -9477716.7663841248 0 0 0 0 -2236087.7348756758 -1036246.7046432979 0 -1036246.7046432979 545821.91837542877 0 0 0 0 -687328.97216394707 794631.00349612348 0 794631.00349612348 1031012.0054109097 0 0 0 0 -29912723.357311845 7751448.7840843201 0 7751448.7840843201 3799206.2127456665 0 0 0 0 -30633091.124281794 11047648.276834488 0 11047648.276834488 14039504.990776062 0 0 0 0 -4618877.6473367214 -43698218.469139099 0 -43698218.469139099 28320296.931546211 0 0 0 0 -226914.45714951062 283138.16696003219 0 283138.16696003219 379364.19752868265 0 0 0 0 56420416.482468426 86196544.359912872 0 86196544.359912872 102705538.76509094 0 0 0 0 -16792820.62279303 27385715.396863937 0 27385715.396863937 75587839.552927017 0 0 0 0 -9469275.471007321 51996310.395313263 0 51996310.395313263 149417216.35689735 0 0 0 0 -26780769.353718162 -35261211.471096039 0 -35261211.471096039 56392702.999191284 0 0 0 0 -34609590.905876353 -34179912.108879089 0 -34179912.108879089 131368812.19123077 0 0 0 0 -22774837.617423266 -22238245.152241707 0 -22238245.152241707 51736311.623733521 0 0 0 0 -26626682.791490376 -9677890.0337562561 0 -9677890.0337562561 114457939.75473785 0 0 0 0 -8449392.8525029421 2564130.275062561 0 2564130.275062561 68189283.944313049 0 0 0 0 -5029855.3060913086 5651687.9343719482 0 5651687.9343719482 70531027.831481934 0 0 0 0 -1630627.1163246632 -2154646.703956604 0 -2154646.703956604 67834155.21203804 0 0 0 0 6899477.6186829805 1326361.5956745148 0 1326361.5956745148 39700980.032531738 0 0 0 0 39504925.111981541 8751450.6535377502 0 8751450.6535377502 -8374283.9135284424 0 0 0 0 529538.56937653408 -127619.36680634692 0 -127619.36680634692 -232595.41659332067 0 0 0 0 -15550964.207395554 27025148.640319824 0 27025148.640319824 207560334.39471817 0 0 0 0 -40036529.741934299 28724791.651287079 0 28724791.651287079 237388794.39359283 0 0 0 0 67692196.064638376 71968462.411952972 0 71968462.411952972 88406000.629684448 0 0 0 0 66087985.833509237 -493606.09900331497 0 -493606.09900331497 4481152.5664215088 0 0 0 0 77957502.42002058 77593476.619617462 0 77593476.619617462 41598618.083580017 0 0 0 0 26887144.72925663 33217341.262825012 0 33217341.262825012 -19494780.11000061 0 0 0 0 26744767.33453083 -4754324.9298858643 0 -4754324.9298858643 -8964391.6731328964 0 0 0 0 -1901316.5061486959 -7534024.4429550171 0 -7534024.4429550171 9703505.6963195801 0 0 0 0 -5564969.1022204161 600154.63477325439 0 600154.63477325439 -266646.42717170715 0 0 0 0 864453.79380273866 319376.66918071359 0 319376.66918071359 -116102.58372122794 0 0 0 0 -2141933.17343539 4387502.7208099365 0 4387502.7208099365 -531195.66510772705 0 0 0 0 13158098.592540145 26566418.943786621 0 26566418.943786621 31216527.568016052 0 0 0 0 3422563.2896161973 13924325.343599319 0 13924325.343599319 40849612.693565369 0 0 0 0 -1834558.6597716808 41970871.016033173 0 41970871.016033173 110583985.02349472 0 0 0 0 -9161612.9626444578 19788669.118686676 0 19788669.118686676 121045966.30279541 0 0 0 0 -18787237.978152752 -3098305.2021751404 0 -3098305.2021751404 58535501.021327972 0 0 0 0 -20027253.571211815 12674139.669754028 0 12674139.669754028 152454440.37522888 0 0 0 0 29304581.784033298 -18273573.853113174 0 -18273573.853113174 -21230155.121669769 0 0 0 0 8791116.9329192638 15549527.86894989 0 15549527.86894989 46514525.424171448 0 0 0 0 15878972.09250319 13449070.050771713 0 13449070.050771713 46933052.213394165 0 0 0 0 53880614.727154732 91857961.191913605 0 91857961.191913605 122574034.99760056 0 0 0 0 -1347520.6896300316 25971609.648574829 0 25971609.648574829 47771055.413673401 0 0 0 0 -49517353.367080688 83883823.771224976 0 83883823.771224976 48902767.888404846 0 0 0 0 -16948993.932559013 -37068641.279766083 0 -37068641.279766083 13424771.248027802 0 0 0 0 99316491.534584284 12100008.232646942 0 12100008.232646942 27073581.458328247 0 0 0 0 -24971076.815292358 -18151251.807819366 0 -18151251.807819366 16661758.673271179 0 0 0 0 -491325.51712889085 -466816.7619494088 0 -466816.7619494088 1878596.6390869759 0 0 0 0 50242162.416602612 -60585264.982772827 0 -60585264.982772827 -14058141.893260956 0 0 0 0 -203148.85960498406 -78737.10402867198 0 -78737.10402867198 379286.49875933677 0 0 0 0 4781936.0170826912 34717708.557605743 0 34717708.557605743 61265115.801858902 0 0 0 0 2980798.2282514572 -80203503.77766037 0 -80203503.77766037 -12173061.990753174 0 0 0 0 -7806460.9932363033 17116425.387378693 0 17116425.387378693 69695061.392522812 0 0 0 0 -22896669.755386114 -2505539.5262260437 0 -2505539.5262260437 49136593.745292664 0 0 0 0 18393989.111120045 7233528.1318778992 0 7233528.1318778992 -10880339.657413483 0 0 0 0 -178064.10394090449 -611904.98830415681 0 -611904.98830415681 859508.39848193573 0 0 0 0 885549.04832217097 -168341.01550102234 0 -168341.01550102234 29169324.577735901 0 0 0 0 -7736803.2662427425 -7421038.9707260132 0 -7421038.9707260132 29041170.316804409 0 0 0 0 221571.9346306622 643105.17234373093 0 643105.17234373093 18211561.987106323 0 0 0 0 -2352260.6499640942 -5889266.01197052 0 -5889266.01197052 27950794.409326553 0 0 0 0 256060.9529685899 -371377.4830654189 0 -371377.4830654189 -94510.984374146909 0 0 0 0 583407.47085264325 1769608.5432887077 0 1769608.5432887077 12111111.499778748 0 0 0 0 -2360005.7012765408 6810392.2130050659 0 6810392.2130050659 -4073532.3629760742 0 0 0 0 4569030.2473273277 11625653.833274841 0 11625653.833274841 -1500758.1307983398 0 0 0 0 3713.4695171515923 -27236.907674491405 0 -27236.907674491405 6448.8514481112361 0 0 0 0 -43076222.551859617 -25982294.278053284 0 -25982294.278053284 149367918.02565002 0 0 0 0 -39736728.959726334 -46823261.838596344 0 -46823261.838596344 45233426.072006226 0 0 0 0 -40676763.146690369 -26318737.573173523 0 -26318737.573173523 -15927428.6496315 0 0 0 0 -509365.73444087827 -154330.52506751567 0 -154330.52506751567 815852.57303897291 0 0 0 0 81480255.602247953 64363591.397516251 0 64363591.397516251 15395061.340744019 0 0 0 0 26095472.746086121 74529089.097587585 0 74529089.097587585 178989431.84823608 0 0 0 0 59631177.009260654 -35201340.000968933 0 -35201340.000968933 -44783193.864749908 0 0 0 0 8461444.2641816139 17832657.94814682 0 17832657.94814682 30222738.090415955 0 0 0 0 -3792955.6883725822 6824395.2071771622 0 6824395.2071771622 60680334.365188599 0 0 0 0 -14878167.816150546 -9387013.9095897675 0 -9387013.9095897675 36990559.453422546 0 0 0 0 -1745524.1219825149 2194360.3946628571 0 2194360.3946628571 60591411.366172791 0 0 0 0 996971.14618575573 7013800.1654663086 0 7013800.1654663086 65918133.161972046 0 0 0 0 -4601723.9002981428 18413332.900653839 0 18413332.900653839 46740609.803718567 0 0 0 0 10245.538949388691 -281776.36427990347 0 -281776.36427990347 126818.25913861371 0 0 0 0 -78519.353145480156 -7673666.4756469727 0 -7673666.4756469727 42767185.055908203 0 0 0 0 -3003991.8823468983 -3209213.9331512451 0 -3209213.9331512451 52237261.655464172 0 0 0 0 2946977.0831317902 1289004.5138683319 0 1289004.5138683319 37788199.014148712 0 0 0 0 -14220.944597969356 -544861.84651093185 0 -544861.84651093185 391653.8469109796 0 0 0 0 50611906.696953669 239581.55242729187 0 239581.55242729187 -4339275.1306762695 0 0 0 0 -3503066.721973896 -2475109.2211608887 0 -2475109.2211608887 40440075.830806732 0 0 0 0 313718.72605179006 -357733.52050954476 0 -357733.52050954476 -206291.22034603544 0 0 0 0 1758923.0695774481 -898528.18711280823 0 -898528.18711280823 20963710.503700256 0 0 0 0 11260350.273377359 1004944.7611656189 0 1004944.7611656189 -7647509.4799003601 0 0 0 0 -5293328.0088999271 -2297819.2481803894 0 -2297819.2481803894 13323080.298377991 0 0 0 0 -624340.3603554666 -6830394.9545974731 0 -6830394.9545974731 9767416.9640846252 0 0 0 0 -742149.84260319173 -8958557.7799911499 0 -8958557.7799911499 34467179.773313522 0 0 0 0 2704694.797858417 -4235907.0073032379 0 -4235907.0073032379 38711642.27620697 0 0 0 0 181239.43885268085 -200771.7445468232 0 -200771.7445468232 -139265.40349955298 0 0 0 0 4871503.7504258752 -5685029.6078166962 0 -5685029.6078166962 958604.38918685913 0 0 0 0 628250.33633053303 -11644430.857536316 0 -11644430.857536316 -5687112.3918399811 0 0 0 0 3370428.4124789238 5092344.5869674683 0 5092344.5869674683 -757049.10624885559 0 0 0 0 -19593394.765098214 -1955754.4907188416 0 -1955754.4907188416 34997312.414718628 0 0 0 0 2769623.6464561224 66525.539666175842 0 66525.539666175842 12023076.142127991 0 0 0 0 -14319317.004325032 -2450738.8923187256 0 -2450738.8923187256 12105271.674407959 0 0 0 0 -2699876.1243751915 10751354.948825359 0 10751354.948825359 34432878.523551941 0 0 0 0 643901.6983605437 -2991443.5560874939 0 -2991443.5560874939 20409637.670516968 0 0 0 0 -164666.30867236364 -479845.85790126026 0 -479845.85790126026 168822.88911527488 0 0 0 0 13615189.153206646 1902815.4717025757 0 1902815.4717025757 28562655.609812737 0 0 0 0 12925541.287309527 36746851.077545166 0 36746851.077545166 56393487.618278503 0 0 0 0 8421997.8887037039 2508584.190246582 0 2508584.190246582 14853174.213935852 0 0 0 0 -72716.459337678971 -269493.36051585525 0 -269493.36051585525 95345.260128643364 0 0 0 0 -4945065.4176084399 -2755594.0788707733 0 -2755594.0788707733 53255561.113807678 0 0 0 0 20343137.203297615 -19986714.978141785 0 -19986714.978141785 13331914.915918693 0 0 0 0 -15133113.508032084 -42260417.44871521 0 -42260417.44871521 114391232.30754089 0 0 0 0 30504141.702383637 -5714751.5724830627 0 -5714751.5724830627 17112650.571411133 0 0 0 0 40984219.286315441 58114987.389083862 0 58114987.389083862 102542791.22801208 0 0 0 0 37805006.970975637 54575070.682605743 0 54575070.682605743 80438460.615188599 0 0 0 0 10467818.251353502 39285805.441066742 0 39285805.441066742 95751801.823097229 0 0 0 0 29960263.626053184 48997335.411379814 0 48997335.411379814 76658019.141479492 0 0 0 0 12001141.940402508 43216837.0437603 0 43216837.0437603 85927120.385410309 0 0 0 0 37500403.276686557 29619805.539453506 0 29619805.539453506 75721584.409538269 0 0 0 0 -8850640.9718476534 25349874.046775818 0 25349874.046775818 77295488.714286804 0 0 0 0 3148227.9252542257 14530634.851837158 0 14530634.851837158 63056241.504875183 0 0 0 0 29104231.680297792 27696614.291410446 0 27696614.291410446 54794022.114402771 0 0 0 0 10388571.435025334 34848522.06300354 0 34848522.06300354 124422047.0275116 0 0 0 0 9331929.2741658688 15333715.294036865 0 15333715.294036865 76913230.275056839 0 0 0 0 -2041963.9851846695 34178250.256649017 0 34178250.256649017 45777448.45287323 0 0 0 0 614074.80387055874 921391.20884943008 0 921391.20884943008 43244620.838638306 0 0 0 0 -3438381.2526197433 49234145.026157379 0 49234145.026157379 97431403.204101562 0 0 0 0 -3206878.3998425007 49639153.917129517 0 49639153.917129517 98039706.467803955 0 0 0 0 -4145441.7200064659 42269690.438362122 0 42269690.438362122 51801135.428638458 0 0 0 0 14930490.121608734 28741442.872817993 0 28741442.872817993 58872462.743385315 0 0 0 0 57058655.381324053 87149445.414305687 0 87149445.414305687 72228713.462463379 0 0 0 0 -16418034.002888203 88786394.137825012 0 88786394.137825012 125825451.50105667 0 0 0 0 -11423497.77893877 70464021.347763062 0 70464021.347763062 68465235.323505402 0 0 0 0 21133505.717581749 18700205.430740356 0 18700205.430740356 36887472.852870941 0 0 0 0 -1107253.1980810165 58436346.746627808 0 58436346.746627808 83042024.327495575 0 0 0 0 -47522285.347579479 58937657.232063293 0 58937657.232063293 85082701.004425049 0 0 0 0 -256583.52266311494 -90631.137949855998 0 -90631.137949855998 663897.98053209484 0 0 0 0 -12027774.491121531 -569535.39562225342 0 -569535.39562225342 -1923721.007850647 0 0 0 0 15036811.113065183 38096874.3741045 0 38096874.3741045 63289425.434036255 0 0 0 0 18331000.417068481 35153866.366844177 0 35153866.366844177 64626944.392108917 0 0 0 0 -5223897.9016919136 62871404.160400391 0 62871404.160400391 110913550.12416077 0 0 0 0 -9042468.3092522621 5479130.1714401245 0 5479130.1714401245 4094727.7147140503 0 0 0 0 -11140809.542669296 -31891430.339790344 0 -31891430.339790344 16475834.417884827 0 0 0 0 8530874.1310669184 8137140.3427124023 0 8137140.3427124023 -4588281.2186737061 0 0 0 0 -157398.56042748014 -20577.393720835447 0 -20577.393720835447 304811.15045216307 0 0 0 0 59093738.293478727 107726859.74422455 0 107726859.74422455 169261405.68847656 0 0 0 0 28295312.758289576 28150750.587905884 0 28150750.587905884 179094903.36984825 0 0 0 0 33461779.043936968 32207752.70274353 0 32207752.70274353 105909849.54875946 0 0 0 0 67302618.438214421 25418126.126529694 0 25418126.126529694 95271075.043273926 0 0 0 0 1889209.4293718338 44236481.78011322 0 44236481.78011322 101493221.67578506 0 0 0 0 58727715.853927672 66962954.125539601 0 66962954.125539601 89022556.191680908 0 0 0 0 3618555.24213624 53548030.050895691 0 53548030.050895691 150500587.72003174 0 0 0 0 3647974.1015872359 37889108.784536362 0 37889108.784536362 106397415.09036255 0 0 0 0 -2265009.8817176223 17716025.050617695 0 17716025.050617695 86154662.583015442 0 0 0 0 35318224.025619507 29834164.829269409 0 29834164.829269409 79603739.702415466 0 0 0 0 24524710.960949421 43979335.52507019 0 43979335.52507019 96920263.169744968 0 0 0 0 -11466310.84261775 31262095.62292099 0 31262095.62292099 81017548.476465225 0 0 0 0 -20429138.969319582 -5151155.0818214417 0 -5151155.0818214417 55466949.0728302 0 0 0 0 -10373730.338541508 21341184.672451019 0 21341184.672451019 85143903.461101532 0 0 0 0 -8594487.4600352049 6801776.9636623859 0 6801776.9636623859 49676249.125053406 0 0 0 0 -11942324.930688858 10536700.566476822 0 10536700.566476822 61957901.236373901 0 0 0 0 -8606769.9726247787 6539122.100856781 0 6539122.100856781 49695568.833600044 0 0 0 0 -3390203.2723126411 20035476.658885956 0 20035476.658885956 50561234.149547577 0 0 0 0 1384107.6756253242 18989576.91110611 0 18989576.91110611 39663188.749061584 0 0 0 0 -20811731.310177863 16829826.035438061 0 16829826.035438061 87733477.378753662 0 0 0 0 -17426571.07498312 4873789.4751586914 0 4873789.4751586914 52759792.819625854 0 0 0 0 -11219267.840701103 10232340.931125641 0 10232340.931125641 57345229.861667633 0 0 0 0 -8351993.4083034992 1000938.766582489 0 1000938.766582489 25896927.765014648 0 0 0 0 -18046846.062551975 5060827.4648284912 0 5060827.4648284912 52706263.216180801 0 0 0 0 -11701941.352395296 6421547.1343193054 0 6421547.1343193054 31302480.146057129 0 0 0 0 1013591.4503866276 125897.32032539696 0 125897.32032539696 78890.209071166813 0 0 0 0 40853990.395415843 37845829.35240221 0 37845829.35240221 -8960860.4617233276 0 0 0 0 393012.57365353592 -35057.648791711777 0 -35057.648791711777 -4622.1942046042532 0 0 0 0 -75149906.123608351 -3282423.8279380798 0 -3282423.8279380798 88469911.273017883 0 0 0 0 -20224090.164011002 24785885.369274139 0 24785885.369274139 47189965.787109375 0 0 0 0 8851051.4467902184 -35162206.202625275 0 -35162206.202625275 125067786.44754791 0 0 0 0 17126258.054703712 -7493381.0417366028 0 -7493381.0417366028 62957113.460357666 0 0 0 0 -28599658.08565855 -9945663.3000259399 0 -9945663.3000259399 55814425.025161743 0 0 0 0 363508415.27794266 5602767.6179046631 0 5602767.6179046631 47192924.697769165 0 0 0 0 1530051.8837549929 339830.22520904243 0 339830.22520904243 156634.46365773305 0 0 0 0 -106962430.55668831 53836503.81212616 0 53836503.81212616 41377973.927555084 0 0 0 0 -26966720.667212225 52208397.397474527 0 52208397.397474527 179344230.72048187 0 0 0 0 116210691.00659513 100078034.66697693 0 100078034.66697693 79549441.449131012 0 0 0 0 -626069.26298336568 -315413.79906140501 0 -315413.79906140501 527123.23008823395 0 0 0 0 1940926.9142508507 19922633.859855652 0 19922633.859855652 36567961.92489624 0 0 0 0 20344376.339694023 41929611.474502563 0 41929611.474502563 57968174.990947723 0 0 0 0 -2029790.0531524504 -1663383.5591681842 0 -1663383.5591681842 1221502.7204381377 0 0 0 0 29964860.997447491 23505246.652320862 0 23505246.652320862 27220908.688064575 0 0 0 0 19373280.902004182 27701389.56359148 0 27701389.56359148 26399582.659301758 0 0 0 0 6950688.0917201042 11575413.317335129 0 11575413.317335129 -77448971.153244019 0 0 0 0 -2163427.1399049759 16989661.279682159 0 16989661.279682159 833858.61631011963 0 0 0 0 -73354283.788970888 13910844.455698013 0 13910844.455698013 84024994.694129944 0 0 0 0 56395762.751890182 197047252.72976303 0 197047252.72976303 170115341.84807968 0 0 0 0 -121545794.58714008 -3302194.1936607361 0 -3302194.1936607361 348840752.45969009 0 0 0 0 38388426.665575981 -60498754.077453613 0 -60498754.077453613 92155913.774238586 0 0 0 0 2611085.6591036916 62161892.578107834 0 62161892.578107834 34952498.141136169 0 0 0 0 57846168.519691467 40663741.931016922 0 40663741.931016922 6609226.5234985352 0 0 0 0 16080256.871972561 -50447767.401878357 0 -50447767.401878357 -49778941.105884552 0 0 0 0 -24385659.384733677 -274968523.32872868 0 -274968523.32872868 -170975764.22806549 0 0 0 0 -4282678.0870281411 -5208414.2854911517 0 -5208414.2854911517 17595859.061173689 0 0 0 0 -290463693.64899182 38197087.656867266 0 38197087.656867266 352505325.21246338 0 0 0 0 440500806.03282166 -44908667.448265076 0 -44908667.448265076 -276957295.0499382 0 0 0 0 18438021.739712186 20318949.426497377 0 20318949.426497377 1450349.3391838074 0 0 0 0 -268740001.4989481 -236503699.94915009 0 -236503699.94915009 40955046.962905884 0 0 0 0 -19671975.19638443 -31967626.570144653 0 -31967626.570144653 -41102480.485551834 0 0 0 0 -4894592.6241100561 -4137593.6173793273 0 -4137593.6173793273 18213508.712468579 0 0 0 0 -74937834.645010948 67682248.063774109 0 67682248.063774109 117428515.44386292 0 0 0 0 87968622.753695488 137514728.2735672 0 137514728.2735672 108299900.21028137 0 0 0 0 101193199.61030102 101082488.51574516 0 101082488.51574516 137519684.51753235 0 0 0 0 120619745.88352299 148317532.11414242 0 148317532.11414242 89026594.390808105 0 0 0 0 17750904.819431305 52622974.645263672 0 52622974.645263672 156600390.01091003 0 0 0 0 146921678.85932827 101622314.79459 0 101622314.79459 78791546.908340454 0 0 0 0 -25087706.775577545 14510755.552764893 0 14510755.552764893 146486051.42656517 0 0 0 0 -54062270.594991207 64510534.494226456 0 64510534.494226456 66472011.781616211 0 0 0 0 -204454418.03169441 -212622948.51873016 0 -212622948.51873016 294010994.4881897 0 0 0 0 -13059552.183236122 -421530822.36178589 0 -421530822.36178589 104792811.26849747 0 0 0 0 -350751286.68692398 -158451844.26327515 0 -158451844.26327515 169926092.29406738 0 0 0 0 -297047270.76658726 20778531.050811768 0 20778531.050811768 128685675.36868286 0 0 0 0 554707806.23129845 69712638.636947632 0 69712638.636947632 -12447218.685516357 0 0 0 0 927756.20545747969 150662.31760824844 0 150662.31760824844 63116.231968484819 0 0 0 0 116665065.02687788 127834176.19338226 0 127834176.19338226 181869213.28527832 0 0 0 0 174346225.33578777 189466859.66661835 0 189466859.66661835 143595945.74771881 0 0 0 0 480789752.32642603 -115980697.06435776 0 -115980697.06435776 -57952561.128326416 0 0 0 0 -80882.649636981543 558807.19976099487 0 558807.19976099487 1252022.7757390812 0 0 0 0 162367047.25282192 161558708.58061218 0 161558708.58061218 87031764.909896851 0 0 0 0 13220898.840274811 -41824249.976142883 0 -41824249.976142883 35523756.791478872 0 0 0 0 -45574797.993982315 -55743548.508144379 0 -55743548.508144379 103928009.8837471 0 0 0 0 136155763.70763302 -68296563.292312622 0 -68296563.292312622 36237756.239804029 0 0 0 0 -14997773.032769203 -226934452.28959656 0 -226934452.28959656 158549108.26794434 0 0 0 0 -152069722.26099014 -36709977.589233398 0 -36709977.589233398 109068743.03051758 0 0 0 0 8108214.7669048309 -14507556.909469604 0 -14507556.909469604 29053143.728744507 0 0 0 0 -8028356.6639099121 -16325483.797683716 0 -16325483.797683716 45262339.635269165 0 0 0 0 2257936.0519647598 -37334793.232234955 0 -37334793.232234955 47439381.075080872 0 0 0 0 -10244333.637510061 -12735707.388039589 0 -12735707.388039589 40435515.920379639 0 0 0 0 6065998.8419289589 2330584.602935791 0 2330584.602935791 10466278.386833191 0 0 0 0 46437438.554105043 -16917860.161079407 0 -16917860.161079407 16215000.449302673 0 0 0 0 -462478.54034883785 1936527.9809630224 0 1936527.9809630224 3977173.7370273471 0 0 0 0 3430863.0050558974 5801552.9016801938 0 5801552.9016801938 3884324.474161312 0 0 0 0 5032560.2877826691 6879888.827747345 0 6879888.827747345 1831807.8527851105 0 0 0 0 1985913.9459924698 9316929.1947536469 0 9316929.1947536469 703410.28044891357 0 0 0 0 31570.613856136799 9371992.975692749 0 9371992.975692749 12420493.381523132 0 0 0 0 1760370.4034900665 14024464.955421448 0 14024464.955421448 8757542.2824020386 0 0 0 0 4687067.5996103939 7835321.6501398208 0 7835321.6501398208 5079274.3103736602 0 0 0 0 -235072.47814130783 18431614.031730652 0 18431614.031730652 7965352.8311696053 0 0 0 0 -24896153.984226227 24121756.538360596 0 24121756.538360596 34348149.152618408 0 0 0 0 886482.72314929962 21086111.063713074 0 21086111.063713074 707535.64379882812 0 0 0 0 -8878344.8062009811 -1560108.4648971558 0 -1560108.4648971558 37017503.202850342 0 0 0 0 -6836739.4816160202 -5767722.6159286499 0 -5767722.6159286499 44767099.201255798 0 0 0 0 750.11398410797119 489222.78113555908 0 489222.78113555908 5917048.6489105225 0 0 0 0 28901661.701722145 122027303.87567139 0 122027303.87567139 128898159.96957111 0 0 0 0 -33452045.459373951 48625613.782596588 0 48625613.782596588 54601720.497169495 0 0 0 0 148933241.644701 47165420.070392609 0 47165420.070392609 -11588504.376991272 0 0 0 0 1471559.7944861269 292292.85592585988 0 292292.85592585988 -1446777.1681258269 0 0 0 0 620350.61337547842 7035821.8792355061 0 7035821.8792355061 -1109669.8053238392 0 0 0 0 24621679.894536972 28263451.241168976 0 28263451.241168976 13854017.393304825 0 0 0 0 39364851.982481956 38889761.57765007 0 38889761.57765007 5588122.636680603 0 0 0 0 10350911.984203339 51976363.027881622 0 51976363.027881622 53275530.369519234 0 0 0 0 1763383.5520505905 19346106.134281158 0 19346106.134281158 5680097.5026603788 0 0 0 0 11171946.156858444 34770025.827663422 0 34770025.827663422 12271516.265684128 0 0 0 0 -1355477.0960959827 11186540.610603809 0 11186540.610603809 650438.87605345994 0 0 0 0 2136852.3417909741 13304567.614383698 0 13304567.614383698 10263178.894256592 0 0 0 0 -3693698.2898390293 4611249.2700958252 0 4611249.2700958252 15422542.365219116 0 0 0 0 13370131.426001251 14459081.254066467 0 14459081.254066467 17552067.565933228 0 0 0 0 53513232.895122528 -11822748.922531128 0 -11822748.922531128 22807008.716079712 0 0 0 0 -7505299.2311935425 17674562.580265045 0 17674562.580265045 45188307.627502441 0 0 0 0 -1448442.597586778 -596298.33698048256 0 -596298.33698048256 2825853.8333171532 0 0 0 0 11105875.056932449 -2749582.8088264465 0 -2749582.8088264465 31775464.71963501 0 0 0 0 4525799.6617565155 8493932.4305114746 0 8493932.4305114746 23934930.503112793 0 0 0 0 5940287.4927591085 468779.68479013443 0 468779.68479013443 30373342.036575317 0 0 0 0 19530771.061249733 1390079.8475646973 0 1390079.8475646973 27066001.938972473 0 0 0 0 -7109047.605014801 17254785.122936249 0 17254785.122936249 9316702.6801071167 0 0 0 0 -414972.98436778411 156142.75083918497 0 156142.75083918497 955725.21954545565 0 0 0 0 7038463.6871604919 14287929.070465088 0 14287929.070465088 35721301.787063599 0 0 0 0 -4343156.06398015 3465771.6160810487 0 3465771.6160810487 16873268.973218158 0 0 0 0 -10311428.418817192 3231223.1213254929 0 3231223.1213254929 21066677.235136032 0 0 0 0 846849.00923597813 55225.05716919899 0 55225.05716919899 16977611.51722908 0 0 0 0 108740.14967012405 9991361.3704223633 0 9991361.3704223633 27481432.991172791 0 0 0 0 -22798.730343580246 1722168.5989494324 0 1722168.5989494324 3691586.3002624512 0 0 0 0 -152010.8999865854 3138755.663829159 0 3138755.663829159 8013826.8773660418 0 0 0 0 -2167448.1457738876 1833666.8653717041 0 1833666.8653717041 3871307.2114562988 0 0 0 0 -1860110.6255742062 4917684.3275384782 0 4917684.3275384782 8851783.0592729971 0 0 0 0 2628026.277258873 11802290.639450073 0 11802290.639450073 15622168.560440063 0 0 0 0 773594.18939792272 5085931.5860778671 0 5085931.5860778671 6298669.837274909 0 0 0 0 -965705.30460525292 1719776.8877776917 0 1719776.8877776917 1820857.7330786437 0 0 0 0 -31556536.727462769 17537466.063415527 0 17537466.063415527 18669420.01663208 0 0 0 0 5229144.6939554214 2535762.0439414978 0 2535762.0439414978 6755372.7593078613 0 0 0 0 2597260.350151062 10771637.629104614 0 10771637.629104614 11691410.289344788 0 0 0 0 2900629.5127210617 17208563.269851685 0 17208563.269851685 26000870.40385437 0 0 0 0 6364527.5820744336 8741345.1328887939 0 8741345.1328887939 14805341.129920959 0 0 0 0 3651115.3854984045 15997792.480239868 0 15997792.480239868 22560338.317443848 0 0 0 0 8599809.8104877472 5995475.9286880493 0 5995475.9286880493 35673522.637252808 0 0 0 0 78011.991665552283 184780.94605429471 0 184780.94605429471 1429817.3477605907 0 0 0 0 -1562348.844221035 430350.58901010081 0 430350.58901010081 6570719.8640439697 0 0 0 0 -7666046.1457290649 12024406.809043884 0 12024406.809043884 59395910.208885193 0 0 0 0 11835761.056307793 8393656.4646396637 0 8393656.4646396637 5913530.1354141235 0 0 0 0 20156687.43981985 10311972.274522543 0 10311972.274522543 19777837.958679199 0 0 0 0 11492463.378897786 16531518.034881592 0 16531518.034881592 20342386.012023926 0 0 0 0 -70374730.29995513 70364256.956748962 0 70364256.956748962 28970208.079055786 0 0 0 0 14120672.477132797 -5427069.8777923584 0 -5427069.8777923584 25299176.343017578 0 0 0 0 -222680.72585007804 516899.98025860079 0 516899.98025860079 728710.73971505836 0 0 0 0 762915.39398554608 5731015.8613843676 0 5731015.8613843676 7366924.4468684876 0 0 0 0 -280752.4018234855 218176.9692882672 0 218176.9692882672 4872546.1328621004 0 0 0 0 -333461.04788184166 -573056.04930686951 0 -573056.04930686951 7078490.4524917603 0 0 0 0 -4074224.8486020681 6040743.7779214606 0 6040743.7779214606 11222365.653584339 0 0 0 0 -1092507.0921741992 3862026.2548854798 0 3862026.2548854798 8953210.3107795268 0 0 0 0 -1013759.5758012384 1780857.6486930847 0 1780857.6486930847 5381052.8435516357 0 0 0 0 3346212.2981462479 13020447.997261047 0 13020447.997261047 27125939.846885681 0 0 0 0 -631449.66226118803 1200008.094039917 0 1200008.094039917 5846488.6888122559 0 0 0 0 -323312.52579479961 801457.97147554904 0 801457.97147554904 2578312.6315883063 0 0 0 0 -604274.62564924359 1224734.1457242966 0 1224734.1457242966 5134166.4114608765 0 0 0 0 -312870.40088653564 849749.60968017578 0 849749.60968017578 6849149.7191009521 0 0 0 0 -1004872.2527973652 1084915.6688652039 0 1084915.6688652039 1145762.2330322266 0 0 0 0 143509.67338180542 801834.01493835449 0 801834.01493835449 6844712.1269893646 0 0 0 0 25537.457954354584 1063011.9073256254 0 1063011.9073256254 4890752.6086502075 0 0 0 0 1679236.3755223162 7260928.6091948394 0 7260928.6091948394 9023850.8889123201 0 0 0 0 -90451.815291575855 723616.01831440441 0 723616.01831440441 9610594.0278629642 0 0 0 0 33293.912024573889 37095.611299738288 0 37095.611299738288 -97594.693727407604 0 0 0 0 7098492.5686016083 79993439.563732147 0 79993439.563732147 48938745.021444321 0 0 0 0 -797461.23997682007 3555792.6098207124 0 3555792.6098207124 6520465.9113712013 0 0 0 0 -1159685.9870100021 832387.86499786377 0 832387.86499786377 2156530.5223693848 0 0 0 0 131860133.27421379 -18296019.665328979 0 -18296019.665328979 -110261236.22517395 0 0 0 0 -248133618.21867371 -145766767.14131165 0 -145766767.14131165 -63394576.560119629 0 0 0 0 -44894.630495925667 118022.49116573483 0 118022.49116573483 410771.31664526463 0 0 0 0 3385651.3127574921 15237286.599090576 0 15237286.599090576 -988418.01043701172 0 0 0 0 887010.94115874567 5079785.3084513322 0 5079785.3084513322 5285456.9013253003 0 0 0 0 1479168.0973200025 1276832.2364809923 0 1276832.2364809923 -2174238.5318827443 0 0 0 0 -12156643.776833534 22734559.566074371 0 22734559.566074371 49188009.276412964 0 0 0 0 15045002.185839653 53294234.656105042 0 53294234.656105042 64542118.661048889 0 0 0 0 -5487228.318277359 36060075.37361145 0 36060075.37361145 50562511.425735474 0 0 0 0 81501966.148136139 75791597.025604248 0 75791597.025604248 35454500.496002197 0 0 0 0 -653431.6233215332 3899583.0609054565 0 3899583.0609054565 2704729.6731872559 0 0 0 0 -5695015.8491034508 777200.16367578506 0 777200.16367578506 -12053623.124557495 0 0 0 0 1037174.7831916809 4307436.1578063965 0 4307436.1578063965 -1448035.4791259766 0 0 0 0 -466676.01368095237 1652619.6323229857 0 1652619.6323229857 11754872.956844756 0 0 0 0 5095889.6182550909 4512758.0458340589 0 4512758.0458340589 -1255995.1385607123 0 0 0 0 4385705.4767637253 250061.14935302734 0 250061.14935302734 2621212.0100708008 0 0 0 0 213879.29780447483 4183181.7881832123 0 4183181.7881832123 2159042.3541870117 0 0 0 0 1237635.979922754 5544519.6114148702 0 5544519.6114148702 11764859.983420631 0 0 0 0 -986070.77039175713 223080.61133193597 0 223080.61133193597 4176131.6282948777 0 0 0 0 -1441777.480007804 3616484.4016044326 0 3616484.4016044326 4708972.823435016 0 0 0 0 -13605989.990278244 -12553671.139255524 0 -12553671.139255524 -3813536.4550933838 0 0 0 0 21894325.447265148 21306307.301223755 0 21306307.301223755 -58663707.637550354 0 0 0 0 -4484337.9630286694 1076169.1312923431 0 1076169.1312923431 19447131.45904541 0 0 0 0 -10080080.504735947 63323525.83795166 0 63323525.83795166 -6767897.9163360596 0 0 0 0 -34954166.251750946 52246597.661739349 0 52246597.661739349 55389284.324966431 0 0 0 0 -26521681.941707611 -914958.38022613525 0 -914958.38022613525 92074729.924293518 0 0 0 0 -6072746.1323699951 10989035.669258118 0 10989035.669258118 11437848.581161499 0 0 0 0 25126087.930837154 14342270.820999146 0 14342270.820999146 42491811.686538696 0 0 0 0 14455321.560183048 -33060373.508422852 0 -33060373.508422852 57905552.446300507 0 0 0 0 3086781.6234436035 23778144.644851685 0 23778144.644851685 32055945.271842957 0 0 0 0 -10020445.228320599 3421719.9066162109 0 3421719.9066162109 39645742.879066467 0 0 0 0 -7363846.4787654877 15736824.807106018 0 15736824.807106018 47350716.446411133 0 0 0 0 15563625.567803383 21715833.67263031 0 21715833.67263031 48421381.012210846 0 0 0 0 6065063.5866942406 18438454.286663055 0 18438454.286663055 60225085.967628479 0 0 0 0 24285849.470463753 18966373.885993958 0 18966373.885993958 60238764.888135195 0 0 0 0 12542666.964995861 -15504856.639499664 0 -15504856.639499664 25652323.241325378 0 0 0 0 41238166.63907814 10920736.927444458 0 10920736.927444458 62906802.010238647 0 0 0 0 51623803.15677008 21822172.703546047 0 21822172.703546047 50181010.731872559 0 0 0 0 -8627412.4455699921 -16768455.420852661 0 -16768455.420852661 263073144.24259186 0 0 0 0 22021865.661766768 -21469461.483772278 0 -21469461.483772278 138231007.92749023 0 0 0 0 24904344.572724581 34319437.992328644 0 34319437.992328644 105764349.46080017 0 0 0 0 17576211.490139842 -4203063.9065799713 0 -4203063.9065799713 95671946.501220703 0 0 0 0 1932484.468401432 972065.8311958313 0 972065.8311958313 102922430.84179688 0 0 0 0 4344991.8655481339 21753419.941680908 0 21753419.941680908 95620539.366249084 0 0 0 0 -209332.50020647049 -7373110.5155487061 0 -7373110.5155487061 80895273.867176056 0 0 0 0 -8002249.9168236256 9829641.88123703 0 9829641.88123703 76544184.198013306 0 0 0 0 -30117029.78516674 11432597.546066284 0 11432597.546066284 83392372.875854492 0 0 0 0 -29553601.007731438 -9435688.5643463135 0 -9435688.5643463135 77350321.191650391 0 0 0 0 -12734128.13192749 -6245974.4620819092 0 -6245974.4620819092 77915538.511322021 0 0 0 0 -10517912.722747445 -12545222.981474876 0 -12545222.981474876 53340401.165130615 0 0 0 0 -18204235.755827904 1599814.150932312 0 1599814.150932312 70775207.479431152 0 0 0 0 7922893.9760793 29774974.217148185 0 29774974.217148185 65997480.943634033 0 0 0 0 -25718791.037369728 13993656.641242981 0 13993656.641242981 67950517.682411194 0 0 0 0 8655807.4891881943 -283586.98532867432 0 -283586.98532867432 44961065.999679565 0 0 0 0 -9796923.2731966972 2182455.8682250977 0 2182455.8682250977 55823917.765655518 0 0 0 0 -13568695.597061157 4220236.0614471436 0 4220236.0614471436 56749492.178390503 0 0 0 0 5638758.0900831223 43645921.94392395 0 43645921.94392395 25033113.535751343 0 0 0 0 50360859.707996368 22104164.118492126 0 22104164.118492126 -78408.002477645874 0 0 0 0 -118523973.72988033 9686372.3789596558 0 9686372.3789596558 76797593.857955933 0 0 0 0 -20756659.967992783 27386795.527748108 0 27386795.527748108 -6250861.7744522095 0 0 0 0 1341720.7457459064 1583646.7485939004 0 1583646.7485939004 -1326624.1645698845 0 0 0 0 -63091247.017145157 -86933780.505226135 0 -86933780.505226135 -22742917.64175415 0 0 0 0 19259298.983798981 -4272787.7892608643 0 -4272787.7892608643 43058706.763702393 0 0 0 0 23405349.961824417 20587032.886634827 0 20587032.886634827 -1970452.5275497437 0 0 0 0 26352039.752671242 38584736.822296143 0 38584736.822296143 50344715.801245689 0 0 0 0 7840638.4436397552 30863982.914115906 0 30863982.914115906 51867871.379852295 0 0 0 0 7067219.3684597015 11761594.400951385 0 11761594.400951385 57521567.028396606 0 0 0 0 4417025.1288986206 13916730.646194458 0 13916730.646194458 67370357.851474762 0 0 0 0 -7846803.7021565437 -3494560.9864768982 0 -3494560.9864768982 43334296.53894043 0 0 0 0 -98966.005688936144 -31452306.065977097 0 -31452306.065977097 63131953.172134399 0 0 0 0 -34580101.917018652 -9896911.7953033447 0 -9896911.7953033447 185124081.94291687 0 0 0 0 16689.817874335746 437694.1246243231 0 437694.1246243231 823117.23222127557 0 0 0 0 -85457816.300016195 -99226989.678337097 0 -99226989.678337097 66755389.819068909 0 0 0 0 266474882.99431059 125359640.06370544 0 125359640.06370544 -49816822.144607544 0 0 0 0 54957444.76564765 12311925.913505554 0 12311925.913505554 51632811.107261658 0 0 0 0 -21349329.256638616 4542337.6096382141 0 4542337.6096382141 -11931352.025474548 0 0 0 0 -171468052.69546831 -37134534.291573524 0 -37134534.291573524 81091274.101043701 0 0 0 0 10004285.66893363 37633693.569099426 0 37633693.569099426 18221382.429389954 0 0 0 0 72748.327034986534 1369638.2788163405 0 1369638.2788163405 2428815.4183486626 0 0 0 0 74031261.967830703 66924602.992665291 0 66924602.992665291 7223767.3113555908 0 0 0 0 -117050846.86675537 44347321.697315216 0 44347321.697315216 55046099.813766479 0 0 0 0 -50068.624505560387 4196307.4513220927 0 4196307.4513220927 4305847.0294639021 0 0 0 0 -14220040.964991093 19382128.023643494 0 19382128.023643494 26181298.347381592 0 0 0 0 -35267629.971584558 35654913.287834167 0 35654913.287834167 19599618.78125 0 0 0 0 -29197956.445375234 71084646.269618988 0 71084646.269618988 -1659167.0939178467 0 0 0 0 46888333.406923465 174709454.62778473 0 174709454.62778473 207394282.83885193 0 0 0 0 4035751.506727308 25937938.549041748 0 25937938.549041748 50630039.534851074 0 0 0 0 -18326572.798507839 -18712834.318766594 0 -18712834.318766594 137234545.91624451 0 0 0 0 272305750.01750088 192027109.19721603 0 192027109.19721603 73401859.482402802 0 0 0 0 980979.81470713019 204963523.31604537 0 204963523.31604537 1529371444.045639 0 0 0 0 259070721.14202359 26278237.067130089 0 26278237.067130089 104107353.97416687 0 0 0 0 -439078336.19210947 1031226295.0496292 0 1031226295.0496292 3456202497.6908073 0 0 0 0 -179469737.38879824 155780485.47683716 0 155780485.47683716 1267703639.4239235 0 0 0 0 1302012289.7139776 1947226817.0216751 0 1947226817.0216751 1634182763.4738693 0 0 0 0 504296859.7653392 -723940409.48855019 0 -723940409.48855019 792598270.12435913 0 0 0 0 48116.832857996364 903861.64350810926 0 903861.64350810926 4227260.9699055403 0 0 0 0 167286117.09349251 246989468.9368515 0 246989468.9368515 640468551.1647644 0 0 0 0 -588666.20347650896 -348691.87091668788 0 -348691.87091668788 9526058.4526820928 0 0 0 0 -113579520.80132206 90463781.806310654 0 90463781.806310654 -69563350.435302734 0 0 0 0 -10015665.107904434 -10966025.621452332 0 -10966025.621452332 22857385.60137102 0 0 0 0 -26295371.642814338 -68827445.711479187 0 -68827445.711479187 880422531.59752655 0 0 0 0 199082385.82494819 27315776.312419891 0 27315776.312419891 -308372737.74113464 0 0 0 0 -321390.21482115192 312207.98731248081 0 312207.98731248081 1757511.4536791407 0 0 0 0 -32734108.688521586 62699613.257878304 0 62699613.257878304 -61413533.970169067 0 0 0 0 -26307982.205808043 124138088.46014404 0 124138088.46014404 112997654.88352203 0 0 0 0 -2467108.2158412933 8293792.7326660156 0 8293792.7326660156 2237203.1299438477 0 0 0 0 60309.347745602892 2734061.6279323846 0 2734061.6279323846 11426732.221420266 0 0 0 0 -73388232.359072924 -53605377.491653442 0 -53605377.491653442 -37158620.605010986 0 0 0 0 516471930.91187382 19458745.649688721 0 19458745.649688721 -79402304.749908447 0 0 0 0 -1837758.9897611807 6470681.4679256864 0 6470681.4679256864 3168093.2353749308 0 0 0 0 -132109462.31526351 227610374.35079956 0 227610374.35079956 133591631.68812561 0 0 0 0 -133124876.07276189 64449968.187519073 0 64449968.187519073 93160222.805297852 0 0 0 0 -345030840.95080662 -102356191.89579773 0 -102356191.89579773 -21692477.257781982 0 0 0 0 -475659.82015770808 339168.79390659928 0 339168.79390659928 833697.97467366606 0 0 0 0 -7318812.1140322685 -189720744.34414673 0 -189720744.34414673 105785280.03690338 0 0 0 0 -33768313.141008019 56107196.847822189 0 56107196.847822189 73164673.040245056 0 0 0 0 294018.69443510438 -1429887.5525043868 0 -1429887.5525043868 10926738.517173633 0 0 0 0 -61922681.837885857 14815259.759429932 0 14815259.759429932 26133940.180972531 0 0 0 0 -9872183.5215945244 -10232446.358047485 0 -10232446.358047485 -195837148.44073486 0 0 0 0 114733629.39366615 263255723.34801865 0 263255723.34801865 -33922187.298622131 0 0 0 0 330431617.19668692 48182475.183021545 0 48182475.183021545 -236591581.39286804 0 0 0 0 -188116590.08091092 -72843744.260437012 0 -72843744.260437012 52999129.961769104 0 0 0 0 2558928.8491492346 -1987811.4339893963 0 -1987811.4339893963 6442211.7445988283 0 0 0 0 -114770747.08531709 -353324222.4079113 0 -353324222.4079113 861428666.29025269 0 0 0 0 -40461414.957079984 1060073947.132309 0 1060073947.132309 3461998134.4102325 0 0 0 0 -203102807.31498629 180147766.59024811 0 180147766.59024811 799856051.70654583 0 0 0 0 -370177518.5998202 -395848605.5302124 0 -395848605.5302124 3457943636.2440186 0 0 0 0 121311626.41994521 -1192501698.1713715 0 -1192501698.1713715 2300013667.9059753 0 0 0 0 -747830594.41672778 -539431178.48470306 0 -539431178.48470306 3457679840.8508606 0 0 0 0 902792383.24167645 -711475381.85659027 0 -711475381.85659027 44764045.142654419 0 0 0 0 1797117.560162738 -307930.09109465033 0 -307930.09109465033 3175184.3957977593 0 0 0 0 -85348914.080210686 130884245.08876801 0 130884245.08876801 432017923.79504776 0 0 0 0 -13377412.216997623 -593885739.84585571 0 -593885739.84585571 1163750801.2846832 0 0 0 0 350857696.32906163 138192290.9249897 0 138192290.9249897 17795277.53515625 0 0 0 0 215789756.46439055 -235071102.86752033 0 -235071102.86752033 83096266.713790894 0 0 0 0 43760680.301135659 81499819.420261383 0 81499819.420261383 -90300417.78565979 0 0 0 0 -43917612.485098124 20219077.447761536 0 20219077.447761536 -13316794.751628876 0 0 0 0 -17470515.949589252 9128448.5588684082 0 9128448.5588684082 68048.827295035124 0 0 0 0 112736.54333319655 7726550.6254784018 0 7726550.6254784018 2242891.13232286 0 0 0 0 -66055801.804390192 14560273.797016144 0 14560273.797016144 52653742.065444946 0 0 0 0 -30102426.448557019 126703920.63700199 0 126703920.63700199 98944993.188430786 0 0 0 0 1487669.5545878303 7332272.7449479401 0 7332272.7449479401 2235202.3880250906 0 0 0 0 446318263.8063736 -157479186.14025879 0 -157479186.14025879 69590604.635620117 0 0 0 0 47682196.387773514 139100349.79689026 0 139100349.79689026 60887983.596786499 0 0 0 0 156921601.33607543 -31607097.249679565 0 -31607097.249679565 -177836030.34057617 0 0 0 0 -37684013.660930499 -26262294.356576562 0 -26262294.356576562 -46992762.866775513 0 0 0 0 224794.28268453642 -188937.66515958309 0 -188937.66515958309 406618.43902000785 0 0 0 0 67585415.558678627 -32224986.699577332 0 -32224986.699577332 -7632501.4297943115 0 0 0 0 783.76241125084925 758303.36356925685 0 758303.36356925685 1235645.8020368144 0 0 0 0 22553983.777302265 11191692.660179138 0 11191692.660179138 -45934753.81451416 0 0 0 0 10143693.181480646 281898982.96019363 0 281898982.96019363 23398340.577819824 0 0 0 0 29854070.918533325 -73307864.305175781 0 -73307864.305175781 35344498.111877441 0 0 0 0 25042796.902746677 -74960473.163673401 0 -74960473.163673401 110067300.84637451 0 0 0 0 -54343790.270539612 -83029569.099675179 0 -83029569.099675179 22065531.617752075 0 0 0 0 -272233.5395450975 -206068.07558120787 0 -206068.07558120787 2183119.7630001232 0 0 0 0 -58844705.298335552 -35652497.842285156 0 -35652497.842285156 26160258.247436523 0 0 0 0 -17401498.310298681 -3746456.4668998718 0 -3746456.4668998718 53653601.117156982 0 0 0 0 69602254.110714793 37820512.054621696 0 37820512.054621696 33937576.84475708 0 0 0 0 -55892232.423333645 14058533.858356476 0 14058533.858356476 53582588.476608276 0 0 0 0 172932.37862910819 419170.84865675122 0 419170.84865675122 387040.16822855175 0 0 0 0 192986474.46128511 111640920.44462967 0 111640920.44462967 -25315726.394821167 0 0 0 0 38952296.036099672 50689481.812866211 0 50689481.812866211 -138175.2046661377 0 0 0 0 14372544.436117172 95890227.785011292 0 95890227.785011292 71870506.839332581 0 0 0 0 9455512.8149209023 31954116.547340393 0 31954116.547340393 -2377951.0670070648 0 0 0 0 -828725.6513094902 4203524.501159668 0 4203524.501159668 52715433.999441147 0 0 0 0 -33753044.049334407 43908075.033908844 0 43908075.033908844 29223344.206420898 0 0 0 0 13475.641918738256 776827.86034790985 0 776827.86034790985 1536939.425632365 0 0 0 0 -1701317.0674244051 1794635.2073868737 0 1794635.2073868737 1767084.9104015827 0 0 0 0 -97795983.204189777 -22670571.938323975 0 -22670571.938323975 18136812.398008347 0 0 0 0 -31379612.06579268 102517388.24261093 0 102517388.24261093 77957354.492584229 0 0 0 0 -4227303.683858335 8152078.4058303833 0 8152078.4058303833 3760520.6486053467 0 0 0 0 -21324638.485732317 27401711.390377045 0 27401711.390377045 -29721416.165878296 0 0 0 0 -66041114.818542004 50065232.55809021 0 50065232.55809021 25193945.683502197 0 0 0 0 -1112250.6606601831 -162845.39839590713 0 -162845.39839590713 5557365.973963663 0 0 0 0 -68571781.362424016 -176323834.12740993 0 -176323834.12740993 35772313.467224121 0 0 0 0 -17583709.218469143 42985782.645698547 0 42985782.645698547 3226148.4190216064 0 0 0 0 -1800356.3371872506 2260648.0836715382 0 2260648.0836715382 12090626.618955813 0 0 0 0 -98456336.493399143 18481891.810016632 0 18481891.810016632 7008780.6389160156 0 0 0 0 116573343.86047268 119586451.03926086 0 119586451.03926086 141018131.4927063 0 0 0 0 -8978210.3345031738 5384116.078338623 0 5384116.078338623 37265349.500259399 0 0 0 0 487078387.14071798 -327811134.62510681 0 -327811134.62510681 -41886453.43270874 0 0 0 0 -14880611.853569031 -25497453.219863892 0 -25497453.219863892 196479872.34680176 0 0 0 0 -11208926.029447556 -6056143.2806091309 0 -6056143.2806091309 100301872.31274414 0 0 0 0 -30322088.330151558 59815142.570411682 0 59815142.570411682 18168081.119537354 0 0 0 0 -20161218.37122345 -38400318.577987671 0 -38400318.577987671 -13641119.574012756 0 0 0 0 43807577.775108337 57573441.455932617 0 57573441.455932617 84019374.399841309 0 0 0 0 -3851734.9280862808 12089336.938545227 0 12089336.938545227 20817426.951246262 0 0 0 0 -1773342.7009104686 1718387.3830928728 0 1718387.3830928728 5883294.182772167 0 0 0 0 -11575043.076108098 -30212602.318347931 0 -30212602.318347931 35438595.659973145 0 0 0 0 50821892.407530129 73559697.713165283 0 73559697.713165283 47237625.972686768 0 0 0 0 -962127.07791280746 7194411.151260376 0 7194411.151260376 21897043.199596405 0 0 0 0 31341927.335094452 11149846.397338867 0 11149846.397338867 30367712.725845337 0 0 0 0 53841820.305227757 39889859.124305725 0 39889859.124305725 14585956.871032715 0 0 0 0 -19942039.132060826 24531146.596099854 0 24531146.596099854 60442248.824462891 0 0 0 0 -15291407.539885402 31011150.753684998 0 31011150.753684998 25074525.941619873 0 0 0 0 -108883481.28899336 -7314898.6897888184 0 -7314898.6897888184 33053154.478139877 0 0 0 0 -126861719.54694414 -31913094.267028809 0 -31913094.267028809 41337617.634277344 0 0 0 0 -77466522.449359417 -30314250.701568604 0 -30314250.701568604 38879024.498260498 0 0 0 0 -111312380.0009985 -47059885.01109314 0 -47059885.01109314 -32126965.298187256 0 0 0 0 -115462027.36451244 -2911360.5618591309 0 -2911360.5618591309 13204575.792556763 0 0 0 0 -117285492.77954769 -5480548.3861312866 0 -5480548.3861312866 49730515.79095459 0 0 0 0 -91528869.115605354 2229985.818069458 0 2229985.818069458 44254094.767505646 0 0 0 0 -91742240.124913692 -13338496.367370605 0 -13338496.367370605 5317684.0059814453 0 0 0 0 -104001514.36184072 -2720280.15675354 0 -2720280.15675354 40612643.090634346 0 0 0 0 -54664840.739740849 64582780.591400146 0 64582780.591400146 -14137018.369146347 0 0 0 0 7312858.999276042 31305842.22756958 0 31305842.22756958 -19732490.910186768 0 0 0 0 -1047145.9796603331 439685.53496828675 0 439685.53496828675 2215369.3635655344 0 0 0 0 -116439240.19447136 11115349.011886597 0 11115349.011886597 33521857.8568573 0 0 0 0 -121446537.54097939 46225788.555404663 0 46225788.555404663 -26355768.9637146 0 0 0 0 5999779.4570813179 9084286.6679916382 0 9084286.6679916382 -829522.19331359863 0 0 0 0 7572245.5336604398 4410734.6990405321 0 4410734.6990405321 6985285.5875854492 0 0 0 0 3266725.3814935684 -1141954.9819946289 0 -1141954.9819946289 -28556222.890647411 0 0 0 0 -3046304.3969159126 12612326.859447479 0 12612326.859447479 8856646.165725708 0 0 0 0 -621580.99459802266 -569616.96568254754 0 -569616.96568254754 575837.55605589598 0 0 0 0 26195567.766312838 -69792876.78693676 0 -69792876.78693676 -58776089.730331421 0 0 0 0 -107060438.31831408 -42921712.595024109 0 -42921712.595024109 -9028818.3009567261 0 0 0 0 -79393214.963402271 -71366294.434429169 0 -71366294.434429169 -97835846.620849609 0 0 0 0 -1125784.9656956196 -9229595.9047927856 0 -9229595.9047927856 1303611.3722915649 0 0 0 0 -83860340.883586168 -9472750.8871021271 0 -9472750.8871021271 18347068.532241821 0 0 0 0 -9377605.8924455643 -95428.500228881836 0 -95428.500228881836 -4940812.5747070312 0 0 0 0 -43012507.299506187 -5327444.3820266724 0 -5327444.3820266724 3793480.8400497437 0 0 0 0 -264583.38535960781 3731567.6843071217 0 3731567.6843071217 12187734.727758087 0 0 0 0 -2722438.0785340108 -2509378.7372338045 0 -2509378.7372338045 2671390.2011248991 0 0 0 0 -10397457.276832581 -1753317.8778991699 0 -1753317.8778991699 -5657254.0181274414 0 0 0 0 -28242781.095800161 -7834966.8516540527 0 -7834966.8516540527 27352217.309402466 0 0 0 0 -5329842.9428870678 10246192.113693237 0 10246192.113693237 16989862.684188843 0 0 0 0 6995806.9599552155 1020082.3311157227 0 1020082.3311157227 4274840.3095703125 0 0 0 0 -17467.500440470409 282409.40702618659 0 282409.40702618659 980995.49817796424 0 0 0 0 45606996.913015366 44341814.402450562 0 44341814.402450562 40217635.225860596 0 0 0 0 54582176.16176796 24348353.91633606 0 24348353.91633606 18885267.442932129 0 0 0 0 25805611.974060059 20913315.849914551 0 20913315.849914551 21773989.884338379 0 0 0 0 50915734.354568481 28188846.82824707 0 28188846.82824707 15237460.537384033 0 0 0 0 54303098.037597656 -13881475.026885986 0 -13881475.026885986 55235617.137985229 0 0 0 0 58954170.449535847 17897001.156946182 0 17897001.156946182 1609328.6556396484 0 0 0 0 18549614.836666107 10505958.087554932 0 10505958.087554932 43464542.299865723 0 0 0 0 -1240404.8785111164 2074630.127677351 0 2074630.127677351 5971265.5499986112 0 0 0 0 13698801.710525513 19183950.191223145 0 19183950.191223145 29176366.49597168 0 0 0 0 -5275885.2225917578 78026.635147094727 0 78026.635147094727 1568106.2130126953 0 0 0 0 -951962.39633073378 4640201.4676417392 0 4640201.4676417392 13103581.841658462 0 0 0 0 22080842.360993385 -1098934.9522666931 0 -1098934.9522666931 8805355.3834838867 0 0 0 0 -1838333.267540575 3397969.2170073688 0 3397969.2170073688 10097706.872405991 0 0 0 0 -2379370.5597062036 -1123045.0761621566 0 -1123045.0761621566 5719963.6677332222 0 0 0 0 -663894.10164304776 2727520.8368777577 0 2727520.8368777577 1709132.4618374407 0 0 0 0 -14387359.521236487 11405593.385057449 0 11405593.385057449 1396611.5901031494 0 0 0 0 -554010.043430686 -8184289.6566925049 0 -8184289.6566925049 -4705566.1788024902 0 0 0 0 78480963.349313736 -36271206.218688965 0 -36271206.218688965 38193401.137390137 0 0 0 0 94179610.684641838 -13356996.137870789 0 -13356996.137870789 10604853.065887451 0 0 0 0 3854.3132133483887 3595077.4340209961 0 3595077.4340209961 15353223.135192871 0 0 0 0 -4449781.3249311447 10357291.880012512 0 10357291.880012512 9271707.4817771912 0 0 0 0 -492446.86079198221 1010368.5809771009 0 1010368.5809771009 5474334.0141259208 0 0 0 0 3939258.2210097313 6440977.086517334 0 6440977.086517334 7951689.6703491211 0 0 0 0 -23185144.837050438 -4210011.1628265381 0 -4210011.1628265381 3169495.5692062378 0 0 0 0 -7184311.6590125561 -8254386.3720340729 0 -8254386.3720340729 -3519729.6996002197 0 0 0 0 -11303238.2186203 2437202.2677536011 0 2437202.2677536011 11418039.362815857 0 0 0 0 8998289.9187161922 -14511780.026187897 0 -14511780.026187897 2694008.9839782715 0 0 0 0 26970.681656471221 -91930.759454686195 0 -91930.759454686195 -148165.5355749689 0 0 0 0 13856669.630224228 9667695.2067489624 0 9667695.2067489624 22092933.354415894 0 0 0 0 16797240.653754815 19469541.139628887 0 19469541.139628887 -65766779.996887207 0 0 0 0 15973775.895663708 25811957.690044403 0 25811957.690044403 -7757502.9528045654 0 0 0 0 3434370.8627560139 4872812.9241943359 0 4872812.9241943359 8578189.3216781616 0 0 0 0 967328.97917202627 2013244.7026799954 0 2013244.7026799954 878780.51234605908 0 0 0 0 -7285364.6673704386 9071675.8970413208 0 9071675.8970413208 1146811.53373909 0 0 0 0 -6136144.6222796738 36861708.471313477 0 36861708.471313477 1981890.5854568481 0 0 0 0 -8352040.5339000225 -1845987.1395568848 0 -1845987.1395568848 -81377818.825847626 0 0 0 0 -592810.68232213927 610189.3760011869 0 610189.3760011869 4410801.6846195161 0 0 0 0 -29160026.992105246 30118944.700271606 0 30118944.700271606 10037939.266921997 0 0 0 0 152065914.92083263 -21117898.237861633 0 -21117898.237861633 -16913945.677734375 0 0 0 0 -36739935.23716712 13537519.255653381 0 13537519.255653381 11666702.929718018 0 0 0 0 -738808.40475268301 418468.16245665587 0 418468.16245665587 3965476.8945508003 0 0 0 0 -8231567.1120157987 -5024126.5503978729 0 -5024126.5503978729 -7992543.5726318359 0 0 0 0 82755838.029309273 128310702.67295837 0 128310702.67295837 119274118.89952087 0 0 0 0 -282181937.45595121 -64482038.498626709 0 -64482038.498626709 227950239.33904648 0 0 0 0 -242172184.33966351 -68897691.142189026 0 -68897691.142189026 148387006.97158813 0 0 0 0 -121150457.6269021 45544977.706771851 0 45544977.706771851 253865232.5002594 0 0 0 0 -39511016.512314081 10568991.116638184 0 10568991.116638184 17480819.026062012 0 0 0 0 -54258462.101386547 29799176.968551636 0 29799176.968551636 16894218.359542847 0 0 0 0 -145379716.56424272 -4094836.466293335 0 -4094836.466293335 17261125.304931641 0 0 0 0 176873431.17005849 52321065.645294189 0 52321065.645294189 -13292206.760284424 0 0 0 0 62137257.014539719 71291967.928314209 0 71291967.928314209 -5158535.0120544434 0 0 0 0 71662905.540258408 943849.86042785645 0 943849.86042785645 -13791107.221832275 0 0 0 0 64987196.610658646 27227976.032852173 0 27227976.032852173 -14445256.223541737 0 0 0 0 35548728.380768299 7766908.0505523682 0 7766908.0505523682 -74746.276000976562 0 0 0 0 -44603326.931687713 22756064.801261902 0 22756064.801261902 -1545915.9194793701 0 0 0 0 -56412116.465856045 52520051.620826721 0 52520051.620826721 -63249659.991088867 0 0 0 0 21985399.124595642 43484461.806930542 0 43484461.806930542 -21102224.556671143 0 0 0 0 -64171093.317236543 44365405.830799103 0 44365405.830799103 8478672.0160217285 0 0 0 0 16545443.559158325 24478919.944030762 0 24478919.944030762 3415888.9775085449 0 0 0 0 -84115660.021129668 1504221.9544487 0 1504221.9544487 16858360.865692139 0 0 0 0 -96664550.685745001 29846086.698791504 0 29846086.698791504 18387355.211975098 0 0 0 0 -44169465.436567307 -1966172.1002197266 0 -1966172.1002197266 22055348.720338821 0 0 0 0 -28838174.107005954 39161022.557224274 0 39161022.557224274 22071731.658599854 0 0 0 0 47439033.218774796 22457002.799530029 0 22457002.799530029 9667555.4777526855 0 0 0 0 24169197.980155945 39555486.699295044 0 39555486.699295044 4758525.7327270508 0 0 0 0 -40625256.850209773 -59924328.68086338 0 -59924328.68086338 21020439.995635986 0 0 0 0 -2038830.5969826002 775900.51649867743 0 775900.51649867743 14508263.88651453 0 0 0 0 -255914411.82782578 -39455339.837463379 0 -39455339.837463379 53153973.906829834 0 0 0 0 -170868761.89394951 -81019080.795028687 0 -81019080.795028687 21538248.110992432 0 0 0 0 -205175661.81696367 2693030.4406585693 0 2693030.4406585693 50853339.17956543 0 0 0 0 -131255639.51856399 -41490611.67477417 0 -41490611.67477417 34194530.605803013 0 0 0 0 -169124344.73615301 20348760.605773926 0 20348760.605773926 26410802.16355896 0 0 0 0 -205305946.87609622 74051057.202301025 0 74051057.202301025 -43288030.658111572 0 0 0 0 -111661004.69700575 20536932.264785767 0 20536932.264785767 12256650.905029297 0 0 0 0 -881584.13222580566 4582577.3187320633 0 4582577.3187320633 4854781.3413947076 0 0 0 0 6168536.3144919872 58211299.92118454 0 58211299.92118454 25252826.103911638 0 0 0 0 -1834437.5250035624 -819392.87438747846 0 -819392.87438747846 15523850.403654687 0 0 0 0 -287960529.19472694 -178636330.33198547 0 -178636330.33198547 109852486.64767456 0 0 0 0 -214828111.67887485 -153752047.01482582 0 -153752047.01482582 -38603222.285644531 0 0 0 0 -120876671.9873246 -12601571.304351807 0 -12601571.304351807 -140926435.24035645 0 0 0 0 -14484341.918097496 3162045.7219753265 0 3162045.7219753265 16069716.409286499 0 0 0 0 -37221836.724736981 -306598505.44822717 0 -306598505.44822717 131062008.02947998 0 0 0 0 -314646551.22889447 -155247230.7962265 0 -155247230.7962265 110278836.14245605 0 0 0 0 2934735.8105825363 3401352.1689310297 0 3401352.1689310297 6932707.0724572903 0 0 0 0 7885551.6904549599 5599163.6019744873 0 5599163.6019744873 4318633.9204140007 0 0 0 0 28363407.090826392 -55201328.761825562 0 -55201328.761825562 172315109.68235779 0 0 0 0 126724.2032940794 428037.17265827768 0 428037.17265827768 837466.4451456815 0 0 0 0 266531759.78918529 -144549217.61597443 0 -144549217.61597443 -853220209.78317261 0 0 0 0 -269014681.72751784 -127030154.18138885 0 -127030154.18138885 147622514.02581787 0 0 0 0 -274136846.65136242 -75909342.006034851 0 -75909342.006034851 -362149500.10430908 0 0 0 0 -70628.882514356577 93970.859254926443 0 93970.859254926443 410101.21080469288 0 0 0 0 -133493081.73672247 628928905.84503174 0 628928905.84503174 -2167184089.1606631 0 0 0 0 -352935282.23684359 -306780793.4098587 0 -306780793.4098587 836781174.79098511 0 0 0 0 -75844.586139895619 2699383.1842800388 0 2699383.1842800388 10957331.29927054 0 0 0 0 -164479.7054168582 474792.1044960022 0 474792.1044960022 3581727.7300643921 0 0 0 0 -469247410.60546279 62328643.338394165 0 62328643.338394165 221078707.6496582 0 0 0 0 -198095758.81170273 -33343108.227851868 0 -33343108.227851868 251946149.4216156 0 0 0 0 7452553.4904222488 -1875241.4091262817 0 -1875241.4091262817 -762285.0022277832 0 0 0 0 -153699193.9925561 -88442193.47234726 0 -88442193.47234726 26189184.230979919 0 0 0 0 806783.73687567306 4557801.5608565267 0 4557801.5608565267 -1418206.8653718904 0 0 0 0 11343361.193153262 5266835.9846572876 0 5266835.9846572876 119935.68078613281 0 0 0 0 -253587644.32237279 179043627.81136322 0 179043627.81136322 872754751.11299896 0 0 0 0 2022475.9622577429 27279995.804315567 0 27279995.804315567 -21826574.63168335 0 0 0 0 269032.15000663244 1337128.5239551393 0 1337128.5239551393 -418515.76744616777 0 0 0 0 259291.50967097867 306657.38723392598 0 306657.38723392598 4169737.1351256594 0 0 0 0 782224120.11759722 1274772670.0107832 0 1274772670.0107832 2189022669.8738861 0 0 0 0 734600637.83846664 1041224229.8125 0 1041224229.8125 1164059204.3508606 0 0 0 0 22887044.29940407 248804304.90338135 0 248804304.90338135 1622604545.010437 0 0 0 0 -149135397.88787305 131196106.18995667 0 131196106.18995667 3467330625.4250183 0 0 0 0 137134170.30802166 790096213.93243027 0 790096213.93243027 3768740146.9255219 0 0 0 0 1924628539.1907516 -1615130088.5523376 0 -1615130088.5523376 4877526222.2146378 0 0 0 0 -924363583.23394251 83483793.229576111 0 83483793.229576111 2003191553.5238037 0 0 0 0 -1147740440.1992114 -119764108.03092194 0 -119764108.03092194 3489306820.0363998 0 0 0 0 -492524084.11803567 -342411398.90176105 0 -342411398.90176105 2721202796.3406982 0 0 0 0 -520029192.15754271 -239790800.43841267 0 -239790800.43841267 2466713860.1596069 0 0 0 0 45047721.641770877 -981071043.92762756 0 -981071043.92762756 3464302168.5932503 0 0 0 0 1298294976.5764973 38875848.43122673 0 38875848.43122673 3912520491.440567 0 0 0 0 98111.220934483834 -698582.29348337906 0 -698582.29348337906 1283919.5061644018 0 0 0 0 319666064.41110313 -1521288064.3758507 0 -1521288064.3758507 1998539559.4277344 0 0 0 0 336481682.54276854 167495936.00766754 0 167495936.00766754 -210368146.49553299 0 0 0 0 561597210.26787007 -986686693.13017654 0 -986686693.13017654 1116607887.4967804 0 0 0 0 -400670649.40135491 -676231921.37961578 0 -676231921.37961578 2771578100.3981581 0 0 0 0 -405656204.62333852 -587987544.26427054 0 -587987544.26427054 2475077172.958847 0 0 0 0 489627510.33111829 -352387300.68344307 0 -352387300.68344307 113061268.41329956 0 0 0 0 165544771.29107869 179009150.00907135 0 179009150.00907135 17011647.885938644 0 0 0 0 -291582073.30416131 223559835.87629318 0 223559835.87629318 96516603.329666138 0 0 0 0 -62121674.283047438 182067574.7461319 0 182067574.7461319 103522954.9961834 0 0 0 0 -94862.763771782367 -664943.25423061335 0 -664943.25423061335 3208454.1982705668 0 0 0 0 81238622.153759032 87639148.519925117 0 87639148.519925117 108465536.75720215 0 0 0 0 -144391841.60531557 32302303.751302242 0 32302303.751302242 3681427.6295623779 0 0 0 0 14631976.326552629 -3121078.5713577271 0 -3121078.5713577271 -10724720.498756409 0 0 0 0 -23729796.020893812 155035143.27767563 0 155035143.27767563 47438876.958824158 0 0 0 0 105037641.5447067 23461064.605163574 0 23461064.605163574 -104683398.84619141 0 0 0 0 191633.72218036628 353848.78156794235 0 353848.78156794235 564939.60345348716 0 0 0 0 -243946.16322948295 645676.72989052907 0 645676.72989052907 1976239.4240892977 0 0 0 0 -22622088.087355614 -185469766.41593933 0 -185469766.41593933 -177393967.73060608 0 0 0 0 -63256803.453683615 -54412863.637802124 0 -54412863.637802124 -69304718.066238403 0 0 0 0 14734809.157318592 -329526.84688949585 0 -329526.84688949585 19895026.821239471 0 0 0 0 65756790.535067558 -53049144.865791321 0 -53049144.865791321 -111245278.22140503 0 0 0 0 142090804.02770853 -92085705.315841675 0 -92085705.315841675 -164248850.74502563 0 0 0 0 146004497.52407312 -28638695.303657532 0 -28638695.303657532 -333151776.68826294 0 0 0 0 -51265930.29049921 126724977.43861389 0 126724977.43861389 -216478522.4960022 0 0 0 0 31975299.808842182 -75660016.871986389 0 -75660016.871986389 174225969.53665161 0 0 0 0 99157011.442756891 42690769.384475708 0 42690769.384475708 22545417.235496521 0 0 0 0 47058.119559773477 97379.702303994447 0 97379.702303994447 590698.33661434054 0 0 0 0 4687943.7090291977 10225682.424377441 0 10225682.424377441 48254042.134166718 0 0 0 0 -94867439.333496094 -46886817.809669495 0 -46886817.809669495 -36953097.408538818 0 0 0 0 -2972172.9938316345 -9249195.6970977783 0 -9249195.6970977783 32845120.06098938 0 0 0 0 2593593.8081846237 -1950992.2492218018 0 -1950992.2492218018 29804330.537567139 0 0 0 0 -10515973.64443779 2378821.161655426 0 2378821.161655426 51313116.290176392 0 0 0 0 -16975077.593139648 -5275745.1115112305 0 -5275745.1115112305 48674564.256233215 0 0 0 0 33265263.378387928 38187217.657836914 0 38187217.657836914 -36833991.784622192 0 0 0 0 -153421784.692581 -216458249.92525387 0 -216458249.92525387 359674336.99195862 0 0 0 0 -206578.12347302842 -55807.373408766463 0 -55807.373408766463 2325743.3713444769 0 0 0 0 -210373859.60197091 169632387.9931488 0 169632387.9931488 153574254.47676086 0 0 0 0 63633596.501509845 -149966228.61871529 0 -149966228.61871529 248490530.72113037 0 0 0 0 281003494.73508388 -142566651.26602364 0 -142566651.26602364 137467864.86233521 0 0 0 0 -205378792.48045874 93669773.761444092 0 93669773.761444092 359185155.1656189 0 0 0 0 7221514.6185872555 -89878893.370750427 0 -89878893.370750427 476057660.15540314 0 0 0 0 2740295.1795326471 202530162.85339737 0 202530162.85339737 923591144.65731812 0 0 0 0 -33988602.33463335 -464857385.76617813 0 -464857385.76617813 1124951128.4377899 0 0 0 0 -23517807.462633848 64640935.667900085 0 64640935.667900085 720635208.36694336 0 0 0 0 -497627284.81035113 -202364355.26166534 0 -202364355.26166534 2301206191.8306618 0 0 0 0 -217450428.79600477 57733388.862815857 0 57733388.862815857 1554320160.5163345 0 0 0 0 -404860338.59171796 -274243193.82954407 0 -274243193.82954407 1694369295.9760208 0 0 0 0 -198104488.00089312 -33266688.262168884 0 -33266688.262168884 1030413131.5250969 0 0 0 0 63054771.466099262 399851010.63574982 0 399851010.63574982 574692032.66468048 0 0 0 0 -567437472.88829005 276560150.76029968 0 276560150.76029968 2839573118.4852219 0 0 0 0 -144707739.4058342 636557797.02178192 0 636557797.02178192 2082808569.5578461 0 0 0 0 239172450.24290127 1087209879.081954 0 1087209879.081954 2091742196.62117 0 0 0 0 19194038.532511711 272781511.85655975 0 272781511.85655975 2238524151.1513519 0 0 0 0 -321430623.58995301 -208332197.81552505 0 -208332197.81552505 2928395548.3806076 0 0 0 0 -518534.43998533697 69466.795565515757 0 69466.795565515757 1425584.3658564328 0 0 0 0 -929256973.84622657 -311315422.514534 0 -311315422.514534 3464741744.3739586 0 0 0 0 -40334935.889460765 208246535.15151215 0 208246535.15151215 3465443061.3092499 0 0 0 0 644113903.44263077 105658171.18595886 0 105658171.18595886 3131283258.7431526 0 0 0 0 -18192571.762714949 226660104.54492569 0 226660104.54492569 3479162281.8530655 0 0 0 0 -1227146.8225174893 184144.71801148355 0 184144.71801148355 2621224.0092029646 0 0 0 0 21053652.457388192 222681470.3612709 0 222681470.3612709 3464528077.9025879 0 0 0 0 -240521.23486009473 -38114.022582471371 0 -38114.022582471371 1362107.5816656314 0 0 0 0 229119169.00189659 1102821106.6824465 0 1102821106.6824465 2773054733.0681152 0 0 0 0 -48362.191776777268 -168238.24080326129 0 -168238.24080326129 1449428.3627495319 0 0 0 0 426484072.25065041 425430880.11526489 0 425430880.11526489 3320163323.0220337 0 0 0 0 -740190788.92838192 158720627.90597534 0 158720627.90597534 3968673916.7488861 0 0 0 0 -409247635.76724434 -111053911.2184906 0 -111053911.2184906 336177776.20056152 0 0 0 0 -67727146.607971787 -570574615.5624733 0 -570574615.5624733 1073236867.7916489 0 0 0 0 -12157889.27547121 238866546.96915817 0 238866546.96915817 597838326.1587677 0 0 0 0 16097287.302979119 339637049.65778351 0 339637049.65778351 3339863443.5985107 0 0 0 0 -84544877.300088406 349939841.61208344 0 349939841.61208344 3059422791.5863953 0 0 0 0 -183251566.86539698 -366686904.22261047 0 -366686904.22261047 2336307349.7366028 0 0 0 0 62066779.372227192 -129256297.14543152 0 -129256297.14543152 2017420307.7023468 0 0 0 0 -92922983.835957527 -218659019.66641235 0 -218659019.66641235 2031819287.6982193 0 0 0 0 119542466.86406446 -350313024.70392227 0 -350313024.70392227 866028160.68438721 0 0 0 0 182883803.78225708 -143187156.93270111 0 -143187156.93270111 876303473.90888739 0 0 0 0 353781087.07069135 -160241686.04968834 0 -160241686.04968834 -283647084.42227173 0 0 0 0 87251680.061158657 291189250.26624298 0 291189250.26624298 -229516049.39811516 0 0 0 0 54246371.840084076 19799540.495765686 0 19799540.495765686 -203383310.5867157 0 0 0 0 -109413483.83243752 -132954448.31638336 0 -132954448.31638336 -91948173.493068695 0 0 0 0 -45240564.57689023 83903740.534503937 0 83903740.534503937 -122655293.43362427 0 0 0 0 -181954.47027009929 -96946.960080375895 0 -96946.960080375895 2940416.8536766768 0 0 0 0 -240080403.43697166 148826691.07050896 0 148826691.07050896 -74168903.688056946 0 0 0 0 -212055887.79283357 -91163535.249237061 0 -91163535.249237061 74502522.396987915 0 0 0 0 -146017068.04843199 -646353.59876251221 0 -646353.59876251221 -37905944.333557129 0 0 0 0 216714823.13726258 -18799676.045162201 0 -18799676.045162201 -108531953.95666504 0 0 0 0 11133516.047940969 22406048.264339447 0 22406048.264339447 -220056067.54200363 0 0 0 0 -327224.22485259944 419053.74418740161 0 419053.74418740161 -43384.857964921743 0 0 0 0 11385789.574801199 14990502.392583609 0 14990502.392583609 -10505148.578903198 0 0 0 0 36644593.12678051 14786594.491844177 0 14786594.491844177 21124735.331352234 0 0 0 0 34756000.096726418 5261178.1548919678 0 5261178.1548919678 2994517.4722499847 0 0 0 0 -222148.13265003025 47364.235269890167 0 47364.235269890167 2927339.991852209 0 0 0 0 -629984.23462895805 656887.17884018831 0 656887.17884018831 264168.01201720163 0 0 0 0 -9693456.711512804 11507225.975631714 0 11507225.975631714 -5997683.6553192139 0 0 0 0 -78680597.607643545 -37601505.983772278 0 -37601505.983772278 -14131954.621673584 0 0 0 0 -75071533.614465237 -30516279.331359863 0 -30516279.331359863 -31684758.785089493 0 0 0 0 -23899810.324910164 -52861179.809577942 0 -52861179.809577942 -39641677.05717659 0 0 0 0 -76508088.050545692 -42859648.895233154 0 -42859648.895233154 -13331221.05456543 0 0 0 0 534105.81448437506 508495.95823550969 0 508495.95823550969 1680219.8695846573 0 0 0 0 -16033360.839371681 -2439700.6378326416 0 -2439700.6378326416 -2376158.1052703857 0 0 0 0 9963771.6106545925 11412965.10515976 0 11412965.10515976 8757277.6302490234 0 0 0 0 5905965.8682155609 6697206.0625915527 0 6697206.0625915527 11343355.1171875 0 0 0 0 2486782.2357575893 -14375596.069114685 0 -14375596.069114685 -25081864.589263916 0 0 0 0 -1562569.2082829943 436804.12571991421 0 436804.12571991421 2355253.6524965391 0 0 0 0 -33964086.72728157 -20164685.15196991 0 -20164685.15196991 7630240.3963317871 0 0 0 0 -18320199.193359375 -19142624.028656006 0 -19142624.028656006 51226.99210357666 0 0 0 0 -32437935.327631533 -31037789.115569592 0 -31037789.115569592 -17238084.485046387 0 0 0 0 -18734224.859813929 -20474220.662265778 0 -20474220.662265778 -8097312.6952819824 0 0 0 0 -70276509.559715509 -30534188.868309021 0 -30534188.868309021 -13067402.821075439 0 0 0 0 -46203563.274956226 -46665364.003570557 0 -46665364.003570557 -17192351.041252136 0 0 0 0 -42576422.560728073 -31856509.680351257 0 -31856509.680351257 -10721743.842647552 0 0 0 0 483690.88019704819 4229249.6841087341 0 4229249.6841087341 50303243.782394409 0 0 0 0 -230586.1412491696 -294493.89764216542 0 -294493.89764216542 1647181.4780597612 0 0 0 0 -56324607.111983299 -37387330.800411224 0 -37387330.800411224 -9256949.5252532959 0 0 0 0 -54898803.639793634 -40907667.829738617 0 -40907667.829738617 -17816450.696308136 0 0 0 0 -44516942.036263585 -58511172.796028137 0 -58511172.796028137 -48287038.255050659 0 0 0 0 -41928314.271659613 -28081545.598747253 0 -28081545.598747253 -26508153.031219482 0 0 0 0 -43556823.289748229 -35793880.722438633 0 -35793880.722438633 -8559256.6524505615 0 0 0 0 26441891.038887262 43077295.829540253 0 43077295.829540253 57574004.62600708 0 0 0 0 -82436548.4539814 -71063647.586578369 0 -71063647.586578369 -39231415.402446747 0 0 0 0 -155466.28909990983 -259170.69204172492 0 -259170.69204172492 982561.70819572359 0 0 0 0 22075511.110123634 49356639.301452637 0 49356639.301452637 59914292.13053894 0 0 0 0 20253116.150188446 40041015.896392822 0 40041015.896392822 43026889.865325928 0 0 0 0 23888907.895729542 30470951.899169922 0 30470951.899169922 65219165.133403778 0 0 0 0 4934644.9430624843 14766444.133266449 0 14766444.133266449 61583950.70160675 0 0 0 0 5823836.4079155922 12234543.45413208 0 12234543.45413208 59249574.135826111 0 0 0 0 -10343816.446866274 12701410.049346924 0 12701410.049346924 66081152.478183746 0 0 0 0 21466631.048187256 19825135.156707764 0 19825135.156707764 23589329.09957695 0 0 0 0 14877784.248205066 15490742.586177826 0 15490742.586177826 60413166.704452515 0 0 0 0 31946592.611428738 41225343.649703979 0 41225343.649703979 62106074.909225464 0 0 0 0 33996.346974747517 96222.824498587754 0 96222.824498587754 59251.365022331476 0 0 0 0 -31791778.397074938 14127273.486877441 0 14127273.486877441 70363488.910589218 0 0 0 0 -5624396.2881068587 15330577.464071274 0 15330577.464071274 66936550.018302917 0 0 0 0 -11436319.268970966 22988072.673187256 0 22988072.673187256 63786666.002955437 0 0 0 0 16500175.50133419 43007132.949493408 0 43007132.949493408 60287302.534893513 0 0 0 0 -524772.06112146378 43372864.558317184 0 43372864.558317184 76515015.577056885 0 0 0 0 42131913.031410694 43720214.924953461 0 43720214.924953461 56016310.599029541 0 0 0 0 58391844.39452076 61773431.731941223 0 61773431.731941223 71178077.585662842 0 0 0 0 24232989.819367886 53493601.804965973 0 53493601.804965973 74038794.188842773 0 0 0 0 34582005.110374451 49319633.087791443 0 49319633.087791443 73060842.035211563 0 0 0 0 7968778.9687447548 45473041.585643768 0 45473041.585643768 91584042.125190735 0 0 0 0 34621749.179955333 45588725.810907125 0 45588725.810907125 100651841.18331909 0 0 0 0 52210563.171271801 45491927.280094147 0 45491927.280094147 75003951.94965744 0 0 0 0 62027594.813797593 13523559.833444595 0 13523559.833444595 101123416.53030396 0 0 0 0 39550458.577709198 31876627.363235474 0 31876627.363235474 90706136.264595032 0 0 0 0 8613892.798479557 41733742.977935791 0 41733742.977935791 70170952.415885925 0 0 0 0 -18197197.919388771 17388961.541381836 0 17388961.541381836 79295542.374349594 0 0 0 0 993904.65305137634 51998343.720882416 0 51998343.720882416 89681458.004440308 0 0 0 0 -8342950.7541555166 1735284.4954929352 0 1735284.4954929352 36679788.450462341 0 0 0 0 113322.19515307277 826572.70561543643 0 826572.70561543643 167046.43511153013 0 0 0 0 108779355.48205505 60804079.979312181 0 60804079.979312181 14777829.21824646 0 0 0 0 -12458750.483239174 -5105772.8625183105 0 -5105772.8625183105 49327090.408784866 0 0 0 0 4098836.2758889198 9606061.3865013123 0 9606061.3865013123 -1506792.0850448608 0 0 0 0 6517260.9940223694 4630131.9149017334 0 4630131.9149017334 -53502.891366958618 0 0 0 0 -39547226.669036388 38720181.548919678 0 38720181.548919678 -5815055.5849246979 0 0 0 0 2215314.5650048256 14179035.951721191 0 14179035.951721191 -10373342.934773445 0 0 0 0 -25073026.758454323 33258936.232257843 0 33258936.232257843 49034842.94090271 0 0 0 0 -29377383.35630019 3013439.45291996 0 3013439.45291996 45239917.645805359 0 0 0 0 -82573790.180681229 9497435.6829414368 0 9497435.6829414368 48465557.456680298 0 0 0 0 -41306614.037861824 -36455184.257900238 0 -36455184.257900238 -19671243.262499809 0 0 0 0 -29888020.316990614 25834456.354125977 0 25834456.354125977 -38929747.944284439 0 0 0 0 -112061823.06107545 3464379.7545890808 0 3464379.7545890808 90120870.911384583 0 0 0 0 -60839465.781118155 -50029068.227256775 0 -50029068.227256775 -8889643.8629302979 0 0 0 0 -326771.73836619174 423091.62208900973 0 423091.62208900973 1178187.7206165642 0 0 0 0 -15701548.095691204 6659492.4139785767 0 6659492.4139785767 18624052.75328064 0 0 0 0 -5364723.4902384281 4412166.1529159546 0 4412166.1529159546 12314303.176025391 0 0 0 0 -2444925.2237055302 55537042.122356415 0 55537042.122356415 38508334.358089447 0 0 0 0 -78141358.144207001 -68326145.070068359 0 -68326145.070068359 -26454998.046875 0 0 0 0 -98227223.448816776 -56506821.345394135 0 -56506821.345394135 -22905887.187835693 0 0 0 0 -13707316.543308258 -2675708.0058441162 0 -2675708.0058441162 8698332.6540985107 0 0 0 0 -358953.85078632913 164221.74443623237 0 164221.74443623237 437685.90405653417 0 0 0 0 -107100481.67644596 -49795491.359458923 0 -49795491.359458923 9446768.2953681946 0 0 0 0 -34592307.533095837 6280802.9262771606 0 6280802.9262771606 35897936.198345184 0 0 0 0 -120178.06366747059 -304930.61065991595 0 -304930.61065991595 103161.10448895954 0 0 0 0 -6513647.2833323479 15705862.426746368 0 15705862.426746368 13468914.068725586 0 0 0 0 -48642801.478734493 -420263.90617752075 0 -420263.90617752075 49819370.620368958 0 0 0 0 -604171.56342631776 260006.81033142842 0 260006.81033142842 790366.5622690469 0 0 0 0 -63164027.100977123 -8110028.0126657486 0 -8110028.0126657486 39816263.555267334 0 0 0 0 -54677174.971587181 16978209.573722839 0 16978209.573722839 10142925.657917023 0 0 0 0 -21791531.253741264 -10176273.92829895 0 -10176273.92829895 5614042.5160522461 0 0 0 0 -45674198.539933443 -3292509.8160762787 0 -3292509.8160762787 30883875.433898926 0 0 0 0 -14922043.827040195 21572390.847595215 0 21572390.847595215 36976239.311355591 0 0 0 0 -23503575.108761668 23138521.092578888 0 23138521.092578888 69304030.129974365 0 0 0 0 7598593.5731348991 -15032508.816394806 0 -15032508.816394806 29474865.349243164 0 0 0 0 40317130.515844822 25935430.242630005 0 25935430.242630005 -4384783.8555603027 0 0 0 0 15988805.901771545 36133276.169570923 0 36133276.169570923 14016654.243347168 0 0 0 0 6757645.4491920471 32994218.77381134 0 32994218.77381134 6198912.2105941772 0 0 0 0 -8556377.1565675735 12826253.098594666 0 12826253.098594666 -17569321.653934479 0 0 0 0 -24935243.485872984 7689579.1613044739 0 7689579.1613044739 33429374.023712158 0 0 0 0 -56546906.851436138 -19855513.402664185 0 -19855513.402664185 21911903.705490112 0 0 0 0 -22389309.629049301 1071252.0972290039 0 1071252.0972290039 20291795.464828491 0 0 0 0 -55181181.64539814 10729822.326519012 0 10729822.326519012 29975853.278152466 0 0 0 0 -33014104.835905075 -1306219.750705719 0 -1306219.750705719 18972355.772201538 0 0 0 0 -22441736.389818192 11118057.639930725 0 11118057.639930725 22833397.813144684 0 0 0 0 -17102233.213925362 6453036.0437469482 0 6453036.0437469482 19656848.235458374 0 0 0 0 11284547.353820801 10896980.557312012 0 10896980.557312012 15182180.9896698 0 0 0 0 11433976.420919418 10323495.362884521 0 10323495.362884521 10626531.161148071 0 0 0 0 11555764.337778091 22773262.26751709 0 22773262.26751709 21375398.240722656 0 0 0 0 -1899381.0143909454 12500180.337188721 0 12500180.337188721 18517872.89151001 0 0 0 0 -4302771.1228885651 16275793.630317688 0 16275793.630317688 22489282.689620972 0 0 0 0 863681.45908212662 27558612.527427673 0 27558612.527427673 33687433.857269287 0 0 0 0 35263476.871845931 -27227138.583392084 0 -27227138.583392084 4103719.3141784668 0 0 0 0 51557935.425293922 10309180.904457092 0 10309180.904457092 16348160.473876953 0 0 0 0 -14532.295573163217 -1377046.3852097432 0 -1377046.3852097432 24070.000918030739 0 0 0 0 48487119.078502655 17075388.24017334 0 17075388.24017334 20954319.14743042 0 0 0 0 -1565033.7121775658 -6524139.3709713016 0 -6524139.3709713016 2225457.3921950944 0 0 0 0 52114586.451080322 4273319.03125 0 4273319.03125 5905157.04296875 0 0 0 0 -240277.36980133154 -141348.13658602908 0 -141348.13658602908 357395.78127294034 0 0 0 0 -3603684.6030074228 1060942.5651112944 0 1060942.5651112944 7138554.1299309134 0 0 0 0 -7978570.0095434263 -132298.32484292984 0 -132298.32484292984 5964431.1042785645 0 0 0 0 -10192605.607336998 1911907.403465271 0 1911907.403465271 13542103.608495712 0 0 0 0 16439813.232009888 7250241.3163986206 0 7250241.3163986206 8609139.1438598633 0 0 0 0 -2555171.6947616767 7625989.4570417777 0 7625989.4570417777 12454348.666693855 0 0 0 0 7169039.8225231171 1442921.5059127808 0 1442921.5059127808 13322289.502914429 0 0 0 0 -6785926.3550043106 8504425.6405181885 0 8504425.6405181885 16132913.922950745 0 0 0 0 -17577565.168087959 6026226.3638305664 0 6026226.3638305664 17211962.330669403 0 0 0 0 -7234442.8941055536 10305453.895811081 0 10305453.895811081 16336295.672637939 0 0 0 0 -17624801.605641365 5879067.1021194458 0 5879067.1021194458 18228888.807357788 0 0 0 0 -17337867.527356148 5846559.8615188599 0 5846559.8615188599 18232311.511518478 0 0 0 0 -17288402.353515148 5236353.9416351318 0 5236353.9416351318 18724554.24930191 0 0 0 0 -18188154.04660368 6005013.3714447021 0 6005013.3714447021 18341517.687316895 0 0 0 0 33188878.117382176 27466667.026851356 0 27466667.026851356 -12888121.245178223 0 0 0 0 360126.4716643166 4146936.8487596842 0 4146936.8487596842 540390.31088292599 0 0 0 0 -1199733.9646470891 1399143.4292335585 0 1399143.4292335585 4381702.1283671148 0 0 0 0 -2269819.0683229193 9207740.7374391854 0 9207740.7374391854 8324554.0857925415 0 0 0 0 1511838.0986006872 7428018.7388305366 0 7428018.7388305366 20145651.335285418 0 0 0 0 -7878420.851544857 19420510.075622559 0 19420510.075622559 -11539748.396396637 0 0 0 0 2389541.5967292786 42721477.720565796 0 42721477.720565796 -12411002.204801083 0 0 0 0 7182709.6887705326 39837157.380661011 0 39837157.380661011 -3530905.2242736816 0 0 0 0 6883778.5220410824 3099803.7624435425 0 3099803.7624435425 15980546.6875 0 0 0 0 -34295383.916953564 43607602.869743347 0 43607602.869743347 74981469.669342041 0 0 0 0 161090965.16537511 106139291.55893707 0 106139291.55893707 5335711.6765899658 0 0 0 0 -42800363.958560944 -37959967.826286316 0 -37959967.826286316 2758143.233581543 0 0 0 0 -121491560.93610716 -14533455.737091064 0 -14533455.737091064 49017039.610496521 0 0 0 0 -52068564.938840359 158020372.31368256 0 158020372.31368256 97010027.025177002 0 0 0 0 -40518448.113061786 19527422.744441986 0 19527422.744441986 23982094.886444092 0 0 0 0 -23807874.435795784 36312170.913917542 0 36312170.913917542 -5938566.0512390137 0 0 0 0 -16863836.248579025 -499533.90228271484 0 -499533.90228271484 23329420.922851562 0 0 0 0 -7402036.6994447708 3069735.4635620117 0 3069735.4635620117 5190752.8163452148 0 0 0 0 -12627618.54419136 20308481.571586609 0 20308481.571586609 18791672.942123413 0 0 0 0 -992356.93960879813 1125694.476565741 0 1125694.476565741 1510713.4841879457 0 0 0 0 -13894406.320650101 2115532.5407714844 0 2115532.5407714844 26871570.893995285 0 0 0 0 -2901704.2556352187 -444549.83878806047 0 -444549.83878806047 14793748.175223753 0 0 0 0 -1011102.5292038396 1006239.1775708124 0 1006239.1775708124 16190328.498985395 0 0 0 0 -4627128.0553045273 -448460.34818267822 0 -448460.34818267822 4800316.7640686035 0 0 0 0 -3595015.1562759625 -1728266.6297380924 0 -1728266.6297380924 16756121.680058569 0 0 0 0 -983198.18960189819 -21518273.93372345 0 -21518273.93372345 2170577.6022033691 0 0 0 0 -3072475.3397459984 -13140634.581453323 0 -13140634.581453323 13520243.984329224 0 0 0 0 1703400.1198558807 -18324511.740844727 0 -18324511.740844727 3418914.5972137451 0 0 0 0 -52107231.241163015 -62283475.212459564 0 -62283475.212459564 -47439097.828613281 0 0 0 0 1462687.5954875946 -2994740.0717010498 0 -2994740.0717010498 37335488.758407593 0 0 0 0 -1883886.9067807198 -36247549.657999039 0 -36247549.657999039 -10342657.499420166 0 0 0 0 1297834.8349740505 -8262899.8323669434 0 -8262899.8323669434 -13244431.900299072 0 0 0 0 1786624.9457378387 -5643937.3354492188 0 -5643937.3354492188 -21510285.533668518 0 0 0 0 -39507379.400430679 -24133134.914070129 0 -24133134.914070129 10271876.722473145 0 0 0 0 -1688793.6537741707 -2731057.2985457443 0 -2731057.2985457443 22449482.925130427 0 0 0 0 -1756879.4491091771 1167887.6514051668 0 1167887.6514051668 5547660.8997967169 0 0 0 0 -226783100.95702147 -98733455.015068054 0 -98733455.015068054 -15679217.980266571 0 0 0 0 -249643381.49590898 121469130.34799194 0 121469130.34799194 18264475.387115479 0 0 0 0 -405775583.77316433 100848733.47492218 0 100848733.47492218 90791250.38861084 0 0 0 0 -277474237.3274619 -348109543.16590881 0 -348109543.16590881 112308523.26435852 0 0 0 0 -127186723.36111975 -230902450.76383972 0 -230902450.76383972 13078346.050537109 0 0 0 0 -448567804.39059818 -15516055.223091125 0 -15516055.223091125 222645014.75033569 0 0 0 0 -138084506.65837669 268662113.54370117 0 268662113.54370117 58499628.428596497 0 0 0 0 -9439661.5873355865 60766507.371170044 0 60766507.371170044 -13559139.857276917 0 0 0 0 8912281.3142585754 50715419.980484009 0 50715419.980484009 -8556146.7434921265 0 0 0 0 15941637.355358124 32579543.496713638 0 32579543.496713638 -34124661.125427246 0 0 0 0 -10753137.979091644 -44138324.054351807 0 -44138324.054351807 -109911825.97761536 0 0 0 0 40739444.407737732 58108682.466896057 0 58108682.466896057 -182499246.15720367 0 0 0 0 299861806.62611431 259604354.06478119 0 259604354.06478119 381677604.30552673 0 0 0 0 76134432.087374747 22482873.640338898 0 22482873.640338898 132632631.24536133 0 0 0 0 160186987.92502668 143460524.04019165 0 143460524.04019165 52134832.691146851 0 0 0 0 127546964.91176224 -197794208.07727051 0 -197794208.07727051 -14155630.901807785 0 0 0 0 14396083.222175211 -448439762.2019043 0 -448439762.2019043 272231588.49937439 0 0 0 0 584118511.02983522 -108159141.86035156 0 -108159141.86035156 1264851.7162284851 0 0 0 0 541513208.68268561 52460828.002494812 0 52460828.002494812 -88050354.359603882 0 0 0 0 -94026519.172407836 231760388.17726135 0 231760388.17726135 695234044.19329834 0 0 0 0 -120726563.97839865 25249809.333358765 0 25249809.333358765 -112013059.71214294 0 0 0 0 -329117861.4584285 233702212.35829163 0 233702212.35829163 286377791.81335449 0 0 0 0 393510.4293475321 774487.87489308603 0 774487.87489308603 1213129.9023684561 0 0 0 0 229684622.78542149 -244468151.30411911 0 -244468151.30411911 156015406.87443542 0 0 0 0 32511904.732299566 -38771300.588897705 0 -38771300.588897705 487637404.02857971 0 0 0 0 117725053.39881516 -83633423.186706543 0 -83633423.186706543 -69294549.094909668 0 0 0 0 2961282.4087469578 146924189.06515503 0 146924189.06515503 20032603.488351822 0 0 0 0 21092007.063922167 -95761346.468170166 0 -95761346.468170166 -64263528.16506958 0 0 0 0 99696.172174386753 2270736.719560151 0 2270736.719560151 20858.669268995523 0 0 0 0 -462680471.9823792 135436930.78426361 0 135436930.78426361 118599927.17321777 0 0 0 0 108124554.26813431 252709299.21168518 0 252709299.21168518 -206301100.68409729 0 0 0 0 21503491.519519702 -68321119.877960205 0 -68321119.877960205 59279029.946456909 0 0 0 0 -103480676.30602527 87872348.084838867 0 87872348.084838867 -15206634.344360352 0 0 0 0 -158829816.32791531 -21959045.345005035 0 -21959045.345005035 -30670783.514633179 0 0 0 0 339081.16542757466 7865821.3469541408 0 7865821.3469541408 114495.01070791483 0 0 0 0 -196975903.03945303 55034602.193695068 0 55034602.193695068 26741549.229202271 0 0 0 0 -15598704.971639156 26235271.311553955 0 26235271.311553955 -11248419.799835205 0 0 0 0 158662802.647614 -25323940.71534729 0 -25323940.71534729 -43309544.82951355 0 0 0 0 933323.60347916582 2325432.5040298253 0 2325432.5040298253 3789568.8557128534 0 0 0 0 -46258762.953502417 54734907.932792664 0 54734907.932792664 372157227.91644287 0 0 0 0 -27351215.063795567 18490650.410430908 0 18490650.410430908 44421572.274688721 0 0 0 0 14161550.921643734 58952317.781112671 0 58952317.781112671 12768374.335639954 0 0 0 0 -27382289.444520473 25012172.509391785 0 25012172.509391785 -1295544.6470947266 0 0 0 0 -33917405.622839451 60555871.361602783 0 60555871.361602783 -6521565.0014591217 0 0 0 0 -15200684.705005169 -16835230.21235466 0 -16835230.21235466 16718980.28477478 0 0 0 0 -98558287.489265859 28958095.401046753 0 28958095.401046753 -5972879.4428253174 0 0 0 0 -54141382.685360909 41536592.593490601 0 41536592.593490601 17063477.708755493 0 0 0 0 -39930825.146112621 49240092.464101791 0 49240092.464101791 -70484003.16784668 0 0 0 0 -1259938.8775738196 -1513601.5104910731 0 -1513601.5104910731 3187685.6748908609 0 0 0 0 -30272056.466179609 -17295757.651798248 0 -17295757.651798248 25828063.753097534 0 0 0 0 -112191045.87941703 81228627.339233398 0 81228627.339233398 -11449050.889099121 0 0 0 0 -105279723.0358398 38621738.569694519 0 38621738.569694519 -17120756.733276367 0 0 0 0 -73391671.970315933 72760489.302856445 0 72760489.302856445 3442588.0040969849 0 0 0 0 1197580.7123527462 6576611.8298171274 0 6576611.8298171274 20206578.210857101 0 0 0 0 -46973373.791427612 57880375.314014435 0 57880375.314014435 776899.03440856934 0 0 0 0 5148323.7678489685 42445532.14863205 0 42445532.14863205 -6348509.5234413147 0 0 0 0 769959.18595743179 33923122.18037796 0 33923122.18037796 12719532.585830688 0 0 0 0 18054259.648817539 3333430.8560218811 0 3333430.8560218811 8705772.2701506615 0 0 0 0 -137092580.10855532 75215804.070667267 0 75215804.070667267 54275482.239807129 0 0 0 0 -74954420.369794846 15392706.551616669 0 15392706.551616669 59734887.392234802 0 0 0 0 -746502.13318889984 5959835.0104438346 0 5959835.0104438346 19265240.271674238 0 0 0 0 -145890039.51481724 -121354327.35374451 0 -121354327.35374451 187692492.7118988 0 0 0 0 5306072.9335784912 3450869.5178222656 0 3450869.5178222656 -108323733.09983063 0 0 0 0 20843944.237957716 44552980.878517151 0 44552980.878517151 27946245.988258362 0 0 0 0 35608150.573379993 3053254.3320808411 0 3053254.3320808411 110632521.76108932 0 0 0 0 22052650.266923904 42687371.105270386 0 42687371.105270386 182001426.22430992 0 0 0 0 -7025151.6995509267 -29028037.87694931 0 -29028037.87694931 165527507.80630493 0 0 0 0 53975280.566888809 87770586.836242676 0 87770586.836242676 147416864.65790939 0 0 0 0 -104139.78230708465 -104885.43225954287 0 -104885.43225954287 381287.4665960148 0 0 0 0 -91612755.956795692 -112611074.68491364 0 -112611074.68491364 -101265358.50842285 0 0 0 0 -61155960.182884216 -97975706.400932312 0 -97975706.400932312 -67388129.739524841 0 0 0 0 -173925052.54689932 -54881072.406009674 0 -54881072.406009674 33167744.56628418 0 0 0 0 -148868761.16359997 -89222742.943481445 0 -89222742.943481445 -50563380.451293945 0 0 0 0 -450248.67303031194 3603470.553380236 0 3603470.553380236 15785035.274245352 0 0 0 0 -101325934.17190742 -17016553.909332275 0 -17016553.909332275 -30058859.17324543 0 0 0 0 -46386647.492192164 18368290.150799274 0 18368290.150799274 28575569.105026245 0 0 0 0 -9835838.4624795914 17261507.319328308 0 17261507.319328308 -1276353.1637744904 0 0 0 0 -8506376.5257307291 23685908.364738464 0 23685908.364738464 21784882.710891724 0 0 0 0 -63681419.685220242 49506491.553588867 0 49506491.553588867 55679133.227523804 0 0 0 0 -127632522.55806494 27978139.889640808 0 27978139.889640808 42550603.139221191 0 0 0 0 -26605430.452402592 15950245.658805847 0 15950245.658805847 42357974.067901611 0 0 0 0 -18722036.677944034 -17945176.277938843 0 -17945176.277938843 99561017.835777283 0 0 0 0 -103014261.609056 120823565.14948273 0 120823565.14948273 -37903271.027431488 0 0 0 0 28488469.530136958 -62065250.974510193 0 -62065250.974510193 65470659.73223877 0 0 0 0 737802.60206745716 -115982.69522300549 0 -115982.69522300549 -161653.71127831191 0 0 0 0 20472160.394750968 -20426577.241912842 0 -20426577.241912842 9841515.9887695312 0 0 0 0 -33628191.959858432 28475697.352218628 0 28475697.352218628 34586456.192123413 0 0 0 0 -25868634.099853396 11823596.328071594 0 11823596.328071594 2446966.2102508545 0 0 0 0 -91993623.935666561 30833453.124964714 0 30833453.124964714 29539710.649536133 0 0 0 0 -2081253.6383572798 5516238.3532087747 0 5516238.3532087747 10081555.971318573 0 0 0 0 -9564314.0869531631 -2861869.1891174316 0 -2861869.1891174316 23051384.202819824 0 0 0 0 -39095484.85541153 3918189.7283477783 0 3918189.7283477783 40765787.422843933 0 0 0 0 -64276587.643663406 -46072532.093215942 0 -46072532.093215942 14463910.808773041 0 0 0 0 -2088018.0279144892 -964587.7213888187 0 -964587.7213888187 6926245.4501154125 0 0 0 0 -13038054.069962263 4338885.983127594 0 4338885.983127594 -31965590.221175194 0 0 0 0 -16744622.533735752 12298407.453281403 0 12298407.453281403 1362997.0253295898 0 0 0 0 -10923492.978838801 6191657.0697097778 0 6191657.0697097778 3612753.6060256958 0 0 0 0 8005540.0837708712 6819985.9697723389 0 6819985.9697723389 -16990647.618911743 0 0 0 0 7301157.2646678761 -2749577.8225874901 0 -2749577.8225874901 -28820307.252456665 0 0 0 0 -475971.68075729761 322542.57727750018 0 322542.57727750018 1139561.1006803066 0 0 0 0 57773328.987402737 35268888.143722534 0 35268888.143722534 -24602051.668464661 0 0 0 0 18007165.362171888 10147875.938554764 0 10147875.938554764 -37836721.057983398 0 0 0 0 -21341230.240605116 42316044.383262634 0 42316044.383262634 -3738556.2464294434 0 0 0 0 24288688.734627366 24267849.053092957 0 24267849.053092957 -16541930.839655638 0 0 0 0 -42040953.162080169 75641421.079708099 0 75641421.079708099 -2686776.0787963867 0 0 0 0 24156832.80440557 32512882.235717773 0 32512882.235717773 -13827261.080459595 0 0 0 0 17826837.915727943 22857673.742170334 0 22857673.742170334 38023027.956741333 0 0 0 0 145763780.11689496 24134491.721794128 0 24134491.721794128 33299567.030799866 0 0 0 0 -11019120.188106626 -33306501.440896988 0 -33306501.440896988 -44090243.611572266 0 0 0 0 5717343.055696249 32602225.588180542 0 32602225.588180542 215287717.66571045 0 0 0 0 59537551.343312025 61194050.547103882 0 61194050.547103882 125597515.88433838 0 0 0 0 101019499.90402997 49160559.279266357 0 49160559.279266357 -28378028.75970459 0 0 0 0 -1573987.4361435175 5655368.4622573853 0 5655368.4622573853 -33315731.974716187 0 0 0 0 -99573387.59235698 18082224.363975525 0 18082224.363975525 20709023.060073853 0 0 0 0 -536826.50265857717 2782401.7897488512 0 2782401.7897488512 2917317.9201219007 0 0 0 0 5361.2829537137877 3888393.3362171333 0 3888393.3362171333 9306128.5404883549 0 0 0 0 19192780.82687664 15049868.027305603 0 15049868.027305603 -20026515.781349182 0 0 0 0 70631701.039384127 -6875272.0820007324 0 -6875272.0820007324 -18006792.798522949 0 0 0 0 1052627.7871209015 3610451.6970669795 0 3610451.6970669795 6288956.5230257586 0 0 0 0 -20676427.93731451 11629716.357536316 0 11629716.357536316 -35128977.101913452 0 0 0 0 -64687088.874437988 109081175.94197083 0 109081175.94197083 29076656.953613281 0 0 0 0 21305536.655240059 47669585.111038208 0 47669585.111038208 -104933674.59162903 0 0 0 0 24746967.555385828 -359281242.13937378 0 -359281242.13937378 171069243.92549896 0 0 0 0 -144338854.44237113 -71925479.110069275 0 -71925479.110069275 596196038.19451141 0 0 0 0 36899528.556652606 -43743753.820802689 0 -43743753.820802689 175680679.90545654 0 0 0 0 66427320.534723952 96851756.917098999 0 96851756.917098999 254865818.73156738 0 0 0 0 125822.87082910434 337950.10101080686 0 337950.10101080686 682209.38437726349 0 0 0 0 -29845214.560014665 23118455.919113159 0 23118455.919113159 343858682.84207439 0 0 0 0 -5539669.8111674786 -94544.13801574707 0 -94544.13801574707 341876589.44241333 0 0 0 0 -61835242.978369832 54566027.660499573 0 54566027.660499573 398086567.90753174 0 0 0 0 -31747237.660495281 -1361191.0035858154 0 -1361191.0035858154 -162719719.54750061 0 0 0 0 -13797161.278831005 -78982793.147010803 0 -78982793.147010803 959459.46633911133 0 0 0 0 -89055862.56989634 -44538802.876049042 0 -44538802.876049042 -13619040.170700073 0 0 0 0 600115.73079679511 -91673.679860707372 0 -91673.679860707372 91154.280206307769 0 0 0 0 76393256.669375896 -133180124.54862976 0 -133180124.54862976 -236630365.76284027 0 0 0 0 23103827.091667295 -172885200.71530151 0 -172885200.71530151 -69576296.903686523 0 0 0 0 61394191.0338974 -165081966.97077179 0 -165081966.97077179 -184484673.56948853 0 0 0 0 115172440.11200106 -169846379.90219116 0 -169846379.90219116 -82028575.278366089 0 0 0 0 -9277908.2496110201 -67017241.340003967 0 -67017241.340003967 114201689.91879272 0 0 0 0 -9382809.3846885711 -70935099.772610188 0 -70935099.772610188 -6074489.6659240723 0 0 0 0 22753812.89838326 -104885771.12247086 0 -104885771.12247086 158394574.18388367 0 0 0 0 -68169576.658050269 -38416984.742474079 0 -38416984.742474079 27225623.733276367 0 0 0 0 -66402680.888047934 -11088178.886962891 0 -11088178.886962891 132620504.39889526 0 0 0 0 -38034119.600769997 25786755.042362213 0 25786755.042362213 50522865.105133057 0 0 0 0 -39442552.615041018 20303594.525978088 0 20303594.525978088 70548989.713645935 0 0 0 0 -12272836.607827544 32257119.360740662 0 32257119.360740662 97175595.73085022 0 0 0 0 -20101418.186325073 49245864.682632446 0 49245864.682632446 81187600.959671021 0 0 0 0 36837745.373850703 126170285.95157814 0 126170285.95157814 264772917.4019165 0 0 0 0 -13812488.25878191 -8307405.1615447998 0 -8307405.1615447998 7537374.8618087769 0 0 0 0 -30029594.75800994 -20742760.0042665 0 -20742760.0042665 1066213.2534790039 0 0 0 0 -45395126.970257282 -5196958.8495941162 0 -5196958.8495941162 19872463.714416504 0 0 0 0 -29334566.682467461 -11041195.412147522 0 -11041195.412147522 18375180.309341431 0 0 0 0 -14709180.712015629 -28308032.098999023 0 -28308032.098999023 -47857269.520202637 0 0 0 0 -55670764.395919085 -43461503.280918121 0 -43461503.280918121 1454683.8292541504 0 0 0 0 -46772396.967862129 -29213496.187408447 0 -29213496.187408447 -12458425.579391479 0 0 0 0 -7492229.9127745628 -11188165.935131073 0 -11188165.935131073 -12912502.279891968 0 0 0 0 -31443121.335403025 22228134.646335602 0 22228134.646335602 10860624.484481812 0 0 0 0 1311346.3860040195 -347931.5664143078 0 -347931.5664143078 320592.53181011975 0 0 0 0 -36178723.647657394 -59800621.981910706 0 -59800621.981910706 -62849553.690414429 0 0 0 0 11593794.397340059 -77782603.246055603 0 -77782603.246055603 208492543.39013672 0 0 0 0 168149554.93522835 -2366659.217956543 0 -2366659.217956543 61207719.53364563 0 0 0 0 -102726191.01935714 -131179776.1186676 0 -131179776.1186676 149422938.97477722 0 0 0 0 -80388238.928368628 -86146506.870830536 0 -86146506.870830536 207857121.2306366 0 0 0 0 -25857262.165759802 -147508079.62148285 0 -147508079.62148285 275558008.74447632 0 0 0 0 59987559.176808655 -101496573.59828949 0 -101496573.59828949 117342407.70904541 0 0 0 0 -46488773.068826079 119950203.98543549 0 119950203.98543549 449661822.82161713 0 0 0 0 325764.67094999494 -229020.29390079901 0 -229020.29390079901 219250.35913955793 0 0 0 0 6981121.2441294193 -11868664.060897827 0 -11868664.060897827 -33253373.572235107 0 0 0 0 -13154058.729600988 -87405488.658607483 0 -87405488.658607483 224345001.28696442 0 0 0 0 -29577688.673903465 51029323.700080872 0 51029323.700080872 294926338.07529449 0 0 0 0 -4556436.6887102127 4749430.9386901855 0 4749430.9386901855 10397529.62348175 0 0 0 0 885414.298683231 -717870.99445195124 0 -717870.99445195124 619457.54412291944 0 0 0 0 1658951.1823188066 -24643040.564668655 0 -24643040.564668655 -11497838.429336548 0 0 0 0 11665714.417702198 6150992.5835571289 0 6150992.5835571289 6531029.2906799316 0 0 0 0 -687892.8428299427 11427703.507041931 0 11427703.507041931 -3956006.9580841064 0 0 0 0 -14717537.203210354 -3740386.2893714905 0 -3740386.2893714905 25198009.232391357 0 0 0 0 -3325810.5040340424 -2524540.1995239258 0 -2524540.1995239258 23138043.706451416 0 0 0 0 1370953.509713463 -713214.21449510381 0 -713214.21449510381 803221.62980716676 0 0 0 0 -9614171.4318089485 -10578507.185180664 0 -10578507.185180664 -4874419.5919723511 0 0 0 0 43341.79084899665 -72090.684733328409 0 -72090.684733328409 -1957.832095593214 0 0 0 0 -1016137.7506084442 2875703.7596740723 0 2875703.7596740723 7689935.5671081543 0 0 0 0 17384.484813935676 -1684535.7239868725 0 -1684535.7239868725 3344947.0199983567 0 0 0 0 -9953045.1997158211 2037151.3718280792 0 2037151.3718280792 4626408.9774475098 0 0 0 0 -3463840.1769012362 7370580.4889755249 0 7370580.4889755249 7985495.9941329956 0 0 0 0 -15101208.12392664 -9313332.1262283325 0 -9313332.1262283325 1872095.1117095947 0 0 0 0 -4706855.2341354489 -7183582.8764762878 0 -7183582.8764762878 -2537665.9216003418 0 0 0 0 497989.63096793834 -3192554.0545043945 0 -3192554.0545043945 8116538.0315093994 0 0 0 0 2492929.1619764832 -3919829.7668609619 0 -3919829.7668609619 6718238.6245727539 0 0 0 0 460484.16094748769 -4541762.6416320801 0 -4541762.6416320801 10461417.552307129 0 0 0 0 -50153.979752893967 106759.20643137023 0 106759.20643137023 -94792.183664612472 0 0 0 0 1295304.6961342469 1930588.4234237671 0 1930588.4234237671 341129.79565429688 0 0 0 0 3808713.3087011897 -7603089.6758575439 0 -7603089.6758575439 12598218.517929077 0 0 0 0 -2822529.5924820527 1067426.5505752563 0 1067426.5505752563 785304.97497558594 0 0 0 0 -1870122.7611202686 387363.05654736981 0 387363.05654736981 1728943.2103747502 0 0 0 0 -5746461.9649934769 1568457.6574859619 0 1568457.6574859619 7486784.0408115387 0 0 0 0 -646951.61839345098 -336796.58447265625 0 -336796.58447265625 23163.678939819336 0 0 0 0 -9485548.3276643753 1749990.1747436523 0 1749990.1747436523 10311378.208740234 0 0 0 0 -10865756.098643303 -3163629.977355957 0 -3163629.977355957 4672875.7766113281 0 0 0 0 -1294629.7987017632 1116725.139755249 0 1116725.139755249 5834130.5587501526 0 0 0 0 -417187.83396207017 -739857.90071177855 0 -739857.90071177855 1682744.7891470939 0 0 0 0 740124.99449330382 -1120207.9069824219 0 -1120207.9069824219 2841438.162361145 0 0 0 0 1937042.507922411 -3300641.8235206604 0 -3300641.8235206604 -28816.858673095703 0 0 0 0 -1099.4214871986267 -1925511.5099563599 0 -1925511.5099563599 4909968.199798584 0 0 0 0 2142729.6011977447 -2984032.176071167 0 -2984032.176071167 1838978.2409667969 0 0 0 0 1341138.9427262782 -1443206.5319671631 0 -1443206.5319671631 3568977.0577087402 0 0 0 0 -107647.79241769496 241053.38575509191 0 241053.38575509191 -219065.37043240666 0 0 0 0 528431.72952191229 -2477431.4794139862 0 -2477431.4794139862 3532645.3473510742 0 0 0 0 -601004.13702981372 -183485.07375713438 0 -183485.07375713438 1675548.3971399888 0 0 0 0 -922.24931122549015 -181242.45481109619 0 -181242.45481109619 1013568.2391052246 0 0 0 0 266532.20695187151 -953993.34280776978 0 -953993.34280776978 1791262.7507705688 0 0 0 0 687839.66627212812 -730404.47412511334 0 -730404.47412511334 639802.97429832816 0 0 0 0 64392111.520246685 32354673.439682007 0 32354673.439682007 -69712.809751033783 0 0 0 0 1002280.3684145098 -1298623.1770924181 0 -1298623.1770924181 1209847.0817171559 0 0 0 0 -3694464.9096083641 -7052819.4391784668 0 -7052819.4391784668 -525643.56239891052 0 0 0 0 -14098117.719346046 -1507576.1007080078 0 -1507576.1007080078 9551520.2320785522 0 0 0 0 -12743019.712000847 -5062648.3347625732 0 -5062648.3347625732 6307070.8503417969 0 0 0 0 6398.0099075920025 -25838034.539901733 0 -25838034.539901733 125648804.1584549 0 0 0 0 16682586.664801182 -40465995.257364273 0 -40465995.257364273 -50698513.091270447 0 0 0 0 -14506.546407201298 -134564.69997087866 0 -134564.69997087866 444188.89547760785 0 0 0 0 -59524025.502376378 57906842.036605835 0 57906842.036605835 293898515.24812317 0 0 0 0 72986752.305929363 -101854860.07509422 0 -101854860.07509422 304495150.57331848 0 0 0 0 67451449.180269122 47414222.790390015 0 47414222.790390015 -8962802.4695281982 0 0 0 0 -28610.445583654204 -247488.40782526135 0 -247488.40782526135 947876.04312299192 0 0 0 0 -11712225.071696877 -81055518.116081238 0 -81055518.116081238 2132868.4809703827 0 0 0 0 -72646506.788709253 -172920065.76855373 0 -172920065.76855373 -130699537.30250549 0 0 0 0 -129802114.18375736 55930319.625013947 0 55930319.625013947 353730333.5622406 0 0 0 0 -134300620.38485426 -178238587.26164246 0 -178238587.26164246 -38577185.746347427 0 0 0 0 160805584.27756795 8208720.0785369873 0 8208720.0785369873 -151922438.13459873 0 0 0 0 9816678.5425266586 98181794.161659241 0 98181794.161659241 165367102.7348175 0 0 0 0 -11672815.761434602 -11592946.281554222 0 -11592946.281554222 16264149.662063599 0 0 0 0 -36428535.727971926 -23364286.187711716 0 -23364286.187711716 88538991.295501709 0 0 0 0 -1813426.507590638 53983681.248607635 0 53983681.248607635 53861612.943130493 0 0 0 0 -13821104.365122981 -31007.831130981445 0 -31007.831130981445 10122393.039703369 0 0 0 0 -89198.473153042098 253831.3935505799 0 253831.3935505799 101344.39600244164 0 0 0 0 6291442.0751994476 4154142.7236022949 0 4154142.7236022949 6653523.1736450195 0 0 0 0 4341983.6668735892 -3894799.4976959229 0 -3894799.4976959229 17486068.285369873 0 0 0 0 -9549279.7483576089 6621358.1921386719 0 6621358.1921386719 13025176.895294189 0 0 0 0 -2817632.5181714743 9041696.0498657227 0 9041696.0498657227 12487995.224212646 0 0 0 0 -4702992.2427791134 -2857465.0982437134 0 -2857465.0982437134 -844992.95004272461 0 0 0 0 -649652.29329036176 2866452.1733856201 0 2866452.1733856201 5430568.3393783569 0 0 0 0 -2460057.6607457586 -387227.7341003418 0 -387227.7341003418 6266429.6977539062 0 0 0 0 3097599.9333504885 174557.92425537109 0 174557.92425537109 1263862.3716430664 0 0 0 0 2671787.1289848611 413780.19599151611 0 413780.19599151611 5803604.9513549805 0 0 0 0 5599909.1737984493 775140.73254394531 0 775140.73254394531 1041576.244140625 0 0 0 0 4127707.3512289906 3917818.4322357178 0 3917818.4322357178 7545111.2222671509 0 0 0 0 5558500.4024425643 2728531.1446990967 0 2728531.1446990967 3764274.3906097412 0 0 0 0 5606.0716917566906 2220067.3912696838 0 2220067.3912696838 25690326.873405457 0 0 0 0 -439721.19923290703 -7398613.597076416 0 -7398613.597076416 7046072.5230293274 0 0 0 0 -3018615.1684515034 -3302601.4281768799 0 -3302601.4281768799 55821455.022003174 0 0 0 0 1834095.876489291 1045066.0146484375 0 1045066.0146484375 21592888.189849854 0 0 0 0 2351740.1950823925 -6847768.3507919312 0 -6847768.3507919312 54855771.133608252 0 0 0 0 -16199361.894530036 -37828501.438903809 0 -37828501.438903809 42431394.15435791 0 0 0 0 359299.61509864777 -9866056.3945236206 0 -9866056.3945236206 54860524.259490967 0 0 0 0 13349777.655562453 -4527588.0115203857 0 -4527588.0115203857 13882268.051673889 0 0 0 0 46858197.896235973 -28851019.823989868 0 -28851019.823989868 -16349971.239135742 0 0 0 0 52161188.699251078 62483000.031204224 0 62483000.031204224 63003125.778656006 0 0 0 0 -122366.26782563355 109084.32575647719 0 109084.32575647719 177736.42536117136 0 0 0 0 30584301.871455487 48356147.593473434 0 48356147.593473434 36442901.516174316 0 0 0 0 10832124.024081871 25674899.159225464 0 25674899.159225464 26612452.083961487 0 0 0 0 25443095.861549102 13524626.718078613 0 13524626.718078613 -3656821.7609710693 0 0 0 0 34371414.972876757 31639378.313159943 0 31639378.313159943 15440841.778381348 0 0 0 0 -1632257.4813059941 48884627.569137573 0 48884627.569137573 87112629.904403687 0 0 0 0 3881096.4584267288 35486843.415130615 0 35486843.415130615 44413708.323516846 0 0 0 0 13710925.845118795 29491910.22693634 0 29491910.22693634 26000745.460571289 0 0 0 0 -12041475.781149417 26355642.695701599 0 26355642.695701599 60932073.592407227 0 0 0 0 -12096268.767137401 27126433.419067383 0 27126433.419067383 55017859.948036194 0 0 0 0 -3259460.5786411762 14965607.883041382 0 14965607.883041382 24617654.370391846 0 0 0 0 139020.65731848404 15260175.603973389 0 15260175.603973389 17583697.103942871 0 0 0 0 -400993.99755002558 21934925.559402466 0 21934925.559402466 38443614.158638 0 0 0 0 4384358.6617479697 13084714.643573761 0 13084714.643573761 18533244.176879883 0 0 0 0 908320.52954404801 5772083.4704437256 0 5772083.4704437256 8070760.4270324707 0 0 0 0 948277.92756380141 5781445.915222168 0 5781445.915222168 9453974.5065917969 0 0 0 0 -511213.71715501696 12093990.085128784 0 12093990.085128784 25265339.841758728 0 0 0 0 -24202992.223607879 -8334533.099647522 0 -8334533.099647522 15358878.539611816 0 0 0 0 10041921.952748664 54238706.15284729 0 54238706.15284729 -9982155.0962233543 0 0 0 0 -447400.64625469735 479156.29431597702 0 479156.29431597702 441384.38387030363 0 0 0 0 -16810805.003263161 2462789.5264282227 0 2462789.5264282227 11165929.977630615 0 0 0 0 -81007.016866981983 -4513940.0328826904 0 -4513940.0328826904 5390659.5617675781 0 0 0 0 -10490172.315313056 -3582479.5360946655 0 -3582479.5360946655 -2028927.3573684692 0 0 0 0 -1092402.2369959217 1580323.2213324839 0 1580323.2213324839 755900.24595351517 0 0 0 0 5301394.4281409234 12365798.756416321 0 12365798.756416321 -8887206.9219360352 0 0 0 0 -2296051.0790212089 5747936.6813049316 0 5747936.6813049316 -3695969.5116577148 0 0 0 0 -1690379.4667190164 -3141874.5316162109 0 -3141874.5316162109 -5659727.7614707947 0 0 0 0 -2305887.0481173769 4929664.1356716156 0 4929664.1356716156 9713477.3734436035 0 0 0 0 -3778049.7483778149 6752751.9597358704 0 6752751.9597358704 8657784.3866577148 0 0 0 0 -4329600.9924997091 -2491860.3163604736 0 -2491860.3163604736 1769767.2013092041 0 0 0 0 -2247511.0569592821 2610443.4680545591 0 2610443.4680545591 1270450.4301063002 0 0 0 0 -8193615.6723089218 -2552324.5384597778 0 -2552324.5384597778 16838164.074897766 0 0 0 0 30153.190951883793 103881.80870819092 0 103881.80870819092 -10017013.078536987 0 0 0 0 -6889785.3627219088 1553394.3169059753 0 1553394.3169059753 4895857.7080993652 0 0 0 0 -1813521.4543757248 995944.12191841751 0 995944.12191841751 2138999.1915200651 0 0 0 0 -771836.1945865592 826773.38765369216 0 826773.38765369216 2219186.0612193942 0 0 0 0 -3864285.191433534 -1297993.0079956055 0 -1297993.0079956055 -5156308.0679321289 0 0 0 0 -2527288.0478729391 1600913.2119687535 0 1600913.2119687535 2879348.0325859636 0 0 0 0 -1544143.9796727598 402620.13906860352 0 402620.13906860352 2623309.5281982422 0 0 0 0 -1921174.2860633056 1898871.7436131248 0 1898871.7436131248 2096405.1347769126 0 0 0 0 -1840251.4600927043 514375.78845711052 0 514375.78845711052 2155123.8610385116 0 0 0 0 -1415777.1262779236 66072.316635131836 0 66072.316635131836 2047832.0783081055 0 0 0 0 -2447566.5445971075 326868.68085709214 0 326868.68085709214 4063714.7515852889 0 0 0 0 -863366.33290171623 -914039.20445251465 0 -914039.20445251465 1622418.8053283691 0 0 0 0 -881409.35814024042 -1211478.5130157471 0 -1211478.5130157471 4151512.2775616646 0 0 0 0 9226.6099053188627 -418084.19026432186 0 -418084.19026432186 2801546.6920864028 0 0 0 0 -479909.31258615269 106552.04524230957 0 106552.04524230957 4355224.1438221931 0 0 0 0 -76443.205449109286 481856.24377346039 0 481856.24377346039 3559541.4173583984 0 0 0 0 -324501.55055862229 1000988.5347307706 0 1000988.5347307706 364451.57541482151 0 0 0 0 -598931.857667187 84340.407897897065 0 84340.407897897065 1167414.5939703137 0 0 0 0 -3141565.8160774484 3492783.0454101562 0 3492783.0454101562 1676613.4055023193 0 0 0 0 -276622.29414340324 -156423.91833496094 0 -156423.91833496094 3518921.815486908 0 0 0 0 -536404.04986434942 405889.93759155273 0 405889.93759155273 3469644.2991027832 0 0 0 0 1645743.2077757493 3365881.5286636353 0 3365881.5286636353 172589.66247558594 0 0 0 0 965256.30350422487 1999986.458946228 0 1999986.458946228 -2127241.9403991699 0 0 0 0 -417.93533280045312 544667.40740203857 0 544667.40740203857 3350222.6478729248 0 0 0 0 -1444630.6535262768 1790059.853302002 0 1790059.853302002 4723049.3136234283 0 0 0 0 -1468517.08687797 -998175.40521240234 0 -998175.40521240234 2502912.2573394775 0 0 0 0 -140985.40013658159 39298.293157629669 0 39298.293157629669 317666.95102914423 0 0 0 0 3073038.9213561863 872027.72109985352 0 872027.72109985352 1037864.4267406464 0 0 0 0 4923.7716426407833 -223586.62005742639 0 -223586.62005742639 2292457.5515541751 0 0 0 0 -690121.13236272405 234010.28137207031 0 234010.28137207031 4706610.8732299805 0 0 0 0 -64598.025502602628 176785.56840133667 0 176785.56840133667 3569794.9489746094 0 0 0 0 40386.212503599003 -2356150.7793426514 0 -2356150.7793426514 2310164.9486954212 0 0 0 0 -419.68142448634217 -2467503.3271942139 0 -2467503.3271942139 2613752.800567627 0 0 0 0 -1249067.5389207611 -1628094.0589370728 0 -1628094.0589370728 3695589.9617462158 0 0 0 0 249009.21332203923 -1782519.0678901672 0 -1782519.0678901672 3172356.1443786621 0 0 0 0 -1227432.603092676 -2440764.3829498291 0 -2440764.3829498291 2904899.4850997925 0 0 0 0 -1099779.0930598904 -1623663.4372167587 0 -1623663.4372167587 3530040.4679870605 0 0 0 0 -116174.22278490337 -2744006.2653121948 0 -2744006.2653121948 2631862.0224761963 0 0 0 0 -3296856.7546072844 -1773073.9045295715 0 -1773073.9045295715 3526038.2042236328 0 0 0 0 -1838339.8439033856 -3655739.8679008484 0 -3655739.8679008484 2469862.9519042969 0 0 0 0 1010.4135152919514 -2549871.2182388306 0 -2549871.2182388306 2522383.2495574951 0 0 0 0 -124606.5226483955 -2543662.6319351196 0 -2543662.6319351196 2567251.7288208008 0 0 0 0 265848.41708719591 -1320817.7217559814 0 -1320817.7217559814 4879154.99659729 0 0 0 0 -1844930.9978770725 -4853649.7912406921 0 -4853649.7912406921 1402576.9647521973 0 0 0 0 658122.73917978117 -2483588.107170105 0 -2483588.107170105 1915885.1902561188 0 0 0 0 -927849.80929031316 -1613080.3496017456 0 -1613080.3496017456 14290862.187044144 0 0 0 0 588600.98793032952 -389309.48542022705 0 -389309.48542022705 4239446.2719116211 0 0 0 0 -102.12078213862669 -2348323.4887099708 0 -2348323.4887099708 5765134.6104736328 0 0 0 0 -258686.67800128832 -384224.64376831055 0 -384224.64376831055 9973755.2013816833 0 0 0 0 -14814370.035545349 -10325691.453781128 0 -10325691.453781128 4993446.6729736328 0 0 0 0 -6805789.928719759 -2359951.0323143005 0 -2359951.0323143005 5347918.1537475586 0 0 0 0 -30103.435357958711 -1794522.6243084227 0 -1794522.6243084227 3976549.9616062716 0 0 0 0 -21421947.631909847 -10993213.605773926 0 -10993213.605773926 5952580.3686828613 0 0 0 0 -10018274.290744612 -9079720.2877960205 0 -9079720.2877960205 8665207.0501394272 0 0 0 0 -12647317.725415707 -10705223.541152954 0 -10705223.541152954 -969024.89157867432 0 0 0 0 -17335175.792034149 1971447.8295822144 0 1971447.8295822144 6616769.626739502 0 0 0 0 -5241950.67665416 -4669739.7736120224 0 -4669739.7736120224 9152589.3885498047 0 0 0 0 -5044391.1598148346 10757287.915557861 0 10757287.915557861 25936532.453674316 0 0 0 0 -41877972.465669632 -16941856.033058167 0 -16941856.033058167 16045371.246704102 0 0 0 0 -6136481.195486079 -3682996.1637878418 0 -3682996.1637878418 4184220.4943847656 0 0 0 0 -261110.77223280494 -1708112.2569356696 0 -1708112.2569356696 4607922.2962379307 0 0 0 0 5992253.1191627979 -20451906.077674866 0 -20451906.077674866 -3443302.4562988281 0 0 0 0 -6577407.0464100838 -951992.60190582275 0 -951992.60190582275 5611236.6376137733 0 0 0 0 -964640.67267141631 1582689.1010175277 0 1582689.1010175277 559431.76189397275 0 0 0 0 -25869020.973268032 22055295.140075684 0 22055295.140075684 20452291.208862305 0 0 0 0 -84606.935826301575 5155376.3369750977 0 5155376.3369750977 -2721755.3070852757 0 0 0 0 -836924.17162461218 -1084003.0681402753 0 -1084003.0681402753 5262097.6526814103 0 0 0 0 -1587387.921932329 17859.291881807148 0 17859.291881807148 2919841.4657365456 0 0 0 0 -6958265.7123550773 1329002.9113893509 0 1329002.9113893509 17670156.451568604 0 0 0 0 -2692593.5732541084 9971466.9852142334 0 9971466.9852142334 26193480.602493286 0 0 0 0 -133445.72818907676 91963.328521959484 0 91963.328521959484 538453.45300307125 0 0 0 0 4029037.5157265663 3182402.5820388794 0 3182402.5820388794 7176076.3551464081 0 0 0 0 -3093609.6330537796 -15271170.207122803 0 -15271170.207122803 4387007.215970993 0 0 0 0 -375826.19921040535 -5983532.9941186905 0 -5983532.9941186905 19656919.757781982 0 0 0 0 2273314.9292240143 -6026366.069984436 0 -6026366.069984436 19027049.746681213 0 0 0 0 3067882.3761124611 1125777.231880188 0 1125777.231880188 23953490.658454895 0 0 0 0 1450485.1433630586 20831256.512458801 0 20831256.512458801 36960155.032989502 0 0 0 0 -6462334.8907329738 3632609.9578795433 0 3632609.9578795433 35878307.416046143 0 0 0 0 6189805.5368351936 -4150049.4564361572 0 -4150049.4564361572 12347606.158630371 0 0 0 0 -9916406.6677479744 -1510553.7951660156 0 -1510553.7951660156 11975731.699966431 0 0 0 0 7767232.2989358008 8956786.9607553482 0 8956786.9607553482 6131786.6158599854 0 0 0 0 -6207187.3842191696 13163300.258262634 0 13163300.258262634 7160886.2146472931 0 0 0 0 -18573807.822963238 12827331.099048615 0 12827331.099048615 31545641.676452637 0 0 0 0 -4485235.2819225788 16266298.136627197 0 16266298.136627197 12237538.500930786 0 0 0 0 -23890318.861813068 -2580218.1289024353 0 -2580218.1289024353 11917421.742660522 0 0 0 0 -1689267.4490218163 7160590.6456336975 0 7160590.6456336975 14637724.625900269 0 0 0 0 19828040.834499836 37724032.252456665 0 37724032.252456665 -17211622.058935165 0 0 0 0 4455372.5141413212 62471143.136367798 0 62471143.136367798 -23176193.472351074 0 0 0 0 13896520.117494345 120350483.61771393 0 120350483.61771393 90187263.6667099 0 0 0 0 130604.41191506386 56079372.119606018 0 56079372.119606018 41306760.480895996 0 0 0 0 -4434486.7242414597 32002384.309140876 0 32002384.309140876 2481047.8079071045 0 0 0 0 10040941.077023983 -4497357.0367126465 0 -4497357.0367126465 -13529850.012750626 0 0 0 0 13137482.82513845 31947218.745353699 0 31947218.745353699 -19269826.476654053 0 0 0 0 -25633980.57060796 -58468938.591880798 0 -58468938.591880798 -79675654.813568115 0 0 0 0 58831209.300780296 33890118.315193176 0 33890118.315193176 -137025954.11392212 0 0 0 0 11318629.986925364 -7570011.4410934448 0 -7570011.4410934448 -19367177.570175171 0 0 0 0 -35436603.417277217 -19222799.394233704 0 -19222799.394233704 12679343.919525146 0 0 0 0 -6874509.3859335184 -8630171.746307373 0 -8630171.746307373 14440084.992935181 0 0 0 0 3162531.4043622017 2387863.2437362671 0 2387863.2437362671 1623408.1775512695 0 0 0 0 1900703.2186393738 -788115.40072631836 0 -788115.40072631836 30305648.81968689 0 0 0 0 -2783960.9369814396 -13871634.933906555 0 -13871634.933906555 17664549.680152893 0 0 0 0 -7092717.672709018 -1334115.1990509033 0 -1334115.1990509033 28559364.700134277 0 0 0 0 6659102.2741001844 -4842790.9799156189 0 -4842790.9799156189 28998778.601821899 0 0 0 0 -4531884.8907702118 11146833.217838287 0 11146833.217838287 9189725.9230651855 0 0 0 0 5150623.3556677997 19102761.293251038 0 19102761.293251038 18925951.246673584 0 0 0 0 1047308.2623615861 11384047.463546753 0 11384047.463546753 9151699.6248321533 0 0 0 0 14840939.146719694 8904267.0758056641 0 8904267.0758056641 4157498.6621723175 0 0 0 0 -5582127.23554039 10697876.668556213 0 10697876.668556213 4321611.3319091797 0 0 0 0 2911372.1587818488 5595026.507273674 0 5595026.507273674 18893219.68598938 0 0 0 0 8195706.6684301794 8577154.6516685486 0 8577154.6516685486 -15618217.19443512 0 0 0 0 -803235.12530387833 2967017.4040678218 0 2967017.4040678218 1835280.051596255 0 0 0 0 -6477411.2421108484 -6810794.8952445984 0 -6810794.8952445984 45149172.698738098 0 0 0 0 -1517606.5993984889 2842945.0734786168 0 2842945.0734786168 1237697.2856301148 0 0 0 0 572224.12897124887 -6736408.1897735596 0 -6736408.1897735596 -2172832.5183410645 0 0 0 0 -3939078.870018959 -1823356.8964538574 0 -1823356.8964538574 29442076.499275208 0 0 0 0 7239528.9337691665 4695074.6999664307 0 4695074.6999664307 -20839355.914912224 0 0 0 0 -6837349.1764886975 -3318337.938873291 0 -3318337.938873291 -126408.04457092285 0 0 0 0 4486413.5916790962 1060633.8529052734 0 1060633.8529052734 -194904.49262332916 0 0 0 0 -4255895.684856236 -3022207.4820632935 0 -3022207.4820632935 18518650.328735352 0 0 0 0 7208810.0059599578 4653219.8932037354 0 4653219.8932037354 1975212.9402580261 0 0 0 0 -673618.07872888446 706578.61167907715 0 706578.61167907715 21309428.427047729 0 0 0 0 12436728.965802461 1006460.2414321899 0 1006460.2414321899 21316287.61541748 0 0 0 0 -2384002.0369583704 -3324742.8539972305 0 -3324742.8539972305 44686150.964782715 0 0 0 0 -1485002.5383997485 4369086.7945680618 0 4369086.7945680618 40511470.354949951 0 0 0 0 9952624.999756217 -5684829.4118347168 0 -5684829.4118347168 45017066.623878479 0 0 0 0 559693.80726748705 6733215.4822998047 0 6733215.4822998047 22002546.215778351 0 0 0 0 -2788117.3716990948 5054794.2963142395 0 5054794.2963142395 31311969.917694092 0 0 0 0 -6253135.9385032058 6652424.8986816406 0 6652424.8986816406 45063361.481922626 0 0 0 0 -5029423.5788079649 17744749.875928879 0 17744749.875928879 40841038.330413818 0 0 0 0 -17713006.824072041 21602706.376403809 0 21602706.376403809 74496577.308639526 0 0 0 0 -10474184.768684268 12368609.52973938 0 12368609.52973938 47449929.032028198 0 0 0 0 -10931959.654915184 11938884.558864594 0 11938884.558864594 66077650.650299072 0 0 0 0 -18494417.437431633 18401158.598190308 0 18401158.598190308 65251277.780082703 0 0 0 0 -4176578.9125553071 9655515.7372589111 0 9655515.7372589111 70164160.768928528 0 0 0 0 -5163788.6658865511 255420.29623413086 0 255420.29623413086 75250593.674957275 0 0 0 0 -15025729.456065759 10495405.747528076 0 10495405.747528076 82747187.481185913 0 0 0 0 -4749887.9066732638 14978689.032401085 0 14978689.032401085 109260128.3838501 0 0 0 0 42095216.624342203 -6154424.9804534912 0 -6154424.9804534912 28919048.091445923 0 0 0 0 -9440396.4022743106 824117.66457366943 0 824117.66457366943 142416091.73977661 0 0 0 0 19637136.155922353 -31464638.071456909 0 -31464638.071456909 109611908.72121429 0 0 0 0 20874266.186144531 -17769407.637893677 0 -17769407.637893677 61799898.096618652 0 0 0 0 2682356.6745265424 13500404.568431854 0 13500404.568431854 24681090.744316101 0 0 0 0 -15714468.657415211 -71336450.323455811 0 -71336450.323455811 -8662172.3593673706 0 0 0 0 5382998.6899719834 14863231.447784424 0 14863231.447784424 35306949.676254272 0 0 0 0 3344026.7344327867 8384876.3417320251 0 8384876.3417320251 21253223.222671509 0 0 0 0 26840698.118113697 10877652.925140381 0 10877652.925140381 19868677.672531128 0 0 0 0 11475213.514216304 -6743883.771697998 0 -6743883.771697998 40903995.304260254 0 0 0 0 7758985.7440418974 2012826.7125873566 0 2012826.7125873566 48855118.989562988 0 0 0 0 -4127344.2088075727 4486264.9532318115 0 4486264.9532318115 10755679.779510498 0 0 0 0 -1884102.3961675465 5266284.2291183472 0 5266284.2291183472 9938822.6066131592 0 0 0 0 -3218873.5427781045 13797953.83184433 0 13797953.83184433 24424095.69493103 0 0 0 0 -9770056.3062025309 7271726.7520446777 0 7271726.7520446777 17956578.662912369 0 0 0 0 -7733339.9097574353 -6040866.995059967 0 -6040866.995059967 3024690.4491119385 0 0 0 0 40179.663850385667 70313.567658595741 0 70313.567658595741 518722.07178934664 0 0 0 0 -18721553.831497788 -956810.92823028564 0 -956810.92823028564 25274798.180739403 0 0 0 0 -1810343.716027081 1559829.7151565552 0 1559829.7151565552 11583195.880847931 0 0 0 0 -17377.262677682738 286095.53638355434 0 286095.53638355434 995699.33605216071 0 0 0 0 -1211974.6504331678 1511639.1872615814 0 1511639.1872615814 4799982.6425170898 0 0 0 0 59028278.061795801 53937244.70690918 0 53937244.70690918 136792874.3631897 0 0 0 0 252724533.32284153 210823017.61476898 0 210823017.61476898 175686161.5025177 0 0 0 0 196248642.44564334 215853856.7219162 0 215853856.7219162 326684517.00076294 0 0 0 0 344827441.15478647 286872743.94917297 0 286872743.94917297 238477496.69407654 0 0 0 0 65637.946860259544 233680.81121510919 0 233680.81121510919 335542.99733993411 0 0 0 0 -83035207.392596722 74602632.85710144 0 74602632.85710144 -72886651.661300659 0 0 0 0 313100.49343228078 -77217.728832378983 0 -77217.728832378983 55398.985481804237 0 0 0 0 90388578.909560576 325233073.27852345 0 325233073.27852345 -476641548.72067261 0 0 0 0 -68631265.193671227 50139296.202526093 0 50139296.202526093 -31874984.751785278 0 0 0 0 777073.44832684437 2696220.7981804111 0 2696220.7981804111 1707508.3328315318 0 0 0 0 29197412.835165501 198201080.61097336 0 198201080.61097336 172057500.39581299 0 0 0 0 4509570.0523235798 222581663.04797363 0 222581663.04797363 623076826.70541382 0 0 0 0 85522.064718693495 3930507.2862701416 0 3930507.2862701416 7149734.3731994629 0 0 0 0 328130.24655966461 4102228.3215942383 0 4102228.3215942383 7091149.53125 0 0 0 0 -102801.60468456149 4281844.3290023804 0 4281844.3290023804 7551178.8295288086 0 0 0 0 -697791.31661403179 3819628.8768310547 0 3819628.8768310547 7335408.8406524658 0 0 0 0 1647502.2050651722 7077481.6746082958 0 7077481.6746082958 2233090.0901113749 0 0 0 0 260766.95734497905 6203793.8289260864 0 6203793.8289260864 6802529.1340827942 0 0 0 0 2979260.1812205166 9287104.018951416 0 9287104.018951416 9885136.2982711792 0 0 0 0 -86353308.790290117 -30267850.22151947 0 -30267850.22151947 14977345.104095459 0 0 0 0 114215958.58268821 117140349.42363739 0 117140349.42363739 133199434.6192627 0 0 0 0 294836499.03153563 298946788.70983887 0 298946788.70983887 237158878.96679688 0 0 0 0 73858973.279365063 -7105098.3264160156 0 -7105098.3264160156 135817000.11572266 0 0 0 0 21497005.902933121 -151970736.43991089 0 -151970736.43991089 31074640.114074707 0 0 0 0 409541312.13201189 60404163.206283569 0 60404163.206283569 -230113333.96560669 0 0 0 0 -52431992.928035736 -753649.94961547852 0 -753649.94961547852 100037321.67431641 0 0 0 0 87229593.851327538 -24424274.685401917 0 -24424274.685401917 -83976972.029434204 0 0 0 0 62019835.268947899 36420844.938659668 0 36420844.938659668 58285350.688598633 0 0 0 0 1913770.867844034 476388.14295069873 0 476388.14295069873 -3072990.862015672 0 0 0 0 -1215812.5318130851 41293458.432037354 0 41293458.432037354 -109048432.67684937 0 0 0 0 16235361.32465744 6924432.1165504456 0 6924432.1165504456 -57440164.441619873 0 0 0 0 3147605.7182820323 9365381.0979637858 0 9365381.0979637858 1236529.9649430886 0 0 0 0 -479167.36081029405 4841876.8761462085 0 4841876.8761462085 10706823.977614837 0 0 0 0 -21479.145180583 9015146.8786697388 0 9015146.8786697388 -5404336.1404175758 0 0 0 0 629920.53706072096 3834096.8539011776 0 3834096.8539011776 6766896.212967881 0 0 0 0 -5882390.6144380569 8328093.8035583496 0 8328093.8035583496 34561978.159716606 0 0 0 0 -777745.44515886903 9525146.8609809875 0 9525146.8609809875 14085883.587562561 0 0 0 0 3083237.4304806413 12700964.538211107 0 12700964.538211107 4499529.8339744359 0 0 0 0 -1572061.4238566756 8139565.8125228882 0 8139565.8125228882 12108558.964233398 0 0 0 0 697875.70262858272 7958330.3948745728 0 7958330.3948745728 9974299.1661270857 0 0 0 0 -2326778.2606624067 14676899.19405365 0 14676899.19405365 16636167.317958832 0 0 0 0 -1296513.1231697462 10645921.873120785 0 10645921.873120785 10076408.929321289 0 0 0 0 -96633.300570212334 3157009.8553533591 0 3157009.8553533591 3389620.2001352389 0 0 0 0 -11751435.474128723 4961582.4308013916 0 4961582.4308013916 53888863.417385578 0 0 0 0 929238.813290447 12863419.604682922 0 12863419.604682922 3455723.9845738411 0 0 0 0 -989840.80267706513 -1901744.9083251953 0 -1901744.9083251953 35702776.758651733 0 0 0 0 -18415374.777898192 12574429.778594971 0 12574429.778594971 28689566.159362793 0 0 0 0 -2494833.0408793688 14490023.586055756 0 14490023.586055756 26397376.952972412 0 0 0 0 2761729.2763074934 10525682.94569397 0 10525682.94569397 21996217.097686768 0 0 0 0 -4261590.067434907 7029280.6145095825 0 7029280.6145095825 20255654.999130249 0 0 0 0 -2747132.6149674058 20408107.873901367 0 20408107.873901367 14034371.739273071 0 0 0 0 -2867876.2942091152 16192691.955596924 0 16192691.955596924 11300613.505981445 0 0 0 0 -1286846.3371334185 1660363.5828670245 0 1660363.5828670245 2197267.1328751668 0 0 0 0 -26052214.412408829 37171407.301574707 0 37171407.301574707 8649660.8265838623 0 0 0 0 1881546.0626314962 7946569.7566381376 0 7946569.7566381376 15842435.380229902 0 0 0 0 -4326476.7855046242 13474000.825424194 0 13474000.825424194 23137172.998596191 0 0 0 0 -8154147.404747963 20933723.582977295 0 20933723.582977295 16529709.621643066 0 0 0 0 -43267157.418742239 5240370.2823028564 0 5240370.2823028564 35670194.9766922 0 0 0 0 -25891898.218278795 -18066545.584457397 0 -18066545.584457397 -6633359.793762207 0 0 0 0 -82543500.208718896 -41453521.39881897 0 -41453521.39881897 9500056.9034729004 0 0 0 0 -37410279.657968134 -48608502.396011353 0 -48608502.396011353 -186453921.22819519 0 0 0 0 -72595209.678051859 1412423.1538448334 0 1412423.1538448334 13887254.680786133 0 0 0 0 -3242192.7126222085 -1013704.2228103951 0 -1013704.2228103951 4832437.7794145718 0 0 0 0 -39145130.778799057 -19965260.789306641 0 -19965260.789306641 33097233.048225403 0 0 0 0 -1676304.2186374215 -2108517.6165589914 0 -2108517.6165589914 20227989.753439821 0 0 0 0 -51073345.236640967 -125623296.02691936 0 -125623296.02691936 -153713166.10108948 0 0 0 0 16552380.664556563 -144739050.15252686 0 -144739050.15252686 -151706679.66519165 0 0 0 0 -116238428.21765013 -44816342.191879272 0 -44816342.191879272 -87934847.064163208 0 0 0 0 99516219.178493142 36318727.877742767 0 36318727.877742767 -71263699.287826538 0 0 0 0 -59684908.825964332 18773607.32950592 0 18773607.32950592 -58235301.68258667 0 0 0 0 68345906.871629715 -67415152.451553345 0 -67415152.451553345 -183662822.79518127 0 0 0 0 -50105254.380889893 -1805551.9041309357 0 -1805551.9041309357 105610231.68057251 0 0 0 0 -22142293.389744759 -39183260.839920044 0 -39183260.839920044 155562339.31948853 0 0 0 0 -98130038.855649948 106395185.20437622 0 106395185.20437622 88098336.669754028 0 0 0 0 307815.39274885214 1580226.2971163655 0 1580226.2971163655 468279.27733796835 0 0 0 0 -68736204.921370745 16212868.299137115 0 16212868.299137115 296585998.99723816 0 0 0 0 -1722036.9381873633 -2881472.3685276844 0 -2881472.3685276844 21621065.955597602 0 0 0 0 -28069333.208943427 -90433943.588682652 0 -90433943.588682652 250869208.22848511 0 0 0 0 63903244.820352554 -241085825.68307495 0 -241085825.68307495 534215910.00439453 0 0 0 0 78522895.617784023 -91133280.696109772 0 -91133280.696109772 103571761.87556458 0 0 0 0 159081017.5092864 52147198.922718048 0 52147198.922718048 -220192591.24253845 0 0 0 0 -38941438.452041179 -15997302.554144382 0 -15997302.554144382 61839213.395065308 0 0 0 0 422833.32863068581 -25519259.963459015 0 -25519259.963459015 97297709.91872406 0 0 0 0 30877745.164409161 -20888841.002656937 0 -20888841.002656937 5480745.984161377 0 0 0 0 16188572.287688732 9037735.5086421967 0 9037735.5086421967 2045871.6810913086 0 0 0 0 3672231.2211828232 26969245.04397583 0 26969245.04397583 15859724.771009445 0 0 0 0 -12269020.863910198 15270027.153553009 0 15270027.153553009 13481069.810005188 0 0 0 0 1499409.2741642834 7508207.3049410516 0 7508207.3049410516 802477.08508399874 0 0 0 0 31467829.486916542 28266724.368289948 0 28266724.368289948 -15875448.523872375 0 0 0 0 -25303136.875848949 44352315.331225395 0 44352315.331225395 65138737.49281311 0 0 0 0 -7263976.3545985222 11971154.798416138 0 11971154.798416138 19951468.981689453 0 0 0 0 825856.25014867657 6610344.7432624698 0 6610344.7432624698 15340593.309660539 0 0 0 0 -8942004.0335509777 12186796.991672516 0 12186796.991672516 25721457.487243652 0 0 0 0 4571186.8928727508 14432470.657762527 0 14432470.657762527 15346762.97088623 0 0 0 0 -78788.805476938724 18455.51513183862 0 18455.51513183862 1107789.1903848238 0 0 0 0 1588566.0593132973 12087650.862297058 0 12087650.862297058 32260530.674194336 0 0 0 0 5324030.8525714874 8803882.8747596741 0 8803882.8747596741 2798488.7669143677 0 0 0 0 -614365.47324892785 976882.62120494246 0 976882.62120494246 9822234.4100389816 0 0 0 0 13446815.087681055 -3961587.2602653503 0 -3961587.2602653503 22384206.942623138 0 0 0 0 5847337.3036880493 11121034.746713638 0 11121034.746713638 42683751.80267334 0 0 0 0 -2623043.1801142693 15759360.883651733 0 15759360.883651733 49318748.496305466 0 0 0 0 6785440.3092706203 3334818.0669136047 0 3334818.0669136047 30466326.599365234 0 0 0 0 -347588.17318806052 403113.12439064682 0 403113.12439064682 4378715.8023643531 0 0 0 0 -9716752.3922579288 -937657.37030410767 0 -937657.37030410767 77848316.865829468 0 0 0 0 -12133902.043358803 44196509.733589172 0 44196509.733589172 106004315.37036896 0 0 0 0 7194700.4772622585 65224512.564304352 0 65224512.564304352 88753299.847610474 0 0 0 0 -349122.99894176051 157353.8122582864 0 157353.8122582864 458011.16155032814 0 0 0 0 -47469222.079010963 -57927981.700099945 0 -57927981.700099945 -3392943.7212610245 0 0 0 0 -38246515.549240112 -17026755.410301208 0 -17026755.410301208 61519807.683769226 0 0 0 0 -28337849.016584873 34332339.378665924 0 34332339.378665924 78899622.079299927 0 0 0 0 -19916644.981410265 36917536.94298172 0 36917536.94298172 78728568.072692871 0 0 0 0 -3260963.3206398487 37202062.816200256 0 37202062.816200256 61600378.851827621 0 0 0 0 4380195.6770069599 53692303.612976074 0 53692303.612976074 72068047.630249023 0 0 0 0 -12787486.31927824 29299136.741905212 0 29299136.741905212 40564227.135042191 0 0 0 0 -28776016.319288969 25373534.495992661 0 25373534.495992661 64217850.282287598 0 0 0 0 -28254266.782291889 22068847.105682373 0 22068847.105682373 76335796.211133957 0 0 0 0 10769205.495696306 29522659.135437012 0 29522659.135437012 60200158.785762787 0 0 0 0 -25872126.027646065 40553749.740859985 0 40553749.740859985 56572544.005001068 0 0 0 0 -23184334.404301181 23075058.975554466 0 23075058.975554466 60025873.199264526 0 0 0 0 -5487188.9091833532 33960014.455783367 0 33960014.455783367 37382944.020729065 0 0 0 0 -7974802.3957002163 23921763.631710052 0 23921763.631710052 49332890.577041626 0 0 0 0 -187637.29684279626 -12199.035079356283 0 -12199.035079356283 1320651.3652828205 0 0 0 0 -3719414.6890313625 10227553.005947113 0 10227553.005947113 9837097.2871170044 0 0 0 0 -9185205.9996795654 20502729.458129883 0 20502729.458129883 66207358.455413818 0 0 0 0 -2988093.5194311142 7105833.6940231323 0 7105833.6940231323 56749955.48551178 0 0 0 0 807361.95847558975 15005838.621414185 0 15005838.621414185 34009423.173233032 0 0 0 0 143434.07664680481 12787323.395042419 0 12787323.395042419 32948598.937324524 0 0 0 0 6895887.9792972505 28650941.06258297 0 28650941.06258297 39618808.283813477 0 0 0 0 -1247338.1386719346 1509669.9228628576 0 1509669.9228628576 6012368.1619723663 0 0 0 0 11256695.181753159 17170445.46787262 0 17170445.46787262 31869307.401245117 0 0 0 0 -1114159.3063059705 2277277.1387427263 0 2277277.1387427263 4892409.4869624674 0 0 0 0 1253079.7635593414 17236393.292602539 0 17236393.292602539 44885367.749313354 0 0 0 0 1436258.6676085915 10425558.078459732 0 10425558.078459732 -3211208.8675832017 0 0 0 0 5233419.418857038 33167058.008943558 0 33167058.008943558 45752208.107124329 0 0 0 0 1036475.3688354492 7700952.2557220459 0 7700952.2557220459 29292983.788551331 0 0 0 0 1473233.4311003685 -2651892.4913330078 0 -2651892.4913330078 -6694829.0424499512 0 0 0 0 -3968755.9654275514 2817223.0409227498 0 2817223.0409227498 18128507.558123633 0 0 0 0 6831407.3728069067 24040424.384483337 0 24040424.384483337 -9068649.0200805664 0 0 0 0 -10462674.463838696 14910495.979522705 0 14910495.979522705 108856615.9862442 0 0 0 0 3321891.2911179438 21813621.013504028 0 21813621.013504028 55579452.497360229 0 0 0 0 13134165.99019587 691316.86259460449 0 691316.86259460449 120739447.71435738 0 0 0 0 -11819699.375194907 42144210.075759888 0 42144210.075759888 61705781.405181885 0 0 0 0 -4936149.8765212893 11537817.789617538 0 11537817.789617538 69876233.875335693 0 0 0 0 -15324460.32656312 29311577.085540771 0 29311577.085540771 117808617.93037415 0 0 0 0 22071799.938706994 48006193.919723511 0 48006193.919723511 54019199.649093628 0 0 0 0 1676103.869242528 10646353.514129478 0 10646353.514129478 7212019.9998778058 0 0 0 0 -1015617.7094678879 23391406.315238953 0 23391406.315238953 -17920813.744422913 0 0 0 0 2502433.7849071622 5342794.8427581787 0 5342794.8427581787 34352285.225585938 0 0 0 0 9264659.9383878708 14591434.812831879 0 14591434.812831879 13096259.411994934 0 0 0 0 -36028042.665220499 48706577.27633667 0 48706577.27633667 61040595.148765564 0 0 0 0 -38253614.546232224 21513771.814605713 0 21513771.814605713 67152345.826087952 0 0 0 0 -891744.15568206646 32569.738490894437 0 32569.738490894437 2224677.8629057482 0 0 0 0 32139237.642752528 52028075.396087646 0 52028075.396087646 -10531018.155395508 0 0 0 0 -20210995.589704901 56118281.560958862 0 56118281.560958862 83561196.209991455 0 0 0 0 2273932.4776309901 10392686.393027075 0 10392686.393027075 6567969.8923732676 0 0 0 0 6425153.7750618458 3559779.576461792 0 3559779.576461792 -42650114.735431671 0 0 0 0 43547475.764207363 -1112252.2930908203 0 -1112252.2930908203 -44688999.507354736 0 0 0 0 7693616.4685361385 10426922.290239334 0 10426922.290239334 18779720.122360229 0 0 0 0 -46228825.054590881 18647254.693946838 0 18647254.693946838 327893037.7784729 0 0 0 0 -21704672.393429518 130474690.2240448 0 130474690.2240448 135427817.55116272 0 0 0 0 32045441.805955172 86101020.562896729 0 86101020.562896729 143561478.98348999 0 0 0 0 19984657.364039898 13734275.100463867 0 13734275.100463867 330431569.33824158 0 0 0 0 5070219.5165557861 6878569.9637756348 0 6878569.9637756348 120913130.48686218 0 0 0 0 50185295.931841969 13823679.770523071 0 13823679.770523071 121899905.43081284 0 0 0 0 1199914.2686607386 427842.48763263226 0 427842.48763263226 1123404.7161020078 0 0 0 0 -15592601.473805875 22753876.997543335 0 22753876.997543335 208262717.58036804 0 0 0 0 -40486385.72485885 -34777972.958515167 0 -34777972.958515167 278470695.43484497 0 0 0 0 165208443.02174222 -130629910.67079926 0 -130629910.67079926 304064473.7701416 0 0 0 0 606839.54387438297 28346.93411923945 0 28346.93411923945 245131.77431771532 0 0 0 0 460597322.49048829 110450149.26203918 0 110450149.26203918 -418785920.26318359 0 0 0 0 -142760295.17577934 -9458999.7556762695 0 -9458999.7556762695 677763950.12536621 0 0 0 0 128245370.4236106 44503231.901145935 0 44503231.901145935 80621910.430923462 0 0 0 0 -171824320.11943531 -26567622.185432434 0 -26567622.185432434 91690224.799446106 0 0 0 0 -101192151.37747446 183021155.16293335 0 183021155.16293335 -161030903.09448242 0 0 0 0 -67010739.084347844 15836918.995986938 0 15836918.995986938 33082084.127716064 0 0 0 0 1424729.4392704733 705853.48284294456 0 705853.48284294456 2491675.8272951506 0 0 0 0 -19316145.485966206 37190868.323982239 0 37190868.323982239 -72618604.933151245 0 0 0 0 -5410691.2596486807 -14184485.895683289 0 -14184485.895683289 154727947.7444458 0 0 0 0 -18581140.414747477 31194207.702285767 0 31194207.702285767 131908848.77122498 0 0 0 0 16236348.072175145 -6341980.3885269165 0 -6341980.3885269165 133751339.60661316 0 0 0 0 13074777.733172119 -53777948.671463013 0 -53777948.671463013 202384206.70004272 0 0 0 0 -66873886.958138585 3304281.5966415405 0 3304281.5966415405 58337488.212646484 0 0 0 0 -31654910.059334278 -17699896.225845337 0 -17699896.225845337 70488896.418495178 0 0 0 0 -30266076.124385595 -7050733.8739547729 0 -7050733.8739547729 48777222.598487854 0 0 0 0 -31916005.454477072 10081021.085166931 0 10081021.085166931 67693096.521087646 0 0 0 0 -26616160.148030281 22831640.91768837 0 22831640.91768837 50840802.415344238 0 0 0 0 -74823168.829039216 35522225.412994385 0 35522225.412994385 26014915.661865234 0 0 0 0 -31653214.28273809 7265773.4462966919 0 7265773.4462966919 20900902.982772827 0 0 0 0 -117555850.71817845 -13372773.41381073 0 -13372773.41381073 136531930.81958008 0 0 0 0 -95537446.722927451 24802939.403938293 0 24802939.403938293 47656612.828529358 0 0 0 0 -72457442.495098293 -72720028.118713379 0 -72720028.118713379 189385298.39242554 0 0 0 0 35994255.29964152 -54382764.194877625 0 -54382764.194877625 92728480.984954834 0 0 0 0 -34762434.148469031 -34273091.66708374 0 -34273091.66708374 96075029.441726685 0 0 0 0 -36639181.121722057 -57726850.347650528 0 -57726850.347650528 96563783.3359375 0 0 0 0 -36062235.967694104 -44588894.480194092 0 -44588894.480194092 65214398.678100586 0 0 0 0 21252166.441607323 -56295247.92931366 0 -56295247.92931366 57008736.479728699 0 0 0 0 -64116793.185141429 -16475079.514406204 0 -16475079.514406204 90941930.941925049 0 0 0 0 -65939348.860608459 -38382140.56552887 0 -38382140.56552887 84943279.28968811 0 0 0 0 -66484315.685860991 -28658128.743339539 0 -28658128.743339539 73522053.651535034 0 0 0 0 -42987840.383408546 -26480381.675971985 0 -26480381.675971985 66074027.422050476 0 0 0 0 -59608938.87033242 -33940618.104873657 0 -33940618.104873657 65002773.063964844 0 0 0 0 -72095454.104677945 -7054428.1112670898 0 -7054428.1112670898 34029558.053344727 0 0 0 0 -29239436.513548374 6896914.7771453857 0 6896914.7771453857 33959291.919250488 0 0 0 0 -27547747.609247252 116449794.75053787 0 116449794.75053787 1434837.1143951416 0 0 0 0 -98178092.425437629 44400040.117324829 0 44400040.117324829 21583045.076217651 0 0 0 0 -33876062.626015067 -1150532.7864990234 0 -1150532.7864990234 1856293.4051818848 0 0 0 0 -72190359.310817555 5812515.2856140137 0 5812515.2856140137 67680312.819335938 0 0 0 0 -30740.113871831891 -35404.716953568161 0 -35404.716953568161 -186087.32671581209 0 0 0 0 -145352088.5549103 138298919.92947006 0 138298919.92947006 3839064.8865509033 0 0 0 0 59080408.584870741 -141805239.98726463 0 -141805239.98726463 -247978433.08314514 0 0 0 0 -249004653.84855577 39952065.915649414 0 39952065.915649414 61094714.758506775 0 0 0 0 -22399202.61568296 70022401.713912964 0 70022401.713912964 -171391219.14469147 0 0 0 0 -108984307.52486342 -122353014.6888504 0 -122353014.6888504 15509296.836242676 0 0 0 0 -320428.01169606741 132577.91279762238 0 132577.91279762238 979658.17263889685 0 0 0 0 -31107605.99758929 137316735.72140503 0 137316735.72140503 -493147104.83309174 0 0 0 0 -38650454.24377954 -3195391.160194397 0 -3195391.160194397 84749966.297119141 0 0 0 0 292078.07538113126 4687391.7070449442 0 4687391.7070449442 2195370.1591112874 0 0 0 0 -1626243.9531425894 -3519241.265560545 0 -3519241.265560545 2983494.9952526838 0 0 0 0 425662.5333647728 145614.31524658203 0 145614.31524658203 14754684.811412811 0 0 0 0 -10173506.771311045 -10234853.001037598 0 -10234853.001037598 66363921.128005981 0 0 0 0 -46215160.980042368 -15508805.802618027 0 -15508805.802618027 78962053.697631836 0 0 0 0 12995460.011897564 32985728.636108398 0 32985728.636108398 77606295.367218018 0 0 0 0 -2884433.6234603198 -2651436.0542723984 0 -2651436.0542723984 4966924.6253479011 0 0 0 0 4014675.7068012357 33934725.986980438 0 33934725.986980438 85073993.824829102 0 0 0 0 -5882429.8538651466 -4760852.7500915527 0 -4760852.7500915527 75982036.457305908 0 0 0 0 -5980255.1503565907 23122171.743441582 0 23122171.743441582 102659917.9405365 0 0 0 0 -964767.98609685898 1686163.6613464355 0 1686163.6613464355 13608206.639305115 0 0 0 0 -1197773.5814365149 2382882.1199970245 0 2382882.1199970245 14742132.813072205 0 0 0 0 203317.92756949482 5174129.1927316636 0 5174129.1927316636 4073401.4773030914 0 0 0 0 -5592969.8945984244 43888754.45541954 0 43888754.45541954 -128093987.53709412 0 0 0 0 -2827782.1226739883 24298857.213241577 0 24298857.213241577 -91823683.522842407 0 0 0 0 -16106147.429271877 20292024.602775574 0 20292024.602775574 -76371093.901092529 0 0 0 0 -68396315.069064975 19764420.814582825 0 19764420.814582825 -70777198.612869263 0 0 0 0 -7073345.5434251651 7546807.5934305191 0 7546807.5934305191 -72637331.83895874 0 0 0 0 -19520779.710742354 30856590.402351379 0 30856590.402351379 -35579045.861083984 0 0 0 0 19051079.064953566 29071003.966152191 0 29071003.966152191 -91925670.344512939 0 0 0 0 13819243.799919605 18456238.657211304 0 18456238.657211304 -31076024.275733948 0 0 0 0 -2900214.6838959455 4540449.322769165 0 4540449.322769165 -1762911.6596450806 0 0 0 0 -4930795.0227686167 38651860.387992859 0 38651860.387992859 10105303.673667908 0 0 0 0 16061272.123903804 35463834.516404152 0 35463834.516404152 7125934.0465087891 0 0 0 0 -12705767.914679766 -37701031.157928467 0 -37701031.157928467 10883222.182209015 0 0 0 0 -18275320.449192733 10468156.843091488 0 10468156.843091488 16495584.198562622 0 0 0 0 -50058193.457985938 39746661.755691528 0 39746661.755691528 -21204385.248645782 0 0 0 0 13111784.696159303 -7909475.3270568848 0 -7909475.3270568848 -11830834.944030762 0 0 0 0 -50370786.062369585 -58127098.24504073 0 -58127098.24504073 -49602605.742446899 0 0 0 0 -147353.71852078248 -112839.95779090375 0 -112839.95779090375 -36324.863428361714 0 0 0 0 -58196148.479062662 66701146.561393738 0 66701146.561393738 -41106804.61126709 0 0 0 0 -36104912.03470394 -41133339.642259598 0 -41133339.642259598 32306592.437744141 0 0 0 0 -167961031.1900318 125901231.77952576 0 125901231.77952576 69322632.933364868 0 0 0 0 -24454157.335101783 84149055.98614502 0 84149055.98614502 -85904937.627075195 0 0 0 0 -153991550.37533212 230926830.5398407 0 230926830.5398407 -32258990.366500854 0 0 0 0 155464839.68037337 -2926069.3669776917 0 -2926069.3669776917 -65944234.419281006 0 0 0 0 10236934.739886016 -12692620.75088501 0 -12692620.75088501 -42585226.60679245 0 0 0 0 -113012615.08517934 -8227083.3083648682 0 -8227083.3083648682 22692240.845001221 0 0 0 0 -4388.9752934598955 -184556.92596121761 0 -184556.92596121761 94674.783313468099 0 0 0 0 -25930.048338013956 -527267.96496973152 0 -527267.96496973152 266362.9489826709 0 0 0 0 114429038.99989665 -28841891.449459076 0 -28841891.449459076 -49125835.363510132 0 0 0 0 26778146.678579673 26723123.832622528 0 26723123.832622528 44837614.877502441 0 0 0 0 11288651.376196556 -20299907.690684319 0 -20299907.690684319 20092855.615509033 0 0 0 0 63889772.802809536 -97780917.181652069 0 -97780917.181652069 -8401359.3524017334 0 0 0 0 -113663976.37665325 -12752116.751584411 0 -12752116.751584411 89120308.091827393 0 0 0 0 50538827.667902216 -101836259.19827271 0 -101836259.19827271 10182372.817260742 0 0 0 0 -62718.884912068977 -720535.07986041857 0 -720535.07986041857 339053.67392446101 0 0 0 0 18708923.521781072 2111010.3734054565 0 2111010.3734054565 719298.21112060547 0 0 0 0 50203681.282159209 -23858189.035842896 0 -23858189.035842896 1889790.2521209717 0 0 0 0 40692645.634005547 -31589401.232284546 0 -31589401.232284546 2198159.8199462891 0 0 0 0 13159435.887707293 -33822139.306671143 0 -33822139.306671143 12085678.045150757 0 0 0 0 -94348.70572003827 -82357.890618368983 0 -82357.890618368983 261010.56944453903 0 0 0 0 183365274.64718699 -111446397.62387466 0 -111446397.62387466 68427605.386886597 0 0 0 0 60701904.174524188 -75430211.730072021 0 -75430211.730072021 -185767834.02327061 0 0 0 0 93261095.256803036 -137636205.82104492 0 -137636205.82104492 12302881.486193419 0 0 0 0 45547765.689044416 -122454058.54310608 0 -122454058.54310608 12712174.744150281 0 0 0 0 169759333.22753012 63197012.329421997 0 63197012.329421997 126493014.94764709 0 0 0 0 56795739.705357552 -174408858.8539505 0 -174408858.8539505 210239177.86878967 0 0 0 0 38709407.764729023 -6647598.9172744751 0 -6647598.9172744751 96489889.557746887 0 0 0 0 39527833.255338609 -14545164.317066193 0 -14545164.317066193 -17900663.326545715 0 0 0 0 -6054981.4738696814 58180456.075798035 0 58180456.075798035 17626791.10483551 0 0 0 0 143153674.47896105 11581176.893508911 0 11581176.893508911 11721102.376670837 0 0 0 0 72270937.254992634 29469011.37663269 0 29469011.37663269 26307760.986816406 0 0 0 0 70753038.965133488 44675616.090843201 0 44675616.090843201 22924085.795928955 0 0 0 0 94840152.426234603 21218106.317817688 0 21218106.317817688 16046885.42889595 0 0 0 0 71492639.53513968 46182444.840934753 0 46182444.840934753 25961764.29133606 0 0 0 0 69158215.463013768 69762184.066474915 0 69762184.066474915 28702854.31477356 0 0 0 0 40317388.414801106 22491012.389865875 0 22491012.389865875 906655.44259643555 0 0 0 0 121092922.07569963 64065146.35458374 0 64065146.35458374 -9449568.8044719696 0 0 0 0 69718099.090783626 56106124.697757721 0 56106124.697757721 55498.149078369141 0 0 0 0 61191432.19010067 8475273.3945465088 0 8475273.3945465088 -11577770.291137695 0 0 0 0 43204121.943659037 22201418.636184692 0 22201418.636184692 -16399018.494613647 0 0 0 0 13892705.314906806 -65315362.854988098 0 -65315362.854988098 10064616.628204346 0 0 0 0 -53610002.206296891 70827817.979454041 0 70827817.979454041 2819773.9428329468 0 0 0 0 -24854625.02835682 59631983.397872925 0 59631983.397872925 -17679100.919605255 0 0 0 0 -10402789.980415627 103556380.06661606 0 103556380.06661606 -64495558.977630615 0 0 0 0 218028.42122495116 228314.61294390261 0 228314.61294390261 -71034.087015122175 0 0 0 0 -7927127.2884811461 -2884562.1005210876 0 -2884562.1005210876 7495790.2939910889 0 0 0 0 69751995.488520876 -4028244.2895965576 0 -4028244.2895965576 -35663883.596603394 0 0 0 0 139901.31830203455 167854.70059419423 0 167854.70059419423 44391.354624524713 0 0 0 0 -163211363.84415799 186340702.85917664 0 186340702.85917664 192743937.83685303 0 0 0 0 188648882.39003563 88683908.157291412 0 88683908.157291412 3199308.7314758301 0 0 0 0 34384379.305865824 16220713.722210884 0 16220713.722210884 -108796670.10545349 0 0 0 0 -9768030.9205776453 -74920741.489608765 0 -74920741.489608765 32206571.816970825 0 0 0 0 123395833.55222028 25054645.18598175 0 25054645.18598175 79079562.721099854 0 0 0 0 16574733.112505645 -14110235.742160797 0 -14110235.742160797 276682882.64752197 0 0 0 0 154806587.15082687 -67580660.39881897 0 -67580660.39881897 198768192.40834045 0 0 0 0 131948312.65581492 172452052.92347908 0 172452052.92347908 614249745.03649902 0 0 0 0 115718082.56763977 42664656.773895264 0 42664656.773895264 128574860.99093628 0 0 0 0 149542400.57781342 261808517.68878424 0 261808517.68878424 207503202.81221008 0 0 0 0 -67403765.038815677 14033697.010925293 0 14033697.010925293 419129336.73957825 0 0 0 0 12639196.440198511 12009791.870193481 0 12009791.870193481 136747812.74567413 0 0 0 0 88931492.369216248 173427784.92456055 0 173427784.92456055 243142664.93375736 0 0 0 0 -14516794.264114164 12897827.598278046 0 12897827.598278046 243903947.51629639 0 0 0 0 5870906.5333308578 39567991.998062134 0 39567991.998062134 174436674.0209198 0 0 0 0 2710253.8485982791 26067831.40203476 0 26067831.40203476 127470312.28683472 0 0 0 0 39104831.059430659 54852062.503517151 0 54852062.503517151 75805690.705001831 0 0 0 0 42935975.235572606 83217616.990974426 0 83217616.990974426 142539320.82407379 0 0 0 0 58551399.442741185 59985875.290664673 0 59985875.290664673 75051718.909637451 0 0 0 0 73092667.438840002 83687473.951389313 0 83687473.951389313 77927334.250915527 0 0 0 0 46261574.20230221 89688442.41242218 0 89688442.41242218 79092732.222640991 0 0 0 0 -6410749.9094452858 38477118.270393372 0 38477118.270393372 29955968.905014038 0 0 0 0 37725331.76892072 23403611.256484985 0 23403611.256484985 50450597.867679596 0 0 0 0 36818515.704015374 45065840.643203735 0 45065840.643203735 60266951.116958618 0 0 0 0 38272348.551155984 34089530.856086731 0 34089530.856086731 128704095.88320923 0 0 0 0 106487.06902113557 12579142.00227356 0 12579142.00227356 166238425.89067078 0 0 0 0 15993184.9498308 -20792062.302955627 0 -20792062.302955627 111927803.22476196 0 0 0 0 23286.481155028363 15297.649398818612 0 15297.649398818612 163809.00717214309 0 0 0 0 19493503.254443135 -27793814.295846939 0 -27793814.295846939 -20485314.079269409 0 0 0 0 12374.284421698205 -70138.294399805367 0 -70138.294399805367 140156.5234478116 0 0 0 0 -17607826.432842899 -75205218.925375938 0 -75205218.925375938 38870709.263961792 0 0 0 0 7511493.4853056446 41686236.429826736 0 41686236.429826736 73012416.455474854 0 0 0 0 3301755.1683634818 52578694.486885071 0 52578694.486885071 119141102.60951996 0 0 0 0 -4706039.1011861861 17008877.488677979 0 17008877.488677979 30576304.985399485 0 0 0 0 -21520240.152449638 18898602.888549805 0 18898602.888549805 74289098.545852661 0 0 0 0 13253.176338749821 -144960.30971747637 0 -144960.30971747637 292228.9777508229 0 0 0 0 -31336860.12537599 -20380058.170082092 0 -20380058.170082092 29817578.370468378 0 0 0 0 -29785653.257305998 -8215636.4126491547 0 -8215636.4126491547 40864158.621520996 0 0 0 0 15307225.729721546 5859678.0621032715 0 5859678.0621032715 38159708.076493263 0 0 0 0 -1702650.3228781 29967486.053459167 0 29967486.053459167 88529725.704025269 0 0 0 0 3937421.9136743844 -17748028.21389389 0 -17748028.21389389 134090606.50769806 0 0 0 0 46027403.101436377 3441249.9720153809 0 3441249.9720153809 82779417.218910217 0 0 0 0 3633757.8606116846 33817571.562221527 0 33817571.562221527 63257783.240493774 0 0 0 0 28677261.198442012 17323654.449874878 0 17323654.449874878 41696209.058181763 0 0 0 0 52173411.580694884 45416085.898233414 0 45416085.898233414 42294819.032089233 0 0 0 0 71528824.658793032 37344325.825332642 0 37344325.825332642 42872281.457995415 0 0 0 0 41151690.049310558 23078833.417621613 0 23078833.417621613 48721638.071212769 0 0 0 0 76395943.900747657 -1014378.9757766724 0 -1014378.9757766724 64982070.565193176 0 0 0 0 100360370.29009548 -41329393.13494873 0 -41329393.13494873 85067052.958526611 0 0 0 0 77406540.956590056 -15232983.308479309 0 -15232983.308479309 55398603.495861053 0 0 0 0 50447935.728449732 -41061197.656509399 0 -41061197.656509399 122743370.02537537 0 0 0 0 4952358.4284984767 -29604279.594696045 0 -29604279.594696045 131275220.68891144 0 0 0 0 194198071.8425841 -83505348.223127365 0 -83505348.223127365 74437655.296630859 0 0 0 0 62033990.881853789 -105004277.25587845 0 -105004277.25587845 225384879.89219666 0 0 0 0 -6102091.2133011818 39721703.410743713 0 39721703.410743713 232712560.66490793 0 0 0 0 18862528.616849929 3867644.5075492859 0 3867644.5075492859 61401431.052101135 0 0 0 0 -93785.438150117639 -101461.92632684112 0 -101461.92632684112 554874.00862928526 0 0 0 0 100812.52085559716 -231632.52870918438 0 -231632.52870918438 385135.97101891041 0 0 0 0 3749161.3680032939 496756.37004089355 0 496756.37004089355 78228322.148966312 0 0 0 0 -12051.852080872748 -14387.440671920776 0 -14387.440671920776 293527.37770541525 0 0 0 0 -12698987.667307273 10506899.226951599 0 10506899.226951599 136650648.53039551 0 0 0 0 -2787896.5203664452 -21936019.158687592 0 -21936019.158687592 129159600.43241882 0 0 0 0 5298373.2858719528 -28959531.984893799 0 -28959531.984893799 132473467.2480464 0 0 0 0 5261825.4028058946 -2860500.8622512817 0 -2860500.8622512817 90473293.170722961 0 0 0 0 -706148.79432497919 -22551453.826515198 0 -22551453.826515198 129155000.76008606 0 0 0 0 1225048.6112114238 -30109199.702831268 0 -30109199.702831268 157798043.93840027 0 0 0 0 23666908.318704292 -4190509.9398994446 0 -4190509.9398994446 110951024.65914536 0 0 0 0 20889723.825298294 -30930030.553401947 0 -30930030.553401947 127890255.8171463 0 0 0 0 613708.54124715365 -10066597.429222107 0 -10066597.429222107 111609553.79644775 0 0 0 0 5259994.0005682297 -11427336.290838242 0 -11427336.290838242 109864691.12309265 0 0 0 0 -3545994.0901326351 6858486.4064712524 0 6858486.4064712524 97342185.952850342 0 0 0 0 5554036.1444300115 -12918362.730957031 0 -12918362.730957031 108105030.93687439 0 0 0 0 2284960.5614425079 3040503.3037185669 0 3040503.3037185669 97884246.432235718 0 0 0 0 2653558.0471567065 -3074350.5028991699 0 -3074350.5028991699 91334481.49224472 0 0 0 0 -3171480.3786002174 6420901.8985900879 0 6420901.8985900879 86047353.018600464 0 0 0 0 6818491.4046368226 -861269.54545593262 0 -861269.54545593262 73896097.18775177 0 0 0 0 11548.61111935119 -8662.9907882362604 0 -8662.9907882362604 153621.79319398385 0 0 0 0 -2024183.2818081714 14034593.875213623 0 14034593.875213623 58463635.184181213 0 0 0 0 -2214269.4851223566 4167042.4741516113 0 4167042.4741516113 80973159.960388184 0 0 0 0 3669152.2112110332 5564387.4642791748 0 5564387.4642791748 75298623.639895439 0 0 0 0 7389.0873334375683 -8460.9877664670348 0 -8460.9877664670348 52708.199355653021 0 0 0 0 -3234560.7224957347 -3389244.359588623 0 -3389244.359588623 15280437.79268074 0 0 0 0 3607366.8350029485 4415807.6024932861 0 4415807.6024932861 80701649.804122925 0 0 0 0 -6199905.9342014575 -3162184.2091941833 0 -3162184.2091941833 98552808.07862854 0 0 0 0 527.12726817545035 -4303380.488483429 0 -4303380.488483429 80545529.965209961 0 0 0 0 3152501.4981206357 2308764.6072998047 0 2308764.6072998047 101168839.49964523 0 0 0 0 -10839.077459606928 -6614509.0362930298 0 -6614509.0362930298 112078228.90869522 0 0 0 0 1762260.8736865874 -6711184.7816848755 0 -6711184.7816848755 111372899.45980072 0 0 0 0 7595.8124828121272 -5859867.3339080811 0 -5859867.3339080811 111023892.24610138 0 0 0 0 7565220.8992318399 -11855349.529239655 0 -11855349.529239655 88512096.877037048 0 0 0 0 2358376.4437836474 -3756636.4046192169 0 -3756636.4046192169 125768270.10371399 0 0 0 0 15109078.293726414 -33569723.873152971 0 -33569723.873152971 84100836.534255981 0 0 0 0 14851568.980137607 -39906044.646427155 0 -39906044.646427155 -17802449.552101135 0 0 0 0 -3881667.219827788 29859328.387084007 0 29859328.387084007 183184002.27177429 0 0 0 0 841.84902196047187 -71128.789793908596 0 -71128.789793908596 159409.96603164077 0 0 0 0 9489199.4845216982 -20486798.688575745 0 -20486798.688575745 122592209.71728706 0 0 0 0 43406194.130974583 -4313528.4321250916 0 -4313528.4321250916 42057498.336654663 0 0 0 0 -32165064.845369801 7584793.2977186441 0 7584793.2977186441 67989458.979934692 0 0 0 0 -1103763.0884313136 9452865.0198860168 0 9452865.0198860168 81111684.454711914 0 0 0 0 -9284493.6512824893 23679320.349975586 0 23679320.349975586 56375315.40297699 0 0 0 0 -1863895.7195504233 14858920.488014221 0 14858920.488014221 139457648.98574829 0 0 0 0 -10917574.158779338 -9827807.8217048645 0 -9827807.8217048645 112693164.36929321 0 0 0 0 34221205.995218068 22717257.572799683 0 22717257.572799683 92952214.092002869 0 0 0 0 -3083.8137365043158 4559968.3680686951 0 4559968.3680686951 91515062.830108643 0 0 0 0 -502453.11407372542 -16574394.699867249 0 -16574394.699867249 67555960.822105408 0 0 0 0 9663560.0182176437 -1165613.5832061768 0 -1165613.5832061768 90444823.551879883 0 0 0 0 -99934.92748260498 19785351.362380981 0 19785351.362380981 -13072016.279417038 0 0 0 0 -1479227.0633716583 27232686.037452698 0 27232686.037452698 -762974.72435760498 0 0 0 0 17656215.910518646 29799087.432411194 0 29799087.432411194 -828685.35857379436 0 0 0 0 -14494383.379722595 32948001.703956604 0 32948001.703956604 12590619.774238586 0 0 0 0 -15109406.628892422 32033697.704456329 0 32033697.704456329 15405379.983108521 0 0 0 0 -18380848.36205864 24486084.52481842 0 24486084.52481842 12655249.043563843 0 0 0 0 -9545163.9592399597 25459720.147071838 0 25459720.147071838 2165998.558380127 0 0 0 0 -8806435.4818878174 24939439.195220947 0 24939439.195220947 -1744539.0632095337 0 0 0 0 -289122.35981586576 36180643.635120392 0 36180643.635120392 4992135.058013916 0 0 0 0 -13906361.427707672 22539824.71774292 0 22539824.71774292 2858883.4067153931 0 0 0 0 70324392.220709801 -79259330.875617981 0 -79259330.875617981 -151866228.31012726 0 0 0 0 -654758.66380436812 5794066.2692319266 0 5794066.2692319266 9817259.4292823114 0 0 0 0 -10181008.118824005 23302115.071990967 0 23302115.071990967 3014259.3315391541 0 0 0 0 -26562278.431030273 22385195.011260986 0 22385195.011260986 -22654588.282875061 0 0 0 0 -10797932.653993607 -14724711.793735504 0 -14724711.793735504 61787877.052001953 0 0 0 0 82117025.81464386 -356499186.37701416 0 -356499186.37701416 28713070.751962662 0 0 0 0 50687821.139965057 14567291.549369812 0 14567291.549369812 -11840983.684132576 0 0 0 0 30030235.205474854 -4908450.0152549744 0 -4908450.0152549744 332204971.38989258 0 0 0 0 31423665.085441589 955977.60565185547 0 955977.60565185547 350651864.24234009 0 0 0 0 50711953.489032984 292296461.00609899 0 292296461.00609899 -18196044.210079193 0 0 0 0 -70441103.076316833 69061606.862411499 0 69061606.862411499 805451827.06387329 0 0 0 0 -18954346.265449524 -483944101.3392868 0 -483944101.3392868 237359303.56595421 0 0 0 0 -166862968.85174561 -445087561.72586823 0 -445087561.72586823 630506049.45363617 0 0 0 0 -18137894.168357849 4807717.3734283447 0 4807717.3734283447 -13449824.11550498 0 0 0 0 -8639596.7715435028 22080396.677635193 0 22080396.677635193 584643.37562561035 0 0 0 0 3231538.8881183043 9503980.2714746222 0 9503980.2714746222 12484545.909795709 0 0 0 0 22566281.809893608 8778747.8862571716 0 8778747.8862571716 -62628774.548774719 0 0 0 0 -11073443.623677071 2593607.7870703805 0 2593607.7870703805 21766172.369198471 0 0 0 0 -60260815.21720314 -29525751.092662811 0 -29525751.092662811 97896217.432211876 0 0 0 0 -3623794.8093886375 10703025.077495575 0 10703025.077495575 20814856.516143799 0 0 0 0 -2238829.4773114654 13732029.574531015 0 13732029.574531015 11310213.876312317 0 0 0 0 -7776740.44146524 -2426220.1334395036 0 -2426220.1334395036 26560770.096044932 0 0 0 0 18712082.34641093 -61924044.641150236 0 -61924044.641150236 -95098733.996765137 0 0 0 0 27131896.454417229 42157025.243225098 0 42157025.243225098 -19087652.599853516 0 0 0 0 26385148.650880814 25811322.341133118 0 25811322.341133118 -50566611.795837402 0 0 0 0 2687726.3274745941 26119610.849750519 0 26119610.849750519 16495323.406562805 0 0 0 0 49942919.264326096 44161717.422172546 0 44161717.422172546 20266467.742973328 0 0 0 0 183063741.70206738 -65447481.394780159 0 -65447481.394780159 19655240.651443481 0 0 0 0 -19226849.715631485 6182313.5730857849 0 6182313.5730857849 -382909.29524230957 0 0 0 0 -28017385.547388077 -25209947.03812027 0 -25209947.03812027 305617022.54252625 0 0 0 0 -13341628.451551437 -1439996.9010276794 0 -1439996.9010276794 222260577.41342926 0 0 0 0 108032166.44496441 136043932.82970428 0 136043932.82970428 158682350.43820953 0 0 0 0 -16438600.31595993 -22232896.03288269 0 -22232896.03288269 82663914.363708496 0 0 0 0 -21573334.488003731 26692254.309913635 0 26692254.309913635 132998952.72474289 0 0 0 0 -790385.22098350525 49537442.88369751 0 49537442.88369751 27361090.266769409 0 0 0 0 -25211856.875411987 29944946.969223022 0 29944946.969223022 50224643.632480621 0 0 0 0 -20711837.958524227 14287602.636910439 0 14287602.636910439 38094499.76411438 0 0 0 0 -30735507.38705349 12118472.648227692 0 12118472.648227692 53100653.721374512 0 0 0 0 -36299400.438222885 -4108174.4016647339 0 -4108174.4016647339 9262749.2898521423 0 0 0 0 44760141.414996147 62535248.878364563 0 62535248.878364563 39492592.041110992 0 0 0 0 -5579895.1027650833 5543457.4229202271 0 5543457.4229202271 27190238.06585598 0 0 0 0 -40184285.381844997 13087867.336313248 0 13087867.336313248 15668235.305397034 0 0 0 0 -2368933.5738507407 4177470.1928363275 0 4177470.1928363275 5436292.0392813236 0 0 0 0 -29423712.412986755 22366446.379192352 0 22366446.379192352 18419445.697015762 0 0 0 0 -27917896.999595642 20857253.21421051 0 20857253.21421051 19763744.108612061 0 0 0 0 -542654.71457798523 6628696.9165772619 0 6628696.9165772619 26275292.28598037 0 0 0 0 -84288331.503402233 136125846.1125946 0 136125846.1125946 77453693.631389618 0 0 0 0 10163486.654115677 544167.90441894531 0 544167.90441894531 -32302664.182609558 0 0 0 0 21433588.700257063 -9994454.4823503494 0 -9994454.4823503494 -44821657.001831055 0 0 0 0 958038.6776730679 1661934.3827852644 0 1661934.3827852644 -1899532.5227772035 0 0 0 0 -64232720.262316704 17447750.478162766 0 17447750.478162766 33176176.155960083 0 0 0 0 -30785112.240742683 6067908.2577514648 0 6067908.2577514648 24230134.532944679 0 0 0 0 -44957279.668420315 -19760589.689808846 0 -19760589.689808846 40753594.341213226 0 0 0 0 -3726401.2108530998 -5891176.6578865051 0 -5891176.6578865051 20521825.393894196 0 0 0 0 -2583799.0540571213 -26296516.299812317 0 -26296516.299812317 17549056.678874969 0 0 0 0 -322905.38839101791 5120348.1437149048 0 5120348.1437149048 32811238.538412094 0 0 0 0 -1737843.6429668253 4687253.5998625569 0 4687253.5998625569 23108912.833158966 0 0 0 0 -24023998.525267124 37241476.572843552 0 37241476.572843552 -2678488.8102874756 0 0 0 0 -4162801.4937274382 -1581921.0791405439 0 -1581921.0791405439 34209126.061290741 0 0 0 0 9061231.5014042854 -18570273.179233551 0 -18570273.179233551 52319730.317552567 0 0 0 0 -421190.63709814893 208550.70317328721 0 208550.70317328721 10414741.813232226 0 0 0 0 -6382681.6276373863 3382963.7249355316 0 3382963.7249355316 41525458.801826477 0 0 0 0 5608042.2809634209 1822231.2759237289 0 1822231.2759237289 19245321.764820099 0 0 0 0 5349864.0720667839 354875.02017784119 0 354875.02017784119 29314710.05475235 0 0 0 0 37048208.836372375 -19219990.982753754 0 -19219990.982753754 13972361.987030029 0 0 0 0 26289572.612865448 48422886.646850586 0 48422886.646850586 35754394.739700317 0 0 0 0 -13303028.495806217 15741435.853820801 0 15741435.853820801 9801459.7838592529 0 0 0 0 2409354.410118103 25980160.812240601 0 25980160.812240601 5316974.2929954529 0 0 0 0 -20606017.119960308 19602165.897745132 0 19602165.897745132 4951354.4677124023 0 0 0 0 -3236660.6898511574 2276736.4391200077 0 2276736.4391200077 4758858.8263818994 0 0 0 0 -21937239.836412907 31364725.319774628 0 31364725.319774628 4336016.8318634033 0 0 0 0 -24783513.997829437 35357550.777351379 0 35357550.777351379 23070282.160295486 0 0 0 0 -1896632.7960238017 11776256.034135625 0 11776256.034135625 -1502068.5280817412 0 0 0 0 -5707773.7160186768 14418354.232971191 0 14418354.232971191 6687815.5682067871 0 0 0 0 -1181411.9380779266 15398003.265670776 0 15398003.265670776 -5362731.8559265137 0 0 0 0 37955.902502023149 7910441.8363116346 0 7910441.8363116346 3544258.6286422983 0 0 0 0 -1997386.5688896179 7787930.9638490677 0 7787930.9638490677 850139.61901092529 0 0 0 0 -1104910.6549810409 4759157.8091099467 0 4759157.8091099467 8644223.094117064 0 0 0 0 -3870628.8810119629 842683.35273742676 0 842683.35273742676 7559840.5210227966 0 0 0 0 -2263600.3905124664 3552941.4272384644 0 3552941.4272384644 2574896.3251817226 0 0 0 0 -2608495.9998407364 3393302.7654762268 0 3393302.7654762268 5862374.902256012 0 0 0 0 -2327333.7749371529 2484952.4147644043 0 2484952.4147644043 4412972.3046569824 0 0 0 0 -2855227.4873416144 1137548.0697305687 0 1137548.0697305687 10848928.723418484 0 0 0 0 -1621579.1803246234 696534.28352953494 0 696534.28352953494 25074889.118041899 0 0 0 0 -2739047.9434709549 3936772.5570869446 0 3936772.5570869446 7030840.2862343788 0 0 0 0 -106339615.9970789 18504916.576560974 0 18504916.576560974 -37682898.970046997 0 0 0 0 64835.512845902238 5085857.8331816169 0 5085857.8331816169 -1658575.3871146888 0 0 0 0 -1786086.8187651448 2169213.7934013233 0 2169213.7934013233 8189287.7521070149 0 0 0 0 -4125976.7602901459 11536720.20267868 0 11536720.20267868 5413540.5908813477 0 0 0 0 -1724952.064448595 1742734.9560623169 0 1742734.9560623169 2766711.9149169922 0 0 0 0 -4500228.7422669725 8995269.4269478731 0 8995269.4269478731 8973459.7508696578 0 0 0 0 -59735411.949621201 50627093.1590271 0 50627093.1590271 -40298948.011703491 0 0 0 0 -82135485.81964159 68701023.727804184 0 68701023.727804184 55674558.021133423 0 0 0 0 -4397501.8874778748 7252141.6364154816 0 7252141.6364154816 3712908.8604888916 0 0 0 0 -82757680.206079483 62986245.053691864 0 62986245.053691864 3291020.4418373108 0 0 0 0 2794222.2266667215 4280232.4883660683 0 4280232.4883660683 -3215912.7487793826 0 0 0 0 4727455.3948459625 -3010823.3584671021 0 -3010823.3584671021 3203555.07289505 0 0 0 0 -4558212.8865094148 -1313855.1294839382 0 -1313855.1294839382 2464737.3065948486 0 0 0 0 -3835037.648498626 6411359.6906406265 0 6411359.6906406265 7864376.2369005829 0 0 0 0 -1431222.6250973418 459930.41599255148 0 459930.41599255148 10401156.191683754 0 0 0 0 -12800462.286572456 14292025.998012543 0 14292025.998012543 8706493.2637653351 0 0 0 0 99023.96995432931 151233.26168304309 0 151233.26168304309 -207142.28973320499 0 0 0 0 21425814.30381301 11239149.388010025 0 11239149.388010025 4323728.6935958862 0 0 0 0 -5096609.6886307821 -2328674.4872703552 0 -2328674.4872703552 9241796.6254043579 0 0 0 0 -11698924.934376478 7971959.5638656616 0 7971959.5638656616 18892768.146022797 0 0 0 0 47227224.88890028 -6296448.3402996063 0 -6296448.3402996063 -834395.82835388184 0 0 0 0 47464279.365470886 114175844.14050102 0 114175844.14050102 36132701.79535675 0 0 0 0 -67095546.100376129 32811018.83638382 0 32811018.83638382 161416122.57237244 0 0 0 0 -41083735.786763191 -13369972.979324341 0 -13369972.979324341 243337596.05406952 0 0 0 0 37289471.62137118 -45089015.63183701 0 -45089015.63183701 54921915.61177063 0 0 0 0 -9271240.473783493 -1409900.6300163269 0 -1409900.6300163269 57063659.387535095 0 0 0 0 -58941223.771421432 68304807.196910858 0 68304807.196910858 47095617.424301147 0 0 0 0 167474.85429191589 5412282.7821311951 0 5412282.7821311951 -2379960.7426567078 0 0 0 0 7881322.0227885246 7890363.7775630951 0 7890363.7775630951 -1328051.8701324463 0 0 0 0 6003568.4669923782 6516275.4614200592 0 6516275.4614200592 4236858.7936515808 0 0 0 0 1611741.4140725136 10402354.094186783 0 10402354.094186783 8964983.3744888306 0 0 0 0 7788467.9049212933 3742892.7690486908 0 3742892.7690486908 11908291.461133957 0 0 0 0 12593647.588656187 -2397780.9185276031 0 -2397780.9185276031 15331191.203481674 0 0 0 0 10874081.054283619 3798766.0307731628 0 3798766.0307731628 2779496.5625133514 0 0 0 0 19603760.359823346 -9671933.6478967667 0 -9671933.6478967667 12893398.102863312 0 0 0 0 5288313.4344689846 4588377.3853302002 0 4588377.3853302002 14324245.876080275 0 0 0 0 7715685.6943335533 4683912.8530702591 0 4683912.8530702591 14307136.16053772 0 0 0 0 55309.754111519549 1357608.6581733841 0 1357608.6581733841 5262782.9884056598 0 0 0 0 -2511345.3596458435 19962531.864730835 0 19962531.864730835 19732630.245838165 0 0 0 0 -3058449.8027865887 3579790.2399559021 0 3579790.2399559021 32760900.672204971 0 0 0 0 -375608.96897137165 1184413.8841512203 0 1184413.8841512203 7425636.4585456848 0 0 0 0 234839187.59556293 -100437114.18119812 0 -100437114.18119812 97089403.373823166 0 0 0 0 22710.596537070349 1096248.7582128448 0 1096248.7582128448 2097526.1546792407 0 0 0 0 85379437.219511986 -175249650.08577538 0 -175249650.08577538 156260308.54106903 0 0 0 0 11186962.332063675 97543053.858345032 0 97543053.858345032 309732032.82169342 0 0 0 0 -8172527.9100286961 10514316.618847847 0 10514316.618847847 -1748853.2857780457 0 0 0 0 -35573750.079970598 27592599.958064079 0 27592599.958064079 281804752.57019806 0 0 0 0 217855.39374717581 89051.180631620809 0 89051.180631620809 467157.71164933965 0 0 0 0 3350965.536393398 573004.95106106065 0 573004.95106106065 -177769.03382193483 0 0 0 0 74312236.341258049 71839603.660339355 0 71839603.660339355 -42817714.32738483 0 0 0 0 149633496.65366173 -64503035.135320663 0 -64503035.135320663 138109179.69628143 0 0 0 0 15930310.750128746 64252814.856243134 0 64252814.856243134 34606306.526037693 0 0 0 0 162580018.37056527 154090865.00869936 0 154090865.00869936 71747468.773635864 0 0 0 0 36265707.416122437 -32925033.954559326 0 -32925033.954559326 287235220.05792236 0 0 0 0 -375350068.6426127 81969788.311887741 0 81969788.311887741 222729764.77973175 0 0 0 0 732790181.24580646 222141968.58132172 0 222141968.58132172 -238549575.55092621 0 0 0 0 403981565.93477631 953454631.61366653 0 953454631.61366653 -245096105.5378294 0 0 0 0 -316921970.60439503 605900704.53627539 0 605900704.53627539 114202598.59092712 0 0 0 0 61755289.103559017 202772800.20714378 0 202772800.20714378 -46831503.557861328 0 0 0 0 4097077.1236417294 -15954422.451515198 0 -15954422.451515198 13670491.776077271 0 0 0 0 300879149.58613431 -117774881.31529713 0 -117774881.31529713 31810539.349178314 0 0 0 0 1280677.4661798773 -64092.72476170212 0 -64092.72476170212 -193573.8996709846 0 0 0 0 -100621846.12912369 102157814.03325462 0 102157814.03325462 196900517.08411789 0 0 0 0 -135070570.11213112 -83386680.466499329 0 -83386680.466499329 372021373.40313339 0 0 0 0 573205224.69140244 -432089427.84457397 0 -432089427.84457397 -93388117.506835938 0 0 0 0 -4852987.5388673181 -4871170.4006423485 0 -4871170.4006423485 17730783.261629615 0 0 0 0 -34221018.108832359 -47263354.369747162 0 -47263354.369747162 -58649480.137336731 0 0 0 0 -26113941.228597999 -4802274.417263031 0 -4802274.417263031 7255200.1116485596 0 0 0 0 8636692.3204317093 12631504.989768982 0 12631504.989768982 -52960962.889175415 0 0 0 0 21062204.145646095 9782677.5417671204 0 9782677.5417671204 6084839.5952072144 0 0 0 0 14225786.287992716 21535180.193908691 0 21535180.193908691 31017982.971847534 0 0 0 0 6556173.596637249 6993974.3302650452 0 6993974.3302650452 19213722.248771667 0 0 0 0 5006700.1899819374 9618302.3953857422 0 9618302.3953857422 15943318.833320618 0 0 0 0 -7581583.1703639533 -2651540.861367261 0 -2651540.861367261 18657632.847325198 0 0 0 0 1891026.3804354668 1536882.8148422241 0 1536882.8148422241 16639984.420757294 0 0 0 0 -12234511.347426891 -32557746.816474915 0 -32557746.816474915 -14620339.426893234 0 0 0 0 168129805.75533295 -248105534.14494324 0 -248105534.14494324 217790315.21731567 0 0 0 0 -3406223.0422703144 -6568339.4317319077 0 -6568339.4317319077 384594.80034859478 0 0 0 0 36583828.480245709 -71788419.611351192 0 -71788419.611351192 146587989.21365356 0 0 0 0 285546145.55268478 27462236.843021393 0 27462236.843021393 -127213389.68740082 0 0 0 0 1431892.743751477 1624723.1838124706 0 1624723.1838124706 -1440606.4710621797 0 0 0 0 -3423854.9126498559 -6841652.8157567019 0 -6841652.8157567019 -303683.41690748185 0 0 0 0 -134100522.21901321 146191914.10956764 0 146191914.10956764 3012599.2610397339 0 0 0 0 285919301.14791107 377786400.40306473 0 377786400.40306473 -418270569.28094482 0 0 0 0 -2924851.7508854866 2994243.4131355286 0 2994243.4131355286 17532287.185195923 0 0 0 0 -9262411.4058454819 -138252.68851941451 0 -138252.68851941451 18926286.512162216 0 0 0 0 -32703085.745648861 -44403115.58427906 0 -44403115.58427906 -19776487.873504639 0 0 0 0 31267561.726339817 -31123786.488121986 0 -31123786.488121986 -26387367.032333374 0 0 0 0 278152267.89995003 238202632.27711487 0 238202632.27711487 265504364.55392456 0 0 0 0 -1437013.0797850785 -1292225.1583021935 0 -1292225.1583021935 324986.62192184478 0 0 0 0 252732837.27485466 139021320.00135231 0 139021320.00135231 15880018.361419678 0 0 0 0 -71517380.40322876 49319647.5493927 0 49319647.5493927 90419977.245674133 0 0 0 0 80577604.30654335 85975062.883174896 0 85975062.883174896 -14013195.765411377 0 0 0 0 87163901.052373886 59125374.274486542 0 59125374.274486542 23485044.202030182 0 0 0 0 -8627047.0975027084 7785468.8160686493 0 7785468.8160686493 20293089.938503265 0 0 0 0 -1751018.6609220505 10062987.024356842 0 10062987.024356842 19651072.279855728 0 0 0 0 -542124.7909860611 11051047.121631622 0 11051047.121631622 20403758.350334167 0 0 0 0 36075.381278514862 15032720.294352055 0 15032720.294352055 23782751.357086182 0 0 0 0 661635.69446516037 10609641.698108673 0 10609641.698108673 20521910.83215332 0 0 0 0 4239118.3458521068 15584526.23854351 0 15584526.23854351 25822154.764328003 0 0 0 0 751820.11822462082 10711356.903190613 0 10711356.903190613 30841961.992698669 0 0 0 0 -2638075.6205844879 12893472.662261963 0 12893472.662261963 43346939.094852448 0 0 0 0 -3003637.8133729696 9243204.0848693848 0 9243204.0848693848 27393412.029945374 0 0 0 0 -4675032.9780533314 12039170.957950592 0 12039170.957950592 25018305.386665344 0 0 0 0 -3606296.9555425644 14001507.884788513 0 14001507.884788513 28244679.670092583 0 0 0 0 -4431514.7371118069 11542275.522491455 0 11542275.522491455 16509267.522117615 0 0 0 0 -27740019.473334551 7501449.7370910645 0 7501449.7370910645 26490539.004951477 0 0 0 0 -5192035.2243736982 7707303.8128795624 0 7707303.8128795624 20684395.677574158 0 0 0 0 -298813.0342268938 -30805.216419965029 0 -30805.216419965029 411478.61647021025 0 0 0 0 -25954883.888666153 -17239321.713291168 0 -17239321.713291168 -2243896.5642471313 0 0 0 0 10251146.690484047 22517410.68693924 0 22517410.68693924 54263735.600574493 0 0 0 0 -6492449.2087383643 -2154701.9164247513 0 -2154701.9164247513 9032720.9796600342 0 0 0 0 -3409647.9081631899 4060583.0609474182 0 4060583.0609474182 9511021.5484657288 0 0 0 0 -16337972.063291907 10540908.378372192 0 10540908.378372192 23140252.751480103 0 0 0 0 -877047.8213057518 12779031.320274353 0 12779031.320274353 25275560.821483612 0 0 0 0 -5875064.7498500347 14413363.624698639 0 14413363.624698639 24464801.406825542 0 0 0 0 -967371.88758254051 13169739.240104675 0 13169739.240104675 20770091.640808105 0 0 0 0 -4286610.0030370355 13660721.667860985 0 13660721.667860985 20898453.94178009 0 0 0 0 -3520326.9655768871 9628980.9933738708 0 9628980.9933738708 22847066.349189758 0 0 0 0 49383341.833475828 65787669.152492523 0 65787669.152492523 56790523.930938721 0 0 0 0 12806699.61548518 43398399.809489965 0 43398399.809489965 72743938.808059692 0 0 0 0 -4913909.3132901192 45928742.328044891 0 45928742.328044891 90822857.944721222 0 0 0 0 76527404.787555039 108925675.81457901 0 108925675.81457901 118461845.72654676 0 0 0 0 44405881.292971313 42876389.213314056 0 42876389.213314056 67429069.461349487 0 0 0 0 1646669.1686893404 13399197.137619019 0 13399197.137619019 43708963.146591187 0 0 0 0 -3977905.1657390296 -17163741.301958084 0 -17163741.301958084 -2788472.2862014771 0 0 0 0 -4577722.6371647418 28327014.620567322 0 28327014.620567322 38870427.912956238 0 0 0 0 -183201.82339988297 233213.68466156721 0 233213.68466156721 670191.88491427153 0 0 0 0 -571965.32439334737 102095.1670851931 0 102095.1670851931 968057.46015582979 0 0 0 0 -2317069.7636149526 8141835.4970092773 0 8141835.4970092773 18835420.518451691 0 0 0 0 1792985.0122811794 4103689.2304992676 0 4103689.2304992676 20728240.092725754 0 0 0 0 -2254178.8500833511 8527544.9921112061 0 8527544.9921112061 20908713.151107788 0 0 0 0 3461121.8384381533 4536690.0560913086 0 4536690.0560913086 22599504.878124237 0 0 0 0 -325891.18303410709 -756676.47674274445 0 -756676.47674274445 10420590.795753479 0 0 0 0 -635173.94638707838 428697.38695303723 0 428697.38695303723 1623174.3749388456 0 0 0 0 -186446.90183267166 758533.60568293557 0 758533.60568293557 1845824.6381778419 0 0 0 0 -8186833.2795925438 -16372985.242122412 0 -16372985.242122412 19489430.710838318 0 0 0 0 -693127.31354199594 938654.3145089522 0 938654.3145089522 3033027.5214230679 0 0 0 0 552198.39109218121 1751971.1987276077 0 1751971.1987276077 19001768.52368927 0 0 0 0 3698598.430290699 9681763.8285140991 0 9681763.8285140991 20832139.148447037 0 0 0 0 -4472841.5212540627 32668683.233856201 0 32668683.233856201 19123241.608650208 0 0 0 0 2389812.6062705517 376767.78115844727 0 376767.78115844727 23395916.533561707 0 0 0 0 33464290.5378865 26891915.774131775 0 26891915.774131775 23788791.066894531 0 0 0 0 -5206059.1476201415 19310323.89617157 0 19310323.89617157 90755174.269371033 0 0 0 0 -18020.038609027863 5420984.5975151062 0 5420984.5975151062 28658750.661598206 0 0 0 0 -3539267.5818000138 18710873.4637146 0 18710873.4637146 70781341.980957031 0 0 0 0 -2899131.6208945513 6247551.6947097778 0 6247551.6947097778 32073355.029457092 0 0 0 0 640324.94668120216 10616007.082267344 0 10616007.082267344 -862329.32377698086 0 0 0 0 -2891852.7062495351 18739691.257278442 0 18739691.257278442 70448604.178764343 0 0 0 0 -1444461.1821081825 10960744.368405342 0 10960744.368405342 81117897.819648743 0 0 0 0 -3790731.6424653828 7939072.7002220154 0 7939072.7002220154 36160835.003944397 0 0 0 0 -135156.24780827228 10631967.054297522 0 10631967.054297522 735429.50001678313 0 0 0 0 -2616890.1418420076 20617875.448661804 0 20617875.448661804 70049262.939788818 0 0 0 0 -1201060.7029304206 14717345.867347717 0 14717345.867347717 58022078.886657715 0 0 0 0 -8682001.1349996626 8429580.3298492432 0 8429580.3298492432 66639120.644767761 0 0 0 0 1045347.9118714184 1236259.3435573578 0 1236259.3435573578 20997865.638565063 0 0 0 0 -7177679.9868065417 -4888319.2087135315 0 -4888319.2087135315 43544999.854129791 0 0 0 0 -4395980.0179647207 4090330.4440956116 0 4090330.4440956116 56944281.098747253 0 0 0 0 2694234.5365727991 -4234364.9836196899 0 -4234364.9836196899 37281566.412666321 0 0 0 0 216466.61367484927 16438812.504226685 0 16438812.504226685 72105928.261367798 0 0 0 0 -6164506.0848492384 -345801.64877319336 0 -345801.64877319336 67748358.952110291 0 0 0 0 -2694054.9801943898 4744155.9781188965 0 4744155.9781188965 75096096.912384033 0 0 0 0 -2807314.43485035 4407857.6863365173 0 4407857.6863365173 82869710.503540039 0 0 0 0 787641.88377654552 -12224815.972961426 0 -12224815.972961426 62797793.881408691 0 0 0 0 322427.85411810875 -11629608.30185318 0 -11629608.30185318 81290567.1690979 0 0 0 0 -1327068.240137279 -7273332.6937561035 0 -7273332.6937561035 93292738.54196167 0 0 0 0 1456692.5334182903 1129596.9362839907 0 1129596.9362839907 5159611.4237469137 0 0 0 0 1047331.5629722476 -242780.26457214355 0 -242780.26457214355 87441102.410936356 0 0 0 0 4239964.976750195 317135.79071044922 0 317135.79071044922 86158097.152389526 0 0 0 0 -9871124.974439472 -5055128.7902450562 0 -5055128.7902450562 47337795.258880615 0 0 0 0 9929654.9894039929 15688605.420135498 0 15688605.420135498 51078609.079441071 0 0 0 0 -4649079.2184669077 9122678.2297210693 0 9122678.2297210693 73834116.624549866 0 0 0 0 -3463290.19516325 9194591.084854126 0 9194591.084854126 23915035.629331112 0 0 0 0 -9732155.6789786518 10110997.420352936 0 10110997.420352936 93617180.938331604 0 0 0 0 -1551065.4718717635 11133173.472421043 0 11133173.472421043 5442346.9504651921 0 0 0 0 -6126948.6736975908 11170806.930738449 0 11170806.930738449 33806817.565917969 0 0 0 0 -6961016.5688813925 7959440.0726203918 0 7959440.0726203918 36600563.740722656 0 0 0 0 -868027.88684756367 10682366.85619932 0 10682366.85619932 2497371.6462625447 0 0 0 0 -3706433.2775169611 6072893.3360977173 0 6072893.3360977173 86156115.552455425 0 0 0 0 -631216.99831616879 19245273.630413055 0 19245273.630413055 62249009.198509216 0 0 0 0 2693674.868724525 1737051.2037887573 0 1737051.2037887573 59156267.407669067 0 0 0 0 -9020199.5899117589 -619116.35536193848 0 -619116.35536193848 53313617.74729538 0 0 0 0 -3009873.5756713748 -10207767.603538513 0 -10207767.603538513 18188001.314292908 0 0 0 0 -3516295.4296722412 8496014.9076080322 0 8496014.9076080322 35501003.240989685 0 0 0 0 -5955855.8021201249 -4277110.1679641195 0 -4277110.1679641195 17891113.734551132 0 0 0 0 -91857008.749593735 -45152800.667049408 0 -45152800.667049408 9577123.6505966187 0 0 0 0 1881026.8211608529 14360960.702926636 0 14360960.702926636 42509094.852798462 0 0 0 0 -10503837.611039437 -8807370.2872161865 0 -8807370.2872161865 27426699.355133057 0 0 0 0 -61012955.338184357 -177030177.69612885 0 -177030177.69612885 -33401623.049194336 0 0 0 0 -5488169.9930262649 -3869510.9150672331 0 -3869510.9150672331 20238919.678367779 0 0 0 0 -102971117.69586849 -2366726.1465568542 0 -2366726.1465568542 171614797.40193176 0 0 0 0 -9867011.8439159393 14250339.75087738 0 14250339.75087738 3509588.3533096313 0 0 0 0 77350140.345352173 3672308.5086135864 0 3672308.5086135864 41876903.323944092 0 0 0 0 22513183.964457512 67446523.126529694 0 67446523.126529694 83501854.358047485 0 0 0 0 -45237617.789133072 -20641299.143539429 0 -20641299.143539429 57498139.057006836 0 0 0 0 40715951.247972488 114935613.17863083 0 114935613.17863083 45376767.019927979 0 0 0 0 -751200.13716444094 -239939.25811457448 0 -239939.25811457448 2533796.2342056856 0 0 0 0 2185173.2013969421 48320029.37978363 0 48320029.37978363 116163481.74549103 0 0 0 0 -1543182.4225554466 73292729.033240318 0 73292729.033240318 -21982786.513763428 0 0 0 0 -67616023.937515259 26642829.081924438 0 26642829.081924438 55221788.378033638 0 0 0 0 -59078884.859912872 92123056.732719421 0 92123056.732719421 66860175.776657104 0 0 0 0 -10466452.571895599 44612085.568782806 0 44612085.568782806 87166766.06105423 0 0 0 0 -88575496.798688531 104622611.2442348 0 104622611.2442348 46428273.44758606 0 0 0 0 -93587097.233669281 16178218.695861816 0 16178218.695861816 78035126.577392578 0 0 0 0 -13501834.334752619 -13641543.190254211 0 -13641543.190254211 19917950.039562225 0 0 0 0 -1433289.0667079426 2101111.7871921733 0 2101111.7871921733 4257546.6025950741 0 0 0 0 -6817203.9202586915 -4175082.8725800551 0 -4175082.8725800551 16438819.433604904 0 0 0 0 -13133864.464969635 8910307.0880889893 0 8910307.0880889893 26238230.25617981 0 0 0 0 -6852441.8320017904 -1935530.6491947174 0 -1935530.6491947174 23229171.504837036 0 0 0 0 7671198.0645923615 12693052.574411392 0 12693052.574411392 44681483.675926208 0 0 0 0 323307.31847800128 3097858.6648320481 0 3097858.6648320481 8248893.1452669315 0 0 0 0 -4080105.0604994344 -2083972.1958261281 0 -2083972.1958261281 10264170.291113563 0 0 0 0 -9153861.2724189758 9247647.1078262329 0 9247647.1078262329 31478733.207351685 0 0 0 0 8596038.8889307976 5336714.0822377205 0 5336714.0822377205 26678556.169998169 0 0 0 0 -24220749.049337387 2212261.451259613 0 2212261.451259613 40656378.136444092 0 0 0 0 52368150.55871582 25225673.006515503 0 25225673.006515503 52935848.056245804 0 0 0 0 -29323187.760986328 6013625.0963897705 0 6013625.0963897705 97028997.924133301 0 0 0 0 -197494.29470354877 414818.90471477807 0 414818.90471477807 2569285.7832713295 0 0 0 0 8306853.500617981 2549801.4404525757 0 2549801.4404525757 29810812.470222473 0 0 0 0 10756878.699314117 13688905.28339386 0 13688905.28339386 21486207.091445923 0 0 0 0 28608162.354146957 17016147.154239655 0 17016147.154239655 19251257.525634766 0 0 0 0 18639435.15045929 -5532933.6846675873 0 -5532933.6846675873 3852402.494140625 0 0 0 0 16981698.386173248 23157920.695075989 0 23157920.695075989 16461502.393234253 0 0 0 0 -15459693.903337479 -11506743.558643341 0 -11506743.558643341 64542081.372329712 0 0 0 0 -4963767.6263226215 209495.87138249539 0 209495.87138249539 9676706.0759651065 0 0 0 0 -12984855.577672482 8688338.9121370316 0 8688338.9121370316 31397077.450927734 0 0 0 0 -16263906.355773926 -2047695.7204666138 0 -2047695.7204666138 24491501.233924866 0 0 0 0 -75287575.789840698 -125371237.27746582 0 -125371237.27746582 162576271.16275787 0 0 0 0 119924403.44656754 6287173.6828308105 0 6287173.6828308105 -7921801.063079834 0 0 0 0 -641421.19320325553 626542.1625353694 0 626542.1625353694 2348017.5261331983 0 0 0 0 -123096906.7100296 21992720.730239868 0 21992720.730239868 41071432.158691406 0 0 0 0 17224843.389191851 56523874.386247247 0 56523874.386247247 66101451.943908691 0 0 0 0 65746028.712200165 72514304.619247437 0 72514304.619247437 63769302.480194092 0 0 0 0 -225362212.42672348 -243360077.40926361 0 -243360077.40926361 177353298.77661133 0 0 0 0 49556948.969329834 25041767.713928223 0 25041767.713928223 9840952.1939411163 0 0 0 0 -635056.18306266237 30939.421193137765 0 30939.421193137765 2102721.4010528997 0 0 0 0 -122188715.80341339 12200828.167358398 0 12200828.167358398 133370454.57592773 0 0 0 0 118340315.63536072 279134977.36740112 0 279134977.36740112 429512430.12436676 0 0 0 0 338908893.03513336 -241876847.0717926 0 -241876847.0717926 210633399.7575798 0 0 0 0 -5017918.3262138367 90209507.141220093 0 90209507.141220093 232695519.00494385 0 0 0 0 -1037316.4438945139 -854387.50726357102 0 -854387.50726357102 3646564.2116129249 0 0 0 0 -105424676.83396339 17176576.133724213 0 17176576.133724213 167394489.57949829 0 0 0 0 -105052850.03859711 -36949596.608139038 0 -36949596.608139038 89147628.774520874 0 0 0 0 -11791399.606405973 -1649773.0174713135 0 -1649773.0174713135 5574148.1673431396 0 0 0 0 -24472713.1541996 23205754.208482742 0 23205754.208482742 63447477.280029297 0 0 0 0 115404.9497833252 8791477.8258743286 0 8791477.8258743286 -8722276.3452224731 0 0 0 0 -7554789.7310676575 9332578.2430648804 0 9332578.2430648804 -263150.58832550049 0 0 0 0 -4010247.522819519 4870670.570690155 0 4870670.570690155 4617578.1212005615 0 0 0 0 -458003.6127948761 -8884726.7444381714 0 -8884726.7444381714 -12040119.98992157 0 0 0 0 40334475.802228928 66284790.90802002 0 66284790.90802002 24704270.153526306 0 0 0 0 4848352.0775527954 30575826.775871277 0 30575826.775871277 18325733.50390625 0 0 0 0 -5657008.1609382629 33748147.142124176 0 33748147.142124176 34856564.980041504 0 0 0 0 -9163092.4880447388 38999627.241455078 0 38999627.241455078 54837454.1451087 0 0 0 0 -15719128.200906754 24286347.082588196 0 24286347.082588196 36264273.021148682 0 0 0 0 -8392774.4321708679 5966952.1599502563 0 5966952.1599502563 3364400.7070159912 0 0 0 0 -24805075.575427055 7423741.7402420044 0 7423741.7402420044 61140923.694396973 0 0 0 0 -7367435.6359505653 7154553.5197753906 0 7154553.5197753906 59954607.552352905 0 0 0 0 -16997328.427367926 32705646.84774971 0 32705646.84774971 86515305.765655518 0 0 0 0 -5400496.0302233696 13961080.208999634 0 13961080.208999634 15092078.435180664 0 0 0 0 -21485558.920642495 18508128.987327576 0 18508128.987327576 16214020.440078735 0 0 0 0 8579667.4506859779 9404781.9380493164 0 9404781.9380493164 -64055665.183479309 0 0 0 0 58248809.491002083 -32627313.005584717 0 -32627313.005584717 28987793.04758358 0 0 0 0 3034847.1813054085 117249504.2711792 0 117249504.2711792 -16276158.912277222 0 0 0 0 -44676188.371284008 -7707919.165763855 0 -7707919.165763855 29440542.876495361 0 0 0 0 -20814536.223896503 25147539.776611328 0 25147539.776611328 120316971.90731812 0 0 0 0 39723549.973563671 48986453.616836548 0 48986453.616836548 66415520.644424438 0 0 0 0 -3166836.6707362565 -3642321.6510461196 0 -3642321.6510461196 2955916.2986008078 0 0 0 0 -16432685.04126215 -7500586.7858276367 0 -7500586.7858276367 27134779.414260864 0 0 0 0 35877547.362062931 -67656704.694335938 0 -67656704.694335938 52162708.216171265 0 0 0 0 -76810702.146560192 25698075.749558449 0 25698075.749558449 51167381.953842163 0 0 0 0 -49035463.239386559 -48408392.665130615 0 -48408392.665130615 100236426.64021301 0 0 0 0 -2145339.1854742728 -1996919.3245901018 0 -1996919.3245901018 4192830.1679551657 0 0 0 0 -7487259.5725278854 802268.49695587158 0 802268.49695587158 15543246.934326172 0 0 0 0 -354233.82865981979 4080575.8868355043 0 4080575.8868355043 9322675.2213925272 0 0 0 0 104874895.67663509 104350714.73760796 0 104350714.73760796 -29616606.306838989 0 0 0 0 -6070889.4785359856 -1573284.1359829493 0 -1573284.1359829493 8102487.7179861628 0 0 0 0 1575976.7686576843 1644463.4708557129 0 1644463.4708557129 6123817.0308685303 0 0 0 0 -4894051.1488380432 -2253066.9340591431 0 -2253066.9340591431 14463782.241645813 0 0 0 0 -4058249.9531377321 5191921.1298132874 0 5191921.1298132874 16957940.66729857 0 0 0 0 -5581367.3316297531 5147492.2510910034 0 5147492.2510910034 8509767.9374198914 0 0 0 0 -6829437.6621236801 564846.1139831543 0 564846.1139831543 12999006.616615295 0 0 0 0 -2032363.6039954335 -352932.87962768972 0 -352932.87962768972 9067498.8555039503 0 0 0 0 -11422556.458224297 9552148.3247141838 0 9552148.3247141838 25300584.898918152 0 0 0 0 -152878.46055603027 2325435.6976013184 0 2325435.6976013184 6390088.9332885742 0 0 0 0 -2426770.8222194277 3641334.2648785636 0 3641334.2648785636 8419055.0066759177 0 0 0 0 -36360513.875534058 24571257.461502075 0 24571257.461502075 192132069.56127167 0 0 0 0 51930537.576248169 -167767444.06017303 0 -167767444.06017303 -71110662.127868652 0 0 0 0 -207961996.59687901 167374346.95776367 0 167374346.95776367 112574483.27015686 0 0 0 0 114670318.99456406 84569169.407875061 0 84569169.407875061 -144715501.63374329 0 0 0 0 138815329.06739426 15314265.610214233 0 15314265.610214233 -7383782.0967712402 0 0 0 0 -1961251.1292133331 2118306.9981498718 0 2118306.9981498718 4818839.2087402344 0 0 0 0 -1402953.5738662838 4623682.1557125608 0 4623682.1557125608 10629686.671436161 0 0 0 0 34040488.759109497 11779350.753601074 0 11779350.753601074 52315318.863769531 0 0 0 0 384580.3469183445 2337121.5107955933 0 2337121.5107955933 10842317.995880127 0 0 0 0 -5610758.9142013658 -466791.05455365777 0 -466791.05455365777 7838877.3699335307 0 0 0 0 -2323968.8023757935 1748892.9934997559 0 1748892.9934997559 3011957.779296875 0 0 0 0 -1498324.2644207682 3432782.6548813507 0 3432782.6548813507 11628524.441347551 0 0 0 0 836893.628220235 2995041.758352831 0 2995041.758352831 9781524.0562883988 0 0 0 0 -5939755.1127622705 -2243529.9693512414 0 -2243529.9693512414 6651432.0198916793 0 0 0 0 -2211482.92395401 1621920.7656784058 0 1621920.7656784058 6702302.123916626 0 0 0 0 -551682.49809265137 2101668.0498962402 0 2101668.0498962402 6836368.7754974365 0 0 0 0 -5357684.760158984 -550863.1997105144 0 -550863.1997105144 13244126.479272308 0 0 0 0 3822831.1278591156 -554720.13562774658 0 -554720.13562774658 2819231.8935279846 0 0 0 0 -1935298.7105928143 2564371.2370810248 0 2564371.2370810248 8173652.3574150838 0 0 0 0 -2855347.5237717307 -2080702.0921198428 0 -2080702.0921198428 4917128.035596367 0 0 0 0 -2100013.5520395041 471609.79286575317 0 471609.79286575317 8479034.7668380737 0 0 0 0 7693555.0872168541 21053982.435264587 0 21053982.435264587 46216335.422889709 0 0 0 0 -1995535.8774886131 2803150.2104110718 0 2803150.2104110718 13237991.716644287 0 0 0 0 -245709.11392273894 2662748.4489811882 0 2662748.4489811882 7138934.1436483264 0 0 0 0 -1591346.7059934139 2799129.2528896332 0 2799129.2528896332 12224758.931335449 0 0 0 0 -534379.41308158892 1188820.4538840204 0 1188820.4538840204 2246454.2715372965 0 0 0 0 -6313186.1613664627 24323462.878219604 0 24323462.878219604 90994170.810913086 0 0 0 0 -16999882.820518017 20675973.358215332 0 20675973.358215332 132552233.25790405 0 0 0 0 -267292.36198568344 32917254.525291443 0 32917254.525291443 -48218283.711349487 0 0 0 0 31339378.359377384 40581571.802223206 0 40581571.802223206 -88080827.964111328 0 0 0 0 9677660.5612522364 42342100.742649078 0 42342100.742649078 -122271168.12960815 0 0 0 0 -27720379.87871933 66232644.229217529 0 66232644.229217529 -89847669.537490845 0 0 0 0 -170979.88637598371 6360893.0495882928 0 6360893.0495882928 7250873.0736904889 0 0 0 0 -26729401.436833382 34549742.12286377 0 34549742.12286377 -88651880.554031372 0 0 0 0 4465802.4100503922 89242655.860488892 0 89242655.860488892 -129033723.9238205 0 0 0 0 20756196.408480644 10463816.438751221 0 10463816.438751221 -172797032.4906311 0 0 0 0 -909214.78781719157 610002.57009610534 0 610002.57009610534 2016950.6728220955 0 0 0 0 11134166.43680191 71306602.705764771 0 71306602.705764771 -96683873.863250732 0 0 0 0 38286810.674142361 67516925.087982178 0 67516925.087982178 -96177478.563568115 0 0 0 0 1697784.8149576187 59689893.58518219 0 59689893.58518219 -52907148.600402832 0 0 0 0 33975697.158324242 31165548.844192505 0 31165548.844192505 -44331837.955307007 0 0 0 0 -18252330.323272467 123667999.62451363 0 123667999.62451363 -58899741.205955505 0 0 0 0 -95372787.457102299 102351823.61878204 0 102351823.61878204 -46676709.255645752 0 0 0 0 874555.36957979202 32395860.669364929 0 32395860.669364929 -49214701.302108765 0 0 0 0 1313476.2939565931 7232591.2481423803 0 7232591.2481423803 9348149.3604353089 0 0 0 0 -2680155.0713906288 71421570.387916565 0 71421570.387916565 -69404766.871871948 0 0 0 0 -306766014.36733246 -141599226.1640625 0 -141599226.1640625 164263858.71097565 0 0 0 0 -34447815.27637291 8781865.1386184692 0 8781865.1386184692 29634794.497784615 0 0 0 0 -3488716.0663434118 4162208.945041731 0 4162208.945041731 8041154.4466703981 0 0 0 0 -17061359.485584259 -13473768.297370911 0 -13473768.297370911 9333429.6582489014 0 0 0 0 818139.43678643275 9029405.0272757411 0 9029405.0272757411 20385775.238009088 0 0 0 0 1067559.6959836336 7362679.7219780376 0 7362679.7219780376 19223466.363673553 0 0 0 0 -116878042.62073708 22297059.834970474 0 22297059.834970474 44996830.795372009 0 0 0 0 -268795431.84768462 244470802.52891731 0 244470802.52891731 -132971972.09718323 0 0 0 0 52752373.062712669 117478320.47022247 0 117478320.47022247 -209762202.16799927 0 0 0 0 76320829.615938187 -11698011.203125 0 -11698011.203125 -119563616.83426666 0 0 0 0 56409388.476589203 128840508.77033997 0 128840508.77033997 -59754786.695800781 0 0 0 0 -98060305.533523798 35140057.682395935 0 35140057.682395935 8416324.8520202637 0 0 0 0 17392366.048334599 65508597.095596313 0 65508597.095596313 9603383.4238204956 0 0 0 0 450302.7856769081 -381246.95648987964 0 -381246.95648987964 -118180.69532390684 0 0 0 0 102294147.62035131 84865690.271224976 0 84865690.271224976 -6717708.9174385071 0 0 0 0 58660827.529341698 50598976.4492836 0 50598976.4492836 -166879949.71879578 0 0 0 0 15448935.597574472 44327025.279975891 0 44327025.279975891 45361033.260604858 0 0 0 0 63945515.784389734 18329339.156494141 0 18329339.156494141 9679633.8342666626 0 0 0 0 47214202.781180382 27876903.737747192 0 27876903.737747192 -48119327.79327774 0 0 0 0 9139681.2840912938 43164873.497915268 0 43164873.497915268 748581.59480285645 0 0 0 0 18529448.105920792 -38519888.505897522 0 -38519888.505897522 40115295.384307861 0 0 0 0 27098822.305013657 -5675063.4110107422 0 -5675063.4110107422 3138822.9542312622 0 0 0 0 -474738.2262907885 -421213.58985523507 0 -421213.58985523507 748396.48800301179 0 0 0 0 -796843.50457173772 139243.48254391924 0 139243.48254391924 -4730.8351334780455 0 0 0 0 -1427388.9058036804 -546606.7671585083 0 -546606.7671585083 2800611.27784729 0 0 0 0 -666980.76472473145 -404454.17010498047 0 -404454.17010498047 1725537.7774047852 0 0 0 0 -1669527.4935965538 -470024.37501621246 0 -470024.37501621246 1643460.6426849365 0 0 0 0 -1274675.0357322693 518284.09998703003 0 518284.09998703003 701933.20068359375 0 0 0 0 -2187050.7911627395 662175.90921927989 0 662175.90921927989 805366.31010319293 0 0 0 0 -1900960.8656005859 516091.45166778564 0 516091.45166778564 1479277.4003429413 0 0 0 0 -327239.80934906006 -204346.11650085449 0 -204346.11650085449 480756.53337097168 0 0 0 0 -2133926.419591561 294339.54808438197 0 294339.54808438197 1094451.2417460512 0 0 0 0 -342268.0689239502 416542.84576416016 0 416542.84576416016 2009579.16040802 0 0 0 0 715847.52677345276 -984665.84992980957 0 -984665.84992980957 1670601.0172119141 0 0 0 0 -2495226.7035827637 -517906.23710632324 0 -517906.23710632324 1910306.7002944946 0 0 0 0 -53397.139934319071 29841.485772939399 0 29841.485772939399 43537.634242996573 0 0 0 0 184688181.620224 -99088350.266235352 0 -99088350.266235352 -203204281.08577728 0 0 0 0 -396791.18690299988 -1368599.9714622498 0 -1368599.9714622498 3179656.0840911865 0 0 0 0 -726030.25141716003 -1771062.3923912048 0 -1771062.3923912048 3179633.1314849854 0 0 0 0 -1491698.237258926 215551.74778781086 0 215551.74778781086 -35124.092267815024 0 0 0 0 -418447.68924373388 -1991518.5818366967 0 -1991518.5818366967 2086902.9155682176 0 0 0 0 61669842.356651306 53335834.34299469 0 53335834.34299469 -81214392.252532959 0 0 0 0 -131889434.59036064 89043414.994644165 0 89043414.994644165 133557741.28024292 0 0 0 0 99695278.899309158 -21048896.157827377 0 -21048896.157827377 -20570030.038360596 0 0 0 0 260202020.22493744 -311749245.41191101 0 -311749245.41191101 230296212.52893066 0 0 0 0 41644.925614569336 -155189.04170720652 0 -155189.04170720652 84606.763305701315 0 0 0 0 -127319051.50179291 -81109605.330841064 0 -81109605.330841064 2804859.6121635437 0 0 0 0 70672127.196376801 132777788.2701683 0 132777788.2701683 10509299.41633606 0 0 0 0 -354798039.71640015 66665459.934326172 0 66665459.934326172 51241784.892272949 0 0 0 0 13101334.895992279 25312482.53817749 0 25312482.53817749 -123264867.9375515 0 0 0 0 -12289565.036468506 22373041.303833008 0 22373041.303833008 -50359700.148376465 0 0 0 0 -1099619.526718339 946013.93748888373 0 946013.93748888373 2389098.5681939851 0 0 0 0 -684132.10979727842 -593143.22394706309 0 -593143.22394706309 346900.70228938758 0 0 0 0 -130228880.92997742 79792962.914352417 0 79792962.914352417 71006909.007080078 0 0 0 0 372574759.81517124 718036381.4022274 0 718036381.4022274 -349684544.67980957 0 0 0 0 -404673300.55126572 54323637.180450439 0 54323637.180450439 53578269.026397705 0 0 0 0 -47258920.012367249 -55741652.629737854 0 -55741652.629737854 -1297064.7409667969 0 0 0 0 -67740440.184301376 -7466296.4318084717 0 -7466296.4318084717 21354973.778053284 0 0 0 0 -134486808.52905655 -24399449.942802429 0 -24399449.942802429 47083135.001739502 0 0 0 0 -53096871.81287384 37511142.097091675 0 37511142.097091675 53343004.190559387 0 0 0 0 -67229607.179405212 -12168789.474018097 0 -12168789.474018097 51419411.121063232 0 0 0 0 -70578641.707466125 -2518516.3925628662 0 -2518516.3925628662 49155674.433377266 0 0 0 0 18375462.027351379 -44375956.229743958 0 -44375956.229743958 46530337.826477051 0 0 0 0 -3493571.3500881195 -8683359.2895202637 0 -8683359.2895202637 30436579.658836365 0 0 0 0 -26576278.309826851 -9479473.207359314 0 -9479473.207359314 39177538.686523438 0 0 0 0 -34407042.167350769 999127.14437866211 0 999127.14437866211 38457854.940108299 0 0 0 0 -36429139.852462769 -19926123.384284973 0 -19926123.384284973 43392582.799514771 0 0 0 0 -16451452.584552765 32109013.583393097 0 32109013.583393097 51353962.438316345 0 0 0 0 -55794334.118150711 -9332515.4065704346 0 -9332515.4065704346 11870439.684967041 0 0 0 0 59073341.99977684 35694623.363491058 0 35694623.363491058 38262558.769636154 0 0 0 0 -9777421.0753550529 8305246.508061409 0 8305246.508061409 64961717.75062561 0 0 0 0 -3123287.5321017504 -18316282.362147093 0 -18316282.362147093 99336963.856704712 0 0 0 0 43488740.883924484 27324159.394935608 0 27324159.394935608 59993524.613220215 0 0 0 0 -10837811.890042305 15976546.130151749 0 15976546.130151749 208781379.01638794 0 0 0 0 36186720.145689964 6355526.7387771606 0 6355526.7387771606 119237893.25564575 0 0 0 0 -7411249.673532486 12270093.383094788 0 12270093.383094788 141564310.71009064 0 0 0 0 60353998.71919632 69582318.978919983 0 69582318.978919983 53410149.73713398 0 0 0 0 68388917.235593796 50691034.006931305 0 50691034.006931305 54482204.013938904 0 0 0 0 38676986.464642763 78247567.282057285 0 78247567.282057285 52640486.33631897 0 0 0 0 41387824.250988007 53905532.224815369 0 53905532.224815369 60257253.020721436 0 0 0 0 4695830.8479728699 -2663945.9368515015 0 -2663945.9368515015 -7208449.5093994141 0 0 0 0 2721740.1078910828 3391731.6291046143 0 3391731.6291046143 -5085735.9736213684 0 0 0 0 -3228336.8090076447 -5979243.580871582 0 -5979243.580871582 -4475904.0798339844 0 0 0 0 60896227.312530518 221831070.52983093 0 221831070.52983093 115529216.98181152 0 0 0 0 -950544.02610087767 -147346.20276586711 0 -147346.20276586711 1327792.1026823223 0 0 0 0 55013116.502975464 44070911.173553467 0 44070911.173553467 36873237.7003479 0 0 0 0 99938406.385795593 113407647.79270172 0 113407647.79270172 192151004.58752441 0 0 0 0 15300210.498004913 109283796.0382843 0 109283796.0382843 244665796.38729858 0 0 0 0 -116095.91192402504 -91717.691566288471 0 -91717.691566288471 39499.880359910429 0 0 0 0 -63212015.950874329 343901224.72980881 0 343901224.72980881 -1793125.5035400391 0 0 0 0 -10512026.866420746 -83051534.940505981 0 -83051534.940505981 216057457.99130249 0 0 0 0 203152352.11447906 -141488352.08654785 0 -141488352.08654785 269298605.28027344 0 0 0 0 -20259323.719470978 97190819.853729248 0 97190819.853729248 118633799.47480774 0 0 0 0 -11316245.041981697 146891867.42485046 0 146891867.42485046 375701211.3288269 0 0 0 0 -60712040.842926025 7935402.7346191406 0 7935402.7346191406 118391703.40237427 0 0 0 0 -48243548.831224442 -64054394.777915955 0 -64054394.777915955 47673518.717544556 0 0 0 0 -49592740.612470627 -21564144.382171631 0 -21564144.382171631 27330695.577407837 0 0 0 0 -67618386.444431305 -42705991.579040527 0 -42705991.579040527 102252725.15391541 0 0 0 0 9636009.5350551605 7293850.1433105469 0 7293850.1433105469 563556.43570327759 0 0 0 0 -325523.35375261307 4239668.4402351379 0 4239668.4402351379 3740024.4216995239 0 0 0 0 -140681.10027313232 -776375.06340026855 0 -776375.06340026855 2329244.2301712036 0 0 0 0 2319957.8295898438 -627402.55078125 0 -627402.55078125 -4593192.4676055908 0 0 0 0 29758821.639045715 -30858825.472015381 0 -30858825.472015381 32036106.084835052 0 0 0 0 1987613.4908065796 -1851164.3987960815 0 -1851164.3987960815 -1553047.2648696899 0 0 0 0 -347297.54573826306 -575140.38458971307 0 -575140.38458971307 425088.75472981669 0 0 0 0 -493449.14887094498 1755012.2090835571 0 1755012.2090835571 -1695628.711151123 0 0 0 0 -250431.4249015972 -83759.800110496581 0 -83759.800110496581 610935.68894327432 0 0 0 0 -2413530.6171099558 786708.18755563349 0 786708.18755563349 1841028.6896744296 0 0 0 0 2842204.9075630903 2927163.5226616859 0 2927163.5226616859 605138.43407440186 0 0 0 0 10565492.39953804 47906127.711524963 0 47906127.711524963 65460562.587234497 0 0 0 0 -347266.75768963248 -286022.9466939196 0 -286022.9466939196 211405.81772351637 0 0 0 0 6031193.3914451599 26102728.126113892 0 26102728.126113892 110692703.08175659 0 0 0 0 -6556197.2545833588 43560558.030014038 0 43560558.030014038 152880493.84228516 0 0 0 0 -9779089.6017723083 57485212.491073608 0 57485212.491073608 139413831.4927063 0 0 0 0 -1148161.3731098175 40280270.893341064 0 40280270.893341064 143821281.84753418 0 0 0 0 -17109737.364067078 13040154.038970947 0 13040154.038970947 137607417.46485901 0 0 0 0 -17401733.832882881 67057441.442749023 0 67057441.442749023 159126390.38827515 0 0 0 0 17580792.831972122 111120535.97790527 0 111120535.97790527 213821992.66439819 0 0 0 0 83332795.239570618 112140671.54930878 0 112140671.54930878 147214005.91929626 0 0 0 0 -61550664.020231247 24133391.746273041 0 24133391.746273041 239546522.43901062 0 0 0 0 85520803.654335022 188626650.0779953 0 188626650.0779953 270605488.12397766 0 0 0 0 31305960.340629578 68158677.351791382 0 68158677.351791382 307890547.36528015 0 0 0 0 90169876.23805809 4004942.7614440918 0 4004942.7614440918 165539557.60401917 0 0 0 0 -31899485.84844017 49352037.70892334 0 49352037.70892334 149244597.09239197 0 0 0 0 27996521.692895889 109748496.04278946 0 109748496.04278946 72230823.884216309 0 0 0 0 28693122.158037186 78616694.551589966 0 78616694.551589966 127228238.38831329 0 0 0 0 17453033.980331421 50752952.40625 0 50752952.40625 83852216.394317627 0 0 0 0 45091772.229468346 56919268.826789856 0 56919268.826789856 35057482.954917908 0 0 0 0 26537844.582542419 97796749.595863342 0 97796749.595863342 131573312.46413422 0 0 0 0 21627795.787441254 71850086.916229248 0 71850086.916229248 80369284.083068848 0 0 0 0 26286752.948196411 56730029.576538086 0 56730029.576538086 77231483.590894699 0 0 0 0 24060189.105781555 49860575.565368652 0 49860575.565368652 93387338.989542007 0 0 0 0 21059210.881988525 71362210.037895203 0 71362210.037895203 96068999.858642578 0 0 0 0 14479991.912679672 51928260.216835022 0 51928260.216835022 128728191.34501648 0 0 0 0 -111417.58928584796 828669.67251576181 0 828669.67251576181 328155.26609117538 0 0 0 0 25745645.282966614 -50072881.480255127 0 -50072881.480255127 17842390.967163086 0 0 0 0 -810199.83791184425 564097.54378890991 0 564097.54378890991 932130.1750793457 0 0 0 0 -1846147.2547631906 -142657.68462441489 0 -142657.68462441489 1581535.0774363093 0 0 0 0 -16313.223207376897 -28710.535693023354 0 -28710.535693023354 -229293.70622401498 0 0 0 0 32769168.332901001 420284.0626449585 0 420284.0626449585 -257131.39721679688 0 0 0 0 3172971.0827541351 -20349129.778800964 0 -20349129.778800964 34996570.389862061 0 0 0 0 153685804.22308397 143285283.80285835 0 143285283.80285835 70189053.93812561 0 0 0 0 90180370.748710632 87450804.701538086 0 87450804.701538086 31150127.899498701 0 0 0 0 50827447.008003235 36540711.580032349 0 36540711.580032349 126096563.45159912 0 0 0 0 37867080.459002972 133794285.36498642 0 133794285.36498642 212153579.70715332 0 0 0 0 56957686.793746948 -32487611.140878677 0 -32487611.140878677 33528059.250022888 0 0 0 0 -1279943.9582963046 -72457.770842470229 0 -72457.770842470229 1078038.2060874738 0 0 0 0 1796498.7404403687 533817.64239501953 0 533817.64239501953 -4707027.6334686279 0 0 0 0 -735568.62986373901 2620344.3472061157 0 2620344.3472061157 5461030.470741272 0 0 0 0 412498.0867767334 5218823.284866333 0 5218823.284866333 -5268702.9745635986 0 0 0 0 -1405047.6018996355 1704393.9227399281 0 1704393.9227399281 360967.3569996655 0 0 0 0 -1579867.2130908966 592811.2501335144 0 592811.2501335144 1282434.5100860596 0 0 0 0 -75158.287147521973 -865454.51404953003 0 -865454.51404953003 1277441.9634170532 0 0 0 0 5305676.748916626 3393105.0503234863 0 3393105.0503234863 -3291805.5198669434 0 0 0 0 -5385323.1709296703 2031941.7201042175 0 2031941.7201042175 689461.28228759766 0 0 0 0 -544198.49629864306 1074818.8606877762 0 1074818.8606877762 -187783.95517920703 0 0 0 0 -164127.17759703286 346025.12512590713 0 346025.12512590713 -57768.83219306916 0 0 0 0 -5069148.3099803925 -7334216.6440086365 0 -7334216.6440086365 28892269.650680542 0 0 0 0 3856551.4568443298 -4752944.2643432617 0 -4752944.2643432617 3631753.3316802979 0 0 0 0 3324738.6294612885 1582373.3403015137 0 1582373.3403015137 -552999.69588470459 0 0 0 0 -11677966.042770386 -3640567.0625534058 0 -3640567.0625534058 18419560.643722534 0 0 0 0 1121862.2365698814 -8600646.5345973969 0 -8600646.5345973969 15704261.676757812 0 0 0 0 -1559727.6659946442 -786377.20121002197 0 -786377.20121002197 9705312.4048156738 0 0 0 0 982871.60834503174 -4297951.834312439 0 -4297951.834312439 9906151.6540527344 0 0 0 0 -1794780.2841399126 -212351.03320800513 0 -212351.03320800513 787539.54378945567 0 0 0 0 -7205207.2047271729 4522891.0844345093 0 4522891.0844345093 2457355.9567947388 0 0 0 0 979369.92495632172 569065.86625671387 0 569065.86625671387 -2058736.5696563721 0 0 0 0 -2912318.5570869446 6953183.4171218872 0 6953183.4171218872 6657365.0033626556 0 0 0 0 -763967.09540557861 10413126.835617065 0 10413126.835617065 -1227234.4871902466 0 0 0 0 -995687.25869015791 -360473.9741133377 0 -360473.9741133377 449457.78726441786 0 0 0 0 -13464552.748173714 -9504964.5709114075 0 -9504964.5709114075 14948554.696792603 0 0 0 0 3444884.7292251587 8965298.9014587402 0 8965298.9014587402 18596515.672204971 0 0 0 0 16750720.15650177 -8961370.8647537231 0 -8961370.8647537231 -13927765.716751099 0 0 0 0 -14952675.333431244 52443863.148513794 0 52443863.148513794 -73787370.7394104 0 0 0 0 -641717.29153290018 -267090.13262208551 0 -267090.13262208551 620418.6011928618 0 0 0 0 65285001.398464203 25731640.107940674 0 25731640.107940674 -25850462.110122681 0 0 0 0 -44122817.824893951 -28665292.773696899 0 -28665292.773696899 103263198.4935894 0 0 0 0 -60391007.166915894 -1947851.2376403809 0 -1947851.2376403809 104143018.29234314 0 0 0 0 -201361115.06681824 97335023.112937927 0 97335023.112937927 73077425.880493164 0 0 0 0 -111607213.92957211 54649334.205783844 0 54649334.205783844 59889458.136260986 0 0 0 0 -8439259.9854640961 11578824.161384583 0 11578824.161384583 -26402238.530166626 0 0 0 0 -9639528.3712277412 152909.23271179199 0 152909.23271179199 15386807.087463379 0 0 0 0 -12733327.312227249 -1439483.4671401978 0 -1439483.4671401978 16637627.14761734 0 0 0 0 -19850948.293649673 -15417917.485595703 0 -15417917.485595703 41901091.494750977 0 0 0 0 -37443069.049583435 988781.95088577271 0 988781.95088577271 31786740.141525269 0 0 0 0 7197048.900891304 -43947928.602661133 0 -43947928.602661133 39850232.607078552 0 0 0 0 -49030423.798949242 -50192171.425518036 0 -50192171.425518036 69488553.210662842 0 0 0 0 -20714682.540972233 -45628661.219098091 0 -45628661.219098091 66009766.95627594 0 0 0 0 -8038786.1000976562 -42832944.067394257 0 -42832944.067394257 50305966.105255127 0 0 0 0 -22824777.806711197 -45921495.748510361 0 -45921495.748510361 98803399.820114136 0 0 0 0 11347809.475674629 -67832077.43277359 0 -67832077.43277359 130671175.20822906 0 0 0 0 176136287.95708084 193351936.36109543 0 193351936.36109543 186162208.56665802 0 0 0 0 43787770.998731613 -35105886.423061371 0 -35105886.423061371 -21283655.499893188 0 0 0 0 46454674.940961361 -53901148.853013992 0 -53901148.853013992 16960821.145492554 0 0 0 0 -350290.81629771227 46129.415943365544 0 46129.415943365544 991137.47456734627 0 0 0 0 -14781409.495304108 48597029.906341553 0 48597029.906341553 -15184188.052150249 0 0 0 0 3584694.921225071 13089719.07025528 0 13089719.07025528 42050714.297302246 0 0 0 0 -445839.06357860565 3116994.3045196533 0 3116994.3045196533 34213957.897796631 0 0 0 0 5409650.7668094635 3772759.7653388977 0 3772759.7653388977 26137521.144023895 0 0 0 0 5518294.548160553 -9123271.6426315308 0 -9123271.6426315308 19716390.560218811 0 0 0 0 -28410574.388766289 268194.78623962402 0 268194.78623962402 106796825.66208267 0 0 0 0 -30135124.127210379 9558641.5368089676 0 9558641.5368089676 56760151.459083557 0 0 0 0 37690832.13390398 62287535.18183136 0 62287535.18183136 58783303.082839966 0 0 0 0 -58444208.362822533 2135806.7127876282 0 2135806.7127876282 65767916.396827698 0 0 0 0 -54649572.019478321 27694890.076259613 0 27694890.076259613 9100176.030380249 0 0 0 0 -14434975.493560791 37846935.9402771 0 37846935.9402771 29352994.063148499 0 0 0 0 -123347777.56817102 60118912.54908371 0 60118912.54908371 41483928.118408203 0 0 0 0 -97787049.854172468 -5353973.8857307434 0 -5353973.8857307434 28256344.281509399 0 0 0 0 49594234.315903664 65406012.081020355 0 65406012.081020355 11812250.013565063 0 0 0 0 -5116248.1685912609 17115559.351147652 0 17115559.351147652 14210493.85333252 0 0 0 0 50117630.218549728 40309941.212245941 0 40309941.212245941 38727432.046916962 0 0 0 0 -839345.8409973681 1367052.9729413781 0 1367052.9729413781 2844858.9841662943 0 0 0 0 45607573.234255314 59312071.201454163 0 59312071.201454163 27758821.30670166 0 0 0 0 -75188289.252545357 -11178756.402605057 0 -11178756.402605057 36029610.627670288 0 0 0 0 -25766303.231719971 -6319802.3431282043 0 -6319802.3431282043 -5383339.1574821472 0 0 0 0 -270111.36930338037 480608.81373482384 0 480608.81373482384 990624.7840795517 0 0 0 0 -36736269.160350323 -99944280.805294037 0 -99944280.805294037 203439530.29324341 0 0 0 0 44282091.93042469 -91737274.631885529 0 -91737274.631885529 38135305.288330078 0 0 0 0 194716946.58838844 145826217.43593979 0 145826217.43593979 88962434.167297363 0 0 0 0 -19361254.468811989 -10531027.920578003 0 -10531027.920578003 77498213.436050415 0 0 0 0 -58997627.121356487 86404162.241668701 0 86404162.241668701 218128862.23477936 0 0 0 0 453136385.55163574 -28158330.913719177 0 -28158330.913719177 -109958516.28694916 0 0 0 0 197151808.22993469 -124968513.5789032 0 -124968513.5789032 -129434206.63043213 0 0 0 0 -81386190.021419525 57138102.197372437 0 57138102.197372437 214060497.030056 0 0 0 0 4514494.9764060974 59187591.673126221 0 59187591.673126221 135076428.354599 0 0 0 0 -356642.037788596 -360848.14807475731 0 -360848.14807475731 234510.84714352898 0 0 0 0 -62153110.366703033 -16508839.691040039 0 -16508839.691040039 93334602.577957153 0 0 0 0 35584257.058911324 57098770.381856918 0 57098770.381856918 76610679.647766113 0 0 0 0 31339295.560043335 65034066.012359619 0 65034066.012359619 75113717.660480499 0 0 0 0 17614414.041599274 63014196.299034119 0 63014196.299034119 81093343.277526855 0 0 0 0 85400079.003210068 44597002.103902817 0 44597002.103902817 64233814.086532593 0 0 0 0 26497470.991506577 -20524962.697277069 0 -20524962.697277069 70755651.030029297 0 0 0 0 54506727.94625473 75129797.220298767 0 75129797.220298767 92971978.213005066 0 0 0 0 -23308570.321703434 8723063.2141532898 0 8723063.2141532898 99841228.755523682 0 0 0 0 -59528812.807460785 -25888697.599319458 0 -25888697.599319458 86924667.288677216 0 0 0 0 -16635135.791804314 -18996510.299499512 0 -18996510.299499512 83347941.957305908 0 0 0 0 -19673964.924801707 -4704597.2761487961 0 -4704597.2761487961 73946823.965393066 0 0 0 0 -45803526.291563034 -15456742.746452332 0 -15456742.746452332 73769156.970409393 0 0 0 0 -51420130.584228516 -4803446.1518058777 0 -4803446.1518058777 60476941.203582764 0 0 0 0 -44142730.369257927 -788779.71627044678 0 -788779.71627044678 41764585.24747467 0 0 0 0 -37916877.509986877 -26539440.665290833 0 -26539440.665290833 68765966.580833435 0 0 0 0 -19331259.978395939 -52323687.50173378 0 -52323687.50173378 73350678.920944214 0 0 0 0 -48485840.279857159 -34529537.256244659 0 -34529537.256244659 63097794.471298218 0 0 0 0 -110547273.88251591 -80856259.31905365 0 -80856259.31905365 64428268.177078247 0 0 0 0 -11041229.976031303 -119487175.50214386 0 -119487175.50214386 21225295.000228882 0 0 0 0 -43722084.705032349 43768840.995510101 0 43768840.995510101 88950356.139633179 0 0 0 0 -121989047.10529423 -23210195.776870728 0 -23210195.776870728 93066129.493812561 0 0 0 0 -627085.97054711077 -571184.3545774892 0 -571184.3545774892 491523.74033468589 0 0 0 0 -63379194.642629623 -100243317.22270203 0 -100243317.22270203 -111694948.04441833 0 0 0 0 -177560258.01295924 -64936083.43023777 0 -64936083.43023777 21969392.412185669 0 0 0 0 -156398615.82936096 51815517.646957397 0 51815517.646957397 74204112.689193726 0 0 0 0 -55130205.320964813 -3859250.9403457642 0 -3859250.9403457642 166025788.24210358 0 0 0 0 32193702.892295837 93864931.045974731 0 93864931.045974731 50646259.710952759 0 0 0 0 -66752427.585206032 42737305.635314941 0 42737305.635314941 -15749693.576324463 0 0 0 0 14442754.404678345 53615571.157798767 0 53615571.157798767 108003052.98410034 0 0 0 0 26857334.889015198 48550980.138092041 0 48550980.138092041 93895418.295089722 0 0 0 0 28598743.223148346 55965819.516654968 0 55965819.516654968 85473209.208389282 0 0 0 0 23007293.411886692 57763910.51584053 0 57763910.51584053 87880648.022232056 0 0 0 0 30138094.724536896 56668187.579185486 0 56668187.579185486 76676111.444262505 0 0 0 0 26380961.584415436 47888752.767097473 0 47888752.767097473 97505769.219146729 0 0 0 0 24621341.750146866 40926841.719223022 0 40926841.719223022 74321109.62449646 0 0 0 0 38775860.12665081 49753252.152576447 0 49753252.152576447 78435737.676773071 0 0 0 0 13808898.907333374 16391898.451454163 0 16391898.451454163 57353888.70271492 0 0 0 0 -1653614.9586277008 38767833.295471191 0 38767833.295471191 75422217.172309875 0 0 0 0 -2567360.5831333995 24155912.81735301 0 24155912.81735301 99421856.310684204 0 0 0 0 -1524340.7736232653 -992287.67427925766 0 -992287.67427925766 1210126.0528921317 0 0 0 0 -2183031.9401512146 -1653975.3579711914 0 -1653975.3579711914 108457378.84138584 0 0 0 0 9586847.2469463348 35588758.752716064 0 35588758.752716064 109632225.21113586 0 0 0 0 -16031788.417152405 -22339369.2993927 0 -22339369.2993927 -312802.22267150879 0 0 0 0 19309002.273227692 25470365.632354736 0 25470365.632354736 117861766.45477295 0 0 0 0 11800033.733036041 55067472.176208496 0 55067472.176208496 131280283.98170471 0 0 0 0 -236489.85586567735 66952.137342765927 0 66952.137342765927 258924.94287264347 0 0 0 0 20720057.165805817 74082409.140869141 0 74082409.140869141 169246569.20571899 0 0 0 0 11688891.742418289 43568604.487831116 0 43568604.487831116 127671516.39730835 0 0 0 0 11438814.551898956 30498565.557418823 0 30498565.557418823 162934431.27065659 0 0 0 0 19835997.282550812 47427763.370254517 0 47427763.370254517 97702649.004165649 0 0 0 0 23253838.92250061 36673711.014755249 0 36673711.014755249 127542006.04370117 0 0 0 0 812293.74382901192 -9600103.7358837128 0 -9600103.7358837128 8763236.2119750977 0 0 0 0 -18945588.95580864 -6561251.031578064 0 -6561251.031578064 30667356.70098877 0 0 0 0 -54373166.340269089 -25759466.595596313 0 -25759466.595596313 45167100.852981567 0 0 0 0 -44439567.52299881 -33705945.814445496 0 -33705945.814445496 36964994.646240234 0 0 0 0 -35687877.454591751 -22745301.340316772 0 -22745301.340316772 15042902.495559692 0 0 0 0 -28034098.315617085 -30566390.982959747 0 -30566390.982959747 3124316.4815216064 0 0 0 0 -62603612.005081177 -52410175.264793396 0 -52410175.264793396 17734708.136871338 0 0 0 0 -47876747.108792305 -30080510.165836334 0 -30080510.165836334 -14159077.703186035 0 0 0 0 -63482173.31770134 -40246857.193313599 0 -40246857.193313599 39823008.630950928 0 0 0 0 -48408177.376873016 -35786664.861335754 0 -35786664.861335754 730374.54067993164 0 0 0 0 -66340544.583499908 -39599154.014900208 0 -39599154.014900208 55241232.329421997 0 0 0 0 -26093547.60807991 -14479052.722740173 0 -14479052.722740173 38411835.653686523 0 0 0 0 -33928753.553725243 16199104.186157227 0 16199104.186157227 -25129204.595193863 0 0 0 0 -31945116.610977173 -342795.97005462646 0 -342795.97005462646 79079410.535766602 0 0 0 0 -31108324.108289719 98390303.017700195 0 98390303.017700195 -7123398.1054382324 0 0 0 0 -29675204.288342476 108423988.86692047 0 108423988.86692047 31396634.920410156 0 0 0 0 -50564769.234371185 89841539.297042847 0 89841539.297042847 58404210.57208252 0 0 0 0 -50584291.066190243 82429356.428199768 0 82429356.428199768 28463665.483062744 0 0 0 0 -45213166.085768223 70490512.671394348 0 70490512.671394348 30935610.951171875 0 0 0 0 -6451825.0487737656 -28541639.546112061 0 -28541639.546112061 17342453.740447044 0 0 0 0 -72998575.26728487 -51090996.239616394 0 -51090996.239616394 60620655.862442017 0 0 0 0 -51938537.407576561 60853902.701950073 0 60853902.701950073 19267513.268722534 0 0 0 0 697035.72074350738 -1545486.3166462891 0 -1545486.3166462891 -1344706.2243511975 0 0 0 0 -17290472.932417929 -71306434.837900639 0 -71306434.837900639 -41661674.850891113 0 0 0 0 -39757016.848323822 -6757550.6856307983 0 -6757550.6856307983 48659010.203273773 0 0 0 0 -731038.60696461145 -7446366.7403176837 0 -7446366.7403176837 16104524.257021392 0 0 0 0 21447586.698922157 -25592932.606105804 0 -25592932.606105804 -13748287.625274658 0 0 0 0 26114534.762140393 -46995576.460960388 0 -46995576.460960388 -59560607.792098045 0 0 0 0 -17067333.905422449 -72670903.079651833 0 -72670903.079651833 -62739702.401908875 0 0 0 0 1078684.3297764859 -6604006.2015756276 0 -6604006.2015756276 14441508.502706319 0 0 0 0 -9326995.9966583252 -51835581.464809418 0 -51835581.464809418 -79810030.960906982 0 0 0 0 -24047702.69623385 -11421290.121592999 0 -11421290.121592999 21565203.32069397 0 0 0 0 -12125099.580540657 29208759.005401611 0 29208759.005401611 -106047815.63637543 0 0 0 0 5237810.5660817623 -63527226.829242706 0 -63527226.829242706 55002083.370048523 0 0 0 0 -1463144.0068586469 26604269.36384058 0 26604269.36384058 107513326.27713776 0 0 0 0 -72040542.014745951 -74367477.105244637 0 -74367477.105244637 19021785.395767212 0 0 0 0 -33854725.146820068 -17464898.304737091 0 -17464898.304737091 -4055084.1293678284 0 0 0 0 14799707.82887888 -47823742.003471375 0 -47823742.003471375 11965042.814880371 0 0 0 0 -11333135.346061289 7929696.3552455902 0 7929696.3552455902 70118373.278656006 0 0 0 0 1405981.9122159481 -36235202.60252285 0 -36235202.60252285 -33712329.752304077 0 0 0 0 109272239.18130708 66579673.815873146 0 66579673.815873146 71638103.94953537 0 0 0 0 20625985.486418843 -11259837.30758667 0 -11259837.30758667 80773966.332374573 0 0 0 0 -45533814.545805931 -20361261.641841888 0 -20361261.641841888 -54214919.835235596 0 0 0 0 -83188563.193799973 -45003881.572929382 0 -45003881.572929382 6872114.4695892334 0 0 0 0 -131471038.739048 149970729.16590881 0 149970729.16590881 -177170723.03825378 0 0 0 0 654791.68091061525 -7803265.9402465858 0 -7803265.9402465858 15816828.859509364 0 0 0 0 -56050572.52249527 -66788296.458297729 0 -66788296.458297729 -27533315.549806595 0 0 0 0 -6148262.2927486179 967890.58186419681 0 967890.58186419681 5602656.2158984542 0 0 0 0 -45060914.654214859 27896512.273971558 0 27896512.273971558 41775702.53086853 0 0 0 0 -83597619.326337814 114682578.80162811 0 114682578.80162811 -241409521.13312531 0 0 0 0 353930324.02392197 -178179671.03048706 0 -178179671.03048706 -155310991.02276993 0 0 0 0 834809.33602523804 -107794409.65309143 0 -107794409.65309143 -82063041.522293091 0 0 0 0 104042902.43406916 -331272231.35221863 0 -331272231.35221863 -25003365.58303833 0 0 0 0 -276652189.22505093 -114968809.41907501 0 -114968809.41907501 -764338338.34104156 0 0 0 0 169563253.85600853 340405755.08015442 0 340405755.08015442 366918545.82958984 0 0 0 0 -152827588.66292191 213109284.04135895 0 213109284.04135895 748633808.62199497 0 0 0 0 14871817.46248436 -383834105.08357239 0 -383834105.08357239 682087235.75547791 0 0 0 0 736775.20302495593 -5757645.2960610203 0 -5757645.2960610203 13031964.206945829 0 0 0 0 -680333588.55485535 -483867729.10614777 0 -483867729.10614777 1344119806.3853455 0 0 0 0 -100351621.91351986 -57253121.132928848 0 -57253121.132928848 41234589.061889648 0 0 0 0 11997063.623208046 -16314034.552894592 0 -16314034.552894592 -22043748.295143127 0 0 0 0 58078357.087686539 79811797.821327209 0 79811797.821327209 43166735.946975708 0 0 0 0 24349524.77009964 109306393.52973747 0 109306393.52973747 187302111.7787323 0 0 0 0 888061.98342418671 38350057.816673279 0 38350057.816673279 95378245.448501587 0 0 0 0 -41727987.763786316 78284665.350028992 0 78284665.350028992 78137091.31427002 0 0 0 0 5420019.7994194031 94533154.842758179 0 94533154.842758179 39793065.686660767 0 0 0 0 -300931763.01047516 -309435291.33262634 0 -309435291.33262634 -322829035.13504028 0 0 0 0 610887.60957827885 -1272746.6592147388 0 -1272746.6592147388 1682739.2316661626 0 0 0 0 662580.69797773659 -3637885.5165432692 0 -3637885.5165432692 8202193.1965793967 0 0 0 0 -54975598.822222829 -45937816.820654869 0 -45937816.820654869 59320149.692779541 0 0 0 0 83632408.87725693 166179216.07385635 0 166179216.07385635 277775420.43810272 0 0 0 0 111826424.50783968 86891169.218868256 0 86891169.218868256 121062431.93967438 0 0 0 0 49372581.393270016 89127058.32478714 0 89127058.32478714 138757486.95899582 0 0 0 0 3415687.9006528854 -3668394.9336700439 0 -3668394.9336700439 53313094.197013855 0 0 0 0 3504784.8452041745 65362780.856805325 0 65362780.856805325 121164965.84565735 0 0 0 0 146085328.65205956 180820795.55760956 0 180820795.55760956 186395478.51922607 0 0 0 0 70937844.79097569 138359233.29969883 0 138359233.29969883 221578787.51460266 0 0 0 0 88714392.356617928 83457625.626846313 0 83457625.626846313 94872183.774368286 0 0 0 0 117471408.02091345 186995777.67271042 0 186995777.67271042 326322796.92216492 0 0 0 0 235037285.45349273 232179393.99278641 0 232179393.99278641 300061653.16983795 0 0 0 0 258268097.6921488 146779494.35707092 0 146779494.35707092 382626232.43948364 0 0 0 0 155170959.87639236 207914029.02032089 0 207914029.02032089 347504160.79283142 0 0 0 0 174288286.6212759 166992684.76906967 0 166992684.76906967 311297606.47955894 0 0 0 0 90016449.617940307 128260848.22692108 0 128260848.22692108 463628676.82279205 0 0 0 0 87849040.653900146 151977655.72943497 0 151977655.72943497 319291845.07239532 0 0 0 0 118403471.58140659 166417369.36416245 0 166417369.36416245 159401160.66841507 0 0 0 0 64410128.978785038 112575041.14664078 0 112575041.14664078 226026970.74300385 0 0 0 0 104156323.88341522 132633970.98509216 0 132633970.98509216 116275665.88060951 0 0 0 0 85162690.597564697 215741102.14816284 0 215741102.14816284 310825255.06879425 0 0 0 0 69399666.060030937 59198310.540306091 0 59198310.540306091 67856903.663208008 0 0 0 0 142791234.65156174 -3678646.0554656982 0 -3678646.0554656982 -78033705.61328125 0 0 0 0 195082611.87809753 145652615.09017944 0 145652615.09017944 -41652525.956100464 0 0 0 0 158758047.25011444 230382632.84559631 0 230382632.84559631 170458111.81726837 0 0 0 0 84457930.242372513 161857642.37158203 0 161857642.37158203 313153083.64723206 0 0 0 0 238197006.28084564 279635172.06032562 0 279635172.06032562 225075919.59947205 0 0 0 0 237037565.94568044 308472562.03769755 0 308472562.03769755 486768176.75015259 0 0 0 0 105608295.81429291 153066910.33351135 0 153066910.33351135 496675491.34690857 0 0 0 0 73559341.174189091 222504637.2300396 0 222504637.2300396 417405818.1947937 0 0 0 0 76898390.49681282 133380859.48138046 0 133380859.48138046 492063898.04101562 0 0 0 0 83626813.970615387 183859068.19715881 0 183859068.19715881 542837419.71873474 0 0 0 0 78392206.195343018 155579753.45998383 0 155579753.45998383 550832333.12185669 0 0 0 0 142397407.37605286 41761315.408737183 0 41761315.408737183 566450835.37778854 0 0 0 0 105736941.59250048 161175799.23184955 0 161175799.23184955 824197134.36289978 0 0 0 0 71595084.027904391 148846374.98133659 0 148846374.98133659 487283392.20796204 0 0 0 0 95501591.574975967 141007742.90712738 0 141007742.90712738 371735275.37664795 0 0 0 0 51226278.392748833 168429345.84016037 0 168429345.84016037 481659141.04708862 0 0 0 0 94638758.356157303 114771284.98960876 0 114771284.98960876 504100855.26858902 0 0 0 0 107505660.56768322 152967655.17944717 0 152967655.17944717 510933446.25575256 0 0 0 0 89665006.969804049 134567279.7029953 0 134567279.7029953 492168592.08965302 0 0 0 0 164153493.55453491 129157094.63913727 0 129157094.63913727 471919498.72576094 0 0 0 0 185350590.10631561 272043930.21571112 0 272043930.21571112 236539779.5667572 0 0 0 0 170224547.07918835 66869807.862640381 0 66869807.862640381 399081936.07444763 0 0 0 0 97874611.806447029 106070581.20298004 0 106070581.20298004 473603194.46932983 0 0 0 0 44521993.30877924 115021094.97079468 0 115021094.97079468 587379744.31990814 0 0 0 0 -8361583.4405241013 226695110.46130371 0 226695110.46130371 476221772.14431 0 0 0 0 140528226.27641892 8248879.1551132202 0 8248879.1551132202 739694005.945364 0 0 0 0 121402599.96115971 287935599.14764404 0 287935599.14764404 613328058.85959625 0 0 0 0 485337695.87739861 106154476.51982403 0 106154476.51982403 358868836.76766968 0 0 0 0 130829394.31551003 110819916.97135162 0 110819916.97135162 490377534.34590912 0 0 0 0 -150575245.2816124 93413641.805994034 0 93413641.805994034 -148025697.16456604 0 0 0 0 -29409222.720191479 37032860.925002098 0 37032860.925002098 24649454.844268799 0 0 0 0 -106780640.27939606 -14373923.374259949 0 -14373923.374259949 20620292.459899902 0 0 0 0 -14927643.810661316 87447106.27419281 0 87447106.27419281 -22067330.349502563 0 0 0 0 -14865009.82494545 80437466.053993225 0 80437466.053993225 54015619.85332489 0 0 0 0 32781249.567581177 52198654.750152588 0 52198654.750152588 35397307.103393555 0 0 0 0 32233364.422980905 39900541.768484354 0 39900541.768484354 152924873.04597473 0 0 0 0 -20046355.959381104 -11018245.113380432 0 -11018245.113380432 145955359.70697021 0 0 0 0 -1803888.4063262939 -27774328.814155579 0 -27774328.814155579 126124077.41825104 0 0 0 0 -49387790.513317108 -95543434.014839172 0 -95543434.014839172 333660752.81210327 0 0 0 0 -8116286.9992074966 -17721992.585449219 0 -17721992.585449219 322380418.80322266 0 0 0 0 -107229190.84975052 -102091086.9258728 0 -102091086.9258728 600474042.37503052 0 0 0 0 -106725941.41820526 -85087736.742980957 0 -85087736.742980957 446843683.75469971 0 0 0 0 -48408275.005485535 -644276.18807983398 0 -644276.18807983398 345165818.30686951 0 0 0 0 -72371709.436115265 -149374156.53717041 0 -149374156.53717041 321365368.09218597 0 0 0 0 -122102339.07771194 -181795383.26756859 0 -181795383.26756859 -178924266.26925659 0 0 0 0 -106868208.8854866 -237838610.67494202 0 -237838610.67494202 268077430.58364105 0 0 0 0 -476004015.17513657 -457759739.74681091 0 -457759739.74681091 353898516.10680389 0 0 0 0 -121269884.53472137 -158185125.53981018 0 -158185125.53981018 311620918.34006882 0 0 0 0 -42488613.997506142 -124187165.38028717 0 -124187165.38028717 67268641.152389526 0 0 0 0 456703112.3431015 593761976.52763367 0 593761976.52763367 390331145.22553253 0 0 0 0 -375223.56894649658 -403038.94651111588 0 -403038.94651111588 3114191.2758776397 0 0 0 0 263335762.37942123 319637553.77304459 0 319637553.77304459 79553580.015213013 0 0 0 0 49002099.02365303 332826615.36331177 0 332826615.36331177 484854135.9367218 0 0 0 0 177395066.28246307 419584423.14228821 0 419584423.14228821 429706237.26452637 0 0 0 0 -615264489.7808733 -19091886.008033752 0 -19091886.008033752 405567560.88821983 0 0 0 0 -269160668.76054382 746055436.08182907 0 746055436.08182907 792215813.50993347 0 0 0 0 493562557.41273117 73153648.471984863 0 73153648.471984863 351464049.38526154 0 0 0 0 -247216.82408629637 -1860114.0423390605 0 -1860114.0423390605 7064800.2272986546 0 0 0 0 -388997307.27430141 -119573335.64243698 0 -119573335.64243698 1547687.4902496338 0 0 0 0 -368577429.19187546 62068494.513435364 0 62068494.513435364 29303972.263427734 0 0 0 0 -126391441.75481796 46807711.281982422 0 46807711.281982422 -39193250.395454407 0 0 0 0 -156392070.49796772 -59526764.747436523 0 -59526764.747436523 -83761979.43081665 0 0 0 0 -206815954.87375546 391781.73532485962 0 391781.73532485962 58037544.769256592 0 0 0 0 776965991.09058952 -977693729.11492157 0 -977693729.11492157 -1158462141.9447174 0 0 0 0 1750901694.3719921 1799236334.6681366 0 1799236334.6681366 821353147.64212036 0 0 0 0 278660351.24869919 -155030869.73653412 0 -155030869.73653412 675033259.95289612 0 0 0 0 -965651871.39593887 -542481879.28701782 0 -542481879.28701782 164375960.57400513 0 0 0 0 181458.29081630474 -1118536.4826050401 0 -1118536.4826050401 2751311.1199675575 0 0 0 0 -156931260.5476675 -45325875.284415245 0 -45325875.284415245 56560693.980056763 0 0 0 0 727685.78401108086 -2712856.5582166817 0 -2712856.5582166817 5651339.1596712172 0 0 0 0 -132388961.3283844 16279980.222457886 0 16279980.222457886 17821927.475135803 0 0 0 0 -128386515.67570686 41766871.68057251 0 41766871.68057251 99849826.890533447 0 0 0 0 -119357875.88137054 49287466.532119751 0 49287466.532119751 39726215.021877289 0 0 0 0 -156898954.45405579 15217429.206878662 0 15217429.206878662 91090172.697753906 0 0 0 0 -84681138.51260376 44601498.348632812 0 44601498.348632812 85323836.942464828 0 0 0 0 -116129164.96284866 69348176.310081482 0 69348176.310081482 146017215.64479065 0 0 0 0 -82591974.721309662 77117205.396759033 0 77117205.396759033 108420489.84501648 0 0 0 0 -63374933.603694916 78916617.570205688 0 78916617.570205688 111968336.07570648 0 0 0 0 -88584641.474784851 91204186.261062622 0 91204186.261062622 154573855.38839722 0 0 0 0 -21859470.320220947 79125086.926437378 0 79125086.926437378 94852953.554485321 0 0 0 0 -63385359.406322479 99654516.562438965 0 99654516.562438965 170546995.73773193 0 0 0 0 -39476491.914684296 56453544.213623047 0 56453544.213623047 101810721.82165527 0 0 0 0 -115812647.23785019 86784207.695228577 0 86784207.695228577 115248664.22247314 0 0 0 0 -140012649.471035 51312968.97530365 0 51312968.97530365 59486459.806472778 0 0 0 0 -46577963.056022644 83288227.772762299 0 83288227.772762299 34573885.799560547 0 0 0 0 41308977.869890213 66101477.0740242 0 66101477.0740242 27097666.801544189 0 0 0 0 38339575.281457901 62723330.84161377 0 62723330.84161377 28067745.427978516 0 0 0 0 -38534112.926242828 68242433.659309387 0 68242433.659309387 121864486.77674866 0 0 0 0 -23613563.542736053 89963406.5599823 0 89963406.5599823 115562947.96084595 0 0 0 0 -34138282.681594849 60642671.273452759 0 60642671.273452759 185645512.61256409 0 0 0 0 -33175084.732084274 42025289.862512589 0 42025289.862512589 414051819.59072876 0 0 0 0 -54093.284446716309 257427433.97567749 0 257427433.97567749 136953111.4186554 0 0 0 0 6787111.9930000305 331681655.77845764 0 331681655.77845764 346887114.02532959 0 0 0 0 29506344.164123535 189030200.90490723 0 189030200.90490723 106492553.65938568 0 0 0 0 -28319984.984775543 183474334.83230591 0 183474334.83230591 288662144.29292297 0 0 0 0 -32095953.024665833 129482836.0115509 0 129482836.0115509 160364700.8727951 0 0 0 0 -45868842.27802372 136018684.5280838 0 136018684.5280838 170165747.67367554 0 0 0 0 -76137756.158256531 96873881.843650818 0 96873881.843650818 177808129.26589966 0 0 0 0 -41572263.036632538 96161950.366653442 0 96161950.366653442 152437285.55990601 0 0 0 0 -15439180.374504089 89810220.995609283 0 89810220.995609283 178494861.76527405 0 0 0 0 -24455406.168319702 101412137.1446228 0 101412137.1446228 166544239.06018066 0 0 0 0 55095340.352710724 147699353.19606018 0 147699353.19606018 165155202.08993912 0 0 0 0 71239479.36794281 77794650.115089417 0 77794650.115089417 171605826.85719299 0 0 0 0 -9136883.2646846771 64835466.801506042 0 64835466.801506042 190757853.50850677 0 0 0 0 500869.56565554999 35278.982039391994 0 35278.982039391994 -288038.91857139394 0 0 0 0 84056580.80329895 155866727.04199982 0 155866727.04199982 124254622.91744995 0 0 0 0 2662296.0614204407 16833493.68522644 0 16833493.68522644 25197690.147773743 0 0 0 0 -76700344.546636581 19433309.563667297 0 19433309.563667297 -4161866.8883361816 0 0 0 0 -268194.07944270503 -198219.33923633397 0 -198219.33923633397 148493.88351309113 0 0 0 0 -402905.49309760332 368974.21786434576 0 368974.21786434576 149062.5334340483 0 0 0 0 149148945.75871849 153610658.35869598 0 153610658.35869598 140908756.46105957 0 0 0 0 -34522513.482469559 162037582.23680115 0 162037582.23680115 353973459.67410278 0 0 0 0 59441902.243583679 53763191.116867065 0 53763191.116867065 30021887.918750763 0 0 0 0 -30153035.68705368 -33562620.478271484 0 -33562620.478271484 2105964.0139465332 0 0 0 0 -57269978.778450012 92058567.847305298 0 92058567.847305298 219970466.93321228 0 0 0 0 -55953152.478181839 96999048.434432983 0 96999048.434432983 222258548.81872559 0 0 0 0 -53216670.960201263 49158379.659408569 0 49158379.659408569 210282455.57295609 0 0 0 0 -91312133.837680817 77681667.286949158 0 77681667.286949158 201376522.52630615 0 0 0 0 -104279260.22183609 47388784.373783112 0 47388784.373783112 135031460.02182007 0 0 0 0 -63195576.578277588 64393931.397975922 0 64393931.397975922 126388286.75019836 0 0 0 0 -57590467.91721344 76994725.949180603 0 76994725.949180603 143249585.53944397 0 0 0 0 -67596083.25186348 65856501.288589478 0 65856501.288589478 199376199.34394836 0 0 0 0 -8744204.3886680603 61360178.658432007 0 61360178.658432007 199702705.39940071 0 0 0 0 -41637502.255321503 10411528.147293091 0 10411528.147293091 222225965.30749512 0 0 0 0 -104366286.13752174 23290832.227706909 0 23290832.227706909 221934926.99079895 0 0 0 0 -101694728.69125366 -92107277.493221283 0 -92107277.493221283 137114455.2141037 0 0 0 0 -126456986.17815781 38861402.915855408 0 38861402.915855408 311457602.9927063 0 0 0 0 -105539346.38710594 69526773.452354431 0 69526773.452354431 333087529.6555481 0 0 0 0 -225194586.18133545 17337280.644432068 0 17337280.644432068 499658582.42718506 0 0 0 0 -218453268.93434143 -74866641.449729919 0 -74866641.449729919 329309446.55609179 0 0 0 0 -72540366.103858948 107836486.94937134 0 107836486.94937134 357580325.25079346 0 0 0 0 -119270252.55163765 72269382.770751953 0 72269382.770751953 373193105.60247803 0 0 0 0 -28090.500682421029 -85868.597418460995 0 -85868.597418460995 -39319.052648890764 0 0 0 0 -1542147.3574027922 443800.56042012945 0 443800.56042012945 1210072.6607765146 0 0 0 0 482692530.86319351 -408813506.61920166 0 -408813506.61920166 -194841785.57440186 0 0 0 0 -1273685438.9615326 305375793.19488525 0 305375793.19488525 -121286979.46865082 0 0 0 0 -251757854.1076889 -221564707.87574768 0 -221564707.87574768 -123104673.13447571 0 0 0 0 -554958144.455019 -13362264.926109314 0 -13362264.926109314 45270325.643859863 0 0 0 0 270039513.73464966 26455022.537639618 0 26455022.537639618 -147465063.00035095 0 0 0 0 -121487341.57940388 388924311.44598007 0 388924311.44598007 -308803855.20759583 0 0 0 0 -219225984.77333069 141066546.38650513 0 141066546.38650513 78183774.848327637 0 0 0 0 72668875.098283768 185178055.78112411 0 185178055.78112411 40058335.619384766 0 0 0 0 -2417353.9538043784 1239314.0701559186 0 1239314.0701559186 1200211.581667468 0 0 0 0 -144199630.33234406 -157142677.36271667 0 -157142677.36271667 -142976211.23262787 0 0 0 0 -79850552.596370697 82080756.352508545 0 82080756.352508545 4955811.5140724182 0 0 0 0 -33741456.333377838 -64714538.075515747 0 -64714538.075515747 -17056642.177116394 0 0 0 0 4200470.2112426758 4438108.5270652771 0 4438108.5270652771 7301494.777671814 0 0 0 0 7371487.9590187073 10846047.38368988 0 10846047.38368988 -13145991.756790161 0 0 0 0 7641023.4272937775 13598033.051773071 0 13598033.051773071 2800963.9074935913 0 0 0 0 -2085120.7201086367 1321618.8221460991 0 1321618.8221460991 683591.75123376399 0 0 0 0 229982345.49594498 -45609340.157531738 0 -45609340.157531738 8856860.8905925751 0 0 0 0 5482380.4274101257 -827087.52695274353 0 -827087.52695274353 -533093.8777923584 0 0 0 0 -177409.83384895325 1485222.4138259888 0 1485222.4138259888 5104343.1245346069 0 0 0 0 -1193301.5235862732 3831188.2239494324 0 3831188.2239494324 333360.20657348633 0 0 0 0 -3597638.2361842394 -10268982.719682217 0 -10268982.719682217 -17916751.49319458 0 0 0 0 -752634.79969790205 -156638.28823338449 0 -156638.28823338449 1115294.5563024059 0 0 0 0 -10881083.459329605 7108817.3356819153 0 7108817.3356819153 4674359.3973236084 0 0 0 0 12934400.19525528 4483233.8050689697 0 4483233.8050689697 4322848.8146247864 0 0 0 0 83549634.217849731 96371129.371833801 0 96371129.371833801 37348261.452957153 0 0 0 0 -3141950.1825149059 -42723352.458409786 0 -42723352.458409786 -38505811.190856934 0 0 0 0 -475661.88871799037 -57892.186070304364 0 -57892.186070304364 597516.2018949911 0 0 0 0 -7290440.9923057556 25644253.688293457 0 25644253.688293457 49996857.044845581 0 0 0 0 -14000447.365432739 55679675.234745026 0 55679675.234745026 16446613.956848145 0 0 0 0 -150395748.32187462 16141550.848266602 0 16141550.848266602 34247333.540168762 0 0 0 0 812563.35379510745 5906438.2797565032 0 5906438.2797565032 17294146.392937616 0 0 0 0 21308595.445192337 32613510.702709198 0 32613510.702709198 -2478353.6360397339 0 0 0 0 36854119.128793716 21452923.830055237 0 21452923.830055237 -43712526.837036133 0 0 0 0 -121372330.36398315 52173425.319942474 0 52173425.319942474 28411450.625602722 0 0 0 0 197414.61865164083 3898952.2481674473 0 3898952.2481674473 14042430.76424972 0 0 0 0 -867932621.57058954 342944759.87085152 0 342944759.87085152 325114070.64703369 0 0 0 0 -236398877.15504789 -316867517.88974953 0 -316867517.88974953 35742226.040008545 0 0 0 0 -227549.93812123314 1671539.2605105643 0 1671539.2605105643 8735311.9425556213 0 0 0 0 -365997412.21664238 -235923702.02064896 0 -235923702.02064896 394030997.48736572 0 0 0 0 -19096147.612392426 70777685.861106873 0 70777685.861106873 -30820023.743713379 0 0 0 0 -112963788.19382668 79868393.078689575 0 79868393.078689575 73991985.534790039 0 0 0 0 11586541.843601227 9391112.5665893555 0 9391112.5665893555 71758038.729217529 0 0 0 0 57469366.092517853 37214181.835655212 0 37214181.835655212 21638832.312423706 0 0 0 0 45482646.400633812 72628030.235033035 0 72628030.235033035 76814208.342010498 0 0 0 0 13619020.60477066 16755041.342041016 0 16755041.342041016 53386041.324176788 0 0 0 0 62207060.78371048 -6202525.0547103882 0 -6202525.0547103882 197511042.7827034 0 0 0 0 65220357.254295349 60036975.862419128 0 60036975.862419128 162806946.47650146 0 0 0 0 351950688.33613205 -5118454.3519744873 0 -5118454.3519744873 13689320.276023865 0 0 0 0 109987709.22962189 -92766468.079406738 0 -92766468.079406738 452329051.09564209 0 0 0 0 146464761.13803864 154830555.05532837 0 154830555.05532837 -62878995.64352417 0 0 0 0 124176176.7423439 -47413522.963394165 0 -47413522.963394165 69114523.692878723 0 0 0 0 -153020.97689284757 -240605.37387434393 0 -240605.37387434393 107324.32557735778 0 0 0 0 81718663.563014984 -2931945.9935722351 0 -2931945.9935722351 -148069836.04997253 0 0 0 0 -2455522.0595760345 28374756.806522369 0 28374756.806522369 64063064.119132996 0 0 0 0 108477036.86055946 53761322.512237549 0 53761322.512237549 -101642725.63666534 0 0 0 0 -37204038.552036285 100355559.53725433 0 100355559.53725433 -30137727.620513916 0 0 0 0 57088713.905025482 24646858.370544434 0 24646858.370544434 -43181940.884869576 0 0 0 0 36911046.285437904 8016471.7122769952 0 8016471.7122769952 -55014891.635726929 0 0 0 0 25683604.975307465 -18904145.164268494 0 -18904145.164268494 -4657738.7583465576 0 0 0 0 -84833332.540860891 -240984532.58219147 0 -240984532.58219147 155493892.23136902 0 0 0 0 659649.37667901628 -683227.21351728961 0 -683227.21351728961 225371.0847389847 0 0 0 0 28111665.284448147 70033857.529865265 0 70033857.529865265 26592648.960662842 0 0 0 0 140327407.42647529 3513830.7950572968 0 3513830.7950572968 -117151967.66511536 0 0 0 0 -8114663.9419493675 29608935.186424255 0 29608935.186424255 67643970.819208145 0 0 0 0 499039639.83430433 -308854685.7422142 0 -308854685.7422142 153630401.31331635 0 0 0 0 521084283.35216713 360850723.06209564 0 360850723.06209564 -149208803.36565399 0 0 0 0 -134200221.10694408 66429927.720787048 0 66429927.720787048 -39500956.536956787 0 0 0 0 -474889501.83682656 602304530.45217514 0 602304530.45217514 -74541511.923324585 0 0 0 0 -305215179.0199852 -147684253.61387634 0 -147684253.61387634 61631047.985133171 0 0 0 0 -175098771.26164937 218759581.94988251 0 218759581.94988251 1058916048.8269958 0 0 0 0 23429384.675442338 -266150392.63237381 0 -266150392.63237381 162163183.82170105 0 0 0 0 -57153423.769381046 -127088466.09869766 0 -127088466.09869766 213381665.83099365 0 0 0 0 -1515609.3099985491 -1455952.6775830863 0 -1455952.6775830863 4631881.1782031506 0 0 0 0 256232874.45950222 -203115550.87904358 0 -203115550.87904358 152101802.5526123 0 0 0 0 26796600.37184763 63082982.092750549 0 63082982.092750549 135878541.74591827 0 0 0 0 236438274.80135682 446735895.86533892 0 446735895.86533892 543688830.98146057 0 0 0 0 -447517.06668329559 -740477.97130970168 0 -740477.97130970168 1638978.6920283735 0 0 0 0 756365401.65860462 -538680349.91946411 0 -538680349.91946411 249360508.4837265 0 0 0 0 1865079.1877841949 -59876678.163467407 0 -59876678.163467407 864812537.45030212 0 0 0 0 -16762542.865519643 122629979.21848011 0 122629979.21848011 533836502.38059998 0 0 0 0 10517050.18914485 46935013.741966248 0 46935013.741966248 156048876.97664642 0 0 0 0 -1595460.5897835686 1632776.2653860524 0 1632776.2653860524 2683350.6522190794 0 0 0 0 -161208871.68041754 419382678.86487579 0 419382678.86487579 -505303011.45462799 0 0 0 0 -63513422.342392921 35481615.491767883 0 35481615.491767883 392917969.00961304 0 0 0 0 -83038441.603856564 250064424.6312027 0 250064424.6312027 455838548.93504333 0 0 0 0 -136860155.0407418 250970408.01211166 0 250970408.01211166 418497439.57998657 0 0 0 0 -91110820.383381844 242349442.48655319 0 242349442.48655319 -34392969.897537231 0 0 0 0 81478725.725997448 232152751.18833923 0 232152751.18833923 -419625578.94256592 0 0 0 0 -162281731.8282032 189993937.90681839 0 189993937.90681839 -49720954.122062683 0 0 0 0 -154199339.327178 192402279.35962486 0 192402279.35962486 -160253869.83900452 0 0 0 0 -3618303.3812950095 1720930.1742690988 0 1720930.1742690988 5020791.7491469644 0 0 0 0 -268237717.4138813 130916125.15272903 0 130916125.15272903 40290578.461959839 0 0 0 0 -2438135.6300795013 -2361006.1653416245 0 -2361006.1653416245 9906911.2570772767 0 0 0 0 -103205644.83411026 -82433605.996184587 0 -82433605.996184587 -54210259.6456604 0 0 0 0 73287984.780012131 -146203928.79950714 0 -146203928.79950714 206234077.87705994 0 0 0 0 -4164383.1776694618 719593.13803515583 0 719593.13803515583 4030688.9435013086 0 0 0 0 59938493.206461906 -164444989.45602417 0 -164444989.45602417 192777335.94173431 0 0 0 0 -29242535.168462753 -126909286.2734642 0 -126909286.2734642 -54833089.348815918 0 0 0 0 -183052989.96674156 -172974132.66417694 0 -172974132.66417694 -18958189.438091278 0 0 0 0 -416836509.31653267 -108978225.33606064 0 -108978225.33606064 97776584.904495239 0 0 0 0 -52685556.397853851 -179096366.92594528 0 -179096366.92594528 -7912960.0048599243 0 0 0 0 -1473949.2285586812 -2439853.2685132925 0 -2439853.2685132925 9049961.4113571122 0 0 0 0 -475446323.54356778 34221980.608572245 0 34221980.608572245 247433320.58082581 0 0 0 0 -194392716.7185154 33840781.61101532 0 33840781.61101532 292983482.96897888 0 0 0 0 -208718799.38547325 102938419.21814346 0 102938419.21814346 -14237037.556728363 0 0 0 0 -46078105.832945347 -185865504.1652298 0 -185865504.1652298 11858210.251243591 0 0 0 0 44135921.442209721 -451120707.96400452 0 -451120707.96400452 493641433.70850372 0 0 0 0 -178395306.13133025 101136495.21951294 0 101136495.21951294 447966629.74682617 0 0 0 0 379388736.28344345 191359651.80680847 0 191359651.80680847 -127091021.96039581 0 0 0 0 222782643.75316238 244471330.82278442 0 244471330.82278442 -96255541.271923065 0 0 0 0 56045523.072644234 54533360.455421448 0 54533360.455421448 4399738.5499725342 0 0 0 0 78211047.110385895 82290419.480819702 0 82290419.480819702 15576668.177066803 0 0 0 0 142147826.22904778 341076283.82097244 0 341076283.82097244 362312512.8985548 0 0 0 0 5529549.3662443161 -7359194.3052196503 0 -7359194.3052196503 76785013.686897278 0 0 0 0 -21007.576979079284 -211408.98828855157 0 -211408.98828855157 1110494.8827880993 0 0 0 0 166244637.32785797 278105407.11793137 0 278105407.11793137 75817116.432067871 0 0 0 0 78853438.042194366 225284005.17097473 0 225284005.17097473 281233484.74176407 0 0 0 0 55074771.478908539 156643900.89108276 0 156643900.89108276 83276029.473144531 0 0 0 0 164435102.87293625 267436753.22865677 0 267436753.22865677 21179818.798675537 0 0 0 0 87389809.180656433 118280772.47532654 0 118280772.47532654 84993782.6051054 0 0 0 0 -18305770.688375473 -1998162.2356987 0 -1998162.2356987 12424598.003143311 0 0 0 0 255933550.67888737 78051295.133496284 0 78051295.133496284 7664016.1237335205 0 0 0 0 -30312468.330976486 -218752583.00764465 0 -218752583.00764465 -635020638.54698563 0 0 0 0 -409862325.13354874 -53454420.958312988 0 -53454420.958312988 414056530.83952332 0 0 0 0 -1652602.679236725 543406.83428808674 0 543406.83428808674 1411605.8561100233 0 0 0 0 -630497783.45403671 -352894629.17194366 0 -352894629.17194366 367100374.89738464 0 0 0 0 -196009678.80231285 -101847949.25524902 0 -101847949.25524902 237019598.22193146 0 0 0 0 -267370707.55149269 -534734128.65519714 0 -534734128.65519714 20280468.017684937 0 0 0 0 414618417.76967621 79383890.724769592 0 79383890.724769592 -106365104.04675293 0 0 0 0 436741061.5378561 -345238298.3114109 0 -345238298.3114109 159745448.53723145 0 0 0 0 -70705375.051736832 415777925.78956604 0 415777925.78956604 -482497811.83757782 0 0 0 0 -101115.0373945497 328895.7609904292 0 328895.7609904292 2750249.5720087141 0 0 0 0 10071682.875246525 289787795.78888607 0 289787795.78888607 842990462.63087463 0 0 0 0 542078409.23617554 937693709.84732056 0 937693709.84732056 -276002533.50810146 0 0 0 0 -80093384.27948308 -50439530.277062416 0 -50439530.277062416 90933102.432830811 0 0 0 0 358017988.54289174 -209441281.82729292 0 -209441281.82729292 267202364.71636963 0 0 0 0 -34111556.762901306 61705191.553714752 0 61705191.553714752 138185302.27687263 0 0 0 0 406404137.22922897 72744241.633148193 0 72744241.633148193 -304667943.02148879 0 0 0 0 213097088.4555831 360570642.48757207 0 360570642.48757207 630883381.8311615 0 0 0 0 526124.81249141414 -618838.37472698838 0 -618838.37472698838 1035981.4418943822 0 0 0 0 212357225.2662468 238078351.75561523 0 238078351.75561523 275054269.47088623 0 0 0 0 133733024.64116287 279284535.47951508 0 279284535.47951508 443479872.35055542 0 0 0 0 -16594174.157301903 183550547.35491562 0 183550547.35491562 655619465.60418701 0 0 0 0 201303409.06619453 161324137.90626526 0 161324137.90626526 74251870.148300171 0 0 0 0 83442692.276138306 146351974.96814728 0 146351974.96814728 300763808.67596436 0 0 0 0 391983.38374588452 -819824.52942731604 0 -819824.52942731604 2197081.8608755395 0 0 0 0 146085996.77194595 37181577.907997131 0 37181577.907997131 44147690.507593155 0 0 0 0 43143196.247110367 33815431.683929443 0 33815431.683929443 73480130.225357056 0 0 0 0 -72486785.182060242 -351669877.82032013 0 -351669877.82032013 1207515197.4050293 0 0 0 0 75490069.100627899 70226745.687866211 0 70226745.687866211 68301313.197036743 0 0 0 0 43025741.280742645 77296427.080741882 0 77296427.080741882 67554113.178359985 0 0 0 0 46264238.268325806 73615564.334098816 0 73615564.334098816 165533910.46607971 0 0 0 0 66847941.62336731 62768465.118515015 0 62768465.118515015 168967683.90083313 0 0 0 0 25422221.963909149 22877395.296661377 0 22877395.296661377 149025366.72631836 0 0 0 0 19503740.03371048 59810993.259056091 0 59810993.259056091 311606697.993927 0 0 0 0 -9061185.2414855957 67574014.383758545 0 67574014.383758545 315506791.91908264 0 0 0 0 83616837.177330256 148595311.91744614 0 148595311.91744614 287936787.79971313 0 0 0 0 -44559350.805896759 104623813.39686584 0 104623813.39686584 434723388.33755112 0 0 0 0 -6235421.8999061584 92189058.760070801 0 92189058.760070801 427565949.05526733 0 0 0 0 -51187742.731023788 6687645.833190918 0 6687645.833190918 441704465.85342407 0 0 0 0 -100116831.83535385 17735971.432540894 0 17735971.432540894 448803958.89957428 0 0 0 0 -168297991.60890007 4430506.3931350708 0 4430506.3931350708 625323703.33209229 0 0 0 0 -155168063.25920105 34168314.244155884 0 34168314.244155884 690330186.21624756 0 0 0 0 -139065101.39118195 51110779.290039062 0 51110779.290039062 588363357.7803812 0 0 0 0 -84477860.23292923 71190402.242645264 0 71190402.242645264 589608514.3790741 0 0 0 0 -164596481.30144119 116419745.69119644 0 116419745.69119644 637425723.83056641 0 0 0 0 -71196739.975208282 105412623.48189545 0 105412623.48189545 626841176.73712158 0 0 0 0 -216762390.03915024 86768148.960632324 0 86768148.960632324 690117792.07866454 0 0 0 0 -148784123.39493752 211812082.66322327 0 211812082.66322327 477198979.45057678 0 0 0 0 -92665576.560279846 113254288.65359497 0 113254288.65359497 628455229.77240753 0 0 0 0 -83975950.303117752 152371600.88674545 0 152371600.88674545 593236136.87844849 0 0 0 0 199672619.03976107 120543487.28038216 0 120543487.28038216 389539489.13431549 0 0 0 0 80976601.499862671 125343446.63694763 0 125343446.63694763 590697547.06363678 0 0 0 0 -55694728.542451859 76620495.940984726 0 76620495.940984726 637474730.39578247 0 0 0 0 109407377.82965851 34444186.400947571 0 34444186.400947571 796126029.58917999 0 0 0 0 163825280.44791412 460668841.18740845 0 460668841.18740845 552925156.57798767 0 0 0 0 495775863.10005379 209785158.08472443 0 209785158.08472443 452870185.69836426 0 0 0 0 151860509.37341499 267498666.35163116 0 267498666.35163116 461630312.5316391 0 0 0 0 167343925.88721561 190340995.03153229 0 190340995.03153229 304252851.004776 0 0 0 0 101929988.74219131 175237516.46147156 0 175237516.46147156 413801873.0547905 0 0 0 0 93266995.179038525 170310867.22812653 0 170310867.22812653 423618499.09508514 0 0 0 0 88678463.263996124 103445809.91565323 0 103445809.91565323 519888510.04872894 0 0 0 0 66770208.173114777 33191722.449859619 0 33191722.449859619 299023822.60361362 0 0 0 0 39667146.175462723 96695819.700437546 0 96695819.700437546 198845673.58460999 0 0 0 0 -32061294.897357941 -20759198.999702454 0 -20759198.999702454 109836325.25524521 0 0 0 0 -189306949.81838989 103956909.87106323 0 103956909.87106323 231566394.0051384 0 0 0 0 -213378908.50610352 316049064.92326355 0 316049064.92326355 439394930.80415344 0 0 0 0 25349727.581669807 113957273.58530426 0 113957273.58530426 191568903.24691772 0 0 0 0 -30497347.468938828 141076412.12605667 0 141076412.12605667 388377965.27789307 0 0 0 0 189075118.29226398 -537959707.83017731 0 -537959707.83017731 341879126.62125015 0 0 0 0 139831760.33427906 -375940876.66226578 0 -375940876.66226578 213582344.64482117 0 0 0 0 -74718157.326953411 -319550662.74106598 0 -319550662.74106598 349978857.60958099 0 0 0 0 130205780.48455811 -290521077.09318924 0 -290521077.09318924 159916229.07902718 0 0 0 0 -220304.9924193284 -1129484.4966870523 0 -1129484.4966870523 2745775.8549780399 0 0 0 0 -226918106.20077038 -194177658.60697174 0 -194177658.60697174 227222391.81852722 0 0 0 0 -817904.64930482628 -2194666.4708546703 0 -2194666.4708546703 6979768.1508682966 0 0 0 0 -526823781.89000416 174166535.3886795 0 174166535.3886795 317684574.20632935 0 0 0 0 74912630.815413475 619353745.74242401 0 619353745.74242401 507073327.37014389 0 0 0 0 39940399.046644449 76896392.774411201 0 76896392.774411201 62642007.049247742 0 0 0 0 150862268.16564846 -53571260.055441856 0 -53571260.055441856 1276677315.2875137 0 0 0 0 766435000.06853294 -321279007.83688354 0 -321279007.83688354 360187031.91465759 0 0 0 0 743680349.80099678 357499736.51125336 0 357499736.51125336 659227908.98495102 0 0 0 0 592808317.70059288 -805471450.96008539 0 -805471450.96008539 641249398.49884796 0 0 0 0 -80794767.793564796 -257630363.97766495 0 -257630363.97766495 1252865258.2874146 0 0 0 0 113186194.62261868 -56860686.886987686 0 -56860686.886987686 418663432.46385193 0 0 0 0 17582163.975869179 138764479.15236664 0 138764479.15236664 277551031.30130005 0 0 0 0 -154565202.58965731 -111160009.04338074 0 -111160009.04338074 642412352.80038452 0 0 0 0 -82974183.482784867 -206068776.91639209 0 -206068776.91639209 496119753.6806488 0 0 0 0 16694795.267337322 -354948184.96242523 0 -354948184.96242523 634689389.45363617 0 0 0 0 13200349.576950312 -4017780.6793661118 0 -4017780.6793661118 -12402832.245269775 0 0 0 0 510041.40437516267 -196129.1612045709 0 -196129.1612045709 -406104.96339048445 0 0 0 0 -1645460.9983822107 37461003.234296799 0 37461003.234296799 1652485.0901947021 0 0 0 0 -293166959.42210138 21119151.315463066 0 21119151.315463066 2471002.3894042969 0 0 0 0 -294571782.6769352 38441844.5912323 0 38441844.5912323 272740104.85057068 0 0 0 0 139732243.11351681 -84840683.93432045 0 -84840683.93432045 191974280.75624084 0 0 0 0 57464436.832688332 32639381.319057465 0 32639381.319057465 -115410890.69770813 0 0 0 0 117103702.4013176 171197841.36214447 0 171197841.36214447 180760431.79056287 0 0 0 0 -198751645.54168653 221728380.72132111 0 221728380.72132111 49808563.406513214 0 0 0 0 200721660.1177156 -59240317.305229187 0 -59240317.305229187 23734268.03994751 0 0 0 0 274508086.29236031 100827294.6970253 0 100827294.6970253 -9695055.2144002914 0 0 0 0 524476528.76173878 179234491.36151123 0 179234491.36151123 193118731.23140717 0 0 0 0 381975333.1550312 -113298804.88960648 0 -113298804.88960648 292167811.35834312 0 0 0 0 524432459.61421001 -192164936.59536332 0 -192164936.59536332 57015164.451805115 0 0 0 0 427243056.25755692 -60816550.13658905 0 -60816550.13658905 5948070.4423923492 0 0 0 0 346548489.53897762 -140226534.39369488 0 -140226534.39369488 -67198449.051055908 0 0 0 0 462078208.10761261 -78911738.69417572 0 -78911738.69417572 -106030423.85742188 0 0 0 0 1187750.7615741277 835135.82342456281 0 835135.82342456281 -72902.377334451303 0 0 0 0 141369890.98250961 -159688294.32194138 0 -159688294.32194138 15346017.020675659 0 0 0 0 36924025.031926632 -56275439.873603821 0 -56275439.873603821 -42448939.339859009 0 0 0 0 -732161.88192963274 1028696.4928132519 0 1028696.4928132519 1966834.8606972769 0 0 0 0 -1649852.2649149895 413406.19708251953 0 413406.19708251953 915844.1958770752 0 0 0 0 672118.66863236798 1520187.213748591 0 1520187.213748591 2726058.7943157852 0 0 0 0 -1043457.1288756132 5397290.433172226 0 5397290.433172226 5224863.943611145 0 0 0 0 19568736.936593056 114948026.07852936 0 114948026.07852936 -74583007.514324188 0 0 0 0 2960628.3419337273 4161680.9122009277 0 4161680.9122009277 3908002.7189102173 0 0 0 0 631130.03702747822 3686066.7718544006 0 3686066.7718544006 4177563.5575637817 0 0 0 0 694410.9205725193 5057035.3125190735 0 5057035.3125190735 3416962.6761779785 0 0 0 0 270964.0650518937 3089244.2566231787 0 3089244.2566231787 3853708.209822461 0 0 0 0 -268558447.38610268 -99097127.545696259 0 -99097127.545696259 67775728.594558716 0 0 0 0 -210865273.9042263 48460279.199913025 0 48460279.199913025 112989726.7153244 0 0 0 0 -34568111.440001011 -41567078.40264225 0 -41567078.40264225 -735817.80294799805 0 0 0 0 -28928683.815747261 -84725557.253814697 0 -84725557.253814697 200934861.0693512 0 0 0 0 381667502.94069433 -248176022.38263255 0 -248176022.38263255 310396038.12425232 0 0 0 0 189565022.17110252 -62838804.868423462 0 -62838804.868423462 165864398.35816956 0 0 0 0 409103674.99915886 -173104065.55916595 0 -173104065.55916595 60462949.560207367 0 0 0 0 178770747.61499596 -123487664.28826904 0 -123487664.28826904 44766948.001111984 0 0 0 0 181751988.48619366 -31806967.324489594 0 -31806967.324489594 49483310.049072266 0 0 0 0 252365340.44702148 -52463831.058698654 0 -52463831.058698654 -32392852.303283691 0 0 0 0 332347900.96505737 -88038247.73122406 0 -88038247.73122406 -44993183.638114929 0 0 0 0 438593327.61120558 -14190996.822951317 0 -14190996.822951317 -44299707.603775024 0 0 0 0 321325911.53136826 -104503701.37743378 0 -104503701.37743378 89634852.56804657 0 0 0 0 178284973.53566921 -63082733.610018253 0 -63082733.610018253 -77316635.447525024 0 0 0 0 319876866.24029541 -82573610.441596985 0 -82573610.441596985 -126000763.23788452 0 0 0 0 181883007.53370476 -37485841.915664673 0 -37485841.915664673 3873104.2395782471 0 0 0 0 -10982245.395212173 -40865233.815841675 0 -40865233.815841675 -39060701.004947662 0 0 0 0 -40537000.296998978 11829829.649345398 0 11829829.649345398 -105367090.26065063 0 0 0 0 -13662360.021709442 -32870668.441204071 0 -32870668.441204071 36218210.212638855 0 0 0 0 -20254086.555168033 -105110050.83565784 0 -105110050.83565784 -61346176.10295105 0 0 0 0 -2332800.7940310203 -3544741.2697860319 0 -3544741.2697860319 8383844.736125797 0 0 0 0 -204942553.37889671 -110237918.51807022 0 -110237918.51807022 6063122.0296936035 0 0 0 0 -173588971.21168518 -142452015.27394104 0 -142452015.27394104 -97158401.654815674 0 0 0 0 -15120645.660440445 -4257727.8410186768 0 -4257727.8410186768 14432693.295436859 0 0 0 0 -10397077.374610424 -5418334.1527523994 0 -5418334.1527523994 13669277.823654175 0 0 0 0 -11769566.535240173 954579.67044448853 0 954579.67044448853 21939582.890769958 0 0 0 0 -9884848.4892282486 -1991596.3524551392 0 -1991596.3524551392 14866529.908706665 0 0 0 0 -8932672.2324581146 -1257140.3919868469 0 -1257140.3919868469 9078677.7031936646 0 0 0 0 -15023172.489215851 -2862389.8438034058 0 -2862389.8438034058 16406184.070121765 0 0 0 0 -11885138.89838028 -6598930.2388267517 0 -6598930.2388267517 5868207.4338989258 0 0 0 0 -17920551.988480091 -3486338.7381134033 0 -3486338.7381134033 9056636.9065475464 0 0 0 0 -24870325.956233978 -9588606.8516387939 0 -9588606.8516387939 11080622.198184967 0 0 0 0 -864527.64168777503 -4345010.8917928617 0 -4345010.8917928617 9227724.6195553467 0 0 0 0 25866115.769449234 -39013946.731948853 0 -39013946.731948853 11917777.276649475 0 0 0 0 295556.08217257354 -1197290.965312927 0 -1197290.965312927 1109695.7167478949 0 0 0 0 -18032100.623044968 -3346414.2499809265 0 -3346414.2499809265 9223004.4870376587 0 0 0 0 5576150.7086753845 -8754059.1940078735 0 -8754059.1940078735 5911687.4258518219 0 0 0 0 -333991.46316810092 -5792175.6425056439 0 -5792175.6425056439 9299182.2371845096 0 0 0 0 -9346618.2312107086 -25725593.991447449 0 -25725593.991447449 17133656.968220711 0 0 0 0 3279543.895575094 -9334575.8113032654 0 -9334575.8113032654 -2856305.4385473803 0 0 0 0 -3798131.93318367 -19783800.538040161 0 -19783800.538040161 -67372303.152750015 0 0 0 0 2178041.7280626297 -21776983.452774048 0 -21776983.452774048 17266022.64906311 0 0 0 0 7137233.5375080109 -34256059.812065125 0 -34256059.812065125 26053873.698295593 0 0 0 0 14107093.537613392 -8651775.5031661987 0 -8651775.5031661987 -807898.64693450928 0 0 0 0 23035453.169771194 -25840791.779266357 0 -25840791.779266357 1821596.1712417603 0 0 0 0 27476427.673799515 -23491624.831783295 0 -23491624.831783295 -2301968.192199707 0 0 0 0 31814411.88549614 -14173654.74263382 0 -14173654.74263382 575566.11430931091 0 0 0 0 -724536.26729586767 -478935.09995466843 0 -478935.09995466843 -93310.541418403387 0 0 0 0 -5675501.94810009 -16549671.497819901 0 -16549671.497819901 4894892.7085113525 0 0 0 0 10949468.840993708 -14780156.446942642 0 -14780156.446942642 6296118.2847389989 0 0 0 0 -31611604.414924622 37693210.131483078 0 37693210.131483078 2674264.7699737549 0 0 0 0 60046933.640192032 -160737677.82232666 0 -160737677.82232666 -96647553.32235527 0 0 0 0 70540691.680538177 -104285975.56256866 0 -104285975.56256866 9774952.3633384705 0 0 0 0 -94495260.799797058 -132621911.87293625 0 -132621911.87293625 28957516.236873627 0 0 0 0 7040852.2487987867 -17675244.884214986 0 -17675244.884214986 16489856.262346571 0 0 0 0 92181653.662769318 -25031584.004972458 0 -25031584.004972458 -130978862.85939026 0 0 0 0 -92064263.503032684 -57465044.925415039 0 -57465044.925415039 62437022.888305664 0 0 0 0 -6496012.7969231606 -5244355.1045322418 0 -5244355.1045322418 15348790.007270813 0 0 0 0 -32333396.570337296 -4281320.3939208984 0 -4281320.3939208984 42165233.753730774 0 0 0 0 -382491.34686681535 -5254719.9806057774 0 -5254719.9806057774 5155829.760367468 0 0 0 0 -9145130.9942167886 -3514529.0316156335 0 -3514529.0316156335 16138185.212591648 0 0 0 0 -6203735.0497317314 -5927536.5763597488 0 -5927536.5763597488 14387160.110046387 0 0 0 0 -9729292.3871221542 347067.03096389771 0 347067.03096389771 20309350.805408478 0 0 0 0 -5570383.1857333509 -5354466.2872550022 0 -5354466.2872550022 23761512.235453453 0 0 0 0 -69093524.523880005 -74728395.971813202 0 -74728395.971813202 167704802.03615952 0 0 0 0 85944729.783132076 -102399616.57067454 0 -102399616.57067454 61381738.185264587 0 0 0 0 88733999.352472901 -164822883.8383919 0 -164822883.8383919 112950525.66809845 0 0 0 0 -127024025.87968826 -1951372.1854248047 0 -1951372.1854248047 40702697.431702137 0 0 0 0 -127245601.08598709 63130954.374947548 0 63130954.374947548 4228199.4850196838 0 0 0 0 -112879689.33494949 30498253.149032593 0 30498253.149032593 77691271.155845642 0 0 0 0 -225996762.63631439 174831734.63286591 0 174831734.63286591 173414588.754408 0 0 0 0 -92993999.581140518 -80255944.308522224 0 -80255944.308522224 219359754.47070312 0 0 0 0 -255072582.47480011 99602283.162014008 0 99602283.162014008 257860749.90181732 0 0 0 0 14364604.579811096 -267106994.32463837 0 -267106994.32463837 407535392.46261597 0 0 0 0 27986889.526306152 -233464260.73770142 0 -233464260.73770142 369823368.41934204 0 0 0 0 -358508373.56893158 76345881.082817078 0 76345881.082817078 630348300.85955429 0 0 0 0 -169818501.99553299 88532765.194519043 0 88532765.194519043 169795851.70790863 0 0 0 0 407895719.92241287 -368514883.78695679 0 -368514883.78695679 292444872.37503052 0 0 0 0 33409004.764698982 92596336.534442902 0 92596336.534442902 348989669.94235229 0 0 0 0 429397798.45177829 -75971950.356620431 0 -75971950.356620431 8023094.2401504517 0 0 0 0 2042535.3498194767 -2664119.7884725956 0 -2664119.7884725956 -200458.52428678423 0 0 0 0 57793115.023002625 941397951.58703423 0 941397951.58703423 493588226.55153275 0 0 0 0 -217710726.82765579 -198965006.81038284 0 -198965006.81038284 1057510212.7863464 0 0 0 0 108567001.39672089 -467615671.52287292 0 -467615671.52287292 753502333.12726593 0 0 0 0 263536286.00521851 -155676479.46722031 0 -155676479.46722031 76415766.905227661 0 0 0 0 27358102.672212601 47842797.797403336 0 47842797.797403336 77901156.284698486 0 0 0 0 -60074502.424186707 -244414390.56324005 0 -244414390.56324005 587589749.62512398 0 0 0 0 -26725781.291152954 -152688566.64474297 0 -152688566.64474297 72369934.991146088 0 0 0 0 16618852.429430962 -34903574.116628647 0 -34903574.116628647 55625291.679917336 0 0 0 0 -6512839.954562664 -54347297.09223175 0 -54347297.09223175 50578799.842624664 0 0 0 0 -6171116.7708053589 -84433061.689201355 0 -84433061.689201355 219375471.61566544 0 0 0 0 4198985.7644796371 8732339.5414505005 0 8732339.5414505005 12310617.053293228 0 0 0 0 21230262.357457936 16553786.621873617 0 16553786.621873617 15613353.07992363 0 0 0 0 4047653.5711688995 -9586746.4193191528 0 -9586746.4193191528 8649876.3213500977 0 0 0 0 25651398.704323173 -9422227.4967193604 0 -9422227.4967193604 5979044.1812591553 0 0 0 0 5421357.7900770139 -7310062.2715392895 0 -7310062.2715392895 -134462.89567788318 0 0 0 0 658698.18751585484 -11225045.176795959 0 -11225045.176795959 3327527.5803394318 0 0 0 0 1859913.3206779424 565038.64722619019 0 565038.64722619019 -1975381.9364259467 0 0 0 0 104259364.17906857 -60468884.33172226 0 -60468884.33172226 -27016631.003479004 0 0 0 0 156302059.13508177 20433551.798732758 0 20433551.798732758 -32688735.910873413 0 0 0 0 255897793.41716003 -65150704.946098328 0 -65150704.946098328 -39383456.104866028 0 0 0 0 239954934.91042459 37606797.543973923 0 37606797.543973923 -35604850.041976929 0 0 0 0 21410605.277479172 23908021.274895191 0 23908021.274895191 19074810.654886723 0 0 0 0 26118108.837303579 9401343.3658348918 0 9401343.3658348918 9340905.3780994415 0 0 0 0 20450355.947913408 10707831.712930322 0 10707831.712930322 6296526.9005126953 0 0 0 0 14933378.984513212 8596648.231013611 0 8596648.231013611 14196170.704071674 0 0 0 0 21068777.098269314 -34149322.000041306 0 -34149322.000041306 42224715.512014389 0 0 0 0 5812766.5230041696 9437624.9293948486 0 9437624.9293948486 33787160.780205786 0 0 0 0 26242586.911827087 29606716.318534851 0 29606716.318534851 60262415.042190552 0 0 0 0 22842997.727840424 17784990.360225677 0 17784990.360225677 20508186.023081303 0 0 0 0 23315122.940973282 30648586.353297234 0 30648586.353297234 60281967.147121429 0 0 0 0 17423292.011032104 35772796.235780716 0 35772796.235780716 71391881.938781738 0 0 0 0 13858241.476263046 33584340.143152237 0 33584340.143152237 91679115.056137085 0 0 0 0 2581595.3180379868 32611479.33513844 0 32611479.33513844 72477650.216464996 0 0 0 0 1463073.5056343079 22003469.920329094 0 22003469.920329094 62900870.275524139 0 0 0 0 9148976.7235393524 31055885.434680939 0 31055885.434680939 72686656.779518127 0 0 0 0 62913834.924325138 10596674.552986145 0 10596674.552986145 -119312358.9268837 0 0 0 0 2977879.267364921 -2136346.358717978 0 -2136346.358717978 -8014780.9173259214 0 0 0 0 -12612168.197515588 -16726191.757269047 0 -16726191.757269047 37642848.402774222 0 0 0 0 14794119.460464478 22044603.559444427 0 22044603.559444427 84899236.084154129 0 0 0 0 10560463.190563202 28780277.193454742 0 28780277.193454742 114292637.98088455 0 0 0 0 11583789.406236649 19134094.434860229 0 19134094.434860229 104014492.77882385 0 0 0 0 -4653754.9606078565 -9010393.0476639755 0 -9010393.0476639755 26706151.511182193 0 0 0 0 -10736312.121466875 -25457605.502784729 0 -25457605.502784729 5527003.5420684814 0 0 0 0 -15348633.000994444 -37831264.363243103 0 -37831264.363243103 -37892973.83375755 0 0 0 0 -13498801.876122952 -20780493.24772644 0 -20780493.24772644 1977072.1210632324 0 0 0 0 -54264931.060533091 -23115325.717309952 0 -23115325.717309952 -37748566.984359741 0 0 0 0 -1567285.5634360516 -14111481.163865725 0 -14111481.163865725 16075391.013231676 0 0 0 0 3164552.7314310074 -11915130.508739471 0 -11915130.508739471 3591549.2593727112 0 0 0 0 10801369.183913065 2856016.6438833512 0 2856016.6438833512 7812312.5359158851 0 0 0 0 -20005912.864114761 -24091103.99773407 0 -24091103.99773407 -14351253.492645264 0 0 0 0 -11765791.343211174 -29099400.709907532 0 -29099400.709907532 -34147059.10836792 0 0 0 0 3400621.2828479288 -17262040.096009083 0 -17262040.096009083 -11969222.913731087 0 0 0 0 -4698934.844016552 -13467706.033882141 0 -13467706.033882141 -2008355.9338264465 0 0 0 0 -9503633.1257589459 -34567303.652210139 0 -34567303.652210139 21206008.496942576 0 0 0 0 -5678605.0429979786 -22728589.442793671 0 -22728589.442793671 23219516.634008352 0 0 0 0 2211733.363984473 -8245187.3035904653 0 -8245187.3035904653 -8740940.1821445823 0 0 0 0 6717945.6814246178 -30849165.756103516 0 -30849165.756103516 -80805043.312042236 0 0 0 0 -22942595.923537016 -42800049.286079407 0 -42800049.286079407 -77903706.364074707 0 0 0 0 -1333397.2049034205 -814401.80042739771 0 -814401.80042739771 2177585.8404787108 0 0 0 0 -19250387.52918458 -70615332.874465942 0 -70615332.874465942 -78457326.663040161 0 0 0 0 -77060576.583367109 -57956038.990768433 0 -57956038.990768433 15371186.56388855 0 0 0 0 6626026.8089923859 -13613493.512985229 0 -13613493.512985229 -13439331.62940979 0 0 0 0 8001271.436939843 -15910508.275483826 0 -15910508.275483826 -31763889.967351723 0 0 0 0 11201611.195757521 -9073396.8207391817 0 -9073396.8207391817 -8913666.3554278575 0 0 0 0 3493068.2823314634 -9328236.4468870386 0 -9328236.4468870386 205708.3498679176 0 0 0 0 30697073.989495873 -20924096.192802429 0 -20924096.192802429 -51845375.479892731 0 0 0 0 25852984.246082067 -4887570.6665649414 0 -4887570.6665649414 -22722556.982543945 0 0 0 0 -1145190.3255968094 -64660336.724903822 0 -64660336.724903822 -70704061.423309326 0 0 0 0 -4122636.0079302192 -85397183.572307587 0 -85397183.572307587 -12956802.090270996 0 0 0 0 -71133322.881844521 -63191857.162445068 0 -63191857.162445068 -1335903.8038787842 0 0 0 0 -83227586.503107071 -25709090.821296692 0 -25709090.821296692 -2246048.9914016724 0 0 0 0 11931960.339970589 -41365893.814655304 0 -41365893.814655304 -90607354.481918335 0 0 0 0 44201555.31312716 47576704.340072632 0 47576704.340072632 -204941087.53159332 0 0 0 0 -59222954.203534842 -84051019.376968384 0 -84051019.376968384 48208108.599945068 0 0 0 0 23907050.108108401 71865062.463882446 0 71865062.463882446 -21391414.882148743 0 0 0 0 -79404333.714309171 -91997141.889477253 0 -91997141.889477253 11494230.349853516 0 0 0 0 19075.649962788448 -4191306.6569737699 0 -4191306.6569737699 3993383.3739781976 0 0 0 0 10331254.93535614 -36257072.783035278 0 -36257072.783035278 -104273366.77750397 0 0 0 0 -110026934.04991627 -163536969.470047 0 -163536969.470047 -12781194.313568115 0 0 0 0 -25959977.176114082 -66322321.727542877 0 -66322321.727542877 147722365.540802 0 0 0 0 36327531.278717995 -7396451.5403862 0 -7396451.5403862 64955342.82270813 0 0 0 0 -8697302.068980217 -91776252.302120209 0 -91776252.302120209 44274712.770751953 0 0 0 0 68371115.324719548 -27965932.401847839 0 -27965932.401847839 -209021097.97624207 0 0 0 0 -15383120.626073498 -22634642.6180472 0 -22634642.6180472 41038064.76077117 0 0 0 0 -82000307.451102197 -216885748.02989197 0 -216885748.02989197 -161585762.65429688 0 0 0 0 21621767.890371084 -67579243.312461853 0 -67579243.312461853 -41231876.279693604 0 0 0 0 33622730.40323925 19844971.859786987 0 19844971.859786987 2171299.0185394287 0 0 0 0 -165595.60495340539 -1537902.2155189645 0 -1537902.2155189645 -1744382.7729580179 0 0 0 0 -155739267.1335431 -244834470.90646744 0 -244834470.90646744 254611981.64855957 0 0 0 0 114161492.42977118 66350215.578941345 0 66350215.578941345 -106383349.83232117 0 0 0 0 100161948.4588356 26507245.955078125 0 26507245.955078125 -165702719.52616882 0 0 0 0 27328530.668475986 -35697945.782874584 0 -35697945.782874584 -122059511.48269653 0 0 0 0 112183061.09260631 -89544920.6531744 0 -89544920.6531744 -119636936.5401001 0 0 0 0 150450656.13311297 25478511.312049866 0 25478511.312049866 -188170695.98388672 0 0 0 0 205713933.06198454 -1147334.1312789917 0 -1147334.1312789917 -55472812.995300293 0 0 0 0 112186425.4998256 -8387003.7188491821 0 -8387003.7188491821 141924314.55957794 0 0 0 0 -914603.8047629213 -1609769.9760764055 0 -1609769.9760764055 3788746.1786402315 0 0 0 0 169501993.05382788 -87479098.71219635 0 -87479098.71219635 -63891609.839729309 0 0 0 0 90892463.985851288 246972806.18708038 0 246972806.18708038 -266663781.09147263 0 0 0 0 125561730.94365269 300976528.15885115 0 300976528.15885115 323072503.20513916 0 0 0 0 -785619.31228590675 -207222.34769001231 0 -207222.34769001231 1898467.3474557996 0 0 0 0 381520771.57999897 76331326.156784058 0 76331326.156784058 94706294.951576233 0 0 0 0 -29046196.633886337 40262195.778213501 0 40262195.778213501 358099786.05838788 0 0 0 0 -12491126.495499611 106484165.7011261 0 106484165.7011261 158363484.54368591 0 0 0 0 -125391015.69068336 -32443036.751144409 0 -32443036.751144409 173705994.84642029 0 0 0 0 -92527332.640316963 86294811.273529053 0 86294811.273529053 90765407.33115387 0 0 0 0 -38163322.735201359 9905734.7074575424 0 9905734.7074575424 194560755.61026001 0 0 0 0 26376578.990740776 180317493.92450714 0 180317493.92450714 291192546.97241974 0 0 0 0 13180130.059294701 44718472.043632507 0 44718472.043632507 89369914.173065186 0 0 0 0 39689822.747462273 224314537.89338303 0 224314537.89338303 430190476.35604095 0 0 0 0 39099304.912126981 317043292.71506822 0 317043292.71506822 536962254.82647705 0 0 0 0 -45137760.526733398 173878779.65793228 0 173878779.65793228 452387334.65898132 0 0 0 0 15331685.279020309 193709784.12368774 0 193709784.12368774 356381749.63455355 0 0 0 0 -36430631.089387894 163622503.01709747 0 163622503.01709747 533847375.58135986 0 0 0 0 78904287.106637955 405761212.72035599 0 405761212.72035599 660293081.10334778 0 0 0 0 -16503080.202442169 124147141.16492462 0 124147141.16492462 878582400.85345459 0 0 0 0 -2097692.402179718 182316832.77618408 0 182316832.77618408 509762458.84724426 0 0 0 0 2248337.7318649292 7417059.08644104 0 7417059.08644104 516620458.36699152 0 0 0 0 26328330.944419861 4988069.117980957 0 4988069.117980957 660227456.58255005 0 0 0 0 58916783.196426392 101307640.23485947 0 101307640.23485947 609381639.03494263 0 0 0 0 50733780.788320541 46712672.147186279 0 46712672.147186279 417317016.35546875 0 0 0 0 137698884.41086197 -106166767.86634827 0 -106166767.86634827 283921789.23819733 0 0 0 0 9692649.8766698837 85025403.594623566 0 85025403.594623566 290201104.162323 0 0 0 0 51701255.765750885 -77523591.889770508 0 -77523591.889770508 390349323.24632263 0 0 0 0 219394109.99811935 -153571279.66266632 0 -153571279.66266632 141422423.34269714 0 0 0 0 106073654.38438416 -123887380.89664459 0 -123887380.89664459 470229406.72340393 0 0 0 0 160117688.81308174 -35842001.783546448 0 -35842001.783546448 350457730.59910583 0 0 0 0 165113223.85493469 -15849174.588195801 0 -15849174.588195801 732606151.98243713 0 0 0 0 129022852.50258255 -190351843.88899231 0 -190351843.88899231 676209162.38796997 0 0 0 0 237255976.5227356 -295484772.67933655 0 -295484772.67933655 758696145.51493835 0 0 0 0 238519702.93664169 -54884748.85389328 0 -54884748.85389328 389038991.64093018 0 0 0 0 68268786.844881058 33177727.323143005 0 33177727.323143005 1170884295.6010132 0 0 0 0 326433500.25315857 -334445003.17097473 0 -334445003.17097473 1475592375.9273529 0 0 0 0 -8620730.491859436 299215156.75912476 0 299215156.75912476 1773170642.6519165 0 0 0 0 519236329.47947335 893361038.64425755 0 893361038.64425755 1098715009.0144196 0 0 0 0 132277241.9629631 357767735.19692993 0 357767735.19692993 873398471.91052246 0 0 0 0 7246785.2745246887 12483903.20451355 0 12483903.20451355 1085294326.1396942 0 0 0 0 48058336.087558746 429817031.85139656 0 429817031.85139656 1062436503.4324341 0 0 0 0 -395094954.07326698 -208630697.73154068 0 -208630697.73154068 1071487541.8824158 0 0 0 0 -142804670.06951141 265040652.74485779 0 265040652.74485779 1631275278.4845581 0 0 0 0 -312348564.3305645 -57485782.626564026 0 -57485782.626564026 1158317343.0146484 0 0 0 0 -71508869.677185059 392971373.03543091 0 392971373.03543091 1454677603.4520721 0 0 0 0 616748349.36186218 790557360.16764832 0 790557360.16764832 1458855029.4445648 0 0 0 0 1285567801.4176025 186455444.46669006 0 186455444.46669006 857046712.85751343 0 0 0 0 -206340222.40717316 -16051987.387908936 0 -16051987.387908936 809979375.44355774 0 0 0 0 -122082680.37854767 -30445619.279319763 0 -30445619.279319763 623200314.26477051 0 0 0 0 -122551273.71504688 -232913814.24791336 0 -232913814.24791336 635107459.80618286 0 0 0 0 -180281673.74802399 -155606161.19671631 0 -155606161.19671631 638389911.59580231 0 0 0 0 -167195933.7441864 -101710862.12936401 0 -101710862.12936401 797818390.89993286 0 0 0 0 -204509646.99410629 154367089.88134766 0 154367089.88134766 953619854.57989502 0 0 0 0 -223840846.53829193 40124235.279434204 0 40124235.279434204 1160835538.1690063 0 0 0 0 -235626455.53605843 -162809587.09301758 0 -162809587.09301758 849943988.7598877 0 0 0 0 -127804798.20397568 142182981.8589325 0 142182981.8589325 965990139.53079224 0 0 0 0 -235958462.39304924 -30895797.96496582 0 -30895797.96496582 853359528.83688354 0 0 0 0 -219053729.52424526 78541216.031944275 0 78541216.031944275 811916400.84500122 0 0 0 0 -204369249.50650406 -18953254.453201294 0 -18953254.453201294 725198271.28614807 0 0 0 0 125270247.97760773 248586639.24425507 0 248586639.24425507 320119417.86355591 0 0 0 0 -216374915.52078247 104581939.46620178 0 104581939.46620178 776348761.51226807 0 0 0 0 -227171404.88815689 206848492.75958252 0 206848492.75958252 822995831.81245422 0 0 0 0 -192249362.16587448 130941156.48856354 0 130941156.48856354 997090486.1368103 0 0 0 0 301415739.63967323 508508110.61331177 0 508508110.61331177 696759529.76722336 0 0 0 0 528094.69973619422 -221149.69076783396 0 -221149.69076783396 -225754.32664564252 0 0 0 0 344329661.10584641 686387530.15632629 0 686387530.15632629 967709763.0866394 0 0 0 0 -438752763.33888435 -187831784.70574188 0 -187831784.70574188 529968383.94290161 0 0 0 0 23499175.871864319 271408597.64379883 0 271408597.64379883 871176112.26613045 0 0 0 0 96389936.386810303 347672573.80769348 0 347672573.80769348 1111168985.2654114 0 0 0 0 57713159.784042358 -149294345.20498657 0 -149294345.20498657 -49831230.610794067 0 0 0 0 2426868.3614651789 -1770898.0806855392 0 -1770898.0806855392 -2027526.0173453391 0 0 0 0 21145870.527526855 140179658.62168121 0 140179658.62168121 -73774946.9478302 0 0 0 0 -183405733.13062477 34987635.919948578 0 34987635.919948578 -11075462.391357422 0 0 0 0 21296275.212726593 50620585.436378479 0 50620585.436378479 195238206.47322845 0 0 0 0 -77945891.720881462 30817607.45509243 0 30817607.45509243 215632275.41151428 0 0 0 0 129907.09618176427 -727657.32039644197 0 -727657.32039644197 883387.59618323669 0 0 0 0 -196455038.51987553 148856954.08187103 0 148856954.08187103 -39918714.802230835 0 0 0 0 -269223674.91847706 -25347845.26304245 0 -25347845.26304245 71012634.476051331 0 0 0 0 -18687.765257835388 66094499.464731216 0 66094499.464731216 -47446626.169754028 0 0 0 0 3764341.6542715235 -6803824.5366534106 0 -6803824.5366534106 -3611598.5760822371 0 0 0 0 58713265.664676666 -27761332.654190063 0 -27761332.654190063 -46693710.287216187 0 0 0 0 5399387.8852863312 76566833.146072388 0 76566833.146072388 -30855350.986541748 0 0 0 0 54819209.01817131 -11549327.070167542 0 -11549327.070167542 -68165586.763526917 0 0 0 0 9977748.2548475266 -47767864.741153717 0 -47767864.741153717 -39905098.656936646 0 0 0 0 85062074.180702209 -35534009.071853638 0 -35534009.071853638 -47233398.367862701 0 0 0 0 58251019.543347359 5772121.1508693695 0 5772121.1508693695 9085768.5498809814 0 0 0 0 45070875.475225449 -82406608.608665466 0 -82406608.608665466 215372464.14815521 0 0 0 0 68724145.983318806 7909092.5476703644 0 7909092.5476703644 207737412.56735229 0 0 0 0 152829570.89392281 -79534814.462020874 0 -79534814.462020874 51021153.577896118 0 0 0 0 106299761.44203758 34672646.892845154 0 34672646.892845154 109264181.23486328 0 0 0 0 103074666.42326355 -19951094.795743942 0 -19951094.795743942 -21135161.392044067 0 0 0 0 30153676.94333557 -20407472.102537155 0 -20407472.102537155 488354679.89697266 0 0 0 0 -34630295.880140632 -57734429.506660461 0 -57734429.506660461 475011976.17648315 0 0 0 0 645021.17958344473 -52294746.929115295 0 -52294746.929115295 505226858.53317261 0 0 0 0 43010020.821546927 -78075376.746391296 0 -78075376.746391296 520125088.67433167 0 0 0 0 154026128.72398353 -71224251.576896667 0 -71224251.576896667 508085784.41044617 0 0 0 0 31294751.309193999 -45950038.939231873 0 -45950038.939231873 601556565.66311646 0 0 0 0 -209437.94324516921 -249624923.15172958 0 -249624923.15172958 674138503.78256226 0 0 0 0 -12459459.565094888 -112157101.3896637 0 -112157101.3896637 501426451.91506767 0 0 0 0 -34482536.479137078 -78646978.536273956 0 -78646978.536273956 450464787.40060425 0 0 0 0 -71251641.115390792 -58181761.878921509 0 -58181761.878921509 451092890.04132843 0 0 0 0 -41912793.195263624 -98985741.983291626 0 -98985741.983291626 398749615.75099182 0 0 0 0 -72133782.719181493 -48453709.132481098 0 -48453709.132481098 384516328.19934082 0 0 0 0 -89861514.395050287 11976915.853340149 0 11976915.853340149 434392284.76952744 0 0 0 0 -36919443.755932808 -39905539.035171509 0 -39905539.035171509 409401166.77076721 0 0 0 0 -40300817.810070753 101840521.06036377 0 101840521.06036377 464115019.49981689 0 0 0 0 -39868417.029412195 -29064332.535720825 0 -29064332.535720825 438116632.67030334 0 0 0 0 -72781760.929303288 44310843.035797119 0 44310843.035797119 362960800.08139133 0 0 0 0 -128994870.58772016 -39965899.906013489 0 -39965899.906013489 373175432.35795593 0 0 0 0 -62857276.268461376 -59998128.11340332 0 -59998128.11340332 223940667.84736633 0 0 0 0 -56755744.475453258 28547528.962406158 0 28547528.962406158 310949986.04225159 0 0 0 0 -74864585.40858084 20443003.967208862 0 20443003.967208862 313673933.14865112 0 0 0 0 -40541123.46958977 68742340.778579712 0 68742340.778579712 322891448.65009212 0 0 0 0 -57175697.77203314 39350389.605251312 0 39350389.605251312 321244480.2348938 0 0 0 0 26803962.054394025 104156841.92375565 0 104156841.92375565 284404781.47770691 0 0 0 0 24324118.373653233 60019340.172683716 0 60019340.172683716 232883736.54853058 0 0 0 0 -1531676.1530417204 3735646.6128234863 0 3735646.6128234863 453445132.3286705 0 0 0 0 5413580.3287979951 -25247917.438957214 0 -25247917.438957214 563050350.72769165 0 0 0 0 -4647.4548166212098 -2259050.4645669265 0 -2259050.4645669265 -1853703.892074585 0 0 0 0 76185950.284389719 241073221.69037628 0 241073221.69037628 657262378.60520554 0 0 0 0 -213675.21370962218 -37524.006510283798 0 -37524.006510283798 734960.55662177503 0 0 0 0 -1655721.7855082569 -1679937.7473678589 0 -1679937.7473678589 -117059.58974456787 0 0 0 0 16648418.790183544 84982028.738647461 0 84982028.738647461 226131085.83357239 0 0 0 0 -44067.71349576275 -361090.50455655158 0 -361090.50455655158 906603.73365582526 0 0 0 0 -1625619.6822133649 -3143660.9426210523 0 -3143660.9426210523 -601875.96914672852 0 0 0 0 -1969566.133059049 -1267718.0303955078 0 -1267718.0303955078 947685.32064056396 0 0 0 0 4963.6223351090039 -3397245.6671485901 0 -3397245.6671485901 1400073.3482894897 0 0 0 0 -2628599.8948178217 -2360120.3320465088 0 -2360120.3320465088 6546357.2199249268 0 0 0 0 -2770690.6467688233 -1438263.1980133057 0 -1438263.1980133057 1474883.4685134888 0 0 0 0 -2377653.6983611323 -417260.94434356689 0 -417260.94434356689 2735214.2063903809 0 0 0 0 -3011906.3041180959 4254306.5360040665 0 4254306.5360040665 -575248.44184875488 0 0 0 0 22956.643767891717 -50401.450674943626 0 -50401.450674943626 53334.591062448919 0 0 0 0 144381.01194596291 -2673457.7871398926 0 -2673457.7871398926 13272915.963006973 0 0 0 0 -13113898.242211401 -8727419.0916137695 0 -8727419.0916137695 12508620.80645752 0 0 0 0 -3184873.3069834784 3711373.877784729 0 3711373.877784729 7178580.5742435455 0 0 0 0 52.949597098842219 -3113003.2288360596 0 -3113003.2288360596 39294372.817081451 0 0 0 0 10569674.798573239 1218586.025970459 0 1218586.025970459 -1123952.626373291 0 0 0 0 789105.12973988056 -2034039.4225921631 0 -2034039.4225921631 6456243.705368042 0 0 0 0 1359782.8848328292 -1694844.5527801514 0 -1694844.5527801514 5350541.3162384033 0 0 0 0 1628863.8986951709 -2129680.8368759155 0 -2129680.8368759155 4898158.9998626709 0 0 0 0 1056638.7213902771 -2071668.0416259766 0 -2071668.0416259766 13065881.338409424 0 0 0 0 763822.42576350272 -710511.51876068115 0 -710511.51876068115 4019812.8402137756 0 0 0 0 -2350386.993624473 -254795.20820045471 0 -254795.20820045471 701378.19175720215 0 0 0 0 50326.846520791885 -160693.38877135515 0 -160693.38877135515 206712.45432450622 0 0 0 0 518943.86028694361 -1829108.9858427048 0 -1829108.9858427048 5499587.9246826172 0 0 0 0 2133710.4077177048 -294126.84173583984 0 -294126.84173583984 -660404.65328979492 0 0 0 0 133951.83159925233 -19683.121004983783 0 -19683.121004983783 -168937.31963218004 0 0 0 0 8135543.032287892 22231371.463372469 0 22231371.463372469 9021573.2900238037 0 0 0 0 201235.32953279215 -801285.60273648053 0 -801285.60273648053 -17609.738997906446 0 0 0 0 -7431961.9637143612 -52671496.943572998 0 -52671496.943572998 108618746.55267334 0 0 0 0 -1852933.3693693727 -969839.22218322754 0 -969839.22218322754 802693.87861061096 0 0 0 0 5643049.4315596968 -18577284.323654413 0 -18577284.323654413 60736801.843994141 0 0 0 0 141401.38722988218 -630728.90544165671 0 -630728.90544165671 798041.68333117664 0 0 0 0 25210633.913350046 56380609.994842529 0 56380609.994842529 69502877.337155342 0 0 0 0 -22450999.606429279 15445505.205726624 0 15445505.205726624 148193225.71749878 0 0 0 0 -30732652.541197896 17545565.642280579 0 17545565.642280579 229810802.58499146 0 0 0 0 -42133022.386121094 36312037.910919189 0 36312037.910919189 227394750.01216125 0 0 0 0 -38632801.276128292 19018543.352127075 0 19018543.352127075 258747147.42180061 0 0 0 0 -50976832.256640196 -26738714.438415527 0 -26738714.438415527 250437019.41568756 0 0 0 0 42125153.736507177 -12036339.615722656 0 -12036339.615722656 268705072.4132843 0 0 0 0 56840375.834323049 -140810427.885849 0 -140810427.885849 101475840.7633667 0 0 0 0 139331.1051228616 -87413.254641380161 0 -87413.254641380161 -77314.598974585533 0 0 0 0 -44874304.167260289 -180647.3832244873 0 -180647.3832244873 280732009.70324707 0 0 0 0 -60333867.524169803 66264328.174240112 0 66264328.174240112 3326084.3082427979 0 0 0 0 -26810481.678568721 549165.89183807373 0 549165.89183807373 245818258.27946472 0 0 0 0 -364879.94295883179 -46883839.505813599 0 -46883839.505813599 356122832.54941368 0 0 0 0 20786.593045004294 -35945.797477327287 0 -35945.797477327287 184907.9213129282 0 0 0 0 3284988.566190958 -32464858.492706299 0 -32464858.492706299 358628796.62771606 0 0 0 0 -86677941.108537555 6736168.9919509888 0 6736168.9919509888 248688960.70878601 0 0 0 0 -96826029.102371573 -49861196.531021118 0 -49861196.531021118 51870140.862548828 0 0 0 0 -527963.55535254627 -2470029.2164363861 0 -2470029.2164363861 416589.14741516113 0 0 0 0 40097.419991202725 -850312.966018226 0 -850312.966018226 1316625.1558045 0 0 0 0 -8065433.7034788132 14139521.917068481 0 14139521.917068481 66056247.44865799 0 0 0 0 190066.27721638128 -785263.66560531408 0 -785263.66560531408 -4901.0197441577911 0 0 0 0 -313015.02120272815 -1422693.0055065155 0 -1422693.0055065155 -33454.467132568359 0 0 0 0 814675.75229483843 -1639332.6463165283 0 -1639332.6463165283 8159.4030075073242 0 0 0 0 -448249.14801812172 -1531246.9550704956 0 -1531246.9550704956 4221279.3249664307 0 0 0 0 1432478.3500573635 -2668972.1573314667 0 -2668972.1573314667 1619083.3660888672 0 0 0 0 -1717632.2472966462 -2003209.3819541931 0 -2003209.3819541931 1771836.6587982178 0 0 0 0 -348674.47386670113 -885515.42460632324 0 -885515.42460632324 1358745.3322944641 0 0 0 0 162906.25109289587 -2667891.6917324066 0 -2667891.6917324066 465297.412109375 0 0 0 0 148733.93410751224 -98495.830371856689 0 -98495.830371856689 1679277.9284515381 0 0 0 0 899439.23034901172 306206.74368667603 0 306206.74368667603 3273454.8931121826 0 0 0 0 -393225.03160154819 -107917.21639251709 0 -107917.21639251709 3781284.0397443771 0 0 0 0 -82322238.696025908 -72068615.340435028 0 -72068615.340435028 -46444547.758544922 0 0 0 0 -3093731.3070714474 -62900193.053840637 0 -62900193.053840637 -53295826.753227234 0 0 0 0 212190.90763820158 -796907.52810282633 0 -796907.52810282633 1075481.9342308342 0 0 0 0 -992453.35378462076 -587605.5414276123 0 -587605.5414276123 2356535.0895314217 0 0 0 0 134157.71542623406 -842931.16910436377 0 -842931.16910436377 1302640.927050598 0 0 0 0 -114728822.90528464 -99559183.953186035 0 -99559183.953186035 -19907101.242492676 0 0 0 0 -90638795.497840643 -25258649.939144135 0 -25258649.939144135 37768288.689178467 0 0 0 0 -30255571.368259251 -47581734.41493988 0 -47581734.41493988 161882535.20680237 0 0 0 0 -38391727.320672035 8495568.4463806152 0 8495568.4463806152 11328328.591209412 0 0 0 0 -51254708.516288638 1056727.2907409668 0 1056727.2907409668 -22293124.948319912 0 0 0 0 -55538321.719746858 -42921888.119853973 0 -42921888.119853973 107572394.50701904 0 0 0 0 -51263880.843991637 -3190623.3121986389 0 -3190623.3121986389 245521069.69754028 0 0 0 0 -45107118.378584623 30813314.522415161 0 30813314.522415161 117614383.85151672 0 0 0 0 -34795621.96364665 36528246.432072639 0 36528246.432072639 163427168.23092651 0 0 0 0 -48838663.484493375 -8925350.3131408691 0 -8925350.3131408691 302184572.9822731 0 0 0 0 -95035163.997408926 -7294707.6576347351 0 -7294707.6576347351 302301341.79251862 0 0 0 0 -69110736.59636879 -65782721.294616699 0 -65782721.294616699 218899650.46562195 0 0 0 0 -64867002.44955343 76885611.504779816 0 76885611.504779816 475898385.14427185 0 0 0 0 -175321.32342063222 -60187.912791565061 0 -60187.912791565061 186055.37878639437 0 0 0 0 6488755.68667835 17707009.737941742 0 17707009.737941742 310033971.88008118 0 0 0 0 -72312793.547409773 26893214.426582336 0 26893214.426582336 309255586.01545715 0 0 0 0 -45571543.984904826 -5119156.3560142517 0 -5119156.3560142517 318224395.00541687 0 0 0 0 -3004190.418836236 -7618050.2412567139 0 -7618050.2412567139 312131441.63184357 0 0 0 0 -57697405.866834283 -10994827.272758484 0 -10994827.272758484 313437202.58299255 0 0 0 0 -35483305.121007144 -257640.85819721222 0 -257640.85819721222 297569593.23150635 0 0 0 0 -2146055.3565244675 -5695750.6382064819 0 -5695750.6382064819 297136423.70870972 0 0 0 0 -13933660.023006678 6231517.6767883301 0 6231517.6767883301 299450856.06697464 0 0 0 0 -23375811.818477929 -22457503.309520721 0 -22457503.309520721 336840800.64822388 0 0 0 0 -332645.63561358873 -129848.79051285982 0 -129848.79051285982 351665.90191391483 0 0 0 0 -23157704.617545187 25591640.502311707 0 25591640.502311707 396351366.52807617 0 0 0 0 -20601856.517830163 12024354.529342651 0 12024354.529342651 386023651.22575569 0 0 0 0 -26997099.160694063 34550745.348449707 0 34550745.348449707 512795168.58073807 0 0 0 0 -160939.74527282381 -76876.055434402078 0 -76876.055434402078 194077.6749281697 0 0 0 0 -656613.11004382372 -18385482.644779205 0 -18385482.644779205 315748548.42948151 0 0 0 0 -27604270.039625943 -11581602.086669922 0 -11581602.086669922 314629525.56809235 0 0 0 0 -82413676.931147829 16839415.833230972 0 16839415.833230972 352410511.22052002 0 0 0 0 -89448734.784839272 -11336745.933517456 0 -11336745.933517456 317198680.13904953 0 0 0 0 -151255606.96426749 -36615144.656410217 0 -36615144.656410217 325294382.2974968 0 0 0 0 -13433227.45007322 -8662246.276799202 0 -8662246.276799202 273753586.85853577 0 0 0 0 -80814832.530980229 20283980.935203552 0 20283980.935203552 362378516.08621979 0 0 0 0 -111096916.9081715 24018763.409091949 0 24018763.409091949 381447748.94348145 0 0 0 0 -89508945.142710537 40129970.897632599 0 40129970.897632599 325752367.07476044 0 0 0 0 -86914909.957096338 63076241.250968933 0 63076241.250968933 403235393.84805298 0 0 0 0 -18969005.494609177 187410722.24141312 0 187410722.24141312 468924786.41669464 0 0 0 0 -82016897.196200013 -25011638.417224884 0 -25011638.417224884 620542067.44914246 0 0 0 0 12447218.990450084 -108888816.54608536 0 -108888816.54608536 518554086.91976929 0 0 0 0 -92811034.601772666 11908826.768081665 0 11908826.768081665 523315380.65263367 0 0 0 0 -18154041.638183475 -96323172.077911377 0 -96323172.077911377 421996845.93592834 0 0 0 0 -425778.80961182714 -67241772.571914673 0 -67241772.571914673 396196660.05258179 0 0 0 0 96345530.62437132 -153966033.66588163 0 -153966033.66588163 288803836.78588867 0 0 0 0 93338890.427801132 -173704834.55675602 0 -173704834.55675602 324942491.4050293 0 0 0 0 33621829.925254583 -97940603.559104919 0 -97940603.559104919 261337609.59480286 0 0 0 0 32248503.100208402 -99373784.35206604 0 -99373784.35206604 290244546.7906723 0 0 0 0 -41445706.084831208 -47204414.773044586 0 -47204414.773044586 321370301.4621582 0 0 0 0 -59857683.900310636 -51871709.926506042 0 -51871709.926506042 353196844.88875771 0 0 0 0 -13148218.405191272 -7578806.1436576843 0 -7578806.1436576843 170296126.19664001 0 0 0 0 9288692.3900651336 -54281652.196315765 0 -54281652.196315765 246065801.64588928 0 0 0 0 38058006.584075406 -49014589.344893456 0 -49014589.344893456 158797437.69477844 0 0 0 0 91378567.074267089 -72704935.358772278 0 -72704935.358772278 166487765.34248352 0 0 0 0 35258004.911166549 -64941928.606941223 0 -64941928.606941223 173236369.54897976 0 0 0 0 -18136979.777724624 -67077401.609550476 0 -67077401.609550476 69883280.265514374 0 0 0 0 10587846.803982049 -4843545.9855918884 0 -4843545.9855918884 50217733.044403076 0 0 0 0 130479325.2009865 -62881051.923927307 0 -62881051.923927307 69166490.805446625 0 0 0 0 111322748.1214093 -123478035.39594269 0 -123478035.39594269 99358053.919677734 0 0 0 0 87696182.682375789 -89846828.552330017 0 -89846828.552330017 56085523.990402222 0 0 0 0 102407770.75465366 -144238064.90265751 0 -144238064.90265751 13799080.078552246 0 0 0 0 88781734.518131346 -82563353.408798218 0 -82563353.408798218 -38782310.470245361 0 0 0 0 79529657.219722688 -160119966.08191681 0 -160119966.08191681 -24484940.577163696 0 0 0 0 -284300.02707437653 33407.607958715409 0 33407.607958715409 569769.01359487325 0 0 0 0 16296576.303263202 -21206036.346099854 0 -21206036.346099854 20648055.62204361 0 0 0 0 33380967.108778715 -18862011.255210876 0 -18862011.255210876 19132054.059204102 0 0 0 0 22998.051824081234 -7266.0752317681909 0 -7266.0752317681909 10600.612498790026 0 0 0 0 110188138.60836759 -73074172.099475861 0 -73074172.099475861 4451447.0937805176 0 0 0 0 237746626.12039846 -100218450.89796448 0 -100218450.89796448 9139096.5360336304 0 0 0 0 220617842.89562219 -74426908.043762207 0 -74426908.043762207 52136240.691589355 0 0 0 0 332174823.9796105 -126415713.50191545 0 -126415713.50191545 20337406.708648682 0 0 0 0 1183.1418237766593 -115650.3346596834 0 -115650.3346596834 174073.69377161562 0 0 0 0 156275287.40257511 -139506170.74259186 0 -139506170.74259186 206105434.1166687 0 0 0 0 2666763.1885870323 11756699.142627835 0 11756699.142627835 53120831.180801392 0 0 0 0 21453882.326307297 -121091230.10005188 0 -121091230.10005188 112072810.35217285 0 0 0 0 140117270.43195972 -99468846.651252747 0 -99468846.651252747 100952769.04293823 0 0 0 0 140772688.7017816 -92924679.819301605 0 -92924679.819301605 134685173.22767639 0 0 0 0 92649126.134884238 -84844981.648872375 0 -84844981.648872375 160068152.78728485 0 0 0 0 115150069.75709561 -141591076.66058254 0 -141591076.66058254 210764206.14422607 0 0 0 0 119269387.03478757 -111598805.66040373 0 -111598805.66040373 168845040.04394531 0 0 0 0 118035601.40319735 -5232596.2805709839 0 -5232596.2805709839 127803909.05381012 0 0 0 0 128479607.14954942 -14641865.857818604 0 -14641865.857818604 134515462.17321014 0 0 0 0 186699219.97577006 126329127.89520264 0 126329127.89520264 187065054.91817474 0 0 0 0 59447618.285304449 -65644191.466669083 0 -65644191.466669083 77255255.837219238 0 0 0 0 -11178945.148663878 53412916.414516449 0 53412916.414516449 166520025.65893555 0 0 0 0 102995674.56888124 -138428008.13683319 0 -138428008.13683319 145129861.82688904 0 0 0 0 50230254.138066262 33261771.577468872 0 33261771.577468872 21057843.60578537 0 0 0 0 -149660.66560581897 294623.09203675389 0 294623.09203675389 608331.32440356165 0 0 0 0 8329595.4137902856 -29143742.5496521 0 -29143742.5496521 42528580.551597595 0 0 0 0 22889592.722704351 -9063802.3463478088 0 -9063802.3463478088 18725605.929779053 0 0 0 0 7307796.8286925554 -21745962.303621292 0 -21745962.303621292 22905705.258453369 0 0 0 0 16497871.398874581 -20472444.999296188 0 -20472444.999296188 23081778.370651245 0 0 0 0 46034925.655466318 44010791.571289062 0 44010791.571289062 8931527.2949371338 0 0 0 0 28806704.061266422 -4994843.7915344238 0 -4994843.7915344238 21371756.905269623 0 0 0 0 33488184.102656007 64550099.30531311 0 64550099.30531311 -20290856.32749939 0 0 0 0 129416785.8748666 17300041.514091492 0 17300041.514091492 -39442573.945201874 0 0 0 0 -80155959.243780762 279569317.27262974 0 279569317.27262974 740692550.24217224 0 0 0 0 329071.23672736785 -357547.63073674962 0 -357547.63073674962 253133.41512383521 0 0 0 0 -142109141.05480099 -126742873.83787537 0 -126742873.83787537 595169128.76016235 0 0 0 0 -107514.99581954221 221221.24297487363 0 221221.24297487363 377313.90813715383 0 0 0 0 92383653.373952627 -60461230.457210541 0 -60461230.457210541 55638288.412567139 0 0 0 0 88860485.576628804 284967434.02526855 0 284967434.02526855 650610958.1048584 0 0 0 0 68482000.728750646 353402452.78791428 0 353402452.78791428 -218203828.23643494 0 0 0 0 -169122097.0187726 15288574.904769897 0 15288574.904769897 1104019766.5741577 0 0 0 0 332558711.96077085 415845391.46836853 0 415845391.46836853 -1012308342.9011307 0 0 0 0 142890621.15292168 42285433.159515381 0 42285433.159515381 1102217893.7342691 0 0 0 0 -162521536.53245544 -143625072.68035889 0 -143625072.68035889 1001706624.3073959 0 0 0 0 -370098.65415478451 793248.60654714704 0 793248.60654714704 918966.24493328668 0 0 0 0 -176637020.58304948 198844341.84954071 0 198844341.84954071 74362311.779273987 0 0 0 0 246352296.25687301 318996256.25666809 0 318996256.25666809 -304854710.09637451 0 0 0 0 -92443357.149046227 -9017303.5102014542 0 -9017303.5102014542 -463084046.23088074 0 0 0 0 272058442.54426646 101743688.1264801 0 101743688.1264801 82080079.566435814 0 0 0 0 375772202.44468832 -143861578.88749218 0 -143861578.88749218 -60468464.976013184 0 0 0 0 260112347.41677988 -38345727.066246033 0 -38345727.066246033 177908680.55470276 0 0 0 0 417728167.51683986 -156163854.68522644 0 -156163854.68522644 135702425.76716995 0 0 0 0 252154756.42253667 -22783904.255645752 0 -22783904.255645752 79989922.225311279 0 0 0 0 203137422.61964506 -197913073.49601746 0 -197913073.49601746 234971375.74980164 0 0 0 0 -1170736.1195800304 -118303846.62971878 0 -118303846.62971878 592324979.57186699 0 0 0 0 268802494.27177024 -343059562.45767212 0 -343059562.45767212 448988621.18722534 0 0 0 0 949037029.60638237 -407756337.60571671 0 -407756337.60571671 329688712.21605873 0 0 0 0 111659450.87346298 -382279837.64179802 0 -382279837.64179802 1170369723.4801254 0 0 0 0 160083870.27997458 461976757.59800339 0 461976757.59800339 1047616394.047533 0 0 0 0 1508810.272794842 -1887022.2535213679 0 -1887022.2535213679 2192997.8363382071 0 0 0 0 295517639.67271757 -771744547.00296402 0 -771744547.00296402 1071215052.6329079 0 0 0 0 136466459.2392748 -409735171.9043045 0 -409735171.9043045 279996993.35932922 0 0 0 0 -12042762.224028826 -16457341.626022339 0 -16457341.626022339 449142263.07725525 0 0 0 0 12031182.57092461 128920993.97784615 0 128920993.97784615 1233297593.0541992 0 0 0 0 508771076.57400107 430581764.48565674 0 430581764.48565674 527435633.00234985 0 0 0 0 269313736.76604682 -193427565.3306694 0 -193427565.3306694 14770128.716430664 0 0 0 0 218408220.36541292 -376952177.191185 0 -376952177.191185 320927708.56595612 0 0 0 0 152009269.4354412 -424564469.33649349 0 -424564469.33649349 286802969.70881653 0 0 0 0 739035996.73231316 -444755983.628088 0 -444755983.628088 2741490.1547317505 0 0 0 0 76391798.310299963 84623235.728862762 0 84623235.728862762 260637474.74523926 0 0 0 0 11589956.007082403 115330554.11481094 0 115330554.11481094 249116537.42610931 0 0 0 0 2911203.0729364306 -4657942.8278833814 0 -4657942.8278833814 6777662.8253571242 0 0 0 0 -180807560.40021133 -258180124.26324654 0 -258180124.26324654 -78582219.152961731 0 0 0 0 -41047397.330505371 -2034339.7835083008 0 -2034339.7835083008 -9347188.185901165 0 0 0 0 -27474332.838558078 12343812.997795105 0 12343812.997795105 -192727537.43130493 0 0 0 0 -31712939.392368138 6897756.205239296 0 6897756.205239296 129890391.21626282 0 0 0 0 -138795652.34539604 201313807.87049866 0 201313807.87049866 35048380.157699585 0 0 0 0 -257549524.32994986 140983713.31656837 0 140983713.31656837 274851614.70253754 0 0 0 0 -217508969.65484858 54162828.92943573 0 54162828.92943573 380011029.28533936 0 0 0 0 -177696807.19553328 -22903657.792671204 0 -22903657.792671204 464464371.22593689 0 0 0 0 -100420708.02908397 93298710.032215118 0 93298710.032215118 185223900.5151062 0 0 0 0 -118027235.70334816 53674045.871551514 0 53674045.871551514 200180667.71146393 0 0 0 0 -133866940.24938297 84911058.475227356 0 84911058.475227356 219127295.40927124 0 0 0 0 -113750662.28908062 52402952.234840393 0 52402952.234840393 267009195.92630005 0 0 0 0 -26250814.690216541 51297628.296669006 0 51297628.296669006 267468043.69119263 0 0 0 0 -26991312.783193588 59866628.816017151 0 59866628.816017151 198817626.35969543 0 0 0 0 42071744.16234374 80200347.101898193 0 80200347.101898193 224509238.83312988 0 0 0 0 76587284.536080599 -23590621.272262573 0 -23590621.272262573 178767083.1157074 0 0 0 0 22139248.822110698 41789994.401309967 0 41789994.401309967 100354411.29489136 0 0 0 0 41326007.732506156 -70684985.234153748 0 -70684985.234153748 414323060.46759796 0 0 0 0 36804516.174248792 -255973710.61449957 0 -255973710.61449957 243436814.40895081 0 0 0 0 -144303471.49943185 58397370.898041248 0 58397370.898041248 324579138.79330444 0 0 0 0 56747227.293851875 130995367.2264328 0 130995367.2264328 326722022.81964111 0 0 0 0 102424133.7111342 62878362.672615051 0 62878362.672615051 222432589.49205017 0 0 0 0 35195215.289097786 104400422.93492889 0 104400422.93492889 344662221.75269318 0 0 0 0 1194764.7766517128 158188.05382218957 0 158188.05382218957 -915979.43716793507 0 0 0 0 177647842.75512528 125274639.52192688 0 125274639.52192688 28890955.529724121 0 0 0 0 235494.26367631069 40345.04252181761 0 40345.04252181761 72021.138633817434 0 0 0 0 13702552.591252089 142578955.01825714 0 142578955.01825714 333981069.15515137 0 0 0 0 47005749.338075876 13569440.740123749 0 13569440.740123749 273223473.86064148 0 0 0 0 -23232403.709914684 54688712.911655426 0 54688712.911655426 138220583.6385498 0 0 0 0 31189518.568186074 76397297.576377392 0 76397297.576377392 125375019.27058411 0 0 0 0 24601270.623186588 31132936.274307251 0 31132936.274307251 17814795.929740906 0 0 0 0 3589489.7614450455 3799210.8946075439 0 3799210.8946075439 2130246.2805709839 0 0 0 0 4089733.0067389007 689990.84390201233 0 689990.84390201233 -1802708.9486013129 0 0 0 0 37627788.935224295 -4343305.8222351074 0 -4343305.8222351074 25374050.874785542 0 0 0 0 81542.705163920298 2255607.9356442466 0 2255607.9356442466 2595297.2276245281 0 0 0 0 3073793.5405168533 3081280.4258041382 0 3081280.4258041382 2261000.9436378479 0 0 0 0 5685209.1727252007 5260025.3562469482 0 5260025.3562469482 3523697.5183639526 0 0 0 0 19157169.819484234 14831034.953086853 0 14831034.953086853 15802943.834381104 0 0 0 0 3080181.1815876192 2224209.4018977471 0 2224209.4018977471 -2299365.0980895013 0 0 0 0 4537773.2771077156 4061393.7099456787 0 4061393.7099456787 3374315.7999486923 0 0 0 0 4221021.6599528044 4598827.6193685532 0 4598827.6193685532 4926750.4299163818 0 0 0 0 2778156.8479957581 4131843.0886917114 0 4131843.0886917114 5644087.6535644531 0 0 0 0 -803145.46196574857 3852342.469520038 0 3852342.469520038 10568634.11878714 0 0 0 0 -367092245.38919163 -71000830.952045441 0 -71000830.952045441 292686466.43678284 0 0 0 0 -462608896.7427845 84402103.504577637 0 84402103.504577637 98641225.917266846 0 0 0 0 -8056021.2303342819 27408779.415565491 0 27408779.415565491 3931217.079870224 0 0 0 0 1159878.6669676222 4737582.9375473186 0 4737582.9375473186 -712731.15766580403 0 0 0 0 4212368.9240255207 4454201.3568513393 0 4454201.3568513393 5751346.0109100342 0 0 0 0 19140790.732053757 11428137.325271606 0 11428137.325271606 -5743556.3921089172 0 0 0 0 -484275.12924212241 1944118.7003436275 0 1944118.7003436275 6977961.7144117951 0 0 0 0 -289493086.27121592 252554759.233778 0 252554759.233778 49211966.295013428 0 0 0 0 10801812.584878922 12846437.749404907 0 12846437.749404907 9288117.8378677368 0 0 0 0 -54053993.288580418 27173424.5715065 0 27173424.5715065 34229325.623443604 0 0 0 0 -7144810.9781517982 14429519.392356873 0 14429519.392356873 152823736.33685303 0 0 0 0 -78274968.217259407 922272.29445648193 0 922272.29445648193 151654737.45697308 0 0 0 0 -66622854.519536018 -39703770.248764038 0 -39703770.248764038 293298155.11248779 0 0 0 0 -47864149.011073112 64030529.479293823 0 64030529.479293823 264713634.38023376 0 0 0 0 -139486.03154077963 557141.3739008829 0 557141.3739008829 2441923.6042835414 0 0 0 0 74254923.348773956 -194024346.68378448 0 -194024346.68378448 274735745.29032898 0 0 0 0 21313653.740531921 -94768963.103286743 0 -94768963.103286743 91427121.415466309 0 0 0 0 -109852706.14149666 -37674524.43107605 0 -37674524.43107605 298037200.27863312 0 0 0 0 -111680425.14125714 -120782953.05680788 0 -120782953.05680788 466479510.116745 0 0 0 0 -148615486.31457615 1238809014.2079964 0 1238809014.2079964 287393462.91125488 0 0 0 0 671223395.20306587 226760407.68527985 0 226760407.68527985 -195831624.7184906 0 0 0 0 -523791690.69999313 69243992.333732605 0 69243992.333732605 174019087.61066437 0 0 0 0 1932596.4782171962 -5557031.056939695 0 -5557031.056939695 11900712.11959181 0 0 0 0 -329062833.13066208 -118605181.20431709 0 -118605181.20431709 28816428.206741333 0 0 0 0 -20934709.51301384 148184214.71640015 0 148184214.71640015 -22102124.878715515 0 0 0 0 -20955806.25739193 150783755.46057129 0 150783755.46057129 -121435999.42058563 0 0 0 0 -68560272.060350418 157778234.68533325 0 157778234.68533325 211129841.60998535 0 0 0 0 -69257095.895689011 222166719.30222321 0 222166719.30222321 -66306211.65486908 0 0 0 0 157557074.80315971 228976002.32513428 0 228976002.32513428 -87196771.915229797 0 0 0 0 57736478.7943995 133241046.65631676 0 133241046.65631676 79810944.461029053 0 0 0 0 115178465.30595982 -198778746.16888809 0 -198778746.16888809 223805862.9175415 0 0 0 0 660051110.37275887 -34017199.686721802 0 -34017199.686721802 121686851.61605072 0 0 0 0 465528208.53060603 -377754901.98566628 0 -377754901.98566628 313781217.52449036 0 0 0 0 -88737367.485589981 -27979994.037811279 0 -27979994.037811279 14879445.891021729 0 0 0 0 -70680119.904428482 -140047505.81241608 0 -140047505.81241608 710206336.0786438 0 0 0 0 338847709.63043976 391171038.80625534 0 391171038.80625534 312660718.67683411 0 0 0 0 1506981.7320872962 13360.541305486113 0 13360.541305486113 -38544.07719919458 0 0 0 0 567514531.21046233 -71866727.784160614 0 -71866727.784160614 -796023969.5128479 0 0 0 0 462759958.6859498 -103299330.21417999 0 -103299330.21417999 -805283185.239151 0 0 0 0 -139107925.56798077 -127941658.8585434 0 -127941658.8585434 -326297826.20933533 0 0 0 0 550915366.3687582 -303928264.86437988 0 -303928264.86437988 -684835234.77762604 0 0 0 0 225249966.11438918 204827259.68854523 0 204827259.68854523 685395669.52767563 0 0 0 0 661041518.80633748 -132571302.85798645 0 -132571302.85798645 -909151969.6836853 0 0 0 0 -397210035.073259 -393656463.5868187 0 -393656463.5868187 136138516.23655701 0 0 0 0 -97022418.424898714 550787374.8070755 0 550787374.8070755 821417104.11953735 0 0 0 0 1327632.8777781471 -4067252.592752384 0 -4067252.592752384 9215960.4237874597 0 0 0 0 -66712770.510307312 -203961678.34069824 0 -203961678.34069824 699747744.31217957 0 0 0 0 34823084.577437401 -419288076.27490234 0 -419288076.27490234 344417755.49157715 0 0 0 0 85571567.260574654 -206808033.40826201 0 -206808033.40826201 305032380.50993347 0 0 0 0 87460070.153021514 -140456805.3666445 0 -140456805.3666445 70437484.486114502 0 0 0 0 438973.52242028713 -110848619.45729065 0 -110848619.45729065 143702044.91313171 0 0 0 0 -2951212.1455049515 -36684440.034957886 0 -36684440.034957886 -163474290.84172058 0 0 0 0 -34268392.362474173 9400171.7447128296 0 9400171.7447128296 10561423.077644348 0 0 0 0 -231538539.38904846 67633556.401674271 0 67633556.401674271 36075839.919692993 0 0 0 0 65983507.195757091 -17455459.462547302 0 -17455459.462547302 31689962.75793457 0 0 0 0 63524126.627863169 -30080195.540222168 0 -30080195.540222168 259796678.72439575 0 0 0 0 -26333325.645083368 45787272.953674316 0 45787272.953674316 142657914.9386673 0 0 0 0 59386161.769313358 61707988.377398342 0 61707988.377398342 80334630.634231567 0 0 0 0 -29156971.740678132 71746322.53528595 0 71746322.53528595 162609339.5130043 0 0 0 0 -12991092.219605744 108476027.91251373 0 108476027.91251373 148334355.13010788 0 0 0 0 19097768.100135982 61901489.670703888 0 61901489.670703888 215933499.61761475 0 0 0 0 -32186978.861662745 70229608.785972595 0 70229608.785972595 175495214.12562561 0 0 0 0 -23040380.807158157 75715298.590093613 0 75715298.590093613 76794055.21661377 0 0 0 0 -146842990.48069769 50725376.593154907 0 50725376.593154907 99828151.701034546 0 0 0 0 -97853439.991308749 44435674.658424377 0 44435674.658424377 44316787.070861816 0 0 0 0 -106224343.18372628 -48258837.327919006 0 -48258837.327919006 -36604267.862411499 0 0 0 0 2954646.3482639459 -6059727.1002782099 0 -6059727.1002782099 10620203.864453487 0 0 0 0 351867082.64128304 -992377458.45920944 0 -992377458.45920944 -154095898.57836914 0 0 0 0 -133786679.35271606 -37374384.838741302 0 -37374384.838741302 82219062.98085022 0 0 0 0 -72115043.303514898 17857584.018928528 0 17857584.018928528 71235335.076690674 0 0 0 0 -70700145.492636174 104739601.4642868 0 104739601.4642868 144784320.12140656 0 0 0 0 -26806971.104652524 118332830.05324554 0 118332830.05324554 180069455.00080872 0 0 0 0 -60026362.590977132 89536922.861236572 0 89536922.861236572 266132125.84938049 0 0 0 0 2993760.7985142469 16430886.98966217 0 16430886.98966217 29767084.241149902 0 0 0 0 -29858538.252244294 96082160.335342407 0 96082160.335342407 266821647.35823059 0 0 0 0 -41833700.236458629 132308032.8063221 0 132308032.8063221 317168013.66600037 0 0 0 0 -29029360.703887403 90050535.333770752 0 90050535.333770752 215969986.29837036 0 0 0 0 -43918752.691772759 85687933.571937561 0 85687933.571937561 281968293.12513733 0 0 0 0 -40506876.287744209 121971276.95570374 0 121971276.95570374 213795266.70561218 0 0 0 0 34668098.596761703 -15980266.16109848 0 -15980266.16109848 259932359.56210327 0 0 0 0 2787141.9640069008 25464144.667152405 0 25464144.667152405 207536403.44379234 0 0 0 0 -5260693.9725284576 50555768.971313477 0 50555768.971313477 280758296.31108093 0 0 0 0 -54260647.038460374 27774626.527641296 0 27774626.527641296 289652566.83219147 0 0 0 0 -9568493.9372559488 -13973748.983959198 0 -13973748.983959198 260305939.86463928 0 0 0 0 10584383.174794614 -66287806.226905823 0 -66287806.226905823 257887881.21508789 0 0 0 0 -4455903.9320231974 -32240968.060211182 0 -32240968.060211182 323424643.89254379 0 0 0 0 13311497.058279671 -52033842.10317421 0 -52033842.10317421 298373419.20957947 0 0 0 0 27905017.701546036 -71379230.507849693 0 -71379230.507849693 205398930.07728577 0 0 0 0 28592214.018727109 -75056584.207069397 0 -75056584.207069397 205006816.29658508 0 0 0 0 -8486578.8635030389 -105730083.58030701 0 -105730083.58030701 241350583.78588867 0 0 0 0 35631899.715723395 -49141312.655189514 0 -49141312.655189514 249651276.24887848 0 0 0 0 33175649.461860657 -35160349.91973877 0 -35160349.91973877 199487301.69438171 0 0 0 0 67177710.73778145 -58768248.30213356 0 -58768248.30213356 160701132.98852539 0 0 0 0 77841168.735697985 -35278694.606376648 0 -35278694.606376648 198921552.58407211 0 0 0 0 18544960.105990529 -32462033.673210144 0 -32462033.673210144 148589433.51423645 0 0 0 0 48784938.956679597 -62584901.07131958 0 -62584901.07131958 162234379.35432434 0 0 0 0 63847908.34815675 -41973036.272956848 0 -41973036.272956848 171735772.72241974 0 0 0 0 83576945.081717938 -57262691.687168121 0 -57262691.687168121 178661181.41897583 0 0 0 0 140331088.25927499 -23329220.696933746 0 -23329220.696933746 161761185.50119019 0 0 0 0 106353291.90689394 4126827.2099761963 0 4126827.2099761963 154436275.22633362 0 0 0 0 63378369.13639462 -11639906.023159027 0 -11639906.023159027 160347065.28839111 0 0 0 0 78083340.927143753 15021162.821723938 0 15021162.821723938 208651662.15330315 0 0 0 0 29579721.241015658 66386570.972211838 0 66386570.972211838 156022046.28126526 0 0 0 0 123276887.68026686 29809440.744163513 0 29809440.744163513 146289210.15262222 0 0 0 0 59303037.33202111 47184192.536904335 0 47184192.536904335 164290341.83329773 0 0 0 0 143576590.89036956 -2692423.2972812653 0 -2692423.2972812653 227176149.41061401 0 0 0 0 151675732.31021851 19614492.056282043 0 19614492.056282043 128679702.84224701 0 0 0 0 307820534.11987334 -115677884.44162178 0 -115677884.44162178 237814482.75836182 0 0 0 0 139709102.96933857 -72328586.695579529 0 -72328586.695579529 229950071.38868713 0 0 0 0 210373671.22201633 -7504456.5555114746 0 -7504456.5555114746 150886585.08996201 0 0 0 0 282457277.20963931 47851214.027748108 0 47851214.027748108 243469879.79117584 0 0 0 0 71887542.794291735 -123325103.0406189 0 -123325103.0406189 177304611.02987671 0 0 0 0 83930348.013242483 -55402632.113967896 0 -55402632.113967896 520348612.88568115 0 0 0 0 10193011.949618101 -157636698.45579529 0 -157636698.45579529 361557406.87029266 0 0 0 0 53472342.494946659 -85884035.154037476 0 -85884035.154037476 125035890.07509613 0 0 0 0 117196675.85951304 -256804312.10237122 0 -256804312.10237122 347701170.87339783 0 0 0 0 202611664.24061853 -123260429.21417427 0 -123260429.21417427 46364511.451477051 0 0 0 0 229536.06056910614 -461782.84291654825 0 -461782.84291654825 298885.83839158714 0 0 0 0 -1465613.7043905258 38240169.251647949 0 38240169.251647949 21469689.531906128 0 0 0 0 3409983.5963570881 -814137.89026505873 0 -814137.89026505873 344623.32607204653 0 0 0 0 107523549.71715486 -109916887.48135376 0 -109916887.48135376 72590989.319732666 0 0 0 0 -86419872.645888329 -269062667.19816589 0 -269062667.19816589 -341659219.36457443 0 0 0 0 -128161868.67763269 -409702012.99015617 0 -409702012.99015617 48421473.504486084 0 0 0 0 -391853.85481927433 -577467.32290243357 0 -577467.32290243357 828653.08540734649 0 0 0 0 -294176604.2618475 148010591.59981537 0 148010591.59981537 -71329602.185661316 0 0 0 0 -2010627.6848805845 -2789928.4437141418 0 -2789928.4437141418 164544591.42018127 0 0 0 0 -299257.94052433723 -458269.89950373024 0 -458269.89950373024 630337.67918118089 0 0 0 0 4071670.8455360183 -3036541.9688313715 0 -3036541.9688313715 1389536.0582050551 0 0 0 0 2323883.3523457944 5974250.7765045166 0 5974250.7765045166 108707393.51997375 0 0 0 0 764440.18906379119 -1415570.7127004936 0 -1415570.7127004936 440027.00219272822 0 0 0 0 -20451045.522557735 12510784.864044189 0 12510784.864044189 -13255359.881568909 0 0 0 0 47713521.105764002 170528180.18311691 0 170528180.18311691 450380493.33273315 0 0 0 0 32835229.888662815 70395080.342796326 0 70395080.342796326 128461300.95280457 0 0 0 0 -104004108.45136742 -706652.43154144287 0 -706652.43154144287 166214510.96635437 0 0 0 0 -16754795.856413841 90507635.2578125 0 90507635.2578125 253596464.50257874 0 0 0 0 -83183267.510911614 49765454.757618427 0 49765454.757618427 242841842.29983521 0 0 0 0 -75950484.887312248 -13594920.129890442 0 -13594920.129890442 312026096.25263214 0 0 0 0 -5292420.0385297686 921970.29135894775 0 921970.29135894775 264188908.48265076 0 0 0 0 72043423.157788277 -128698716.91703033 0 -128698716.91703033 465992071.41432667 0 0 0 0 32366990.412495464 -71882556.120418549 0 -71882556.120418549 272419445.88931274 0 0 0 0 124890985.29057169 -43973525.052764893 0 -43973525.052764893 178135081.46502924 0 0 0 0 -29267490.808372349 1335169.8560676575 0 1335169.8560676575 194354967.94233704 0 0 0 0 -119126828.65206885 72780698.155029297 0 72780698.155029297 230286887.81015396 0 0 0 0 -26416491.204478115 4827898.5401916504 0 4827898.5401916504 192880723.85020828 0 0 0 0 -3194630.3836831599 94210200.657060623 0 94210200.657060623 114189121.10049438 0 0 0 0 -27251033.969357967 21892153.752670288 0 21892153.752670288 99091834.316390991 0 0 0 0 -213515504.30406764 163867074.28691864 0 163867074.28691864 224740279.8583374 0 0 0 0 -55118558.845055252 130496130.70646667 0 130496130.70646667 230510296.18823242 0 0 0 0 -237665071.16655982 41465619.734481812 0 41465619.734481812 279136545.71143341 0 0 0 0 -77695711.375375211 40939848.198577881 0 40939848.198577881 122207250.07237816 0 0 0 0 -34633786.746024676 128581809.1889801 0 128581809.1889801 220554047.32312012 0 0 0 0 -56250902.346472487 188008869.97627258 0 188008869.97627258 141214864.24191284 0 0 0 0 103849981.84163399 9991617.5192489624 0 9991617.5192489624 225084999.561203 0 0 0 0 -40831558.186419442 121665268.41238403 0 121665268.41238403 289196272.63116455 0 0 0 0 -43649962.811834395 -31523798.290496826 0 -31523798.290496826 336404116.52197266 0 0 0 0 -67611438.295405805 60221912.498649597 0 60221912.498649597 176422764.16204834 0 0 0 0 -310601413.21583283 76912477.900489807 0 76912477.900489807 214547251.99850464 0 0 0 0 -329063997.07114494 162213992.5717392 0 162213992.5717392 116554459.30889893 0 0 0 0 -136172773.53882229 -4530078.5932922363 0 -4530078.5932922363 134665994.93855286 0 0 0 0 106906735.49254963 -8413988.5390052795 0 -8413988.5390052795 444870253.76333618 0 0 0 0 935318.05734009854 -26526316.885131836 0 -26526316.885131836 540584634.0934906 0 0 0 0 74293335.493912339 16233189.774551392 0 16233189.774551392 433452739.71563721 0 0 0 0 98334671.945740536 158607433.45065737 0 158607433.45065737 485937250.78927612 0 0 0 0 97849171.323240712 146807973.88613892 0 146807973.88613892 199997361.94407654 0 0 0 0 -9411422.629629299 -2092053690.4317932 0 -2092053690.4317932 -2129876700.4115295 0 0 0 0 -2613330.1896569622 1337582.8749308158 0 1337582.8749308158 2455986.5963841006 0 0 0 0 299423109.07975185 303414495.24617004 0 303414495.24617004 278553473.55671692 0 0 0 0 12606953.273213504 -2064720943.6954346 0 -2064720943.6954346 -2153906598.8434601 0 0 0 0 93235115.776781589 167171699.17549896 0 167171699.17549896 149782406.37312317 0 0 0 0 89105280.457261473 114944145.17070007 0 114944145.17070007 118081837.45651245 0 0 0 0 -4739643.377533298 4672793.398301648 0 4672793.398301648 773519.40783838928 0 0 0 0 -2749724615.7909241 694222716.0524826 0 694222716.0524826 7406138362.1649323 0 0 0 0 -3076833310.5049953 -1620926673.9122849 0 -1620926673.9122849 1018126975.3497314 0 0 0 0 -10032381.357000237 6071546.7607621644 0 6071546.7607621644 -62355671.182259575 0 0 0 0 2585870147.5160327 3450294496.7258911 0 3450294496.7258911 -412236030.66757202 0 0 0 0 398419905.70365143 1745246186.7352142 0 1745246186.7352142 550790430.28035641 0 0 0 0 13930748.940660715 -503242061.26230621 0 -503242061.26230621 -1661969454.6489792 0 0 0 0 5865374.8916597674 -2588184.8359976676 0 -2588184.8359976676 15591618.107814439 0 0 0 0 21942985.305655614 -6671114.5470733643 0 -6671114.5470733643 1094039.5628662109 0 0 0 0 1051869822.9735861 1581834569.297493 0 1581834569.297493 -2672621450.3121185 0 0 0 0 -121536871.15961266 104547753.61518097 0 104547753.61518097 -32864997.296401978 0 0 0 0 -24988809.212870181 1313143.4353179932 0 1313143.4353179932 27299927.719085693 0 0 0 0 1029157.0138516264 -472419.38207634445 0 -472419.38207634445 1065834.0273100734 0 0 0 0 -10216446.444007616 -4273379.5868530273 0 -4273379.5868530273 2010639.9435653687 0 0 0 0 3218100.366183863 -12843487.38827467 0 -12843487.38827467 12450735.55898563 0 0 0 0 3367411.2054605596 -9709584.2786218412 0 -9709584.2786218412 4254283.8917282 0 0 0 0 25956777.985556841 14516709.605873108 0 14516709.605873108 -31221784.315093994 0 0 0 0 26614480.041581094 -83951072.759857178 0 -83951072.759857178 102303303.2440033 0 0 0 0 51659899.866332591 -19629664.562683105 0 -19629664.562683105 19164184.937286377 0 0 0 0 -8951280.7444424629 -30139969.430862427 0 -30139969.430862427 23752964.217102051 0 0 0 0 10985209.862984564 -6209862.8508004472 0 -6209862.8508004472 167735.22031610459 0 0 0 0 39317177.579245239 -8355214.4201049805 0 -8355214.4201049805 -25283967.712539673 0 0 0 0 -17958515.864485741 -64870660.292844772 0 -64870660.292844772 -735673.00881958008 0 0 0 0 -678132574.75440216 604449942.10228348 0 604449942.10228348 -510017354.34774017 0 0 0 0 -3010175.3940017326 8493207.3584941663 0 8493207.3584941663 -10121597.196486287 0 0 0 0 -47648778.413692303 -1459752.1828460693 0 -1459752.1828460693 72771672.335281372 0 0 0 0 22779112.225450665 43297846.502204895 0 43297846.502204895 62960836.228851318 0 0 0 0 84575.331324994564 5116504.6878204346 0 5116504.6878204346 5463149.6462860107 0 0 0 0 -164067.11054299126 197304.88293270767 0 197304.88293270767 -603332.8555062823 0 0 0 0 -50428698.477074385 37378557.637077332 0 37378557.637077332 152628228.67126465 0 0 0 0 18023655.788808361 -50603608.19871521 0 -50603608.19871521 35719542.889709473 0 0 0 0 -28600279.885213777 -93604169.558837891 0 -93604169.558837891 135902294.87329102 0 0 0 0 11022172.81998226 -73473586.39654541 0 -73473586.39654541 142848543.72729492 0 0 0 0 6761924.2238678336 -106518968.57595825 0 -106518968.57595825 156437668.53308868 0 0 0 0 -32540882.141563296 -16285024.528640747 0 -16285024.528640747 48473243.061153412 0 0 0 0 434662.68053011195 -373924.58043345809 0 -373924.58043345809 -518952.57026743889 0 0 0 0 25530021.398404747 -34019962.238204956 0 -34019962.238204956 40521318.089324951 0 0 0 0 -39779019.858157679 -21000294.859759331 0 -21000294.859759331 91765956.203552246 0 0 0 0 9134224.5729315877 -86588433.434844971 0 -86588433.434844971 140229088.25531006 0 0 0 0 18344698.818064153 -44265826.133621216 0 -44265826.133621216 40015953.544799805 0 0 0 0 -13471850.312613219 -60322472.132957458 0 -60322472.132957458 119590246.86407471 0 0 0 0 -2394832.7665703297 -111245621.28285217 0 -111245621.28285217 213011639.98540497 0 0 0 0 34428486.752239496 -86021329.235610962 0 -86021329.235610962 117941545.74120235 0 0 0 0 5680109.2108927667 -65506721.196411133 0 -65506721.196411133 130166722.72964478 0 0 0 0 23990736.768141985 -104119521.93206787 0 -104119521.93206787 134801046.64567184 0 0 0 0 -15258626.558046624 -124923737.86047745 0 -124923737.86047745 310683675.64682007 0 0 0 0 -26381286.986159034 -80011344.469474792 0 -80011344.469474792 216418069.48728943 0 0 0 0 -17920034.349784214 -82473536.046123505 0 -82473536.046123505 312541780.92094421 0 0 0 0 -38994595.699173197 -63966526.365707397 0 -63966526.365707397 383874445.83848333 0 0 0 0 -45280274.46965839 -93662032.403038025 0 -93662032.403038025 314910995.33280945 0 0 0 0 -19195556.562044442 -126884360.3458786 0 -126884360.3458786 310747143.86564636 0 0 0 0 -48235693.304333963 -101126948.72171402 0 -101126948.72171402 401077192.96252441 0 0 0 0 -15674761.661616564 -164272396.48439026 0 -164272396.48439026 435341666.31403923 0 0 0 0 32749974.1605075 -159624371.77526093 0 -159624371.77526093 333967176.00694275 0 0 0 0 36939485.826454639 -184774953.57702637 0 -184774953.57702637 333221628.83686209 0 0 0 0 334392499.10096443 -269696169.33731079 0 -269696169.33731079 212697436.2535553 0 0 0 0 324705.70692415658 -216464.73856401583 0 -216464.73856401583 455934.79897768795 0 0 0 0 63606736.238326907 -269803868.19906616 0 -269803868.19906616 581608036.77193737 0 0 0 0 -120707324.44398044 -28819515.869384766 0 -28819515.869384766 272030006.86340332 0 0 0 0 180495829.08065081 -74796147.69380188 0 -74796147.69380188 -5580151.7910003662 0 0 0 0 -84270.230714059493 -14342643.849800985 0 -14342643.849800985 -118935649.52209473 0 0 0 0 37011925.495938897 33477563.978981018 0 33477563.978981018 14808398.84475708 0 0 0 0 83999020.30363512 -76411772.378723145 0 -76411772.378723145 63006137.271789551 0 0 0 0 61933130.397837996 -145472045.71009827 0 -145472045.71009827 166426845.23935699 0 0 0 0 27608383.544665396 -116188888.93935394 0 -116188888.93935394 199291044.72842407 0 0 0 0 170614123.62803757 -213046092.05926514 0 -213046092.05926514 177580886.69140625 0 0 0 0 66384470.640679821 -76035331.27669239 0 -76035331.27669239 73193337.002502441 0 0 0 0 11998792.360300999 -8577658.5477752686 0 -8577658.5477752686 3371221.2621231079 0 0 0 0 1495528.0805336423 -32722799.66998291 0 -32722799.66998291 70012930.02196753 0 0 0 0 -43906.301283850888 -11583385.498828888 0 -11583385.498828888 88188099.335212708 0 0 0 0 -3122885.4705646969 -22239573.159126282 0 -22239573.159126282 69827507.921272278 0 0 0 0 -3680638.7628479339 -20696988.502578735 0 -20696988.502578735 142790477.71131897 0 0 0 0 -5092535.5254855752 29390676.986312866 0 29390676.986312866 104441836.7857666 0 0 0 0 39721162.350134015 -61450863.193412781 0 -61450863.193412781 76781415.303649902 0 0 0 0 37298520.679288849 23588520.931182861 0 23588520.931182861 8453363.5122833252 0 0 0 0 -14134.807481867256 133900.99539023917 0 133900.99539023917 188744.74960115552 0 0 0 0 352536.04822517931 1650331.7802810669 0 1650331.7802810669 249500.84027099609 0 0 0 0 370219.85937105119 -2192051.8445053101 0 -2192051.8445053101 11292430.210683823 0 0 0 0 -90068.886653761452 415184.90845015179 0 415184.90845015179 485591.44054572284 0 0 0 0 4871540.1110214889 -4123936.960975647 0 -4123936.960975647 -755733.02124023438 0 0 0 0 -2853653.4173887968 19227941.464723587 0 19227941.464723587 5136261.0834960938 0 0 0 0 2105857.5592822176 639648.69479591027 0 639648.69479591027 4478856.5770017616 0 0 0 0 2911379.7104608417 4472514.4521865845 0 4472514.4521865845 -8937713.0369262695 0 0 0 0 -7312164.3029975295 3257968.7242507935 0 3257968.7242507935 10760728.856704712 0 0 0 0 3869026.5546577275 1412470.2529907227 0 1412470.2529907227 -1342425.4027099609 0 0 0 0 -4095204.1993511841 -828898.8371887207 0 -828898.8371887207 -3162619.0779724121 0 0 0 0 -12116140.511556529 -2724696.0913352966 0 -2724696.0913352966 15390539.068130493 0 0 0 0 40816.116007523604 -12253258.436519623 0 -12253258.436519623 21892110.228271484 0 0 0 0 -98530.538793501459 -23501711.862709045 0 -23501711.862709045 7349560.3554840088 0 0 0 0 -12730326.402496438 -19650610.973083496 0 -19650610.973083496 17691408.57219696 0 0 0 0 -46921234.630744308 -39363584.247459412 0 -39363584.247459412 33872847.992553711 0 0 0 0 -36258505.152523443 20239792.649529457 0 20239792.649529457 -11479408.623352051 0 0 0 0 -170294038.84657145 4482695.3912353516 0 4482695.3912353516 50650481.560840607 0 0 0 0 -133749.95046284818 1030175.0436279457 0 1030175.0436279457 533287.59956437349 0 0 0 0 -21509665.712792866 3658872.9603500366 0 3658872.9603500366 6392815.8055953979 0 0 0 0 62393552.200899154 174421414.45666313 0 174421414.45666313 476214065.62290955 0 0 0 0 440396732.19782805 -554173221.93361664 0 -554173221.93361664 540534399.58679199 0 0 0 0 673680484.67839551 -897925807.40953827 0 -897925807.40953827 1046322861.8964233 0 0 0 0 -273014.76780382555 45727.339514694177 0 45727.339514694177 1584602.0498670638 0 0 0 0 -257724025.42746258 -132876819.51235962 0 -132876819.51235962 2189891850.7145996 0 0 0 0 -216455330.94284743 -633235536.38108063 0 -633235536.38108063 1124925912.8643532 0 0 0 0 -226618.30369935563 -246061930.41392899 0 -246061930.41392899 331485611.3163147 0 0 0 0 -82733557.913302928 58708910.101516724 0 58708910.101516724 -25734343.990509033 0 0 0 0 -713355.62522180262 -188182.32856040448 0 -188182.32856040448 586491.4302707985 0 0 0 0 530207599.05059433 -711881202.27980042 0 -711881202.27980042 651731224.54293823 0 0 0 0 1613423.8869788945 -200949052.92158508 0 -200949052.92158508 965303922.31298637 0 0 0 0 106949731.74053496 -426081927.04322815 0 -426081927.04322815 993096837.82594299 0 0 0 0 433725.77522520983 -146505.2136874795 0 -146505.2136874795 1085481.8840256743 0 0 0 0 311773759.84412944 -329071462.73136902 0 -329071462.73136902 707773930.22299194 0 0 0 0 233099581.50823405 -192048906.927845 0 -192048906.927845 804473739.68237305 0 0 0 0 82217667.777431145 -229967318.29993439 0 -229967318.29993439 796953622.71011353 0 0 0 0 112269480.17794836 -192432947.50891113 0 -192432947.50891113 687780266.58653259 0 0 0 0 251744172.4860481 -341875899.54143524 0 -341875899.54143524 711325679.5463562 0 0 0 0 174626308.67823586 -109301382.84259033 0 -109301382.84259033 410225858.82305908 0 0 0 0 198063232.03417826 -206528225.09560394 0 -206528225.09560394 477964939.93972778 0 0 0 0 70459576.58989352 -100730149.37565613 0 -100730149.37565613 506750103.83702087 0 0 0 0 179016.59974583139 -105328652.13770464 0 -105328652.13770464 771195984.20986938 0 0 0 0 92252595.635960013 -105498829.85625458 0 -105498829.85625458 623997837.38848877 0 0 0 0 118752537.82472375 -127994108.53726196 0 -127994108.53726196 576944820.76112366 0 0 0 0 182194547.94222173 -256955131.23583221 0 -256955131.23583221 657491570.71960449 0 0 0 0 -235288001.71965218 7982599.9993133545 0 7982599.9993133545 3944847.0342254639 0 0 0 0 -281257919.92500782 12618496.57131958 0 12618496.57131958 20251021.088409424 0 0 0 0 -257055618.88367444 73349025.213935852 0 73349025.213935852 170512359.37158203 0 0 0 0 -119756260.3132025 -74395778.509765625 0 -74395778.509765625 59205865.843048096 0 0 0 0 -95509120.052170992 -154353667.55325699 0 -154353667.55325699 263347520.23251343 0 0 0 0 112443924.55544427 -98343076.899856567 0 -98343076.899856567 270783052.70763397 0 0 0 0 -62795252.357743241 -86512595.421653748 0 -86512595.421653748 389089890.4155426 0 0 0 0 -56404209.137874365 -399971675.45869446 0 -399971675.45869446 561529284.61328125 0 0 0 0 65153295.938925475 -226178799.32469177 0 -226178799.32469177 322412852.87662506 0 0 0 0 103078409.10373221 -287480842.2277832 0 -287480842.2277832 609486271.96565247 0 0 0 0 24930392.937773734 -233404756.19713593 0 -233404756.19713593 649808505.35166931 0 0 0 0 -60156843.283073127 -278584694.05969238 0 -278584694.05969238 758282432.19284058 0 0 0 0 67453100.809617579 -425690877.63104248 0 -425690877.63104248 748822966.0753479 0 0 0 0 -232619.09307192313 -56264.907114673406 0 -56264.907114673406 190881.86117171496 0 0 0 0 -325494746.15370768 -507418613.91179276 0 -507418613.91179276 101387041.37466431 0 0 0 0 -216970129.2168746 -249486263.06473541 0 -249486263.06473541 709788255.93783569 0 0 0 0 -154644533.97873265 -291803905.97434044 0 -291803905.97434044 754954588.74511719 0 0 0 0 63522856.997148871 -213599677.76000977 0 -213599677.76000977 712495093.9017067 0 0 0 0 -158169926.88576925 -277926277.9001503 0 -277926277.9001503 986191651.86987305 0 0 0 0 -66789375.518547297 -417198110.6598053 0 -417198110.6598053 907741165.45230865 0 0 0 0 -7321836.8387312889 -385327729.34342957 0 -385327729.34342957 919331295.58398438 0 0 0 0 155017641.15332875 -295474106.56478882 0 -295474106.56478882 997067635.6282196 0 0 0 0 206525.52043664281 200072.78421576321 0 200072.78421576321 735989.2296699658 0 0 0 0 60870470.300167441 -341980551.99734497 0 -341980551.99734497 737465244.31292725 0 0 0 0 60395700.296002328 -421806100.54103088 0 -421806100.54103088 1014955012.3488884 0 0 0 0 198912744.36994803 -252375594.61664581 0 -252375594.61664581 477970275.27371788 0 0 0 0 -413512.8022860497 469764.63451781124 0 469764.63451781124 3874125.4255679101 0 0 0 0 -775429.99209068716 2417214.6700286865 0 2417214.6700286865 -914267.42083740234 0 0 0 0 -49018450.735188007 -335362129.96221161 0 -335362129.96221161 740131145.78973389 0 0 0 0 -55949560.983005047 -264527989.43675232 0 -264527989.43675232 494125661.36723328 0 0 0 0 -188818150.09234145 -337979692.9644413 0 -337979692.9644413 896440045.65386963 0 0 0 0 -182964285.81538898 -295304583.30115128 0 -295304583.30115128 787658680.39126587 0 0 0 0 -45100380.518916368 -375689443.26561737 0 -375689443.26561737 702038395.98305511 0 0 0 0 -207243133.28333509 -217565910.35931206 0 -217565910.35931206 993098229.05747986 0 0 0 0 -280498647.87102604 -251337595.83901978 0 -251337595.83901978 990782532.61732483 0 0 0 0 -218569110.02702093 -170828271.48500824 0 -170828271.48500824 802687648.97239685 0 0 0 0 924672296.39183903 846852986.31025696 0 846852986.31025696 846336215.22989655 0 0 0 0 -231428130.68288279 -514476253.84973907 0 -514476253.84973907 2265651735.7835846 0 0 0 0 735065197.24900591 -1105627398.2861254 0 -1105627398.2861254 965366903.04586792 0 0 0 0 162355565.57304573 -353432620.68969727 0 -353432620.68969727 417027650.24873352 0 0 0 0 209676052.95383143 -446589306.32225037 0 -446589306.32225037 503871602.53520203 0 0 0 0 460657353.52452087 -292738706.10069275 0 -292738706.10069275 216363027.14414978 0 0 0 0 -156675816.61177206 -440176760.98406219 0 -440176760.98406219 1070484404.5716209 0 0 0 0 -173929566.26385927 -359602321.9276886 0 -359602321.9276886 865446085.23638916 0 0 0 0 -14542361.824085236 18946142.862884521 0 18946142.862884521 131898782.37780762 0 0 0 0 -99959902.773452759 -73104475.80002594 0 -73104475.80002594 828839522.10264206 0 0 0 0 -14384330.06328392 -80418894.558319092 0 -80418894.558319092 43006285.394599915 0 0 0 0 36418742.978528976 -226628989.66123199 0 -226628989.66123199 537018426.41797638 0 0 0 0 142818566.34633517 10470263.356016159 0 10470263.356016159 94990091.645355225 0 0 0 0 -18304255.679920316 65572319.162813187 0 65572319.162813187 -57389201.124176025 0 0 0 0 95128428.337787032 59544544.61312294 0 59544544.61312294 -85861784.268737793 0 0 0 0 -5949268.0697133616 -2255935.7842624821 0 -2255935.7842624821 5923850.6911416054 0 0 0 0 -113359666.81518745 -28510767.53553772 0 -28510767.53553772 5000204.5477752686 0 0 0 0 -351463772.87010908 -55251967.634727478 0 -55251967.634727478 -936519.51596069336 0 0 0 0 -63589889.778309882 -53450988.856197357 0 -53450988.856197357 -10175933.495285034 0 0 0 0 -2069699.9811279117 541483.01243211329 0 541483.01243211329 1329511.5819192827 0 0 0 0 25108400.88297683 -105581466.12521935 0 -105581466.12521935 20438366.127029419 0 0 0 0 -362913999.17157102 -24849925.626678467 0 -24849925.626678467 115807501.00189209 0 0 0 0 -264326362.31505299 -116566319.18412018 0 -116566319.18412018 124497358.75280762 0 0 0 0 -328185124.17138195 -330109644.43819046 0 -330109644.43819046 528563616.42340088 0 0 0 0 -365238075.3274467 -198554788.06736946 0 -198554788.06736946 63473139.253585815 0 0 0 0 -100309867.88989544 -130820265.75151825 0 -130820265.75151825 -8345629.4931640625 0 0 0 0 -52090138.205114245 111824312.7587018 0 111824312.7587018 36449803.850631714 0 0 0 0 -557516544.90666759 220537796.0511378 0 220537796.0511378 1071864772.4905243 0 0 0 0 -5515219.2861903841 -2635203.6830705181 0 -2635203.6830705181 6378028.557410188 0 0 0 0 -550732325.10004854 491622954.24053192 0 491622954.24053192 106303036.63128829 0 0 0 0 56826106.156470776 -213924420.2014389 0 -213924420.2014389 611770103.71537781 0 0 0 0 1089717.024199584 -5804987.4207795188 0 -5804987.4207795188 5811282.4697090015 0 0 0 0 -188774964.40011787 -65078364.778244019 0 -65078364.778244019 30716749.080043316 0 0 0 0 88702891.134402275 130072790.35240936 0 130072790.35240936 22635025.729614258 0 0 0 0 706302239.83849883 -413528151.70850706 0 -413528151.70850706 -68807711.594039917 0 0 0 0 -186335932.99774694 -950736718.84339905 0 -950736718.84339905 2048753175.4137115 0 0 0 0 638504.67741023283 -2010436.0502245836 0 -2010436.0502245836 2086118.8678655922 0 0 0 0 -131181991.06026578 514360234.49684906 0 514360234.49684906 2690168557.0411682 0 0 0 0 -154790246.51721478 -211582090.3348465 0 -211582090.3348465 1495072307.0163116 0 0 0 0 -182367238.44985521 171459063.12106991 0 171459063.12106991 1051719413.8471985 0 0 0 0 -21762866.701656342 -52631637.774616241 0 -52631637.774616241 -52769095.695861816 0 0 0 0 -111211547.28136587 -34630507.05255127 0 -34630507.05255127 60353110.933555603 0 0 0 0 -34050106.055714607 16457202.312828064 0 16457202.312828064 78784178.035629272 0 0 0 0 -66433946.23436451 -42354849.875295639 0 -42354849.875295639 50717925.840774536 0 0 0 0 -5278589.7359040407 2560520.205982551 0 2560520.205982551 4508589.5804136992 0 0 0 0 -8436243.8134666681 11651750.28855896 0 11651750.28855896 13167250.079101562 0 0 0 0 6398526.8288378743 -3144931.6909124479 0 -3144931.6909124479 2127239.6425648388 0 0 0 0 -1274865.4200382233 12655306.45514679 0 12655306.45514679 23835780.830295563 0 0 0 0 84269214.956270218 -606480045.43939972 0 -606480045.43939972 734267101.1448288 0 0 0 0 8713448.4289648402 -4098514.2428738698 0 -4098514.2428738698 3532614.9661657438 0 0 0 0 367883722.96224022 -152833632.25452423 0 -152833632.25452423 -199716499.30089569 0 0 0 0 16738135.582479715 -31053905.447380066 0 -31053905.447380066 10045575.223442078 0 0 0 0 -4647740.369981382 1012609.0791872852 0 1012609.0791872852 3863624.0106240585 0 0 0 0 -197559.13811175205 -579483.66288745403 0 -579483.66288745403 1360080.699454803 0 0 0 0 -78828069.419865608 153718857.66491699 0 153718857.66491699 402515643.21941185 0 0 0 0 2638797.8296461105 5821925.7946624756 0 5821925.7946624756 -28896595.668228149 0 0 0 0 -190649455.06901979 223893293.48136902 0 223893293.48136902 979487730.27978373 0 0 0 0 -10703173.332942605 4774098.7058029175 0 4774098.7058029175 30789043.305496216 0 0 0 0 -7299713.7838549614 8664575.8760223389 0 8664575.8760223389 2756630.6084747314 0 0 0 0 38115.013640522957 8554097.6655426025 0 8554097.6655426025 2638006.5995540619 0 0 0 0 404175.5614528656 14732404.592605591 0 14732404.592605591 -9394113.6855316162 0 0 0 0 -2067991.828935504 -2297661.4808273315 0 -2297661.4808273315 -352569.4494972229 0 0 0 0 -6720466.7261652946 9943682.2518692017 0 9943682.2518692017 23616790.467285156 0 0 0 0 1866448.4453104734 1117742.5710601807 0 1117742.5710601807 24818845.584809303 0 0 0 0 -8271511.3614705205 11286687.053302765 0 11286687.053302765 41230090.018814087 0 0 0 0 -8289415.1896725297 11542178.518821716 0 11542178.518821716 32760734.41484642 0 0 0 0 -14117487.59172231 8146009.7863464355 0 8146009.7863464355 73209578.99319458 0 0 0 0 -2595047.8157380819 -37146378.118843079 0 -37146378.118843079 98368203.229419708 0 0 0 0 8384778.3756961823 -10756675.530654907 0 -10756675.530654907 43826742.104812622 0 0 0 0 -6512201.1232478619 -102625.63935089111 0 -102625.63935089111 34951226.76234436 0 0 0 0 -11068746.416723728 -4525047.1352386475 0 -4525047.1352386475 54793904.553504944 0 0 0 0 -10106143.436734319 -899292.73582839966 0 -899292.73582839966 40873954.312606812 0 0 0 0 -9730594.0156608522 -2130113.3037509918 0 -2130113.3037509918 34321639.552764893 0 0 0 0 -8532684.4701053798 1115876.777466774 0 1115876.777466774 31882093.453384399 0 0 0 0 -1482791.9025204182 3440527.1118469238 0 3440527.1118469238 15725856.093090057 0 0 0 0 -4455664.1383505883 3652797.1293403208 0 3652797.1293403208 4344621.7130888253 0 0 0 0 57754940.136684418 109669825.36548615 0 109669825.36548615 -75442920.273143768 0 0 0 0 -75152546.622024536 53008663.02545929 0 53008663.02545929 19212053.998165131 0 0 0 0 42605502.454566956 -27984796.893539429 0 -27984796.893539429 -10513901.164577484 0 0 0 0 -24081910.855050087 -81192390.723922729 0 -81192390.723922729 3705538.4231014252 0 0 0 0 -4928058.2091133967 3273397.9962151423 0 3273397.9962151423 4524031.1652068868 0 0 0 0 -8118197.961751461 -2439325.5997085571 0 -2439325.5997085571 34747780.916801453 0 0 0 0 -4644409.3474636078 -10502307.620742798 0 -10502307.620742798 46243966.929229736 0 0 0 0 -4461437.6982908249 -9163756.0992279053 0 -9163756.0992279053 43804692.781661987 0 0 0 0 -2881606.2877416611 -9540592.9024353027 0 -9540592.9024353027 45401929.66835022 0 0 0 0 -4998434.47024858 -10622454.489189148 0 -10622454.489189148 49563655.34085083 0 0 0 0 5742833.8516759872 -11065972.997161865 0 -11065972.997161865 45472463.608718872 0 0 0 0 17802714.732458115 -21015492.888549805 0 -21015492.888549805 50868992.487792969 0 0 0 0 1240171.315928936 -8825535.8881378174 0 -8825535.8881378174 46377062.595748901 0 0 0 0 4191699.0428190231 -11014561.217071533 0 -11014561.217071533 46104315.102813721 0 0 0 0 1621824.5473907292 -13634327.258583069 0 -13634327.258583069 50087276.968688965 0 0 0 0 47528775.075954437 -20385247.875946045 0 -20385247.875946045 -152457406.75685883 0 0 0 0 8760898.8901133537 -17490237.237075806 0 -17490237.237075806 50778321.043701172 0 0 0 0 2027337.1067867279 -13456982.18081665 0 -13456982.18081665 53106425.249008179 0 0 0 0 -3817237.6805073624 2501730.0157858431 0 2501730.0157858431 7792248.9174103737 0 0 0 0 971068.98554420471 -26979860.500244141 0 -26979860.500244141 73000176.137695312 0 0 0 0 -4408336.8309736252 -21148010.579406738 0 -21148010.579406738 77690223.682891846 0 0 0 0 -261204.57924209721 803666.46409486979 0 803666.46409486979 -1887978.3544364646 0 0 0 0 35403176.432151794 70246396.947906494 0 70246396.947906494 -135723567.46540833 0 0 0 0 15311940.509119987 -17917329.515930176 0 -17917329.515930176 47892694.411575317 0 0 0 0 4168201.4673776627 -12327902.864685059 0 -12327902.864685059 49748477.989685059 0 0 0 0 9152412.1988811493 -23791093.071899414 0 -23791093.071899414 56538115.844360352 0 0 0 0 10499906.537528992 -24021345.726867676 0 -24021345.726867676 54607266.318572998 0 0 0 0 3858309.3329296112 -18827796.949127197 0 -18827796.949127197 57348034.327224731 0 0 0 0 4612620.007973671 -24780825.174835205 0 -24780825.174835205 61043965.184020996 0 0 0 0 5200749.6456923485 -21659812.183959961 0 -21659812.183959961 59805577.83996582 0 0 0 0 -767341.39785957336 -17144218.192993164 0 -17144218.192993164 68090278.8816185 0 0 0 0 2109993.937871933 -15563680.860229492 0 -15563680.860229492 55964453.29989624 0 0 0 0 1063352.1790676117 -22756289.197814941 0 -22756289.197814941 67678571.551368713 0 0 0 0 -1699063.9058485031 -13717000.63583374 0 -13717000.63583374 63631830.027526855 0 0 0 0 -246684.08521556854 -20497352.961273193 0 -20497352.961273193 64007181.008117676 0 0 0 0 6187298.3172984123 -27425993.026229858 0 -27425993.026229858 64780374.577758789 0 0 0 0 57567987.588661194 34563982.782989502 0 34563982.782989502 -117972349.72244835 0 0 0 0 44230918.26096344 59143724.350097656 0 59143724.350097656 -84422009.572677612 0 0 0 0 28906121.076812744 16873222.959869385 0 16873222.959869385 -19498859.071411133 0 0 0 0 36856040.86113739 10056256.954498291 0 10056256.954498291 -54964439.16217041 0 0 0 0 38527877.438163757 12440841.591125488 0 12440841.591125488 -94137085.032432556 0 0 0 0 39842855.107841492 -31397612.682128906 0 -31397612.682128906 -119057510.31710339 0 0 0 0 28394390.230041504 -26192469.057861328 0 -26192469.057861328 -86083441.219482422 0 0 0 0 -6444945.1890335083 -76278975.141723633 0 -76278975.141723633 -127545653.84185791 0 0 0 0 -39080693.361053467 -87718358.043151855 0 -87718358.043151855 -102757338.19195557 0 0 0 0 19240981.529954195 -25838580.203308105 0 -25838580.203308105 52962153.469970703 0 0 0 0 13058071.362998962 -30077334.62109375 0 -30077334.62109375 58953743.55859375 0 0 0 0 -11298108.616701126 29094785.551696777 0 29094785.551696777 -49865779.738189697 0 0 0 0 -112949915.11236763 -51652619.158454895 0 -51652619.158454895 -44575934.33795166 0 0 0 0 -13558252.445549607 6563344.746509552 0 6563344.746509552 42970268.074707031 0 0 0 0 -16129937.32840538 -3296696.4986877441 0 -3296696.4986877441 48711497.529693604 0 0 0 0 -135608979.06450653 83099658.843048096 0 83099658.843048096 -30256735.198608398 0 0 0 0 -172270015.48489761 19062733.206283569 0 19062733.206283569 -9737378.7545776367 0 0 0 0 -6663067.9945144653 -15418654.757049561 0 -15418654.757049561 80995625.037384033 0 0 0 0 -6170421.2302799225 -5249608.966796875 0 -5249608.966796875 83464432.732910156 0 0 0 0 -3395416.6869678497 -13956177.84815979 0 -13956177.84815979 72517645.911560059 0 0 0 0 -70523035.669540405 106037122.31219482 0 106037122.31219482 -52822336.529174805 0 0 0 0 23379040.257938296 40577399.589063525 0 40577399.589063525 -15737968.768554688 0 0 0 0 23535407.33694458 58324185.943054199 0 58324185.943054199 -66359674.530944824 0 0 0 0 -45828866.949012756 71222740.398925781 0 71222740.398925781 9167594.2731323242 0 0 0 0 19501588.455951691 63518685.487701416 0 63518685.487701416 -50733723.543762207 0 0 0 0 -32837503.281585693 104718454.44033813 0 104718454.44033813 -58922715.371650696 0 0 0 0 -45947049.631252289 56241776.809120178 0 56241776.809120178 -22717602.481933594 0 0 0 0 -55485785.397438049 18888194.479156494 0 18888194.479156494 -10001250.176208496 0 0 0 0 -85884868.132171631 52887027.695068359 0 52887027.695068359 2245936.1871337891 0 0 0 0 -15101219.934806824 34283152.206573486 0 34283152.206573486 2601614.8106079102 0 0 0 0 -53828555.927488327 19963202.772415161 0 19963202.772415161 64910960.648895264 0 0 0 0 -4485772.6719551086 8475963.2861022949 0 8475963.2861022949 12715499.041887283 0 0 0 0 -12148442.142536163 -28645980.458465576 0 -28645980.458465576 -42062112.831054688 0 0 0 0 -90488269.895606995 -286524.05426025391 0 -286524.05426025391 13423229.001174927 0 0 0 0 -2279705.3750190735 37972924.714172363 0 37972924.714172363 145341594.53393555 0 0 0 0 -35330369.63011837 -13251298.416351318 0 -13251298.416351318 240254768.62667847 0 0 0 0 3339618.1666755676 -2007259.4020385742 0 -2007259.4020385742 70024408.364044189 0 0 0 0 -32606218.603086472 37996754.661125183 0 37996754.661125183 102034540.50616455 0 0 0 0 -7704374.0152893066 -4967141.1617279053 0 -4967141.1617279053 126594998.01339722 0 0 0 0 -27617071.482667923 288934.72711181641 0 288934.72711181641 216909831.2437439 0 0 0 0 -1885123.4738616943 56075357.818786621 0 56075357.818786621 816011.39031982422 0 0 0 0 8444379.0783691406 20579839.053710938 0 20579839.053710938 41766213.423553467 0 0 0 0 3784088.6086006165 7022262.8203735352 0 7022262.8203735352 72974746.353393555 0 0 0 0 10224142.391025543 19786283.122730255 0 19786283.122730255 -14259823.862060547 0 0 0 0 -1159530.9852895737 -3606200.4214706421 0 -3606200.4214706421 88511333.260498047 0 0 0 0 4612752.9053955078 -15307423.874176025 0 -15307423.874176025 68642038.257175446 0 0 0 0 -41610191.510118484 -52115773.691703796 0 -52115773.691703796 312845557.97036743 0 0 0 0 -30005271.626792908 -60747116.243469238 0 -60747116.243469238 231541395.32008362 0 0 0 0 -19173477.31470871 -10946719.347175598 0 -10946719.347175598 240582654.23233032 0 0 0 0 -60099898.760465622 -34328041.368423462 0 -34328041.368423462 401769966.41598511 0 0 0 0 -107374541.80685425 -40664909.780029297 0 -40664909.780029297 26156770.528564453 0 0 0 0 -18668745.872421265 -27260959.071838379 0 -27260959.071838379 22311125.19543457 0 0 0 0 -41030628.422721863 -56411325.829284668 0 -56411325.829284668 65679540.29524231 0 0 0 0 -60461025.932449341 -2310420.5335388184 0 -2310420.5335388184 54594022.521812439 0 0 0 0 -75793921.568264008 -86961867.569702148 0 -86961867.569702148 -44214890.090820312 0 0 0 0 -58687185.529918671 -57274590.106719971 0 -57274590.106719971 7296874.9126586914 0 0 0 0 -13787577.643615723 -46251085.960662842 0 -46251085.960662842 -34905648.876403809 0 0 0 0 -3520451.7566051483 -59998339.251113892 0 -59998339.251113892 -63699353.185791016 0 0 0 0 16680827.06377697 -43311283.703018188 0 -43311283.703018188 -36743767.437133789 0 0 0 0 8407606.9507141113 -23853657.976470947 0 -23853657.976470947 -8569370.3243408203 0 0 0 0 14688831.302501678 -32870497.060638428 0 -32870497.060638428 48708507.98034668 0 0 0 0 19692186.210216522 -13839993.324401855 0 -13839993.324401855 -3596860.8529663086 0 0 0 0 -13203408.892444611 -44195139.711029053 0 -44195139.711029053 71395207.265869141 0 0 0 0 6764069.3404083252 -47692558.644226074 0 -47692558.644226074 69352065.947128296 0 0 0 0 -2953175.8342323303 -59904872.821517944 0 -59904872.821517944 -1087667.5690917969 0 0 0 0 -26864606.334659576 -75531484.095993042 0 -75531484.095993042 167868649.23239136 0 0 0 0 -8375237.9376296997 -65143638.208343506 0 -65143638.208343506 180052684.1648407 0 0 0 0 -17405911.25812149 -66760010.116897583 0 -66760010.116897583 179769379.99349976 0 0 0 0 -32658695.951290131 -94387749.19480896 0 -94387749.19480896 290005577.23553467 0 0 0 0 1771834.7740325928 -77530333.729118347 0 -77530333.729118347 165679718.46417236 0 0 0 0 4651109.0097236633 -140746377.45007324 0 -140746377.45007324 252834290.89886475 0 0 0 0 28207866.429668427 -108012634.79821777 0 -108012634.79821777 152298637.94569397 0 0 0 0 14065466.628364563 -68844021.130401611 0 -68844021.130401611 54598739.121200562 0 0 0 0 -5608025.1803283691 -19512396.945526123 0 -19512396.945526123 49569607.649078369 0 0 0 0 74184355.398696899 -192510968.02075958 0 -192510968.02075958 284579496.61529541 0 0 0 0 -6902222.6873676777 -81107240.327667236 0 -81107240.327667236 223217313.51239014 0 0 0 0 -42572932.889343262 -119547579.36384583 0 -119547579.36384583 357778389.87103271 0 0 0 0 -23764846.309402466 -111680612.78538513 0 -111680612.78538513 287264056.58887863 0 0 0 0 -16767486.076255798 -186839228.47016907 0 -186839228.47016907 378043602.45799255 0 0 0 0 -80854791.691329956 -189877139.04871368 0 -189877139.04871368 569612163.80133057 0 0 0 0 -105629028.4064579 -210638585.55776978 0 -210638585.55776978 561807216.03562927 0 0 0 0 -23693336.102454185 -195580090.1858902 0 -195580090.1858902 453624516.56936646 0 0 0 0 20119391.994403839 -285258679.45040894 0 -285258679.45040894 460564971.19899654 0 0 0 0 -83745903.419444084 -72792971.502590179 0 -72792971.502590179 523486354.74710083 0 0 0 0 -63441908.047382355 -57627291.935302734 0 -57627291.935302734 389981456.11108398 0 0 0 0 -75330418.753223419 -115872582.69535828 0 -115872582.69535828 410561717.10739136 0 0 0 0 -93065058.725233078 -122715340.97093964 0 -122715340.97093964 537766721.78985596 0 0 0 0 -49430873.896521568 -137555073.61351776 0 -137555073.61351776 385009843.81149292 0 0 0 0 -141302073.4874382 -109692735.99560547 0 -109692735.99560547 554207260.83691406 0 0 0 0 -134414133.88327789 -219415822.25492859 0 -219415822.25492859 729763891.83454895 0 0 0 0 -154326474.6251874 -93384436.162635803 0 -93384436.162635803 790718610.84506226 0 0 0 0 -193955466.04449654 -217919095.67251587 0 -217919095.67251587 805304232.31227112 0 0 0 0 -188233440.74789143 -206128354.75975132 0 -206128354.75975132 819104770.4564209 0 0 0 0 -192348406.85860634 -239598814.59762573 0 -239598814.59762573 787979430.03715515 0 0 0 0 -188438844.00777757 -202709091.2686348 0 -202709091.2686348 762281363.55010986 0 0 0 0 -197836376.18165016 -223916114.26746368 0 -223916114.26746368 820477506.96604919 0 0 0 0 -52641983.597080231 -326733889.00215149 0 -326733889.00215149 722501924.07959366 0 0 0 0 -54478289.533953667 -320330722.09832191 0 -320330722.09832191 730463527.5932312 0 0 0 0 -93944018.053936005 -267057527.33970642 0 -267057527.33970642 710731237.69258118 0 0 0 0 -183526980.3426857 -164033879.03870392 0 -164033879.03870392 863651649.67281342 0 0 0 0 -186647858.87879038 -266836111.3272171 0 -266836111.3272171 917449190.56677246 0 0 0 0 -19971061.901351929 -474327892.41770935 0 -474327892.41770935 896052496.8338623 0 0 0 0 16459352.068599701 -647690363.82737732 0 -647690363.82737732 1719800545.4429207 0 0 0 0 182386087.84520531 -142290144.31512451 0 -142290144.31512451 306732610.88970947 0 0 0 0 635620434.04987431 -677955773.7618103 0 -677955773.7618103 395604865.39111328 0 0 0 0 75236261.202207565 -393409233.02162933 0 -393409233.02162933 671959511.19631958 0 0 0 0 76914225.267753005 32607296.85123682 0 32607296.85123682 131931307.67393494 0 0 0 0 274462814.93211937 -283762094.93367004 0 -283762094.93367004 320885433.95089722 0 0 0 0 59490157.304912329 -122494150.29621601 0 -122494150.29621601 191004682.97436523 0 0 0 0 46753128.032623291 -94641882.954421997 0 -94641882.954421997 271161058.23529816 0 0 0 0 18524403.394654274 76005192.672889709 0 76005192.672889709 9884784.07371521 0 0 0 0 253751061.79117012 -173877501.59854126 0 -173877501.59854126 115723649.71370411 0 0 0 0 27855178.435997963 43614722.237579346 0 43614722.237579346 27408474.976135254 0 0 0 0 352440575.16576767 -215755925.54277039 0 -215755925.54277039 -241009654.15362167 0 0 0 0 2106798.1834336314 -1368937.1227237955 0 -1368937.1227237955 900157.67551567405 0 0 0 0 -307481363.80364799 -430186805.13246155 0 -430186805.13246155 2713826807.8794785 0 0 0 0 -146860938.68396562 39300967.752615809 0 39300967.752615809 1802672570.0361176 0 0 0 0 105103394.38212204 -124147236.89138031 0 -124147236.89138031 1277070181.0141506 0 0 0 0 140454680.66404247 -687273707.66214752 0 -687273707.66214752 1017602048.6694031 0 0 0 0 -2463605.6283588409 3872899.3318710327 0 3872899.3318710327 887240652.3236084 0 0 0 0 48568978.988134384 240241781.49073792 0 240241781.49073792 1641179433.0063467 0 0 0 0 1029520266.9934788 -749467587.03929138 0 -749467587.03929138 1392215211.0852814 0 0 0 0 449442.879727419 -703242.12587773427 0 -703242.12587773427 286419.18440517038 0 0 0 0 74428146.125236511 228248604.05258942 0 228248604.05258942 452617944.02191162 0 0 0 0 -62336885.50129509 63492083.331817627 0 63492083.331817627 920125328.99514771 0 0 0 0 142617858.50680161 83030261.638534546 0 83030261.638534546 120881332.17524719 0 0 0 0 71296037.16330415 184880395.37209892 0 184880395.37209892 -29717348.989349365 0 0 0 0 10032817.417856216 -71818082.752754211 0 -71818082.752754211 41356055.473968506 0 0 0 0 89960167.392300606 6824482.5079269409 0 6824482.5079269409 45781828.774581909 0 0 0 0 126702638.14388084 -53056461.168075562 0 -53056461.168075562 128433661.11776733 0 0 0 0 -84373499.367438316 14233174.262008667 0 14233174.262008667 8251595.104019165 0 0 0 0 73027935.193754375 49703651.3574543 0 49703651.3574543 331546935.4239502 0 0 0 0 146323.03752493812 -2413567.1732575558 0 -2413567.1732575558 1471440.7187278271 0 0 0 0 -33996770.710124969 -58228584.811462402 0 -58228584.811462402 15621496.045812607 0 0 0 0 -390471.24115539063 -2071095.5378393121 0 -2071095.5378393121 4694486.2187419534 0 0 0 0 1828836503.312418 -1237472824.8219604 0 -1237472824.8219604 1241273919.7227783 0 0 0 0 -34141461.568058014 4551465.5904083252 0 4551465.5904083252 40608916.531448364 0 0 0 0 97430156.275382996 -51400810.349975586 0 -51400810.349975586 34454886.893875122 0 0 0 0 267091.33388106059 -1077601.0017772801 0 -1077601.0017772801 2025807.753590174 0 0 0 0 128484932.60673428 32123942.366767883 0 32123942.366767883 -34617677.613143921 0 0 0 0 -470795687.16495776 1660656118.0186958 0 1660656118.0186958 -226996990.88150024 0 0 0 0 809490.48892582173 -1688009.1274172608 0 -1688009.1274172608 3521008.4452589452 0 0 0 0 551644061.28103971 -346112028.98006439 0 -346112028.98006439 -389688771.97265625 0 0 0 0 554414996.99815035 -740177296.52522278 0 -740177296.52522278 193344941.63043213 0 0 0 0 509765809.04833984 -628717842.63052368 0 -628717842.63052368 -32805998.049697876 0 0 0 0 43024256.02127552 -768458338.19548035 0 -768458338.19548035 973873884.78388977 0 0 0 0 -339947419.04109097 -156603472.73369598 0 -156603472.73369598 239581714.3400116 0 0 0 0 78752671.206407547 -97747709.328674316 0 -97747709.328674316 -32334772.064956665 0 0 0 0 79149271.781326011 -53192482.610072732 0 -53192482.610072732 -93655275.574813843 0 0 0 0 440362676.46683407 -255329955.51429749 0 -255329955.51429749 35576847.023612976 0 0 0 0 365262876.23524952 39514600.275230408 0 39514600.275230408 -34388083.073455811 0 0 0 0 285520900.57427073 -80735842.458854675 0 -80735842.458854675 -40639013.9793396 0 0 0 0 199222090.43058014 -157657991.65290833 0 -157657991.65290833 -76612103.816421509 0 0 0 0 262963528.65087891 -15628792.43196106 0 -15628792.43196106 -41145675.522827148 0 0 0 0 171695695.85953903 871547.36499023438 0 871547.36499023438 -32283138.610908508 0 0 0 0 216483770.96957874 -64048272.931060791 0 -64048272.931060791 -29887128.269561768 0 0 0 0 124201980.48546028 -109048178.92549133 0 -109048178.92549133 47734984.941543579 0 0 0 0 35074521.900767326 -144027563.84585571 0 -144027563.84585571 41597561.112747192 0 0 0 0 116916335.54797745 -92295891.49634552 0 -92295891.49634552 74277664.005706787 0 0 0 0 -3114664.4031572342 -231055219.16477966 0 -231055219.16477966 -142399608.09674072 0 0 0 0 -150104104.20355225 -189900139.69617081 0 -189900139.69617081 420553460.90368652 0 0 0 0 -284328.4258928299 -194464046.6808548 0 -194464046.6808548 135607292.2946167 0 0 0 0 137192324.44984627 926664.16415405273 0 926664.16415405273 153860346.95613098 0 0 0 0 50085665.581718445 -41535450.853019714 0 -41535450.853019714 378747835.68917847 0 0 0 0 82561174.157432556 70091819.184371948 0 70091819.184371948 487990173.54108047 0 0 0 0 79495068.244748116 -54742144.774154663 0 -54742144.774154663 218230731.73980713 0 0 0 0 -29684643.101644516 15572738.164093018 0 15572738.164093018 504698779.61317444 0 0 0 0 -74142908.756733894 5981879.6948852539 0 5981879.6948852539 759675184.01992798 0 0 0 0 -69005315.490652084 -164851843.87335968 0 -164851843.87335968 466741256.90976715 0 0 0 0 -186626510.44111633 -198123454.68013 0 -198123454.68013 819924077.6618042 0 0 0 0 -181339653.37175179 -118809156.58470154 0 -118809156.58470154 1359860932.4259033 0 0 0 0 -64278880.372426987 -269777548.98734283 0 -269777548.98734283 615868540.40326691 0 0 0 0 -81766784.021948099 -93076334.403584957 0 -93076334.403584957 462877683.60588074 0 0 0 0 -192328635.4553051 -184451889.45429039 0 -184451889.45429039 818214224.68710327 0 0 0 0 -65943934.67369175 -266816177.29396057 0 -266816177.29396057 618030031.01335144 0 0 0 0 229223167.90127373 -187302632.703125 0 -187302632.703125 208601268.44480133 0 0 0 0 279546693.29396057 -382440600.32374573 0 -382440600.32374573 386235729.23526001 0 0 0 0 43776346.219637871 -94867590.636714935 0 -94867590.636714935 244571656.36448288 0 0 0 0 -562645203.08594894 -235785443.90320778 0 -235785443.90320778 -48479313.19708252 0 0 0 0 1792570.493115217 610472.02798969671 0 610472.02798969671 1894398.9727454782 0 0 0 0 77740574.722353458 -83148729.816080093 0 -83148729.816080093 154038822.63274384 0 0 0 0 -166146590.10357761 -78583691.503749847 0 -78583691.503749847 -22773749.138420105 0 0 0 0 967.92453238461167 680527.37682741508 0 680527.37682741508 1646062.6133566163 0 0 0 0 1565044.0741210247 4147423.5242658965 0 4147423.5242658965 6846018.7546104267 0 0 0 0 3695334.1931045055 4632766.8763771057 0 4632766.8763771057 6142608.3758163452 0 0 0 0 1083047.1653547287 12235260.156997681 0 12235260.156997681 16712585.903003693 0 0 0 0 -616773.18351344438 1462674.6491401121 0 1462674.6491401121 2087821.1882224828 0 0 0 0 -335870278.18671256 -258661751.7642591 0 -258661751.7642591 -47022504.245162964 0 0 0 0 4075678.1414594874 5036267.1601959467 0 5036267.1601959467 6244674.6474533081 0 0 0 0 5592627.0885354644 4861728.6759767309 0 4861728.6759767309 3277787.3381969519 0 0 0 0 4146667.606713295 3496128.654586792 0 3496128.654586792 6251884.7781829834 0 0 0 0 25031861.381244659 -190093207.44364929 0 -190093207.44364929 -167458597.36819077 0 0 0 0 3533896.405551672 4397752.9724960327 0 4397752.9724960327 7545553.7186431885 0 0 0 0 5945533.072856958 3317088.6589238569 0 3317088.6589238569 2741450.5738992877 0 0 0 0 116076578.0342989 -25049339.776607513 0 -25049339.776607513 -339221289.01105499 0 0 0 0 8105159.9747142792 -121185565.90600586 0 -121185565.90600586 -424817349.84918213 0 0 0 0 698614493.02598763 -219964474.73603058 0 -219964474.73603058 -411631888.40682983 0 0 0 0 255733856.38561821 151879683.16159821 0 151879683.16159821 -12452181.091056824 0 0 0 0 -20709147.82949543 -592424184.00409317 0 -592424184.00409317 -58439100.748649597 0 0 0 0 1082268831.2098885 -537481653.28669739 0 -537481653.28669739 -82481171.683135986 0 0 0 0 1421053689.3288538 668738824.5249939 0 668738824.5249939 185203122.6963501 0 0 0 0 229653484.66259384 -1200609569.6138992 0 -1200609569.6138992 2381761343.8087311 0 0 0 0 1394749348.6275926 -732372468.1553421 0 -732372468.1553421 54531378.394317627 0 0 0 0 464762.95224594511 -2595160.9084104095 0 -2595160.9084104095 4428330.0279566944 0 0 0 0 1169884754.4475098 -1449467823.5424175 0 -1449467823.5424175 864308679.15065002 0 0 0 0 470148750.73444366 29723227.484039307 0 29723227.484039307 -392979275.44326782 0 0 0 0 519237668.30343246 -729582179.55518341 0 -729582179.55518341 300916142.21888733 0 0 0 0 809928702.09625244 -656235016.28182983 0 -656235016.28182983 86071030.239242554 0 0 0 0 219551521.36205482 738998081.47372818 0 738998081.47372818 1694015612.9540863 0 0 0 0 447119494.07693577 302048880.00057983 0 302048880.00057983 104198172.97703552 0 0 0 0 254123.16384112579 -107293.17121626437 0 -107293.17121626437 1562982.0798623413 0 0 0 0 -1500730173.0484591 255957853.05731201 0 255957853.05731201 2455040572.196846 0 0 0 0 -287384806.2389698 3661042.1773529053 0 3661042.1773529053 2034921208.7286987 0 0 0 0 704648924.50456095 -1018705870.1458702 0 -1018705870.1458702 1294918603.4659271 0 0 0 0 -209338609.81775856 -243628978.26876831 0 -243628978.26876831 1145381548.5005798 0 0 0 0 105543316.44638729 -548664622.2093277 0 -548664622.2093277 855663085.27915955 0 0 0 0 -129708611.87770653 -31572291.541534424 0 -31572291.541534424 883687475.65762329 0 0 0 0 -137968057.45417213 -19496435.176582336 0 -19496435.176582336 897478566.85125732 0 0 0 0 -3636455.9176912308 182410834.73836899 0 182410834.73836899 492907900.38973999 0 0 0 0 -111839831.52572632 -21259343.439994812 0 -21259343.439994812 569075394.71028137 0 0 0 0 98627962.833177567 594952828.6355896 0 594952828.6355896 1351168916.9446487 0 0 0 0 -114266952.31892967 -108792725.08949661 0 -108792725.08949661 1154642316.8597717 0 0 0 0 7655092.9219551086 306386625.63687134 0 306386625.63687134 943784583.52854156 0 0 0 0 10777550.842475891 159823451.83816147 0 159823451.83816147 394519535.47967529 0 0 0 0 144775888.02371979 207713093.53365326 0 207713093.53365326 351182246.69766235 0 0 0 0 22467352.716062546 182150307.59487915 0 182150307.59487915 382333152.40136719 0 0 0 0 112650708.8316021 216738438.36660004 0 216738438.36660004 -22215139.609710693 0 0 0 0 93288396.034662724 148156184.45550346 0 148156184.45550346 221747490.27758789 0 0 0 0 123082652.35251617 60019558.928894043 0 60019558.928894043 26175617.353942871 0 0 0 0 62798763.623004913 38059767.376861572 0 38059767.376861572 65232777.235473633 0 0 0 0 74505232.077819824 33602778.696914673 0 33602778.696914673 34499120.921875 0 0 0 0 78684358.877765656 -33377380.679199219 0 -33377380.679199219 -37677834.983795166 0 0 0 0 103925503.28779411 -92607037.376634598 0 -92607037.376634598 -186713119.0692749 0 0 0 0 -123796834.65517998 -143340577.5876236 0 -143340577.5876236 -35024230.580413818 0 0 0 0 -37527871.294952393 49265585.357421875 0 49265585.357421875 435908353.10614777 0 0 0 0 19858164.867321014 25603904.572967529 0 25603904.572967529 252198906.77355957 0 0 0 0 3735737.3243904114 66172147.479370117 0 66172147.479370117 357913817.0134201 0 0 0 0 -16094462.714748383 82623436.656188965 0 82623436.656188965 470459024.09332275 0 0 0 0 73859806.35010767 42563351.79460144 0 42563351.79460144 76953057.615844727 0 0 0 0 60499375.633239746 3034324.9205780029 0 3034324.9205780029 91590460.942108154 0 0 0 0 5235134.423324585 40082593.095397949 0 40082593.095397949 248934369.32132721 0 0 0 0 18633943.466672897 -11331280.784725189 0 -11331280.784725189 96456327.853790283 0 0 0 0 -4074559.8935914841 2157407.3640371002 0 2157407.3640371002 11007071.216060717 0 0 0 0 53568649.903686523 -13387811.636779785 0 -13387811.636779785 -114759386.6897049 0 0 0 0 -6587477.4301595688 5302370.2253723145 0 5302370.2253723145 28397372.586883545 0 0 0 0 42091971.763870239 17153898.900421143 0 17153898.900421143 -111237408.21557426 0 0 0 0 38048519.525463104 -29947084.131256104 0 -29947084.131256104 -59306200.998718262 0 0 0 0 1037558.270111084 -4969122.7991485596 0 -4969122.7991485596 -470328.92584228516 0 0 0 0 -8113829.3346018791 -28795944.110580444 0 -28795944.110580444 12790135.148742676 0 0 0 0 13100737.317802429 20345314.423370361 0 20345314.423370361 81443450.53918457 0 0 0 0 56999062.474405289 -5510349.704498291 0 -5510349.704498291 -5457785.4455566406 0 0 0 0 57904514.635871887 -1561097.0952758789 0 -1561097.0952758789 -71449144.35218811 0 0 0 0 41601281.803050995 -6423063.8791809082 0 -6423063.8791809082 -5506207.5802612305 0 0 0 0 54485090.192138672 -10761844.529632568 0 -10761844.529632568 -61539909.662185669 0 0 0 0 60212169.245189667 -13914109.440166473 0 -13914109.440166473 -49374458.93572998 0 0 0 0 46658800.297515869 3268038.7971191406 0 3268038.7971191406 -53600854.125701904 0 0 0 0 65348141.380401611 3340026.7108764648 0 3340026.7108764648 -55931124.040405273 0 0 0 0 39274214.269538879 -8651603.8042907715 0 -8651603.8042907715 60769736.671226501 0 0 0 0 60222090.787174225 10552904.607315063 0 10552904.607315063 -16195312.22644043 0 0 0 0 54181815.510992527 -24531733.464513779 0 -24531733.464513779 -13028531.629638672 0 0 0 0 44981809.927612305 -491120.87155151367 0 -491120.87155151367 -69397408.319641113 0 0 0 0 34278102.556003571 -14679914.747146606 0 -14679914.747146606 -44668792.147888184 0 0 0 0 55175439.875713348 957584.96647644043 0 957584.96647644043 -68401941.546325684 0 0 0 0 39583839.41721344 2074832.4287414551 0 2074832.4287414551 -67717337.135986328 0 0 0 0 54961279.81750679 15908410.8567276 0 15908410.8567276 -88627750.666687012 0 0 0 0 66446426.153888702 -3394911.0161437988 0 -3394911.0161437988 -86817765.743469238 0 0 0 0 3705259.1093254089 -48592894.527038574 0 -48592894.527038574 -102233693.48660278 0 0 0 0 -42646236.975219727 -31632079.778945923 0 -31632079.778945923 -3640603.8312530518 0 0 0 0 -63694523.716176987 -36006085.951711655 0 -36006085.951711655 21362392.99798584 0 0 0 0 -9286706.6419177055 -53026860.667053223 0 -53026860.667053223 -14681914.641113281 0 0 0 0 -57339804.114696503 -69321689.970870972 0 -69321689.970870972 -11516874.754211426 0 0 0 0 23649131.811050415 -71272225.583694458 0 -71272225.583694458 -26196824.475799561 0 0 0 0 12356842.738098145 -37080331.112854004 0 -37080331.112854004 -8207691.3264160156 0 0 0 0 35772610.104007721 -2628336.1182556152 0 -2628336.1182556152 -37221292.121643066 0 0 0 0 32718226.654399872 -47104210.630371094 0 -47104210.630371094 -30105904.765350342 0 0 0 0 -13213088.542647362 -30975563.839223862 0 -30975563.839223862 -30791720.34588623 0 0 0 0 -9120311.2269287109 -27999580.001373291 0 -27999580.001373291 -29021482.985626221 0 0 0 0 -24222065.596221924 26680701.529998779 0 26680701.529998779 -65322528.416275024 0 0 0 0 -27983500.881011963 -18218525.406768799 0 -18218525.406768799 -33793246.240539551 0 0 0 0 4566701.2351913452 1819851.9830932617 0 1819851.9830932617 -52408789.745880127 0 0 0 0 13668637.046779633 -7231402.0183105469 0 -7231402.0183105469 -48083682.143554688 0 0 0 0 14147892.196044922 15942576.009765625 0 15942576.009765625 -75006620.430114746 0 0 0 0 -23944193.535964966 3256084.9040222168 0 3256084.9040222168 -47210427.630256653 0 0 0 0 -23769334.681394577 -28034364.013870239 0 -28034364.013870239 -34599531.682189941 0 0 0 0 -57287575.15083313 4811312.0037536621 0 4811312.0037536621 -41408796.156555176 0 0 0 0 -55050518.718322754 -21017192.943634033 0 -21017192.943634033 -25739906.529251099 0 0 0 0 -17024871.844776154 -13588164.039710999 0 -13588164.039710999 -34871564.337036133 0 0 0 0 -42673409.065320969 -32359220.65712738 0 -32359220.65712738 -22848068.113189697 0 0 0 0 -36678727.01316452 -37928066.332420349 0 -37928066.332420349 -19112067.430603027 0 0 0 0 -4154596.0177189345 181220.38660040684 0 181220.38660040684 9210814.3876321986 0 0 0 0 -1076228306.7436962 65051785.812747955 0 65051785.812747955 6258463.7065811157 0 0 0 0 -4667610.9604367819 -2660775.3421251103 0 -2660775.3421251103 13098261.22263594 0 0 0 0 -693458691.29501915 166127772.07586288 0 166127772.07586288 -134925948.6436615 0 0 0 0 311653537.81337452 -345412889.19277954 0 -345412889.19277954 198610688.51849365 0 0 0 0 -1096260043.2165551 378012651.05330849 0 378012651.05330849 2585825.5792694092 0 0 0 0 168835102.45383072 -368239145.31835938 0 -368239145.31835938 327448155.42642212 0 0 0 0 -2534817.8554167096 -2540678.3337184843 0 -2540678.3337184843 2199768.984033227 0 0 0 0 199948212.59792709 -368262121.76746368 0 -368262121.76746368 320089186.64675331 0 0 0 0 341578409.2733326 -299876553.04681396 0 -299876553.04681396 -45144631.821456909 0 0 0 0 -535846714.99188232 133686365.06816101 0 133686365.06816101 200472054.32217407 0 0 0 0 29284626.020858765 -297192632.10292053 0 -297192632.10292053 300218160.07181549 0 0 0 0 -704871.89840790629 -5941635.223267246 0 -5941635.223267246 12476242.784075662 0 0 0 0 -652236070.82300186 -251016976.14453506 0 -251016976.14453506 238261545.66625977 0 0 0 0 -104047606.78594398 -102545594.42276764 0 -102545594.42276764 -67138915.405639648 0 0 0 0 -83921007.550598145 -226054180.00848389 0 -226054180.00848389 159838888.04628754 0 0 0 0 -227353575.25459671 -27034861.864562988 0 -27034861.864562988 21077333.918128967 0 0 0 0 -1394310.9263183856 -2043912.9521311186 0 -2043912.9521311186 1541860.4465463609 0 0 0 0 -11276965.038999319 -882952.68036079407 0 -882952.68036079407 18313714.628829956 0 0 0 0 -6477027.1643471718 -3079005.0071105957 0 -3079005.0071105957 14710736.011917114 0 0 0 0 -8109283.044254303 -2764828.4280395508 0 -2764828.4280395508 11109264.157501221 0 0 0 0 -7901520.6729576588 -1202486.5941200256 0 -1202486.5941200256 21509785.625152588 0 0 0 0 -5383004.9459905624 -9368202.1094360352 0 -9368202.1094360352 29440911.152160645 0 0 0 0 -7960749.2892994881 -3701588.464717865 0 -3701588.464717865 17428016.182159424 0 0 0 0 -5613175.4937705994 -543498.47032928467 0 -543498.47032928467 21535310.803070068 0 0 0 0 -1010406936.6825516 119021641.28452611 0 119021641.28452611 -419609900.84643555 0 0 0 0 -6068333.670299693 -3127953.8735837564 0 -3127953.8735837564 18356172.559799843 0 0 0 0 -951220985.34368217 298177572.99803066 0 298177572.99803066 77398316.519111633 0 0 0 0 -868107902.29845619 -99537792.280422211 0 -99537792.280422211 23222399.771562576 0 0 0 0 -4522474.4914044915 -3972577.2087816037 0 -3972577.2087816037 4066047.1438616589 0 0 0 0 -983290661.41289401 1101813690.3878322 0 1101813690.3878322 -497963698.1085968 0 0 0 0 -347644.36586640496 -786606.1832790859 0 -786606.1832790859 2559498.9077801127 0 0 0 0 187243471.22844505 -184711663.13383102 0 -184711663.13383102 1997423.8404846191 0 0 0 0 -727835956.90621185 501677382.54834747 0 501677382.54834747 -160962916.55037689 0 0 0 0 -5071404.1021232605 -423489.89846611023 0 -423489.89846611023 5766141.5233917236 0 0 0 0 -478326.88965368271 2304843.7695236206 0 2304843.7695236206 487443.85200500488 0 0 0 0 -3456291.3771400223 -2954814.7258638591 0 -2954814.7258638591 14012463.785578027 0 0 0 0 131528.77316856384 5713627.8334960938 0 5713627.8334960938 8233528.1005096436 0 0 0 0 -14888458.594288349 -5353792.2798118591 0 -5353792.2798118591 -3923457.4752502441 0 0 0 0 -4963319.088709143 -4058156.981805291 0 -4058156.981805291 17425254.092731684 0 0 0 0 -4575694.8087484147 -6158185.4506749362 0 -6158185.4506749362 18500358.279901326 0 0 0 0 -46201131.98147583 -31847824.372146606 0 -31847824.372146606 -13015516.444488525 0 0 0 0 -6701358.2910680771 -4595740.7997741699 0 -4595740.7997741699 27742636.660453796 0 0 0 0 -8830776.2777969837 -6459445.5089263916 0 -6459445.5089263916 30912268.995018005 0 0 0 0 -5679158.1313691139 -2450997.4906539917 0 -2450997.4906539917 31556411.837127686 0 0 0 0 -8747352.4806733131 -6036384.0817546844 0 -6036384.0817546844 32938399.134246826 0 0 0 0 -1661045.6511926651 -4367822.4770812988 0 -4367822.4770812988 24726999.466506958 0 0 0 0 -283420.42268660082 -1134018.1961481031 0 -1134018.1961481031 -750357.67637002468 0 0 0 0 66124.319331049919 6280913.1645746231 0 6280913.1645746231 20785154.852890015 0 0 0 0 -8611197.4075961113 -42556452.367034912 0 -42556452.367034912 8367863.6141967773 0 0 0 0 30696442.412345886 23490519.17401123 0 23490519.17401123 6314859.7368183136 0 0 0 0 18972598.421640396 -25024489.876327515 0 -25024489.876327515 31612040.30607605 0 0 0 0 -5137128.1959505081 -3358861.1024780273 0 -3358861.1024780273 36525707.499938965 0 0 0 0 3157513.8684644699 -8233725.5477905273 0 -8233725.5477905273 14460853.640975952 0 0 0 0 418888.89186000824 -4104534.3039779663 0 -4104534.3039779663 2744195.5558776855 0 0 0 0 -5063162.9565234184 -3440783.7725448608 0 -3440783.7725448608 13112897.125778198 0 0 0 0 -29182510.377187014 774141.15243911743 0 774141.15243911743 14283115.603473663 0 0 0 0 -3369968.1540430784 -12447489.487045288 0 -12447489.487045288 21744566.564361572 0 0 0 0 -1669973.0165314744 -8979289.9425233155 0 -8979289.9425233155 13180468.578273982 0 0 0 0 -2425348.0617201114 -4807530.7301695012 0 -4807530.7301695012 11275337.512152376 0 0 0 0 97021692.654273748 -73449308.389175415 0 -73449308.389175415 -103707309.26508331 0 0 0 0 -6065709.7030613422 139703392.36308289 0 139703392.36308289 76975598.517150879 0 0 0 0 -34571409.50665009 -55741012.497447968 0 -55741012.497447968 -154232244.4802742 0 0 0 0 -121613842.01932693 209437018.38829803 0 209437018.38829803 39588102.907821655 0 0 0 0 -4406005.5433588028 -6238158.9345970154 0 -6238158.9345970154 14832169.548469543 0 0 0 0 -1746178.3853719318 -4069353.6368438452 0 -4069353.6368438452 9138770.5720646381 0 0 0 0 -2027493.972032547 -8782519.6084823608 0 -8782519.6084823608 17449203.808120728 0 0 0 0 -1137053592.235743 431393110.54450226 0 431393110.54450226 100882507.91888428 0 0 0 0 -5608559.6393318074 270599.28334638849 0 270599.28334638849 19270104.443886384 0 0 0 0 -3852201.2008256912 -5553413.4351959229 0 -5553413.4351959229 15401971.617420197 0 0 0 0 785927923.33440006 -768808381.83950233 0 -768808381.83950233 -76276024.699829102 0 0 0 0 -403108607.36732006 503933309.23586273 0 503933309.23586273 1108931628.0868835 0 0 0 0 102279667.79728293 -383100332.27507782 0 -383100332.27507782 299223372.87759399 0 0 0 0 -3909113.112401681 -7245822.6385975396 0 -7245822.6385975396 15734398.822860897 0 0 0 0 -582450097.22173762 170941676.24549866 0 170941676.24549866 212949153.75906372 0 0 0 0 -406747149.88747644 91767115.062309265 0 91767115.062309265 126465782.49233246 0 0 0 0 -408534.40205821476 -899426.22773286514 0 -899426.22773286514 2309341.0572685078 0 0 0 0 -681192024.8150835 425081854.01547432 0 425081854.01547432 125540641.20220947 0 0 0 0 -387291199.24740112 331662944.79696655 0 331662944.79696655 94002491.586288452 0 0 0 0 -110444876.55864871 70708669.206535339 0 70708669.206535339 49327034.94556427 0 0 0 0 -251317325.82282698 330410354.71347046 0 330410354.71347046 -265249865.83756256 0 0 0 0 105067236.29707003 -10956690.359737396 0 -10956690.359737396 132572886.4184494 0 0 0 0 -120057166.15753451 102854105.69637933 0 102854105.69637933 171560441.55206299 0 0 0 0 -124586628.63155192 158630989.74452972 0 158630989.74452972 400854474.53092957 0 0 0 0 -117857732.29547715 -261984834.81474495 0 -261984834.81474495 1102272138.9480362 0 0 0 0 16623928.310702294 -226878256.96530151 0 -226878256.96530151 377815234.17344666 0 0 0 0 -604855292.23332798 -105268801.86156082 0 -105268801.86156082 630763831.23035431 0 0 0 0 -274386620.48828554 -308851185.88363647 0 -308851185.88363647 73471948.578327179 0 0 0 0 -267130040.35907733 -125645065.85194778 0 -125645065.85194778 777716134.20593262 0 0 0 0 156763240.76492202 -764613069.70124817 0 -764613069.70124817 789954004.93462515 0 0 0 0 42373526.931801587 -172526541.4859581 0 -172526541.4859581 212511597.24039459 0 0 0 0 -296801166.73302656 -641302441.89913177 0 -641302441.89913177 2163271801.1379166 0 0 0 0 -198054648.25630039 -339964024.9833889 0 -339964024.9833889 1064911373.6127777 0 0 0 0 -680321996.60240829 -748447583.95070648 0 -748447583.95070648 3465434673.1549907 0 0 0 0 -361334089.27373159 -1088569203.5284119 0 -1088569203.5284119 2078668603.5315857 0 0 0 0 -200050396.48747221 -1566931435.9037333 0 -1566931435.9037333 3459345338.4792709 0 0 0 0 -505550685.37483031 -77111429.970731735 0 -77111429.970731735 3464716921.148941 0 0 0 0 -581628301.04261541 -441046733.93037033 0 -441046733.93037033 2373270022.9521065 0 0 0 0 -322477093.97076464 -274277381.42946625 0 -274277381.42946625 2434922565.9625034 0 0 0 0 231212112.65592331 183897869.68997288 0 183897869.68997288 330897304.16786957 0 0 0 0 129115163.55009335 447006912.0015564 0 447006912.0015564 1179339732.2730103 0 0 0 0 121991501.03039789 -125258009.2254343 0 -125258009.2254343 461326591.21580505 0 0 0 0 102153565.36882401 159546010.93053055 0 159546010.93053055 534339630.65882492 0 0 0 0 108915996.67054778 134124646.8686676 0 134124646.8686676 117946845.07843399 0 0 0 0 -129109526.90418983 78347744.802028656 0 78347744.802028656 -59199900.271980286 0 0 0 0 -108612450.49227816 -129970913.35268593 0 -129970913.35268593 400787676.11853027 0 0 0 0 1175564.0204847136 -7340017.0340322312 0 -7340017.0340322312 6118603.7207171395 0 0 0 0 81863211.128556609 279499945.41725922 0 279499945.41725922 98185686.653839111 0 0 0 0 222402.80577116646 -2069402.929624835 0 -2069402.929624835 3430415.6351876259 0 0 0 0 515216054.2516104 -830117010.56433105 0 -830117010.56433105 592298509.98439789 0 0 0 0 183479592.53954828 1068947700.7251759 0 1068947700.7251759 2768535335.0176239 0 0 0 0 902308122.93245995 -32416853.876228333 0 -32416853.876228333 3464400507.8437271 0 0 0 0 153598484.04701537 -617039640.49965668 0 -617039640.49965668 3394923881.6154442 0 0 0 0 -305826464.37114161 14964500.105116844 0 14964500.105116844 3464440828.7124939 0 0 0 0 -79201110.39675346 658231701.66492462 0 658231701.66492462 3362536331.7312469 0 0 0 0 -51214370.499940172 -515505171.96065521 0 -515505171.96065521 1504098300.231163 0 0 0 0 -164581116.01036507 -518670993.41161346 0 -518670993.41161346 3620665414.008687 0 0 0 0 -671746582.08897591 219007932.14187813 0 219007932.14187813 3359545221.8460007 0 0 0 0 -144440137.18960935 -309815942.27926213 0 -309815942.27926213 966563539.99113464 0 0 0 0 -152361073.00271809 13661018.333656311 0 13661018.333656311 984432738.0766983 0 0 0 0 397204766.61930382 -207341733.94129181 0 -207341733.94129181 -224336566.71942139 0 0 0 0 -7588812.7434688509 -10368008.926961899 0 -10368008.926961899 34058230.56489563 0 0 0 0 47106.311961111962 -49734.286762028933 0 -49734.286762028933 -50752.434123910964 0 0 0 0 -23485358.841137707 17445696.023109913 0 17445696.023109913 15510169.660331726 0 0 0 0 -22607780.653708935 -8244789.1177062988 0 -8244789.1177062988 24623485.190460205 0 0 0 0 -332140.70503890514 -8196984.3874969482 0 -8196984.3874969482 21298606.648468018 0 0 0 0 -8198777.0441612005 -8175677.7968330383 0 -8175677.7968330383 26189250.141822815 0 0 0 0 -585995.54942572862 -7454010.462146312 0 -7454010.462146312 7419953.7228204366 0 0 0 0 -3236915.9542213306 -7512727.4890849218 0 -7512727.4890849218 11653816.078904588 0 0 0 0 -395647.45997858047 -9125944.7897949219 0 -9125944.7897949219 25307156.517906189 0 0 0 0 -339453.17362320423 -7791045.5400772095 0 -7791045.5400772095 22035934.862548828 0 0 0 0 -1221770.5233131647 -5009331.6009426117 0 -5009331.6009426117 29692282.04133606 0 0 0 0 1311139.9916632771 -10786512.198787689 0 -10786512.198787689 27815059.003051758 0 0 0 0 6506946.395283699 -6633241.0715179443 0 -6633241.0715179443 28927029.56243515 0 0 0 0 3548412.9065152407 -6404785.9492645264 0 -6404785.9492645264 29256027.18951416 0 0 0 0 2773902.8791787624 -7633928.8690490723 0 -7633928.8690490723 21842983.433822632 0 0 0 0 2913446.8506171703 -11641647.818466187 0 -11641647.818466187 19298444.089614868 0 0 0 0 3387126.4787998199 -10768694.387039185 0 -10768694.387039185 31906961.4246521 0 0 0 0 -432074.6969575882 -2654938.8059539795 0 -2654938.8059539795 37995699.723815918 0 0 0 0 2110624.7952873111 -7423405.8116149902 0 -7423405.8116149902 39930289.478851318 0 0 0 0 7369114.0020135641 -1915100.4163856506 0 -1915100.4163856506 41349516.081115723 0 0 0 0 1675064.824924469 -8399409.3573303223 0 -8399409.3573303223 55373368.085586548 0 0 0 0 459458.83051586151 1542221.805480957 0 1542221.805480957 65365880.622528076 0 0 0 0 -835644.12814235687 4639211.6005249023 0 4639211.6005249023 78310520.120742798 0 0 0 0 -4941706.9144464731 -5828930.1621055603 0 -5828930.1621055603 44125875.274658203 0 0 0 0 2983154.4952216148 -8477902.8701171875 0 -8477902.8701171875 47706414.360839844 0 0 0 0 11133250.773295403 6794085.1177978516 0 6794085.1177978516 52017998.590820312 0 0 0 0 1265312.975071907 -7244134.8155517578 0 -7244134.8155517578 42544119.473876953 0 0 0 0 -2741748.2153120041 2226469.4962158203 0 2226469.4962158203 37491613.397064209 0 0 0 0 705350.88670611382 -6073569.7115478516 0 -6073569.7115478516 41987846.839294434 0 0 0 0 1711533.1172465086 -6253237.6993331909 0 -6253237.6993331909 39679582.027618408 0 0 0 0 4134791.9991703033 -10823956.861602783 0 -10823956.861602783 42090910.790039062 0 0 0 0 1004525.3913099766 -6492994.4911880493 0 -6492994.4911880493 55355108.764282227 0 0 0 0 3432449.8075451851 -5556563.702911377 0 -5556563.702911377 48302653.991821289 0 0 0 0 40930.520666122437 -11612204.634429932 0 -11612204.634429932 64021897.30456543 0 0 0 0 2159059.7235298157 -12276417.190155029 0 -12276417.190155029 50858809.270812988 0 0 0 0 3651238.4807531834 -11116925.219642639 0 -11116925.219642639 47714364.072509766 0 0 0 0 1735040.9669528008 -12514408.961868286 0 -12514408.961868286 46768628.076339722 0 0 0 0 802917.53092956543 -13745811.605560303 0 -13745811.605560303 57173791.845016479 0 0 0 0 -3827929.9877836704 -6001181.0655136108 0 -6001181.0655136108 31178309.510543823 0 0 0 0 -1844068.0136318207 -9178677.6524505615 0 -9178677.6524505615 48166282.345108032 0 0 0 0 -205407.06996393204 -7413751.789932251 0 -7413751.789932251 39839415.106536865 0 0 0 0 -6385822.8149957657 -5169587.4853668213 0 -5169587.4853668213 40826005.80714035 0 0 0 0 -1581173.5319898129 -10997535.642837524 0 -10997535.642837524 36861395.297851562 0 0 0 0 -6365831.3615150452 -9540297.4013061523 0 -9540297.4013061523 46744173.655525208 0 0 0 0 -12826813.716353893 -7564938.979309082 0 -7564938.979309082 41385597.437271118 0 0 0 0 -9285714.3307195008 -1206351.7259778976 0 -1206351.7259778976 23102958.909408569 0 0 0 0 -6575930.2461700439 -4714718.9532165527 0 -4714718.9532165527 42679719.469421387 0 0 0 0 -8381908.2439424992 6376358.432926178 0 6376358.432926178 14804162.601989746 0 0 0 0 -22220939.16604805 -1974053.5227279663 0 -1974053.5227279663 32032259.615768433 0 0 0 0 -677089.73824834824 -6260105.499710083 0 -6260105.499710083 23515624.923187256 0 0 0 0 53241.983390199137 -79700.883473921567 0 -79700.883473921567 -60952.193306393921 0 0 0 0 -1602238.3289659023 -20618517.798992157 0 -20618517.798992157 47262372.20149231 0 0 0 0 -7567237.5792440176 -7904441.6027946472 0 -7904441.6027946472 40592217.635550022 0 0 0 0 -7095839.4705657959 -6425183.3904819489 0 -6425183.3904819489 45233123.206588745 0 0 0 0 39115.629048644274 -47927.250213276595 0 -47927.250213276595 -38599.152030512691 0 0 0 0 -20582591.853899896 10386901.461433411 0 10386901.461433411 27143028.8646698 0 0 0 0 -16746239.462340683 -18048131.032623291 0 -18048131.032623291 42875357.347808838 0 0 0 0 -331310.44604951143 -23877617.128700256 0 -23877617.128700256 38578013.351470947 0 0 0 0 -5977074.6976178288 -11062378.472557068 0 -11062378.472557068 34177460.377277374 0 0 0 0 1375345.1790482402 -15738890.902626038 0 -15738890.902626038 31945316.994697571 0 0 0 0 -4585667.6323958356 -18362338.273870118 0 -18362338.273870118 30954338.313079834 0 0 0 0 -4590783.4717318416 -16478298.414665222 0 -16478298.414665222 28735460.976379395 0 0 0 0 3205681.6896547675 -17867559.091583252 0 -17867559.091583252 18184430.38079834 0 0 0 0 -1366361.1553530693 -16538508.752662659 0 -16538508.752662659 18044960.699554443 0 0 0 0 -599376.33497452736 -12587877.697715759 0 -12587877.697715759 7290662.5284881592 0 0 0 0 -537654.84224486351 -9994385.4895477295 0 -9994385.4895477295 24181960.955047607 0 0 0 0 -3170308.0743179321 -18486230.909614563 0 -18486230.909614563 16875826.163780212 0 0 0 0 4476001.233546257 -14726577.606658936 0 -14726577.606658936 5804956.1906585693 0 0 0 0 -7562691.3596184254 -7236882.9433670044 0 -7236882.9433670044 18113065.087814331 0 0 0 0 -3258465.7426922321 -18524482.800842285 0 -18524482.800842285 26237560.931213379 0 0 0 0 4466361.3443955183 -13591189.956329346 0 -13591189.956329346 12734273.680099487 0 0 0 0 3108211.3711079359 -11212098.542907715 0 -11212098.542907715 13387118.849676132 0 0 0 0 8044525.7873740196 -38707627.498443604 0 -38707627.498443604 49302572.665077209 0 0 0 0 13936031.684359074 -13516331.832443237 0 -13516331.832443237 27536828.907913208 0 0 0 0 7641402.74734658 -19275055.63910675 0 -19275055.63910675 6701553.5789337158 0 0 0 0 314263.74127581506 -8206058.8891459331 0 -8206058.8891459331 6706660.9018989541 0 0 0 0 94241714.848488092 -37002361.975860596 0 -37002361.975860596 -40044174.446033478 0 0 0 0 238790218.09911686 5967578.5675430298 0 5967578.5675430298 -75817657.403770447 0 0 0 0 -366686.73831134464 -8379691.6910883784 0 -8379691.6910883784 8264647.3257978782 0 0 0 0 1963044.2606797814 -3322601.6963005066 0 -3322601.6963005066 -10114537.052856445 0 0 0 0 -289895630.60576415 5829951.6137619019 0 5829951.6137619019 966183507.22534943 0 0 0 0 -143745250.53323507 257786452.03979492 0 257786452.03979492 960413246.07979345 0 0 0 0 -426179407.97005117 373781241.42590332 0 373781241.42590332 2030758325.2843399 0 0 0 0 -615806023.38754559 361343807.89060211 0 361343807.89060211 2056473806.5395565 0 0 0 0 -231444919.39901063 903258050.6655674 0 903258050.6655674 1683942878.9135513 0 0 0 0 -215210396.04163817 409880811.81813049 0 409880811.81813049 1525059782.7782211 0 0 0 0 -675093498.91060007 740766552.21256638 0 740766552.21256638 3465717337.0340271 0 0 0 0 2240684861.4240456 1121288824.031826 0 1121288824.031826 151460585.64393616 0 0 0 0 1744487.0128449579 -224535.76411405206 0 -224535.76411405206 4337006.2198960558 0 0 0 0 -145669422.78476763 1074565305.4111862 0 1074565305.4111862 2004693324.9065552 0 0 0 0 620429261.0359689 2409420872.6103058 0 2409420872.6103058 3458538170.1976318 0 0 0 0 208681083.62603521 -66537670.695018768 0 -66537670.695018768 88007848.26725769 0 0 0 0 102475295.86329794 307070137.4752655 0 307070137.4752655 482063560.95088196 0 0 0 0 1475209864.3985298 877430554.93729401 0 877430554.93729401 396292864.37651062 0 0 0 0 -1334439.4524834049 -7140410.7726636045 0 -7140410.7726636045 8152865.3470894471 0 0 0 0 88607565.233696461 -16211223.497737885 0 -16211223.497737885 54679282.651481628 0 0 0 0 -3872992.92778337 -9280195.7904052734 0 -9280195.7904052734 26505220.286682129 0 0 0 0 262396749.91335338 479506778.80739212 0 479506778.80739212 523925207.72590637 0 0 0 0 8281778.6810393333 -17132324.383209229 0 -17132324.383209229 -18075718.488372803 0 0 0 0 -5098075.3423629329 -15954413.120393276 0 -15954413.120393276 5727877.6892700195 0 0 0 0 905829.08720807871 -40866.275412619114 0 -40866.275412619114 -2123241.1316713914 0 0 0 0 3292810.3108807802 -18838369.173812866 0 -18838369.173812866 -20790983.910583496 0 0 0 0 -152584.94307511591 -236572.47125159949 0 -236572.47125159949 1665272.5309236087 0 0 0 0 -5811486.495244503 -21143425.862457275 0 -21143425.862457275 -2721872.7521057129 0 0 0 0 -3898808.1689537466 -6095969.528629303 0 -6095969.528629303 -7209974.9666442871 0 0 0 0 -5784187.3825484514 -14430344.826629639 0 -14430344.826629639 7358678.4960842133 0 0 0 0 2900949.6551195383 -13726013.948150635 0 -13726013.948150635 -5300770.2987365723 0 0 0 0 136580.70717927814 -10986919.848419189 0 -10986919.848419189 2467573.6682434082 0 0 0 0 3734292.5977316499 -13591969.773452759 0 -13591969.773452759 4326180.3385620117 0 0 0 0 6828214.9195134044 -8531361.0682678223 0 -8531361.0682678223 1880526.9665603638 0 0 0 0 2867136.3713101149 -9793371.0759429932 0 -9793371.0759429932 1407666.537109375 0 0 0 0 3379997.1388113201 -10108271.915878296 0 -10108271.915878296 1304866.475982666 0 0 0 0 648049.45631206036 -13945159.72694397 0 -13945159.72694397 1262272.1520462036 0 0 0 0 -2836545.0123354197 -14166961.028568268 0 -14166961.028568268 7451250.068939209 0 0 0 0 5996869.9994127154 -6045908.3211669922 0 -6045908.3211669922 -240546.33926391602 0 0 0 0 10179458.917491585 -7821798.7385177612 0 -7821798.7385177612 460290.90684509277 0 0 0 0 -395529.43635450886 -2554692.6665479317 0 -2554692.6665479317 3496107.8711010553 0 0 0 0 1879221.2381893694 -6974912.6236953735 0 -6974912.6236953735 -252350.32501983643 0 0 0 0 1066844.1892966335 -7999043.5869598389 0 -7999043.5869598389 10813549.561225891 0 0 0 0 1068274.2085320815 669368.55425262451 0 669368.55425262451 16668234.366394043 0 0 0 0 -816875.70170317381 -2523396.9875772446 0 -2523396.9875772446 3279977.817356132 0 0 0 0 -2619789.4372830782 -5371033.2134380192 0 -5371033.2134380192 9851090.7716915384 0 0 0 0 2106503.2038444877 -9472052.5364074707 0 -9472052.5364074707 -3763458.5915176868 0 0 0 0 -19761488.526407957 -249865129.55676842 0 -249865129.55676842 -399062.42782592773 0 0 0 0 1811403.4692822397 -9578337.9729003906 0 -9578337.9729003906 -2341172.567199707 0 0 0 0 985378.17202168703 -7225257.9333648682 0 -7225257.9333648682 -3779058.6620178223 0 0 0 0 -3425497.2238484956 -4122327.9065513611 0 -4122327.9065513611 5879775.4876708984 0 0 0 0 1091047.9780142307 -8368496.8380584717 0 -8368496.8380584717 1301733.3091316223 0 0 0 0 -260374157.27983093 190193403.77119446 0 190193403.77119446 240075552.79089355 0 0 0 0 54812962.43747016 417461597.47618103 0 417461597.47618103 631853989.3086853 0 0 0 0 29609.408883109347 490155.14143963903 0 490155.14143963903 10935794.946974151 0 0 0 0 -23925528.944529437 22035954.516517639 0 22035954.516517639 -25994993.037704468 0 0 0 0 -1390592.3676339779 -1122027.9231491089 0 -1122027.9231491089 3142757.0823974609 0 0 0 0 -1711501.7692045565 -2187212.2610380054 0 -2187212.2610380054 10154242.042256534 0 0 0 0 -12314708.263427496 -2060339.6744689941 0 -2060339.6744689941 8845227.0693969727 0 0 0 0 -67357504.557548612 -27041151.59916687 0 -27041151.59916687 -784126326.52357483 0 0 0 0 -178622.31280162407 -23783.822153855115 0 -23783.822153855115 241434.78778596222 0 0 0 0 -195034.32661883091 -757599.46791706234 0 -757599.46791706234 3965034.6330840439 0 0 0 0 -25530240.01461795 -370321188.04685974 0 -370321188.04685974 -171253991.38699341 0 0 0 0 530951921.36947691 497854810.83462524 0 497854810.83462524 410082492.82617188 0 0 0 0 246079051.09987128 -200400969.78211975 0 -200400969.78211975 -204082662.22128677 0 0 0 0 -231405548.48890024 -149682510.91989136 0 -149682510.91989136 -8897781.1917724609 0 0 0 0 307308431.49646711 478882646.50933838 0 478882646.50933838 545232168.04341125 0 0 0 0 -236605.07582817442 -1579483.1425032038 0 -1579483.1425032038 3081921.534932442 0 0 0 0 -502619611.84000552 313810776.88134003 0 313810776.88134003 3453143524.2586975 0 0 0 0 328491818.4398492 -1193178600.2328339 0 -1193178600.2328339 1619243176.1066132 0 0 0 0 142550961.95865881 694726897.47594452 0 694726897.47594452 809448183.26068115 0 0 0 0 280130072.4402222 -1083377951.9732666 0 -1083377951.9732666 3458820304.4286904 0 0 0 0 384908.13007044425 19986101.583143234 0 19986101.583143234 307801995.73989868 0 0 0 0 -36518090.072051004 -705691568.88627625 0 -705691568.88627625 3230672335.2325096 0 0 0 0 -110523067.67414622 -121865820.92440796 0 -121865820.92440796 -88585766.446968079 0 0 0 0 161002.93675833681 -416608.39369635656 0 -416608.39369635656 1173678.0338992476 0 0 0 0 557446588.27459145 -943166928.40799713 0 -943166928.40799713 1589462613.6934814 0 0 0 0 -528380944.50431389 525236456.21134949 0 525236456.21134949 3718410788.7654209 0 0 0 0 -95143.786811066384 -839624.02562179416 0 -839624.02562179416 2975265.4783225581 0 0 0 0 -956521.8278727649 -1727882.5424012579 0 -1727882.5424012579 4455900.8019231483 0 0 0 0 -92252704.270086348 -63981708.856052399 0 -63981708.856052399 73841222.740539551 0 0 0 0 -75625432.520438731 21903201.843536377 0 21903201.843536377 36319117.597381592 0 0 0 0 -75630524.103441775 -77441194.043869019 0 -77441194.043869019 -40703350.042251587 0 0 0 0 -93365480.902754903 39878160.69858551 0 39878160.69858551 112579651.06428528 0 0 0 0 46798175.411150828 -11945265.319314241 0 -11945265.319314241 -46613272.404159546 0 0 0 0 41480395.600056201 73283294.459576845 0 73283294.459576845 -38723596.663742065 0 0 0 0 194420.15265777597 -1208507.7399186417 0 -1208507.7399186417 2963736.8042922616 0 0 0 0 -150535.68566565521 -982590.33566689491 0 -982590.33566689491 673502.15603907406 0 0 0 0 16168004.557667332 -28115843.372303009 0 -28115843.372303009 -27658704.833999634 0 0 0 0 3656004.4979402795 -195788.96517181396 0 -195788.96517181396 5743820.1443099976 0 0 0 0 132040.0201833928 3124679.0530853271 0 3124679.0530853271 21722703.004852295 0 0 0 0 366612.63919046195 -1037287.6670242734 0 -1037287.6670242734 2333617.8546081707 0 0 0 0 -16147954.697274089 -32561898.365379333 0 -32561898.365379333 -14798442.672382355 0 0 0 0 -31569.606444113793 -2612085.9471512339 0 -2612085.9471512339 28107354.23777771 0 0 0 0 -4885222.0960907377 7721238.5335159302 0 7721238.5335159302 791297.79108047485 0 0 0 0 -3958897.2974745594 -19509660.065185547 0 -19509660.065185547 22414514.707809448 0 0 0 0 17192295.7551613 -20301103.796920776 0 -20301103.796920776 -853099.4185333252 0 0 0 0 5506197.4180421382 -1805393.676940918 0 -1805393.676940918 446275.87782287598 0 0 0 0 13817223.726965154 27077716.832397461 0 27077716.832397461 56972543.087463379 0 0 0 0 170368.33999727745 -508915.17406922951 0 -508915.17406922951 470695.8580975458 0 0 0 0 15646303.926510692 -5112299.4004821777 0 -5112299.4004821777 -4812784.0130615234 0 0 0 0 6114727.0021061003 -9263220.8340454102 0 -9263220.8340454102 4304850.0771789551 0 0 0 0 11447740.121470571 -9979528.6114959717 0 -9979528.6114959717 3853113.8988380432 0 0 0 0 9656943.3806841522 -12440914.556827545 0 -12440914.556827545 11001148.48085022 0 0 0 0 3552511.9234118462 -10294684.576141357 0 -10294684.576141357 5977124.9929122925 0 0 0 0 5799610.0148678124 -15493628.282867432 0 -15493628.282867432 14547380.683700562 0 0 0 0 1710502.1418339014 -18775490.673431396 0 -18775490.673431396 25939391.461242676 0 0 0 0 7134128.6718592346 -15621864.760261536 0 -15621864.760261536 14450059.220932007 0 0 0 0 12142165.370624214 -23371200.48525238 0 -23371200.48525238 24450936.36529541 0 0 0 0 6031817.6064881682 -19517338.608390808 0 -19517338.608390808 25892280.253483295 0 0 0 0 11436629.143995315 -11812173.987510681 0 -11812173.987510681 20020487.941848755 0 0 0 0 19961281.272530407 -14179701.270187378 0 -14179701.270187378 9939139.5809593201 0 0 0 0 27893281.034347862 -19871655.925720215 0 -19871655.925720215 22845202.186389923 0 0 0 0 12557655.96468614 -16609250.654914856 0 -16609250.654914856 45824161.549743652 0 0 0 0 26036734.391293645 -26267315.030860901 0 -26267315.030860901 32858359.59740448 0 0 0 0 -3394860.7989898622 -32839498.449016571 0 -32839498.449016571 57823386.981231689 0 0 0 0 4516306.4887569547 -18722186.419158936 0 -18722186.419158936 30230547.852378845 0 0 0 0 4689815.3464159966 -47297151.64541626 0 -47297151.64541626 105788870.31767869 0 0 0 0 -31005423.889778383 -6799716.2279586792 0 -6799716.2279586792 62287343.212249756 0 0 0 0 66195246.53090927 -21102622.760410309 0 -21102622.760410309 42433244.104370117 0 0 0 0 28006807.301923607 22399367.786521912 0 22399367.786521912 102432353.08136749 0 0 0 0 505711.31940164231 6159614.9149780273 0 6159614.9149780273 69776614.619842529 0 0 0 0 27959.27617056383 -11865940.584294904 0 -11865940.584294904 37591995.121170044 0 0 0 0 9024980.3127352819 -2316503.2978820801 0 -2316503.2978820801 42753932.213897705 0 0 0 0 7730506.5592889655 -10424295.453832626 0 -10424295.453832626 49864974.439559937 0 0 0 0 -40875238.465457201 -159435526.63793355 0 -159435526.63793355 -190911731.44187689 0 0 0 0 10385685.085496835 -20556008.410914533 0 -20556008.410914533 28831409.015121132 0 0 0 0 -132676691.49408913 -207410028.12069845 0 -207410028.12069845 -131462108.42178297 0 0 0 0 50605219.910955429 552279874.22412205 0 552279874.22412205 437000230.68125224 0 0 0 0 -152366665.28402042 -65995599.739609957 0 -65995599.739609957 -22947357.499307513 0 0 0 0 -985277978.10262394 -56814931.215449095 0 -56814931.215449095 186778964.69348025 0 0 0 0 -212296525.32259035 -251671515.23665822 0 -251671515.23665822 -346076412.63864899 0 0 0 0 -317678886.13025665 -263080796.62821007 0 -263080796.62821007 -64231717.324505806 0 0 0 0 -231888320.97180939 -65103478.156917572 0 -65103478.156917572 39560834.945415497 0 0 0 0 3652193.2101559425 -5733320.817694325 0 -5733320.817694325 -2981648.4690042022 0 0 0 0 -370291358.91180038 -185650583.23573685 0 -185650583.23573685 139109390.10648346 0 0 0 0 -230088909.14185333 -57148271.806037903 0 -57148271.806037903 42092346.244689941 0 0 0 0 -246039360.48405075 -29861664.967636108 0 -29861664.967636108 290347670.18665314 0 0 0 0 -158237846.6648674 -60471091.710848331 0 -60471091.710848331 430770160.63249969 0 0 0 0 -165546556.28076553 -110533309.00458527 0 -110533309.00458527 132240807.67473984 0 0 0 0 -68717793.953495026 -318457441.05541229 0 -318457441.05541229 -225462924.19276428 0 0 0 0 -111193000.36032581 -140430826.52193928 0 -140430826.52193928 -148318708.78147888 0 0 0 0 -132188872.65377045 -133886383.38058853 0 -133886383.38058853 138791558.22971344 0 0 0 0 -102211538.63556862 -329087533.46029282 0 -329087533.46029282 34694487.024414062 0 0 0 0 -324572171.39574814 -87789750.712955475 0 -87789750.712955475 152366515.27724075 0 0 0 0 -98277464.418701589 -66622641.654313207 0 -66622641.654313207 716757019.32644749 0 0 0 0 11882437.730124241 -15521198.803768005 0 -15521198.803768005 18186372.699701279 0 0 0 0 -29010372.496029019 338899547.82093489 0 338899547.82093489 591068653.71307564 0 0 0 0 -357473483.49913406 -463893814.04505157 0 -463893814.04505157 -96318971.72735405 0 0 0 0 295290518.23037148 686699655.85985565 0 686699655.85985565 1083934576.5876851 0 0 0 0 282943640.10540771 17337554.467717171 0 17337554.467717171 639204890.40323448 0 0 0 0 409512190.28022397 556013049.45903075 0 556013049.45903075 932644450.99973869 0 0 0 0 159124958.16070652 936698673.00932693 0 936698673.00932693 1205757565.8896289 0 0 0 0 -74743796.109445572 636510865.20046687 0 636510865.20046687 1442634799.515564 0 0 0 0 77112098.112985611 1203542906.1528015 0 1203542906.1528015 1190942249.6743088 0 0 0 0 -2931835.7017913777 -58378.840206567198 0 -58378.840206567198 1970973.7793869525 0 0 0 0 -52260213.49993515 173115714.62824059 0 173115714.62824059 789311638.64692879 0 0 0 0 -152959073.86248779 288586746.98670673 0 288586746.98670673 1396542357.9484692 0 0 0 0 -317252352.20783925 249002907.52965426 0 249002907.52965426 677226307.3761425 0 0 0 0 -147364953.88038445 485449825.19475937 0 485449825.19475937 1142262010.6697559 0 0 0 0 97836564.611492157 316053431.78855944 0 316053431.78855944 640769886.27802849 0 0 0 0 380429534.41914177 341444739.90827656 0 341444739.90827656 571627759.19566488 0 0 0 0 290164864.92376804 478544569.4188571 0 478544569.4188571 2044344723.1566975 0 0 0 0 136086975.71610641 118000722.65454578 0 118000722.65454578 1108969710.239893 0 0 0 0 363000784.92244148 629480701.21498775 0 629480701.21498775 2268994194.3540363 0 0 0 0 298506910.8207674 1211554107.643137 0 1211554107.643137 301934165.5495224 0 0 0 0 164158346.37313652 1679137554.1431637 0 1679137554.1431637 831948652.97757721 0 0 0 0 -124630086.14267159 1184074483.5510101 0 1184074483.5510101 698567089.2231636 0 0 0 0 210267043.88219321 1266671588.1197968 0 1266671588.1197968 182857177.53327942 0 0 0 0 58246853.230979919 832405503.12243843 0 832405503.12243843 -54826430.203575134 0 0 0 0 -653890357.65285206 597434964.11109781 0 597434964.11109781 -204227143.74389362 0 0 0 0 -283844935.75217056 -162912480.46718872 0 -162912480.46718872 3088602134.4267335 0 0 0 0 1640917.6276262668 32472.187310610432 0 32472.187310610432 781787.79742653691 0 0 0 0 68204587.846072197 173430656.56119704 0 173430656.56119704 1423780807.3168955 0 0 0 0 172973277.90807581 146992527.60276461 0 146992527.60276461 1101298104.493715 0 0 0 0 93792954.682370186 -38358404.024254203 0 -38358404.024254203 996426939.0755713 0 0 0 0 -1568600.3216018942 -10695.063270117273 0 -10695.063270117273 1109237.8501718463 0 0 0 0 97955841.518361092 653084326.62983465 0 653084326.62983465 977160637.46313238 0 0 0 0 44555622.599599838 -80173604.409690917 0 -80173604.409690917 1331414743.8134007 0 0 0 0 25310432.579244852 -22255208.663094327 0 -22255208.663094327 1274550639.8899007 0 0 0 0 52165105.263093948 -86946780.726012588 0 -86946780.726012588 1177061841.4520216 0 0 0 0 -60005152.53309536 -46111730.692474008 0 -46111730.692474008 1661080552.5212584 0 0 0 0 4366290.7611395121 2845559.1981092063 0 2845559.1981092063 3222798.203918044 0 0 0 0 43184715.550111771 82094023.6210109 0 82094023.6210109 1051290712.8150775 0 0 0 0 73440782.267711639 -20675347.82017529 0 -20675347.82017529 1127339401.8858795 0 0 0 0 17952398.490159035 73194749.125578895 0 73194749.125578895 1249954450.7653489 0 0 0 0 64011278.390595913 -32513959.292418003 0 -32513959.292418003 1140515915.8807263 0 0 0 0 78509593.751667023 -48719595.291919634 0 -48719595.291919634 1009961804.9224907 0 0 0 0 111117801.73690033 -4246416.9108306766 0 -4246416.9108306766 655568692.28872585 0 0 0 0 135610351.5074749 106728214.30531862 0 106728214.30531862 697882472.45486307 0 0 0 0 -157746066.85548687 -177046388.06211632 0 -177046388.06211632 648194498.23552167 0 0 0 0 139449866.272717 552953453.57318783 0 552953453.57318783 493414414.49956226 0 0 0 0 381112187.39677668 358390868.20886821 0 358390868.20886821 598186480.65961313 0 0 0 0 287752400.06290245 7402148.631308794 0 7402148.631308794 722871487.86982954 0 0 0 0 -307898640.72333431 -313978511.12444091 0 -313978511.12444091 808112742.6728847 0 0 0 0 -304721449.47793674 -685901112.84695721 0 -685901112.84695721 334510861.1753726 0 0 0 0 633953754.39611804 260336769.77571917 0 260336769.77571917 -86145390.250022411 0 0 0 0 1813732.7705884506 -768851.99967166944 0 -768851.99967166944 959927.26310479548 0 0 0 0 356810611.41953623 57300066.948888063 0 57300066.948888063 -65784018.666171074 0 0 0 0 133366673.21943378 -184761006.28080654 0 -184761006.28080654 -149615492.5823046 0 0 0 0 -136149582.10674381 -162131157.34448814 0 -162131157.34448814 -5109504.0007696152 0 0 0 0 40220577.793389559 218119913.4456057 0 218119913.4456057 226901980.17205688 0 0 0 0 5588799.8029961605 -1966047.5567259188 0 -1966047.5567259188 2782904.3090199726 0 0 0 0 -276945802.38701153 -251352950.17866504 0 -251352950.17866504 149053804.57863879 0 0 0 0 68334239.749803543 -30461247.64927198 0 -30461247.64927198 -110327168.75325833 0 0 0 0 11120542.450855689 -2061780.1802147862 0 -2061780.1802147862 4069822.8574888022 0 0 0 0 -57882193.060340881 -386014414.66209078 0 -386014414.66209078 -91091237.571936935 0 0 0 0 81003728.889993519 -36954480.81062153 0 -36954480.81062153 -4610964.741481781 0 0 0 0 42769819.216658115 -51871971.09829998 0 -51871971.09829998 4985975.2849917412 0 0 0 0 83153565.260306254 -5019285.4786327481 0 -5019285.4786327481 12575398.946531296 0 0 0 0 -163269206.57721901 -230597396.45719552 0 -230597396.45719552 -275221286.12555027 0 0 0 0 2466906.1845797328 -383287.16319689201 0 -383287.16319689201 -1262808.7269169528 0 0 0 0 -163351654.98066807 -48530996.371308327 0 -48530996.371308327 45366756.199239731 0 0 0 0 -41054372.165353775 -158778078.23599052 0 -158778078.23599052 -5070607.3256425709 0 0 0 0 87092657.386980534 -36501695.182240486 0 -36501695.182240486 -6794000.6030292511 0 0 0 0 113944405.03000021 -76340343.377881527 0 -76340343.377881527 -40686432.693264008 0 0 0 0 71567840.338372707 -104513470.01948452 0 -104513470.01948452 -50987830.687700272 0 0 0 0 62317606.944830418 -87705138.87443161 0 -87705138.87443161 57176349.492042542 0 0 0 0 105336335.73604965 -186487673.35199165 0 -186487673.35199165 66002920.945816755 0 0 0 0 7455451.7412528992 -86022054.52355957 0 -86022054.52355957 -23279781.441555023 0 0 0 0 -17679940.55332613 -23024713.824032307 0 -23024713.824032307 -38222028.246067047 0 0 0 0 -64719390.850617409 -33560886.590582848 0 -33560886.590582848 44960000.457626343 0 0 0 0 -120714181.46834946 93368626.431285858 0 93368626.431285858 -73733638.325530052 0 0 0 0 148281126.24321246 -50281105.433336735 0 -50281105.433336735 -417900067.54185486 0 0 0 0 338530670.48368073 -707000194.6301651 0 -707000194.6301651 -48072484.995326996 0 0 0 0 243205863.42647552 411591842.91983986 0 411591842.91983986 -1032237149.9984589 0 0 0 0 -461548.68527564313 -1525614.0892908247 0 -1525614.0892908247 2556206.6169147547 0 0 0 0 -89735445.96292448 -33216382.214000702 0 -33216382.214000702 68094604.692047119 0 0 0 0 -10365079.388448622 845508.08361645415 0 845508.08361645415 16633751.641523913 0 0 0 0 -133000063.84384918 232169689.64481783 0 232169689.64481783 -191181132.61296082 0 0 0 0 -1178147.216383934 -7004306.6042480469 0 -7004306.6042480469 4164167.52267313 0 0 0 0 -24767838.887269974 -4727449.6412696838 0 -4727449.6412696838 46260728.035491943 0 0 0 0 -4165414.8087034877 -12535392.381811675 0 -12535392.381811675 26722019.181727875 0 0 0 0 2773078.2193279266 -12115314.092831612 0 -12115314.092831612 -2324564.8699817657 0 0 0 0 -4614347.5095910039 -9978722.501035884 0 -9978722.501035884 19120027.911361977 0 0 0 0 -55821131.657169342 10961673.216972351 0 10961673.216972351 55499602.890151978 0 0 0 0 -15917955.538802952 1649013.0990733355 0 1649013.0990733355 20387509.068435408 0 0 0 0 -81240301.424934387 35399362.53761673 0 35399362.53761673 40518632.838562012 0 0 0 0 -68836197.694328308 21001768.686729431 0 21001768.686729431 49758675.56993103 0 0 0 0 -89797231.442405701 -12714112.702095032 0 -12714112.702095032 45508463.959357262 0 0 0 0 -121394376.42796326 13975745.209877014 0 13975745.209877014 48890995.196756363 0 0 0 0 -47691139.725244045 -106015606.74016249 0 -106015606.74016249 3756377.3497657776 0 0 0 0 -111885051.7376709 -5621700.2250289917 0 -5621700.2250289917 53398236.974983215 0 0 0 0 -1860473.1819705898 -7309890.1661358438 0 -7309890.1661358438 7218235.4459984237 0 0 0 0 1808890.554800963 -21104750.358482618 0 -21104750.358482618 39834425.878065296 0 0 0 0 -146662411.87453687 -92247499.226091653 0 -92247499.226091653 28011851.776485443 0 0 0 0 -107079098.46795273 408634.1060218811 0 408634.1060218811 51003753.967300415 0 0 0 0 -99424266.698833466 50728854.414068222 0 50728854.414068222 69740248.91583252 0 0 0 0 -180117658.31104755 16247587.995451927 0 16247587.995451927 89032813.672561646 0 0 0 0 -159305741.68579865 -45065550.899700165 0 -45065550.899700165 21357073.232891083 0 0 0 0 -240194385.25679398 -62882328.391720772 0 -62882328.391720772 83022648.242874146 0 0 0 0 9059256.8861082587 -25594843.005995892 0 -25594843.005995892 34589458.520954356 0 0 0 0 -105161156.02468872 29663589.26404357 0 29663589.26404357 135768827.7209177 0 0 0 0 -8520089.4148473032 2112457.432735539 0 2112457.432735539 8375415.7671802435 0 0 0 0 -262958541.87316036 -789395678.46814823 0 -789395678.46814823 -11817675.266932964 0 0 0 0 -150639217.53899765 113228982.79439163 0 113228982.79439163 164848701.14523315 0 0 0 0 -163265591.10368156 153825984.25664711 0 153825984.25664711 556338411.13227844 0 0 0 0 -151862601.99626923 106720559.00924301 0 106720559.00924301 194317274.84986877 0 0 0 0 -168577251.10340118 28771424.178527832 0 28771424.178527832 102037131.80467987 0 0 0 0 -187852068.31513214 68797736.821815491 0 68797736.821815491 154443509.96773529 0 0 0 0 -258982532.00291061 -26096401.905237198 0 -26096401.905237198 146822875.989151 0 0 0 0 -118786882.05544662 94608998.894844055 0 94608998.894844055 84347937.405380249 0 0 0 0 -63405119.955997467 111653222.2146225 0 111653222.2146225 88909907.921451569 0 0 0 0 -99062045.456154823 154291756.67216301 0 154291756.67216301 186198933.48339844 0 0 0 0 17959259.119937897 191647565.62459564 0 191647565.62459564 75053072.627563477 0 0 0 0 7551829.0620708466 87454008.159506798 0 87454008.159506798 8678416.235168457 0 0 0 0 -44357562.74041748 114532498.90403748 0 114532498.90403748 -3546698.0176467896 0 0 0 0 -56542508.128295898 60897589.076835632 0 60897589.076835632 -1930715.7426376343 0 0 0 0 -42984391.678665161 63121311.095176697 0 63121311.095176697 48199124.330939293 0 0 0 0 -106224632.53282738 62837402.286155701 0 62837402.286155701 48209254.348831177 0 0 0 0 -50322153.977062225 76049073.253395081 0 76049073.253395081 28199805.53565979 0 0 0 0 -10667090.074730381 5723001.7083579116 0 5723001.7083579116 11525939.627468022 0 0 0 0 -63054313.043739319 -9797771.2296905518 0 -9797771.2296905518 60567286.899597168 0 0 0 0 -15137449.302871704 23250350.04598999 0 23250350.04598999 42592740.081460953 0 0 0 0 -15179084.900379255 61337984.053818479 0 61337984.053818479 17912492.653366089 0 0 0 0 -6251508.9437093269 125516.28628736734 0 125516.28628736734 7778756.1895233393 0 0 0 0 -7030946.1542396219 5941920.9515968822 0 5941920.9515968822 8313265.2419308471 0 0 0 0 -3007589.0018634796 31723541.485973358 0 31723541.485973358 29817400.997970581 0 0 0 0 12647428.842010498 41049039.116336823 0 41049039.116336823 -12712980.765777588 0 0 0 0 -3051305.4937133789 47495380.890838623 0 47495380.890838623 -9483696.3406066895 0 0 0 0 19907353.209464073 44560471.925010681 0 44560471.925010681 -45819547.557342529 0 0 0 0 19488768.992603302 17640117.725082397 0 17640117.725082397 -21857044.28276062 0 0 0 0 -525456.49856594019 3496035.101497164 0 3496035.101497164 -2017310.9087273404 0 0 0 0 -163375779.1068058 6935486.5350570679 0 6935486.5350570679 -7136071.4549865723 0 0 0 0 -265441424.29696655 9124036.5608520508 0 9124036.5608520508 29150283.874044418 0 0 0 0 -115100.24619982392 372709.43633024395 0 372709.43633024395 519158.10160797136 0 0 0 0 258971.75788016338 437048.98611226678 0 437048.98611226678 -1181168.3176456988 0 0 0 0 85501212.633598328 -8601403.0704231262 0 -8601403.0704231262 -531905362.03639221 0 0 0 0 20653782.285741806 59593741.826138496 0 59593741.826138496 -41202021.790222168 0 0 0 0 100840132.0061264 85647747.846824646 0 85647747.846824646 -56517981.99382782 0 0 0 0 89072920.838823318 47686478.879653931 0 47686478.879653931 -69877755.391494751 0 0 0 0 -477406156.74048805 206190076.81594849 0 206190076.81594849 -94287299.146591187 0 0 0 0 -155922197.90942764 2460219.2435302734 0 2460219.2435302734 -59521769.537757874 0 0 0 0 -137031199.76113129 -107257591.64509583 0 -107257591.64509583 -114282702.39408779 0 0 0 0 92037034.536945343 -115517393.68050385 0 -115517393.68050385 -85194328.182743073 0 0 0 0 49514757.612533569 -6504395.5654125214 0 -6504395.5654125214 -83848255.332550049 0 0 0 0 323553394.78533936 -153122773.13337708 0 -153122773.13337708 -62831295.86813736 0 0 0 0 253760355.62884998 -28976136.028972626 0 -28976136.028972626 -152255966.68909454 0 0 0 0 434939815.51176071 -218922172.40697098 0 -218922172.40697098 -66412989.662002563 0 0 0 0 383187228.58772087 -138747376.21745682 0 -138747376.21745682 -190052562.90675354 0 0 0 0 576189546.22608376 -328021129.04488373 0 -328021129.04488373 -72366802.967353821 0 0 0 0 455747417.05473709 -207880361.44262505 0 -207880361.44262505 -190456708.94542694 0 0 0 0 106228067.98901129 -13803385.41921711 0 -13803385.41921711 -141859298.7852478 0 0 0 0 516961770.93698502 -59432781.809577942 0 -59432781.809577942 -319763758.23964691 0 0 0 0 657101492.68804359 -295721697.4339447 0 -295721697.4339447 -91979483.099380493 0 0 0 0 660978843.99131632 -138360666.24707794 0 -138360666.24707794 78102123.619125366 0 0 0 0 1013618113.4076424 -458394336.51933289 0 -458394336.51933289 190971027.59384155 0 0 0 0 368683526.27179527 -243121934.26583099 0 -243121934.26583099 102646592.67874908 0 0 0 0 352825731.47249222 -259195412.36676025 0 -259195412.36676025 110163451.28661346 0 0 0 0 495706776.58234453 -484889888.27449036 0 -484889888.27449036 557728286.25135803 0 0 0 0 140674761.2081213 -224289034.40254211 0 -224289034.40254211 447669898.14044189 0 0 0 0 125872475.28765392 126101241.40966034 0 126101241.40966034 336985322.05351257 0 0 0 0 155279177.08729362 140521438.07908821 0 140521438.07908821 1125815112.115097 0 0 0 0 166171340.28476048 76200041.706260681 0 76200041.706260681 391830052.54032898 0 0 0 0 -136151373.08395672 -336543039.84100723 0 -336543039.84100723 1041459005.5232925 0 0 0 0 766276901.19587898 -518841315.15521622 0 -518841315.15521622 748513311.62321472 0 0 0 0 620350382.26457596 -710647314.3658371 0 -710647314.3658371 729932579.77062988 0 0 0 0 1068212040.7537532 160783845.44311333 0 160783845.44311333 413331699.23025513 0 0 0 0 39336841.810649872 -157807495.39030457 0 -157807495.39030457 1515859647.2845573 0 0 0 0 847294573.5670166 -797982516.46772003 0 -797982516.46772003 971923145.86527252 0 0 0 0 40537425.522945404 -189372898.19020462 0 -189372898.19020462 908801742.91385269 0 0 0 0 27264616.363483429 -12600149.42395401 0 -12600149.42395401 327805177.42567062 0 0 0 0 114849619.42432785 175759303.87155151 0 175759303.87155151 485896273.51547241 0 0 0 0 -57607780.447113037 343957204.11914825 0 343957204.11914825 131172975.81106567 0 0 0 0 -54870313.086704165 202249972.14076108 0 202249972.14076108 580764160.18762207 0 0 0 0 18433626.149201155 191683784.41225815 0 191683784.41225815 -151379480.14962769 0 0 0 0 -220686058.12363434 661266472.79333496 0 661266472.79333496 -60993381.471122742 0 0 0 0 456365960.2485342 245931756.00489235 0 245931756.00489235 -600927324.08288574 0 0 0 0 -57756718.368141174 -359784379.86265564 0 -359784379.86265564 180225679.72021484 0 0 0 0 -110523333.32938361 335205431.61160469 0 335205431.61160469 -370742756.73200226 0 0 0 0 -26149981.50344944 10974295.477012634 0 10974295.477012634 15008641.899036407 0 0 0 0 1773274.7292421176 6998529.1195650548 0 6998529.1195650548 10778311.531187654 0 0 0 0 1163923.7039737701 5822181.152973175 0 5822181.152973175 4935009.9067077637 0 0 0 0 -11406749.078070641 2122956.6803359985 0 2122956.6803359985 4012443.2727851868 0 0 0 0 -1741327.8353151879 3944597.6525620148 0 3944597.6525620148 5347648.0388623253 0 0 0 0 484418.3564789542 2147429.1436209269 0 2147429.1436209269 1700754.6323924921 0 0 0 0 -2374890.7593133915 -2539767.6459797705 0 -2539767.6459797705 1422946.0342997909 0 0 0 0 4773798.5738148689 -12324103.943155289 0 -12324103.943155289 12087748.338592529 0 0 0 0 -25302138.128367424 -6697031.6177597046 0 -6697031.6177597046 30148847.030731201 0 0 0 0 -40555562.823998928 -38712070.169494629 0 -38712070.169494629 -28960780.853881836 0 0 0 0 38783010.646844864 -98629429.615737915 0 -98629429.615737915 8261530.9408035278 0 0 0 0 129923431.07363081 83140712.501602173 0 83140712.501602173 54579254.217781067 0 0 0 0 -1187719.4049434662 -1225672.7083892822 0 -1225672.7083892822 370367.11064147949 0 0 0 0 -998600.51847024448 -388908.23576492071 0 -388908.23576492071 985075.69492295384 0 0 0 0 479820719.33002567 -131738035.49507618 0 -131738035.49507618 -140674188.24664307 0 0 0 0 170528814.68234062 -56463887.625205994 0 -56463887.625205994 -141558111.72189128 0 0 0 0 271051885.09086132 -150649281.71913147 0 -150649281.71913147 -27044718.078338623 0 0 0 0 404629750.86695099 -231361738.63511658 0 -231361738.63511658 -27077280.587799072 0 0 0 0 77273767.30759716 -178730104.77505493 0 -178730104.77505493 148926993.13739014 0 0 0 0 55201843.925924301 -54223815.21006012 0 -54223815.21006012 112379371.48318481 0 0 0 0 48791743.417736053 45414137.104816437 0 45414137.104816437 259131069.9533844 0 0 0 0 29544176.130832195 114554035.3477211 0 114554035.3477211 25078298.845458984 0 0 0 0 -92041551.208010674 -134037148.159729 0 -134037148.159729 169710594.29631042 0 0 0 0 -760592.68129552458 -813587.63541750237 0 -813587.63541750237 475082.88508085907 0 0 0 0 -10374359.652642727 -100359722.47164726 0 -100359722.47164726 70360362.940841675 0 0 0 0 -9993953.1832046509 -19071611.954460144 0 -19071611.954460144 -8849272.3513507843 0 0 0 0 -248531108.30174923 28212167.418231964 0 28212167.418231964 148587180.65533447 0 0 0 0 933874.37447737833 5576812.2880380154 0 5576812.2880380154 11089247.021710373 0 0 0 0 -53877476.573826551 32906918.610624313 0 32906918.610624313 10591311.83367157 0 0 0 0 -606672710.82279205 816438675.31519318 0 816438675.31519318 104573719.70815849 0 0 0 0 -46889431.030210495 28104906.337890625 0 28104906.337890625 -132069511.28830338 0 0 0 0 284450872.27036715 79804267.619720459 0 79804267.619720459 -464681819.68304443 0 0 0 0 572861058.82670593 -870822696.07591248 0 -870822696.07591248 423679708.97354126 0 0 0 0 96829994.519556999 -910005238.88128662 0 -910005238.88128662 886938247.71365356 0 0 0 0 103430106.266222 -750775922.97837067 0 -750775922.97837067 833893677.52143478 0 0 0 0 -24926197.933187485 359326147.36919403 0 359326147.36919403 2309735614.5162201 0 0 0 0 -29624687.889642715 450485911.99871683 0 450485911.99871683 847981234.87590027 0 0 0 0 -227030764.11939621 -695161096.76956177 0 -695161096.76956177 1339119264.8469849 0 0 0 0 -313186202.16494453 -314338279.86696053 0 -314338279.86696053 513760214.89567566 0 0 0 0 -635264404.9889183 -313606684.89691162 0 -313606684.89691162 733465856.88937378 0 0 0 0 -177684760.64680672 -656500655.7273941 0 -656500655.7273941 803314529.05957031 0 0 0 0 23115093.053045273 -685495737.45594883 0 -685495737.45594883 615758347.60476685 0 0 0 0 -151764780.65038443 -214330499.02559042 0 -214330499.02559042 187679934.35276794 0 0 0 0 197204728.12000585 -562929960.31847763 0 -562929960.31847763 476198270.11362457 0 0 0 0 150775358.05378884 -519240469.24440384 0 -519240469.24440384 1011478887.1719894 0 0 0 0 -800511317.05752659 163766965.03588295 0 163766965.03588295 475868239.96374512 0 0 0 0 -121834371.21749306 143350421.17350769 0 143350421.17350769 158553499.03408051 0 0 0 0 -121214318.70911026 157460157.03578568 0 157460157.03578568 -37594383.92741394 0 0 0 0 -333700.06721044378 3308698.7323664203 0 3308698.7323664203 9267887.7861280814 0 0 0 0 277608456.1739254 168365494.01196289 0 168365494.01196289 -135019184.12117004 0 0 0 0 -15148034.914442062 82692539.999084473 0 82692539.999084473 44898269.630706787 0 0 0 0 174370979.49634361 248559605.02713776 0 248559605.02713776 171821495.68739319 0 0 0 0 614616070.83524513 103064603.22052002 0 103064603.22052002 -193532038.67613602 0 0 0 0 -670446.16320020985 815674.97746223584 0 815674.97746223584 4037105.0348356888 0 0 0 0 57812460.478496075 989720417.96836662 0 989720417.96836662 1022378116.5082855 0 0 0 0 617209906.97222686 75187510.690643311 0 75187510.690643311 1016568782.5268784 0 0 0 0 1444711383.3557515 139059228.91259384 0 139059228.91259384 390809095.02644348 0 0 0 0 1602758677.0677049 -622471513.87729263 0 -622471513.87729263 -626979801.64468384 0 0 0 0 551950102.20119381 -955063966.18428421 0 -955063966.18428421 1708520.3411979675 0 0 0 0 784612807.62913799 -565324496.42736435 0 -565324496.42736435 223161045.52926636 0 0 0 0 798617817.06219769 -336138599.26124573 0 -336138599.26124573 56819268.566368103 0 0 0 0 499005574.28382301 -213762807.91869354 0 -213762807.91869354 595925437.41765594 0 0 0 0 246628544.30179739 -434504133.62451935 0 -434504133.62451935 403383169.78016663 0 0 0 0 158150951.63904905 -337693042.74018097 0 -337693042.74018097 646262564.86407089 0 0 0 0 59951590.684955597 -689310148.37371826 0 -689310148.37371826 615318838.91775131 0 0 0 0 203200264.3130765 -375274604.70934677 0 -375274604.70934677 634285069.81216431 0 0 0 0 -25108793.106407642 -561980981.62815475 0 -561980981.62815475 750677810.83889008 0 0 0 0 123785007.03827333 -428678845.09493256 0 -428678845.09493256 599073119.48662949 0 0 0 0 125837171.13889408 -427106162.56298542 0 -427106162.56298542 399223119.17970276 0 0 0 0 113836044.12699509 -435237010.202034 0 -435237010.202034 393736910.50566101 0 0 0 0 52288629.22236824 -289886271.93660736 0 -289886271.93660736 285022864.55443573 0 0 0 0 171899990.11314011 -385673040.0880661 0 -385673040.0880661 350150891.02159119 0 0 0 0 187957438.66763878 -405059057.81745148 0 -405059057.81745148 334736815.37983704 0 0 0 0 183874242.07359314 -390291675.30731583 0 -390291675.30731583 304121795.22973633 0 0 0 0 120007059.96923447 -473917835.46853638 0 -473917835.46853638 511727674.01820374 0 0 0 0 210028132.92521286 -623183956.90216446 0 -623183956.90216446 473544507.60003662 0 0 0 0 236651135.52536774 -635248731.19682312 0 -635248731.19682312 372322111.86148071 0 0 0 0 475012368.5655632 -530219508.51000977 0 -530219508.51000977 251568831.93359375 0 0 0 0 859101592.28374863 100473415.85607052 0 100473415.85607052 42067504.138336182 0 0 0 0 515669813.65657997 -52189099.115177155 0 -52189099.115177155 39079066.680243134 0 0 0 0 573302675.58685875 -114053927.93011093 0 -114053927.93011093 -111003998.53327942 0 0 0 0 293027517.15829468 -274659979.88868713 0 -274659979.88868713 103831577.17066765 0 0 0 0 165641242.99862671 -91070536.309146881 0 -91070536.309146881 -78613202.970489502 0 0 0 0 253165853.3731575 -80737661.709465027 0 -80737661.709465027 121463861.39298105 0 0 0 0 191504390.69610596 -288544780.02520752 0 -288544780.02520752 211354372.54774094 0 0 0 0 487288054.8370285 -175835051.16470718 0 -175835051.16470718 366807711.58466339 0 0 0 0 1537113920.3215532 -354198231.36529541 0 -354198231.36529541 142138746.50914764 0 0 0 0 610015714.58909225 -421051638.24093246 0 -421051638.24093246 385806489.22299194 0 0 0 0 767652.75874213886 -3011047.166422002 0 -3011047.166422002 2402530.5979248732 0 0 0 0 -139270740.73436832 40601137.303718567 0 40601137.303718567 37492319.453727722 0 0 0 0 392902.73287012498 -820888.95921239443 0 -820888.95921239443 862353.18790504336 0 0 0 0 354679021.51184082 415443117.93068314 0 415443117.93068314 443586823.04181671 0 0 0 0 360878252.23349285 405462537.32019806 0 405462537.32019806 62299294.835891724 0 0 0 0 361896686.71959686 339843489.04817581 0 339843489.04817581 -65671069.149703979 0 0 0 0 236931705.2415123 384275223.76548004 0 384275223.76548004 443816531.20433044 0 0 0 0 193604140.56935024 253133977.97650528 0 253133977.97650528 56428233.711242676 0 0 0 0 316146881.64097881 350643375.61056042 0 350643375.61056042 58867816.863494873 0 0 0 0 12264960.877028465 105038201.2877121 0 105038201.2877121 -61538407.726219177 0 0 0 0 -552824584.49079514 22024917.315345764 0 22024917.315345764 228374206.0855732 0 0 0 0 934448.15983995493 -2096746.5785230156 0 -2096746.5785230156 2168974.3345856071 0 0 0 0 -76953872.536239624 -68333856.787418365 0 -68333856.787418365 -45737497.699180603 0 0 0 0 -328088905.03581524 12203205.253559113 0 12203205.253559113 69857377.623748779 0 0 0 0 -202830834.91552544 152529009.10797119 0 152529009.10797119 48141838.923942566 0 0 0 0 1294856.015211201 -6184942.0606420077 0 -6184942.0606420077 7769604.9499082118 0 0 0 0 210270366.04562044 150177930.96430397 0 150177930.96430397 96204099.213363647 0 0 0 0 961822.0960255668 -1884257.2343802741 0 -1884257.2343802741 944140.87098714709 0 0 0 0 66504431.028628349 -86008155.407459259 0 -86008155.407459259 -131177618.88277435 0 0 0 0 75648737.41881752 -262379475.91489792 0 -262379475.91489792 -121734676.34303474 0 0 0 0 441779106.41070652 -31040398.178499222 0 -31040398.178499222 -75243209.76455307 0 0 0 0 256378708.43852234 -187349790.93993378 0 -187349790.93993378 -79503297.596785545 0 0 0 0 552624442.24775529 -78425455.923213482 0 -78425455.923213482 -120058500.31240845 0 0 0 0 272115162.59315681 -276388531.08112717 0 -276388531.08112717 -194976021.04588509 0 0 0 0 -32945138.65170002 -59665258.135158539 0 -59665258.135158539 -304007812.90549088 0 0 0 0 314948091.23228455 -284293786.01928902 0 -284293786.01928902 -259678138.26769304 0 0 0 0 8275468.3250880148 -9006710.4962892644 0 -9006710.4962892644 10081370.981588157 0 0 0 0 244422340.5961318 889657839.03803444 0 889657839.03803444 431754731.45801926 0 0 0 0 283774841.41775274 408730222.7839489 0 408730222.7839489 717291521.82585907 0 0 0 0 878541334.21622038 567763908.53207397 0 567763908.53207397 601212353.77340317 0 0 0 0 384214693.26444387 607308855.72912407 0 607308855.72912407 901410748.45518875 0 0 0 0 3157993.4491657522 -2725005.365776184 0 -2725005.365776184 2920325.8894281704 0 0 0 0 884646347.36143196 806662631.23618627 0 806662631.23618627 1352172926.6068611 0 0 0 0 1120830127.9022884 827818268.55529976 0 827818268.55529976 -951204116.10443592 0 0 0 0 313400993.67019498 -307845827.01579952 0 -307845827.01579952 -226016893.77043915 0 0 0 0 96040702.14854908 -380760448.89233208 0 -380760448.89233208 -236756060.47718811 0 0 0 0 1254906.015104386 -7256051.5377851781 0 -7256051.5377851781 13137827.61237124 0 0 0 0 -46338990.495667219 -347810340.18955994 0 -347810340.18955994 -120993933.72562408 0 0 0 0 -421781427.93103123 -155050610.25486755 0 -155050610.25486755 306431342.50317383 0 0 0 0 -231956252.10986853 70204674.724582672 0 70204674.724582672 502752150.86472321 0 0 0 0 871324488.95796204 -612090012.53219795 0 -612090012.53219795 -7459292.401386261 0 0 0 0 -1336254990.4270697 -322464896.50048161 0 -322464896.50048161 3134995823.3738708 0 0 0 0 289360210.47647762 -409972679.01703644 0 -409972679.01703644 88312549.396377563 0 0 0 0 1420446348.2567778 -926198259.7151947 0 -926198259.7151947 -199286806.79257202 0 0 0 0 1035853.0468446525 -5630985.4090540707 0 -5630985.4090540707 14367372.967206933 0 0 0 0 1232670548.5080247 19697960.52611351 0 19697960.52611351 -202195573.91603088 0 0 0 0 1240224775.7015202 -778655223.63462865 0 -778655223.63462865 77385085.136932373 0 0 0 0 2658535842.2432957 -739745420.79010773 0 -739745420.79010773 201269088.59609795 0 0 0 0 1072925036.6230078 -541348945.08013916 0 -541348945.08013916 420951283.06787491 0 0 0 0 673734.29903704196 -1869210.2276236136 0 -1869210.2276236136 6526362.964637842 0 0 0 0 1268782329.4252872 1390553895.5590382 0 1390553895.5590382 -91520373.596561432 0 0 0 0 969507229.78895378 1515103286.0493212 0 1515103286.0493212 1167807219.6743851 0 0 0 0 985364642.94817877 414407024.95407677 0 414407024.95407677 1329845709.1779327 0 0 0 0 883414916.2013123 357976023.42354774 0 357976023.42354774 695963910.32598019 0 0 0 0 1031535382.1729097 459129665.06573105 0 459129665.06573105 734067777.73220444 0 0 0 0 688411242.82004833 164582908.46548748 0 164582908.46548748 631377692.04463577 0 0 0 0 499989225.70701814 487459471.17788315 0 487459471.17788315 643306831.43496847 0 0 0 0 826308173.6482507 249330936.16265965 0 249330936.16265965 759438956.2866478 0 0 0 0 825152675.3983078 232947569.58543825 0 232947569.58543825 639813286.68192673 0 0 0 0 1576195784.4418054 207214194.22188187 0 207214194.22188187 -915140283.59486771 0 0 0 0 851086383.85910892 -236060430.05765533 0 -236060430.05765533 1631936755.145298 0 0 0 0 1538357103.0450311 156065995.56750107 0 156065995.56750107 560596170.73286057 0 0 0 0 -264491189.96135807 -236934045.29875565 0 -236934045.29875565 77520014.85194397 0 0 0 0 -376202831.36397839 15171992.366687775 0 15171992.366687775 165671392.82720184 0 0 0 0 -57838205.062042236 34209422.464241028 0 34209422.464241028 -7614791.706161499 0 0 0 0 27660142.503440857 -288912319.21209717 0 -288912319.21209717 290311762.35591125 0 0 0 0 2904774.1494274139 -304243566.90434265 0 -304243566.90434265 342984203.66986847 0 0 0 0 37974603.241958618 -211256774.35095215 0 -211256774.35095215 122548477.20701599 0 0 0 0 -185943843.86293221 -173410231.59825516 0 -173410231.59825516 226672166.0406189 0 0 0 0 -64295950.445519447 -294491492.86977768 0 -294491492.86977768 228169413.24734497 0 0 0 0 88008796.894329071 -280873011.58288956 0 -280873011.58288956 216962266.59539032 0 0 0 0 128023489.51883745 -461993959.95779991 0 -461993959.95779991 326397736.01376343 0 0 0 0 148649138.51499528 -322364866.09683228 0 -322364866.09683228 238987233.20871735 0 0 0 0 -106248350.68257904 -433952631.26211548 0 -433952631.26211548 248435699.04156494 0 0 0 0 -172428801.41779041 -148954444.6673851 0 -148954444.6673851 161536907.22047424 0 0 0 0 125202886.7267859 -371824508.75342178 0 -371824508.75342178 91615570.723377228 0 0 0 0 432213875.14194155 -590253192.99052048 0 -590253192.99052048 74150393.559074402 0 0 0 0 108819419.88465261 -392262815.4079361 0 -392262815.4079361 207404737.5820384 0 0 0 0 371731252.93950832 -547465362.83338165 0 -547465362.83338165 225721817.91757584 0 0 0 0 388149726.75275081 -340378591.29520798 0 -340378591.29520798 357318167.2889061 0 0 0 0 509522074.17954445 -577090934.06815147 0 -577090934.06815147 351090218.80294037 0 0 0 0 475630729.06755781 -414646267.79755592 0 -414646267.79755592 363555522.57717896 0 0 0 0 912001619.82325029 -362519876.1274147 0 -362519876.1274147 129305424.72719574 0 0 0 0 1009523551.672091 -461393749.82144737 0 -461393749.82144737 -149530701.23819733 0 0 0 0 813560529.27972794 -863658138.70740604 0 -863658138.70740604 214897755.3296814 0 0 0 0 967210386.65596962 -517472865.81237793 0 -517472865.81237793 -155203340.99977064 0 0 0 0 1028734747.2217054 -753777759.08839035 0 -753777759.08839035 141829127.52348137 0 0 0 0 126841607.52068862 -646630474.58068085 0 -646630474.58068085 882053075.34655762 0 0 0 0 101318938.13398534 -330228655.80350876 0 -330228655.80350876 24076101.692840576 0 0 0 0 -121345986.37409782 -715179611.46526718 0 -715179611.46526718 387434311.96465302 0 0 0 0 387888183.69917679 -456926015.63339806 0 -456926015.63339806 7365768.1811981201 0 0 0 0 -359283102.82604384 -162687300.03652191 0 -162687300.03652191 945227.64170837402 0 0 0 0 -402090621.45760155 -374627707.55408478 0 -374627707.55408478 230874795.77125549 0 0 0 0 -788894225.44183898 291595634.24258804 0 291595634.24258804 -395488740.41159821 0 0 0 0 -733241622.18629313 -379806912.53510666 0 -379806912.53510666 97604427.382831573 0 0 0 0 -835072198.34027767 60050176.874118805 0 60050176.874118805 -311727738.26376915 0 0 0 0 -4371242.5817785785 -3023392.1186259966 0 -3023392.1186259966 4395558.6837754548 0 0 0 0 -1099268617.9397173 131605934.37901211 0 131605934.37901211 158323141.08917999 0 0 0 0 -935366317.70794487 464365164.16415977 0 464365164.16415977 -153331142.03759766 0 0 0 0 -375746552.73751694 82302080.554017186 0 82302080.554017186 -127026021.86196136 0 0 0 0 242465139.46898001 -13457746.4453125 0 -13457746.4453125 303556919.34790421 0 0 0 0 -729626.36743895104 -1984215.6155962693 0 -1984215.6155962693 5174558.6362297907 0 0 0 0 -867056.45439001801 -703131.19338413607 0 -703131.19338413607 9254745.2496694848 0 0 0 0 694141691.59421802 -379207319.36062527 0 -379207319.36062527 147846937.32817078 0 0 0 0 -1161162530.3334908 772131048.19524765 0 772131048.19524765 348839500.09797859 0 0 0 0 -2282764.4488654966 -3223514.8246913608 0 -3223514.8246913608 12941758.931188677 0 0 0 0 -2783342.4973235242 -883071.77131960634 0 -883071.77131960634 3478985.8164611161 0 0 0 0 -2185496710.9721727 580022006.89258194 0 580022006.89258194 493391717.92718315 0 0 0 0 -810318848.87640226 -44598124.264731407 0 -44598124.264731407 -769231064.22753143 0 0 0 0 -1418719829.8654182 -469679680.57797337 0 -469679680.57797337 221966176.03370667 0 0 0 0 -1525498002.8852344 973719688.00284195 0 973719688.00284195 1085935647.8411484 0 0 0 0 188442594.07175249 754999025.28059769 0 754999025.28059769 -874197319.32924461 0 0 0 0 154629653.6127373 1132620045.4775581 0 1132620045.4775581 1480581350.8580627 0 0 0 0 -163075855.56527779 196282503.90856171 0 196282503.90856171 142170753.00466156 0 0 0 0 -816863057.210109 -422254479.52472633 0 -422254479.52472633 598151534.51329041 0 0 0 0 -128527510.12279776 -902557.18960046768 0 -902557.18960046768 1228861550.9138565 0 0 0 0 625515170.16758275 -122622201.38420105 0 -122622201.38420105 631899123.13164139 0 0 0 0 738156888.91827965 816626911.85128784 0 816626911.85128784 395591627.52849579 0 0 0 0 635514143.29543734 963743553.15899754 0 963743553.15899754 2499502916.7942581 0 0 0 0 385576284.07924473 1490272306.2875156 0 1490272306.2875156 2451627830.9319267 0 0 0 0 362228407.70199955 1673362428.0671115 0 1673362428.0671115 1071989559.3189926 0 0 0 0 332206376.57584292 1838424547.1749964 0 1838424547.1749964 2300928287.3841934 0 0 0 0 97610229.135964885 1580879468.2132921 0 1580879468.2132921 2664679805.9789886 0 0 0 0 100006574.1559092 2535664033.4034729 0 2535664033.4034729 3456545448.8938789 0 0 0 0 -250329478.81862992 1988471015.6874275 0 1988471015.6874275 2380913550.3023109 0 0 0 0 -133253034.56146589 2080413820.8722572 0 2080413820.8722572 870487365.4671936 0 0 0 0 -455955.49170058902 649209.35630352981 0 649209.35630352981 999131.86164998263 0 0 0 0 -627090921.29480803 -146499991.69776917 0 -146499991.69776917 -1321415575.9760437 0 0 0 0 584932141.15195215 -937151616.42995453 0 -937151616.42995453 3437153925.6637192 0 0 0 0 351475431.17328608 2444564028.1097031 0 2444564028.1097031 2875343402.0725327 0 0 0 0 94108.123995996284 -242676.11669857893 0 -242676.11669857893 3899729.3318227082 0 0 0 0 -559164.26372632117 -2873838.5831290409 0 -2873838.5831290409 3764388.6991506442 0 0 0 0 1583720828.480931 -1985088627.6139603 0 -1985088627.6139603 1659094798.938858 0 0 0 0 22920609.924887925 399508814.7902832 0 399508814.7902832 305677573.48641968 0 0 0 0 628536131.49770284 -761215315.60393524 0 -761215315.60393524 128716768.26164246 0 0 0 0 1234558337.8021235 -354077878.93265533 0 -354077878.93265533 2523227614.0510063 0 0 0 0 59632433.419442557 -243700488.15674305 0 -243700488.15674305 2457739519.2639217 0 0 0 0 573970430.57795656 362388355.20005 0 362388355.20005 1707700556.7954216 0 0 0 0 434595458.99512297 46996903.625368118 0 46996903.625368118 1482080547.0838928 0 0 0 0 510825761.6224547 -10904724.998795629 0 -10904724.998795629 2861227894.6141243 0 0 0 0 530065099.48804808 1312758654.323637 0 1312758654.323637 2182018898.501112 0 0 0 0 1863452544.6085153 -1389800812.5621881 0 -1389800812.5621881 1330875775.0947704 0 0 0 0 740172283.84074521 -662346183.81339264 0 -662346183.81339264 2635912357.7068672 0 0 0 0 1704248701.0229573 1171317590.987093 0 1171317590.987093 1758558456.7940025 0 0 0 0 2138726766.6769173 332701684.39730883 0 332701684.39730883 2318222416.0522881 0 0 0 0 823160200.81543124 1071229058.040225 0 1071229058.040225 3465740695.0057793 0 0 0 0 756918562.88352752 702475373.627244 0 702475373.627244 2282903344.8350143 0 0 0 0 678875681.64425087 397491775.79494953 0 397491775.79494953 3463825749.8483887 0 0 0 0 400608366.95445251 109514202.12869644 0 109514202.12869644 2816743872.1160774 0 0 0 0 -25983676.793215059 -3634435.4497032166 0 -3634435.4497032166 3464874564.0767975 0 0 0 0 355308200.00913936 -62577526.572709084 0 -62577526.572709084 2835707339.3190708 0 0 0 0 -161187726.33925599 -319854893.79758263 0 -319854893.79758263 2725613649.0069904 0 0 0 0 -416492036.05284339 -469575985.84634972 0 -469575985.84634972 3464170771.7229385 0 0 0 0 -44852102.607265547 -581703167.12285423 0 -581703167.12285423 2203781884.9315739 0 0 0 0 177453550.15249947 -165254843.84561539 0 -165254843.84561539 2776156007.4018693 0 0 0 0 -829121025.23721242 -1116809712.4458537 0 -1116809712.4458537 3465366425.821332 0 0 0 0 -591985548.69163251 -882546009.3645196 0 -882546009.3645196 2600007302.4559212 0 0 0 0 -618050590.7419188 -499001081.04077339 0 -499001081.04077339 2643858784.2727432 0 0 0 0 -310775728.57879573 -841936871.21478319 0 -841936871.21478319 1213783410.3939247 0 0 0 0 -565303.08194875973 143910.05335585587 0 143910.05335585587 2274840.5304186158 0 0 0 0 -1010116786.1061573 1424634004.6379309 0 1424634004.6379309 542498225.7707417 0 0 0 0 -690215889.44712532 494950840.8362453 0 494950840.8362453 2856845485.5452099 0 0 0 0 407898276.43212628 1132751760.3055592 0 1132751760.3055592 1765697018.2247238 0 0 0 0 590942375.95215654 323401346.93819714 0 323401346.93819714 9093735.0018100739 0 0 0 0 -111231286.55306554 218846689.97664452 0 218846689.97664452 2046776025.531311 0 0 0 0 574698582.44533491 -1321828629.6415782 0 -1321828629.6415782 2243531511.8225651 0 0 0 0 12188487.63295684 136834944.32928658 0 136834944.32928658 2393172081.6567268 0 0 0 0 -942428.54006460344 -282693.09036987042 0 -282693.09036987042 3174269.9669986088 0 0 0 0 -615876984.95802915 -756784524.55973959 0 -756784524.55973959 883048763.98555756 0 0 0 0 -479494475.66404116 -932545660.70814037 0 -932545660.70814037 -415173370.00542068 0 0 0 0 406884568.92061591 -111448074.0232811 0 -111448074.0232811 584797242.15359879 0 0 0 0 -485752779.4145568 -336269968.80546188 0 -336269968.80546188 2010371841.0414619 0 0 0 0 195602810.33995903 92840237.439771652 0 92840237.439771652 765405997.80436707 0 0 0 0 558228566.73024678 387650350.3830719 0 387650350.3830719 390206151.71141624 0 0 0 0 157293688.18253696 417639003.40979385 0 417639003.40979385 601953777.99969864 0 0 0 0 474327774.82319617 414057131.91442299 0 414057131.91442299 474172347.68878746 0 0 0 0 9135119.1906263828 529919266.57438469 0 529919266.57438469 454667812.2641716 0 0 0 0 980420.4851911068 279932926.30298233 0 279932926.30298233 21001160.677377701 0 0 0 0 163411637.6262776 340388011.12953949 0 340388011.12953949 200362542.44699478 0 0 0 0 -256112503.41713327 93583472.380733967 0 93583472.380733967 188657226.20766449 0 0 0 0 -286600444.06765771 310586220.39638901 0 310586220.39638901 399615207.19798279 0 0 0 0 195674985.10927933 90125410.776865751 0 90125410.776865751 -160547857.29388428 0 0 0 0 -774156450.98560107 -202524463.03179944 0 -202524463.03179944 178844384.74190903 0 0 0 0 -1913788.7553805739 -39299.968944700435 0 -39299.968944700435 5603379.6626918418 0 0 0 0 -739089372.14181662 261181419.06374741 0 261181419.06374741 339196622.29797554 0 0 0 0 17778807.936097927 354422279.64063013 0 354422279.64063013 5967377.529914856 0 0 0 0 38911110.521948814 -273774562.66996288 0 -273774562.66996288 279439468.35956907 0 0 0 0 -464897293.08836174 -48000359.765922546 0 -48000359.765922546 -75888437.811185837 0 0 0 0 -354599995.9222641 176612574.88721085 0 176612574.88721085 -52339239.549768925 0 0 0 0 -486464556.58046627 196724233.21302032 0 196724233.21302032 314651600.02847862 0 0 0 0 -316954804.98021412 123921431.92652988 0 123921431.92652988 -6351825.8649787903 0 0 0 0 374889726.86816168 668663832.63597012 0 668663832.63597012 -152538258.99425316 0 0 0 0 838582.58726081252 584278.29807709437 0 584278.29807709437 239616.16572249029 0 0 0 0 2633730.4201874733 165694124.88027334 0 165694124.88027334 279549918.64772415 0 0 0 0 -553963.12445124052 -1134.4449494832661 0 -1134.4449494832661 1264344.7768933158 0 0 0 0 1084135.2758927727 1531680.1325026844 0 1531680.1325026844 1636709.3212198969 0 0 0 0 -30672930.589497566 -118753437.34945202 0 -118753437.34945202 177460105.09389305 0 0 0 0 9466267.3207483292 26214834.785261154 0 26214834.785261154 104392821.5191431 0 0 0 0 -1128503342.2732134 15163349.441919327 0 15163349.441919327 285996065.59292603 0 0 0 0 -237759828.55954695 -373913835.59346056 0 -373913835.59346056 -329163162.59154129 0 0 0 0 8551848.340321064 520705699.51112175 0 520705699.51112175 407290320.34171677 0 0 0 0 -956382232.97819901 910907440.38046646 0 910907440.38046646 3218113.8113183975 0 0 0 0 118295649.55141306 755884507.3259697 0 755884507.3259697 -805998876.53792191 0 0 0 0 146354593.35310483 138190144.4757762 0 138190144.4757762 1298332845.8387527 0 0 0 0 80315454.92019248 -111746990.1825676 0 -111746990.1825676 373015884.53523636 0 0 0 0 569629596.44667506 710319476.3080759 0 710319476.3080759 793520772.71152878 0 0 0 0 273988596.38368416 801911237.51132011 0 801911237.51132011 654103390.50536776 0 0 0 0 378526522.36204958 634859606.66232491 0 634859606.66232491 919648967.27626038 0 0 0 0 -1623228.7822656909 -314700.78318569344 0 -314700.78318569344 1200813.5740070115 0 0 0 0 486706558.24950892 252732854.8490932 0 252732854.8490932 744836024.65985107 0 0 0 0 397530760.63036138 559889314.65807343 0 559889314.65807343 -6833166.530380249 0 0 0 0 -5636429.1702225208 904049297.09986687 0 904049297.09986687 647984320.77698612 0 0 0 0 179620238.48992026 751012626.87692451 0 751012626.87692451 722287475.83684158 0 0 0 0 405725520.15818614 639554257.06760025 0 639554257.06760025 581229423.12193298 0 0 0 0 211184919.99300188 631758586.10383606 0 631758586.10383606 675692057.07649612 0 0 0 0 184251777.30849135 534259544.80490398 0 534259544.80490398 322743370.1071434 0 0 0 0 200837719.29584479 985613610.54785347 0 985613610.54785347 600984271.01020908 0 0 0 0 127007973.94122589 873874086.42419863 0 873874086.42419863 435494586.86461258 0 0 0 0 -103029988.22811107 129768930.70449972 0 129768930.70449972 -85245521.933551788 0 0 0 0 -89658232.05411756 174783211.24315834 0 174783211.24315834 -201750729.7444725 0 0 0 0 -220617294.48591375 223502833.48553658 0 223502833.48553658 -91592169.607978821 0 0 0 0 -84749981.806070566 129835026.237957 0 129835026.237957 -95527787.595449448 0 0 0 0 -85178282.225325346 89623458.260259628 0 89623458.260259628 -21911588.895200729 0 0 0 0 -97239090.909244433 51342909.66876471 0 51342909.66876471 38488878.88079834 0 0 0 0 -93207502.446295932 87795609.404288411 0 87795609.404288411 -15468846.732536316 0 0 0 0 -30740903.338498421 11108159.817777872 0 11108159.817777872 -17213181.420665741 0 0 0 0 -34706799.309464261 45957640.104703903 0 45957640.104703903 -85072489.826396942 0 0 0 0 -11549210.392922092 6319407.2783704326 0 6319407.2783704326 7504081.917503343 0 0 0 0 -25783977.561188459 -7233222.3078899384 0 -7233222.3078899384 -13922893.428607941 0 0 0 0 789006.70669877902 -1905768.8798229694 0 -1905768.8798229694 -45901238.545585632 0 0 0 0 -80719641.004678726 47313861.178610802 0 47313861.178610802 -50918324.6908741 0 0 0 0 -9020933.0790278539 290817.84529425157 0 290817.84529425157 5611319.7929978687 0 0 0 0 14598354.76335144 51593788.141750336 0 51593788.141750336 12078786.411261559 0 0 0 0 -7379519.5845147371 60105468.347834587 0 60105468.347834587 -143830789.62460136 0 0 0 0 -109094037.64852619 -99481338.802126169 0 -99481338.802126169 -22453658.126111984 0 0 0 0 373930.42328739166 -20030037.529466629 0 -20030037.529466629 -264480821.48363876 0 0 0 0 12925182.464987278 78516323.352500916 0 78516323.352500916 -668947046.32752609 0 0 0 0 -463643102.59577751 864921827.33847809 0 864921827.33847809 -912436504.31804657 0 0 0 0 -1023653520.4030666 273427101.31677818 0 273427101.31677818 -151238900.58999515 0 0 0 0 -70440237.973945618 424654787.16238213 0 424654787.16238213 -1232629321.6366062 0 0 0 0 -3160124.5830718554 -72866.378444531001 0 -72866.378444531001 1549191.512682047 0 0 0 0 -888223371.37825036 967088656.52186728 0 967088656.52186728 -427617405.06027222 0 0 0 0 -572745197.79126644 95621715.386048317 0 95621715.386048317 -1569900.5625839233 0 0 0 0 -772081788.15484715 600792267.8637867 0 600792267.8637867 78751504.662937164 0 0 0 0 -450128046.88305759 216835743.93737221 0 216835743.93737221 83033788.31818758 0 0 0 0 -151719953.50984383 248627814.27749634 0 248627814.27749634 -230307409.31502533 0 0 0 0 -163129646.85989285 232707259.6009388 0 232707259.6009388 -244502355.85867476 0 0 0 0 -279433517.63634872 410591353.23316193 0 410591353.23316193 -406209039.93179703 0 0 0 0 -282612866.12580681 389549145.82979584 0 389549145.82979584 -536038555.44195175 0 0 0 0 -473635366.21665382 271239636.08476925 0 271239636.08476925 -36684033.454530716 0 0 0 0 -274769372.94877911 325014299.18231201 0 325014299.18231201 -209877853.11270857 0 0 0 0 -324464423.0194155 223643235.79883766 0 223643235.79883766 -19284381.201890945 0 0 0 0 -251221593.71957266 281239663.12775898 0 281239663.12775898 -30598629.863594055 0 0 0 0 -332730725.87286234 233975682.28837252 0 233975682.28837252 -27493741.431434631 0 0 0 0 -369720060.72903824 113194418.92751408 0 113194418.92751408 -10723898.271487951 0 0 0 0 -407888471.55118418 201316128.9204731 0 201316128.9204731 -32294836.066596985 0 0 0 0 -1196715.3257892313 -457325.16038455628 0 -457325.16038455628 2158740.054170005 0 0 0 0 109891445.38216162 -377882909.49933529 0 -377882909.49933529 513393024.60822678 0 0 0 0 -326165889.2274189 209515218.22430992 0 209515218.22430992 -90597629.518100739 0 0 0 0 -398230739.80213165 524633802.85885811 0 524633802.85885811 -85957053.129899502 0 0 0 0 -378069.6809497443 52144.505091110244 0 52144.505091110244 971199.39525713492 0 0 0 0 -371700449.92763925 386003092.94745636 0 386003092.94745636 425557028.03341484 0 0 0 0 -244146183.60882896 236138499.27388477 0 236138499.27388477 79402658.196088791 0 0 0 0 -294920210.75858623 190776012.00246716 0 190776012.00246716 319543897.16601562 0 0 0 0 -215676246.93535465 278455177.63659 0 278455177.63659 74682148.561767578 0 0 0 0 -207569672.05111933 230158722.07670593 0 230158722.07670593 14841646.184742689 0 0 0 0 -150258819.2947551 167497271.80681038 0 167497271.80681038 4902868.1086177826 0 0 0 0 -179262269.73734802 200676072.84217036 0 200676072.84217036 -29847429.604644775 0 0 0 0 -177737241.84562898 229861434.49303436 0 229861434.49303436 -99046982.012093544 0 0 0 0 -159680899.54677951 151171159.8296051 0 151171159.8296051 38918309.405708313 0 0 0 0 -192430615.9017539 189096059.45945168 0 189096059.45945168 122444995.47091103 0 0 0 0 -165104437.26860833 141660408.19812202 0 141660408.19812202 55639455.019639969 0 0 0 0 -264676398.0709728 166400460.28012085 0 166400460.28012085 143689528.66645527 0 0 0 0 -287971248.4972955 160992146.7304889 0 160992146.7304889 148155902.04900932 0 0 0 0 -396615637.97906482 69404543.705043793 0 69404543.705043793 239772197.06215954 0 0 0 0 -316269994.5220902 2787625.1499662399 0 2787625.1499662399 159570557.37713337 0 0 0 0 -342995772.61522555 154874223.7807951 0 154874223.7807951 304448572.8922081 0 0 0 0 -290687335.85056245 -5891088.5237088203 0 -5891088.5237088203 763077265.29170418 0 0 0 0 -299329645.36849803 -76426809.989728928 0 -76426809.989728928 525701843.69561481 0 0 0 0 -199097085.8414501 -200990104.58842468 0 -200990104.58842468 298473128.31656837 0 0 0 0 -209030073.50218847 -282440064.30834484 0 -282440064.30834484 449156745.53042793 0 0 0 0 -185927545.96293014 -231825730.04223728 0 -231825730.04223728 139241443.50187302 0 0 0 0 -509909333.31495267 -323722852.83835685 0 -323722852.83835685 81622500.797668457 0 0 0 0 -483535381.99067456 -47365498.253110468 0 -47365498.253110468 77859201.444879532 0 0 0 0 -352579622.56112528 -139783664.18139291 0 -139783664.18139291 -96620186.319093704 0 0 0 0 -422776655.87678027 -90125585.206645966 0 -90125585.206645966 278089714.46252441 0 0 0 0 -204136504.16611713 17743576.963907003 0 17743576.963907003 1224288741.2516193 0 0 0 0 -107732463.49404621 -325189563.51041794 0 -325189563.51041794 1283083140.1261852 0 0 0 0 -173972633.58822441 -95896964.312706947 0 -95896964.312706947 537897944.18952465 0 0 0 0 -207163440.699628 -255812207.28273576 0 -255812207.28273576 754141290.15114403 0 0 0 0 -145351774.06091714 -577958174.35466671 0 -577958174.35466671 566266546.80939531 0 0 0 0 303187830.03291583 -355707591.95353854 0 -355707591.95353854 798584283.74788094 0 0 0 0 -784200977.83763075 -451394355.36705637 0 -451394355.36705637 1866251657.8996162 0 0 0 0 94513805.577369452 -528718644.90469551 0 -528718644.90469551 850092489.76854074 0 0 0 0 -1785438.9147126218 -198343.84551690146 0 -198343.84551690146 5229845.9765004069 0 0 0 0 46541042.890654922 -381680632.32043552 0 -381680632.32043552 611889693.03325272 0 0 0 0 -2403315.0016644699 -1183623.8074716828 0 -1183623.8074716828 5256424.5705929035 0 0 0 0 754056532.4376241 -2167437831.7041306 0 -2167437831.7041306 3461148120.916873 0 0 0 0 -640222945.48427689 185677877.332973 0 185677877.332973 243126989.14573312 0 0 0 0 17665499.510909718 -1100504682.6495218 0 -1100504682.6495218 1925523940.0156443 0 0 0 0 -622649852.01173282 -269285441.91475344 0 -269285441.91475344 94107336.421422005 0 0 0 0 -526252194.32571554 242841463.75190735 0 242841463.75190735 -396416741.99015057 0 0 0 0 -730117721.43419337 24122019.760631561 0 24122019.760631561 -66407772.506489277 0 0 0 0 771769970.63917661 -616500514.77364445 0 -616500514.77364445 -431583790.20592767 0 0 0 0 -711185254.40171027 -524568166.31293869 0 -524568166.31293869 -544041284.58142376 0 0 0 0 -210548.98963064561 -242248.98906402197 0 -242248.98906402197 528744.62842908863 0 0 0 0 138616339.27647811 -338841392.7973547 0 -338841392.7973547 3179990.7777233124 0 0 0 0 68211397.317564607 -517875690.74091625 0 -517875690.74091625 128000230.41178226 0 0 0 0 -38053716.80760026 -667427912.80811024 0 -667427912.80811024 608741316.73811436 0 0 0 0 50798841.942890584 -503727456.74999762 0 -503727456.74999762 124739872.95508194 0 0 0 0 786394109.00615525 -1248999538.2788181 0 -1248999538.2788181 166973770.98475754 0 0 0 0 -307854076.57499957 -2000875550.0853853 0 -2000875550.0853853 3447807037.9541869 0 0 0 0 -802233176.35326421 -317341730.28119183 0 -317341730.28119183 987757979.2761631 0 0 0 0 -555814952.83449733 -849904317.18559098 0 -849904317.18559098 2136225003.1011343 0 0 0 0 1157409928.3815472 -1115592158.4517753 0 -1115592158.4517753 619905339.37863541 0 0 0 0 -1327006.6114153413 2140991.5982623706 0 2140991.5982623706 5524591.4835555712 0 0 0 0 78669035.062190086 940297113.17448127 0 940297113.17448127 3458231550.9051428 0 0 0 0 -65422771.090703972 118175209.97707272 0 118175209.97707272 1936898890.6731474 0 0 0 0 -4288764.6911024339 1791103.7539665354 0 1791103.7539665354 7172284.8718654476 0 0 0 0 -15544083.39819622 -11083997.678089142 0 -11083997.678089142 30871626.091622353 0 0 0 0 -14268336.252173424 -400709.23268699646 0 -400709.23268699646 19753902.037297249 0 0 0 0 -15447111.057204366 -1671730.0558199883 0 -1671730.0558199883 50211956.051561356 0 0 0 0 -174001505.87232241 -357332945.25450253 0 -357332945.25450253 3465718185.225296 0 0 0 0 4182592.840294838 12536756.697320938 0 12536756.697320938 27876023.273886681 0 0 0 0 -2850563.4484353135 2349148.3066460355 0 2349148.3066460355 4791694.5644388543 0 0 0 0 -23369031.384239078 -481367430.04605103 0 -481367430.04605103 3170365477.0024557 0 0 0 0 165557358.49997517 -771054238.40417004 0 -771054238.40417004 3465949901.664238 0 0 0 0 -10070155.922165394 -34042578.598545074 0 -34042578.598545074 95746318.133026123 0 0 0 0 -17300128.981230736 -22780844.721059799 0 -22780844.721059799 91527847.727212906 0 0 0 0 396565.10583252786 1141108.5553463269 0 1141108.5553463269 -317947.0375736251 0 0 0 0 18902046.709144115 -39530022.025781631 0 -39530022.025781631 90080215.315307617 0 0 0 0 49118083.829910278 -30244204.896526337 0 -30244204.896526337 47752673.708301544 0 0 0 0 15693547.287707806 -35647577.654682636 0 -35647577.654682636 35114746.265532494 0 0 0 0 17529335.036130905 -1575367.3128204346 0 -1575367.3128204346 216624.96671998501 0 0 0 0 2045153.7464224475 -6356373.5961046321 0 -6356373.5961046321 -1297758.2473601839 0 0 0 0 -61738.090270042419 -34768586.293756843 0 -34768586.293756843 43813589.64182663 0 0 0 0 10016997.072922707 -26261088.150344849 0 -26261088.150344849 29067378.527299881 0 0 0 0 221820.02906417847 -14776801.807420254 0 -14776801.807420254 7701897.3371171951 0 0 0 0 2298719.7641765773 -5063004.8010066422 0 -5063004.8010066422 -3698025.8147906661 0 0 0 0 92616.555802345276 -18734221.428592205 0 -18734221.428592205 9137378.0431506634 0 0 0 0 1226109.106340548 -7738862.4515089784 0 -7738862.4515089784 11551492.922185175 0 0 0 0 -337596207.55475128 55716032.552607059 0 55716032.552607059 38889758.072906494 0 0 0 0 -395692052.83251476 -11845366.653369427 0 -11845366.653369427 89163184.657587051 0 0 0 0 536378.71668328554 -7280599.1118789436 0 -7280599.1118789436 12957397.341628555 0 0 0 0 -274090128.36751294 37251577.336994171 0 37251577.336994171 542174298.06498981 0 0 0 0 -395091440.46406233 108090197.98664856 0 108090197.98664856 971905847.52092361 0 0 0 0 -278121001.18088591 214942801.50156212 0 214942801.50156212 1004062404.2556534 0 0 0 0 -842408600.30679715 398159557.69388032 0 398159557.69388032 3466819526.6026726 0 0 0 0 -601631618.09192502 -319256694.92016888 0 -319256694.92016888 2594129278.5619888 0 0 0 0 -790703188.16516364 392463849.25873423 0 392463849.25873423 1942567839.3659897 0 0 0 0 -299658562.57012296 528379823.49814224 0 528379823.49814224 1956970574.743001 0 0 0 0 -446739362.73342955 1465090434.923254 0 1465090434.923254 3457593792.2022934 0 0 0 0 -19696491.639436454 -24354571.693335533 0 -24354571.693335533 4652780.2496376038 0 0 0 0 761705391.67523289 670351634.67490005 0 670351634.67490005 330167896.04050446 0 0 0 0 200449964.14726651 288771975.41471481 0 288771975.41471481 252273202.04727554 0 0 0 0 21048328.947039545 -115574148.05004692 0 -115574148.05004692 147137704.16042423 0 0 0 0 -47425926.691525459 -142948875.15718555 0 -142948875.15718555 179057263.22402573 0 0 0 0 4449210.6685347557 -23728934.713184357 0 -23728934.713184357 34065911.737270355 0 0 0 0 -1185883.2877934687 -1958995.4380717045 0 -1958995.4380717045 1925351.2490428481 0 0 0 0 -174123804.02531189 625460386.10287476 0 625460386.10287476 3462301031.8601303 0 0 0 0 1186496348.1668804 936590847.17215252 0 936590847.17215252 457942314.50807381 0 0 0 0 1802678.9344394265 -115099.63055251446 0 -115099.63055251446 3820535.5643084366 0 0 0 0 -219518486.97275341 -535823847.50942993 0 -535823847.50942993 3116091396.4116392 0 0 0 0 -1057268.7861771844 1059266.048813819 0 1059266.048813819 1968550.058619332 0 0 0 0 246093553.33775467 -26076265.083126068 0 -26076265.083126068 49150137.38772583 0 0 0 0 73280064.236700192 -71170373.654519081 0 -71170373.654519081 97688388.010075569 0 0 0 0 96887724.151738703 -508262098.23497009 0 -508262098.23497009 3759729407.5524235 0 0 0 0 1874627.3628846665 2031092.594263114 0 2031092.594263114 8956940.5535834655 0 0 0 0 -20763866.250090599 380575.21167564392 0 380575.21167564392 24402695.555913925 0 0 0 0 24481527.472885784 -19404899.040835619 0 -19404899.040835619 52611258.45614624 0 0 0 0 2500697.638645689 -8755906.2590326555 0 -8755906.2590326555 2652459.5054208748 0 0 0 0 -1488600.9128403664 -10499333.132764101 0 -10499333.132764101 29246472.533669472 0 0 0 0 5948287.7980049849 -18216474.062556744 0 -18216474.062556744 29377632.659664154 0 0 0 0 -55189637.574099779 41835306.484596252 0 41835306.484596252 30237490.031417847 0 0 0 0 -70889095.303390265 22084306.715431213 0 22084306.715431213 18985375.706978798 0 0 0 0 -6285926.3759535262 581307.37914898107 0 581307.37914898107 22404353.311197497 0 0 0 0 -67311936.276710033 79642472.785842896 0 79642472.785842896 -81067191.675311565 0 0 0 0 -2871477.589856036 -2450232.8760033492 0 -2450232.8760033492 6758217.0476310831 0 0 0 0 -139315045.28298664 66415996.91336441 0 66415996.91336441 70293799.018638611 0 0 0 0 -42319635.808871269 -49756017.104188919 0 -49756017.104188919 134055571.17815399 0 0 0 0 441886823.75830221 -469364260.90100098 0 -469364260.90100098 332903285.64749146 0 0 0 0 20110999.666644096 -135039875.00242043 0 -135039875.00242043 473152848.82680511 0 0 0 0 213265366.5641284 -401629162.59737778 0 -401629162.59737778 485859000.87828827 0 0 0 0 -414122524.32164431 278953891.38687897 0 278953891.38687897 -541930911.38394165 0 0 0 0 -857912.23415310727 -534109.17597180791 0 -534109.17597180791 2007725.6651697638 0 0 0 0 -324083613.28228039 411449104.3024044 0 411449104.3024044 -361411976.8936882 0 0 0 0 -513976.23569057381 -138418.4788136147 0 -138418.4788136147 1142615.8011440337 0 0 0 0 -94021288.06989193 -124175382.2418251 0 -124175382.2418251 -140109923.16720963 0 0 0 0 -397122583.82688212 461950361.08099747 0 461950361.08099747 -521034965.73776245 0 0 0 0 -602675096.56668139 100039571.91739655 0 100039571.91739655 539155912.16965747 0 0 0 0 35873144.229151011 -14315941.149721146 0 -14315941.149721146 84305595.05431366 0 0 0 0 27225384.497321039 -111159682.53871071 0 -111159682.53871071 76808409.352630615 0 0 0 0 1173876.6774356458 -3182806.9048741776 0 -3182806.9048741776 1096294.8419581563 0 0 0 0 7844636.5625860691 -38796008.82450676 0 -38796008.82450676 -31107027.012029648 0 0 0 0 7492595.3019814491 -35298464.078166962 0 -35298464.078166962 31573806.987096786 0 0 0 0 -12794428.122276902 -27927629.110012054 0 -27927629.110012054 34099578.874271393 0 0 0 0 -38887594.627123833 -21405862.112901688 0 -21405862.112901688 57712709.045898438 0 0 0 0 -5708457.4018328618 2490143.0318544242 0 2490143.0318544242 21854255.414102308 0 0 0 0 -51879561.873827934 5651828.8294343948 0 5651828.8294343948 38035737.434383869 0 0 0 0 -58423165.275249243 18119166.308700562 0 18119166.308700562 27118573.441146851 0 0 0 0 758455.40783572197 -14203421.760990143 0 -14203421.760990143 24681746.247570038 0 0 0 0 -106824842.09902859 -249531562.14538908 0 -249531562.14538908 855295427.2678833 0 0 0 0 -96259764.77256012 -197775417.84176397 0 -197775417.84176397 1069142399.2852621 0 0 0 0 -125303945.96051186 -52888543.296391964 0 -52888543.296391964 744599461.77408123 0 0 0 0 -124058.1586939313 -3233537.5347683048 0 -3233537.5347683048 2376013.3690440762 0 0 0 0 153789419.29999596 -237705730.6364193 0 -237705730.6364193 673214794.85726357 0 0 0 0 -210639941.75831133 -181328993.19772315 0 -181328993.19772315 1199617750.6301899 0 0 0 0 56221877.535340607 -160229582.94940853 0 -160229582.94940853 1116386449.3762274 0 0 0 0 -30345012.368996561 -445585744.79079175 0 -445585744.79079175 1730027741.0864067 0 0 0 0 482342537.77452207 -692904646.37488651 0 -692904646.37488651 1800064057.3375931 0 0 0 0 -281255113.03909159 209340482.78885746 0 209340482.78885746 1768491058.6260872 0 0 0 0 -160583224.17100102 -526262735.48594308 0 -526262735.48594308 609084858.37948799 0 0 0 0 126388059.9322449 548841645.62943172 0 548841645.62943172 148018699.61244106 0 0 0 0 265177075.23307514 -3510432.0871829987 0 -3510432.0871829987 91037268.698856354 0 0 0 0 48860514.309816837 -155530978.08241844 0 -155530978.08241844 352407656.21612549 0 0 0 0 -94849442.780085564 46724627.503822327 0 46724627.503822327 408995227.94048214 0 0 0 0 28839028.874121189 -26929410.766541481 0 -26929410.766541481 326496004.18048286 0 0 0 0 47800796.480463505 -19255658.78331089 0 -19255658.78331089 26998208.404785156 0 0 0 0 57549154.843114376 18342249.441591263 0 18342249.441591263 94232483.481286764 0 0 0 0 86362489.656614304 -53106936.01568222 0 -53106936.01568222 49366845.573947906 0 0 0 0 -44034970.292075634 -29435175.263023376 0 -29435175.263023376 124347137.12407684 0 0 0 0 -40823298.500315666 -49883936.055223465 0 -49883936.055223465 162969097.77619171 0 0 0 0 -86990626.685213566 30524976.813991547 0 30524976.813991547 62639122.038104057 0 0 0 0 -88538921.675983906 12789210.474178314 0 12789210.474178314 85721364.786235809 0 0 0 0 -181258871.53685614 101350156.59893179 0 101350156.59893179 112726378.49617386 0 0 0 0 -154400859.54349637 67567280.885133743 0 67567280.885133743 155217753.081707 0 0 0 0 -25055882.377760887 -31428825.88835144 0 -31428825.88835144 153162517.06202888 0 0 0 0 -168030936.32534122 51404657.936729431 0 51404657.936729431 166915182.14768887 0 0 0 0 -103879440.18859816 -32574071.766328812 0 -32574071.766328812 266815712.41139984 0 0 0 0 -114385512.3677187 141752188.19355011 0 141752188.19355011 14651525.162549973 0 0 0 0 -188400436.21474314 17464069.790779114 0 17464069.790779114 -5442935.3960113525 0 0 0 0 -107536924.5287118 102145455.4414978 0 102145455.4414978 195376165.70607948 0 0 0 0 -300366249.59265417 70862042.750266552 0 70862042.750266552 111265230.40924454 0 0 0 0 -184813790.18769026 23717876.713666916 0 23717876.713666916 124025212.55653763 0 0 0 0 -202383602.18437004 125212792.98647308 0 125212792.98647308 141078791.53084803 0 0 0 0 56926362.304690361 -41225622.886645317 0 -41225622.886645317 34469082.399129868 0 0 0 0 158390475.6830163 -125313953.81210661 0 -125313953.81210661 55921138.897192001 0 0 0 0 101520725.49850368 122708485.33854866 0 122708485.33854866 192627088.70071411 0 0 0 0 1767072.8292501741 -1677262.8745292246 0 -1677262.8745292246 -1270096.0513195153 0 0 0 0 1083.3691983723547 -329839.20092061814 0 -329839.20092061814 646304.59412515163 0 0 0 0 20849909.509094477 -72345115.268111229 0 -72345115.268111229 92885162.244480133 0 0 0 0 33362052.909837365 -23856747.5644207 0 -23856747.5644207 67188133.118583679 0 0 0 0 -29114226.793247223 -37686151.097402573 0 -37686151.097402573 59243010.174726486 0 0 0 0 -76387726.025623322 59740315.781298637 0 59740315.781298637 41429923.797146797 0 0 0 0 -35081918.880109787 39616702.46437645 0 39616702.46437645 9957786.4068117142 0 0 0 0 -25752296.654466629 9730782.1216011047 0 9730782.1216011047 145751465.81229973 0 0 0 0 -15567044.785317898 8529786.3941512108 0 8529786.3941512108 37508160.313777924 0 0 0 0 38815014.602572918 75114927.719846725 0 75114927.719846725 34741052.353069305 0 0 0 0 -73122525.082482815 35490153.745471001 0 35490153.745471001 58042904.606928349 0 0 0 0 -529361.65040826797 22787976.10471344 0 22787976.10471344 -27945265.378767014 0 0 0 0 -8136929.6506094504 5815194.5589859914 0 5815194.5589859914 12507811.786845028 0 0 0 0 -619048.66866970062 71744186.98658371 0 71744186.98658371 -61014590.555160522 0 0 0 0 108023491.14435196 -278218551.57296848 0 -278218551.57296848 644697090.83422995 0 0 0 0 -6888561.9201680198 4286401.418111369 0 4286401.418111369 21657438.92248496 0 0 0 0 -1865811.612689516 -3670238.0913260765 0 -3670238.0913260765 5188736.2524676481 0 0 0 0 -18568799.631848335 -1378299.4807500839 0 -1378299.4807500839 36642550.285604477 0 0 0 0 -149047.10682222247 33938.30796644371 0 33938.30796644371 -33505.213047392666 0 0 0 0 -37927619.508497238 -397854249.96829581 0 -397854249.96829581 1124283996.3017378 0 0 0 0 167152954.17035866 -452698671.60780525 0 -452698671.60780525 673179220.93543243 0 0 0 0 122426951.78895569 -253336605.92478943 0 -253336605.92478943 593258089.72010422 0 0 0 0 -4380758.2530927658 394467.04777216911 0 394467.04777216911 212388840.28913975 0 0 0 0 425031510.02134323 -242000121.63632393 0 -242000121.63632393 204687067.30212212 0 0 0 0 -41195585.752494812 -159577687.25937748 0 -159577687.25937748 484683909.90411663 0 0 0 0 541681437.60834122 -825891299.65786457 0 -825891299.65786457 910039081.97166157 0 0 0 0 -10017098.456035685 6633512.5134441862 0 6633512.5134441862 9292100.7528812196 0 0 0 0 229925348.74223518 -201169676.33612013 0 -201169676.33612013 -84519185.497295856 0 0 0 0 -87135655.803602219 10673682.35588789 0 10673682.35588789 83496319.513217926 0 0 0 0 -106060441.19094086 9792336.8233709335 0 9792336.8233709335 96924132.005937576 0 0 0 0 23388788.40471518 16086253.880843163 0 16086253.880843163 -79438837.530036926 0 0 0 0 -12309251.296826169 -16316267.318554997 0 -16316267.318554997 -30890541.688468933 0 0 0 0 59159080.780270576 19818714.377410889 0 19818714.377410889 -16783849.989315033 0 0 0 0 -4527689.2322223186 -14592699.085958481 0 -14592699.085958481 33185200.69725132 0 0 0 0 -27541163.270776033 6959678.6753730774 0 6959678.6753730774 -13295218.950626373 0 0 0 0 1973210.0375163555 -33321436.995193481 0 -33321436.995193481 24799446.661792755 0 0 0 0 -28129318.66688633 3456172.8976306915 0 3456172.8976306915 -16198030.95746994 0 0 0 0 -13317615.044408083 -4638570.1396160126 0 -4638570.1396160126 -18430705.575444221 0 0 0 0 -17945703.215398908 4782257.8658313751 0 4782257.8658313751 -30598962.079030991 0 0 0 0 5059713.854862974 -2664088.9969698354 0 -2664088.9969698354 4871755.4967209026 0 0 0 0 34298156.369041443 -40134575.5678339 0 -40134575.5678339 11642320.852427244 0 0 0 0 82294870.026669502 -70947247.268992901 0 -70947247.268992901 1266311413.4786348 0 0 0 0 15950085.338163376 -53633870.678145885 0 -53633870.678145885 1331782357.7462049 0 0 0 0 43501414.138096094 -59446426.790817499 0 -59446426.790817499 1268467108.9544406 0 0 0 0 1827111.2679929379 -141803.70236906246 0 -141803.70236906246 1457002.2210370186 0 0 0 0 83836985.747220993 32336764.839675665 0 32336764.839675665 1615062311.7290523 0 0 0 0 -65983154.210487366 -280971505.73091102 0 -280971505.73091102 2343295436.3263235 0 0 0 0 223683457.41832352 -112581996.39562029 0 -112581996.39562029 784677194.2166816 0 0 0 0 229034424.91485763 -383634772.82325327 0 -383634772.82325327 1226003048.6817472 0 0 0 0 208182167.14324552 -128006687.3137823 0 -128006687.3137823 1220701933.5200763 0 0 0 0 138803458.88039017 -6410647.6769164801 0 -6410647.6769164801 793467512.02464962 0 0 0 0 191259386.8676033 -180892875.37876117 0 -180892875.37876117 1182011273.159709 0 0 0 0 247039655.00738525 -115482461.2871902 0 -115482461.2871902 676571910.61438382 0 0 0 0 111029346.58369473 207991366.56319186 0 207991366.56319186 377263951.64473641 0 0 0 0 214720377.13933754 -101043898.12908578 0 -101043898.12908578 790702284.03455603 0 0 0 0 350126434.59057426 1858457.1552949548 0 1858457.1552949548 241618094.40629148 0 0 0 0 -441435716.47736198 -65137007.532082558 0 -65137007.532082558 458096832.94608498 0 0 0 0 955167.29935270455 3504571.1870269235 0 3504571.1870269235 4980101.3026230028 0 0 0 0 -60404342.280017562 396141417.92463899 0 396141417.92463899 -163271576.94566453 0 0 0 0 -69625902.421469688 -101866379.98780978 0 -101866379.98780978 226413303.16681457 0 0 0 0 146920789.37091637 102127768.79291654 0 102127768.79291654 365142991.12801743 0 0 0 0 -102763653.05700111 -176174010.43885112 0 -176174010.43885112 150246900.91004264 0 0 0 0 23988019.689444065 -85622825.821964622 0 -85622825.821964622 795307984.20225143 0 0 0 0 -206792137.77431393 -156201355.19601583 0 -156201355.19601583 773999534.02062058 0 0 0 0 -75290603.98300457 -169952678.04117346 0 -169952678.04117346 1192858992.6946301 0 0 0 0 -47485700.517608643 -168881695.54803419 0 -168881695.54803419 748516915.90726113 0 0 0 0 457291450.35454369 -234184567.69713545 0 -234184567.69713545 722475021.64285719 0 0 0 0 458735188.68812943 -693207241.91918135 0 -693207241.91918135 1545677627.0844667 0 0 0 0 575199963.928496 -142969383.24343967 0 -142969383.24343967 1127361266.8016663 0 0 0 0 -97160135.912548065 -313127993.31986868 0 -313127993.31986868 1073797495.9824181 0 0 0 0 -139031099.84328365 -280553690.69797945 0 -280553690.69797945 1609034279.2884769 0 0 0 0 -206290513.66730404 -259642771.32679939 0 -259642771.32679939 1151480722.8849487 0 0 0 0 -176240495.15258217 -157509828.45632124 0 -157509828.45632124 833359510.60194349 0 0 0 0 -104444613.14214706 -309092870.97617483 0 -309092870.97617483 1012390399.7102692 0 0 0 0 -11122142.68396382 -255789005.43240738 0 -255789005.43240738 819272107.55339241 0 0 0 0 1126725.6031929604 2355702.7521771002 0 2355702.7521771002 3619519.4934281423 0 0 0 0 -53505579.204726726 -264546023.82908159 0 -264546023.82908159 820592579.11128426 0 0 0 0 -7928855.8692646027 1520052.6552791595 0 1520052.6552791595 274671937.13915896 0 0 0 0 -46163304.090394258 -308667685.54223752 0 -308667685.54223752 692662996.95623112 0 0 0 0 508639301.94064021 -941182011.86298752 0 -941182011.86298752 -108112127.61150265 0 0 0 0 197033339.28942814 -864504032.88854027 0 -864504032.88854027 1692585461.5577528 0 0 0 0 -39708.564116853056 564108.09610355878 0 564108.09610355878 1523871.3233911349 0 0 0 0 300715277.93281209 -595724340.25368357 0 -595724340.25368357 1186825934.2922893 0 0 0 0 395072549.1625526 -206363593.52154732 0 -206363593.52154732 -334124477.98804188 0 0 0 0 439336750.95562732 -9569007.4743900299 0 -9569007.4743900299 -197775712.61675644 0 0 0 0 -286789.37896464358 648992.60830489604 0 648992.60830489604 6296507.4853219874 0 0 0 0 -648964994.07878339 72848756.659108639 0 72848756.659108639 189336033.59957695 0 0 0 0 -161983613.50705528 268329903.55173397 0 268329903.55173397 40917942.386799455 0 0 0 0 -146639409.10217738 -185871171.93549013 0 -185871171.93549013 -82776456.428897858 0 0 0 0 -53241094.264769554 -39732633.588529587 0 -39732633.588529587 -131692034.02571154 0 0 0 0 -50234796.31649901 -101533366.96209764 0 -101533366.96209764 933923515.81283569 0 0 0 0 -596188617.73341525 34356924.998608589 0 34356924.998608589 318907833.24799538 0 0 0 0 -200647.19047129437 812811.63121308782 0 812811.63121308782 4818117.8829447739 0 0 0 0 717782350.05839396 1175146343.2371268 0 1175146343.2371268 -119996056.73836803 0 0 0 0 1859204.9491670169 4004526.5008848859 0 4004526.5008848859 5221178.5468313489 0 0 0 0 -243957967.55086803 215946783.45416248 0 215946783.45416248 317303526.92800796 0 0 0 0 288420777.61852551 -629142412.50850201 0 -629142412.50850201 -31976906.035490513 0 0 0 0 539551135.84459972 625334101.31982422 0 625334101.31982422 514686135.78337097 0 0 0 0 280832.11716821417 880088.4579467494 0 880088.4579467494 3262899.7686016876 0 0 0 0 985985200.34992766 334631229.91867971 0 334631229.91867971 64762022.867340088 0 0 0 0 -569802611.75979233 -464371690.89638519 0 -464371690.89638519 813846958.26246548 0 0 0 0 111836776.4617243 -488630907.28325474 0 -488630907.28325474 425456928.31891632 0 0 0 0 -306497425.7333762 -38602322.567552805 0 -38602322.567552805 63817487.095016479 0 0 0 0 411085844.85409057 454827624.97037959 0 454827624.97037959 99019855.548660278 0 0 0 0 473019576.80003405 91525306.126391411 0 91525306.126391411 -14919729.607555389 0 0 0 0 115372426.60902214 44444478.780303955 0 44444478.780303955 8018459.0439167023 0 0 0 0 40789077.5433321 92501124.617925644 0 92501124.617925644 113934186.88874626 0 0 0 0 -476277820.26895249 69460526.399097323 0 69460526.399097323 278104886.63299847 0 0 0 0 1086462.0673378105 3562226.8988758367 0 3562226.8988758367 8711917.6694872342 0 0 0 0 74572683.085407257 24336005.955681801 0 24336005.955681801 19464772.324523926 0 0 0 0 10513275.806241989 66063612.919281006 0 66063612.919281006 -9732334.0306663513 0 0 0 0 -996183.08454795135 -147762.3512104582 0 -147762.3512104582 1346831.5713648479 0 0 0 0 -275089868.5028795 113487642.56339312 0 113487642.56339312 -183311589.77066636 0 0 0 0 101398616.27380943 202578088.63174057 0 202578088.63174057 -81912397.382911682 0 0 0 0 134478400.02630234 442042850.99328232 0 442042850.99328232 71084428.456775665 0 0 0 0 108491818.32034492 357335130.61393452 0 357335130.61393452 348122705.23847389 0 0 0 0 -7627032.1556651592 45167319.108007431 0 45167319.108007431 803901673.75069618 0 0 0 0 115780947.84973097 177428968.40330505 0 177428968.40330505 311746477.6924057 0 0 0 0 155311877.74300313 383978553.95545769 0 383978553.95545769 141085135.11967659 0 0 0 0 3333.1440478500044 596175.45280204399 0 596175.45280204399 1858348.1638039723 0 0 0 0 27497758.405889809 493039303.3964138 0 493039303.3964138 378786325.97979164 0 0 0 0 151016707.85952657 -238911777.67804098 0 -238911777.67804098 387185723.92759705 0 0 0 0 -89440122.461320639 472067519.53801394 0 472067519.53801394 924746832.92188644 0 0 0 0 487094016.96253502 -235375139.98843431 0 -235375139.98843431 42726800.255565643 0 0 0 0 38619030.248252869 151444778.34945107 0 151444778.34945107 -140002914.778965 0 0 0 0 -3935187.1072299182 33759164.177150965 0 33759164.177150965 157847710.70598602 0 0 0 0 48331916.949229717 -47035907.057010651 0 -47035907.057010651 202627654.08199024 0 0 0 0 -103905867.21895671 51964449.941175461 0 51964449.941175461 -32246576.603464127 0 0 0 0 118763545.4797163 -106330727.2014389 0 -106330727.2014389 56173213.507888794 0 0 0 0 1558116.1414132118 -540918.11238861084 0 -540918.11238861084 -7829468.5144863129 0 0 0 0 83301414.486174583 -18406026.318504333 0 -18406026.318504333 -49252586.714214325 0 0 0 0 195701571.10485852 -22543091.226277351 0 -22543091.226277351 -86981254.135982513 0 0 0 0 53172522.98169513 85146523.795698166 0 85146523.795698166 125196522.45440674 0 0 0 0 1039196.3986887214 1359439.3868207289 0 1359439.3868207289 -1801393.8612644542 0 0 0 0 -189727660.79262275 174633303.78106499 0 174633303.78106499 -17783188.512933731 0 0 0 0 5621886.9306259155 14000313.747195244 0 14000313.747195244 -10195740.332511902 0 0 0 0 2736084.207203845 4674324.6947028432 0 4674324.6947028432 -400514.14014894888 0 0 0 0 12796956.958096027 -30026579.388738632 0 -30026579.388738632 46920484.984470367 0 0 0 0 23533114.739537239 -30250511.368673325 0 -30250511.368673325 17342492.676628113 0 0 0 0 13640069.40319562 -41125498.731806755 0 -41125498.731806755 107561019.88703918 0 0 0 0 61295920.060957909 -68628058.419448853 0 -68628058.419448853 49207038.649705887 0 0 0 0 10634841.11857675 43768736.181283019 0 43768736.181283019 95447386.762622833 0 0 0 0 54278652.879635096 -46888766.947610378 0 -46888766.947610378 51017657.31703949 0 0 0 0 868254.5581133815 730438.52964804601 0 730438.52964804601 -803714.18804126419 0 0 0 0 61359546.694815636 -65189470.64488554 0 -65189470.64488554 20144186.659568787 0 0 0 0 36535789.013750076 -14965828.689632416 0 -14965828.689632416 28662880.939408302 0 0 0 0 55667668.144207239 -31404864.996016979 0 -31404864.996016979 3008949.7154045105 0 0 0 0 -2040774.0002098083 1828286.0441894531 0 1828286.0441894531 1004127.5015544891 0 0 0 0 405577.44390714169 35578838.77741915 0 35578838.77741915 -18255737.253936768 0 0 0 0 -301956996.39967489 476539817.7722289 0 476539817.7722289 -154464761.3417781 0 0 0 0 3075498.5827460266 5644090.6359022288 0 5644090.6359022288 10368616.39791117 0 0 0 0 -384455194.49741197 232192508.21037811 0 232192508.21037811 -10711397.483177066 0 0 0 0 -27725450.860141754 221706365.36108685 0 221706365.36108685 -91894961.884342432 0 0 0 0 107744998.39796925 149502397.03115547 0 149502397.03115547 -402403138.44851303 0 0 0 0 484094727.91877747 187389496.60704136 0 187389496.60704136 -159225661.19586998 0 0 0 0 45545468.564124107 194016782.58058268 0 194016782.58058268 -155843038.79378223 0 0 0 0 -65528788.859153271 304599333.66757631 0 304599333.66757631 373084438.45392299 0 0 0 0 -20471939.068753242 133825261.4663825 0 133825261.4663825 -282241201.95834267 0 0 0 0 7555201.4593913471 8503720.4248584397 0 8503720.4248584397 9916998.1365550943 0 0 0 0 1388001.435095787 360339600.41368032 0 360339600.41368032 -397794359.06033367 0 0 0 0 97829613.332414627 47381042.974047184 0 47381042.974047184 -221926717.6275754 0 0 0 0 88314974.621305466 -45551756.427636623 0 -45551756.427636623 -316287495.59720588 0 0 0 0 323396802.06529617 126478836.34778941 0 126478836.34778941 -308652989.94909918 0 0 0 0 55994082.365701675 35475954.465555906 0 35475954.465555906 -234711930.56902915 0 0 0 0 -28346619.702507019 -314365998.53166103 0 -314365998.53166103 -334426924.35606092 0 0 0 0 -80189635.435749054 -260363410.741256 0 -260363410.741256 19685520.075768739 0 0 0 0 56552225.791799545 -36861083.214659691 0 -36861083.214659691 -306119630.5405339 0 0 0 0 278638635.72372437 -20611139.197353065 0 -20611139.197353065 -363817659.9491381 0 0 0 0 49744374.18828097 -250267720.25475568 0 -250267720.25475568 -454086394.15477419 0 0 0 0 -36469458.068225861 -74307244.118341222 0 -74307244.118341222 -249125730.13767469 0 0 0 0 13788025.459352493 -165146361.3842608 0 -165146361.3842608 -87043728.785098806 0 0 0 0 358229555.45622635 -275895226.29261333 0 -275895226.29261333 -58111279.451747835 0 0 0 0 245401214.18857765 41754593.758274138 0 41754593.758274138 153688805.56555164 0 0 0 0 179136220.13283062 -8349841.0498147309 0 -8349841.0498147309 -168027413.63627124 0 0 0 0 426911606.19718933 105477105.54352665 0 105477105.54352665 -159854754.76257008 0 0 0 0 1036558745.9645119 254260798.09105289 0 254260798.09105289 159160510.07382339 0 0 0 0 160979945.36566067 -216954505.77994955 0 -216954505.77994955 690383230.94612646 0 0 0 0 20864140.930657148 5602852.8002883047 0 5602852.8002883047 390160516.25322574 0 0 0 0 373050135.64992714 352278880.41233683 0 352278880.41233683 424387441.67610675 0 0 0 0 410103670.96360302 290047996.29057252 0 290047996.29057252 -250766080.26913017 0 0 0 0 142876620.94207668 -569369694.41873074 0 -569369694.41873074 1210612228.7340004 0 0 0 0 68281.952116595116 1292470.9442694332 0 1292470.9442694332 2151333.8334452091 0 0 0 0 33371169.51478038 -97511144.518380702 0 -97511144.518380702 453943010.60372353 0 0 0 0 -302959096.69249022 -167389830.1487031 0 -167389830.1487031 597217231.6648035 0 0 0 0 -114555731.95481396 238034390.11178148 0 238034390.11178148 328135489.71457934 0 0 0 0 -293328027.24282885 187014782.34247494 0 187014782.34247494 336556404.74037313 0 0 0 0 65190115.485290051 -13080364.673831403 0 -13080364.673831403 360383604.60470569 0 0 0 0 69461790.214269638 376735154.54415399 0 376735154.54415399 1178014832.1103442 0 0 0 0 -52723577.236808777 -33180032.407521248 0 -33180032.407521248 123775959.40546608 0 0 0 0 3067320.504401207 33154456.25784874 0 33154456.25784874 -13587851.33181572 0 0 0 0 32113630.051112771 -102054164.49619317 0 -102054164.49619317 26644481.878452301 0 0 0 0 -10197251.106268734 -7283250.4854602814 0 -7283250.4854602814 38409906.583864212 0 0 0 0 -5600284.3082944378 -3834031.0512948981 0 -3834031.0512948981 3214378.2056128178 0 0 0 0 -7771456.9037294388 -5653699.565864563 0 -5653699.565864563 28155822.156856537 0 0 0 0 -2211034.479375422 -3509120.314344883 0 -3509120.314344883 26878350.89118576 0 0 0 0 50464039.873688698 -132610240.23651886 0 -132610240.23651886 102846095.33293152 0 0 0 0 -49539227.283780098 -778693.85815191269 0 -778693.85815191269 100003499.02364922 0 0 0 0 -9071902.3283059672 -5164151.3003461193 0 -5164151.3003461193 9943399.7586323898 0 0 0 0 1205252.7064797319 2946325.0260041496 0 2946325.0260041496 13530915.922143482 0 0 0 0 -93358975.835556984 -107697429.88127899 0 -107697429.88127899 120950755.24485016 0 0 0 0 97785257.193143368 -50489690.150357723 0 -50489690.150357723 -11009797.956069946 0 0 0 0 -14429658.368870735 62630088.418075562 0 62630088.418075562 -20224300.92952919 0 0 0 0 127906027.6672653 -146957354.90739775 0 -146957354.90739775 112527677.4843483 0 0 0 0 3815423.3873841483 3325870.7674511564 0 3325870.7674511564 6812197.0007824339 0 0 0 0 35417327.226505518 -37795423.263884544 0 -37795423.263884544 119665964.73760223 0 0 0 0 86792168.153493404 -54946023.95958519 0 -54946023.95958519 118006856.83128166 0 0 0 0 -100369489.28517532 38053128.824737549 0 38053128.824737549 76324501.528949738 0 0 0 0 33586408.555147648 -41680070.949662209 0 -41680070.949662209 116451784.16934967 0 0 0 0 -45338900.049961567 18123052.001252174 0 18123052.001252174 119570329.2776413 0 0 0 0 -17627572.625007629 -10519737.705410004 0 -10519737.705410004 164976407.73216248 0 0 0 0 280152.91020202637 -45061022.969202042 0 -45061022.969202042 185275641.44695663 0 0 0 0 134656389.32350636 -174977703.58491468 0 -174977703.58491468 218756760.52780533 0 0 0 0 12691732.437318802 -90968643.454551697 0 -90968643.454551697 204608855.87354136 0 0 0 0 3628861.798053049 2804455.9390667598 0 2804455.9390667598 3857073.2066126727 0 0 0 0 -149082187.80397129 83668898.745559692 0 83668898.745559692 -7091172.5998921394 0 0 0 0 -103831325.65256476 -16064404.647767067 0 -16064404.647767067 74687455.528656006 0 0 0 0 -115594975.86573696 178194613.86455154 0 178194613.86455154 -58063033.237903595 0 0 0 0 -92948457.860579491 82463271.364751816 0 82463271.364751816 65253194.001001358 0 0 0 0 125204789.01221371 221870129.93915367 0 221870129.93915367 154224178.67815971 0 0 0 0 126703538.8976343 230146956.47968972 0 230146956.47968972 70424320.533538818 0 0 0 0 -381952605.09653425 -246177821.69558144 0 -246177821.69558144 159606630.04725075 0 0 0 0 -268875993.05942965 318039883.71213722 0 318039883.71213722 1163868386.7605553 0 0 0 0 -161166282.27411938 -25868103.32532692 0 -25868103.32532692 330670553.57416916 0 0 0 0 -162219340.38311672 -73318145.32021904 0 -73318145.32021904 22715318.383049011 0 0 0 0 -103426783.49480414 91879974.293785095 0 91879974.293785095 10757195.758686066 0 0 0 0 3269603.4470512061 2923914.3206528816 0 2923914.3206528816 1052719.7537730373 0 0 0 0 463941078.72753239 194789256.04328346 0 194789256.04328346 -66890994.302598953 0 0 0 0 196010387.46457553 -54008004.877578735 0 -54008004.877578735 -86004162.346375465 0 0 0 0 672439020.82477546 592904275.38181686 0 592904275.38181686 304098026.07984734 0 0 0 0 -483677.20140565373 -651315.05110420473 0 -651315.05110420473 236415.15516777709 0 0 0 0 -285348004.35068816 -592888711.76477242 0 -592888711.76477242 555421285.47826767 0 0 0 0 1176555506.4948463 484986563.07578278 0 484986563.07578278 1022169705.7740326 0 0 0 0 651195736.71179342 93528501.099084854 0 93528501.099084854 -59716957.934553623 0 0 0 0 1587398.0271067014 927302.96139691025 0 927302.96139691025 -34726.213853964582 0 0 0 0 -65260519.181125343 350765704.42814827 0 350765704.42814827 199704534.45060158 0 0 0 0 158139372.63845074 193080585.11594772 0 193080585.11594772 -16353711.004131317 0 0 0 0 -52191254.031976163 281561617.58069134 0 281561617.58069134 382686720.31168747 0 0 0 0 -29702540.820548058 -110466337.95954895 0 -110466337.95954895 298512744.16624403 0 0 0 0 -59300247.442094624 -6361367.5623474121 0 -6361367.5623474121 71620092.789852142 0 0 0 0 -24079646.375720352 167565478.5017767 0 167565478.5017767 -48066734.030202866 0 0 0 0 -28436540.623420715 -85662884.474749565 0 -85662884.474749565 81823276.699123383 0 0 0 0 -63379639.405991316 -50400394.511274338 0 -50400394.511274338 47280481.673244476 0 0 0 0 25684678.306509227 -86439067.37820816 0 -86439067.37820816 19241216.590812683 0 0 0 0 89739133.301737279 -100436602.71435165 0 -100436602.71435165 76030776.727958679 0 0 0 0 -2306443.9631439447 -22950843.133411407 0 -22950843.133411407 19604997.182336807 0 0 0 0 -65984933.097396851 -161950058.09876633 0 -161950058.09876633 30703007.373235703 0 0 0 0 -2545515.5692365086 -2141387.5597546482 0 -2141387.5597546482 950222.26395489555 0 0 0 0 -10826278.896049857 4370397.9125957489 0 4370397.9125957489 15667170.198379517 0 0 0 0 -50387194.264151096 -39399576.127513885 0 -39399576.127513885 19599935.696503639 0 0 0 0 -68378753.292489707 -37588042.958950996 0 -37588042.958950996 63459380.049453735 0 0 0 0 -47280895.04807198 -3726047.7736682892 0 -3726047.7736682892 20199918.721017838 0 0 0 0 -13716900.217085004 -57079817.388721466 0 -57079817.388721466 63609948.526950836 0 0 0 0 -118978.84316712251 21359.357741077431 0 21359.357741077431 107360.64329553675 0 0 0 0 28781177.174507737 -13315808.068109512 0 -13315808.068109512 18633612.7064991 0 0 0 0 11160389.075734913 -20112960.836942673 0 -20112960.836942673 19509110.336650848 0 0 0 0 -223780.92147809494 59248.540552699938 0 59248.540552699938 227803.04216373619 0 0 0 0 -12381932.802853376 -44017104.238059044 0 -44017104.238059044 15604665.394119263 0 0 0 0 5143459.8557795882 -15122376.794200897 0 -15122376.794200897 22599034.193305492 0 0 0 0 16398253.209649622 -30514001.707650185 0 -30514001.707650185 8711778.1458091736 0 0 0 0 36221244.365243673 861833.07227182388 0 861833.07227182388 31779806.868930817 0 0 0 0 -69287225.092257217 -44781270.858427048 0 -44781270.858427048 24148737.359416962 0 0 0 0 4677931.753324151 -60470559.946668625 0 -60470559.946668625 -6445666.4771327972 0 0 0 0 1727940.6625839472 -61146129.913961411 0 -61146129.913961411 35799467.443239212 0 0 0 0 2738915.3749625683 -35048195.018203735 0 -35048195.018203735 20892033.610413551 0 0 0 0 4267233.1836392283 -38991825.567081451 0 -38991825.567081451 1183471.2347512245 0 0 0 0 -8616809.9468091726 -62551187.85877037 0 -62551187.85877037 -40962667.208179474 0 0 0 0 -436090193.35865808 -337608825.97840858 0 -337608825.97840858 -163998490.28741455 0 0 0 0 -45699471.040984213 -710648.89137840271 0 -710648.89137840271 -4598816.2684316635 0 0 0 0 26188736.685039431 -42213727.469924927 0 -42213727.469924927 9187354.3944988251 0 0 0 0 95205882.803860724 312681743.46629953 0 312681743.46629953 416520068.16808128 0 0 0 0 1756304.3124335618 -153017.74666351452 0 -153017.74666351452 406700.48805434187 0 0 0 0 80745845.154224396 -126222409.22753716 0 -126222409.22753716 -36516895.434919834 0 0 0 0 -141284290.83616778 406237672.87777448 0 406237672.87777448 1158288916.0817757 0 0 0 0 -4228752.5656536222 923667276.19128418 0 923667276.19128418 817246177.70989227 0 0 0 0 921419161.66893315 121859131.39766693 0 121859131.39766693 -1273053017.7052879 0 0 0 0 10236809.018576682 -171008.9329957962 0 -171008.9329957962 68117252.699808121 0 0 0 0 5426071.7786443233 -7945056.2814464569 0 -7945056.2814464569 65435567.534351826 0 0 0 0 64055976.037221074 20385278.201771736 0 20385278.201771736 37190154.378790855 0 0 0 0 3280500.3631817279 729810.38908153865 0 729810.38908153865 1610806.1197860928 0 0 0 0 6664345.5254312754 10214176.686896324 0 10214176.686896324 115706787.63590622 0 0 0 0 635101402.3382864 -376757721.64015579 0 -376757721.64015579 -352342287.17430067 0 0 0 0 -68682375.42797339 31586050.406272888 0 31586050.406272888 193417319.76349211 0 0 0 0 1453986.2415559301 1559022.0543803871 0 1559022.0543803871 3895608.8544625062 0 0 0 0 -2156140.4876406193 -2839212.660282135 0 -2839212.660282135 90161569.851120472 0 0 0 0 4595146.676831156 -6306734.0027749538 0 -6306734.0027749538 73625272.641082764 0 0 0 0 795363.85553979874 -16768347.561173439 0 -16768347.561173439 73442075.771326274 0 0 0 0 11186939.432922363 -9280379.7233028412 0 -9280379.7233028412 41734445.563615799 0 0 0 0 5370345.441187501 -4249279.1914157867 0 -4249279.1914157867 40427810.172230721 0 0 0 0 -207846.65606902004 86077.364992477 0 86077.364992477 252220.38570143655 0 0 0 0 -6804780.3826572895 -3304095.4875810146 0 -3304095.4875810146 22472438.88224411 0 0 0 0 -3302386.6113246679 -6360714.5191230774 0 -6360714.5191230774 23442539.020793915 0 0 0 0 17907574.364091158 -12722344.815648079 0 -12722344.815648079 14355674.994541168 0 0 0 0 6078203.7943332195 -19697050.870773315 0 -19697050.870773315 38519945.518433765 0 0 0 0 -4993516.9724047184 -2177975.7529020309 0 -2177975.7529020309 25457014.585803986 0 0 0 0 -10048350.687853813 -6088338.9363355637 0 -6088338.9363355637 30554046.457025528 0 0 0 0 -7781514.1070543528 -4792887.9994783401 0 -4792887.9994783401 25403342.569574356 0 0 0 0 -7248163.5666126311 -5365672.6193042994 0 -5365672.6193042994 25016943.921737671 0 0 0 0 -9417405.3069398403 12532540.448643684 0 12532540.448643684 2942709.5761470795 0 0 0 0 -107958.39964185504 50230.564657902345 0 50230.564657902345 136563.69543035049 0 0 0 0 -10821043.160407305 8356556.8581075668 0 8356556.8581075668 40465084.083366394 0 0 0 0 -10936273.65397644 -681657.48071098328 0 -681657.48071098328 58813657.085176468 0 0 0 0 -2325881.5893414021 -1473696.109664917 0 -1473696.109664917 58332708.092094421 0 0 0 0 -4392665.4261655807 1392608.207865715 0 1392608.207865715 70814283.447628021 0 0 0 0 -1613542.1362149715 -4440287.8339443207 0 -4440287.8339443207 81667538.17701149 0 0 0 0 601558.68513886631 -17179113.833327174 0 -17179113.833327174 92275872.795188904 0 0 0 0 4167378.6170812249 -5902458.5921764374 0 -5902458.5921764374 78130699.751049042 0 0 0 0 194021738.41601944 -30033651.461471558 0 -30033651.461471558 217929342.91367912 0 0 0 0 -2008747.5111218668 1458831.9849382658 0 1458831.9849382658 8468511.0636008829 0 0 0 0 -1990193.4516758919 -8422736.2175617218 0 -8422736.2175617218 83552508.530824661 0 0 0 0 -3074427.3629813194 -5995575.5013992786 0 -5995575.5013992786 64288281.402088165 0 0 0 0 -1693664.5950195789 -12493321.69329071 0 -12493321.69329071 75161637.572908401 0 0 0 0 -5128888.8794221878 -12098009.218088627 0 -12098009.218088627 83994959.050682068 0 0 0 0 241789563.49367619 -263169832.5733223 0 -263169832.5733223 148047282.50432587 0 0 0 0 -941389.38623500243 -2775460.0475582369 0 -2775460.0475582369 5701603.5005849693 0 0 0 0 7723840.2334365845 -26738126.269264221 0 -26738126.269264221 93273774.932136536 0 0 0 0 35312602.839687347 -54694283.993322372 0 -54694283.993322372 80467663.974594116 0 0 0 0 125786346.48288414 -363129539.91945767 0 -363129539.91945767 305129514.32421112 0 0 0 0 136844597.59193647 -302280633.06152248 0 -302280633.06152248 232972060.86578369 0 0 0 0 237825121.84256077 -250486064.80879402 0 -250486064.80879402 217917943.2973032 0 0 0 0 63533774.001720071 -163633491.69740868 0 -163633491.69740868 229653494.23158264 0 0 0 0 106249658.78337279 -64955041.433074713 0 -64955041.433074713 358161083.5454483 0 0 0 0 -818846.20834789122 -988617.19164264761 0 -988617.19164264761 2277718.6817596368 0 0 0 0 104820450.24241257 -122518003.3252182 0 -122518003.3252182 198674566.92864847 0 0 0 0 -76214015.004316807 58343676.955432892 0 58343676.955432892 292039900.2794857 0 0 0 0 -134422771.22288609 -60519408.741189957 0 -60519408.741189957 454711924.55913925 0 0 0 0 -231659120.33776677 -19364047.818622589 0 -19364047.818622589 808423935.81042099 0 0 0 0 -86981838.966755867 -78520907.168125153 0 -78520907.168125153 448149643.59324074 0 0 0 0 -44757193.081972599 -143389600.91806412 0 -143389600.91806412 444395780.98079681 0 0 0 0 -238276691.0589478 162090880.21949959 0 162090880.21949959 389084400.54001427 0 0 0 0 -287189363.51288986 -721390437.43459702 0 -721390437.43459702 1339170497.4683609 0 0 0 0 -196221471.15651071 -494028231.38652992 0 -494028231.38652992 679500436.68999481 0 0 0 0 -273505005.0181582 -609561325.19608021 0 -609561325.19608021 707086815.59766388 0 0 0 0 -192904218.01273203 -414362445.06162643 0 -414362445.06162643 791430599.73934245 0 0 0 0 -42015063.231903076 -386179158.92335701 0 -386179158.92335701 573772811.00228882 0 0 0 0 -6588242.6894702911 -299331497.36649323 0 -299331497.36649323 348071298.75858688 0 0 0 0 -62396511.427593708 -481911761.40603828 0 -481911761.40603828 435791280.35642242 0 0 0 0 113102425.53351045 -554867564.96905518 0 -554867564.96905518 170044159.0700798 0 0 0 0 85399124.940441608 -585334772.63695145 0 -585334772.63695145 434614865.94596767 0 0 0 0 306215841.22788811 -536245648.84859467 0 -536245648.84859467 166632915.59832764 0 0 0 0 -36933898.169856071 -907763562.36931992 0 -907763562.36931992 257336904.2243042 0 0 0 0 -29167652.176122189 -742756020.45023155 0 -742756020.45023155 225421467.43557739 0 0 0 0 -56713670.594528437 -756874868.13720322 0 -756874868.13720322 720859602.29674864 0 0 0 0 79414364.27828455 -757156995.5482254 0 -757156995.5482254 214621448.05244827 0 0 0 0 80653718.811501026 -762435670.14018631 0 -762435670.14018631 57036983.706016541 0 0 0 0 -69467358.54931736 -885590477.13539505 0 -885590477.13539505 104575406.71801758 0 0 0 0 -53418951.819044113 -804768567.37894058 0 -804768567.37894058 261383365.90126801 0 0 0 0 116978355.26001894 -738005515.82881165 0 -738005515.82881165 -70314133.759830475 0 0 0 0 69903579.92966795 -832400222.01771545 0 -832400222.01771545 -101863385.14540863 0 0 0 0 -201161004.82124662 -584831288.7008934 0 -584831288.7008934 -31649368.511917114 0 0 0 0 241195877.22642064 -576595327.6054306 0 -576595327.6054306 41971699.632577896 0 0 0 0 290419679.71064878 -573568537.7967186 0 -573568537.7967186 120333592.72729492 0 0 0 0 353349554.55277109 -573558118.57839012 0 -573558118.57839012 27086521.954833984 0 0 0 0 242436485.66635215 -696967985.65216064 0 -696967985.65216064 -9380428.6465530396 0 0 0 0 493429007.08239841 -516079016.74321747 0 -516079016.74321747 25427186.878546119 0 0 0 0 371172406.23656988 -534545455.41255188 0 -534545455.41255188 81567177.374485016 0 0 0 0 461624623.74842834 -370639499.19102478 0 -370639499.19102478 20087966.703596115 0 0 0 0 396431465.80854416 -381537966.59410667 0 -381537966.59410667 69994575.745666504 0 0 0 0 652326552.54495382 -351103320.99178314 0 -351103320.99178314 13157572.260959625 0 0 0 0 410138164.81739807 -167260676.52915192 0 -167260676.52915192 5496097.9377365112 0 0 0 0 531635316.14046478 -232564716.77486992 0 -232564716.77486992 21725599.575706482 0 0 0 0 327472695.58510685 -221867951.95965195 0 -221867951.95965195 66253454.714191437 0 0 0 0 336275273.66029358 -270312018.27946091 0 -270312018.27946091 139694466.44487381 0 0 0 0 213546314.59375858 -377950725.12669754 0 -377950725.12669754 203172441.89502144 0 0 0 0 216620387.99139977 -443918414.59075165 0 -443918414.59075165 282772215.79960632 0 0 0 0 313145548.31486046 -358753131.68349648 0 -358753131.68349648 105522666.31447601 0 0 0 0 1277133716.8756015 13438163.167266846 0 13438163.167266846 794397347.97086048 0 0 0 0 -16743147.36786747 -976826668.07008648 0 -976826668.07008648 2137771128.3539467 0 0 0 0 -433449200.63959289 292525901.40290117 0 292525901.40290117 2346308891.5190086 0 0 0 0 427803351.38639313 -732226129.97973251 0 -732226129.97973251 2005786921.9473038 0 0 0 0 -428114670.03844196 461448302.29936886 0 461448302.29936886 1234140433.2027817 0 0 0 0 -67330.405544686626 437669.08993244416 0 437669.08993244416 3335592.7903834078 0 0 0 0 -452788851.48260379 -169158200.43903351 0 -169158200.43903351 1088514412.4464684 0 0 0 0 -328898773.49822044 -703940752.19427681 0 -703940752.19427681 957281251.69455147 0 0 0 0 -549989455.18993974 -84691314.110317707 0 -84691314.110317707 1844787414.9297104 0 0 0 0 -254471360.23258257 -61980062.196178436 0 -61980062.196178436 994935590.57207775 0 0 0 0 -307750174.01403999 -443730206.73377085 0 -443730206.73377085 1204571288.0382156 0 0 0 0 -686199990.88904333 -132670997.74473763 0 -132670997.74473763 1897922256.1382227 0 0 0 0 141276960.23646545 958872539.65099335 0 958872539.65099335 1456409000.0022249 0 0 0 0 -552454.59370259766 -1103461.7726561059 0 -1103461.7726561059 3639769.9326918703 0 0 0 0 -700018521.10934734 -155480713.91948128 0 -155480713.91948128 2449769295.967968 0 0 0 0 1713441064.0932684 -1110219507.7635517 0 -1110219507.7635517 459221155.51572037 0 0 0 0 -356150963.82888246 -789061279.21490812 0 -789061279.21490812 1945022068.836132 0 0 0 0 1398334968.4622364 668678984.76314354 0 668678984.76314354 706623516.4068222 0 0 0 0 -491973388.37002134 -185444527.58702087 0 -185444527.58702087 2777078069.5608978 0 0 0 0 -282113592.42653084 -243297746.07605743 0 -243297746.07605743 1015854145.6551609 0 0 0 0 -388707121.10368395 363377883.8094635 0 363377883.8094635 1550883530.1705284 0 0 0 0 203576901.07791901 -1459149801.850811 0 -1459149801.850811 2065090311.4392776 0 0 0 0 -113249026.89712143 -815610162.20475006 0 -815610162.20475006 761575379.01963043 0 0 0 0 -141412406.77933121 -885554242.75462723 0 -885554242.75462723 759878133.67446578 0 0 0 0 236199153.66813135 -860962964.52324772 0 -860962964.52324772 216570609.50847626 0 0 0 0 -109332224.42762852 -225064183.02079964 0 -225064183.02079964 159184683.70948792 0 0 0 0 -816963536.36563587 97924576.516032219 0 97924576.516032219 118083784.98418427 0 0 0 0 -520742096.04737949 -892861147.32621765 0 -892861147.32621765 -55631348.43523407 0 0 0 0 -437701100.70565605 -737363007.60416031 0 -737363007.60416031 211121831.5740509 0 0 0 0 -78559261.883010864 -680544025.3919487 0 -680544025.3919487 -269837675.28990173 0 0 0 0 -1186799712.1043506 -492983301.71871185 0 -492983301.71871185 66851172.793071747 0 0 0 0 -383836296.79409981 -627868767.49875641 0 -627868767.49875641 -5404076.8717346191 0 0 0 0 -199080012.25749588 -513635982.63606644 0 -513635982.63606644 -397625420.41178894 0 0 0 0 -401047415.31534886 -409162438.59986353 0 -409162438.59986353 -804723055.42607117 0 0 0 0 -1140255809.5440965 -491986740.13969803 0 -491986740.13969803 -197063833.19536877 0 0 0 0 -118758325.63348174 20148070.015474319 0 20148070.015474319 32304540.990457535 0 0 0 0 -356488.40630390286 -6141102.5622994518 0 -6141102.5622994518 4975926.5680822134 0 0 0 0 -223589.30831797747 -728219.90711340122 0 -728219.90711340122 570152.37911349162 0 0 0 0 -221480.68764209747 10496693.247806072 0 10496693.247806072 67466133.836051941 0 0 0 0 -75831189.02513504 -224590654.427248 0 -224590654.427248 133502641.2591095 0 0 0 0 -1990428.1972889993 -3333818.3069629264 0 -3333818.3069629264 9846846.1872868091 0 0 0 0 -2368326.9067702941 -5135580.3126592077 0 -5135580.3126592077 2503343.483421254 0 0 0 0 -20247650.738409519 -233053536.24687481 0 -233053536.24687481 272678308.15259743 0 0 0 0 -39444444.244591832 71304834.587438583 0 71304834.587438583 39039982.828006744 0 0 0 0 -7568469.2519160807 68804317.717658997 0 68804317.717658997 -83973672.353944778 0 0 0 0 61480183.133727908 -72799513.845457077 0 -72799513.845457077 28459090.162479401 0 0 0 0 155424015.29995173 -2209376.6326637268 0 -2209376.6326637268 77817885.046543121 0 0 0 0 52663809.956480071 70022830.826139569 0 70022830.826139569 -120705368.27167892 0 0 0 0 489294945.12336314 126405423.72865105 0 126405423.72865105 -421422815.64073181 0 0 0 0 711230.52284498652 -4050931.5561280549 0 -4050931.5561280549 902711.09856844111 0 0 0 0 281720420.1081171 -195818475.54936218 0 -195818475.54936218 282311901.82025528 0 0 0 0 194679021.03555059 -220818116.60102844 0 -220818116.60102844 313543610.43672943 0 0 0 0 215045345.38831723 -168120930.28045416 0 -168120930.28045416 163660048.36965179 0 0 0 0 435478976.71778059 -215673812.06718063 0 -215673812.06718063 230504885.86470795 0 0 0 0 307660681.89445472 -284293301.29062271 0 -284293301.29062271 240381484.41973114 0 0 0 0 214333561.44721583 -158008319.52564058 0 -158008319.52564058 250232251.42754364 0 0 0 0 139858550.64459729 -179528019.01680374 0 -179528019.01680374 282151986.1006546 0 0 0 0 117483532.57841848 -35831668.563196659 0 -35831668.563196659 102023326.50384521 0 0 0 0 -43558362.328033566 69082869.275347233 0 69082869.275347233 44694236.62834549 0 0 0 0 86100617.220625326 -75168675.396266937 0 -75168675.396266937 10731682.861839294 0 0 0 0 41789199.448340356 -64348696.755317688 0 -64348696.755317688 107866643.36039925 0 0 0 0 83725807.889225006 -163042607.94479179 0 -163042607.94479179 235999495.22471237 0 0 0 0 -5985805.9408495426 -167458749.07489395 0 -167458749.07489395 186950934.24349022 0 0 0 0 -2078720828.6222596 -638691170.3652668 0 -638691170.3652668 448905592.3527298 0 0 0 0 -807880.72298371396 -3559648.7748055356 0 -3559648.7748055356 6063999.1642189696 0 0 0 0 -873773977.11609077 -642627204.50277328 0 -642627204.50277328 20699713.367927551 0 0 0 0 -429002595.71771455 -600449984.29992867 0 -600449984.29992867 -115427781.61704063 0 0 0 0 -1056711684.1552625 -48330391.818431854 0 -48330391.818431854 178654294.6883812 0 0 0 0 -823200954.99187469 -18761853.063829422 0 -18761853.063829422 -191284469.29615021 0 0 0 0 -857094667.87365973 312079819.47675979 0 312079819.47675979 1589136295.340332 0 0 0 0 -1672913992.9992225 561752758.02693367 0 561752758.02693367 3458315522.5411644 0 0 0 0 775891645.4265213 -1507992428.3997183 0 -1507992428.3997183 3381006353.2791595 0 0 0 0 -1236775477.7072027 1325025635.0781174 0 1325025635.0781174 1680113222.6400261 0 0 0 0 -876922.05047271331 -1531024.9477536434 0 -1531024.9477536434 2963507.2497454062 0 0 0 0 158934457.08443093 -120285078.16573334 0 -120285078.16573334 155668489.44199181 0 0 0 0 260070196.83142281 -277286841.33931351 0 -277286841.33931351 211758050.53827572 0 0 0 0 -1501257.445196325 -1000367.8553495295 0 -1000367.8553495295 3601423.8325679265 0 0 0 0 134017631.75878389 -1320127717.0232544 0 -1320127717.0232544 3458607810.4121799 0 0 0 0 256875418.23778665 -186684712.5600996 0 -186684712.5600996 186693637.45129395 0 0 0 0 -160959088.3934516 -463625426.6399374 0 -463625426.6399374 972121341.75167084 0 0 0 0 -1089985.4935114393 -377660.80729612801 0 -377660.80729612801 2963918.0644568987 0 0 0 0 251803738.88154674 -291664992.41305923 0 -291664992.41305923 261133744.06132269 0 0 0 0 -336873270.52281755 481563449.63868725 0 481563449.63868725 1014886321.2020493 0 0 0 0 -375997779.85139859 218647498.2003808 0 218647498.2003808 730387005.44779205 0 0 0 0 528886713.32122231 -562556836.7403717 0 -562556836.7403717 410098929.17811966 0 0 0 0 1206092544.8881633 -811515058.2664032 0 -811515058.2664032 432193325.80665684 0 0 0 0 837812854.7594142 -420487512.5996685 0 -420487512.5996685 342982170.76004791 0 0 0 0 877024581.17779732 -295840177.65659714 0 -295840177.65659714 76379769.437858582 0 0 0 0 730661528.64740419 -188943101.48194885 0 -188943101.48194885 -19377738.635604858 0 0 0 0 619834024.75566673 -360158744.27767181 0 -360158744.27767181 61284644.289001465 0 0 0 0 820218415.61278152 -594066025.68267012 0 -594066025.68267012 172486071.5269928 0 0 0 0 601279100.72195458 -450790138.28192902 0 -450790138.28192902 78757769.925540924 0 0 0 0 522845974.6249882 -538016269.21551514 0 -538016269.21551514 29204821.287887573 0 0 0 0 515586414.83772373 -464159684.64541245 0 -464159684.64541245 189203763.54742813 0 0 0 0 320601608.10335261 -657910246.44736481 0 -657910246.44736481 50620450.076278687 0 0 0 0 542335936.65683091 -628210429.24351883 0 -628210429.24351883 17462152.389610291 0 0 0 0 -358428764.65337849 -436319698.22268295 0 -436319698.22268295 136778057.66910934 0 0 0 0 -300885931.46337295 -599925424.27344704 0 -599925424.27344704 487305598.35979462 0 0 0 0 280557277.14643145 -801532723.13509941 0 -801532723.13509941 298454300.90296173 0 0 0 0 -140508857.11332142 -298367834.32587624 0 -298367834.32587624 659411091.84937859 0 0 0 0 182751883.02153721 -899677542.7563324 0 -899677542.7563324 1685105138.8028221 0 0 0 0 -1142210477.5383224 218838993.33406258 0 218838993.33406258 1671680679.5619602 0 0 0 0 -904125189.18592656 -435712065.33820915 0 -435712065.33820915 3466483449.4863853 0 0 0 0 110213511.63317454 -816462344.40166473 0 -816462344.40166473 1691977727.3674622 0 0 0 0 410695970.64417863 -1582405869.0493536 0 -1582405869.0493536 3457543254.9139557 0 0 0 0 939417995.70895863 -326490364.60775042 0 -326490364.60775042 417424653.55002975 0 0 0 0 3456504143.427537 -1688452874.7223034 0 -1688452874.7223034 844309422.28785706 0 0 0 0 469637763.52937645 1947901141.6197891 0 1947901141.6197891 3457840828.2670898 0 0 0 0 1563493716.463309 1921600238.5048103 0 1921600238.5048103 1911159862.4136429 0 0 0 0 3267048.7357577039 -1294422.7448980147 0 -1294422.7448980147 5777280.7975964621 0 0 0 0 715274259.89981413 1417436265.0523376 0 1417436265.0523376 1987734752.0405884 0 0 0 0 -115031929.6800427 1065583820.3552437 0 1065583820.3552437 2672922426.7380142 0 0 0 0 -115947719.43925047 1044902390.2973665 0 1044902390.2973665 2532169138.3820953 0 0 0 0 -136978953.1910941 449433871.32013702 0 449433871.32013702 1936325330.4682922 0 0 0 0 336568711.93240726 975382619.87386322 0 975382619.87386322 1698478794.3894653 0 0 0 0 238498263.25044879 624878704.43587494 0 624878704.43587494 799798815.66999817 0 0 0 0 326328241.78157079 461653603.49482727 0 461653603.49482727 925470672.05677032 0 0 0 0 75103041.713847131 858080340.2318325 0 858080340.2318325 1432867695.9662781 0 0 0 0 454302.98382918659 259133.78748884192 0 259133.78748884192 -297853.47236677259 0 0 0 0 1291011827.1997099 -231172985.45910263 0 -231172985.45910263 -424296867.40087891 0 0 0 0 1240478725.4964552 1189107668.3672142 0 1189107668.3672142 1174533348.7236938 0 0 0 0 1038126807.9277459 770645266.10188675 0 770645266.10188675 311575936.72900391 0 0 0 0 585538838.27477551 -33699004.790969849 0 -33699004.790969849 -477908577.00852966 0 0 0 0 -217263682.2439903 -228950255.31688309 0 -228950255.31688309 120014417.74354172 0 0 0 0 1098069546.981823 -190929547.59118938 0 -190929547.59118938 30949720.722549438 0 0 0 0 2762056.3188566295 -3628750.0808319682 0 -3628750.0808319682 16182491.605829746 0 0 0 0 2133531.2315484458 -4445368.5302319657 0 -4445368.5302319657 -2965625.384175472 0 0 0 0 180019101.52840054 137597053.00177383 0 137597053.00177383 316515944.74183655 0 0 0 0 -159925960.75701052 160770294.86991119 0 160770294.86991119 961332153.1416626 0 0 0 0 180143574.84886664 -6613560.6318893433 0 -6613560.6318893433 14091807.45664978 0 0 0 0 94188416.189270854 52684834.608055115 0 52684834.608055115 -26815125.322006226 0 0 0 0 -795589.28704827279 -3323267.5633828025 0 -3323267.5633828025 4025899.3632865995 0 0 0 0 -14538397.118012905 6609165.7458610535 0 6609165.7458610535 24670619.048171997 0 0 0 0 7607096.9466756582 -12857473.125797272 0 -12857473.125797272 -57603372.250564575 0 0 0 0 2455671.3405609634 -7471654.9920797292 0 -7471654.9920797292 9087325.9332437925 0 0 0 0 473850076.34704018 -12959404.274768829 0 -12959404.274768829 15236055.091038227 0 0 0 0 266364503.65173817 -100504053.75853825 0 -100504053.75853825 91149265.868743896 0 0 0 0 3269034.2757891519 -5232187.3845097236 0 -5232187.3845097236 7647151.2992497049 0 0 0 0 40054308.159858674 19495350.396175385 0 19495350.396175385 15248835.379203796 0 0 0 0 54954887.638142228 -23658644.305095673 0 -23658644.305095673 18778399.162940979 0 0 0 0 -14387857.591264129 -4070595.2050552368 0 -4070595.2050552368 40044821.084594727 0 0 0 0 4090238.5114477277 -25395551.843490601 0 -25395551.843490601 63909191.208183289 0 0 0 0 -26307619.858595908 501349939.54796219 0 501349939.54796219 1114664028.5684357 0 0 0 0 119878316.68885314 -129144262.77411652 0 -129144262.77411652 112334956.35098267 0 0 0 0 145642.82519712532 -301537.60892199725 0 -301537.60892199725 698931.01014424488 0 0 0 0 77691969.226295218 -1713273.741812706 0 -1713273.741812706 -11427513.34551239 0 0 0 0 40521605.327447258 273939511.93152809 0 273939511.93152809 1987109832.0189362 0 0 0 0 -26297193.469019711 110705465.63601494 0 110705465.63601494 1593433279.8064804 0 0 0 0 -179566764.32952493 634466195.42932129 0 634466195.42932129 2069834945.7006836 0 0 0 0 -479535681.51820195 170928207.9656601 0 170928207.9656601 2324876536.5104065 0 0 0 0 -560616667.50724578 651674406.7592392 0 651674406.7592392 3467787592.031239 0 0 0 0 -408407974.61168587 -327537914.40950394 0 -327537914.40950394 3456338559.6356277 0 0 0 0 -251300001.58467013 -805373096.9224472 0 -805373096.9224472 1350874004.9906693 0 0 0 0 -583899.62623643514 -925161.51706608385 0 -925161.51706608385 3515086.9342561401 0 0 0 0 114173504.53520246 -606061612.84166336 0 -606061612.84166336 -6618828.1084899902 0 0 0 0 302452479.90639937 1137740080.0156937 0 1137740080.0156937 3464255980.2296915 0 0 0 0 -185684822.12291497 234069746.31748199 0 234069746.31748199 634070600.7862854 0 0 0 0 -260328982.70308965 -124602383.56795502 0 -124602383.56795502 1127677887.9009933 0 0 0 0 -305478050.72020584 108230127.62607956 0 108230127.62607956 1342261275.829422 0 0 0 0 -282557375.20769215 159254316.53088379 0 159254316.53088379 1644842605.6401119 0 0 0 0 101045717.90447846 367355661.65009689 0 367355661.65009689 1407854190.4439583 0 0 0 0 -656810946.83554888 -559301809.98313713 0 -559301809.98313713 293242007.37823486 0 0 0 0 -211943903.34290233 257586992.73918343 0 257586992.73918343 1959033291.8307114 0 0 0 0 -253260612.35037184 176539591.78460884 0 176539591.78460884 1410530254.077858 0 0 0 0 -1048120142.8599858 4676756.19190979 0 4676756.19190979 3463929990.8381424 0 0 0 0 -4645.9869816278806 -1491653.419196438 0 -1491653.419196438 3289581.2970432155 0 0 0 0 -194033019.25779068 -55360297.434331894 0 -55360297.434331894 1371377384.9473114 0 0 0 0 24361416.492383361 -78449629.15574646 0 -78449629.15574646 1246896769.9548035 0 0 0 0 255474.52101085446 -647845.76089361683 0 -647845.76089361683 1306696.1449497752 0 0 0 0 -423565832.345339 -14608137.235595703 0 -14608137.235595703 3893063367.4112091 0 0 0 0 -83170376.74559176 -1870745331.4414673 0 -1870745331.4414673 -205698045.49617577 0 0 0 0 119273897.46910501 434823640.71292114 0 434823640.71292114 2139228730.7464142 0 0 0 0 26916592.282370567 96225947.001586914 0 96225947.001586914 381632656.12453842 0 0 0 0 123305335.36992732 -973424090.21653891 0 -973424090.21653891 1123916163.2885132 0 0 0 0 -148220214.34569418 131822761.20006561 0 131822761.20006561 1107901324.7406082 0 0 0 0 -1762959.5864511728 -756283.756690979 0 -756283.756690979 5871569.8282356262 0 0 0 0 1249936.5758507685 -1324032.8293172531 0 -1324032.8293172531 2494483.639973674 0 0 0 0 171011160.31280336 -274136603.61373043 0 -274136603.61373043 513813035.33607483 0 0 0 0 -137389972.3153615 151611110.06594467 0 151611110.06594467 75517333.904922485 0 0 0 0 249704262.21734178 -61557690.420604706 0 -61557690.420604706 -85945251.698913574 0 0 0 0 603750.61908926303 -300109.81147953868 0 -300109.81147953868 586635.55027006753 0 0 0 0 354509686.71245408 145931737.31729889 0 145931737.31729889 -1139198.7825775146 0 0 0 0 -176025.64774471655 -450387.34685121477 0 -450387.34685121477 2219753.0360102952 0 0 0 0 -146932621.05735946 113125705.78822708 0 113125705.78822708 1371609686.5573196 0 0 0 0 631457.20543745218 -971515.24784151465 0 -971515.24784151465 1769853.0578944944 0 0 0 0 -102453033.87386018 74528478.573818207 0 74528478.573818207 1322563924.0168419 0 0 0 0 -2507164.1262704432 -568699.96903991699 0 -568699.96903991699 7594723.177734375 0 0 0 0 -2023918.7311590314 528448.25428009033 0 528448.25428009033 9958553.7323493958 0 0 0 0 -2220195.8956361413 -11449407.078659058 0 -11449407.078659058 -512745.42352676392 0 0 0 0 -7846520.4971677568 -8189541.7195358276 0 -8189541.7195358276 16302570.655502319 0 0 0 0 4167639.3282694072 10959053.906669617 0 10959053.906669617 23620201.63492012 0 0 0 0 1159003.1465968713 8915831.634185791 0 8915831.634185791 32027451.579162598 0 0 0 0 14712891.850762367 2610066.9917259216 0 2610066.9917259216 12764209.914726257 0 0 0 0 6661536.6241463721 3393749.8913421631 0 3393749.8913421631 9402692.8555603027 0 0 0 0 11365805.112043262 8062185.4176025391 0 8062185.4176025391 12450638.462844849 0 0 0 0 6157096.546562165 6890158.0131530762 0 6890158.0131530762 6698111.6131134033 0 0 0 0 -1514996.133531481 361488.96701812744 0 361488.96701812744 9777687.8807067871 0 0 0 0 -539373.6562820375 3668711.057390213 0 3668711.057390213 3248213.8790283203 0 0 0 0 -1680480.309063077 1552828.7072601318 0 1552828.7072601318 8882523.2001228333 0 0 0 0 373879.06772911549 6964088.6406555176 0 6964088.6406555176 14334570.077148438 0 0 0 0 -30520385.998062611 44741438.51499176 0 44741438.51499176 19709819.799301147 0 0 0 0 -503710.82737597823 9789334.2896933556 0 9789334.2896933556 6757646.8535385132 0 0 0 0 2359340.9216331649 3563972.0093901101 0 3563972.0093901101 2281431.0954174399 0 0 0 0 -685399.50500519574 6814368.3974456787 0 6814368.3974456787 -1819342.457824707 0 0 0 0 -50370.200032735855 46850.707493923604 0 46850.707493923604 574389.86925762333 0 0 0 0 -4358690.0781843066 10562077.623504639 0 10562077.623504639 8751758.6239776611 0 0 0 0 1645220.5468540788 2995993.7158966064 0 2995993.7158966064 6240694.8592071533 0 0 0 0 6861568.968198806 4900789.1905059814 0 4900789.1905059814 2005514.0673370361 0 0 0 0 11750960.313979164 3912125.1055297852 0 3912125.1055297852 4382641.8641357422 0 0 0 0 6861962.73606655 4621159.3393096924 0 4621159.3393096924 5757312.5252990723 0 0 0 0 6701470.1746398509 7163964.9247436523 0 7163964.9247436523 7731711.0477600098 0 0 0 0 -1380108.8289136291 8107739.1646766663 0 8107739.1646766663 8999078.6701660156 0 0 0 0 57979778.646748066 15775601.776386261 0 15775601.776386261 -100004976.01829529 0 0 0 0 -336072036.54028881 77781966.297142029 0 77781966.297142029 48451810.355621338 0 0 0 0 -149845725.13796353 -110890480.04992676 0 -110890480.04992676 -163709671.79707336 0 0 0 0 1179791.3952226245 1939332.7920618765 0 1939332.7920618765 2765345.2091354579 0 0 0 0 -1919844.5261251926 567754.22399902344 0 567754.22399902344 6676100.4994621277 0 0 0 0 33796890.273608685 -78627105.43585968 0 -78627105.43585968 -88115869.039382935 0 0 0 0 8634973.9759521484 115298467.81517792 0 115298467.81517792 -27159724.451202393 0 0 0 0 -23708198.851794958 84138400.914628983 0 84138400.914628983 113815447.13499451 0 0 0 0 -49484737.690686226 -20901956.727355957 0 -20901956.727355957 111457574.42999291 0 0 0 0 4775665.7125623226 82544590.473239899 0 82544590.473239899 -254380805.62703133 0 0 0 0 21106022.591823578 -95899559.377952576 0 -95899559.377952576 212245666.52780914 0 0 0 0 514673.02384851512 -125179.97442344949 0 -125179.97442344949 490727.62964833528 0 0 0 0 3718735.3646342754 14322012.847099304 0 14322012.847099304 4317964.8264656067 0 0 0 0 -1095470.8481462002 85211653.605873108 0 85211653.605873108 125542290.75395966 0 0 0 0 17975169.098657817 32365612.468133926 0 32365612.468133926 -50809869.702728271 0 0 0 0 -21404.962553421501 74916.66217399016 0 74916.66217399016 -747935.73916664813 0 0 0 0 -1642155.8037216663 76704.76407623291 0 76704.76407623291 11523967.028450012 0 0 0 0 -1563964.1136324038 9245768.6608508974 0 9245768.6608508974 3999202.0049888184 0 0 0 0 -1275536.8832674883 1016960.9072803408 0 1016960.9072803408 7113447.8052056544 0 0 0 0 101472854.48196161 -47557584.491487503 0 -47557584.491487503 -79941526.761871338 0 0 0 0 5883989.9666831493 25408607.283332825 0 25408607.283332825 5548110.8532733917 0 0 0 0 -1436318.4334314684 10470148.368366137 0 10470148.368366137 1211501.6148389131 0 0 0 0 14969413.380515277 21716413.267860413 0 21716413.267860413 -5594195.3309631348 0 0 0 0 -6738132.2795264721 30952649.318012238 0 30952649.318012238 57801173.122070312 0 0 0 0 3586725.2384659648 5103579.2725830078 0 5103579.2725830078 8103115.854388237 0 0 0 0 -114011.47322922945 764300.67177772522 0 764300.67177772522 8027970.587638855 0 0 0 0 1315320.9596341646 2844595.911664281 0 2844595.911664281 6157679.0487384796 0 0 0 0 4764245.6239993647 5099351.5845108032 0 5099351.5845108032 7836339.118057251 0 0 0 0 7409791.4691206813 5549219.8249969482 0 5549219.8249969482 4817420.2734680176 0 0 0 0 1232026.5250961781 -468860.32421875 0 -468860.32421875 6442365.2381820679 0 0 0 0 -1486203.5214792336 1896648.1003044173 0 1896648.1003044173 6282596.4462169334 0 0 0 0 -40763905.381212234 -48306364.361953735 0 -48306364.361953735 -32821197.850910187 0 0 0 0 -14007591.003003001 18217994.434833527 0 18217994.434833527 55110822.047012329 0 0 0 0 -6415039.6289739609 20934726.98487854 0 20934726.98487854 27413061.18878746 0 0 0 0 -2716274.4486212255 8189982.078675814 0 8189982.078675814 12876546.403228931 0 0 0 0 -2367829.7076172829 4690288.7981109619 0 4690288.7981109619 14778605.769582748 0 0 0 0 1933637.7289099947 -249969.52126649395 0 -249969.52126649395 16195255.336733535 0 0 0 0 -2491568.3588850899 8788634.9108535051 0 8788634.9108535051 17305207.321850792 0 0 0 0 4746819.2782290578 -11328.181274414062 0 -11328.181274414062 11180534.948997498 0 0 0 0 10177745.95172596 110946.41750335693 0 110946.41750335693 8052860.837059021 0 0 0 0 4373330.9352178052 2257156.8853957653 0 2257156.8853957653 8721724.2347869873 0 0 0 0 7709246.8773803413 2184759.2335510254 0 2184759.2335510254 6345926.4927215576 0 0 0 0 8250749.5750932693 -4636067.9821243286 0 -4636067.9821243286 9853744.2189216614 0 0 0 0 7130038.5393106341 -1958613.0507507324 0 -1958613.0507507324 7392785.0812683105 0 0 0 0 1400157.7840229855 -1807747.2033399791 0 -1807747.2033399791 16234291.745118011 0 0 0 0 4918103.4976391234 -2786021.6757874489 0 -2786021.6757874489 12846164.956741333 0 0 0 0 -7880001.6408569217 -38839.964767456055 0 -38839.964767456055 29785982.5962677 0 0 0 0 1958710.8982541561 76272.313896179199 0 76272.313896179199 13464354.819946289 0 0 0 0 -3173315.3712447882 -3968441.8337783813 0 -3968441.8337783813 25027749.935195923 0 0 0 0 3685282.8609216213 -4297424.758392334 0 -4297424.758392334 30973105.032485962 0 0 0 0 -7278894.1319599152 -193201.81204223633 0 -193201.81204223633 10587882.997220993 0 0 0 0 -3613934.7009313107 7781815.2581329346 0 7781815.2581329346 12808299.13653183 0 0 0 0 -89973546.317321777 3858245.2331237793 0 3858245.2331237793 65158899.823375702 0 0 0 0 -3651089.1470367177 1974518.583906014 0 1974518.583906014 22493228.991828814 0 0 0 0 52543.752724317601 -403765.19302134961 0 -403765.19302134961 984693.48307873355 0 0 0 0 -101066.44179488756 10194809.558374543 0 10194809.558374543 10987295.110577479 0 0 0 0 -22450396.100951195 15305187.820798874 0 15305187.820798874 29702985.852783203 0 0 0 0 858783.04475947632 -10391244.208767105 0 -10391244.208767105 25538161.739339598 0 0 0 0 -4286450.8763427734 10209008.160484314 0 10209008.160484314 29547026.16277504 0 0 0 0 -10192973.339111328 21031766.324188232 0 21031766.324188232 32261765.631645203 0 0 0 0 -6424064.9773103287 3026817.2557543954 0 3026817.2557543954 17908939.976678859 0 0 0 0 -1168690.8350452455 395998.80436050566 0 395998.80436050566 1513845.0861178674 0 0 0 0 -35322640.499355316 -8949417.1853218079 0 -8949417.1853218079 44372542.690292358 0 0 0 0 -8147734.3534317017 2017846.680015564 0 2017846.680015564 86181897.557408333 0 0 0 0 -5799296.5772698279 870290.94231573213 0 870290.94231573213 18525235.050215166 0 0 0 0 5914308.1003494263 -8774507.2961120605 0 -8774507.2961120605 77133169.211462021 0 0 0 0 -25527324.709350586 16275512.245407104 0 16275512.245407104 74392482.973644257 0 0 0 0 -4032144.3208961487 18269145.252372742 0 18269145.252372742 70819528.193595886 0 0 0 0 1901649.5605545044 3136808.3374328613 0 3136808.3374328613 63429015.856399536 0 0 0 0 -15765560.313644409 20216511.724403381 0 20216511.724403381 47649195.532264709 0 0 0 0 26721979.234924316 -2263373.7222290039 0 -2263373.7222290039 41118344.295341492 0 0 0 0 14933564.151008606 5859531.3113479614 0 5859531.3113479614 35950791.786834717 0 0 0 0 5350858.5677509308 -6879357.4305477142 0 -6879357.4305477142 51808397.710357666 0 0 0 0 8065522.7282028198 -13844392.54271698 0 -13844392.54271698 67179888.180616379 0 0 0 0 -115765.51774311066 1404674.3567066193 0 1404674.3567066193 64450584.315177917 0 0 0 0 -24380644.415523529 -20210066.954341888 0 -20210066.954341888 63639749.569335938 0 0 0 0 1599311.0973817457 -3778513.9089936945 0 -3778513.9089936945 -626119.63601090759 0 0 0 0 7021218.3281363249 -15690814.730067492 0 -15690814.730067492 65454716.326644897 0 0 0 0 7777829.0476455688 -24755846.090385437 0 -24755846.090385437 77819505.378507614 0 0 0 0 7659855.645075798 -28190354.34504509 0 -28190354.34504509 46794831.546829224 0 0 0 0 14713142.93081665 -13401385.509422302 0 -13401385.509422302 55555071.57006073 0 0 0 0 41489072.345451355 -63395009.743728638 0 -63395009.743728638 83111131.459793091 0 0 0 0 -11077830.774463654 -36775289.262020111 0 -36775289.262020111 83608847.602310181 0 0 0 0 3990899.5173187256 -24537810.542339325 0 -24537810.542339325 58026988.785604477 0 0 0 0 -356419.30075645447 -22826400.643442154 0 -22826400.643442154 58476088.057601929 0 0 0 0 1301156.466594696 -29533182.00528717 0 -29533182.00528717 77172021.294973373 0 0 0 0 28871677.641140461 -29318361.117087364 0 -29318361.117087364 42862143.532165527 0 0 0 0 -62467613.487663627 -5382536.7813515663 0 -5382536.7813515663 2163246.3125152588 0 0 0 0 -63750272.13390255 -20285473.11277771 0 -20285473.11277771 5803953.2665405273 0 0 0 0 -11608687.983530045 -125211032.42646027 0 -125211032.42646027 22111496.348366737 0 0 0 0 600829.67077831365 -2902855.4722192963 0 -2902855.4722192963 8130356.6485338993 0 0 0 0 61713.034560486209 -1126670.5854575671 0 -1126670.5854575671 14355163.207622655 0 0 0 0 4553008.2620450854 -4336907.5324020386 0 -4336907.5324020386 10240619.138698578 0 0 0 0 -32994455.149988174 72794576.227096558 0 72794576.227096558 21848798.555831909 0 0 0 0 180350323.23924255 78231148.259159088 0 78231148.259159088 -58240080.322463989 0 0 0 0 -48261952.586313248 -16731841.364589691 0 -16731841.364589691 5603637.7905426025 0 0 0 0 -1525075.410658435 -573563.9281649976 0 -573563.9281649976 12099250.96862074 0 0 0 0 1783424.1236766577 -4468783.8906402588 0 -4468783.8906402588 10705220.897796631 0 0 0 0 -4955197.9748395085 -8711716.1560153961 0 -8711716.1560153961 16003615.829208374 0 0 0 0 10350614.462623596 -22794814.775588989 0 -22794814.775588989 26082213.738021851 0 0 0 0 -932096.4833969567 -5520796.6617346415 0 -5520796.6617346415 10523681.299415948 0 0 0 0 15506445.441261292 -9303381.6406173706 0 -9303381.6406173706 15002611.281677246 0 0 0 0 16834464.839118958 -26215109.95803833 0 -26215109.95803833 18162933.445000648 0 0 0 0 -11902199.223762512 1662999.0641326904 0 1662999.0641326904 22136765.154464722 0 0 0 0 9911907.7587776184 -26910603.237796783 0 -26910603.237796783 31486634.658752441 0 0 0 0 22635450.023620605 -25156876.130935669 0 -25156876.130935669 -27291523.373977661 0 0 0 0 5587799.939455973 -10095614.564370072 0 -10095614.564370072 7266479.9360801801 0 0 0 0 -1009567.4557015589 1151976.8216301277 0 1151976.8216301277 845542.04708094895 0 0 0 0 308197086.90237439 -92895214.6024158 0 -92895214.6024158 40700952.276916504 0 0 0 0 -9016353.5334844589 -6064075.0505027771 0 -6064075.0505027771 -175703.47308349609 0 0 0 0 -48145641.1521492 -8855449.2771377563 0 -8855449.2771377563 2061844.2121582031 0 0 0 0 -1408828.6923315991 -14666699.456061512 0 -14666699.456061512 18700641.481043469 0 0 0 0 433844156.25615311 -126130023.49253464 0 -126130023.49253464 29314837.429393768 0 0 0 0 1941269.9340415001 -9463318.0518035889 0 -9463318.0518035889 14434661.444519043 0 0 0 0 2381430.2639838308 -8023874.7100095749 0 -8023874.7100095749 14956642.330993652 0 0 0 0 21728949.049599767 -23434785.872886658 0 -23434785.872886658 26669151.200088501 0 0 0 0 21805050.022800952 -5829450.5476181358 0 -5829450.5476181358 9409874.4017486572 0 0 0 0 23208453.165959537 1918734.4555358887 0 1918734.4555358887 5488137.6502990723 0 0 0 0 19132466.162477195 -6425064.038192749 0 -6425064.038192749 9432653.6583862305 0 0 0 0 10860973.03572832 2286066.8607711792 0 2286066.8607711792 6129482.4111251831 0 0 0 0 14185455.765547777 1481002.6400928497 0 1481002.6400928497 5013958.7142028809 0 0 0 0 13294798.240185656 -3749278.1661524773 0 -3749278.1661524773 7671563.3618469238 0 0 0 0 11702156.590832949 -10780713.535614014 0 -10780713.535614014 12938320.187076569 0 0 0 0 16039045.30671376 -3790279.468082428 0 -3790279.468082428 7188835.6131820679 0 0 0 0 20732269.726992622 303618439.37464714 0 303618439.37464714 1654866709.3224907 0 0 0 0 1140351.0836706352 135136483.1674763 0 135136483.1674763 637726644.90174866 0 0 0 0 227553467.52344769 53949142.900627136 0 53949142.900627136 111136376.93811035 0 0 0 0 -120556.24468557016 -26424.346648298204 0 -26424.346648298204 803295.6512099728 0 0 0 0 -365436931.1682148 1130164802.2671013 0 1130164802.2671013 3454547401.3488846 0 0 0 0 248247889.30942965 713418601.27036285 0 713418601.27036285 1501098653.3348656 0 0 0 0 796569777.14577913 1823101417.4533691 0 1823101417.4533691 1113154541.6118317 0 0 0 0 1955338.8181960324 1008736.8933350928 0 1008736.8933350928 3561438.2718117237 0 0 0 0 996064756.94475329 1260832977.7922812 0 1260832977.7922812 -86714227.728546143 0 0 0 0 130049168.1687519 -72919404.684289932 0 -72919404.684289932 -189099259.54460144 0 0 0 0 156255924.788849 -212931496.87274933 0 -212931496.87274933 73448622.465103149 0 0 0 0 -172101.82121027494 -58369.707449231297 0 -58369.707449231297 514201.40328254551 0 0 0 0 81430924.878197804 -160916329.61231232 0 -160916329.61231232 653815967.41802216 0 0 0 0 29197774.841552615 86583.152923583984 0 86583.152923583984 104525088.72390366 0 0 0 0 244488844.21169555 129291448.5111084 0 129291448.5111084 142449535.25619507 0 0 0 0 -324868150.19410801 -31350045.246231079 0 -31350045.246231079 180545677.49985981 0 0 0 0 -52639999.648631573 -31355926.723686218 0 -31355926.723686218 179899827.63331032 0 0 0 0 -213953187.2640574 -57763769.320308685 0 -57763769.320308685 -54982703.529769897 0 0 0 0 -719504.59763042326 550017.74743729457 0 550017.74743729457 13685444.750456139 0 0 0 0 -402623185.41209447 131632630.18928528 0 131632630.18928528 126181081.9085083 0 0 0 0 26524685.423799708 -14145849.413215637 0 -14145849.413215637 -21610910.036125183 0 0 0 0 -37594757.383913219 22968828.495632172 0 22968828.495632172 29453467.159576416 0 0 0 0 -639984568.91421485 -11605946.683486938 0 -11605946.683486938 332539384.41650391 0 0 0 0 -710888200.27806783 451527704.41712189 0 451527704.41712189 -38132935.221688271 0 0 0 0 2323616.5259982301 2528729.2466592453 0 2528729.2466592453 8075519.0576991141 0 0 0 0 -97073438.027537704 -914661913.69224548 0 -914661913.69224548 3459796661.7418137 0 0 0 0 -379692755.19277233 405139977.11064148 0 405139977.11064148 3460215040.0983734 0 0 0 0 -211613374.40903452 -235217101.4710083 0 -235217101.4710083 930882188.83007812 0 0 0 0 217649588.37285197 436628316.14888763 0 436628316.14888763 512109579.89881134 0 0 0 0 162471503.72244895 -259334400.67016125 0 -259334400.67016125 -63451142.11769104 0 0 0 0 255810400.39516211 -143904513.1428299 0 -143904513.1428299 -245265700.29780197 0 0 0 0 2379281929.8782911 -1873210466.8299441 0 -1873210466.8299441 750821376.48800659 0 0 0 0 547591867.28447163 963488779.52399445 0 963488779.52399445 1143500992.1611137 0 0 0 0 870948.18110243476 -2143686.1488258508 0 -2143686.1488258508 4287051.7000373602 0 0 0 0 154364629.93374375 -2197105052.2932663 0 -2197105052.2932663 3459228088.1686502 0 0 0 0 -630981317.29814398 -795788135.61813927 0 -795788135.61813927 1860690259.201004 0 0 0 0 -463600550.85080147 -1970838425.8057098 0 -1970838425.8057098 856297529.92333221 0 0 0 0 637002922.4505043 -2426773992.3450623 0 -2426773992.3450623 1045007910.5518188 0 0 0 0 1400634787.5933888 -1070713942.4424973 0 -1070713942.4424973 132363426.24645996 0 0 0 0 539893198.61183441 -867607509.69898224 0 -867607509.69898224 1498129938.7584991 0 0 0 0 893741113.44201946 -768760781.52513123 0 -768760781.52513123 1181083467.8548584 0 0 0 0 1211218394.9076166 -1189874046.0041046 0 -1189874046.0041046 1419898810.392067 0 0 0 0 208683873.19199079 -164393713.80774546 0 -164393713.80774546 1867228025.105011 0 0 0 0 -189810.9466172441 -90244.147663941607 0 -90244.147663941607 1123608.1762341261 0 0 0 0 -4716786.7671121359 43430768.726081848 0 43430768.726081848 17115260.079685211 0 0 0 0 439428844.5686357 -279545414.07898712 0 -279545414.07898712 38856697.744857788 0 0 0 0 153615273.48744535 457363775.01438904 0 457363775.01438904 735202149.69473267 0 0 0 0 -110568332.97911197 -115078510.24886322 0 -115078510.24886322 -92450774.652519226 0 0 0 0 108790.60772849724 -2114072.2568410123 0 -2114072.2568410123 10566478.229905821 0 0 0 0 -712808841.91038895 31520829.296302795 0 31520829.296302795 890823223.46625519 0 0 0 0 -1345988.5318987458 -765637.62741864845 0 -765637.62741864845 2321123.3938652724 0 0 0 0 -57670694.786702514 -63879091.111244202 0 -63879091.111244202 -146471081.61625671 0 0 0 0 -7559161.8887649179 -7916817.9931564331 0 -7916817.9931564331 14089637.344009399 0 0 0 0 -805809.88243784325 3843122.7927505802 0 3843122.7927505802 11973611.489498407 0 0 0 0 -16792940.969624043 -20055944.765346527 0 -20055944.765346527 15365467.475509644 0 0 0 0 -2164629.8377462924 -2333582.4784728047 0 -2333582.4784728047 6428227.7310832888 0 0 0 0 -322484502.91091728 -179913261.84719372 0 -179913261.84719372 11148468.316741943 0 0 0 0 -259622809.59304178 437700776.01097107 0 437700776.01097107 -341800062.12977791 0 0 0 0 110358785.54093254 -387055817.20572662 0 -387055817.20572662 -566051925.14539337 0 0 0 0 -41386094.34161067 35958634.64352417 0 35958634.64352417 44462156.275718689 0 0 0 0 11357266.486019194 -48811561.856666565 0 -48811561.856666565 70262063.791595459 0 0 0 0 380016967.29998171 682558833.93721008 0 682558833.93721008 -286996205.36367798 0 0 0 0 379816.03827787738 -677574.37574438006 0 -677574.37574438006 2488782.681882903 0 0 0 0 12210189.498128217 5213621.9777254462 0 5213621.9777254462 1576083.6578979492 0 0 0 0 -2493623.434862636 -2509546.2010212615 0 -2509546.2010212615 4723147.6147404835 0 0 0 0 -1619551.5064777196 2441388.090051177 0 2441388.090051177 21386968.316190369 0 0 0 0 -21297425.019358527 -30468252.29360342 0 -30468252.29360342 48696291.738891602 0 0 0 0 -48460981.181073129 -9652222.975440979 0 -9652222.975440979 88632547.722898483 0 0 0 0 17821645.101857148 -22816038.342260838 0 -22816038.342260838 50230422.501083374 0 0 0 0 11574070.335250624 67409129.63965416 0 67409129.63965416 22114814.955459595 0 0 0 0 -20856472.131425858 14824148.764251709 0 14824148.764251709 22810084.858501434 0 0 0 0 -22026994.965088904 21696864.364143372 0 21696864.364143372 89334729.221893311 0 0 0 0 -2810246.0462532043 19577226.446846008 0 19577226.446846008 212264.64346694946 0 0 0 0 -6362587.4288541824 10970141.429512024 0 10970141.429512024 17014920.319168091 0 0 0 0 -500109.33981549635 8718075.9834361933 0 8718075.9834361933 -1190872.9466688149 0 0 0 0 26103788.16032052 29885817.438186646 0 29885817.438186646 -43567376.841903687 0 0 0 0 28138.673134740442 415180.17482803762 0 415180.17482803762 826425.48384113237 0 0 0 0 -28183580.792466342 115067018.86356926 0 115067018.86356926 -286626164.61749268 0 0 0 0 141884.93886341545 1165061.9110847502 0 1165061.9110847502 120010.06253771484 0 0 0 0 -27065667.346697628 17977442.318119049 0 17977442.318119049 26926914.570026398 0 0 0 0 -3433652.1165567548 1357501.9225847083 0 1357501.9225847083 20604447.930323228 0 0 0 0 -177670161.69081914 -17265587.501411438 0 -17265587.501411438 22381945.705368042 0 0 0 0 -279696907.93046069 34999970.051034927 0 34999970.051034927 57834182.891159058 0 0 0 0 -107585659.26361322 24539969.333244324 0 24539969.333244324 93346261.212097168 0 0 0 0 -106714355.58481646 20712206.512268066 0 20712206.512268066 -139679227.50701904 0 0 0 0 -461867359.97513771 -32835194.966278076 0 -32835194.966278076 35872285.981506348 0 0 0 0 38419148.168239355 -67400435.669151306 0 -67400435.669151306 32530173.087526321 0 0 0 0 -134864103.72701514 38002241.812522888 0 38002241.812522888 61325212.975006104 0 0 0 0 -111437212.59238708 -46675140.68536377 0 -46675140.68536377 -37044234.095413208 0 0 0 0 -211116275.53627646 7143985.4727830887 0 7143985.4727830887 1119871.3624572754 0 0 0 0 -195003557.36656237 24201254.865608215 0 24201254.865608215 19113115.734355927 0 0 0 0 -217250596.22693014 5439410.5643081665 0 5439410.5643081665 5894903.4382286072 0 0 0 0 -218445.98142873892 -252329.03735873103 0 -252329.03735873103 465627.13853055984 0 0 0 0 -240165213.38727042 -84736515.561144829 0 -84736515.561144829 -44623149.093811035 0 0 0 0 -19517548.217033163 54588088.118779182 0 54588088.118779182 47045339.455657959 0 0 0 0 -45529257.876473725 -119288874.59030151 0 -119288874.59030151 -24506571.856683731 0 0 0 0 -167587.8118403391 -509653.85583363101 0 -509653.85583363101 781665.28653526306 0 0 0 0 -35496082.222393036 -66506256.279350281 0 -66506256.279350281 -39020129.934410095 0 0 0 0 -58551462.02795577 -1382706.3233337402 0 -1382706.3233337402 -12993610.531295776 0 0 0 0 -12417101.005773306 -37209452.248497009 0 -37209452.248497009 -5826629.6634025574 0 0 0 0 -45964250.64780283 -35497351.937831879 0 -35497351.937831879 133824517.4420929 0 0 0 0 -30888508.504500866 -91023913.765277863 0 -91023913.765277863 205671743.11456299 0 0 0 0 81514323.268963575 -136096285.41236877 0 -136096285.41236877 133854169.05686931 0 0 0 0 7103666.3301090002 -150798956.02050781 0 -150798956.02050781 254664952.00065613 0 0 0 0 -2055709.0166656971 -4039839.0624771118 0 -4039839.0624771118 1306094.2289390564 0 0 0 0 -51793.20327424322 -281092.92501106113 0 -281092.92501106113 421707.82167030871 0 0 0 0 -39939548.530606128 -81849773.134403229 0 -81849773.134403229 291936827.67442322 0 0 0 0 86503537.597303033 -206851018.09632111 0 -206851018.09632111 236875194.97652817 0 0 0 0 144094597.4736163 -175925189.29347992 0 -175925189.29347992 37368331.935371399 0 0 0 0 -191092.63493917393 -196752180.96727675 0 -196752180.96727675 280666781.47793579 0 0 0 0 527722.89807294193 -196687970.65808105 0 -196687970.65808105 280654331.27245331 0 0 0 0 91657671.596926302 149856107.66135406 0 149856107.66135406 194274883.41023636 0 0 0 0 84935075.030594483 -197233962.78464127 0 -197233962.78464127 46536864.925918579 0 0 0 0 -75015909.228489265 30899135.67431736 0 30899135.67431736 152089964.1506958 0 0 0 0 102089392.09250316 193079294.93526173 0 193079294.93526173 182828334.83268738 0 0 0 0 -60917.16091092283 137874.23752059042 0 137874.23752059042 676583.63798820227 0 0 0 0 -3362664.5565692801 -9624416.0260925293 0 -9624416.0260925293 41944088.749649048 0 0 0 0 -3165186.9942549681 -10965545.072689056 0 -10965545.072689056 49516903.578132629 0 0 0 0 -5454.4317136982772 -7970045.217880249 0 -7970045.217880249 38762198.538040161 0 0 0 0 12650.828109437634 -6985834.7630493557 0 -6985834.7630493557 29047567.91481781 0 0 0 0 -100845.99868346794 -362024.58743824065 0 -362024.58743824065 230461.76715158671 0 0 0 0 1808595.3972969148 -11983428.525039673 0 -11983428.525039673 34830755.57749939 0 0 0 0 1812541.0019557928 -11602252.854616404 0 -11602252.854616404 31927015.145729065 0 0 0 0 -715485.12843542092 -436390.50018609315 0 -436390.50018609315 412798.34847528115 0 0 0 0 84518116.16970849 -244146665.59244537 0 -244146665.59244537 305024761.38472748 0 0 0 0 112409533.03051928 -94066048.685529232 0 -94066048.685529232 198313001.01254272 0 0 0 0 3159370.9455224383 -15516742.200599432 0 -15516742.200599432 16278733.014015198 0 0 0 0 3168724.8364563212 -15962440.227798462 0 -15962440.227798462 37462459.00806427 0 0 0 0 -4024410.553269349 -15751151.484825134 0 -15751151.484825134 37554710.006326675 0 0 0 0 -5867088.1470582001 -20938493.110168457 0 -20938493.110168457 55046083.480239868 0 0 0 0 -10298822.234197654 -12874019.096069336 0 -12874019.096069336 53688801.146066666 0 0 0 0 -21457564.350336462 -22817845.794929504 0 -22817845.794929504 70171288.813755035 0 0 0 0 32139068.241955537 -37785726.905643463 0 -37785726.905643463 -65909643.072509766 0 0 0 0 -1272601.6430326137 193440.29486660659 0 193440.29486660659 1599894.0948972329 0 0 0 0 -4264292.5717824437 -32688456.755039215 0 -32688456.755039215 31049011.441116333 0 0 0 0 -5240918.1632758826 -40042546.701927185 0 -40042546.701927185 67378565.601878166 0 0 0 0 6993735.4645562172 -254560587.64700317 0 -254560587.64700317 464658050.55317688 0 0 0 0 -1215830.8887022501 -257919.06660887599 0 -257919.06660887599 859834.34286493063 0 0 0 0 -163036993.6620636 -156000697.92874146 0 -156000697.92874146 200623581.86870575 0 0 0 0 -47723663.050638676 -119696391.61602783 0 -119696391.61602783 32873186.00113678 0 0 0 0 -350408362.03066796 -146917422.48406601 0 -146917422.48406601 41053360.823150635 0 0 0 0 -410605117.24195004 282782788.32901001 0 282782788.32901001 -144304619.97271729 0 0 0 0 -192701934.11226416 117748666.7988739 0 117748666.7988739 84390720.395629883 0 0 0 0 -150483470.57950377 -5712109.7547607422 0 -5712109.7547607422 401639518.17503357 0 0 0 0 107549528.55108988 -100468024.47230911 0 -100468024.47230911 203422050.7046814 0 0 0 0 -12186147.82569623 -193941662.72849274 0 -193941662.72849274 496014159.37435532 0 0 0 0 49803722.145405531 -37442386.338607788 0 -37442386.338607788 247171520.93140602 0 0 0 0 -50254621.087548912 47129184.211460114 0 47129184.211460114 228933888.12884521 0 0 0 0 -190433651.71094799 102600103.30938721 0 102600103.30938721 115252258.33761597 0 0 0 0 3854257.1351630688 -40984412.713508606 0 -40984412.713508606 200130549.51873779 0 0 0 0 -170765451.98787212 55073465.279510498 0 55073465.279510498 108840379.10650635 0 0 0 0 29386029.965245247 -2955308.0172195435 0 -2955308.0172195435 -128361222.96670532 0 0 0 0 -171770255.69100094 62798266.068054199 0 62798266.068054199 49505046.18170166 0 0 0 0 -10951559.652826369 17266673.429012299 0 17266673.429012299 60895616.407791138 0 0 0 0 6265317.9410724789 58036663.613273621 0 58036663.613273621 58177379.502792358 0 0 0 0 -12681096.041824371 25808405.437934875 0 25808405.437934875 233316481.87356567 0 0 0 0 749330.1134608984 -5234142.4771881104 0 -5234142.4771881104 193162217.60929871 0 0 0 0 -939426.70852030022 646248.82867836952 0 646248.82867836952 2742107.7158427648 0 0 0 0 7069433.1739629358 -90081813.434150696 0 -90081813.434150696 315303836.70007706 0 0 0 0 35995184.113620847 -103465311.74354553 0 -103465311.74354553 103927158.33253479 0 0 0 0 133813403.48717847 55371547.875867844 0 55371547.875867844 -99692261.774703979 0 0 0 0 -78113571.941815376 2645303.4766235352 0 2645303.4766235352 296359007.52636719 0 0 0 0 60052836.165406883 -208930018.45217896 0 -208930018.45217896 294083296.08070374 0 0 0 0 -31234139.651144248 -44297510.528335571 0 -44297510.528335571 218582869.93923187 0 0 0 0 14235933.352682957 97373106.144487381 0 97373106.144487381 157994202.04347229 0 0 0 0 36357424.020082377 52681273.68881321 0 52681273.68881321 63452917.956741333 0 0 0 0 11193502.014066607 -3692750.4397583008 0 -3692750.4397583008 7819396.7245635986 0 0 0 0 74880758.021680444 59254450.753658295 0 59254450.753658295 16231688.422210693 0 0 0 0 -253238.42558594185 -116907.12138872966 0 -116907.12138872966 1176220.2525319979 0 0 0 0 -21164897.446645088 411433.18155860901 0 411433.18155860901 21527300.675750732 0 0 0 0 3745847.3034334481 -1105335.7873687744 0 -1105335.7873687744 13079295.258209229 0 0 0 0 -14397177.725664318 -1288719.4013824463 0 -1288719.4013824463 18172180.5 0 0 0 0 -340447.18409782648 -3935217.5124435425 0 -3935217.5124435425 9461360.4244537354 0 0 0 0 -16477097.736732632 1635117.4341964722 0 1635117.4341964722 9876131.2013092041 0 0 0 0 9357787.2064822987 11018480.154646873 0 11018480.154646873 18770525.437454224 0 0 0 0 -10098841.831622034 622872.87269592285 0 622872.87269592285 13597939.758544922 0 0 0 0 10515331.980914652 1086490.5694580078 0 1086490.5694580078 7374371.2769927979 0 0 0 0 -2369442.6830800455 4326690.5789222717 0 4326690.5789222717 17843713.427429199 0 0 0 0 15913873.46028487 21332981.424705505 0 21332981.424705505 31892911.752197266 0 0 0 0 20546921.372670516 2667514.7651062012 0 2667514.7651062012 14038221.810165405 0 0 0 0 45469306.787835486 15810266.738471985 0 15810266.738471985 9238128.9353942871 0 0 0 0 3350175.3219731287 6499196.908082962 0 6499196.908082962 22841344.99041748 0 0 0 0 14528460.088838838 21702719.090316772 0 21702719.090316772 31803471.684783936 0 0 0 0 8421116.4893588312 16308580.037157059 0 16308580.037157059 39757846.536804199 0 0 0 0 14568863.516956769 30768643.049682617 0 30768643.049682617 45934867.233562469 0 0 0 0 13914787.458904535 10235091.234794617 0 10235091.234794617 18378630.095375061 0 0 0 0 11066687.421222135 3121337.4463195801 0 3121337.4463195801 13037521.19732666 0 0 0 0 5590275.2858901173 7132943.9418640137 0 7132943.9418640137 29571739.212778091 0 0 0 0 6692398.6960941292 11646137.262580872 0 11646137.262580872 29077596.678706169 0 0 0 0 1793286.8274427364 14833630.024654388 0 14833630.024654388 45488271.175949097 0 0 0 0 -4346642.6721367929 17889189.207593918 0 17889189.207593918 64921500.026580811 0 0 0 0 -12971976.816718023 3271997.6372375488 0 3271997.6372375488 84487252.102725983 0 0 0 0 -2890095.9250480533 25487471.569297791 0 25487471.569297791 94740497.132240295 0 0 0 0 -4272692.5365557 17359572.371192932 0 17359572.371192932 67677077.557250977 0 0 0 0 -16612734.917695407 -17092602.197147369 0 -17092602.197147369 76787026.663970947 0 0 0 0 -8613925.7449328825 -8073710.8834838867 0 -8073710.8834838867 61341231.488975525 0 0 0 0 -13683819.221708268 -1575212.9692001343 0 -1575212.9692001343 54079052.065406799 0 0 0 0 -5160026.3265471011 6957994.2049865723 0 6957994.2049865723 50927020.64704895 0 0 0 0 -6087499.3945084661 7642859.8846435547 0 7642859.8846435547 56559245.881111145 0 0 0 0 -122506.32943270821 6746064.0287704468 0 6746064.0287704468 33418286.112915039 0 0 0 0 -816157.98741468508 9108870.9866867065 0 9108870.9866867065 38791932.615592957 0 0 0 0 -5454939.8891208051 3191712.192150116 0 3191712.192150116 45125818.300979614 0 0 0 0 -5397193.2889153725 2484190.0760006905 0 2484190.0760006905 42852091.947418213 0 0 0 0 -2488906.9001960568 1376423.5434951782 0 1376423.5434951782 37913940.738006592 0 0 0 0 -1051098.4229508233 4835794.6589050293 0 4835794.6589050293 35329961.415596008 0 0 0 0 -1255.3076464032733 857087.58041381836 0 857087.58041381836 33662133.828399658 0 0 0 0 -3027956.7908369722 2534258.7696800232 0 2534258.7696800232 40141353.829421997 0 0 0 0 -5877.1130240912753 -988605.90293884277 0 -988605.90293884277 41478092.340333939 0 0 0 0 -4759900.4949404001 -656181.87152099609 0 -656181.87152099609 49031892.747367859 0 0 0 0 -5172397.0962246321 -5155068.728843689 0 -5155068.728843689 47359117.132514954 0 0 0 0 -8475049.6972505804 -7438712.6782178879 0 -7438712.6782178879 47424921.129653931 0 0 0 0 -3232.828985566754 -5892885.0894523133 0 -5892885.0894523133 45340945.494277954 0 0 0 0 -14131614.710197449 59247690.060592651 0 59247690.060592651 177048800.54784393 0 0 0 0 -124542197.62958908 22995436.98348999 0 22995436.98348999 269727258.55940247 0 0 0 0 -639865.43481652299 -2191822.3597295852 0 -2191822.3597295852 25211160.722367689 0 0 0 0 -1897004.4060533568 1027346.8416025341 0 1027346.8416025341 5804061.8999012262 0 0 0 0 275455638.82753158 405725675.55097961 0 405725675.55097961 -98044876.535980225 0 0 0 0 -206057334.00949001 137106084.82023621 0 137106084.82023621 -30752115.673873901 0 0 0 0 -33454360.198244095 9323555.1238460541 0 9323555.1238460541 50115099.396530151 0 0 0 0 448656749.98220515 -188433215.55244446 0 -188433215.55244446 -74866785.887481689 0 0 0 0 -662258365.4450388 27248052.429199219 0 27248052.429199219 176225591.74660492 0 0 0 0 90438985.423170805 -63087572.718505859 0 -63087572.718505859 145030394.21753693 0 0 0 0 -20428387.786013722 342998537.13591957 0 342998537.13591957 685630648.87277222 0 0 0 0 374916580.24131125 487609800.3721714 0 487609800.3721714 348414106.68215942 0 0 0 0 -206266493.84290451 33668141.037621811 0 33668141.037621811 186805720.53106689 0 0 0 0 -8048710.9332408905 -116430251.24987793 0 -116430251.24987793 42648525.202484131 0 0 0 0 -161109938.84484267 18008746.323913574 0 18008746.323913574 150264660.22702026 0 0 0 0 -20428537.667063236 -12098695.603572845 0 -12098695.603572845 58288960.654464722 0 0 0 0 -178466408.20856714 -4124629.190536499 0 -4124629.190536499 125399903.33812714 0 0 0 0 -6443509.5461995928 1850889.6247650124 0 1850889.6247650124 43431208.609746709 0 0 0 0 -6714610.0086222515 -5609043.1688690446 0 -5609043.1688690446 20229498.23525358 0 0 0 0 -18370687.721307278 -6870882.291097641 0 -6870882.291097641 70512292.440673828 0 0 0 0 -11915164.441418648 1246501.1617507935 0 1246501.1617507935 59140426.743980408 0 0 0 0 -2533436.1485443115 -20296286.690011978 0 -20296286.690011978 95752800.731903076 0 0 0 0 -2003858.3217990841 -5276317.0637134369 0 -5276317.0637134369 15840279.19282952 0 0 0 0 -17226532.296154022 -26995131.192806244 0 -26995131.192806244 125887094.45383835 0 0 0 0 -7679198.352142334 603287.79086303711 0 603287.79086303711 26224027.781578064 0 0 0 0 -6467758.182321744 889400.82014284842 0 889400.82014284842 21901157.68864863 0 0 0 0 -5755075.2846677303 1669363.0963363647 0 1669363.0963363647 39551283.417368412 0 0 0 0 -6615191.6702033281 1195074.4816167355 0 1195074.4816167355 39615244.819564819 0 0 0 0 -4277401.5127544403 -6383797.9158477783 0 -6383797.9158477783 20003574.218185425 0 0 0 0 -7296968.977065552 -539839.18489773758 0 -539839.18489773758 33465832.245621834 0 0 0 0 -6935930.8276520967 1140735.6511383057 0 1140735.6511383057 16507863.538566589 0 0 0 0 -8939083.0766823888 1302497.3637981415 0 1302497.3637981415 55805449.244441986 0 0 0 0 -4410698.7953934669 2179868.141292572 0 2179868.141292572 55851126.152256012 0 0 0 0 -7671249.8332896223 1954703.3013107637 0 1954703.3013107637 30088796.494367495 0 0 0 0 -9649391.2466605306 -1077873.8107762337 0 -1077873.8107762337 56136323.790397644 0 0 0 0 -6312096.9499778748 -916059.43064689636 0 -916059.43064689636 56129593.573179722 0 0 0 0 -7971283.5121994019 -6375233.0068778992 0 -6375233.0068778992 66980840.122907162 0 0 0 0 -9706551.2377281189 -4228362.9644317627 0 -4228362.9644317627 66818325.988037109 0 0 0 0 -9507643.2873908132 -294799.16986119747 0 -294799.16986119747 60739354.97800827 0 0 0 0 -5868721.1021456718 -8414593.7169437408 0 -8414593.7169437408 62453713.022338867 0 0 0 0 -26890863.687589645 842447.77586364746 0 842447.77586364746 4479707.5725708008 0 0 0 0 -29402567.980461121 -2911681.7245025635 0 -2911681.7245025635 2132414.7885131836 0 0 0 0 -8792185.8526329137 12881771.532203447 0 12881771.532203447 24646421.3747309 0 0 0 0 -6714946.7354085445 254176.93727874756 0 254176.93727874756 54686115.063625336 0 0 0 0 -4804789.9981088638 -6278327.3243732452 0 -6278327.3243732452 54438513.435943604 0 0 0 0 818512.03144855169 3508534.5869348436 0 3508534.5869348436 4801880.2862036973 0 0 0 0 -9029826.928314209 3108076.4860687256 0 3108076.4860687256 7831923.5478820801 0 0 0 0 -5263454.6776004471 -1272961.332074834 0 -1272961.332074834 28429933.887145288 0 0 0 0 -814745.96251442668 5258002.6639340315 0 5258002.6639340315 7087792.5281378031 0 0 0 0 -8864127.4216654301 5785471.2147750854 0 5785471.2147750854 12962898.382461548 0 0 0 0 -8322507.389966011 -2014135.9911651611 0 -2014135.9911651611 44987098.15713501 0 0 0 0 -7694246.4515972137 5371653.1633834839 0 5371653.1633834839 13108472.445831299 0 0 0 0 -8223922.3424744606 3719339.2247390747 0 3719339.2247390747 19485253.931335449 0 0 0 0 251473.99719142914 5393476.9919700623 0 5393476.9919700623 8350624.0075836182 0 0 0 0 -7098635.5158789605 8206382.9351055622 0 8206382.9351055622 9239185.5450592041 0 0 0 0 -5137112.2568924138 5729811.0863949805 0 5729811.0863949805 25453415.642834965 0 0 0 0 -7266279.9645309448 4136884.9014816284 0 4136884.9014816284 9927398.5598602295 0 0 0 0 -3750100.8378394032 12881936.412794702 0 12881936.412794702 19211895.309551843 0 0 0 0 -5046601.8994816588 7561272.1905009067 0 7561272.1905009067 8206701.9270986393 0 0 0 0 -3051331.594005228 8170728.5974727664 0 8170728.5974727664 6066469.8575464636 0 0 0 0 -41489355.70472908 -5792650.9472961426 0 -5792650.9472961426 -34442138.606445312 0 0 0 0 -26970411.914188385 1086047.9414825439 0 1086047.9414825439 5164642.3803710938 0 0 0 0 -3619634.6663899561 2762193.9702580981 0 2762193.9702580981 20562194.980560608 0 0 0 0 -17336433.177791774 2853387.6022338867 0 2853387.6022338867 11249154.445800781 0 0 0 0 6306397.3791103363 7834036.1683425903 0 7834036.1683425903 34186178.793395996 0 0 0 0 -530675.75599931646 -4389774.7128328532 0 -4389774.7128328532 29230735.457443856 0 0 0 0 -7111960.3865818381 -8836861.2786202356 0 -8836861.2786202356 43486029.065449879 0 0 0 0 -8855429.0508937836 8207130.7498703003 0 8207130.7498703003 46459806.126548767 0 0 0 0 -21660408.599131584 -4872820.404586792 0 -4872820.404586792 45111817.060684204 0 0 0 0 -29207225.103013992 -5513572.3808135986 0 -5513572.3808135986 47675419.206726074 0 0 0 0 -17178589.087304711 10555843.739089966 0 10555843.739089966 48823620.089477539 0 0 0 0 -10716483.857448578 15168572.745262146 0 15168572.745262146 38910192.001815796 0 0 0 0 -14846755.938696623 6810120.5655403137 0 6810120.5655403137 47822270.20463562 0 0 0 0 -10288304.660611153 12911840.464705467 0 12911840.464705467 46835265.985977173 0 0 0 0 -11060993.335499763 11984553.188743591 0 11984553.188743591 46202555.895759583 0 0 0 0 -13188756.49038887 7026085.73828125 0 7026085.73828125 73636978.633392334 0 0 0 0 -7491752.4318299294 14513651.743156433 0 14513651.743156433 53408558.85206604 0 0 0 0 -20782819.563209534 -18970489.152145386 0 -18970489.152145386 120404677.72784424 0 0 0 0 -596650.68930387497 -16046551.699287415 0 -16046551.699287415 71091367.804246902 0 0 0 0 -5918291.4099650383 -4788895.9046478271 0 -4788895.9046478271 47355970.329147339 0 0 0 0 -7178054.0590434074 681054.03010368347 0 681054.03010368347 60632022.578033447 0 0 0 0 2305012.1684583426 12119195.90120697 0 12119195.90120697 64971917.548355103 0 0 0 0 -15092405.81965816 17902849.908416748 0 17902849.908416748 103709094.64927673 0 0 0 0 -26786953.276287913 -7927225.6858901978 0 -7927225.6858901978 100093066.06793976 0 0 0 0 -28786465.815248489 4395781.3251838684 0 4395781.3251838684 183112040.71575165 0 0 0 0 1900140.3478424251 37414850.570579529 0 37414850.570579529 103774541.88845062 0 0 0 0 13805414.466609493 -23431547.430168152 0 -23431547.430168152 162448055.62709045 0 0 0 0 34125812.556862831 75083176.312530518 0 75083176.312530518 -139304870.36756897 0 0 0 0 -580092.56783619896 633014.14882587641 0 633014.14882587641 4736514.4183925055 0 0 0 0 -69543391.202864736 -36180330.677558899 0 -36180330.677558899 207950346.93325806 0 0 0 0 -78395798.93101947 87868526.572625756 0 87868526.572625756 76520556.428939819 0 0 0 0 42685189.410387278 -44636756.804222107 0 -44636756.804222107 66724627.327651978 0 0 0 0 10459956.057152748 6114673.2236633301 0 6114673.2236633301 8203832.6031036377 0 0 0 0 -13182077.359211922 -77087458.382385254 0 -77087458.382385254 135883967.57630539 0 0 0 0 -9942293.2834739685 -76893878.661911011 0 -76893878.661911011 52511226.211303711 0 0 0 0 5771704.9949378967 -151261443.74052048 0 -151261443.74052048 117443702.59586334 0 0 0 0 -96536115.306374431 -107875368.0559063 0 -107875368.0559063 133457626.23483276 0 0 0 0 97288557.706772327 -118671376.77853394 0 -118671376.77853394 68626811.800102234 0 0 0 0 332128.36859190976 458112.1640361473 0 458112.1640361473 4583298.2404895127 0 0 0 0 -511636191.4578886 -160563736.27438354 0 -160563736.27438354 951157686.11724854 0 0 0 0 89258566.224568844 -43529730.005157471 0 -43529730.005157471 25178239.212158203 0 0 0 0 -620350391.88697672 -775875913.76886749 0 -775875913.76886749 673480515.59692383 0 0 0 0 -89290408.339978218 -525193047.77328491 0 -525193047.77328491 -120184416.78317261 0 0 0 0 -48045364.179274559 75237924.910148621 0 75237924.910148621 120849780.97628784 0 0 0 0 -2664363.3303572685 -96372777.764258385 0 -96372777.764258385 149323621.31056976 0 0 0 0 355120446.36606407 624405951.70559692 0 624405951.70559692 268220152.9260025 0 0 0 0 -2424981.9145624046 175102.04983358085 0 175102.04983358085 5054129.258540079 0 0 0 0 -583088.60137596959 -264693.20949845016 0 -264693.20949845016 8871941.4216546379 0 0 0 0 64816844.533041954 214735991.08965302 0 214735991.08965302 -132360505.52061462 0 0 0 0 -31256523.749516487 515325601.38285828 0 515325601.38285828 335502894.58647919 0 0 0 0 85687759.021285057 -134274608.18057251 0 -134274608.18057251 136145531.86489105 0 0 0 0 93843127.156314611 -184768695.61175156 0 -184768695.61175156 422162057.54058838 0 0 0 0 7870781.2963075638 -95493287.644454956 0 -95493287.644454956 118719534.37406921 0 0 0 0 -7022602.1939077377 -51310033.254440308 0 -51310033.254440308 43429914.297042847 0 0 0 0 -67774913.633148193 -27183487.720703125 0 -27183487.720703125 59699205.292274475 0 0 0 0 -110228273.78561211 -36774391.831954956 0 -36774391.831954956 59631521.851745605 0 0 0 0 -50717065.934661865 -69528070.289611816 0 -69528070.289611816 40951352.789886475 0 0 0 0 -68003592.113056183 -69300018.568389893 0 -69300018.568389893 41597830.219848633 0 0 0 0 -65997927.601161957 -28750583.72479248 0 -28750583.72479248 60524206.911193848 0 0 0 0 -31031597.330521107 -135141133.2358551 0 -135141133.2358551 201410910.57702637 0 0 0 0 -43247390.061444044 -111745258.61174011 0 -111745258.61174011 225330889.85235596 0 0 0 0 148228424.86715984 -159808011.42551422 0 -159808011.42551422 -315252319.04324341 0 0 0 0 -215502502.13822031 -149608004.93740845 0 -149608004.93740845 921438320.29577637 0 0 0 0 -28601313.392721176 -145020839.08711243 0 -145020839.08711243 241562423.76107597 0 0 0 0 -96230016.81979847 -173917354.41827393 0 -173917354.41827393 245940066.18122673 0 0 0 0 -44803108.511239529 37876521.689819336 0 37876521.689819336 -81521016.732208252 0 0 0 0 -69070970.765613556 -1026662693.9848328 0 -1026662693.9848328 254009413.00389099 0 0 0 0 -137710818.00752068 809734538.05975342 0 809734538.05975342 1630890672.9854736 0 0 0 0 96394238.04040885 235900714.07913208 0 235900714.07913208 501775063.80241394 0 0 0 0 206054093.41251361 -107256313.99692917 0 -107256313.99692917 56509316.195587158 0 0 0 0 151589259.41067982 -35030115.341522217 0 -35030115.341522217 -2009482.2948684692 0 0 0 0 1351206.9709885921 -1693041.6711381935 0 -1693041.6711381935 176588.61850918084 0 0 0 0 103936215.23720312 44214664.181915283 0 44214664.181915283 55131594.012817383 0 0 0 0 -500621.15080144326 -352260.7986821048 0 -352260.7986821048 713617.05402234942 0 0 0 0 -6562811.619325757 -73370322.960113525 0 -73370322.960113525 187784132.55844116 0 0 0 0 -1889203.2522065639 -13422608.631530762 0 -13422608.631530762 79977322.329926491 0 0 0 0 -74341450.412722558 46603233.568389893 0 46603233.568389893 303275986.96936035 0 0 0 0 -66729947.767119408 -109562221.77294731 0 -109562221.77294731 237687791.95574951 0 0 0 0 -69102659.366268158 -104264707.06654358 0 -104264707.06654358 401379378.253479 0 0 0 0 -72596162.616285324 63619057.250457764 0 63619057.250457764 409639133.49603081 0 0 0 0 -11798369.3189013 -3199809.8866424561 0 -3199809.8866424561 81449544.418607712 0 0 0 0 -1469895.4559968484 -660599.32319754362 0 -660599.32319754362 4215009.2628179938 0 0 0 0 -23664357.120417394 10476437.818832397 0 10476437.818832397 12009954.497955322 0 0 0 0 -4060641.1223723888 -717843.33890533447 0 -717843.33890533447 6363337.6452026367 0 0 0 0 -14330134.879443865 -1323743.7229132652 0 -1323743.7229132652 4586581.1016845703 0 0 0 0 -722471.06223422242 -727598.7464369908 0 -727598.7464369908 6146146.7582161576 0 0 0 0 -1333114.4580091971 -3473351.2690262198 0 -3473351.2690262198 4648391.3296167776 0 0 0 0 -1466064.1646552086 -7782858.5090351105 0 -7782858.5090351105 7950770.8412246704 0 0 0 0 34755536.468651772 -16776169.730705261 0 -16776169.730705261 1792175.3655881882 0 0 0 0 -1440812.4465823104 -1619392.7859843709 0 -1619392.7859843709 2435655.659103021 0 0 0 0 -19949376.578489065 1817422.7176208496 0 1817422.7176208496 19763017.540145874 0 0 0 0 -2342522.8312602043 -4199878.0106163025 0 -4199878.0106163025 -8485444.7414245605 0 0 0 0 -20160716.270013541 -7843349.3957595825 0 -7843349.3957595825 10694083.750289917 0 0 0 0 -2819519.1183225214 -10291612.732168198 0 -10291612.732168198 -24682919.740524292 0 0 0 0 -1246433.4294726942 -844908.20348047093 0 -844908.20348047093 7185110.53070914 0 0 0 0 -30658644.488277435 -54402953.720666885 0 -54402953.720666885 57895975.777587891 0 0 0 0 -20316943.93718195 -25134275.555335999 0 -25134275.555335999 50546240.766342163 0 0 0 0 45641525.42453146 -40273404.214054108 0 -40273404.214054108 24881406.197021484 0 0 0 0 406900.44054101931 -1157467.593720194 0 -1157467.593720194 9258482.4011228606 0 0 0 0 13567624.38994503 -34275387.147293091 0 -34275387.147293091 23889719.586866379 0 0 0 0 14485757.814542174 -11165676.244720459 0 -11165676.244720459 -3070032.2163619995 0 0 0 0 3695339.6210541725 -10556638.471843719 0 -10556638.471843719 20928889.395477295 0 0 0 0 105583.07938646153 -8562307.8376702257 0 -8562307.8376702257 34859838.008591697 0 0 0 0 -50716937.907970428 -24028913.586353302 0 -24028913.586353302 53330982.375789642 0 0 0 0 -28365783.885648727 -26725566.664897919 0 -26725566.664897919 40536045.738942146 0 0 0 0 -23859495.224194527 -11271857.144895554 0 -11271857.144895554 37818945.870418549 0 0 0 0 -22158050.04955864 -17676164.110155106 0 -17676164.110155106 56782082.166130066 0 0 0 0 -12978431.898325682 -25447265.780460835 0 -25447265.780460835 31664281.132740021 0 0 0 0 -24111104.018379211 -29291668.637739182 0 -29291668.637739182 41452280.404176712 0 0 0 0 -14899184.441043854 -29638692.496193886 0 -29638692.496193886 39456192.600082397 0 0 0 0 -30333648.641542435 -13083261.31085968 0 -13083261.31085968 37269890.958959579 0 0 0 0 -18694687.604539871 -2827996.3187522888 0 -2827996.3187522888 45466046.485061646 0 0 0 0 -1653815.9885688489 -12883751.231066599 0 -12883751.231066599 39038073.996742457 0 0 0 0 -6399405.8922961 -1868139.203004621 0 -1868139.203004621 17084792.710029788 0 0 0 0 -34617772.892393112 1383155.7110939026 0 1383155.7110939026 47682437.081863403 0 0 0 0 -62703429.901502609 69402.96838760376 0 69402.96838760376 48390555.236434937 0 0 0 0 -574207.96834564209 -30469809.608764648 0 -30469809.608764648 117274255.27304077 0 0 0 0 -13395650.846487522 -19315658.185307503 0 -19315658.185307503 46267441.597618103 0 0 0 0 -6552287.9998893738 -35428711.303119659 0 -35428711.303119659 49471982.478088379 0 0 0 0 -2815999.0577963721 11271835.28391514 0 11271835.28391514 22915759.564692974 0 0 0 0 -7432566.7022256851 10111801.4205513 0 10111801.4205513 53643019.377513885 0 0 0 0 -2534334.2800216675 2329895.8258361816 0 2329895.8258361816 10038280.218170166 0 0 0 0 -2209434.4957821467 -10410722.545496199 0 -10410722.545496199 10184825.809471939 0 0 0 0 569400.59521774063 -554649.76176544465 0 -554649.76176544465 21668252.799632944 0 0 0 0 -6965691.6818339042 2242592.8158311965 0 2242592.8158311965 45847289.656804726 0 0 0 0 -16429080.577504158 10564606.203605652 0 10564606.203605652 57376641.24508667 0 0 0 0 -129414002.90422013 -57809356.6941185 0 -57809356.6941185 20138723.943572998 0 0 0 0 -12398517.651221752 6697397.3188467026 0 6697397.3188467026 43121205.141799927 0 0 0 0 64124611.371708512 -67148615.690536499 0 -67148615.690536499 -306816412.0166626 0 0 0 0 -19927537.410580248 26950577.401990414 0 26950577.401990414 129248492.58150482 0 0 0 0 -4829842.5326146195 -671947.48168529943 0 -671947.48168529943 20207801.135254283 0 0 0 0 25275364.101984024 63392905.250305176 0 63392905.250305176 237282513.61312866 0 0 0 0 -22196603.59287262 -20649928.407852173 0 -20649928.407852173 105485103.87199211 0 0 0 0 4132927.8984684944 -9700726.1791343689 0 -9700726.1791343689 101727293.48879242 0 0 0 0 -40453475.55312252 20393870.497852325 0 20393870.497852325 77643891.589332581 0 0 0 0 -12831211.589259624 4475115.1877002716 0 4475115.1877002716 69579284.41721344 0 0 0 0 -7523341.9138335884 18822576.142275929 0 18822576.142275929 53189426.614944458 0 0 0 0 -13215685.102802277 19439221.708435059 0 19439221.708435059 57780559.596656799 0 0 0 0 -14977123.167981148 23316346.432929993 0 23316346.432929993 52796629.031616211 0 0 0 0 -11841975.003070831 19399474.759372711 0 19399474.759372711 53206652.039046764 0 0 0 0 -1589814.2182247229 -191653.30717106164 0 -191653.30717106164 18902743.669083685 0 0 0 0 -11602760.750953674 20653854.804046631 0 20653854.804046631 53674854.884391785 0 0 0 0 -569405.55382248433 -277513.12740653194 0 -277513.12740653194 7402278.6445284244 0 0 0 0 -40262237.080665588 56559717.669084549 0 56559717.669084549 7938425.280632019 0 0 0 0 -119620998.39780903 32340736.046421051 0 32340736.046421051 84760536.057850838 0 0 0 0 -55643524.769148827 -93186928.245437622 0 -93186928.245437622 -9097857.6339454651 0 0 0 0 -135878075.37395096 -59652930.123435974 0 -59652930.123435974 98384246.007301331 0 0 0 0 -97144712.761882782 -30143137.948032379 0 -30143137.948032379 119184617.43199158 0 0 0 0 -23076396.689961433 -32921535.091030121 0 -32921535.091030121 54459664.025985718 0 0 0 0 -7568148.0303030014 -42831657.190105438 0 -42831657.190105438 40294907.798126221 0 0 0 0 -7268095.7169342041 -29412108.93044281 0 -29412108.93044281 38263769.210594177 0 0 0 0 -48967274.16702652 -56798416.450645447 0 -56798416.450645447 37990085.345056534 0 0 0 0 -20234272.060289383 -14970610.699409485 0 -14970610.699409485 59119192.839396477 0 0 0 0 -58679376.445711136 -4150145.9270038605 0 -4150145.9270038605 93263194.684074402 0 0 0 0 -71714302.320133686 6546428.8228321075 0 6546428.8228321075 146671488.99475479 0 0 0 0 -58123485.366595268 -1000045.3046607971 0 -1000045.3046607971 104581468.53936481 0 0 0 0 -57895621.089482307 43999412.653255463 0 43999412.653255463 130929669.45612717 0 0 0 0 -44975360.8952384 37876051.239748955 0 37876051.239748955 98746555.649398804 0 0 0 0 -40939087.726392746 24620293.041913986 0 24620293.041913986 107730747.46764374 0 0 0 0 -22929234.165466309 21381666.798851013 0 21381666.798851013 103522203.61573982 0 0 0 0 -28171229.739998579 3186779.5262908936 0 3186779.5262908936 105154317.84568024 0 0 0 0 -28210940.425484657 9490914.7155570984 0 9490914.7155570984 97476323.428726196 0 0 0 0 -28701123.403023005 12213047.624203682 0 12213047.624203682 81067188.247085571 0 0 0 0 -8179131.4673900604 7475794.8684539795 0 7475794.8684539795 82111532.172925949 0 0 0 0 -39727373.819313049 53526584.859642029 0 53526584.859642029 82257319.05947876 0 0 0 0 -12025195.478715897 22833651.753112793 0 22833651.753112793 55810185.824438095 0 0 0 0 -14534141.343254089 13847266.166366577 0 13847266.166366577 207028587.54006577 0 0 0 0 -490528.07041320764 -475037.93449022062 0 -475037.93449022062 2660463.0520996517 0 0 0 0 -3993833.7371902466 58603824.773193359 0 58603824.773193359 6579886.5395355225 0 0 0 0 -25408179.706483841 62761102.475063324 0 62761102.475063324 283625484.26850128 0 0 0 0 189861661.61404419 51131100.104431152 0 51131100.104431152 277618089.78918457 0 0 0 0 47151751.36212635 22318825.860935211 0 22318825.860935211 97092729.835609436 0 0 0 0 -41364.5319092297 5137545.4194433782 0 5137545.4194433782 5063866.2517565582 0 0 0 0 -1492546.4945138833 -921591.60692505352 0 -921591.60692505352 9095562.1791450493 0 0 0 0 -4707254.5539684296 -3678279.8580627441 0 -3678279.8580627441 131316793.76424408 0 0 0 0 -1566655.6687355042 16888251.473297119 0 16888251.473297119 112879513.4552002 0 0 0 0 -10525787.285164833 34173683.32862854 0 34173683.32862854 85269663.892189026 0 0 0 0 -768004.50923586357 4152686.0079005733 0 4152686.0079005733 10252073.886268947 0 0 0 0 402835.02360916138 2615660.5742797852 0 2615660.5742797852 15539866.161510468 0 0 0 0 5918495.1967926025 11492300.234401703 0 11492300.234401703 75488765.669769287 0 0 0 0 -619696.23907661438 2290161.9000205994 0 2290161.9000205994 14515671.028144836 0 0 0 0 139334.22593021393 3294488.3471450806 0 3294488.3471450806 15100064.36050415 0 0 0 0 -507610.61568927765 2592170.5462532043 0 2592170.5462532043 14746067.452041626 0 0 0 0 -1183853.6551265717 2380985.5348587036 0 2380985.5348587036 15358587.342788696 0 0 0 0 -21037074.296310425 20883046.768997192 0 20883046.768997192 12001887.50453186 0 0 0 0 -9123049.3790664673 7669834.6263885498 0 7669834.6263885498 11433502.304931641 0 0 0 0 -24005337.360572815 19356550.744590759 0 19356550.744590759 14228906.457733154 0 0 0 0 -24044202.958131313 18371577.647994757 0 18371577.647994757 7284115.2748413086 0 0 0 0 -19122882.493787766 30903651.500303268 0 30903651.500303268 -3799950.6803436279 0 0 0 0 -24511941.062784195 19190178.213726044 0 19190178.213726044 11177413.074035645 0 0 0 0 -30332605.373291016 28790950.209106445 0 28790950.209106445 -1795095.2730102539 0 0 0 0 -32440693.595504761 13207071.496490479 0 13207071.496490479 13083309.265899658 0 0 0 0 -30168685.092819214 13890116.498626709 0 13890116.498626709 5769834.4032897949 0 0 0 0 -38425403.531005859 11863650.439807892 0 11863650.439807892 13921506.896118164 0 0 0 0 -1000544.9228216456 8343086.8846313208 0 8343086.8846313208 19829510.341930155 0 0 0 0 -17612343.834310532 -6434062.7009773254 0 -6434062.7009773254 20021494.219360352 0 0 0 0 -25760972.819447517 -4999519.5331001282 0 -4999519.5331001282 26464982.444778442 0 0 0 0 -39039168.687286377 4273573.7841186523 0 4273573.7841186523 35609791.156677246 0 0 0 0 3390076.017055152 2343417.2645630082 0 2343417.2645630082 -5404527.9247219712 0 0 0 0 -6914804.5503610373 28224255.092809677 0 28224255.092809677 92342819.145568848 0 0 0 0 -45090076.665252686 21810051.757644653 0 21810051.757644653 -39706934.834716797 0 0 0 0 -10078709.009550905 11479935.576436743 0 11479935.576436743 21669994.16928415 0 0 0 0 -7177520.7856140137 20732880.71893692 0 20732880.71893692 84830460.616989136 0 0 0 0 24825256.062591553 46253196.040328979 0 46253196.040328979 77044333.88646698 0 0 0 0 3453153.8783588409 38294812.498174191 0 38294812.498174191 93904278.767974854 0 0 0 0 1642302.3455352783 27262968.67691803 0 27262968.67691803 75302496.459793091 0 0 0 0 -18154742.426872253 72156547.213623047 0 72156547.213623047 52019685.56993103 0 0 0 0 34422739.817298889 37467352.360046387 0 37467352.360046387 -25399120.330787659 0 0 0 0 -12985353.545333862 -21702478.095191956 0 -21702478.095191956 33931944.625953674 0 0 0 0 15087816.766889572 -1785864.3794441223 0 -1785864.3794441223 48060996.148227692 0 0 0 0 -31063986.086475372 -14001290.500816345 0 -14001290.500816345 55965873.315231323 0 0 0 0 17429202.254878998 -10209447.50164032 0 -10209447.50164032 78175775.202049255 0 0 0 0 14609856.885099411 29928707.01537323 0 29928707.01537323 55406763.223846436 0 0 0 0 12953172.138233185 25202230.101593018 0 25202230.101593018 74917017.685806274 0 0 0 0 -9388994.9354858398 2188214.4811248779 0 2188214.4811248779 68020051.332458496 0 0 0 0 -2470384.6721047368 -678424.46850932017 0 -678424.46850932017 19381218.468635116 0 0 0 0 -23694564.43397522 48241.402847290039 0 48241.402847290039 71628475.996623993 0 0 0 0 -30783239.176571965 -4330171.1613379717 0 -4330171.1613379717 69086607.094337463 0 0 0 0 -6186675.3190526944 5360750.6220710259 0 5360750.6220710259 23917639.030142378 0 0 0 0 -22710596.555305481 16413679.249504089 0 16413679.249504089 9426789.1368408203 0 0 0 0 -24291926.099510193 16342107.914421082 0 16342107.914421082 11110758.410491943 0 0 0 0 -25530017.909145355 10355524.381053925 0 10355524.381053925 -2654958.7568359375 0 0 0 0 -9472253.0451265331 5318436.5156902112 0 5318436.5156902112 29038363.178299163 0 0 0 0 -6556005.0143966675 2429215.2008666992 0 2429215.2008666992 5493557.2651863098 0 0 0 0 324206.22775555495 -3099354.0271502659 0 -3099354.0271502659 31117266.546637185 0 0 0 0 5611985.9750857353 4243186.2693252563 0 4243186.2693252563 69533510.80696106 0 0 0 0 -3316530.5661319857 316997.60982159898 0 316997.60982159898 18354617.581433021 0 0 0 0 -31578393.144993782 10151246.015808105 0 10151246.015808105 68776381.861427307 0 0 0 0 -313150.38658292592 3011142.8323265817 0 3011142.8323265817 4679398.1731287763 0 0 0 0 -4322741.1139348838 2831161.1455593109 0 2831161.1455593109 24928348.84746144 0 0 0 0 -607748.76846576575 451025.86382532306 0 451025.86382532306 5125518.2016860396 0 0 0 0 14862182.690412521 14891871.743537903 0 14891871.743537903 62464250.762245178 0 0 0 0 -19858087.541460037 -15784893.479300976 0 -15784893.479300976 51262943.746520996 0 0 0 0 -9728153.0615844727 -3031799.0900306702 0 -3031799.0900306702 85598020.007164001 0 0 0 0 -23146959.781261444 51106783.362167358 0 51106783.362167358 137155146.4997406 0 0 0 0 -15106875.052420139 -18847407.266689777 0 -18847407.266689777 37953927.313163757 0 0 0 0 11839737.94682312 33239119.942212105 0 33239119.942212105 57996170.365699768 0 0 0 0 -6301909.0596389771 11053708.658187866 0 11053708.658187866 67054667.02759552 0 0 0 0 -9875294.2560472488 -21106972.918375969 0 -21106972.918375969 25317197.288726807 0 0 0 0 -11137.155956772855 -338595.08340546116 0 -338595.08340546116 283880.29896047711 0 0 0 0 -33341943.735207558 11168460.365341187 0 11168460.365341187 27722869.440803528 0 0 0 0 17794175.899821281 7466872.6671447754 0 7466872.6671447754 -16313841.960769653 0 0 0 0 22605527.892627239 -11573278.746009827 0 -11573278.746009827 5168744.8542480469 0 0 0 0 -35601029.998865604 -1845506.9727020264 0 -1845506.9727020264 66514723.579345703 0 0 0 0 28810174.970068455 37416008.192550659 0 37416008.192550659 80091494.951583862 0 0 0 0 -7729347.5045213699 7518145.2096710205 0 7518145.2096710205 86364807.054046631 0 0 0 0 -40962109.216144502 45645020.221451759 0 45645020.221451759 61783183.939453125 0 0 0 0 16428870.870842457 3137613.1505813599 0 3137613.1505813599 40290639.989379883 0 0 0 0 -2252875.2505840752 -1886094.6139912829 0 -1886094.6139912829 20985424.408394113 0 0 0 0 -7682976.1513195038 20604434.111785889 0 20604434.111785889 74675682.431915283 0 0 0 0 952403.72767925262 3270192.9114074707 0 3270192.9114074707 42263224.270782471 0 0 0 0 -3067249.2570851194 -1125129.3078273982 0 -1125129.3078273982 21730209.398145668 0 0 0 0 -17560795.931860924 14103305.282936096 0 14103305.282936096 -6785252.4661407471 0 0 0 0 -3987661.332927227 -6774319.8578491211 0 -6774319.8578491211 20951644.383377075 0 0 0 0 -3099682.3374285698 15770707.28440094 0 15770707.28440094 -145867.39996337891 0 0 0 0 2127571.9964137077 5517410.6871185303 0 5517410.6871185303 3795635.7799530029 0 0 0 0 1565224.0452685356 -4358210.0532073975 0 -4358210.0532073975 -9069563.7682113647 0 0 0 0 19658781.960829735 12362361.168899536 0 12362361.168899536 -5964925.5490112305 0 0 0 0 59013395.894216537 -15945643.759185791 0 -15945643.759185791 58714748.862369537 0 0 0 0 7073740.0675344467 -4011987.8000946045 0 -4011987.8000946045 56420857.16897583 0 0 0 0 4838188.3227844238 6016974.4527435303 0 6016974.4527435303 60041717.904090881 0 0 0 0 -1122742.9545354843 -13668550.499343872 0 -13668550.499343872 50678436.994262695 0 0 0 0 21342084.598207712 -5310222.6533279419 0 -5310222.6533279419 22790295.783996582 0 0 0 0 2617260.7229092121 -7660518.5477600098 0 -7660518.5477600098 22689386.609527588 0 0 0 0 3796827.4504928589 -13609164.313858032 0 -13609164.313858032 29818710.262237549 0 0 0 0 -9206665.9517908096 -2849034.0139923096 0 -2849034.0139923096 42733041.610671997 0 0 0 0 -7577962.9799029827 -19831777.829904079 0 -19831777.829904079 27683480.0105896 0 0 0 0 -16490964.556186378 -18898183.995558739 0 -18898183.995558739 35535090.177124023 0 0 0 0 -15558259.273352623 -4389038.0547332764 0 -4389038.0547332764 25620302.57850647 0 0 0 0 1474511.1644554138 7874746.5939254761 0 7874746.5939254761 55719015.765991211 0 0 0 0 -2959817.5596866608 -7708448.0504150391 0 -7708448.0504150391 46495160.044830322 0 0 0 0 453429.90436720848 17484880.258140564 0 17484880.258140564 79748844.17855835 0 0 0 0 11775629.377362251 14268696.089157104 0 14268696.089157104 48722859.090918541 0 0 0 0 -469127.41309758835 2315602.4591333792 0 2315602.4591333792 8147001.9428590834 0 0 0 0 22397007.047020197 27705745.577856064 0 27705745.577856064 57252543.006958008 0 0 0 0 17572311.414411068 33726934.68359375 0 33726934.68359375 67204882.672988892 0 0 0 0 2317377.1322751045 5051654.1352081299 0 5051654.1352081299 61964882.822677612 0 0 0 0 43942839.763511181 61305652.279342651 0 61305652.279342651 70366156.396621704 0 0 0 0 2262646.0938491821 3577504.7827062607 0 3577504.7827062607 130008486.41207886 0 0 0 0 -283806.09465551376 18781718.940490723 0 18781718.940490723 3408981.8626251221 0 0 0 0 6066473.6305503845 16009848.517097473 0 16009848.517097473 -17334958.765136719 0 0 0 0 7552340.3941268921 8841183.6790542603 0 8841183.6790542603 -610891.79287719727 0 0 0 0 30931831.496240616 42111137.361686707 0 42111137.361686707 48301122.243459702 0 0 0 0 9293109.4026360512 4774135.7767276764 0 4774135.7767276764 -27978530.581924438 0 0 0 0 -319898.4420625614 1203604.2498420328 0 1203604.2498420328 3938491.8331983685 0 0 0 0 11319361.264430046 44613842.738616943 0 44613842.738616943 90366658.946792603 0 0 0 0 -3443953.2339834939 2090767.5053922571 0 2090767.5053922571 22958890.764543876 0 0 0 0 -1247477.7299499512 10416666.51222229 0 10416666.51222229 8680368.6313858032 0 0 0 0 1688806.3230967522 18061792.491104126 0 18061792.491104126 79500953.327252388 0 0 0 0 -1303305.7264712364 13919993.874440825 0 13919993.874440825 7245060.0031052232 0 0 0 0 -1405482.8987598419 9405348.4900665283 0 9405348.4900665283 15193652.120408535 0 0 0 0 -367538.28041369561 5906613.7006429881 0 5906613.7006429881 14911849.975546289 0 0 0 0 -121141.38588047028 3246252.5825119019 0 3246252.5825119019 6515363.5659484863 0 0 0 0 -147911.65369853063 1689594.0870069563 0 1689594.0870069563 3134971.7437390089 0 0 0 0 -17355324.326532841 17886180.457557678 0 17886180.457557678 91301768.233974457 0 0 0 0 -9093086.4409341812 -9461393.3492279053 0 -9461393.3492279053 156598586.16021729 0 0 0 0 -2087395.4950224445 -298670.78997455537 0 -298670.78997455537 2873450.3016328365 0 0 0 0 1009699.3065643311 19754399.974021912 0 19754399.974021912 -2996177.4823303223 0 0 0 0 1657147.3523280676 7908406.0731129851 0 7908406.0731129851 6578156.6307999566 0 0 0 0 -422141.34359191358 7706743.8069047928 0 7706743.8069047928 8457418.6631317139 0 0 0 0 -1579183.8517780304 8622576.8288421631 0 8622576.8288421631 7931635.4120483398 0 0 0 0 1442996.4620566545 13369705.986764735 0 13369705.986764735 4539672.7830652371 0 0 0 0 -6105034.0166473389 21544255.754135132 0 21544255.754135132 2361032.1039657593 0 0 0 0 -40956144.858132124 42558793.292106628 0 42558793.292106628 -9147629.3445892334 0 0 0 0 15482374.032308102 19061332.221950531 0 19061332.221950531 -63732057.602111816 0 0 0 0 225389.28600349097 3998380.6571800336 0 3998380.6571800336 1646299.3376108259 0 0 0 0 -27330454.370625496 25136867.534805298 0 25136867.534805298 9623004.730761528 0 0 0 0 -10204781.78094244 53751486.385131836 0 53751486.385131836 -51626743.055732727 0 0 0 0 13008043.588597775 22620325.828857422 0 22620325.828857422 -18052033.614109039 0 0 0 0 9257993.4326758385 32419190.191848755 0 32419190.191848755 -32343797.785827637 0 0 0 0 25037547.585498691 21905180.244935036 0 21905180.244935036 -44177334.584777832 0 0 0 0 22263917.867428303 8207542.5364761353 0 8207542.5364761353 -73804637.116264343 0 0 0 0 -27065785.493858457 61998312.470466614 0 61998312.470466614 -48817285.226867676 0 0 0 0 8457279.4105391502 48741201.119003296 0 48741201.119003296 -85175928.17376709 0 0 0 0 12907142.844260216 14868768.456932068 0 14868768.456932068 -25338994.849609375 0 0 0 0 5649018.2413802147 10095425.913784027 0 10095425.913784027 -28279217.623703003 0 0 0 0 -255600.37774968147 199798.27905654907 0 199798.27905654907 -33099664.301849365 0 0 0 0 13794555.989104748 17030410.306152344 0 17030410.306152344 -36196902.280883789 0 0 0 0 22780900.321089745 11684838.565895081 0 11684838.565895081 -39765015.435119629 0 0 0 0 31737235.130259514 -276556.32155609131 0 -276556.32155609131 -27904457.670578003 0 0 0 0 19874875.557097197 5341979.9933776855 0 5341979.9933776855 -27550001.850921631 0 0 0 0 10711782.795814514 8407153.1751556396 0 8407153.1751556396 -21087718.107505798 0 0 0 0 10328116.455786496 2900807.7527832985 0 2900807.7527832985 -10151879.454437256 0 0 0 0 3017934.2307214737 -3338047.8002319336 0 -3338047.8002319336 10654135.256721497 0 0 0 0 20184648.147918701 -5441808.2882843018 0 -5441808.2882843018 -10804628.532478333 0 0 0 0 1589741.4141316414 -1117919.4210281372 0 -1117919.4210281372 7520812.8595733643 0 0 0 0 5278435.8849867284 -4483840.0690872669 0 -4483840.0690872669 4800620.7298583984 0 0 0 0 5216135.1339035034 -6265545.586204052 0 -6265545.586204052 9171837.1323852539 0 0 0 0 31878858.628155708 -16998176.602600098 0 -16998176.602600098 -809183.46942138672 0 0 0 0 19555933.941423893 -109995.1008682251 0 -109995.1008682251 -21699914.053565979 0 0 0 0 1934041.1061372757 1071696.0340576172 0 1071696.0340576172 18458622.019332886 0 0 0 0 35895032.635189533 -17234434.492370605 0 -17234434.492370605 -815503.05673217773 0 0 0 0 4965954.4492783546 -13711781.101333618 0 -13711781.101333618 30476737.83581543 0 0 0 0 13646496.911931515 -21899334.033889771 0 -21899334.033889771 56580289.290298462 0 0 0 0 -480215.42203593254 -3326502.1608734131 0 -3326502.1608734131 11342135.327606201 0 0 0 0 839468.41808843613 -2281642.2793579102 0 -2281642.2793579102 12165645.643417358 0 0 0 0 10588450.536036491 38182368.267684937 0 38182368.267684937 -38409317.235542297 0 0 0 0 17691985.46392107 34429005.428375244 0 34429005.428375244 -20557321.348449707 0 0 0 0 38827769.716722488 47419957.403617859 0 47419957.403617859 -36611873.095458984 0 0 0 0 61346692.174012184 2545036.1273727417 0 2545036.1273727417 -41646943.946746826 0 0 0 0 15141914.705910444 22648299.728897095 0 22648299.728897095 -11896450.906280518 0 0 0 0 62523410.158927917 -330357.53489685059 0 -330357.53489685059 -6269515.8597602844 0 0 0 0 88848841.84084937 34831903.61622715 0 34831903.61622715 33199000.370895386 0 0 0 0 77574783.420529366 -50457218.251548767 0 -50457218.251548767 25644055.128677368 0 0 0 0 118908254.95146227 -56146101.415985107 0 -56146101.415985107 58118857.33814621 0 0 0 0 50170848.531403959 47547348.369997025 0 47547348.369997025 -16216373.491394043 0 0 0 0 66528789.803842068 770045.00816345215 0 770045.00816345215 -5025360.7500152588 0 0 0 0 24795637.777646542 20782418.975944519 0 20782418.975944519 21598257.572265625 0 0 0 0 8655500.5649194717 21852198.893447876 0 21852198.893447876 -8911527.1305999756 0 0 0 0 6363987.4655745029 49371445.707504272 0 49371445.707504272 -53638255.844985962 0 0 0 0 27784680.160342962 39204646.859210014 0 39204646.859210014 -34113359.871444702 0 0 0 0 -5009059.7130918503 51922709.494041443 0 51922709.494041443 -17684285.464576721 0 0 0 0 21515453.22646594 50686707.779630661 0 50686707.779630661 -39656684.984771729 0 0 0 0 -26184415.569769859 69322222.675468445 0 69322222.675468445 -32400848.587921143 0 0 0 0 -2811057.1481345892 50873603.226570129 0 50873603.226570129 -50375437.42401123 0 0 0 0 -2359504.6254086494 61600607.714324951 0 61600607.714324951 -47754904.81451416 0 0 0 0 -1456600.0063142776 65986741.310783386 0 65986741.310783386 -35255501.621257782 0 0 0 0 -34210704.637204647 55292121.672790527 0 55292121.672790527 -50765021.646671295 0 0 0 0 -76570415.054659843 57863165.719772339 0 57863165.719772339 -35040127.647705078 0 0 0 0 -25674690.005206585 69099543.308547974 0 69099543.308547974 -48200463.915740967 0 0 0 0 -25778550.35300684 41851311.077697754 0 41851311.077697754 -36435736.736789703 0 0 0 0 -56167713.871942878 78744945.519298553 0 78744945.519298553 -57904402.432525635 0 0 0 0 -89429033.121940613 84786754.475761414 0 84786754.475761414 -44502976.750411987 0 0 0 0 52217558.498198748 16017340.179023743 0 16017340.179023743 -44812088.712097168 0 0 0 0 -71400457.130100727 54304126.053909302 0 54304126.053909302 -70338845.121566772 0 0 0 0 -47674878.637969971 39124175.543426514 0 39124175.543426514 12630258.870643616 0 0 0 0 -88709730.894365311 -39897519.913085938 0 -39897519.913085938 -37390411.538345337 0 0 0 0 3841364.2415174181 2554418.4641262069 0 2554418.4641262069 503891.47577241808 0 0 0 0 -56156428.733549118 53484762.862503052 0 53484762.862503052 27669001.44644928 0 0 0 0 -49524504.60022068 29262388.569267273 0 29262388.569267273 -110111399.32977295 0 0 0 0 1142068.6254423601 8559105.7453481127 0 8559105.7453481127 16185955.634146176 0 0 0 0 -91882009.567598343 118968103.18322754 0 118968103.18322754 -75925604.826904297 0 0 0 0 -10329586.209318161 10984306.312255859 0 10984306.312255859 15757654.071563721 0 0 0 0 -20676720.306840897 113470376.16923523 0 113470376.16923523 -113861077.94119501 0 0 0 0 -34527967.722784042 102725025.99681854 0 102725025.99681854 -82998703.354034424 0 0 0 0 -1547568.8878211975 26552064.516174316 0 26552064.516174316 -70778622.64251709 0 0 0 0 -90033128.269168854 40369937.582931519 0 40369937.582931519 -70015845.150598526 0 0 0 0 4183460.6506478875 2067784.1379698329 0 2067784.1379698329 -3625770.2711796239 0 0 0 0 5959065.1381939407 4452703.3645647652 0 4452703.3645647652 1322573.2286135405 0 0 0 0 -61796027.423492432 55707531.800071716 0 55707531.800071716 -39257067.745635986 0 0 0 0 -9393356.1745071411 32356090.123191833 0 32356090.123191833 -82001015.941833496 0 0 0 0 -133424597.11541748 -15575272.763717651 0 -15575272.763717651 -71313782.626022339 0 0 0 0 -155646598.43391418 22649379.08631897 0 22649379.08631897 -42062004.201690674 0 0 0 0 84880047.036380768 9493560.9161376953 0 9493560.9161376953 -155382031.92759705 0 0 0 0 26101545.25423336 161347682.01219368 0 161347682.01219368 39766619.585510254 0 0 0 0 -53995197.449295044 95658514.29196167 0 95658514.29196167 93878727.934387207 0 0 0 0 -2352474.3051719666 7509138.7750167847 0 7509138.7750167847 12272303.645469666 0 0 0 0 2599930.0762424469 5036554.920501709 0 5036554.920501709 13506023.999549866 0 0 0 0 -7012440.5989685059 6074318.4718475342 0 6074318.4718475342 16433783.656982422 0 0 0 0 -2046462.4974956512 1939165.6999282837 0 1939165.6999282837 16821477.332567215 0 0 0 0 -4685983.4051837921 2815746.1010284424 0 2815746.1010284424 16912542.34727478 0 0 0 0 -2015038.1832008362 4046797.5592346191 0 4046797.5592346191 16382428.534840822 0 0 0 0 -1984377.6955804825 4140389.9432201385 0 4140389.9432201385 15071093.315734863 0 0 0 0 906368.47657775879 3786304.2487792969 0 3786304.2487792969 15098535.930804253 0 0 0 0 -1352332.4227164388 2992595.2856695652 0 2992595.2856695652 15394610.198242188 0 0 0 0 -1384442.9544916153 2364326.20520401 0 2364326.20520401 15376851.061309814 0 0 0 0 1087747.6614398956 2043938.7044372559 0 2043938.7044372559 15257682.370033264 0 0 0 0 1432790.2596450979 7381001.813685013 0 7381001.813685013 11176660.05189592 0 0 0 0 2959123.3749065399 1986909.3115386963 0 1986909.3115386963 14297985.167678833 0 0 0 0 -25199174.407764435 36641273.908538818 0 36641273.908538818 23735204.679260254 0 0 0 0 -12560895.236778259 125624814.93951416 0 125624814.93951416 16757188.221923828 0 0 0 0 4532265.4851459768 3428751.0453524329 0 3428751.0453524329 -7230202.7963714004 0 0 0 0 -45489339.516525269 72576472.394622803 0 72576472.394622803 82871339.985733032 0 0 0 0 -21967364.369792938 29658923.327735901 0 29658923.327735901 -49729422.62677002 0 0 0 0 -78043405.603408813 49378803.258789062 0 49378803.258789062 -53324021.088439941 0 0 0 0 -16126258.546937943 20882066.262657166 0 20882066.262657166 -101450765.6605835 0 0 0 0 -51469099.299339294 96963974.964004517 0 96963974.964004517 10622512.157470703 0 0 0 0 -34433061.027168274 50307127.817047119 0 50307127.817047119 -1879637.0109863281 0 0 0 0 -43682357.596076965 78538272.454986572 0 78538272.454986572 5896439.5282516479 0 0 0 0 -41933130.161430359 67188641.514907837 0 67188641.514907837 32025154.682067871 0 0 0 0 -34532850.201675415 74000593.214859009 0 74000593.214859009 -24149666.12298584 0 0 0 0 -25719156.108253479 63208661.002044678 0 63208661.002044678 -31238224.254455566 0 0 0 0 -34544765.427217722 53489844.497945786 0 53489844.497945786 -41751245.137390137 0 0 0 0 -7435165.4011230469 79657537.573852539 0 79657537.573852539 -35017325.686180115 0 0 0 0 -43700473.577445984 18917119.415283203 0 18917119.415283203 35159032.173821449 0 0 0 0 19621681.391601562 21474418.301040649 0 21474418.301040649 -142545276.47769165 0 0 0 0 31778639.77236557 48236309.71635437 0 48236309.71635437 -144899192.13378906 0 0 0 0 57041619.280914307 95021450.510025024 0 95021450.510025024 -116870156.42428589 0 0 0 0 -1660575.8341280799 -744397.59733553976 0 -744397.59733553976 3773001.1276843883 0 0 0 0 1577201.956161499 51348232.244628906 0 51348232.244628906 -63238652.629104614 0 0 0 0 -18286046.890655518 63119449.700714111 0 63119449.700714111 -60222450.809814453 0 0 0 0 -36705333.728939056 28050748.561660767 0 28050748.561660767 -5008127.135269165 0 0 0 0 -54478959.186195374 36302898.199478149 0 36302898.199478149 12539630.622207642 0 0 0 0 -32553098.025085449 19532545.162460327 0 19532545.162460327 -7634961.8858795166 0 0 0 0 10724449.756423116 13876925.134563446 0 13876925.134563446 -47152608.109527588 0 0 0 0 -29657063.260757446 36712476.105438232 0 36712476.105438232 -58818711.300689697 0 0 0 0 8135393.7574732415 9284692.1251524985 0 9284692.1251524985 3247852.0724901557 0 0 0 0 -116024598.13891983 -9801239.4445343018 0 -9801239.4445343018 104861279.96472168 0 0 0 0 -60123167.880966187 -34139026.626159668 0 -34139026.626159668 -48352180.139656067 0 0 0 0 -27180207.527770996 31525699.700515747 0 31525699.700515747 -3772620.8644065857 0 0 0 0 -38822197.448856354 32808735.897857666 0 32808735.897857666 35632057.013885498 0 0 0 0 -48599531.751110077 80338715.01399231 0 80338715.01399231 92954256.997989655 0 0 0 0 6230036.5100593567 42086754.569915771 0 42086754.569915771 -40174209.707569122 0 0 0 0 -27026986.690364569 58804477.373589516 0 58804477.373589516 -45445715.45765686 0 0 0 0 70899857.775808334 11967134.163719177 0 11967134.163719177 -30499161.920898438 0 0 0 0 6758677.8307086229 6401279.2125265151 0 6401279.2125265151 2165569.8934081197 0 0 0 0 -25115573.074840307 68490973.282867432 0 68490973.282867432 -46944683.249362946 0 0 0 0 4280125.2711672485 2314204.4881742485 0 2314204.4881742485 -2955108.0680215061 0 0 0 0 -55047194.089984894 97955934.761787415 0 97955934.761787415 16643577.491699219 0 0 0 0 -55620840.428077698 102769551.38604736 0 102769551.38604736 65092849.051651001 0 0 0 0 2914.7984816004191 2467498.8945121765 0 2467498.8945121765 3971126.5656204224 0 0 0 0 270198.76858647139 2259846.0320069492 0 2259846.0320069492 4097018.68699646 0 0 0 0 -2424392.4721289333 4734156.1533355713 0 4734156.1533355713 4387347.312713623 0 0 0 0 287586.689476314 4388884.8633575439 0 4388884.8633575439 2810321.7634124756 0 0 0 0 -2411676.1589781935 7794209.4472122192 0 7794209.4472122192 -847486.67050170898 0 0 0 0 -2309014.8096428816 5732684.6037225723 0 5732684.6037225723 3067351.95703125 0 0 0 0 -2203170.3016244867 5015657.9513931274 0 5015657.9513931274 7998094.8324966431 0 0 0 0 -2030.298465334703 1821963.9815254211 0 1821963.9815254211 22333918.032669067 0 0 0 0 1039591.110889965 5584743.319984436 0 5584743.319984436 6479369.1981811523 0 0 0 0 -1699873.0391145628 6513644.3882465363 0 6513644.3882465363 26228222.158248901 0 0 0 0 -619063.17051560048 2767344.2408599854 0 2767344.2408599854 29334157.353027344 0 0 0 0 586374.7064902545 4534812.6647491455 0 4534812.6647491455 27443102.303070068 0 0 0 0 8249266.8514449149 4144839.0289154053 0 4144839.0289154053 -5784163.0208282471 0 0 0 0 -345204.10311519727 5119627.3360977173 0 5119627.3360977173 28160633.870758057 0 0 0 0 -8327.0575105491771 14871.703339003026 0 14871.703339003026 24393.241271092556 0 0 0 0 -6262666.3800392002 684786.85821533203 0 684786.85821533203 5893111.0578918457 0 0 0 0 -253590.13874881575 4751156.0147399902 0 4751156.0147399902 30118695.118896484 0 0 0 0 -470398.96456429036 5121821.1930027008 0 5121821.1930027008 30330855.414611816 0 0 0 0 -357263.59315883741 4605497.783208847 0 4605497.783208847 30653824.667984009 0 0 0 0 -409318.60545799136 5298417.2115707397 0 5298417.2115707397 29982304.13508606 0 0 0 0 -1880641.0078903288 5006005.6778945923 0 5006005.6778945923 27939564.297195435 0 0 0 0 3064593.5787348114 9417480.6187744141 0 9417480.6187744141 29271928.967346191 0 0 0 0 -32845.430620375737 48688.959455788136 0 48688.959455788136 78024.350268717855 0 0 0 0 -588979.51994384825 -82728.754913330078 0 -82728.754913330078 2436825.4404449463 0 0 0 0 1790661.4155481309 -834336.2783203125 0 -834336.2783203125 1990883.1682891846 0 0 0 0 1656423.9895275673 4842094.893196106 0 4842094.893196106 22626716.628051758 0 0 0 0 943608.63027129695 -117807.23215675354 0 -117807.23215675354 2174927.7059020996 0 0 0 0 -17858.376179881569 -41110.01322875917 0 -41110.01322875917 281667.79516933858 0 0 0 0 -172365.15667328984 -3387674.1036071777 0 -3387674.1036071777 6223005.6940536499 0 0 0 0 -2059940.4976421061 8055559.8854794502 0 8055559.8854794502 -2711163.9404067993 0 0 0 0 -706440.48848154396 3219285.0042572021 0 3219285.0042572021 -2421877.1676568985 0 0 0 0 -3307743.8715116903 2669543.7851791382 0 2669543.7851791382 2857822.8193054199 0 0 0 0 -3663024.7832079977 1835075.1451568604 0 1835075.1451568604 2435137.7800292969 0 0 0 0 -2920138.3236770779 1049842.1060791016 0 1049842.1060791016 890119.73600769043 0 0 0 0 -812890.57380858064 -1501236.4005432129 0 -1501236.4005432129 3184747.4050292969 0 0 0 0 -337029.59142503981 33363.703356154263 0 33363.703356154263 1324776.5006232113 0 0 0 0 -2259135.9794102013 2745980.9221801758 0 2745980.9221801758 1271614.5479888916 0 0 0 0 -603626.32162380591 -1692272.5647830963 0 -1692272.5647830963 2120670.3007202148 0 0 0 0 -1407702.8756912951 733254.90913304314 0 733254.90913304314 5674437.7711227387 0 0 0 0 -305503.81557421526 -1248625.6412853142 0 -1248625.6412853142 -228856.43545255065 0 0 0 0 -2675800.3566869497 -1824898.2773895264 0 -1824898.2773895264 -1303656.7219009399 0 0 0 0 -3593675.3612457309 -6732303.217669487 0 -6732303.217669487 -3997426.3608398438 0 0 0 0 -2412188.1010844531 -857219.73142334819 0 -857219.73142334819 5090657.380797796 0 0 0 0 -3103137.6141443402 1824649.6449508667 0 1824649.6449508667 -1774069.4017333984 0 0 0 0 -382071.00010630488 -873832.30990600586 0 -873832.30990600586 1227135.9394226074 0 0 0 0 -487797.56548714638 210359.54046630859 0 210359.54046630859 1446364.4934844971 0 0 0 0 -481883.87960126996 -524620.92156982422 0 -524620.92156982422 3149076.2917494774 0 0 0 0 -167981.21772268414 346691.29946899414 0 346691.29946899414 908379.78153991699 0 0 0 0 6026917.93745175 2280664.3343429565 0 2280664.3343429565 14609079.993530273 0 0 0 0 -69624.325926469421 114970.30125980079 0 114970.30125980079 156575.67838216946 0 0 0 0 -186089.32566918433 101172.51886749268 0 101172.51886749268 585193.84797668457 0 0 0 0 901333.84400683269 -9070.4223518371582 0 -9070.4223518371582 19971805.783447266 0 0 0 0 3356356.4387263656 4714157.7215118408 0 4714157.7215118408 25060146.954299927 0 0 0 0 3418660.805730673 3903355.5978212357 0 3903355.5978212357 25549548.947814941 0 0 0 0 12361904.020722106 5906950.8094024658 0 5906950.8094024658 18994249.659454346 0 0 0 0 9453685.3297259659 -561800.45532226562 0 -561800.45532226562 20017609.711433411 0 0 0 0 -4535649.1110630035 7943689.9463806152 0 7943689.9463806152 22455458.291566849 0 0 0 0 6218197.0059096925 -250166.06076812744 0 -250166.06076812744 23048029.157165527 0 0 0 0 9849704.155180037 -1103574.9088401794 0 -1103574.9088401794 13239897.921051025 0 0 0 0 -288128.7955896575 -485441.95815018658 0 -485441.95815018658 -14307.938391491771 0 0 0 0 8108169.3307065181 -13554395.033969879 0 -13554395.033969879 20985836.246856689 0 0 0 0 3685657.2340463251 3139676.0909118652 0 3139676.0909118652 3760555.2167663574 0 0 0 0 5528.8944338032597 -54534.577618315816 0 -54534.577618315816 -9300.7974570579827 0 0 0 0 3504243.6680201478 -281602.92974662781 0 -281602.92974662781 -4156547.0116882324 0 0 0 0 -495983.3118686527 18873.669906616211 0 18873.669906616211 1044177.6155548096 0 0 0 0 -13613.453257633162 -22068.335798745975 0 -22068.335798745975 -1538.1389644891024 0 0 0 0 -18177560.727780744 -21308889.192825317 0 -21308889.192825317 893152.5729675293 0 0 0 0 11151026.14014563 -23688144.979295731 0 -23688144.979295731 -3439816.8422698975 0 0 0 0 -1516508.0679193088 14170.822375897318 0 14170.822375897318 6229025.0585858077 0 0 0 0 10761577.959182858 -5141948.8256378174 0 -5141948.8256378174 7441282.5421142578 0 0 0 0 11672728.933623478 -10214219.614562988 0 -10214219.614562988 23783248.932312012 0 0 0 0 -13677045.809446648 8113551.1897354126 0 8113551.1897354126 6019468.8227996826 0 0 0 0 9471160.6918588579 877353.81864929199 0 877353.81864929199 15499006.726837158 0 0 0 0 7066492.2288851589 6300213.6771392822 0 6300213.6771392822 5535935.0775146484 0 0 0 0 -1444272.3783045087 -494409.95880113915 0 -494409.95880113915 6763009.2713369429 0 0 0 0 -29183239.391462877 -17707800.326454163 0 -17707800.326454163 10259822.85925293 0 0 0 0 1585405.4533629417 -57828864.308502197 0 -57828864.308502197 125340232.61730957 0 0 0 0 -4971373.508080177 -6820297.1135444641 0 -6820297.1135444641 -2690805.3630371094 0 0 0 0 -30162619.058087111 4108660.9563102722 0 4108660.9563102722 32544292.916412354 0 0 0 0 -34846805.174584389 -17675827.773483276 0 -17675827.773483276 41067795.371276855 0 0 0 0 -37960336.867778361 -42341335.83844614 0 -42341335.83844614 25302558.546524048 0 0 0 0 15868299.563232422 59106860.54133606 0 59106860.54133606 -51918151.757125854 0 0 0 0 -25291018.071710587 -14196353.124328613 0 -14196353.124328613 39844097.840843201 0 0 0 0 43847.040868232492 636014.15189491957 0 636014.15189491957 718515.27230908722 0 0 0 0 -28562432.061611176 -22113627.85635376 0 -22113627.85635376 36165867.561019897 0 0 0 0 -12377659.443031311 -13487844.486419678 0 -13487844.486419678 36695051.555099487 0 0 0 0 13762140.238924026 1546326.5793304443 0 1546326.5793304443 12758192.987258911 0 0 0 0 -2253558.7857618332 9077846.8805160522 0 9077846.8805160522 42270920.626373291 0 0 0 0 10156321.86135006 14592919.314651489 0 14592919.314651489 -25676996.020195007 0 0 0 0 -7431756.9941496849 -36831352.965585709 0 -36831352.965585709 -11911682.241439819 0 0 0 0 47290803.326348305 -12737837.234375 0 -12737837.234375 17828985.763153076 0 0 0 0 404931.75574273686 2194269.9699020945 0 2194269.9699020945 2298611.3830585033 0 0 0 0 -46912541.992339611 19226508.64389801 0 19226508.64389801 38335683.953186035 0 0 0 0 14535455.461872101 13109706.254989624 0 13109706.254989624 7249355.9684295654 0 0 0 0 -8139590.7315607071 1996341.255645752 0 1996341.255645752 43386186.358255386 0 0 0 0 -28836254.826202393 -1040425.8101959229 0 -1040425.8101959229 15804345.891845703 0 0 0 0 -5627742.2597913742 21162662.883026123 0 21162662.883026123 12427629.015838623 0 0 0 0 11369446.645677567 60208298.41607666 0 60208298.41607666 38196871.044540405 0 0 0 0 -7919063.1435270309 39155863.695724487 0 39155863.695724487 22544446.039878845 0 0 0 0 28263025.651351929 66182434.276687622 0 66182434.276687622 25309536.953826904 0 0 0 0 -9305858.2340984344 69111391.077636719 0 69111391.077636719 115299772.69192886 0 0 0 0 29200706.627277821 15265411.541288376 0 15265411.541288376 34464539.875152588 0 0 0 0 -15892288.498748779 22202407.702713013 0 22202407.702713013 99034056.312866211 0 0 0 0 4099140.8469057083 -4809130.8206634521 0 -4809130.8206634521 -57793453.511138916 0 0 0 0 -190505.5703670173 315763.66534465179 0 315763.66534465179 1239081.7446177192 0 0 0 0 19282809.777226448 14309816.374252319 0 14309816.374252319 -120702974.89489746 0 0 0 0 3551679.6168804169 -10408522.101745605 0 -10408522.101745605 1164402.0501480103 0 0 0 0 -5046398.2608137131 17106414.809265137 0 17106414.809265137 -24177464.625900269 0 0 0 0 -55750517.68787384 112612541.71209717 0 112612541.71209717 27256368.091003418 0 0 0 0 14151954.488184452 9600844.6773872375 0 9600844.6773872375 10976130.623893738 0 0 0 0 30539670.304603934 50028967.08204937 0 50028967.08204937 -33479650.746643066 0 0 0 0 70078274.909851074 -76501751.341156006 0 -76501751.341156006 -17712925.920230865 0 0 0 0 -427727.11717001675 321304.25527198613 0 321304.25527198613 709475.72976820916 0 0 0 0 128027.31714885833 1022749.744639867 0 1022749.744639867 272530.69415517151 0 0 0 0 -4885556.3449497223 -6502998.3448944092 0 -6502998.3448944092 -13755049.314697266 0 0 0 0 2743686.2205006136 3250843.5471738167 0 3250843.5471738167 2639128.7190153301 0 0 0 0 19649953.96717453 7242472.7690505981 0 7242472.7690505981 -5350989.5651092529 0 0 0 0 -380203.00223638769 1665067.3036564272 0 1665067.3036564272 4884641.5760030448 0 0 0 0 8146605.5861711502 -2484576.2642364502 0 -2484576.2642364502 4815414.6267929077 0 0 0 0 -4178903.0789909363 5692680.6982727051 0 5692680.6982727051 -2100037.9627990723 0 0 0 0 1741004.6100988388 15022812.520904541 0 15022812.520904541 -24457206.633293152 0 0 0 0 2169023.4801564217 4455264.4090499878 0 4455264.4090499878 -4392530.8090820312 0 0 0 0 4884435.7521247864 -726924.8265914917 0 -726924.8265914917 -3965434.3649768829 0 0 0 0 5304858.5722794533 2016482.6394691467 0 2016482.6394691467 4690391.1941070557 0 0 0 0 3235692.6826717854 -2177015.1594581604 0 -2177015.1594581604 6410860.7664642334 0 0 0 0 1386036.7572431564 -193831.18128967285 0 -193831.18128967285 11623187.253479004 0 0 0 0 961967.74911499023 -1672314.7040100098 0 -1672314.7040100098 11057468.054393768 0 0 0 0 1106801.8613314033 -686051.78148365021 0 -686051.78148365021 12881872.967041016 0 0 0 0 6602852.4492861032 4981988.7785835266 0 4981988.7785835266 7576370.4888305664 0 0 0 0 -813942.53283023834 440039.11647033691 0 440039.11647033691 4832218.2713775635 0 0 0 0 8457534.3163604736 -1419115.7540130615 0 -1419115.7540130615 6892771.6962165833 0 0 0 0 9366762.6341142654 3303142.5052642822 0 3303142.5052642822 11266449.89024353 0 0 0 0 10486406.612948418 -1615644.890832901 0 -1615644.890832901 8586316.6106872559 0 0 0 0 161396.40660133306 560875.47596246377 0 560875.47596246377 493624.40497151576 0 0 0 0 11783799.783791065 -416768.37026977539 0 -416768.37026977539 5007705.8898925781 0 0 0 0 -427040.96638319269 1930685.2960535623 0 1930685.2960535623 4657740.8571303785 0 0 0 0 -17775712.636848465 -2567291.2578277588 0 -2567291.2578277588 5909835.2152252197 0 0 0 0 -26334298.933143929 -5984806.4625701904 0 -5984806.4625701904 32070851.562316895 0 0 0 0 -16161115.522853225 19991941.880661011 0 19991941.880661011 36835075.394622803 0 0 0 0 43151619.541736685 -33062076.897476196 0 -33062076.897476196 -62236145.642700195 0 0 0 0 30176488.132482957 37220717.725280762 0 37220717.725280762 3936670.6893005371 0 0 0 0 17691950.070162341 47517187.458145142 0 47517187.458145142 58258242.912384033 0 0 0 0 -16242224.415970236 -15104599.52910614 0 -15104599.52910614 -36540118.362869263 0 0 0 0 -41708634.633124001 -14594093.652183533 0 -14594093.652183533 73530786.127502441 0 0 0 0 -1044167.4592983529 911630.63616024703 0 911630.63616024703 2535596.8089300934 0 0 0 0 -2954552.7048908472 5279709.0801696777 0 5279709.0801696777 -3734827.9214172363 0 0 0 0 -513444.23514268314 1459950.4394164942 0 1459950.4394164942 2187247.1272549555 0 0 0 0 -609716.56821060181 1180005.536605835 0 1180005.536605835 1027976.734161377 0 0 0 0 74865.436506152793 1100905.2147042584 0 1100905.2147042584 2772429.7914768234 0 0 0 0 39119539.017761052 45618815.694526672 0 45618815.694526672 30624953.530395508 0 0 0 0 -74606.31951618506 523320.62920518965 0 523320.62920518965 1249593.5793001242 0 0 0 0 9921888.3210161328 -1267463.4877853394 0 -1267463.4877853394 2971032.4883308411 0 0 0 0 -640741.08234870387 170895.37358929217 0 170895.37358929217 907793.69100112468 0 0 0 0 4210573.3067636862 3889591.5280761719 0 3889591.5280761719 5300094.9668884277 0 0 0 0 95702036.931608602 36418875.545188904 0 36418875.545188904 -14695575.991027832 0 0 0 0 99150.423080667999 262232.71410016995 0 262232.71410016995 188828.37399022281 0 0 0 0 1197097.1136855111 -14220162.035202026 0 -14220162.035202026 11656379.263168335 0 0 0 0 13139855.018978804 -8085423.294670105 0 -8085423.294670105 3683442.454284668 0 0 0 0 -2313820.4378207512 -2566492.293598175 0 -2566492.293598175 5148793.6438293457 0 0 0 0 -2340442.9262925293 1941714.6951408386 0 1941714.6951408386 3845084.3458251953 0 0 0 0 -2143260.9465766475 -2443478.6937484741 0 -2443478.6937484741 2201476.0595397949 0 0 0 0 280432.91461837379 920690.20766453724 0 920690.20766453724 668172.17432866991 0 0 0 0 -3461782.6326270998 1109995.7385253906 0 1109995.7385253906 6837590.5836791992 0 0 0 0 -2995867.51544079 -733733.89762878418 0 -733733.89762878418 7066672.3625183105 0 0 0 0 -3237301.8108924329 1156728.6672515869 0 1156728.6672515869 4553721.2386016846 0 0 0 0 -2397007.9992415458 768620.37428283691 0 768620.37428283691 4637265.3013153076 0 0 0 0 -2912497.6597386375 -445782.13421630859 0 -445782.13421630859 2772479.5770874023 0 0 0 0 17522226.593806803 21759768.146865845 0 21759768.146865845 -9430340.9563903809 0 0 0 0 -4456064.3738410845 5866752.2071285248 0 5866752.2071285248 9508628.8131103516 0 0 0 0 -32225338.55389291 8089172.6915130615 0 8089172.6915130615 45433120.910720825 0 0 0 0 118684.37145349807 492692.55230695754 0 492692.55230695754 372810.18880008161 0 0 0 0 20706820.385004774 8917763.6957168579 0 8917763.6957168579 -2836626.3363342285 0 0 0 0 7844014.4051744044 22670519.250518799 0 22670519.250518799 -4724348.221496582 0 0 0 0 12137659.13512376 13055706.065002441 0 13055706.065002441 -12504843.079330444 0 0 0 0 17630607.537154734 16468377.80267334 0 16468377.80267334 -10530183.906051636 0 0 0 0 -1940092.22536093 8490498.9982299805 0 8490498.9982299805 5899375.5523071289 0 0 0 0 335945.7310571901 1607097.8740996197 0 1607097.8740996197 1248026.8441149294 0 0 0 0 6433911.7670538127 4908567.828338623 0 4908567.828338623 -196484.73785400391 0 0 0 0 -2724931.990939796 3520323.4590454102 0 3520323.4590454102 5832858.0717773438 0 0 0 0 1766983.1511711332 3628086.0940158032 0 3628086.0940158032 5064847.8732221797 0 0 0 0 3399382.1402555108 3064485.8741912842 0 3064485.8741912842 4120523.4522399902 0 0 0 0 961436.43995191413 1575493.3580758348 0 1575493.3580758348 667393.09176155925 0 0 0 0 -1014381.6264379873 372458.45233285613 0 372458.45233285613 1999674.932141155 0 0 0 0 3833248.5433762074 8521800.5088806152 0 8521800.5088806152 4546581.3954467773 0 0 0 0 -1590870.0430107117 579972.34232330322 0 579972.34232330322 1353192.6616668701 0 0 0 0 -1295805.7365804166 1440956.9306526184 0 1440956.9306526184 2436433.0409545898 0 0 0 0 -2510683.8363786153 1922266.9559135437 0 1922266.9559135437 2704067.4111022949 0 0 0 0 -2572727.1598495692 1822579.3445739746 0 1822579.3445739746 3986853.7616577148 0 0 0 0 -3566250.4660044312 976118.26358032227 0 976118.26358032227 4460883.7860412598 0 0 0 0 -2945831.3383005857 1211717.3193664551 0 1211717.3193664551 3618478.0220947266 0 0 0 0 -4468844.2517053783 -78924.174774169922 0 -78924.174774169922 3414752.631652832 0 0 0 0 -51893.378498968552 129558.07108891755 0 129558.07108891755 178586.80242729932 0 0 0 0 -3489143.3901103586 867283.26536560059 0 867283.26536560059 6932687.2245864868 0 0 0 0 -3253023.1159693003 2281269.8020782471 0 2281269.8020782471 5126167.6293487549 0 0 0 0 -2811973.7601850629 1632657.5007629395 0 1632657.5007629395 4802364.4798812866 0 0 0 0 -3032814.9130564108 2677803.6285247803 0 2677803.6285247803 2948371.9510803223 0 0 0 0 -3764183.7920921706 2570506.0784111023 0 2570506.0784111023 6024639.5498352051 0 0 0 0 -3220738.7885675095 3281703.9990463257 0 3281703.9990463257 2565399.9126205444 0 0 0 0 -3912687.5076541435 742423.42660331726 0 742423.42660331726 5574775.5420532227 0 0 0 0 -3559778.0003059302 4203206.349697113 0 4203206.349697113 12604543.086959839 0 0 0 0 -4787515.8416103199 1823519.9633483887 0 1823519.9633483887 7994972.5938339233 0 0 0 0 -4874574.2560580224 -1233517.9804611206 0 -1233517.9804611206 14338047.660293579 0 0 0 0 -19782712.84373121 -4240176.9054107666 0 -4240176.9054107666 13983470.464803696 0 0 0 0 -6137799.5989974216 5815107.6418075562 0 5815107.6418075562 20784351.200302124 0 0 0 0 608431.14112180844 8059661.3777236938 0 8059661.3777236938 18806222.728820801 0 0 0 0 10120.914972935352 159704.14382831752 0 159704.14382831752 692097.46126267314 0 0 0 0 -2194319.9047730546 5874352.5992889404 0 5874352.5992889404 18079577.698417664 0 0 0 0 -687615.30154175684 5511661.533493042 0 5511661.533493042 17252503.215431213 0 0 0 0 -2723461.4495759904 2409669.0510177612 0 2409669.0510177612 12943691.609327316 0 0 0 0 653201.45593914576 2115815.4202575684 0 2115815.4202575684 13538726.825962067 0 0 0 0 -227669.47580331564 2016653.7038192749 0 2016653.7038192749 17697188.033927917 0 0 0 0 -5912.6682857333853 5066227.6600037757 0 5066227.6600037757 21317852.844459534 0 0 0 0 11093.836123146571 4935404.2045288086 0 4935404.2045288086 13733653.147598267 0 0 0 0 2684.7398206547218 3818.778324496001 0 3818.778324496001 3760.1268578842282 0 0 0 0 752049.04291062988 3908768.5433807373 0 3908768.5433807373 12052393.34954071 0 0 0 0 -759201.49907569494 1668944.4012145996 0 1668944.4012145996 5793486.4474639893 0 0 0 0 548316.42476637475 4736250.7300491333 0 4736250.7300491333 12471840.975898743 0 0 0 0 1689.8568213020062 1958.219156075269 0 1958.219156075269 866.61912302672863 0 0 0 0 2533069.2799656186 5220580.7333221436 0 5220580.7333221436 4191710.4087696075 0 0 0 0 1979.3230864228933 1876739.0474700928 0 1876739.0474700928 4309260.6285476685 0 0 0 0 1178952.4807372598 2056422.0972232819 0 2056422.0972232819 4142072.2061157227 0 0 0 0 -12728355.829767808 12271947.778152466 0 12271947.778152466 80755485.658275604 0 0 0 0 6292885.7983974144 35944532.711341858 0 35944532.711341858 -2944434.4983978271 0 0 0 0 -12787122.707275733 15632203.362457275 0 15632203.362457275 146023559.01889038 0 0 0 0 -2956881.3921028525 12088223.124450684 0 12088223.124450684 80402162.241493225 0 0 0 0 35114285.540774167 1639211.1930084229 0 1639211.1930084229 -56055077.100067139 0 0 0 0 22636369.683150411 73289562.692687988 0 73289562.692687988 239593304.10562134 0 0 0 0 20744271.257706463 18746612.07510376 0 18746612.07510376 78748385.224487305 0 0 0 0 85066035.787199736 -5826226.2991027832 0 -5826226.2991027832 141314105.58390808 0 0 0 0 15796917.085681379 4949966.3338012695 0 4949966.3338012695 140948845.40838623 0 0 0 0 114983587.07199359 58799759.234405518 0 58799759.234405518 113704794.35585022 0 0 0 0 58052322.986990273 66559683.776763916 0 66559683.776763916 114077559.2928772 0 0 0 0 11270449.334383875 9882269.9109115601 0 9882269.9109115601 73614977.686889648 0 0 0 0 6902484.6375271082 61168469.327301025 0 61168469.327301025 43846466.096855164 0 0 0 0 1603214.155639112 -448161.70037841797 0 -448161.70037841797 72888182.481548309 0 0 0 0 -329089.35612513183 102520.07025656849 0 102520.07025656849 605833.03123789281 0 0 0 0 40287048.599312022 -84629100.184188843 0 -84629100.184188843 115757553.56764221 0 0 0 0 -39387875.812258661 22168553.159889221 0 22168553.159889221 -7098420.6779212952 0 0 0 0 -17870023.077850103 102021409.82092953 0 102021409.82092953 -77026962.384689331 0 0 0 0 2551029.4638664424 483313.15615081787 0 483313.15615081787 -52850774.44581604 0 0 0 0 -2144.9945933518829 35882826.339511134 0 35882826.339511134 1116658.0791931152 0 0 0 0 43911091.954211928 -122531272.2151947 0 -122531272.2151947 214430896.21610928 0 0 0 0 -26824.839255569859 37341148.2381192 0 37341148.2381192 -76109712.602844238 0 0 0 0 -177192.184851092 21394.1849533692 0 21394.1849533692 387002.43981061131 0 0 0 0 290383.01125231548 -19197091.021061201 0 -19197091.021061201 212944384.63137817 0 0 0 0 41033387.864651412 -57996177.652854919 0 -57996177.652854919 164065379.83691406 0 0 0 0 26371.966039667255 51857.81497707963 0 51857.81497707963 493505.61598025635 0 0 0 0 -30124288.851035472 -10510621.578605652 0 -10510621.578605652 146493883.74365234 0 0 0 0 19506374.011090904 -59458389.544845581 0 -59458389.544845581 120516028.18579674 0 0 0 0 69024729.874094814 -72747306.426584244 0 -72747306.426584244 117180430.09339905 0 0 0 0 15432785.555535 -29930709.135238647 0 -29930709.135238647 87088504.323822021 0 0 0 0 18926580.230618775 -9052024.9916305542 0 -9052024.9916305542 31207017.047588348 0 0 0 0 19424.710050821304 5184969.5835418701 0 5184969.5835418701 26145373.124938965 0 0 0 0 -6974829.6374467313 -10010672.936752319 0 -10010672.936752319 72621176.304397583 0 0 0 0 16806668.824061066 -37664617.109512329 0 -37664617.109512329 68990274.744716644 0 0 0 0 5965957.2327362895 -24880773.486701965 0 -24880773.486701965 59757346.008178711 0 0 0 0 1207431.2477215528 -29818900.094955444 0 -29818900.094955444 82863301.865982056 0 0 0 0 19750757.324284375 -44663760.869598389 0 -44663760.869598389 73999058.467575073 0 0 0 0 21917572.163676552 -40525012.712772369 0 -40525012.712772369 81460501.320251465 0 0 0 0 7662784.8343509436 -37323555.815254211 0 -37323555.815254211 76991725.860961914 0 0 0 0 50067127.987391077 -59354084.126396179 0 -59354084.126396179 85085290.934020996 0 0 0 0 -83857261.288529038 -46474635.98425293 0 -46474635.98425293 8013112.7239513397 0 0 0 0 159699.19495201684 43411.798302117735 0 43411.798302117735 20576.425321526825 0 0 0 0 -14967362.016089439 117414652.76687622 0 117414652.76687622 216161106.71253967 0 0 0 0 -46450884.155628443 61527869.020153046 0 61527869.020153046 30049806.115097046 0 0 0 0 -108333963.91082108 -19167664.844291687 0 -19167664.844291687 134381064.23573303 0 0 0 0 -57551825.16333884 79746888.045951843 0 79746888.045951843 214314328.02046204 0 0 0 0 -621813.33122409717 44815.854569699615 0 44815.854569699615 768935.68937398493 0 0 0 0 23529818.670403302 -54003083.308036804 0 -54003083.308036804 83180460.709195137 0 0 0 0 26911671.521749169 -45948648.587133408 0 -45948648.587133408 68186719.927490234 0 0 0 0 7335150.5225912333 -35643269.921707153 0 -35643269.921707153 74065514.764434814 0 0 0 0 15109321.190499663 -32911197.076538086 0 -32911197.076538086 54718565.660459653 0 0 0 0 925167.22565019131 -30252512.374740601 0 -30252512.374740601 86979872.903175354 0 0 0 0 3101936.1926290989 -28481163.96006012 0 -28481163.96006012 63413413.845626831 0 0 0 0 11562925.441312313 -44923408.049743652 0 -44923408.049743652 78404831.490737915 0 0 0 0 7088725.6115606427 -36038980.009017944 0 -36038980.009017944 62249894.548950195 0 0 0 0 14412135.63604486 -28394928.395401001 0 -28394928.395401001 58774204.745452881 0 0 0 0 8183293.792557478 -29444471.352233887 0 -29444471.352233887 64315793.19367218 0 0 0 0 3550457.4679217041 -26279365.487747192 0 -26279365.487747192 62153643.198150635 0 0 0 0 5169297.0366955996 -36650954.230358124 0 -36650954.230358124 73650111.298919678 0 0 0 0 8714492.5312104225 -37297041.131088257 0 -37297041.131088257 69476972.495677948 0 0 0 0 301490.65456807613 -28702408.508499146 0 -28702408.508499146 73978420.100097656 0 0 0 0 413889.04262876511 -22433808.851593018 0 -22433808.851593018 61601803.149570465 0 0 0 0 4574358.2616195679 -30761850.257064819 0 -30761850.257064819 59957585.691802979 0 0 0 0 2896347.8908768892 -15678188.629455566 0 -15678188.629455566 44543595.993133545 0 0 0 0 5949623.306450367 -25043292.736564636 0 -25043292.736564636 41282075.216461182 0 0 0 0 4198685.8683871031 -28036205.788284302 0 -28036205.788284302 55840406.749603271 0 0 0 0 6346672.6282477379 -8230538.491104126 0 -8230538.491104126 22948885.885559082 0 0 0 0 -716258.39763319492 -1415687.4407196045 0 -1415687.4407196045 16460323.76385498 0 0 0 0 -1830329.413901329 -8355560.2933807373 0 -8355560.2933807373 58120118.201700211 0 0 0 0 8161952.6338658333 -10851890.51940918 0 -10851890.51940918 20026618.759963989 0 0 0 0 3019678.0926419497 -3539436.5037078857 0 -3539436.5037078857 17387236.229919434 0 0 0 0 -11318687.154310584 2398365.6933898926 0 2398365.6933898926 12887232.484405518 0 0 0 0 -9252.4655044111423 822670.84903974272 0 822670.84903974272 1387103.7436263114 0 0 0 0 -3479121.7162553072 6621205.287612915 0 6621205.287612915 10404626.643493652 0 0 0 0 -5885311.3089581728 6133424.7586746216 0 6133424.7586746216 7316619.6849060059 0 0 0 0 5545138.0499548912 -4381695.2808837891 0 -4381695.2808837891 8276192.4761238098 0 0 0 0 9697291.468375206 -19012438.456710815 0 -19012438.456710815 21234990.104557037 0 0 0 0 19539119.86050272 -8691048.3059997559 0 -8691048.3059997559 -7190415.7671661377 0 0 0 0 24353336.677557945 -28367542.442520142 0 -28367542.442520142 16838063.068084717 0 0 0 0 119028.41052634399 320916.96972606238 0 320916.96972606238 109681.03375998139 0 0 0 0 -16841275.366190106 10388913.51345253 0 10388913.51345253 20271061.234466553 0 0 0 0 7645677.1194578409 -14163089.409133911 0 -14163089.409133911 22125355.181335449 0 0 0 0 12977066.258282661 -35019790.279342651 0 -35019790.279342651 39782898.496780396 0 0 0 0 7711266.980011344 -23490376.600822449 0 -23490376.600822449 56715008.633422852 0 0 0 0 4823705.261998415 -28857520.228645325 0 -28857520.228645325 58742457.5519104 0 0 0 0 15363084.650972575 -25921339.659497261 0 -25921339.659497261 39268107.628692627 0 0 0 0 11238069.092640102 -15071737.502227783 0 -15071737.502227783 480459.38481140137 0 0 0 0 -2730143.9357483387 -19602234.834274292 0 -19602234.834274292 44461834.680580139 0 0 0 0 15695484.011443257 -4090909.0782623291 0 -4090909.0782623291 -12087589.041862488 0 0 0 0 1259103.4326588595 1634194.9580141455 0 1634194.9580141455 1088827.1209673285 0 0 0 0 829555.44069819688 687852.99901659042 0 687852.99901659042 197816.16515433416 0 0 0 0 -28740.420463174582 326891.25160121918 0 326891.25160121918 -24319.867858886719 0 0 0 0 5495330.1790275574 4719911.8650665283 0 4719911.8650665283 3735141.0739974976 0 0 0 0 2568553.4814316034 629503.20895195007 0 629503.20895195007 3991817.4920959473 0 0 0 0 1627844.2159460657 1774823.3271817192 0 1774823.3271817192 722652.75461926684 0 0 0 0 1336418.2552042007 2035308.1112823486 0 2035308.1112823486 7086552.0907249451 0 0 0 0 512129.09395188536 -147249.16453239694 0 -147249.16453239694 -801305.70000192523 0 0 0 0 12338089.58978039 12595821.069438934 0 12595821.069438934 -6342219.847869873 0 0 0 0 -752202.80121290684 -13751167.062232971 0 -13751167.062232971 24585819.303604126 0 0 0 0 31434240.385439396 -37094477.268104553 0 -37094477.268104553 42873015.208152771 0 0 0 0 21607941.562456846 -11337655.534818649 0 -11337655.534818649 33959473.334915161 0 0 0 0 17342646.54668355 -13554017.728622437 0 -13554017.728622437 22046187.521347046 0 0 0 0 23204412.471216321 -36286267.039405823 0 -36286267.039405823 52728398.121219635 0 0 0 0 10366634.700778484 -34091986.047370911 0 -34091986.047370911 54634060.533493042 0 0 0 0 47543282.159296036 -71587854.495666504 0 -71587854.495666504 84015898.435085297 0 0 0 0 13739063.670927286 -32373852.538333893 0 -32373852.538333893 70576872.577484131 0 0 0 0 35605576.397161245 -39026915.548461914 0 -39026915.548461914 71136673.567977905 0 0 0 0 41380925.828886747 -44941093.804122925 0 -44941093.804122925 46355787.316726685 0 0 0 0 47511587.659719944 -90675488.836681366 0 -90675488.836681366 117210148.43199158 0 0 0 0 37548546.617773533 -70172685.680252075 0 -70172685.680252075 75887592.678523064 0 0 0 0 29733223.995779872 -55902393.611618042 0 -55902393.611618042 -78834641.610519409 0 0 0 0 -3681220.9639617205 -29058818.358200073 0 -29058818.358200073 186110950.754776 0 0 0 0 48375.247801913705 7722.0080118589103 0 7722.0080118589103 58891.201246410608 0 0 0 0 -31695726.269044399 -2787467.9365844727 0 -2787467.9365844727 45888613.304222107 0 0 0 0 27247457.057493329 -92161552.766426086 0 -92161552.766426086 48823393.50100708 0 0 0 0 -14821479.530574868 -6578440.6784067154 0 -6578440.6784067154 104213265.59005737 0 0 0 0 -14271615.549779678 -30785901.929584742 0 -30785901.929584742 68123046.803192139 0 0 0 0 18668649.119509459 -33042319.911209106 0 -33042319.911209106 124426425.93586731 0 0 0 0 24915758.73889482 -2412652.8197851181 0 -2412652.8197851181 168125632.67016602 0 0 0 0 -39731018.677247047 45375781.42660141 0 45375781.42660141 362877491.54231262 0 0 0 0 34104434.10011965 121666951.89747238 0 121666951.89747238 315387220.57544708 0 0 0 0 -25436166.247679204 39951640.612233162 0 39951640.612233162 118112281.14707947 0 0 0 0 -20564822.612995028 64287067.783218384 0 64287067.783218384 238938024.29141998 0 0 0 0 -14063590.197676003 23040504.090988159 0 23040504.090988159 78496876.680465698 0 0 0 0 -17597159.020529926 90856474.681228638 0 90856474.681228638 386316628.10204315 0 0 0 0 -20419.165574896149 154032.96207306534 0 154032.96207306534 114795.04813261982 0 0 0 0 -11268.60428654385 240369.41908089817 0 240369.41908089817 167735.15815101657 0 0 0 0 1691099.8375421464 -4509396.3159065247 0 -4509396.3159065247 107312348.68496704 0 0 0 0 -10144267.633738339 3961998.108921051 0 3961998.108921051 138197515.66275024 0 0 0 0 -13144001.986980438 9885184.7725982666 0 9885184.7725982666 105363353.70230484 0 0 0 0 4917025.6382074952 -815059.7247505188 0 -815059.7247505188 65715025.556030273 0 0 0 0 -2704181.1212639809 9222419.4648132324 0 9222419.4648132324 54535202.236785889 0 0 0 0 -42087204.206798673 -11338346.565551758 0 -11338346.565551758 132849804.91307831 0 0 0 0 -24777108.711796761 -8277127.1228637695 0 -8277127.1228637695 84881912.077026367 0 0 0 0 -21980685.535269678 -1369999.964805603 0 -1369999.964805603 66696747.748382568 0 0 0 0 25586.738883780781 -70360.385899107903 0 -70360.385899107903 233739.73114147224 0 0 0 0 -4230100.6772170067 -7039177.8873596191 0 -7039177.8873596191 -9174723.3545532227 0 0 0 0 5987573.0943702459 -22017850.897789001 0 -22017850.897789001 65542187.145935059 0 0 0 0 -14960.583405420592 -16092.542520862073 0 -16092.542520862073 65372.658048279583 0 0 0 0 -30304714.778651118 -35914095.220489502 0 -35914095.220489502 41424216.193008423 0 0 0 0 -4140829.9886469692 -18891250.423690796 0 -18891250.423690796 73370650.754241943 0 0 0 0 747530.674166315 -221557.16226176918 0 -221557.16226176918 -76085.379138283432 0 0 0 0 -745008.77919272345 -194929.72820113599 0 -194929.72820113599 642131.79506953061 0 0 0 0 8193281.8275808692 -19844084.203781128 0 -19844084.203781128 54705484.148463145 0 0 0 0 5681682.0985798836 -22669933.243125916 0 -22669933.243125916 68513359.535270691 0 0 0 0 -10461173.824457288 -6691863.1540527344 0 -6691863.1540527344 -2008085.3590621948 0 0 0 0 3219029.9754010439 -18902568.833366394 0 -18902568.833366394 -41079380.3595047 0 0 0 0 -49083077.283287287 -60878297.995632172 0 -60878297.995632172 -61067266.625762939 0 0 0 0 -63008024.452430949 -72686914.876253128 0 -72686914.876253128 -61380769.765060425 0 0 0 0 -72109622.345890522 -46973252.211517334 0 -46973252.211517334 -56101307.362976074 0 0 0 0 282386.30611983413 17265.809471130371 0 17265.809471130371 -56892.086271526292 0 0 0 0 -72427254.823444813 -61928266.912055969 0 -61928266.912055969 -60189671.219543457 0 0 0 0 1232747.231999293 1790150.7750091553 0 1790150.7750091553 127119853.82519531 0 0 0 0 12571996.300673127 6204472.3771400452 0 6204472.3771400452 68134176.31628418 0 0 0 0 -5330118.0598584116 12624487.479980469 0 12624487.479980469 109367705.26951599 0 0 0 0 28696516.274527431 -597880.87599945068 0 -597880.87599945068 106732762.09642029 0 0 0 0 -1258297.721821934 93307630.875873566 0 93307630.875873566 154701642.59452057 0 0 0 0 22431706.113809347 97510740.442489624 0 97510740.442489624 -87849877.548851013 0 0 0 0 46603092.950884253 72915678.570968628 0 72915678.570968628 -75233338.586608887 0 0 0 0 -19767755.587918818 35990315.910896301 0 35990315.910896301 93998190.923797607 0 0 0 0 7203.5202732062316 96644.193834833801 0 96644.193834833801 68341.416255273856 0 0 0 0 8183501.2515328228 -17347129.050182343 0 -17347129.050182343 131913182.57624817 0 0 0 0 -86920345.292008996 17476696.090423584 0 17476696.090423584 195350935.23117065 0 0 0 0 -151825774.98299485 -42651557.767440796 0 -42651557.767440796 67834506.851043701 0 0 0 0 -75857.904304545766 -95442.991534872912 0 -95442.991534872912 1074443.1827092022 0 0 0 0 -136647473.99715328 79988719.298248291 0 79988719.298248291 122136282.82846069 0 0 0 0 -127969569.92316037 21869210.833831787 0 21869210.833831787 -58372689.574188232 0 0 0 0 -12787066.350706488 70353693.031616211 0 70353693.031616211 -38921195.818405151 0 0 0 0 -22866898.153496504 47909501.791778564 0 47909501.791778564 39313086.486713409 0 0 0 0 -70484671.105450451 27137881.53692627 0 27137881.53692627 35780152.513702393 0 0 0 0 -93641.740240411847 74269.009879333898 0 74269.009879333898 934367.4530069977 0 0 0 0 6635.6196033955775 5798925.9234008789 0 5798925.9234008789 -4274637.9039459229 0 0 0 0 -6429.9822262862435 2976825.9787254333 0 2976825.9787254333 -2304462.832321167 0 0 0 0 -7374725.3951681359 3170243.5433540344 0 3170243.5433540344 -284112.33163452148 0 0 0 0 -5430280.9496001126 5765826.7462158203 0 5765826.7462158203 -3614944.7446670532 0 0 0 0 -3617746.1681414484 209445.52465820312 0 209445.52465820312 1264682.2805023193 0 0 0 0 -47233388.024464846 -4663646.7515258789 0 -4663646.7515258789 129015189.7383728 0 0 0 0 25498726.817402855 46121026.607086182 0 46121026.607086182 -200271340.11541748 0 0 0 0 -90210268.061946929 -59392863.521392822 0 -59392863.521392822 -47481789.49798584 0 0 0 0 -104140444.9201327 -94152693.047821045 0 -94152693.047821045 -11469309.680541992 0 0 0 0 -23522429.630999565 -190146531.48490906 0 -190146531.48490906 78031299.291595459 0 0 0 0 -86859137.851391777 -43835331.319625854 0 -43835331.319625854 -56138865.133758545 0 0 0 0 -113158734.36452772 -80127196.690567017 0 -80127196.690567017 -20401571.209960938 0 0 0 0 8229.960199991403 -298866.59276928287 0 -298866.59276928287 742253.13966311514 0 0 0 0 -89035164.358153462 -54104600.599273682 0 -54104600.599273682 -49886637.708435059 0 0 0 0 -107526550.455235 -49818839.576049805 0 -49818839.576049805 -46602946.02003479 0 0 0 0 -82662823.26718536 -62049310.418632507 0 -62049310.418632507 -40871551.892333984 0 0 0 0 4334.3343428709377 -9485.0345073789358 0 -9485.0345073789358 25171.204314723611 0 0 0 0 22534581.16633141 39746961.218170166 0 39746961.218170166 129683946.26309204 0 0 0 0 44030630.526496887 115661211.55422974 0 115661211.55422974 284837477.37426758 0 0 0 0 19109.408398442683 43867862.361495972 0 43867862.361495972 118249887.4782486 0 0 0 0 90303.478468678804 144540.30167102069 0 144540.30167102069 283806.45844941959 0 0 0 0 -518183.35068844474 449570.78442573547 0 449570.78442573547 373230.6428527832 0 0 0 0 -5805122.0859543979 42437755.663551331 0 42437755.663551331 134324547.94293213 0 0 0 0 74523114.94173646 14719085.941913605 0 14719085.941913605 52113527.514450073 0 0 0 0 16818709.498243093 21223793.159500122 0 21223793.159500122 2007882.8270711899 0 0 0 0 101879997.41832519 23567956.262084961 0 23567956.262084961 1962735.2715911865 0 0 0 0 110936351.3232336 -15581298.275054932 0 -15581298.275054932 -3927397.6353759766 0 0 0 0 74027857.506769896 -12963313.871986389 0 -12963313.871986389 -3212813.8581619263 0 0 0 0 119106975.43435454 -8060361.2458648682 0 -8060361.2458648682 62265137.67275238 0 0 0 0 106043034.18159819 64001144.529289246 0 64001144.529289246 114686092.43406677 0 0 0 0 98302957.902486086 52612964.542835236 0 52612964.542835236 27655894.683166504 0 0 0 0 76329365.343520641 14112044.402359009 0 14112044.402359009 60713582.772171021 0 0 0 0 55409638.317543983 82447687.782165527 0 82447687.782165527 85003375.085609436 0 0 0 0 28832222.807200193 55283641.027709961 0 55283641.027709961 76094534.973968506 0 0 0 0 63985811.829285622 43438133.831970215 0 43438133.831970215 114689625.10360718 0 0 0 0 31206874.409585953 80126920.250091553 0 80126920.250091553 152956622.18026733 0 0 0 0 63129431.940699577 65760679.633407593 0 65760679.633407593 -9141154.0110321045 0 0 0 0 14881233.562505007 67014130.126434326 0 67014130.126434326 75954130.054595947 0 0 0 0 46148237.748026371 91498878.818435669 0 91498878.818435669 -6505109.4684562683 0 0 0 0 30485217.167892933 126918627.674263 0 126918627.674263 -54768441.915115356 0 0 0 0 40895926.81730175 37479213.409835815 0 37479213.409835815 54592913.696353912 0 0 0 0 54949636.106497288 81176603.6353302 0 81176603.6353302 14294106.863502502 0 0 0 0 45403660.706138849 69104550.341178894 0 69104550.341178894 3127023.0972061157 0 0 0 0 43438614.703936338 34044448.84677887 0 34044448.84677887 -37957322.427780151 0 0 0 0 -8096282.2939834595 100269738.86356735 0 100269738.86356735 -14006393.551742554 0 0 0 0 -12488580.105273962 96019652.803474426 0 96019652.803474426 -114017640.71447754 0 0 0 0 -48805228.825828671 61110456.780391693 0 61110456.780391693 -37103653.684631348 0 0 0 0 57998777.204495311 163892263.26600027 0 163892263.26600027 -27693549.63949585 0 0 0 0 -40960254.75922966 64645400.62361145 0 64645400.62361145 -46918713.322723389 0 0 0 0 -54164877.234150887 146995743.02059174 0 146995743.02059174 11421269.190231323 0 0 0 0 -17714932.971194744 190380176.99484253 0 190380176.99484253 62812241.400878906 0 0 0 0 75392204.743294358 -12221808.308097839 0 -12221808.308097839 -64780901.889724731 0 0 0 0 -44728227.320311069 20540564.719413757 0 20540564.719413757 -5899665.6457977295 0 0 0 0 871530.99383989384 351477.64583139122 0 351477.64583139122 -751929.76021398604 0 0 0 0 -182917875.98350358 153956175.68951416 0 153956175.68951416 -52623578.786651611 0 0 0 0 -121478811.54878139 149869730.57112122 0 149869730.57112122 -97178544.831329346 0 0 0 0 -42472561.468224764 74552715.132881165 0 74552715.132881165 -76433478.007965088 0 0 0 0 -169347033.18056071 78907856.939697266 0 78907856.939697266 -44979023.575042725 0 0 0 0 -6205280.8353390694 38433466.689926147 0 38433466.689926147 -65612213.178588867 0 0 0 0 -12960174.715904713 29220310.582252502 0 29220310.582252502 -31242846.726959229 0 0 0 0 36002454.890577555 19966205.115005493 0 19966205.115005493 -51025613.627655029 0 0 0 0 -55986856.118596792 63291534.768989563 0 63291534.768989563 -55366173.210144043 0 0 0 0 11816195.902053356 32369208.45552063 0 32369208.45552063 -64301201.69960022 0 0 0 0 67586154.906626225 13243572.768516541 0 13243572.768516541 -35018680.346725464 0 0 0 0 -2207132.9998233318 18415809.325805664 0 18415809.325805664 -25506440.293945312 0 0 0 0 55559834.890568972 -24711333.834594727 0 -24711333.834594727 -10448767.052429199 0 0 0 0 62440526.222326279 -7788030.9139099121 0 -7788030.9139099121 -28379054.582679749 0 0 0 0 28525364.429435253 -3505006.341255188 0 -3505006.341255188 -10747193.579528809 0 0 0 0 45743465.743379414 9827540.7591457367 0 9827540.7591457367 -35090902.664825439 0 0 0 0 41409886.051918387 -5228149.8969936371 0 -5228149.8969936371 16126122.210449219 0 0 0 0 76996209.349168777 -25918802.73425293 0 -25918802.73425293 -13344539.996688843 0 0 0 0 79646999.647176266 -19675681.063926697 0 -19675681.063926697 -2323967.2015075684 0 0 0 0 99737274.958321571 -40451245.995132446 0 -40451245.995132446 17171741.939727783 0 0 0 0 127014936.51946545 -30416039.149749756 0 -30416039.149749756 6950512.2833404541 0 0 0 0 63290869.004169703 -3987778.5485229492 0 -3987778.5485229492 39146163.782287598 0 0 0 0 198773295.84190989 -28003183.716056824 0 -28003183.716056824 943488.59950256348 0 0 0 0 178177135.2990036 -25422591.596313477 0 -25422591.596313477 14632780.802001953 0 0 0 0 137592645.0583179 45687.805210113525 0 45687.805210113525 22002859.269470215 0 0 0 0 110171.40183483147 749811.52681496087 0 749811.52681496087 194285.2392969057 0 0 0 0 -1913974.1983604729 16105457.389675617 0 16105457.389675617 25121534.175216675 0 0 0 0 13495.738895870047 39261.65316041559 0 39261.65316041559 69630.605235310271 0 0 0 0 97620294.797455788 -13724360.612808228 0 -13724360.612808228 26134587.10125351 0 0 0 0 170454942.43804359 16010433.19102478 0 16010433.19102478 -12578294.7590065 0 0 0 0 -455037.11067543831 141071.40689216414 0 141071.40689216414 3728410.8750715032 0 0 0 0 83109109.94368577 -15488995.259815216 0 -15488995.259815216 -3758397.5643615723 0 0 0 0 93125171.774948835 -23230988.166584015 0 -23230988.166584015 -10008171.814376831 0 0 0 0 -9880842.1092135906 7304863.4471664429 0 7304863.4471664429 1789412.2114257812 0 0 0 0 77519936.973666012 -35276784.983629227 0 -35276784.983629227 -8593578.674331665 0 0 0 0 62307157.634940103 -28380272.042785525 0 -28380272.042785525 -5001129.7906799316 0 0 0 0 77344414.236814976 -26624951.852493286 0 -26624951.852493286 -13860955.978981018 0 0 0 0 82569495.71826458 -34640045.296936035 0 -34640045.296936035 -5629279.2452392578 0 0 0 0 -3047361.9246153831 4858710.1556625366 0 4858710.1556625366 11000630.717676163 0 0 0 0 13555971.86988163 267876.29713439941 0 267876.29713439941 757062.18662261963 0 0 0 0 615746.15372127295 1393687.0895026587 0 1393687.0895026587 756291.16340892017 0 0 0 0 -2582144.0660381317 5177763.5475082397 0 5177763.5475082397 -1704309.6750526428 0 0 0 0 -2893076.0895705521 -2116238.8100179434 0 -2116238.8100179434 16888865.343460083 0 0 0 0 6820284.9720890522 -2521690.2486724854 0 -2521690.2486724854 -5606262.8725891113 0 0 0 0 4089842.9829618931 8125541.3076095581 0 8125541.3076095581 -2132363.3330383301 0 0 0 0 25960530.376187086 -17181227.124305725 0 -17181227.124305725 12930453.545650482 0 0 0 0 7942393.2250916958 10539790.541732788 0 10539790.541732788 2594939.9667816162 0 0 0 0 620137.69894433022 5038955.4793624878 0 5038955.4793624878 877012.97983551025 0 0 0 0 -35409138.192948341 6322493.6756362915 0 6322493.6756362915 16670400.528442383 0 0 0 0 -724460.16320478916 8949305.0739707947 0 8949305.0739707947 -1637603.846496582 0 0 0 0 17499254.447809219 16896298.369361877 0 16896298.369361877 -9611533.3858337402 0 0 0 0 33125644.132580757 -25824122.511901855 0 -25824122.511901855 25039859.418632507 0 0 0 0 29530964.335959435 -21276216.626106262 0 -21276216.626106262 45420263.989898682 0 0 0 0 72505324.624978542 -29628219.463912964 0 -29628219.463912964 3895606.907043457 0 0 0 0 5234463.535149768 -35057382.077260017 0 -35057382.077260017 21079311.912216187 0 0 0 0 -212582.8902021251 -87143.973327081185 0 -87143.973327081185 3168963.1750544459 0 0 0 0 72575969.914824486 -18739529.866630554 0 -18739529.866630554 -10926794.199279785 0 0 0 0 90069124.468908548 -18692500.591480255 0 -18692500.591480255 -26522011.425437927 0 0 0 0 93779905.034071922 25364883.562088013 0 25364883.562088013 61030945.224941254 0 0 0 0 88825134.085980415 -38625517.744045258 0 -38625517.744045258 8665622.9178314209 0 0 0 0 -84714.773229668936 -83593.320277214516 0 -83593.320277214516 2439912.021204263 0 0 0 0 -48210917.785595894 -11622041.55475235 0 -11622041.55475235 91166249.730171204 0 0 0 0 191155788.18104351 77465099.443675995 0 77465099.443675995 -47303949.12651062 0 0 0 0 255635795.91337729 308173363.5100441 0 308173363.5100441 320562243.6128006 0 0 0 0 -652.65173987223534 -18757.166316668503 0 -18757.166316668503 1000183.5406563357 0 0 0 0 93113917.63050878 138135676.93690872 0 138135676.93690872 341020845.80502319 0 0 0 0 109216857.38093621 130555086.02611923 0 130555086.02611923 184226352.23101807 0 0 0 0 70596588.079846621 -64465914.463104248 0 -64465914.463104248 34408022.965595245 0 0 0 0 -48648893.253353864 -7109953.9841246605 0 -7109953.9841246605 42431117.197921753 0 0 0 0 126134240.57735395 -194471009.4764328 0 -194471009.4764328 234526621.06559753 0 0 0 0 125225153.16951752 -19652129.329338074 0 -19652129.329338074 -53332513.447517395 0 0 0 0 72143626.94495821 -111813787.2322197 0 -111813787.2322197 186124046.63954163 0 0 0 0 31383845.592482686 -44974049.276329041 0 -44974049.276329041 248670539.21212006 0 0 0 0 43968159.882314086 -5170935.2738113403 0 -5170935.2738113403 248760521.84964752 0 0 0 0 -16920136.06937623 -97350867.4088974 0 -97350867.4088974 628475945.37934875 0 0 0 0 150897946.55700487 236942104.71530151 0 236942104.71530151 489789997.42835999 0 0 0 0 309274388.6065259 130806854.20296478 0 130806854.20296478 315972030.02776527 0 0 0 0 45118031.926116824 99497963.36101532 0 99497963.36101532 359115516.53143215 0 0 0 0 29057014.517083883 170043989.84754562 0 170043989.84754562 490495859.24978638 0 0 0 0 55770672.698111773 179379543.83293915 0 179379543.83293915 333013233.8678112 0 0 0 0 -27175579.400182128 113510950.64754105 0 113510950.64754105 550512162.11824036 0 0 0 0 55965748.658156872 247273568.84692001 0 247273568.84692001 670501212.10293579 0 0 0 0 143469019.46947277 -5682620.4762496948 0 -5682620.4762496948 628297258.51106262 0 0 0 0 89178881.170768499 102488214.11593056 0 102488214.11593056 465872664.53434753 0 0 0 0 6355084.2536037043 107771838.4294095 0 107771838.4294095 456153763.01641846 0 0 0 0 -27871374.988016486 149778484.44232941 0 149778484.44232941 533335249.46058655 0 0 0 0 -1493382.9684979916 104767568.27368927 0 104767568.27368927 596685085.4370575 0 0 0 0 24333061.117330909 241984133.64775085 0 241984133.64775085 494646889.00231934 0 0 0 0 -3191401.8139514923 120889649.45202637 0 120889649.45202637 649676147.91516113 0 0 0 0 37105550.279193997 64835706.890506744 0 64835706.890506744 468269622.24072266 0 0 0 0 106708159.48855674 -61015460.981277466 0 -61015460.981277466 695258814.74093628 0 0 0 0 -13693405.546000004 88075047.894569397 0 88075047.894569397 587265651.7183609 0 0 0 0 70947065.68453908 62354812.994644165 0 62354812.994644165 363616830.11067963 0 0 0 0 73396580.427250147 86847756.464073181 0 86847756.464073181 313238448.57897949 0 0 0 0 103223829.54385352 -6245060.2120361328 0 -6245060.2120361328 470263832.51467967 0 0 0 0 139366672.04005551 68481760.991996765 0 68481760.991996765 331857271.48065186 0 0 0 0 149789800.63524771 14482221.216888428 0 14482221.216888428 279183242.60890198 0 0 0 0 125053228.14328182 68796218.495769858 0 68796218.495769858 210079484.2119751 0 0 0 0 126306479.34841311 -6782256.8255016804 0 -6782256.8255016804 232240959.33668518 0 0 0 0 109470070.45162868 54704866.416030884 0 54704866.416030884 152561833.03452301 0 0 0 0 106382991.74058056 -7821291.108039856 0 -7821291.108039856 109629080.06794739 0 0 0 0 34090436.809804916 107648305.1244812 0 107648305.1244812 296104261.54379272 0 0 0 0 78921942.935883522 73516380.201263428 0 73516380.201263428 225004166.34540653 0 0 0 0 28899722.562673569 86412182.531311035 0 86412182.531311035 237849785.63946533 0 0 0 0 -1503811.1305735111 83190726.785614014 0 83190726.785614014 237544128.60794067 0 0 0 0 47733316.984567165 81261933.913223267 0 81261933.913223267 224643707.00393677 0 0 0 0 49318699.238002777 65086069.625732422 0 65086069.625732422 155844072.20782471 0 0 0 0 97399517.914795399 78143302.284317017 0 78143302.284317017 137728739.11174011 0 0 0 0 135820411.83598852 20484518.697967529 0 20484518.697967529 138300421.26586151 0 0 0 0 77781772.6350739 65664394.852142334 0 65664394.852142334 204321732.31738281 0 0 0 0 78253179.14842391 94423985.208480835 0 94423985.208480835 300969196.66821289 0 0 0 0 140446759.07307863 54861929.251495361 0 54861929.251495361 206084297.47491074 0 0 0 0 128352804.04438782 82491005.905281067 0 82491005.905281067 301097317.04226685 0 0 0 0 135974428.52634597 81860912.873008728 0 81860912.873008728 277889707.84790039 0 0 0 0 193737590.01152921 33882697.99533844 0 33882697.99533844 317516239.84138489 0 0 0 0 139816980.8831656 22487673.002807617 0 22487673.002807617 446846260.56292725 0 0 0 0 153575509.40391529 134443079.69371033 0 134443079.69371033 403865968.7350769 0 0 0 0 101605701.76720095 160270733.67073059 0 160270733.67073059 392568283.78463745 0 0 0 0 14575179.551555634 153874061.84918976 0 153874061.84918976 470336785.55949402 0 0 0 0 57957293.218190908 95875920.068443298 0 95875920.068443298 298690944.47955322 0 0 0 0 -13066471.334375381 104938820.16085434 0 104938820.16085434 352449909.84594727 0 0 0 0 -9742789.5719201565 121612440.28312683 0 121612440.28312683 430403497.10928345 0 0 0 0 107001029.72628272 260810483.98516846 0 260810483.98516846 684755692.49606323 0 0 0 0 43496420.422889709 128990322.01455688 0 128990322.01455688 465513559.70060921 0 0 0 0 -66272148.063967705 89288702.149482727 0 89288702.149482727 658325944.16043091 0 0 0 0 289588962.59971046 16734454.782989502 0 16734454.782989502 447039075.70499229 0 0 0 0 319997978.73949933 112639487.42176819 0 112639487.42176819 405543580.2242775 0 0 0 0 660786412.30112553 -20654073.816741943 0 -20654073.816741943 526098846.55274582 0 0 0 0 237996981.95151997 43735704.965415955 0 43735704.965415955 518415095.90197754 0 0 0 0 177010696.02575767 -437431565.21895218 0 -437431565.21895218 471310015.47155762 0 0 0 0 136260728.31936461 -135737379.32879639 0 -135737379.32879639 1091038346.0263977 0 0 0 0 152982592.88115931 348470886.33120728 0 348470886.33120728 1253951277.7014465 0 0 0 0 34914164.425084591 365896048.4250412 0 365896048.4250412 702104093.11683655 0 0 0 0 -52427272.646472454 -21279212.322784424 0 -21279212.322784424 576614437.88479614 0 0 0 0 -51912127.74797225 19698502.902420044 0 19698502.902420044 753623946.35969162 0 0 0 0 -39459476.761523962 -8050742.8737106323 0 -8050742.8737106323 541035460.81450653 0 0 0 0 10811645.478389263 -188937003.11723328 0 -188937003.11723328 570271974.08317566 0 0 0 0 -21458935.033243179 -98537102.919525146 0 -98537102.919525146 372408955.25566101 0 0 0 0 -74008411.849287987 -13506673.121536255 0 -13506673.121536255 453675911.41850281 0 0 0 0 -25436581.9623487 -105889455.06446075 0 -105889455.06446075 377195835.60302734 0 0 0 0 -52296810.815148652 -28501426.235750198 0 -28501426.235750198 464000369.04974365 0 0 0 0 -112042709.6192522 61420972.738967896 0 61420972.738967896 410559061.40359497 0 0 0 0 -72456750.511405706 -6039034.0209503174 0 -6039034.0209503174 339522168.01730347 0 0 0 0 -61653383.518030882 71573940.89358139 0 71573940.89358139 335335782.47232056 0 0 0 0 -73991778.681129456 42967912.682647705 0 42967912.682647705 276010113.56572723 0 0 0 0 -108841396.09004331 104872681.15978241 0 104872681.15978241 337231806.23329163 0 0 0 0 -89372589.206848145 7127693.6853713989 0 7127693.6853713989 403309529.88845825 0 0 0 0 -110632846.17685866 77246230.257770538 0 77246230.257770538 448273988.11196899 0 0 0 0 -161587447.09058809 85306698.590042114 0 85306698.590042114 454811146.66921997 0 0 0 0 -142202677.55040312 88761935.732070923 0 88761935.732070923 446583134.65428162 0 0 0 0 -119738996.16666412 73326880.729690552 0 73326880.729690552 443576212.17163086 0 0 0 0 -111694090.2177515 90382306.46824646 0 90382306.46824646 479734153.37547302 0 0 0 0 -91331742.209677219 64904670.572433472 0 64904670.572433472 477631574.10641479 0 0 0 0 -65727331.168566823 79960327.598781109 0 79960327.598781109 478122314.71401978 0 0 0 0 -103148109.64882183 53946839.371124268 0 53946839.371124268 542374887.80705261 0 0 0 0 -105000556.83701301 38821763.31817627 0 38821763.31817627 461558934.02023315 0 0 0 0 106276847.30877307 158363732.74530268 0 158363732.74530268 152217326.55122375 0 0 0 0 113347080.61391163 266018274.61068726 0 266018274.61068726 147709670.10289669 0 0 0 0 -126045986.13614368 149550352.16600037 0 149550352.16600037 437273512.35812378 0 0 0 0 -135112760.81744289 205511067.21263599 0 205511067.21263599 493940005.33532715 0 0 0 0 -160277419.04786015 93446048.472541809 0 93446048.472541809 499754706.52674103 0 0 0 0 -94144009.193256378 327118931.65010834 0 327118931.65010834 743637532.8011322 0 0 0 0 178696401.28433418 422094427.1072998 0 422094427.1072998 398363853.43730164 0 0 0 0 185124339.04235333 262782128.66892934 0 262782128.66892934 -34511270.696929932 0 0 0 0 -170024885.12031555 258791307.00281715 0 258791307.00281715 1349968563.132782 0 0 0 0 -237034762.04390669 32902930.446434021 0 32902930.446434021 638882684.43413925 0 0 0 0 -111477661.15654373 -24154633.612289429 0 -24154633.612289429 454617178.71881676 0 0 0 0 -145683828.95448017 60804807.17010498 0 60804807.17010498 462913923.60490417 0 0 0 0 -155854828.0217433 46215854.948978424 0 46215854.948978424 448834023.80737305 0 0 0 0 -115203144.57902241 20118460.594348907 0 20118460.594348907 262369333.53436279 0 0 0 0 -120091790.42987871 70785376.56918335 0 70785376.56918335 239664045.53982544 0 0 0 0 -42154440.248552799 33465477.097610474 0 33465477.097610474 142781686.83227539 0 0 0 0 -66288702.751711845 71710329.82485199 0 71710329.82485199 166824456.68902016 0 0 0 0 13415191.314358264 54149428.370822668 0 54149428.370822668 76142737.296310425 0 0 0 0 18467356.020023346 -72064722.361198425 0 -72064722.361198425 183565754.79064941 0 0 0 0 -97934163.497035503 85949853.857437134 0 85949853.857437134 372360314.11541748 0 0 0 0 -94884998.303006649 86445877.350364685 0 86445877.350364685 335809112.60322571 0 0 0 0 -73113002.944573164 125006483.96650696 0 125006483.96650696 462595401.83740234 0 0 0 0 -88903553.98871851 87284639.303878784 0 87284639.303878784 372503061.93332672 0 0 0 0 -131129228.90468645 97456598.590126038 0 97456598.590126038 459699439.209198 0 0 0 0 -136449533.23831558 83033257.15083313 0 83033257.15083313 423463216.96960449 0 0 0 0 -131492099.27080441 76284264.809272766 0 76284264.809272766 399832229.09112549 0 0 0 0 -151870951.40591908 63633522.873031616 0 63633522.873031616 412293131.85374451 0 0 0 0 -114615910.92389606 46308667.81812191 0 46308667.81812191 291448417.05792236 0 0 0 0 -112536702.80663109 79297828.198776245 0 79297828.198776245 274484419.44892883 0 0 0 0 -143456623.98688602 24851556.182891846 0 24851556.182891846 376140964.83191681 0 0 0 0 -134433707.36611843 86455599.51763916 0 86455599.51763916 192132190.90071106 0 0 0 0 -105315736.1708591 36444105.644166946 0 36444105.644166946 220280295.42053223 0 0 0 0 -78861393.268978119 81653204.561676025 0 81653204.561676025 225713032.70761108 0 0 0 0 -64287182.759815454 48595041.496692657 0 48595041.496692657 189847849.98153687 0 0 0 0 -40547475.771126747 97569322.208892822 0 97569322.208892822 350506423.60889435 0 0 0 0 -45617173.695662737 75196776.780273438 0 75196776.780273438 271445240.50085449 0 0 0 0 -4562327.6298162937 61719812.420150757 0 61719812.420150757 169233620.64968872 0 0 0 0 -54504186.199760437 82492315.862243652 0 82492315.862243652 272003119.82423687 0 0 0 0 -23970618.165917397 65388156.195770264 0 65388156.195770264 169455125.78046989 0 0 0 0 -24705486.984324694 48875082.986328125 0 48875082.986328125 94691191.761627197 0 0 0 0 -77280604.724325657 61993470.731628418 0 61993470.731628418 186787938.38017273 0 0 0 0 -71610190.530292749 62719678.208396912 0 62719678.208396912 125709157.36495972 0 0 0 0 -53291300.525469303 40473929.020107269 0 40473929.020107269 18238673.353820801 0 0 0 0 11988781.748809814 47576377.064792633 0 47576377.064792633 -16940712.098419189 0 0 0 0 -59080667.669018269 45924349.337310791 0 45924349.337310791 94572044.551030159 0 0 0 0 47943595.185749233 96017593.51940155 0 96017593.51940155 -114357465.38253784 0 0 0 0 1597731.0650033951 49359928.821365356 0 49359928.821365356 -15482220.946136475 0 0 0 0 -4853794.9462244511 25171977.074886322 0 25171977.074886322 -104236791.95922852 0 0 0 0 -137632132.4193058 24249116.615097046 0 24249116.615097046 15819282.917388916 0 0 0 0 75980604.068016052 58835964.776626587 0 58835964.776626587 -217696626.45193481 0 0 0 0 -56696238.474018097 4787257.7576141357 0 4787257.7576141357 -112131393.01083374 0 0 0 0 -78366624.916370869 -65326401.026134491 0 -65326401.026134491 -215719974.48135376 0 0 0 0 10417992.301225662 -14264290.104248047 0 -14264290.104248047 -217372869.80517101 0 0 0 0 10182075.483491898 -10255666.104629517 0 -10255666.104629517 -279020511.64352417 0 0 0 0 79592239.136137962 112663913.2852478 0 112663913.2852478 -105634240.70860291 0 0 0 0 -232001999.85743606 86972811.813480377 0 86972811.813480377 -123342445.75268555 0 0 0 0 -259030109.95878553 166456570.91923141 0 166456570.91923141 -101782171.46984863 0 0 0 0 -101303866.727705 166995477.46139526 0 166995477.46139526 -234162330.29290771 0 0 0 0 -160553417.30667686 158605858.92346191 0 158605858.92346191 -235290232.21548462 0 0 0 0 -606294479.78160143 195022484.17758179 0 195022484.17758179 -152293559.77657318 0 0 0 0 -211406553.16492176 121028573.01248169 0 121028573.01248169 -93867085.866760254 0 0 0 0 -121557083.36346149 18180426.942672729 0 18180426.942672729 -39183478.626173019 0 0 0 0 -317692569.26513195 2364269.8531036377 0 2364269.8531036377 -39927855.444274902 0 0 0 0 -221038741.20051003 72412507.521263123 0 72412507.521263123 37918924.53515625 0 0 0 0 -150935546.7864933 120188741.12506104 0 120188741.12506104 -28711115.303634644 0 0 0 0 -229233798.88057709 97372158.292892456 0 97372158.292892456 -35082214.900756836 0 0 0 0 -137240140.96969414 137833799.1452179 0 137833799.1452179 -98286766.395935059 0 0 0 0 -140896718.43895912 79858907.336242676 0 79858907.336242676 23480078.239898682 0 0 0 0 -116927235.64188886 91152804.344432831 0 91152804.344432831 72585792.793182373 0 0 0 0 -152423539.95406091 112667593.97105026 0 112667593.97105026 65716686.531585693 0 0 0 0 -125695265.02217007 27787219.472305298 0 27787219.472305298 107868706.95175171 0 0 0 0 -120506899.93547392 79189664.576782227 0 79189664.576782227 79608015.080032349 0 0 0 0 -139762102.60137045 47979244.711465836 0 47979244.711465836 43965932.562225342 0 0 0 0 -112344023.76466179 42179164.927978516 0 42179164.927978516 196550937.18048096 0 0 0 0 -97702157.917145729 69822493.697834015 0 69822493.697834015 157971394.3916626 0 0 0 0 -130158494.76062012 45195870.756942749 0 45195870.756942749 148739662.99597168 0 0 0 0 -98309011.351785183 48266971.172119141 0 48266971.172119141 146653401.98803711 0 0 0 0 -97857960.997062683 111781321.17544556 0 111781321.17544556 85884907.537956238 0 0 0 0 -57368857.994514465 76038810.309783936 0 76038810.309783936 45308368.306274414 0 0 0 0 -25118309.323974609 105225370.74222565 0 105225370.74222565 -36644647.218688965 0 0 0 0 -10271339.147292614 52734725.693992615 0 52734725.693992615 31100206.655899048 0 0 0 0 -39251735.184333801 87821882.681587219 0 87821882.681587219 39822835.691480637 0 0 0 0 -8658276.6573300958 36631628.408520222 0 36631628.408520222 -159350.80645751953 0 0 0 0 -10762882.383606911 57792886.845695496 0 57792886.845695496 -90941861.785293579 0 0 0 0 -8191134.5434639454 52876670.953166962 0 52876670.953166962 -87043916.428619385 0 0 0 0 -99877749.468194962 131362069.39229584 0 131362069.39229584 -41564379.705841064 0 0 0 0 -33858953.609071732 101285139.39378357 0 101285139.39378357 -80881833.062683105 0 0 0 0 -104886536.24222326 133258184.90553284 0 133258184.90553284 -6836274.5718383789 0 0 0 0 -144816834.15059757 139296440.39706421 0 139296440.39706421 -42295188.985794067 0 0 0 0 -32097368.531775475 110731085.19674683 0 110731085.19674683 -38338286.329170227 0 0 0 0 -64944555.261068344 140901835.78320312 0 140901835.78320312 -131108955.17407227 0 0 0 0 -101524178.79226303 147655493.38525391 0 147655493.38525391 -132355350.35780334 0 0 0 0 419657.81393051147 66520748.366394043 0 66520748.366394043 -189541308.30718994 0 0 0 0 43850202.253671646 47900793.140045166 0 47900793.140045166 -245624724.17877197 0 0 0 0 -77293998.506895065 188044272.4594574 0 188044272.4594574 -363004021.1149292 0 0 0 0 -13891055.378173828 83021406.121459961 0 83021406.121459961 -201268330.73254395 0 0 0 0 40426596.617194653 93009834.198440552 0 93009834.198440552 -364376218.75848389 0 0 0 0 51505231.337882996 77170849.349212646 0 77170849.349212646 -371323360.68395996 0 0 0 0 1396727.1836833761 12572824.909969255 0 12572824.909969255 8806883.6146386899 0 0 0 0 10292022.761654377 27023511.783466339 0 27023511.783466339 -34996790.397758484 0 0 0 0 -28216123.566828251 37940311.904117584 0 37940311.904117584 7987392.7297821045 0 0 0 0 -18951804.436870575 21708125.215682983 0 21708125.215682983 -10906495.707366943 0 0 0 0 33808717.845553875 -2934521.7927274704 0 -2934521.7927274704 -57862689.501182556 0 0 0 0 21178212.953480244 40988702.635677338 0 40988702.635677338 -17549177.890388489 0 0 0 0 27756257.758319378 69664547.942064285 0 69664547.942064285 17382737.974563599 0 0 0 0 3245657.1612005234 33055142.859195709 0 33055142.859195709 -2970127.0454101562 0 0 0 0 21577194.652466536 78671102.082136154 0 78671102.082136154 117220275.55570221 0 0 0 0 -14474106.250914574 51181656.879878998 0 51181656.879878998 20509688.205612183 0 0 0 0 6169741.3815879822 37259962.168075562 0 37259962.168075562 -3239018.2946205139 0 0 0 0 -15613727.442662239 26165248.422382355 0 26165248.422382355 34750898.008970261 0 0 0 0 -13957897.014877319 29970723.426326752 0 29970723.426326752 -7086306.0021781921 0 0 0 0 -23455486.205429792 48559245.558349609 0 48559245.558349609 10208814.666320801 0 0 0 0 -17198911.411602497 -226836573.59921265 0 -226836573.59921265 -184274393.25406647 0 0 0 0 95909826.888405561 203103319.06282616 0 203103319.06282616 -134947884.79908752 0 0 0 0 -33825439.080595016 74279101.547592163 0 74279101.547592163 254669271.16549683 0 0 0 0 1446093.4867090655 818102.20318882912 0 818102.20318882912 -12540.684629410505 0 0 0 0 -19650370.388260603 201916776.22808075 0 201916776.22808075 25605671.517700195 0 0 0 0 27679552.324816704 353360267.31797791 0 353360267.31797791 334464239.22097778 0 0 0 0 144465581.06812859 307433846.90353394 0 307433846.90353394 -10789842.94467926 0 0 0 0 58388000.054005638 172754826.18637896 0 172754826.18637896 -149957875.94439697 0 0 0 0 352587533.66620636 522160986.42681885 0 522160986.42681885 -10440415.528884888 0 0 0 0 186819516.82307982 210504491.81567383 0 210504491.81567383 -417632976.44546509 0 0 0 0 519788281.05971587 122000196.92324829 0 122000196.92324829 -854756647.87719727 0 0 0 0 -485788127.33096933 -343262046.66430664 0 -343262046.66430664 -384020715.9989624 0 0 0 0 1026173.8730660614 12531419.808990985 0 12531419.808990985 20370169.509553626 0 0 0 0 -212294316.57372689 359464094.13394928 0 359464094.13394928 328247475.65785217 0 0 0 0 -522337553.29106045 -303375577.84591675 0 -303375577.84591675 -193795492.31506348 0 0 0 0 -282607981.92795563 289932883.96498108 0 289932883.96498108 -371687842.41137695 0 0 0 0 -122377700.66247749 227610358.67514038 0 227610358.67514038 -465182943.99960327 0 0 0 0 -1225321.6590534395 1614302.8400490955 0 1614302.8400490955 3612654.7011183547 0 0 0 0 -7679427.9100837708 70181689.419708252 0 70181689.419708252 79874291.835037231 0 0 0 0 -305152917.36730576 182086920.55404663 0 182086920.55404663 38848073.267059326 0 0 0 0 14760707.551262856 -492621506.87454987 0 -492621506.87454987 -348792797.54214096 0 0 0 0 293208765.40106201 259905617.66299438 0 259905617.66299438 -474014103.2453537 0 0 0 0 295844160.72487259 292523424.09783173 0 292523424.09783173 -240357646.61587048 0 0 0 0 265436598.22676086 60972065.251026154 0 60972065.251026154 -61789446.949020386 0 0 0 0 244310587.6642952 -18838318.244560242 0 -18838318.244560242 -228749124.20969987 0 0 0 0 243223725.69874573 -35860907.703048706 0 -35860907.703048706 -424221809.08983803 0 0 0 0 15895572.455403328 57142776.798599243 0 57142776.798599243 -59234902.749862671 0 0 0 0 308120786.06955719 92364475.921009064 0 92364475.921009064 -11311409.664669037 0 0 0 0 252889464.06982994 -77727172.069911957 0 -77727172.069911957 101461435.48468018 0 0 0 0 270751655.59590721 -53804974.320690155 0 -53804974.320690155 -16720072.984939575 0 0 0 0 284261888.69167519 24340545.462368011 0 24340545.462368011 185332443.65691376 0 0 0 0 765510565.61412716 375885873.99346161 0 375885873.99346161 -125674153.58303833 0 0 0 0 190171078.63824171 310749163.28568459 0 310749163.28568459 -137920001.50256348 0 0 0 0 189158257.85462952 22221144.392845154 0 22221144.392845154 -52471042.836200714 0 0 0 0 -602600394.43533158 631810654.92756271 0 631810654.92756271 107529169.76080322 0 0 0 0 6673217.2380485535 312406704.95355225 0 312406704.95355225 -70400950.213729858 0 0 0 0 187869445.65177345 811628069.84635925 0 811628069.84635925 -134344475.53695679 0 0 0 0 341838956.14287949 669175191.83618164 0 669175191.83618164 -80865604.803230286 0 0 0 0 276987784.91020679 632973477.1722641 0 632973477.1722641 -28087534.159790039 0 0 0 0 1105693528.4689045 709029471.04830933 0 709029471.04830933 -39547751.726459503 0 0 0 0 2073835.90670916 1060769.9785052165 0 1060769.9785052165 -1042563.3651319444 0 0 0 0 -45869980.47896564 414774434.68468475 0 414774434.68468475 -20857523.175666809 0 0 0 0 394190341.42123032 -571775270.87889099 0 -571775270.87889099 -847100820.10787964 0 0 0 0 -208035764.21476936 1155781888.4294472 0 1155781888.4294472 -521768171.46476746 0 0 0 0 -383698168.33388305 1106588203.7898102 0 1106588203.7898102 -38375881.89453125 0 0 0 0 177856319.85835791 887645165.75273895 0 887645165.75273895 -607264284.26983643 0 0 0 0 174066857.62003779 1028543677.1089935 0 1028543677.1089935 18060186.090270996 0 0 0 0 -14182018.206847191 157721515.15937805 0 157721515.15937805 -1318188364.2387924 0 0 0 0 144430549.14318275 127612036.73538208 0 127612036.73538208 -108123448.13040161 0 0 0 0 109269667.90177727 23409404.958618164 0 23409404.958618164 -320249267.48090744 0 0 0 0 188280316.60147625 1370169956.4572058 0 1370169956.4572058 268507441.69694519 0 0 0 0 17134121.512099266 -63389800.348419189 0 -63389800.348419189 -193965438.81137085 0 0 0 0 27825063.789376259 12006567.044937134 0 12006567.044937134 -44685935.727664948 0 0 0 0 -17191229.927831173 -2019535.4552650452 0 -2019535.4552650452 -24476436.460571289 0 0 0 0 668779.76801721635 7282018.9121032851 0 7282018.9121032851 -1411733.0317444876 0 0 0 0 323824.90954688564 11528221.681002989 0 11528221.681002989 8938623.7242306862 0 0 0 0 -52401590.399178028 -50623950.131084442 0 -50623950.131084442 -68678447.438339233 0 0 0 0 252482700.17419291 671152476.93637085 0 671152476.93637085 -479707503.11437988 0 0 0 0 -264113349.51659012 -183731021.00667572 0 -183731021.00667572 502703940.88474655 0 0 0 0 57060411.003749371 51883408.959266663 0 51883408.959266663 82211061.312362671 0 0 0 0 24182005.29887104 77219537.743919373 0 77219537.743919373 161211820.97355652 0 0 0 0 139658.49676304695 -1618718.5771801732 0 -1618718.5771801732 4410933.4801693931 0 0 0 0 -46020688.857632637 50541855.006538391 0 50541855.006538391 -4245113.2555160522 0 0 0 0 -4945269.8230921915 8495034.6350947618 0 8495034.6350947618 20923968.16061376 0 0 0 0 -203320729.23134279 31811763.565185547 0 31811763.565185547 73835921.276344299 0 0 0 0 -49203010.045431852 69288482.212306976 0 69288482.212306976 12775968.109893799 0 0 0 0 215554996.91858816 190329453.92749023 0 190329453.92749023 68462011.047294617 0 0 0 0 530419704.10385418 329641991.37917709 0 329641991.37917709 89326774.722236633 0 0 0 0 81606297.338713169 291387644.48885727 0 291387644.48885727 228974827.13224792 0 0 0 0 141567301.39280891 241538622.25442505 0 241538622.25442505 248148330.68831635 0 0 0 0 -2618178.9758720398 259092767.0252533 0 259092767.0252533 254602954.93989563 0 0 0 0 196478491.34210014 303163061.30821228 0 303163061.30821228 313477177.84648132 0 0 0 0 64798007.747640133 277470305.55978394 0 277470305.55978394 306856943.14019775 0 0 0 0 413101484.84741211 -23803762.057250977 0 -23803762.057250977 -1100850318.8160706 0 0 0 0 -29602125.330727577 86837391.810333252 0 86837391.810333252 464857234.12562561 0 0 0 0 781046.35218672268 -2166223.0015255027 0 -2166223.0015255027 953742.61643980397 0 0 0 0 131067481.44792175 252967950.17097473 0 252967950.17097473 289688024.27037811 0 0 0 0 47186019.32384491 255088208.66415405 0 255088208.66415405 740286136.35946655 0 0 0 0 134787556.91076279 231880110.86678314 0 231880110.86678314 408740666.29702759 0 0 0 0 325934515.17002869 148727185.87751389 0 148727185.87751389 247184944.02020264 0 0 0 0 270268471.36675644 408925795.82414246 0 408925795.82414246 567082162.79496765 0 0 0 0 564886584.27169418 335557065.45817566 0 335557065.45817566 224932861.11853027 0 0 0 0 -232274960.54032516 -72127421.641704559 0 -72127421.641704559 -11343468.704849243 0 0 0 0 -19351070.321851172 -9520735.1277543921 0 -9520735.1277543921 79482742.873854309 0 0 0 0 261059540.33812714 235904781.21322632 0 235904781.21322632 228122242.30635071 0 0 0 0 -215564018.4671104 -99634245.411892891 0 -99634245.411892891 -16197175.7605896 0 0 0 0 287727923.22161293 188891665.82110214 0 188891665.82110214 285510854.05395508 0 0 0 0 -281078192.6937561 -94453186.765213013 0 -94453186.765213013 -3758705.0799942017 0 0 0 0 -461396647.20461082 -455568057.21972847 0 -455568057.21972847 -319782429.30459404 0 0 0 0 -18407039.53900528 95042929.739276886 0 95042929.739276886 -180287476.06433868 0 0 0 0 -287517250.79021358 -59943632.537813187 0 -59943632.537813187 9117518.1600341797 0 0 0 0 221741741.83634806 123086045.46165466 0 123086045.46165466 59134113.706390381 0 0 0 0 86798969.942606807 316327609.39257812 0 316327609.39257812 180246583.81040955 0 0 0 0 -209846467.56061506 255139541.64405823 0 255139541.64405823 317545304.38270569 0 0 0 0 -328182711.5799644 257405441.70033455 0 257405441.70033455 364444701.12942505 0 0 0 0 -227308975.26630211 -98226403.925003052 0 -98226403.925003052 75731135.837170601 0 0 0 0 -657097647.33949184 758739.51232910156 0 758739.51232910156 337672949.76629639 0 0 0 0 -415654975.93838501 -561962782.98327637 0 -561962782.98327637 -74126681.227722168 0 0 0 0 -232111406.60736847 -269898522.06482697 0 -269898522.06482697 217770254.39830017 0 0 0 0 -1750419.5514955763 -330607.99129638821 0 -330607.99129638821 2181945.5565931834 0 0 0 0 -17919956.40684659 -12702371.437895939 0 -12702371.437895939 82441031.263946652 0 0 0 0 -845450304.29964256 404120826.52243042 0 404120826.52243042 304085820.01275635 0 0 0 0 -756104332.52346087 294180085.89704895 0 294180085.89704895 434803151.38812256 0 0 0 0 -687853082.21680486 684809590.13882446 0 684809590.13882446 -150803891.63543701 0 0 0 0 -104591411.0851593 -169405562.02146912 0 -169405562.02146912 122259656.5471344 0 0 0 0 -94801050.223419189 109962747.82286072 0 109962747.82286072 -550598187.23973083 0 0 0 0 -198573552.71128845 -178591091.12924957 0 -178591091.12924957 147600369.99538422 0 0 0 0 -206341400.26748657 -187188477.1984787 0 -187188477.1984787 183814556.54931641 0 0 0 0 -246105366.62625885 -278157719.08776855 0 -278157719.08776855 298593640.58520508 0 0 0 0 -203865661.88725281 -176470261.68850708 0 -176470261.68850708 225715682.62528992 0 0 0 0 -199419179.8599205 -247883753.37263489 0 -247883753.37263489 505004402.6228714 0 0 0 0 34769888.426128387 -332494359.23184776 0 -332494359.23184776 291782245.16758728 0 0 0 0 -303241743.48814774 -79456805.721302032 0 -79456805.721302032 103205340.12277222 0 0 0 0 -2271537.37636489 4400197.5786085622 0 4400197.5786085622 12686899.497688189 0 0 0 0 -102084352.51592779 102224262.88878632 0 102224262.88878632 106892093.25970459 0 0 0 0 231279963.68287849 417940097.11680603 0 417940097.11680603 217399654.08981323 0 0 0 0 626346552.98293304 262674322.42162323 0 262674322.42162323 228616634.04871655 0 0 0 0 107968067.26836395 281091721.04698944 0 281091721.04698944 231103258.49751663 0 0 0 0 -375825888.15618634 474518890.5850296 0 474518890.5850296 526246396.88641357 0 0 0 0 -34834800.553898931 728623599.3815937 0 728623599.3815937 361437648.94668579 0 0 0 0 -330147885.68856192 387800674.31341553 0 387800674.31341553 95061156.352539062 0 0 0 0 -171297356.80570841 -598007563.65565491 0 -598007563.65565491 -760786929.78591156 0 0 0 0 120437596.71476078 137288518.55897522 0 137288518.55897522 161021208.77410889 0 0 0 0 -264145993.4190073 242014731.76333618 0 242014731.76333618 -885703240.65231323 0 0 0 0 -286771899.34911078 256893835.07456207 0 256893835.07456207 203992394.27813721 0 0 0 0 -294989645.03576779 -738427966.60728455 0 -738427966.60728455 -99031226.601730347 0 0 0 0 130627360.16165018 934667202.38085938 0 934667202.38085938 1802728147.4113159 0 0 0 0 513637755.33285809 540057704.48773193 0 540057704.48773193 439040297.52688599 0 0 0 0 2004742623.0077596 1016023636.5876045 0 1016023636.5876045 212463542.98188782 0 0 0 0 -75823558.46708107 -382517644.69823456 0 -382517644.69823456 540614243.34693146 0 0 0 0 -621237.5574099801 1750506.5014725896 0 1750506.5014725896 4332351.3968313038 0 0 0 0 748063398.01388931 959247415.4418869 0 959247415.4418869 752911672.28871155 0 0 0 0 100585573.25804615 -844380937.89837646 0 -844380937.89837646 2281637187.5306969 0 0 0 0 136964992.67283058 482374623.69733429 0 482374623.69733429 -412585944.11308289 0 0 0 0 1326511758.252284 -180198974.32881927 0 -180198974.32881927 -86683523.752044678 0 0 0 0 -431022749.4232254 -27990893.178222656 0 -27990893.178222656 129005401.25152588 0 0 0 0 -856418155.56584978 -1134872616.3944855 0 -1134872616.3944855 258189837.12637329 0 0 0 0 -1073298438.4445553 -657482799.23193359 0 -657482799.23193359 265993309.91638184 0 0 0 0 -13973330.798092645 -18431154.487281255 0 -18431154.487281255 77854527.343931273 0 0 0 0 -1127677450.6454458 -589638549.93327332 0 -589638549.93327332 657908249.26069641 0 0 0 0 -823517036.1951685 -241632907.04348755 0 -241632907.04348755 853204045.89027405 0 0 0 0 -14044540.180885315 -352499087.90727234 0 -352499087.90727234 617102539.31665039 0 0 0 0 -904227881.18437219 -963758353.78377342 0 -963758353.78377342 819464141.1630249 0 0 0 0 -344528397.28754616 -466482101.13928223 0 -466482101.13928223 1289470004.1452332 0 0 0 0 -273991921.44630623 -909293537.68746948 0 -909293537.68746948 679507327.34802246 0 0 0 0 -371349915.64849854 -35490396.879608154 0 -35490396.879608154 80566824.026794434 0 0 0 0 -330258537.45471191 24250752.846336365 0 24250752.846336365 8701985.2210540771 0 0 0 0 -1031322907.1264193 -394111400.42391205 0 -394111400.42391205 -2258812259.1451416 0 0 0 0 -984245547.32793236 -345929660.76882935 0 -345929660.76882935 126283939.99475098 0 0 0 0 -6021509.7738398015 -2226011.500820674 0 -2226011.500820674 7823278.935713321 0 0 0 0 -11992815.237645948 -4276855.4714217782 0 -4276855.4714217782 83606110.002591118 0 0 0 0 -273683136.22288609 -368146121.51583862 0 -368146121.51583862 -133316926.68536377 0 0 0 0 -14821424.9435606 -487499731.35943604 0 -487499731.35943604 -900931091.87065125 0 0 0 0 77156290.42805934 -82900048.797848701 0 -82900048.797848701 -202892767.13616943 0 0 0 0 349257348.16127491 194918492.7359314 0 194918492.7359314 -6866755.8361434937 0 0 0 0 -232462738.79203033 -9527717.4943008423 0 -9527717.4943008423 236509006.56842804 0 0 0 0 -68615816.64122963 30550545.47319603 0 30550545.47319603 318514342.62546539 0 0 0 0 -159618463.83403778 -72730139.306396484 0 -72730139.306396484 202722903.20160675 0 0 0 0 -235865545.74731445 -58088994.044006348 0 -58088994.044006348 227730546.69874954 0 0 0 0 -172704071.41679955 -18745439.888549805 0 -18745439.888549805 134703729.17506409 0 0 0 0 -261179282.48060226 19777416.58265686 0 19777416.58265686 15929846.857116699 0 0 0 0 -457430033.20780182 106120020.79985428 0 106120020.79985428 81388339.760437012 0 0 0 0 -348753161.48275757 -15047441.325035095 0 -15047441.325035095 169359264.98675537 0 0 0 0 -284396552.40627289 3912770.9574546814 0 3912770.9574546814 114734788.26017761 0 0 0 0 -366292134.9216156 33764191.630867004 0 33764191.630867004 151211118.55485535 0 0 0 0 -271568025.92824554 41131672.073806763 0 41131672.073806763 192357563.58004379 0 0 0 0 -294758021.01550484 115145638.2798624 0 115145638.2798624 74455287.788284302 0 0 0 0 -300488125.29182434 100505838.31742477 0 100505838.31742477 42161424.178161621 0 0 0 0 -277664886.4143343 54519207.436331272 0 54519207.436331272 148227780.06088257 0 0 0 0 -326864023.62286377 53308334.818275452 0 53308334.818275452 163896707.81788254 0 0 0 0 -159292516.08032608 87650183.886882782 0 87650183.886882782 129494542.77456284 0 0 0 0 -125261418.15924406 -63183135.908103943 0 -63183135.908103943 295579403.28209686 0 0 0 0 -21417569.060857773 -38837832.39972496 0 -38837832.39972496 244697531.58865356 0 0 0 0 40451615.543313026 -145917345.5055809 0 -145917345.5055809 291404895.18574524 0 0 0 0 178161969.11227131 16013366.972698212 0 16013366.972698212 379874884.01438522 0 0 0 0 335549144.05169296 141043017.52858734 0 141043017.52858734 286572508.20211792 0 0 0 0 -69287785.038580418 -1454195.4113788605 0 -1454195.4113788605 475133125.99887848 0 0 0 0 698080160.460495 706617799.44194031 0 706617799.44194031 717070258.05389023 0 0 0 0 204477309.63024092 263090001.89216423 0 263090001.89216423 331344446.62348175 0 0 0 0 1278564071.0659676 407985139.71493912 0 407985139.71493912 7420442.5607805252 0 0 0 0 224728101.79131079 80751793.635555267 0 80751793.635555267 50538478.414833069 0 0 0 0 1510708.9806116207 1491260.4548968915 0 1491260.4548968915 611560.64509493858 0 0 0 0 -9623448.1235637665 -251379253.40134811 0 -251379253.40134811 1052668898.3382187 0 0 0 0 28360031.07435894 609437739.07546997 0 609437739.07546997 1327476966.7800474 0 0 0 0 1303268555.9505434 181626703.21956444 0 181626703.21956444 301673344.50686646 0 0 0 0 -82379542.889604568 78266655.137123108 0 78266655.137123108 1132567319.8856602 0 0 0 0 503512087.69688225 -227027216.15324402 0 -227027216.15324402 -364236394.12084961 0 0 0 0 210770.62295275182 -2768807.2225225177 0 -2768807.2225225177 1747248.1972326171 0 0 0 0 -116469544.39908886 158498630.23755074 0 158498630.23755074 341618319.69781494 0 0 0 0 -5663485.8190670013 42415291.163639069 0 42415291.163639069 106863353.86264992 0 0 0 0 -5519481.7265319824 33490196.516532898 0 33490196.516532898 112831152.47470474 0 0 0 0 -9574621.9559688568 -98529399.157131195 0 -98529399.157131195 -32487604.915355682 0 0 0 0 50732730.031528473 -750403.98075771332 0 -750403.98075771332 -82174919.157875061 0 0 0 0 -100764956.56240654 -243235384.8993454 0 -243235384.8993454 -262242449.32006359 0 0 0 0 -168470340.22031021 -64664610.900623322 0 -64664610.900623322 -15382059.267883301 0 0 0 0 141491082.15194511 -44774590.555796623 0 -44774590.555796623 -64026876.418914795 0 0 0 0 -39976078.383824348 86745993.08416748 0 86745993.08416748 192248337.6785202 0 0 0 0 -31811790.551206589 -224083111.53525543 0 -224083111.53525543 219259129.05909348 0 0 0 0 -292312.18248518743 -1731539.9039442763 0 -1731539.9039442763 1143443.1816439126 0 0 0 0 -287851153.86975861 -16501186.654529572 0 -16501186.654529572 441716533.69007301 0 0 0 0 105874155.25054085 35282907.210161209 0 35282907.210161209 162614677.58712769 0 0 0 0 103340057.71333289 -25617402.360614777 0 -25617402.360614777 3273300.591463089 0 0 0 0 47013897.684973717 18862672.485128403 0 18862672.485128403 111125030.51869583 0 0 0 0 -476324.30162827752 -260446.71990526468 0 -260446.71990526468 1415421.9763078913 0 0 0 0 62033928.765703321 61397032.514674187 0 61397032.514674187 45277049.339744568 0 0 0 0 118758759.91525829 161684156.48006821 0 161684156.48006821 271799582.99835205 0 0 0 0 158040443.51677608 261992661.44313049 0 261992661.44313049 329103002.56865311 0 0 0 0 -33893388.228628635 123171773.07836151 0 123171773.07836151 369100359.11710358 0 0 0 0 7825037.6861996651 106619624.07239532 0 106619624.07239532 164935601.70600891 0 0 0 0 -32253429.113620281 83297163.158937454 0 83297163.158937454 66198657.611503601 0 0 0 0 55534527.211523056 -108281122.89269257 0 -108281122.89269257 125840116.75452995 0 0 0 0 -7189318.6162815094 403450391.53091049 0 403450391.53091049 558385655.61589241 0 0 0 0 -56081197.992240906 22223319.660202026 0 22223319.660202026 771718966.43453217 0 0 0 0 136910147.05919814 395160292.39044952 0 395160292.39044952 432108254.42919159 0 0 0 0 374831.002872115 -2237408.1249466073 0 -2237408.1249466073 1490031.9636094663 0 0 0 0 394910220.82462215 232577533.34601593 0 232577533.34601593 -94319158.567817688 0 0 0 0 -31399.72599678766 -1060568.4362342767 0 -1060568.4362342767 795059.20768304169 0 0 0 0 187623754.84097719 487777020.67334557 0 487777020.67334557 578316638.30198669 0 0 0 0 40482800.134623051 362206656.78470612 0 362206656.78470612 456952693.11000061 0 0 0 0 81934399.213885427 172869159.65754509 0 172869159.65754509 298498687.24594116 0 0 0 0 389008483.80740595 318584934.63684845 0 318584934.63684845 290215976.92828751 0 0 0 0 200563187.30340058 199156068.08399963 0 199156068.08399963 214962420.58369064 0 0 0 0 200350538.96129608 167337940.32402897 0 167337940.32402897 380147126.34670258 0 0 0 0 256875625.74743652 301054464.8617897 0 301054464.8617897 311958566.32054901 0 0 0 0 194440549.69921637 272761517.06906891 0 272761517.06906891 305730897.48673058 0 0 0 0 314028453.06622159 273442935.93795204 0 273442935.93795204 301241103.63095856 0 0 0 0 214554251.616588 310421688.99441624 0 310421688.99441624 366685992.96183777 0 0 0 0 207001303.80160713 79134100.037109375 0 79134100.037109375 94894522.283203125 0 0 0 0 -7507915.5683150291 141148964.6051774 0 141148964.6051774 256469454.58545685 0 0 0 0 44018432.447280884 12964900.21698761 0 12964900.21698761 91061002.419458389 0 0 0 0 17183886.87916851 53057183.218639374 0 53057183.218639374 109188174.69978333 0 0 0 0 -78735522.528053284 3244421.7660827637 0 3244421.7660827637 156316206.83349991 0 0 0 0 -38603321.303877831 15009223.735275269 0 15009223.735275269 153963436.52051544 0 0 0 0 -171913125.58884549 -759699.43326091766 0 -759699.43326091766 202233185.6750946 0 0 0 0 -249641433.27356243 -226622915.52863312 0 -226622915.52863312 -40333876.167533875 0 0 0 0 -282423842.81912422 -21022064.349689484 0 -21022064.349689484 119125846.87206268 0 0 0 0 -87038452.007223606 -125925207.16970444 0 -125925207.16970444 -93967131.343643188 0 0 0 0 -49234258.909536362 -31173026.523948669 0 -31173026.523948669 69068435.710083008 0 0 0 0 -77946617.938690186 -20447513.190292358 0 -20447513.190292358 96826752.063304901 0 0 0 0 -113801170.69629407 -8216305.4669208527 0 -8216305.4669208527 237605522.50576019 0 0 0 0 25282316.291226506 140920349.06698418 0 140920349.06698418 328514289.58591461 0 0 0 0 178841412.41816139 167067353.60925293 0 167067353.60925293 181434879.38474655 0 0 0 0 -30798671.549508572 -132273849.75728607 0 -132273849.75728607 240395544.60179901 0 0 0 0 171257282.30320716 -185246267.56094551 0 -185246267.56094551 673819024.75849152 0 0 0 0 198444848.57687187 269960006.75695419 0 269960006.75695419 403449504.34637451 0 0 0 0 386451844.42801619 347131056.57690907 0 347131056.57690907 400196469.64237213 0 0 0 0 -78779041.550449371 102041395.02406693 0 102041395.02406693 172241905.17774963 0 0 0 0 -62429085.777404785 -180685975.69037247 0 -180685975.69037247 -123975364.97509766 0 0 0 0 -1615702.9975472223 -173061.9359907601 0 -173061.9359907601 1892054.6087534167 0 0 0 0 -287172141.61655426 -152070687.86483765 0 -152070687.86483765 108601005.31410217 0 0 0 0 -175298408.47686005 -77026136.216445923 0 -77026136.216445923 -13240312.800880432 0 0 0 0 -88440144.736114502 -71292583.01385498 0 -71292583.01385498 -15711240.135559082 0 0 0 0 -30215343.031402588 -97545344.641464233 0 -97545344.641464233 -53749672.641723633 0 0 0 0 -240486943.95964241 -135391107.35054016 0 -135391107.35054016 -29087228.369186401 0 0 0 0 -2772215.3953459784 -515048.20874698088 0 -515048.20874698088 3506330.8092493974 0 0 0 0 -161786448.72167969 -133971168.28581238 0 -133971168.28581238 -45614205.951400757 0 0 0 0 -85129206.893714905 -130138379.08590698 0 -130138379.08590698 -46563934.688812256 0 0 0 0 -215707876.92511845 -104245669.5634799 0 -104245669.5634799 -7256214.3767089844 0 0 0 0 -59019892.108174324 15836272.068597794 0 15836272.068597794 -56974078.392776489 0 0 0 0 24467451.494994164 18287558.049633026 0 18287558.049633026 22037945.410041809 0 0 0 0 -48245353.02325058 -81030956.386959076 0 -81030956.386959076 44933988.851064682 0 0 0 0 -39045659.337210655 -46784896.988580704 0 -46784896.988580704 127340582.34067535 0 0 0 0 -39832347.512846947 -103965935.63097954 0 -103965935.63097954 100194921.31004333 0 0 0 0 -7094699.7634811401 -73739295.84551239 0 -73739295.84551239 111690906.86431885 0 0 0 0 -75528241.721952438 -126382178.44169998 0 -126382178.44169998 93171593.55721283 0 0 0 0 -68365133.303489685 -73703011.888420105 0 -73703011.888420105 88000955.761181831 0 0 0 0 -118328383.9239006 -72089630.207115173 0 -72089630.207115173 134671634.53550816 0 0 0 0 -139456989.35541534 -100841075.38262939 0 -100841075.38262939 97671223.285873413 0 0 0 0 -52924211.690871239 -145841730.25737762 0 -145841730.25737762 -243937253.83704376 0 0 0 0 -155275593.18389893 -93355273.405975342 0 -93355273.405975342 95030990.961647034 0 0 0 0 -107513071.41921043 -149311170.38840103 0 -149311170.38840103 -39512337.128860474 0 0 0 0 -24686073.601722717 -52251327.052352905 0 -52251327.052352905 -71157326.31219101 0 0 0 0 -18036782.06310463 -58782017.393791199 0 -58782017.393791199 -21747025.86605835 0 0 0 0 2387979.8808085062 -6267891.9062020537 0 -6267891.9062020537 -19812155.085488241 0 0 0 0 -24490313.780368805 -56467389.843223572 0 -56467389.843223572 -19801407.639293671 0 0 0 0 123127625.53006792 -62002691.861671448 0 -62002691.861671448 106345209.10565186 0 0 0 0 -18147202.24874904 -11991229.187616937 0 -11991229.187616937 61071034.851989098 0 0 0 0 -40921157.784166813 -92695483.698541641 0 -92695483.698541641 210830197.64640808 0 0 0 0 -31672127.507194519 -348863396.07977295 0 -348863396.07977295 99091277.685508728 0 0 0 0 -168684613.321064 -125830897.36055756 0 -125830897.36055756 -109648256.79827118 0 0 0 0 -123395.67808593623 -2302525.7538602315 0 -2302525.7538602315 -5263522.5272264108 0 0 0 0 -118355182.82170105 -85325176.01802063 0 -85325176.01802063 269916797.29577255 0 0 0 0 85218299.296127319 -240110720.80491638 0 -240110720.80491638 108798236.03522491 0 0 0 0 197568215.22554779 -48991199.908279419 0 -48991199.908279419 -379002089.61434937 0 0 0 0 -167037920.16238403 9019536.5574569702 0 9019536.5574569702 105563171.41030884 0 0 0 0 87831126.201206207 -177263648.59025192 0 -177263648.59025192 57465030.064437866 0 0 0 0 -20342261.61424876 -8557281.7289496846 0 -8557281.7289496846 73901856.43834953 0 0 0 0 327752568.5049336 207132653.58956409 0 207132653.58956409 -35773469.488349915 0 0 0 0 -352372006.78329468 -137669232.96661377 0 -137669232.96661377 140737996.65757751 0 0 0 0 -385558201.98310852 52752777.277122498 0 52752777.277122498 122259526.7592392 0 0 0 0 242177619.98681641 63499092.487998962 0 63499092.487998962 113082099.40518188 0 0 0 0 114730772.95885849 -8517204.9513320923 0 -8517204.9513320923 73589011.260040283 0 0 0 0 246961786.28395844 -11514316.588745117 0 -11514316.588745117 99616263.326997757 0 0 0 0 237732066.73283768 -26572746.657886505 0 -26572746.657886505 85487862.606357574 0 0 0 0 220109209.36707687 -38634255.536140442 0 -38634255.536140442 110019139.65480042 0 0 0 0 220900697.40710449 -53745600.32459259 0 -53745600.32459259 81245534.471588135 0 0 0 0 165708036.61524391 -60137878.746530533 0 -60137878.746530533 78225152.363136292 0 0 0 0 11280349.624467423 1215879.8937706687 0 1215879.8937706687 18622827.667715974 0 0 0 0 -144543376.8460474 57817999.341143608 0 57817999.341143608 473490066.49961853 0 0 0 0 -46662368.535177231 -11915187.184490204 0 -11915187.184490204 508413619.45405579 0 0 0 0 -20061249.538302422 -83675113.604038239 0 -83675113.604038239 329660845.51450348 0 0 0 0 48601295.802752018 66943202.212276459 0 66943202.212276459 302487550.7464447 0 0 0 0 -20922587.896509171 53996898.233512878 0 53996898.233512878 490028513.81856155 0 0 0 0 -70928669.778812408 -277761346.21243286 0 -277761346.21243286 654905260.17402649 0 0 0 0 354388.63208843314 832374.32442086376 0 832374.32442086376 514083.48109909147 0 0 0 0 -113326192.88910294 269865560.34935379 0 269865560.34935379 1032792169.4274368 0 0 0 0 96234920.018039227 391922617.24503231 0 391922617.24503231 196782121.25762177 0 0 0 0 123333189.73117971 568377470.85228157 0 568377470.85228157 808814456.76065826 0 0 0 0 -31498193.970375061 34900070.85684967 0 34900070.85684967 -69049054.24408865 0 0 0 0 -52980072.973302841 -15726927.386817932 0 -15726927.386817932 -82365420.487670898 0 0 0 0 -16968471.552862752 -25258531.60010428 0 -25258531.60010428 58121043.067997307 0 0 0 0 -828371.60330964811 1480285.7496272214 0 1480285.7496272214 11244381.933872711 0 0 0 0 -185220405.89465904 -8042126.0903167725 0 -8042126.0903167725 94687891.332452774 0 0 0 0 30998263.422202349 -169256790.72530174 0 -169256790.72530174 -41588924.118247986 0 0 0 0 -13100421.100221632 -29919342.824998509 0 -29919342.824998509 34755255.157477468 0 0 0 0 28639609.30449295 189756123.00585747 0 189756123.00585747 -101815863.47538757 0 0 0 0 -107687991.5830822 13120640.418092728 0 13120640.418092728 623106134.76425934 0 0 0 0 5774183.4278117567 -7088900.1422881447 0 -7088900.1422881447 -8730999.8106624298 0 0 0 0 440011098.99963951 127119783.34109497 0 127119783.34109497 1121977695.5271912 0 0 0 0 424306274.40634918 416755360.04161453 0 416755360.04161453 379713151.13267136 0 0 0 0 18600077.856044769 -81587971.585453033 0 -81587971.585453033 51922787.148048401 0 0 0 0 163221824.58619642 -30500711.69241333 0 -30500711.69241333 -57525755.03578186 0 0 0 0 346898152.94756985 282502010.8989296 0 282502010.8989296 175427807.87449646 0 0 0 0 -26024730.769348145 30516877.893058777 0 30516877.893058777 61626246.886501312 0 0 0 0 -5614225.9820423126 334130778.1989212 0 334130778.1989212 540166881.98778725 0 0 0 0 107958648.13012981 162100415.57387352 0 162100415.57387352 144741367.28339767 0 0 0 0 -147569196.22128868 145867429.88923645 0 145867429.88923645 346114256.04857635 0 0 0 0 -156634276.42108011 51983573.214859366 0 51983573.214859366 898640066.21733856 0 0 0 0 1220577.8117753519 -315661.67215517722 0 -315661.67215517722 470447.36338111665 0 0 0 0 1063186.8770291805 69984307.620434761 0 69984307.620434761 -49233865.432884216 0 0 0 0 61820691.281532288 28134687.158885956 0 28134687.158885956 -41368631.813236237 0 0 0 0 1090087.5276093851 -91697.596434278414 0 -91697.596434278414 -701693.35554062948 0 0 0 0 40304386.829371929 -41720780.341192245 0 -41720780.341192245 -53771712.471046448 0 0 0 0 1272594.9002907276 2118489.6755862236 0 2118489.6755862236 -1777829.8649978638 0 0 0 0 358814.66727063712 -738685.66727276519 0 -738685.66727276519 503218.94166462123 0 0 0 0 55589270.911113262 -16576008.544336319 0 -16576008.544336319 -61292227.311851501 0 0 0 0 53417.468799591064 -628492.88942718506 0 -628492.88942718506 -3171828.9223632812 0 0 0 0 2050122.3559531358 1048921.6426540986 0 1048921.6426540986 505324.67594886944 0 0 0 0 175864.7743473053 898213.93101501465 0 898213.93101501465 -1647871.5409045219 0 0 0 0 -45596393.911458969 16189816.691009521 0 16189816.691009521 -67544227.132041931 0 0 0 0 1407043.8725385233 2667510.5460755359 0 2667510.5460755359 245418.0080492422 0 0 0 0 50611604.601862907 96725310.090251923 0 96725310.090251923 -141237240.4557476 0 0 0 0 -3425152.0615921021 -989202.09671783447 0 -989202.09671783447 10731413.65451622 0 0 0 0 234246.4271346163 -927099.20288085751 0 -927099.20288085751 481916.81716451887 0 0 0 0 -48813449.140394688 60798642.609409332 0 60798642.609409332 -12902712.348434448 0 0 0 0 19579975.469256878 108876490.97178268 0 108876490.97178268 31150837.765724182 0 0 0 0 -9596491.9301567078 4757578.4866523743 0 4757578.4866523743 103121409.55230713 0 0 0 0 117805232.33257937 -12969148.734101295 0 -12969148.734101295 1405698.350730896 0 0 0 0 68324007.580848098 52043581.793669224 0 52043581.793669224 300400469.81923676 0 0 0 0 74523541.545496464 67854793.227262974 0 67854793.227262974 142004157.32471466 0 0 0 0 735816.21583329083 1852501.2762656761 0 1852501.2762656761 1141562.7646535225 0 0 0 0 -72191807.981127739 -31814488.369441986 0 -31814488.369441986 42286302.009155273 0 0 0 0 -20645010.374592498 -23000421.589932695 0 -23000421.589932695 83711058.436820984 0 0 0 0 -48050138.554473877 116187159.53358459 0 116187159.53358459 39430855.377672195 0 0 0 0 -155811823.23669338 85308364.567947388 0 85308364.567947388 43170288.366592407 0 0 0 0 170187106.68922788 -192378695.42099142 0 -192378695.42099142 -90814371.176750183 0 0 0 0 -53631696.734228134 -105711105.96990204 0 -105711105.96990204 168979208.43325615 0 0 0 0 153821501.36540866 -15166999.630626678 0 -15166999.630626678 119695159.21318054 0 0 0 0 -1867736.9089615345 -177803594.6115036 0 -177803594.6115036 -35381064.118011475 0 0 0 0 -221518642.97635365 -167261175.70107269 0 -167261175.70107269 -17577567.069496155 0 0 0 0 -146931667.81418085 -293347259.72818756 0 -293347259.72818756 -103460920.76637363 0 0 0 0 166081901.36596012 -480211342.83901501 0 -480211342.83901501 128583102.4792366 0 0 0 0 -13106918.19695298 -28326174.931373164 0 -28326174.931373164 39900975.101048477 0 0 0 0 -116875636.23548317 -195419136.16491508 0 -195419136.16491508 -83457834.339042664 0 0 0 0 -140879345.8437891 -195002413.17789078 0 -195002413.17789078 67136403.79510498 0 0 0 0 -177614413.31549263 -215511852.25327301 0 -215511852.25327301 -52613672.097000122 0 0 0 0 -389364071.65920067 203513637.56245804 0 203513637.56245804 430836797.37746429 0 0 0 0 223750798.33293724 244141415.49106216 0 244141415.49106216 433436413.16218567 0 0 0 0 -92875041.707685471 -214857512.44717598 0 -214857512.44717598 421972326.03170013 0 0 0 0 93766242.270985603 271941937.08731079 0 271941937.08731079 701844624.31452179 0 0 0 0 926173.16013635136 -195938.10277635977 0 -195938.10277635977 -251263.68299714476 0 0 0 0 11826213.262359619 17593771.553184509 0 17593771.553184509 -87555103.471717834 0 0 0 0 41138663.17057991 -26212303.310247421 0 -26212303.310247421 210955291.73743057 0 0 0 0 132052648.76797295 25475138.98150444 0 25475138.98150444 -24154911.027206421 0 0 0 0 109778788.75206757 -2545738.5557937622 0 -2545738.5557937622 -26607627.514653206 0 0 0 0 165845.08857155219 1949274.2122648826 0 1949274.2122648826 2816025.7365565263 0 0 0 0 38187295.527880192 -58551627.315814972 0 -58551627.315814972 46601001.943809509 0 0 0 0 984285426.03485107 -365323212.20072937 0 -365323212.20072937 6963182.6451339722 0 0 0 0 166669250.75750065 713636233.8643055 0 713636233.8643055 179503263.14684153 0 0 0 0 -14204601.885470454 -26101062.201936908 0 -26101062.201936908 41478163.841042593 0 0 0 0 -32108439.293527007 -248599397.47222328 0 -248599397.47222328 -308555355.2545433 0 0 0 0 59847229.797985077 8892357.1645536423 0 8892357.1645536423 121690263.42072105 0 0 0 0 -699786.08775985241 -10988085.038414001 0 -10988085.038414001 -151515050.36557007 0 0 0 0 -112470610.66715026 -180050799.89186859 0 -180050799.89186859 -65346401.76415062 0 0 0 0 53191205.913803101 35763050.754360199 0 35763050.754360199 56091241.555644989 0 0 0 0 56001118.888168335 35106006.862973213 0 35106006.862973213 27534937.501930237 0 0 0 0 44294040.213623047 48549121.642889023 0 48549121.642889023 50535395.518164635 0 0 0 0 29354076.434400558 47547413.219106674 0 47547413.219106674 107060883.41843033 0 0 0 0 12493192.040904999 27529191.872140884 0 27529191.872140884 111519176.67106628 0 0 0 0 16151062.681938171 47672991.27329433 0 47672991.27329433 164529416.43730545 0 0 0 0 53954594.164531231 80830975.872761011 0 80830975.872761011 130231370.02861404 0 0 0 0 2270875.018977792 5045192.6102550421 0 5045192.6102550421 7699489.8915472664 0 0 0 0 112684379.24175453 83425264.079771042 0 83425264.079771042 57628238.120467186 0 0 0 0 -48773519.543043137 -31329297.783349991 0 -31329297.783349991 31986633.046375275 0 0 0 0 46137567.966148376 20308693.997901917 0 20308693.997901917 20044350.008701324 0 0 0 0 -31377823.352676392 3133924.7584991455 0 3133924.7584991455 -26194256.669052124 0 0 0 0 -30091459.142074585 18207088.71118927 0 18207088.71118927 -21119615.731452942 0 0 0 0 -30351950.538352966 22033216.765029907 0 22033216.765029907 -4570614.8325614929 0 0 0 0 -31314016.978302002 -6985167.0032043457 0 -6985167.0032043457 7638861.3083267212 0 0 0 0 -29055171.641036987 -14241432.116867065 0 -14241432.116867065 -13201258.339813232 0 0 0 0 -30027807.655643463 -16263893.786354065 0 -16263893.786354065 -4151730.9067687988 0 0 0 0 -8172624.0907852054 3453560.2926588655 0 3453560.2926588655 48510338.401779175 0 0 0 0 -31616612.497062683 -9574001.4847488403 0 -9574001.4847488403 28751485.426475525 0 0 0 0 -8085642.3109970093 5995529.4934997559 0 5995529.4934997559 5564514.5714416504 0 0 0 0 -27562759.824424744 12967074.785217285 0 12967074.785217285 24815490.143608093 0 0 0 0 24939586.52832222 -7276990.38539505 0 -7276990.38539505 44019681.233215332 0 0 0 0 23584233.821403503 -12101540.057258606 0 -12101540.057258606 28659485.433811188 0 0 0 0 30042564.373021126 -33378991.39986515 0 -33378991.39986515 43593480.97429657 0 0 0 0 -12536928.657154083 690858.3126373291 0 690858.3126373291 28355493.308952332 0 0 0 0 24590975.81133461 -20463357.293754578 0 -20463357.293754578 28170495.372963011 0 0 0 0 69574618.326833725 40736875.729221344 0 40736875.729221344 -25361346.689571381 0 0 0 0 -60267548.601791382 22427004.191940784 0 22427004.191940784 27571717.561485291 0 0 0 0 83287195.788707733 50104.862854003906 0 50104.862854003906 -32966382.288154602 0 0 0 0 122461958.15496254 7732290.7750511169 0 7732290.7750511169 -33164707.476303101 0 0 0 0 110037889.58071041 -1697711.1100940704 0 -1697711.1100940704 -24701100.61529541 0 0 0 0 114044391.03605533 47848786.073008776 0 47848786.073008776 22386048.326171875 0 0 0 0 990921.29773024516 853009.60549114272 0 853009.60549114272 -867178.92785157636 0 0 0 0 145591903.25475192 31810150.991964579 0 31810150.991964579 173825950.00334167 0 0 0 0 134704645.16530228 -56442778.703975677 0 -56442778.703975677 26093455.236808777 0 0 0 0 58156693.370306015 -54660761.413305283 0 -54660761.413305283 110786820.80220032 0 0 0 0 218843976.35062027 -95698592.674292564 0 -95698592.674292564 -175067577.81919861 0 0 0 0 100296648.10258675 28848987.084868431 0 28848987.084868431 14643226.373413086 0 0 0 0 668143.41600982891 1188183.0007436257 0 1188183.0007436257 -299729.4064883627 0 0 0 0 40136382.076858521 44629478.416553497 0 44629478.416553497 96380961.047318459 0 0 0 0 55171384.525600433 128174.67770576477 0 128174.67770576477 -1256607.3806762695 0 0 0 0 30078874.785584927 4105413.2683053017 0 4105413.2683053017 -11981895.138267517 0 0 0 0 13842611.718479156 11553527.188615799 0 11553527.188615799 -1579501.5765609741 0 0 0 0 28392458.091163635 18500280.384246826 0 18500280.384246826 -21244649.615013123 0 0 0 0 -20336684.366256714 26753508.695295334 0 26753508.695295334 10050131.58588028 0 0 0 0 -13971870.206352234 40622440.145742416 0 40622440.145742416 23895393.043937683 0 0 0 0 24865205.543488503 47646845.080242157 0 47646845.080242157 32551847.365516663 0 0 0 0 9360939.0402755737 28088545.481639862 0 28088545.481639862 8337325.3071918488 0 0 0 0 1063837.9640312195 34019793.091178894 0 34019793.091178894 39125917.883436203 0 0 0 0 28267584.624597549 15279867.286071777 0 15279867.286071777 28698964.937805176 0 0 0 0 -4558886.4925460815 22381060.00415802 0 22381060.00415802 16094545.467506409 0 0 0 0 -31331414.568138123 18552396.244903564 0 18552396.244903564 22517177.176370144 0 0 0 0 1714406.8848276138 3944213.7850208282 0 3944213.7850208282 3268872.6030502319 0 0 0 0 1005918.6584365768 6268749.2244559098 0 6268749.2244559098 10138616.5132633 0 0 0 0 -50526653.669093132 16605782.015985489 0 16605782.015985489 17274994.785903931 0 0 0 0 -39686095.012756348 32752730.229724884 0 32752730.229724884 13469547.745025635 0 0 0 0 5298177.0916120233 1329240.1540478095 0 1329240.1540478095 3086790.0434017945 0 0 0 0 26713403.358734131 11856182.745225906 0 11856182.745225906 31515919.460538864 0 0 0 0 11174152.008348405 6369403.3189422842 0 6369403.3189422842 3976461.9183847168 0 0 0 0 -30008720.961219788 21667082.061222076 0 21667082.061222076 2055514.6855430603 0 0 0 0 -16716678.174432278 -79337933.190419555 0 -79337933.190419555 -240954867.65918922 0 0 0 0 7014209.875787735 -13848221.747750998 0 -13848221.747750998 -213151407.68405151 0 0 0 0 -15756757.235558033 38406907.137933254 0 38406907.137933254 6509941.4205436707 0 0 0 0 10947418.868356416 10872337.285730366 0 10872337.285730366 10300604.22133448 0 0 0 0 22225893.754372597 14946818.134822011 0 14946818.134822011 30606662.326346397 0 0 0 0 1795466.3092591702 4435218.2975835791 0 4435218.2975835791 2473635.9501452711 0 0 0 0 8522575.3218721263 1531927.3321920307 0 1531927.3321920307 389703.03400495835 0 0 0 0 19791539.073148727 105219011.63042092 0 105219011.63042092 -16846188.774885297 0 0 0 0 9877234.9757498205 -492959.55658664159 0 -492959.55658664159 2705966.5283462936 0 0 0 0 19682889.269973755 14897533.01858139 0 14897533.01858139 16876061.76115036 0 0 0 0 36657674.195396423 28584866.42559433 0 28584866.42559433 21371741.855967522 0 0 0 0 38557670.371643066 17398055.935577393 0 17398055.935577393 33084239.053077698 0 0 0 0 54452974.886505127 4294088.8364181519 0 4294088.8364181519 -6828521.8001995087 0 0 0 0 29357148.606708527 23408742.598225594 0 23408742.598225594 12153209.980031967 0 0 0 0 20843960.31482017 -5169657.7202134132 0 -5169657.7202134132 6544462.4555892944 0 0 0 0 24949502.481559277 29581040.108486414 0 29581040.108486414 44273600.10295105 0 0 0 0 2849679.3532596603 -555288.89555683546 0 -555288.89555683546 -2147186.5388978459 0 0 0 0 2522986.816968441 4056045.0114650726 0 4056045.0114650726 -14573111.322174072 0 0 0 0 2475182.6991959545 5059558.997495465 0 5059558.997495465 2678080.679620564 0 0 0 0 -3671610.3322703838 -15746402.221084595 0 -15746402.221084595 27418678.916877747 0 0 0 0 -30466063.166559458 14666632.018383026 0 14666632.018383026 17800408.919046402 0 0 0 0 5122990.3626356125 -4306485.9960098267 0 -4306485.9960098267 -29905235.44893074 0 0 0 0 -39283560.566225052 -37093518.640129089 0 -37093518.640129089 -4716944.4716873169 0 0 0 0 13243159.33451128 12484775.863481998 0 12484775.863481998 3281490.8958320618 0 0 0 0 -19616988.447207451 538539.65118789673 0 538539.65118789673 10446952.483680725 0 0 0 0 -964274.375679255 -818894.9651972279 0 -818894.9651972279 361355.77801701427 0 0 0 0 -19474800.643922567 1491633.6693525314 0 1491633.6693525314 3567998.5709838867 0 0 0 0 -17110869.640937805 46324348.227298737 0 46324348.227298737 -28236910.255275726 0 0 0 0 17955366.726640701 -40452937.719665527 0 -40452937.719665527 44059694.649125576 0 0 0 0 -38026752.490758419 12800172.290426731 0 12800172.290426731 49415805.20079422 0 0 0 0 -1730066.2819538116 28178848.727552414 0 28178848.727552414 68373817.494544983 0 0 0 0 47924974.077833176 12108741.760564804 0 12108741.760564804 7441919.0901870728 0 0 0 0 1014003.5337234731 60767.432296941988 0 60767.432296941988 -1016979.6738565397 0 0 0 0 80066977.657424927 -15946228.67786026 0 -15946228.67786026 -26280381.228805542 0 0 0 0 14528823.496817946 71617691.126805782 0 71617691.126805782 -56845974.766197205 0 0 0 0 -11267405.410409927 11595902.583971024 0 11595902.583971024 15798932.984485626 0 0 0 0 14152633.602895737 -10303883.160106659 0 -10303883.160106659 -55759317.198448569 0 0 0 0 1577342.9926587492 140397.57432240527 0 140397.57432240527 -1670453.5377651751 0 0 0 0 29592957.993298769 20216444.487712383 0 20216444.487712383 -61484374.191112518 0 0 0 0 -70612911.575427413 72108243.105029106 0 72108243.105029106 -33167880.970069885 0 0 0 0 -17560088.070203781 -20816836.830701828 0 -20816836.830701828 37757095.702655792 0 0 0 0 52954696.699885368 34452101.332923889 0 34452101.332923889 -6397304.0669746399 0 0 0 0 99252947.718675613 -31866479.28695488 0 -31866479.28695488 -7254829.669426918 0 0 0 0 1531500.1431987432 1304185.2220068611 0 1304185.2220068611 -1355113.8591495734 0 0 0 0 92692189.598010063 -55124831.914540291 0 -55124831.914540291 -18973202.203426361 0 0 0 0 27827535.501491547 -546398.74285125732 0 -546398.74285125732 104432537.97813034 0 0 0 0 1550425.8641233207 2677396.7823988548 0 2677396.7823988548 -319690.97234913893 0 0 0 0 54554633.44700098 7849125.2100629807 0 7849125.2100629807 -10941117.822242737 0 0 0 0 -17956084.589584827 -5057568.9027042389 0 -5057568.9027042389 -32922017.714550018 0 0 0 0 56977161.838816404 7009318.6613416672 0 7009318.6613416672 -49002812.145683289 0 0 0 0 38206135.075334549 -28206479.715736389 0 -28206479.715736389 -22663035.301300049 0 0 0 0 521496.08977780829 156666.13524237182 0 156666.13524237182 -876391.32407997176 0 0 0 0 -64901295.203963816 89249573.274563789 0 89249573.274563789 -63844548.133838654 0 0 0 0 14989773.386913985 25484510.054651976 0 25484510.054651976 -69260711.430862427 0 0 0 0 -16298038.050628327 1455728.4974756241 0 1455728.4974756241 11346609.459871292 0 0 0 0 -98109326.718713999 7022057.5639095306 0 7022057.5639095306 36833656.141056061 0 0 0 0 2946220.2104739444 5349513.8185612466 0 5349513.8185612466 1806397.0095957182 0 0 0 0 50514221.854858398 52646012.007266998 0 52646012.007266998 -12865888.285400391 0 0 0 0 101597188.36658263 149206420.10611439 0 149206420.10611439 62281460.997447968 0 0 0 0 254159933.98923469 153848580.49847412 0 153848580.49847412 -74143260.630124092 0 0 0 0 26167500.023547173 112515912.76621628 0 112515912.76621628 57847611.797420502 0 0 0 0 -93209979.094110489 -443558.04787445068 0 -443558.04787445068 47924859.827978134 0 0 0 0 25661295.648330688 93474280.044048309 0 93474280.044048309 119336338.28412247 0 0 0 0 151002.4914740934 -616320.84353458881 0 -616320.84353458881 -399370.69183809496 0 0 0 0 -202102062.60252428 -73476510.236938477 0 -73476510.236938477 154363332.16756964 0 0 0 0 -11698173.201411843 -43190338.734455109 0 -43190338.734455109 -66289740.540718079 0 0 0 0 -58150517.959656596 -79015745.972078323 0 -79015745.972078323 -48030473.499931335 0 0 0 0 34853342.097849309 30137695.383600235 0 30137695.383600235 -79179095.855621338 0 0 0 0 89623168.815231562 -298709719.59583664 0 -298709719.59583664 35653306.857177734 0 0 0 0 259997041.73382109 -146920891.32358456 0 -146920891.32358456 -32224022.887866974 0 0 0 0 -53444471.52626133 -32320737.206367493 0 -32320737.206367493 8454734.3125915527 0 0 0 0 -67197986.057694435 3817944.9865074158 0 3817944.9865074158 -8472193.5502929688 0 0 0 0 -108760670.24724197 -30880587.489606857 0 -30880587.489606857 16391486.200462341 0 0 0 0 360151.99908545054 -692290.78164865263 0 -692290.78164865263 -100165.15383025724 0 0 0 0 17383207.341628909 -501173.51097297668 0 -501173.51097297668 -12291476.05896759 0 0 0 0 184879078.91706991 -110057064.18614197 0 -110057064.18614197 -18531017.036458969 0 0 0 0 526014989.53862214 -1134248.4807128906 0 -1134248.4807128906 13784496.394674301 0 0 0 0 452397026.04070318 -300461530.94810772 0 -300461530.94810772 21214883.342395782 0 0 0 0 131862811.63122153 -204779092.55654335 0 -204779092.55654335 488866988.35535049 0 0 0 0 255617033.65768909 133794644.21566963 0 133794644.21566963 358733538.92918396 0 0 0 0 1489341.5658763384 729967.03070788551 0 729967.03070788551 185982.15513637289 0 0 0 0 254402063.87707615 -359117061.24806213 0 -359117061.24806213 737106953.77602768 0 0 0 0 331508750.94780636 277174173.02680111 0 277174173.02680111 -94450671.329278946 0 0 0 0 130045224.57427382 307927590.14608765 0 307927590.14608765 396059631.74394846 0 0 0 0 231689530.56361926 104071506.74177361 0 104071506.74177361 -133989244.7760582 0 0 0 0 2960096.5908608697 1926598.0005010711 0 1926598.0005010711 1719736.0362117104 0 0 0 0 207036945.9127841 -277783718.27103138 0 -277783718.27103138 297421033.0189209 0 0 0 0 -45520525.457440376 -171501724.00275421 0 -171501724.00275421 175800168.84572983 0 0 0 0 201828968.46870661 -132771222.9571991 0 -132771222.9571991 206157857.87928772 0 0 0 0 7683978.0310506821 -92212579.755405426 0 -92212579.755405426 293962472.60724318 0 0 0 0 -64563812.77638483 53938230.959353447 0 53938230.959353447 118802008.43182373 0 0 0 0 31813022.805081367 -73706118.123098373 0 -73706118.123098373 201952919.04641724 0 0 0 0 -106818200.18293858 25735827.234874725 0 25735827.234874725 209955422.83844757 0 0 0 0 -54078907.173716545 -35192742.114009857 0 -35192742.114009857 243053081.74835968 0 0 0 0 -251142139.86605072 51908329.237670898 0 51908329.237670898 207462106.11250114 0 0 0 0 -73890940.604653597 139204310.69638062 0 139204310.69638062 114069364.03640747 0 0 0 0 -42787914.112421989 73776052.322231293 0 73776052.322231293 122539960.65506363 0 0 0 0 -10037857.975723267 114364211.97708511 0 114364211.97708511 96536041.377174377 0 0 0 0 -51098670.939877987 93869696.383260727 0 93869696.383260727 94959347.819381714 0 0 0 0 -9725987.2417469025 89543329.368038177 0 89543329.368038177 64443258.95085907 0 0 0 0 -41505228.784929276 57241950.955581665 0 57241950.955581665 76165447.700199127 0 0 0 0 83305522.622879028 177581969.88745117 0 177581969.88745117 106258441.90622807 0 0 0 0 986648.61757240631 397552.48101656232 0 397552.48101656232 -1120070.297134839 0 0 0 0 -26490509.859611511 -444962505.1590271 0 -444962505.1590271 576572639.22181702 0 0 0 0 23435194.580034256 115320378.92220306 0 115320378.92220306 71754609.506744385 0 0 0 0 -308052143.1944592 58228099.757034302 0 58228099.757034302 53985001.147117615 0 0 0 0 -586416.95710148104 419834.93042557128 0 419834.93042557128 1959262.086213043 0 0 0 0 -21742198.171618462 150372918.07719803 0 150372918.07719803 116294778.56289673 0 0 0 0 -261946879.80034924 -36049883.235969543 0 -36049883.235969543 -4589077.8122138977 0 0 0 0 644421.33913876768 4451302.2300718948 0 4451302.2300718948 6001559.7791118398 0 0 0 0 -192399624.24214554 6310115.5026321411 0 6310115.5026321411 16301510.840515137 0 0 0 0 -171140546.41420841 120224683.34198761 0 120224683.34198761 79616056.843914032 0 0 0 0 -460039.78760528564 2086592.7649116516 0 2086592.7649116516 14651019.982444763 0 0 0 0 -241211.46713674068 2833481.1394996643 0 2833481.1394996643 12174514.478347778 0 0 0 0 -1153795.6876698136 1755270.5239546299 0 1755270.5239546299 14502830.344512939 0 0 0 0 -18670857.221507072 122439037.15447998 0 122439037.15447998 229796863.7117424 0 0 0 0 -33159472.109314919 -116287958.03126144 0 -116287958.03126144 367351929.94456863 0 0 0 0 -60867431.670869827 39636759.83480072 0 39636759.83480072 56118163.396234512 0 0 0 0 -282992335.58829784 115402328.59917831 0 115402328.59917831 183389263.83288193 0 0 0 0 -352290921.69889355 97073696.490062714 0 97073696.490062714 108228743.99990082 0 0 0 0 -42048648.180803299 60623550.696374893 0 60623550.696374893 70627177.04908371 0 0 0 0 -209945859.56894207 223618555.41275692 0 223618555.41275692 -93004782.716773987 0 0 0 0 92495548.663952827 53323708.471740723 0 53323708.471740723 36886044.072582245 0 0 0 0 181575384.67604327 -19458434.835502625 0 -19458434.835502625 52198075.785820007 0 0 0 0 -19363765.815977097 -45251430.236215591 0 -45251430.236215591 -21071226.243896484 0 0 0 0 56371243.507026672 30802395.140953064 0 30802395.140953064 -28911047.324976444 0 0 0 0 602422.90641229413 -216667.22284417972 0 -216667.22284417972 -1003886.6444043294 0 0 0 0 -385752809.83299494 184150248.67487001 0 184150248.67487001 -101857972.68512726 0 0 0 0 1047198.553763723 3856041.1998470668 0 3856041.1998470668 5338647.0124874935 0 0 0 0 5613837.7079172134 -7223692.248046875 0 -7223692.248046875 18239151.751121521 0 0 0 0 18353181.984348297 -15012076.7134552 0 -15012076.7134552 23562210.517608643 0 0 0 0 6205498.0455474854 -6682246.5234184265 0 -6682246.5234184265 18435698.761329651 0 0 0 0 -385730733.82730478 183592875.99417019 0 183592875.99417019 -169914226.15013885 0 0 0 0 -398211205.56937504 507146181.48967934 0 507146181.48967934 -122244062.00780201 0 0 0 0 -2755057.0657787323 809441.27506637573 0 809441.27506637573 15126127.367584229 0 0 0 0 -5230915.6305980682 111459.67382049561 0 111459.67382049561 18265615.394781113 0 0 0 0 -946942.9447927475 -1519140.1782722473 0 -1519140.1782722473 17773786.322128296 0 0 0 0 6222993.728322506 -5264203.5882720947 0 -5264203.5882720947 16212135.474517822 0 0 0 0 1852991.3650784492 -655773.31948471069 0 -655773.31948471069 12392182.933685303 0 0 0 0 -6954484.0812892914 -5258704.713142395 0 -5258704.713142395 29898699.046707153 0 0 0 0 3910550.4807095528 -8941862.3254051208 0 -8941862.3254051208 23319239.030212402 0 0 0 0 -1519118.5627741814 -2844366.0123977661 0 -2844366.0123977661 20508868.151031494 0 0 0 0 -2110403.4982700348 -3892202.66431427 0 -3892202.66431427 19399847.156272888 0 0 0 0 -10025122.373272896 821303.53130340576 0 821303.53130340576 23366980.394371033 0 0 0 0 -7901952.837770462 4776695.7800865173 0 4776695.7800865173 17991999.408226013 0 0 0 0 -3633199.6526527405 1817253.9108123779 0 1817253.9108123779 17761192.73462677 0 0 0 0 -6802588.044124186 3304225.6346232891 0 3304225.6346232891 19384062.350036621 0 0 0 0 -10957683.183699429 6308539.628633976 0 6308539.628633976 20618180.689071655 0 0 0 0 -12135928.386333466 10489240.226734161 0 10489240.226734161 14494670.559265137 0 0 0 0 -19964729.738261223 6737432.8341827393 0 6737432.8341827393 28325526.567564011 0 0 0 0 -5895342.2207221985 -2025654.0207443237 0 -2025654.0207443237 24999770.566932678 0 0 0 0 -3604909.5557727814 -4805740.8373756409 0 -4805740.8373756409 28156930.359962463 0 0 0 0 -13161169.074858665 -3680865.0667285919 0 -3680865.0667285919 39437756.876083374 0 0 0 0 -28521082.41160202 10975989.827991486 0 10975989.827991486 30686123.617088318 0 0 0 0 -22760915.539574623 14554394.318454742 0 14554394.318454742 31557187.373069763 0 0 0 0 1535062.1775037912 10434052.012001678 0 10434052.012001678 19012070.897519544 0 0 0 0 -31009668.856358051 27385541.108219147 0 27385541.108219147 20553857.36416626 0 0 0 0 -185906056.22264773 188574680.54591942 0 188574680.54591942 -63990679.028015137 0 0 0 0 1487262.1806049824 3397187.565187674 0 3397187.565187674 4108724.6219964363 0 0 0 0 18459991.087137222 -20205057.206886292 0 -20205057.206886292 37562462.477035522 0 0 0 0 15690753.925167084 -10704418.090675354 0 -10704418.090675354 41637128.075265884 0 0 0 0 -2470387.189412117 -11399611.335472107 0 -11399611.335472107 39518905.859382629 0 0 0 0 12898268.786538124 -16931171.824245453 0 -16931171.824245453 41057582.36190033 0 0 0 0 -14722881.364296913 31101082.310897827 0 31101082.310897827 42400798.434341431 0 0 0 0 -16426741.533575296 -3620015.2655229568 0 -3620015.2655229568 64408641.839202881 0 0 0 0 65356837.832984924 -63193004.71616745 0 -63193004.71616745 91670075.722267151 0 0 0 0 -7558427.0485134125 13227875.136894226 0 13227875.136894226 79723689.127468109 0 0 0 0 -5580183.9371161461 34326939.016960144 0 34326939.016960144 136377086.56390381 0 0 0 0 34369116.99066925 28598490.259933472 0 28598490.259933472 113179058.61593723 0 0 0 0 2206089.6195757464 2502241.657070077 0 2502241.657070077 1384944.5864602476 0 0 0 0 -137726001.81420994 78012625.748908997 0 78012625.748908997 563780293.3589325 0 0 0 0 51112914.32666111 -159036433.53071976 0 -159036433.53071976 340651169.71363831 0 0 0 0 -973030632.78759623 610693388.57211304 0 610693388.57211304 -51689806.242874146 0 0 0 0 27279701.969527245 726649412.77300262 0 726649412.77300262 -183081599.19640875 0 0 0 0 1525635.4337293219 -404102.7086455524 0 -404102.7086455524 -2039656.188659966 0 0 0 0 -328551620.57179624 -192584678.79470026 0 -192584678.79470026 -68864021.652515411 0 0 0 0 1070548678.5877578 -226847073.91152573 0 -226847073.91152573 -390652286.04369354 0 0 0 0 256036366.44719613 -582375361.14649582 0 -582375361.14649582 -213911434.02561951 0 0 0 0 1996639216.7868996 1644724389.0453644 0 1644724389.0453644 1979329896.821991 0 0 0 0 1552168.873060232 -235763.22053548694 0 -235763.22053548694 -1635454.5635525659 0 0 0 0 84016618.685012594 -451135555.64966869 0 -451135555.64966869 -311450742.84223938 0 0 0 0 -136781437.36186361 -547649284.61137962 0 -547649284.61137962 500553292.2811203 0 0 0 0 -556007026.1120832 -440150806.44398499 0 -440150806.44398499 163538467.69058228 0 0 0 0 -521385294.36996937 -501264816.0874176 0 -501264816.0874176 -461972852.07632446 0 0 0 0 -34115400.47104913 379897735.10603333 0 379897735.10603333 -566094192.77323914 0 0 0 0 -84654781.296763539 402801742.54516602 0 402801742.54516602 173470392.07461739 0 0 0 0 -1405203669.969162 -2053848166.7435379 0 -2053848166.7435379 -493756652.24162292 0 0 0 0 155720398.61665726 782352364.69786072 0 782352364.69786072 653572800.63505554 0 0 0 0 827574949.63198113 -187002613.21211147 0 -187002613.21211147 264352035.06230927 0 0 0 0 4017475.9050896307 -1513824.9818864819 0 -1513824.9818864819 5019697.0984639907 0 0 0 0 149632397.90597153 410173526.72494125 0 410173526.72494125 1196857696.6912909 0 0 0 0 -291217066.91578674 -433645925.30570984 0 -433645925.30570984 938782871.45847893 0 0 0 0 231284200.84370756 20102491.910813332 0 20102491.910813332 225442826.20762634 0 0 0 0 492343743.76314449 172031964.20291328 0 172031964.20291328 170788970.50640869 0 0 0 0 -53876942.938601732 41584174.274064779 0 41584174.274064779 659462743.7302475 0 0 0 0 167231097.73454475 245927445.75927734 0 245927445.75927734 572531784.35343933 0 0 0 0 1135478806.7669106 613233595.67772293 0 613233595.67772293 344194471.58981323 0 0 0 0 429677283.57046843 12884918.580196381 0 12884918.580196381 17738986.559457779 0 0 0 0 361583717.03009391 -90033999.543758392 0 -90033999.543758392 -71507718.015224457 0 0 0 0 658576591.80224299 -62945734.848735809 0 -62945734.848735809 -97849990.636428833 0 0 0 0 261637974.49833602 -203810674.08061409 0 -203810674.08061409 -94301320.622894287 0 0 0 0 278528390.67292595 78404921.301994324 0 78404921.301994324 55238430.499427795 0 0 0 0 255319624.94882488 -19723290.323196411 0 -19723290.323196411 31378449.744544983 0 0 0 0 176924104.50671387 -41789332.032970428 0 -41789332.032970428 40743344.657846451 0 0 0 0 189403138.78717613 52486444.627098083 0 52486444.627098083 59693009.270964622 0 0 0 0 176191714.26442194 -104244683.89753342 0 -104244683.89753342 -89481367.900705338 0 0 0 0 166287923.75751746 -102674241.28822136 0 -102674241.28822136 -69108398.434204102 0 0 0 0 200556999.67699432 -218076060.43139648 0 -218076060.43139648 -34772973.745907307 0 0 0 0 249621734.4764989 -139899249.43605876 0 -139899249.43605876 -26610111.500228882 0 0 0 0 238921817.43421721 -214402142.57252884 0 -214402142.57252884 -65632309.205162048 0 0 0 0 22532506.16991663 -161659112.89614487 0 -161659112.89614487 -14435897.185626984 0 0 0 0 43728229.746987581 -23153421.383010864 0 -23153421.383010864 -9528428.127571106 0 0 0 0 238421912.62935257 -28467759.596218109 0 -28467759.596218109 -30619525.576072693 0 0 0 0 -154668824.92043376 -36233255.717197418 0 -36233255.717197418 5015585.7178878784 0 0 0 0 98076598.263631105 -65004410.992197037 0 -65004410.992197037 8033425.1692733765 0 0 0 0 -217136720.46726513 -321505964.08789444 0 -321505964.08789444 27763445.966011047 0 0 0 0 210585492.57366204 -281008442.29141045 0 -281008442.29141045 5403646.2971343994 0 0 0 0 268447643.56219769 -218517069.0626564 0 -218517069.0626564 -65143118.163564682 0 0 0 0 
</DataArray>
<DataArray type="Float64" Name="cross_section_updated" format="ascii">
1 1 1 1 1 0.049689094128272153 1 1 1 1 1 1 1 0.053438643054253276 1 1 1 1 0.058666333202835097 1 1 0.05275477551924837 1 1 1 1 0.068694434298521984 1 1 1 1 0.048304648960846346 1 1 1 1 1 1 1 1 1 1 1 1 1 0.050344828384596786 1 1 0.049947269734522709 1 1 1 1 1 0.052783124982797761 1 1 1 1 1 1 1 0.0676781208932314 1 1 1 1 0.049067162308141628 1 1 1 1 1 1 1 1 1 0.048162637366001688 1 1 0.049464763888458205 1 1 0.051050540865346175 1 1 1 1 0.054615090375046034 1 1 1 1 1 1 1 0.049922333785829304 0.049989972994558401 0.050119456945149424 1 1 0.049851167495710294 1 1 1 1 1 0.049998458199510494 1 1 1 1 1 1 1 1 1 1 1 1 1 0.050017606467342005 1 1 1 0.053593126033995055 1 1 1 1 1 1 0.051533374672014604 1 1 1 1 1 1 1 1 1 1 1 1 1 1 1 1 1 1 1 1 1 1 1 1 1 0.049873386600695749 1 1 1 0.051195982008144077 1 1 0.050913667944751731 1 1 1 1 1 1 1 1 1 1 1 0.051274672226932758 1 1 1 1 1 1 1 1 0.053057814395603198 1 1 1 1 1 1 1 1 0.053517850588063812 1 1 1 1 1 1 1 1 1 0.050411092230529947 1 1 1 1 1 1 1 1 1 1 1 1 1 1 1 1 1 1 1 1 1 1 1 0.049997611458895884 1 1 1 0.066334238238614396 1 0.049940471121609389 1 0.060659043219785963 1 1 0.052152226622469926 1 1 1 0.054558375640733389 1 0.048330500008721182 1 0.049168805273694459 1 0.060447151922849079 0.04915558961874144 1 0.049527522315780163 1 1 0.049395959729233524 1 0.050571565229333801 1 1 1 0.05479648829964575 1 0.053867131899814673 0.050217407236982231 1 1 0.050402113603465637 1 1 1 0.052659677856760623 1 0.050278369960754001 0.051184707517406648 0.051100063153388026 1 0.050164181724924303 1 1 1 0.050031170450907922 1 0.051693149306010613 0.052394061665862204 0.04954873708345741 1 1 0.051601891841621825 0.05237960921677895 1 1 1 1 0.054130782334709034 1 0.049625283790550076 1 1 0.052776062799800245 1 1 1 0.050277377641641724 1 0.051509543965936218 0.051061851535076905 0.050531791197876319 1 1 1 0.049569122616158479 1 0.052025624421372735 0.05451289958965215 0.049307060781641224 0.051263700239969019 1 1 1 0.054580809033078895 0.050000043808979738 1 1 0.05144366493455426 0.053784258994094267 0.049470649061975056 1 0.049207023903529289 1 1 1 1 0.050004965750241423 1 1 1 1 1 1 1 0.050745536958315109 1 1 1 1 1 1 0.052324971263042176 0.050000803846457956 1 1 1 0.050370131690058217 1 1 1 0.050042652750663226 1 0.049535546764918802 1 0.04747289586529084 0.058908402986719267 1 1 1 1 0.049355187457315437 1 1 0.058237722666132655 1 1 1 1 0.050019002287211754 1 0.049990828059364487 1 1 1 1 1 0.053990312451971958 0.054365773423707006 1 1 1 1 1 1 1 1 0.050467088189998413 1 1 1 0.049334983601831126 1 1 0.057739204877567271 1 0.049994475399119165 1 1 1 1 1 1 1 1 1 1 1 0.057677833540292878 1 0.051589895131831189 1 0.056568760514394467 1 1 1 0.051235445920945019 1 0.050010515255044095 1 0.051636198897724812 1 1 1 1 1 1 0.054953122737026808 1 0.056202825785881039 1 1 1 0.055137928800247982 1 1 1 0.06043267031922081 1 0.052305589169023815 0.052571734546492922 1 1 1 1 0.060078722723595691 1 1 1 1 0.054504324631251051 0.052472029936105821 1 1 0.049065645684495555 1 0.054038439501624791 1 0.049796580845340041 0.049929801837617277 1 1 1 0.050079169874337109 1 1 1 1 0.055993683254470239 1 1 1 1 1 1 1 1 1 1 1 0.050002439638075352 1 1 1 1 0.052624117767156212 1 1 1 0.053229551471600765 1 0.052602183069496738 0.054574461538045536 0.049998424571212112 1 1 1 0.054913887546350723 0.064511394369907396 1 0.065404762600792615 1 1 0.049615415955901791 1 1 1 1 0.066498234888716395 1 1 1 1 1 1 1 1 1 1 1 0.067494435237153427 0.066652931095966997 1 1 0.053198563140438485 1 1 1 0.050014636037738522 1 1 1 1 1 1 0.071812594530350798 1 1 1 0.044934990233922896 1 1 1 0.057899335552812001 1 1 1 1 1 1 1 1 1 1 1 0.071902038495343643 1 1 1 0.071810118794873048 1 1 1 1 1 1 1 0.050311174026604968 1 1 1 1 1 0.050851396666367184 1 1 1 1 1 1 1 1 1 1 1 1 1 1 1 1 1 1 1 0.049692267149862156 1 1 1 1 0.049946600275497854 1 1 0.050026406100730211 1 1 1 1 1 1 1 0.050171078608646308 1 1 1 1 1 1 1 1 0.049996853764968242 1 0.050501473471938299 1 1 0.050145422113521604 1 1 1 0.049985679785680921 1 1 0.049420117133455455 1 1 1 0.053771037427182686 1 0.056250092622814177 1 1 0.050002116676538873 1 0.046585897639573444 1 1 1 1 1 1 1 1 1 1 1 1 1 1 1 1 1 1 1 1 1 1 0.050158700156928485 1 0.049763388668381051 1 0.049920195724726321 1 1 1 1 1 1 1 1 1 1 1 1 1 1 1 0.050079615404384929 1 1 1 1 1 1 1 1 1 0.050079084752543565 1 1 1 1 1 1 1 1 1 1 1 1 1 1 1 1 1 1 1 1 1 1 1 1 1 1 1 1 1 0.049996471988741714 1 1 0.050000105490583174 1 1 1 0.049672367766661285 0.0521600574234658 1 0.051691347522701485 1 1 1 1 1 0.050075999773299969 1 1 1 1 1 0.050470834639232756 1 1 1 1 1 1 1 1 1 1 1 1 1 1 1 1 1 1 1 1 1 1 1 1 1 1 1 1 1 1 1 1 1 1 1 1 1 1 1 1 1 1 1 1 1 1 1 1 1 0.050089714771178018 1 1 1 1 1 1 1 1 1 1 1 1 1 1 1 0.051160976314400988 1 1 1 1 0.050436037643100409 1 1 1 1 1 1 1 1 1 1 1 1 1 1 1 1 1 1 1 1 1 1 1 1 1 1 1 0.058495952285796272 1 1 0.052514047782899628 1 0.053188445417828183 0.050390053093491219 0.043084085039233069 0.067733729822157945 1 1 0.050023628930090928 1 1 1 1 1 1 1 1 1 1 1 1 1 1 1 1 1 0.053232657722685185 1 1 0.046488259308110236 1 0.051852553411492142 1 1 1 1 0.057658587032527638 1 0.049701664004563349 1 1 1 1 0.050196656238284891 1 1 1 0.055923645351174146 1 1 1 1 1 0.050004194502275306 1 0.050191510203953488 1 1 0.052679127439239956 0.054955807741092814 1 0.048957756621542801 1 1 1 1 1 1 1 1 1 1 1 0.069744098180537686 1 1 1 0.069410547268000861 1 1 1 0.051886268401257547 1 1 0.068313467508007431 0.049743997109904736 0.049917883558159987 1 1 1 1 1 1 1 1 1 1 1 0.050043584183988354 1 1 1 1 1 1 1 1 0.06775941415187875 0.063251251210699133 0.067145104273697825 1 1 1 1 1 1 1 1 0.060699981851320708 0.050054535950115095 1 1 1 0.04892573319648108 1 1 0.05114877532192344 1 1 1 1 1 1 1 1 1 1 1 0.050376627940125339 1 1 1 1 1 1 1 1 0.050351598779252202 1 1 1 1 1 1 1 1 1 1 0.04994033512445023 1 0.078438410193871086 0.044399647233221623 0.051378341475168468 1 1 1 1 1 1 1 0.072713081542446822 0.060514732909763808 1 0.051889243361725075 1 1 1 1 1 0.050338375502612845 1 0.049958271252494552 0.051399305874493165 1 1 1 0.050954894428690042 1 0.050466563526639786 1 1 1 1 0.050052206055945729 1 1 1 1 1 1 1 1 1 1 1 1 1 1 1 1 1 0.049418770545704642 1 1 1 0.051106586242210324 1 1 1 1 1 0.049823275810762499 1 1 1 1 1 1 0.050799192328654201 1 0.050304803238331863 1 1 1 1 1 1 1 1 0.051134657159308913 1 1 1 0.073588018532557753 1 1 1 1 1 1 1 1 1 1 1 1 1 1 1 1 1 1 1 1 1 1 1 1 1 0.052032983936030328 0.058331546094555632 0.055924018807868382 1 1 1 1 0.05589630066903914 1 1 1 1 0.055027586378310199 1 1 1 1 1 1 1 0.05019567845914228 1 1 1 1 1 1 1 1 0.050464670523964229 1 1 1 1 1 1 1 1 1 1 1 1 0.051280061468860577 1 1 1 1 1 1 0.049789601968707894 1 1 1 1 1 1 1 1 0.063839761296058312 1 1 1 0.053728804224004487 1 1 1 1 1 1 1 1 1 1 1 1 0.050268992064821938 1 1 1 1 1 1 1 1 1 1 1 1 1 1 1 1 1 1 1 1 1 1 1 1 1 1 1 1 1 1 1 1 1 1 1 1 1 1 1 1 1 1 1 1 1 1 1 0.050285962073608526 1 1 1 1 1 1 1 1 1 1 1 1 1 1 1 1 1 1 1 1 1 1 1 1 0.050230328051198654 1 1 1 1 1 1 1 1 1 1 0.049956734129157646 1 1 0.050640065583940588 1 1 1 1 1 1 1 1 1 0.049832442881826276 1 0.049684040137015606 1 1 1 1 0.050956086511589116 1 1 0.050006700231452324 1 0.050112968351290699 1 1 1 1 1 0.050829573399776631 1 1 1 1 1 1 1 1 0.048926241998913142 1 1 1 1 1 1 1 1 1 1 1 1 1 1 0.051308507624521604 1 0.050403319559567034 0.050076432728048709 1 1 1 1 1 0.05003456617896325 1 1 1 1 1 1 1 1 1 1 1 1 1 1 1 0.051455199398728821 1 1 1 1 1 1 1 1 1 1 1 1 1 1 1 1 0.050719023783517579 1 1 1 1 1 0.054626238379959093 0.04994818123039077 1 1 0.053708773074608404 1 1 1 1 1 1 1 1 1 1 0.051488264815111817 1 1 1 1 1 1 1 1 1 0.051068597368139464 1 0.073810961345220333 1 1 1 1 1 0.049140470726010028 1 1 1 1 0.07663960697423243 1 1 1 0.046938755670858152 1 1 1 0.073100870033271648 1 1 0.051878751862419643 1 1 1 1 1 1 1 1 1 1 1 1 1 1 1 1 0.050516678441120434 1 1 1 1 1 1 1 0.04916882329722215 1 1 1 1 1 1 1 1 1 1 1 1 1 1 1 1 1 1 1 1 1 1 1 1 1 1 1 0.05998227210656866 1 1 1 1 0.050617728848498744 1 1 1 0.060746834020410416 1 1 1 1 1 1 1 1 1 0.061393242296419542 1 0.049998476460645258 1 1 1 1 1 1 1 1 1 1 1 1 1 1 1 1 1 1 0.049991328988700165 0.056926727489520504 1 1 1 0.050019858359503407 1 1 0.054214568020033764 1 1 0.050946961660184392 1 1 1 0.050547714970858366 1 1 0.050381197216148796 1 1 1 1 1 1 1 1 1 1 1 1 1 1 1 1 1 1 1 1 0.051266738754375943 1 0.051809215136847372 1 1 1 1 1 1 1 1 1 1 1 0.054650446729205999 1 0.056476482812651288 1 1 1 0.098347239330587588 1 1 1 1 1 0.049854329884353094 1 1 1 1 1 1 0.041413393769310365 1 1 1 1 1 1 1 1 1 1 1 0.040084721454787059 1 1 1 1 1 1 1 1 0.095856768650486285 1 1 1 0.08019818785284262 1 1 0.038717860646148579 1 1 1 1 1 0.059583298084238276 1 1 1 1 1 1 1 1 1 0.050177513259414046 1 1 0.070655424566818142 1 0.061114149950504015 1 0.056824107740808351 0.05988434721198195 0.051126401617157889 1 0.049981108065197621 1 1 1 1 1 1 0.075424613232930357 1 1 1 1 1 1 0.050482262283232437 1 1 1 1 1 1 1 0.070361365136905218 1 1 1 1 0.065047024448487895 1 1 1 1 1 0.070826885063345696 1 0.050003773621616655 1 1 1 1 1 1 1 1 1 1 0.051300800297085683 1 1 1 1 1 1 1 0.054776496930556418 1 1 1 1 1 1 1 0.050002381415305656 1 0.051928155545339486 1 1 1 1 1 1 1 1 0.058626371452791468 1 1 1 0.063573860594061865 0.050055360641874193 1 1 1 1 1 0.057005234177638531 0.050097845116588401 1 0.055835785980788664 1 1 0.04756752506115243 1 1 0.05459137265060688 1 1 1 1 1 1 1 1 0.060636078052744277 1 1 1 1 1 0.073563955757380339 1 1 1 1 0.069905767435839136 1 1 0.067154889501435791 1 1 1 1 1 1 1 1 1 1 1 1 1 1 1 1 1 1 1 1 1 1 1 1 1 1 1 1 1 1 1 1 1 1 1 1 1 1 1 1 1 0.050149649377234998 1 1 0.050191944860858623 1 1 1 1 1 0.050634585132789026 1 1 1 1 0.050413693822652088 1 1 1 1 1 1 1 1 1 1 1 1 1 1 1 1 1 1 1 1 1 1 1 1 0.050637243275501655 1 1 1 0.050298726671715303 1 1 1 1 1 1 0.050056533156594328 1 1 1 1 1 1 1 1 1 1 1 0.070104900097836945 1 0.056437841018051479 0.049907887903410351 1 1 0.055849108080521723 1 1 1 1 1 1 1 1 1 1 1 0.065815553827040782 1 1 0.052071835137187897 1 1 1 1 1 1 1 1 1 1 1 1 1 1 1 0.061783872268845304 1 1 1 1 1 1 1 0.049906071756468343 1 0.050530784424243948 1 1 1 1 0.0597058448810164 1 0.050551918927019025 1 1 1 1 1 1 1 1 1 0.049197157302678748 1 1 1 1 1 1 1 1 1 1 1 1 1 1 1 1 1 0.055285995859742164 1 1 1 1 1 1 1 1 1 1 1 1 1 1 1 1 1 1 1 1 1 1 1 1 1 0.049918075355538598 0.049851517580122094 1 1 1 1 1 1 1 1 1 1 1 0.050057361965591018 1 1 1 1 0.049799654391076684 1 1 1 1 0.049824065103177016 1 1 1 1 1 1 1 1 0.047686804357969417 1 1 1 1 1 1 1 1 1 0.049224127355791208 1 1 1 1 1 1 1 1 1 1 1 1 1 1 1 1 1 1 1 1 0.056985293702033521 1 1 1 1 1 1 1 1 1 1 1 1 1 1 0.07119433633199411 1 0.050087416104764956 1 1 1 1 1 1 1 1 0.070653787582264344 1 1 0.050143949261359282 1 1 1 1 1 1 1 1 1 1 1 1 1 1 1 1 1 1 1 1 1 1 1 1 1 1 1 1 1 1 1 1 1 1 1 1 0.050278096887720773 1 1 0.050049160545798235 1 1 1 1 0.055369315368206114 1 0.04650575675249425 1 1 0.04710624386659891 1 0.050957578314180879 1 1 1 1 1 0.050420789117238435 1 1 1 1 1 1 1 1 1 1 1 1 0.050127768437379545 1 1 1 0.056451612294842198 1 1 1 1 1 1 1 1 1 0.053546676759987685 1 1 1 1 0.05296588802882278 0.054321463277073372 1 1 1 1 1 1 1 1 0.050063232751449978 1 1 1 1 1 0.062179724950976449 1 1 1 0.061301839814716985 1 1 1 0.055187072482435762 1 1 1 1 0.071522486221249557 1 1 1 1 1 1 1 1 1 1 1 1 1 1 0.056913402136646515 1 1 1 1 1 1 0.056005794762598871 1 0.060200656278008649 0.050002326785212714 1 0.07340009282911443 1 0.050215623468091955 1 1 1 1 0.050203539830474639 1 1 1 1 0.050464059791785733 1 1 1 1 1 1 1 1 1 0.050437460515183379 1 1 1 1 1 1 1 1 1 1 1 1 1 1 0.050974249712125837 1 1 1 0.050229121023077389 1 1 1 0.050610137832534943 1 0.04999019256245435 1 1 1 1 1 1 1 1 1 1 1 1 1 1 1 1 0.050671086898899785 1 1 1 1 1 1 0.052138992038369671 1 1 1 1 1 1 1 1 1 1 1 1 1 1 1 1 1 1 0.05502139012325305 1 1 1 1 1 1 1 1 1 1 1 1 1 1 1 1 1 1 1 1 1 1 1 1 1 1 1 1 1 1 1 1 1 1 0.049243754863290162 1 1 1 1 0.049850153333558078 1 1 1 1 1 1 1 0.054440158220665336 1 1 1 1 1 1 1 1 1 0.0487817005193334 1 1 0.057696214372870668 1 1 1 1 1 0.049949600356724903 1 1 1 0.050328078955972917 1 1 0.053516172438274334 1 1 1 1 1 1 1 1 1 1 1 1 1 1 1 1 1 1 1 1 0.047307794050628363 1 1 1 1 1 1 1 1 1 1 0.05749782237116579 0.044675346488427588 1 0.054782087675275461 1 1 1 1 1 0.055112896162538096 1 1 1 1 0.05461954712862499 1 1 1 1 1 0.049923446174070206 1 0.049969267636989473 1 1 0.047957512434649095 1 1 1 1 1 1 1 1 0.049338595780403088 1 1 1 1 1 1 0.049918084104885317 1 1 1 1 1 1 0.049851071779561981 1 1 1 1 0.048349922768620379 1 1 0.052778342246921128 1 0.048551895133865972 1 1 0.050085911308897897 1 1 1 1 1 1 0.051612411718336013 1 1 1 1 0.050111619728520872 1 1 1 1 1 1 1 1 0.059673630395532286 0.047077931145857586 1 1 1 1 1 1 1 1 0.055098624044920351 1 1 1 1 1 1 0.052363283785019414 1 1 1 1 1 1 1 0.049168526048846285 1 1 1 0.051768262299133005 1 1 1 1 1 1 1 1 1 1 1 1 0.054897913881824266 1 1 1 1 0.055577604537829839 1 1 0.049066466684381201 1 1 1 1 0.052967880683072587 1 1 1 0.050051091809903837 0.054661291584038055 1 1 1 0.050239649520162653 1 1 1 0.056661062460894515 1 1 1 1 1 1 1 1 1 0.056846523505640616 1 1 1 0.049998585155169625 1 1 1 1 1 1 1 1 1 1 1 1 0.055717360038041855 1 0.050018431231686755 1 1 0.052417811649840496 1 1 0.05151329245032428 1 1 1 1 1 1 1 0.049995315695798598 1 1 1 1 1 0.050032060473682083 1 0.051262626929889615 1 1 1 0.052212977075745626 0.049516720231122816 1 0.052498778486857141 0.055810405494434778 1 0.052880464497455565 1 1 1 1 1 1 0.050439781143960673 1 0.062816347954968224 1 1 1 1 1 1 1 1 1 1 1 1 1 0.050057652148039887 1 1 0.054423888296973512 1 0.05139046679800284 1 1 0.060354954057962776 1 1 1 0.052123760523676524 0.047645132433720989 1 1 0.061663253278236019 1 1 1 1 1 1 1 1 1 1 1 1 1 1 1 1 1 1 1 1 1 1 1 0.051813866339513501 0.050101064590526809 1 0.049149089029475776 1 0.050121570410578346 1 1 0.050001957542234132 0.057683927893748432 1 1 0.049998027720166399 1 1 0.050981209464039862 1 1 0.057565970471161708 1 0.050940503617539205 1 1 1 1 0.050068712746807756 1 1 1 1 0.05057827592095783 1 0.051724880596925801 0.053936248931204391 1 0.054121351952897551 1 1 0.051099998406295422 0.051230848195640805 1 1 1 0.050108012225356255 1 1 1 1 0.054047857738379626 0.050318580749310345 1 1 1 1 1 0.050919343222240128 1 1 1 1 1 1 1 1 1 1 1 0.050944649352745799 1 0.053402498711879992 1 0.054909854038082677 1 1 0.050002481544756373 1 0.053773211864696482 1 1 1 1 1 1 1 1 0.050621161497121592 1 1 0.052543395430839183 1 1 1 1 0.050254001882336363 1 1 1 1 1 1 1 1 1 1 1 1 0.051389907684990785 1 1 1 1 1 1 1 1 1 1 1 0.049839087369785276 1 1 1 1 1 1 0.051530817105179968 1 0.05149147198487334 1 1 0.049848859914730356 1 1 1 1 1 1 1 1 1 1 1 1 1 1 1 1 1 0.050028083171879012 0.051626172586149335 1 1 1 0.049619770006756339 1 1 0.050709038067269993 1 1 1 1 1 1 1 1 1 1 1 1 1 1 1 1 1 1 1 1 1 1 1 1 1 0.049932372476373395 0.047733512480417073 1 1 1 1 1 1 1 1 1 1 1 0.045087556903411652 1 1 1 1 1 1 1 1 1 1 1 1 1 1 1 1 1 1 1 1 1 1 1 1 1 1 1 1 1 1 1 1 1 0.050007964484052501 1 1 1 1 1 0.049892771501164362 1 1 0.05033079122578471 1 1 0.047365575825739338 0.069922638208435514 1 1 1 1 1 1 1 1 1 1 1 1 1 0.069180864717084858 1 1 0.050113247903821129 1 1 1 1 1 1 0.05000887839246184 1 1 0.06733664435949388 1 1 1 1 1 1 1 1 1 1 1 1 1 0.058109432763624805 1 1 1 1 1 1 1 0.050084755044477 1 1 1 1 1 1 1 1 1 1 1 1 0.053019140104726623 1 1 0.051488322999546671 1 1 1 1 1 1 1 1 1 1 1 1 1 1 1 1 1 1 1 1 0.056258256437309598 1 1 0.053750047464402012 1 0.055202960452134436 1 1 1 0.049445222023009952 1 1 0.049541623348963337 1 0.051386504085904006 1 1 1 0.050871960759320073 1 1 1 1 0.049993610972625897 1 1 1 1 1 1 1 0.049997543617530019 1 1 1 0.04943218073903792 1 1 1 1 1 1 1 1 1 1 1 1 0.052058877701233922 1 1 1 1 1 1 1 1 0.049319038185845737 1 1 1 1 1 1 1 1 1 1 1 0.049814110636356795 1 1 1 1 1 1 1 1 1 1 1 1 1 1 1 1 1 1 1 0.047961107637205715 0.050474785933768036 1 1 1 0.050178935005853326 1 1 1 1 1 1 1 1 1 1 1 1 0.050269758379028445 1 1 1 1 1 1 1 1 1 0.050754356894292793 1 1 1 1 1 1 1 1 1 1 1 1 1 1 1 1 0.049642055778263285 1 0.050159351194601465 1 1 1 1 1 0.049898085475545979 1 1 1 1 0.049981121091394763 1 1 1 0.049989301383074072 1 1 1 0.050305600126100844 1 1 1 1 1 1 1 1 1 0.050025834936251075 1 1 1 0.050023167457512487 1 1 0.050018100373097271 1 1 1 1 1 1 0.050011599010105878 1 1 1 1 1 1 1 1 0.049983632913443002 1 1 1 0.050006175595832446 1 1 1 1 1 1 1 1 1 1 1 1 1 1 1 1 1 1 1 1 1 1 1 1 1 1 1 0.050276367857001486 1 1 1 1 1 1 1 0.050096462323986103 1 1 1 1 1 1 1 1 1 1 1 1 1 1 1 1 1 1 1 1 1 1 1 1 1 0.050796545224292958 1 0.050269064202397393 1 1 1 1 1 1 0.051271737092581315 1 1 1 0.050480574430757166 1 1 0.051394343145329008 1 1 1 1 1 1 1 1 1 1 1 1 0.059509905904391584 1 1 1 1 1 0.058667626585535038 1 1 1 1 1 1 1 1 1 1 1 1 1 0.05074425607068575 1 1 1 0.050456541759974688 1 1 1 1 1 1 1 1 1 1 1 1 0.051321204458412414 0.057508182947449762 1 1 1 1 0.060088950571689906 1 1 1 1 1 1 1 1 1 0.050157201251520282 0.045049823517752906 1 1 1 1 1 0.043353947893551237 1 1 1 1 1 0.049961812793338722 1 1 1 1 1 0.049995861446977104 1 0.058176128734820712 1 1 1 1 0.049220889263813947 1 0.052447349538179804 1 0.056991307182742951 0.049983739461573057 1 1 1 1 1 1 1 0.050052054882574783 0.0498571322979042 1 1 1 1 1 1 0.050000680772642359 0.050256415284514196 0.049984318848020098 1 0.052972292349470623 0.053273008571808902 1 1 1 0.051612763051151575 1 1 1 1 1 0.053657293561270081 0.049895003123261526 0.050000079769244213 1 0.056314930755167358 1 1 1 0.049964770555066651 1 0.048145563123479243 0.050261412372310264 1 1 1 1 1 1 1 0.049541604101666373 0.051987828956535927 1 1 0.050649607648027978 0.049209826897333379 0.054761971563140187 1 1 1 1 1 1 1 1 1 1 1 1 1 1 1 1 1 1 1 1 1 1 1 1 1 1 1 1 1 1 1 1 1 1 1 1 1 1 1 1 0.050037715669546831 1 1 1 1 1 1 1 1 1 1 0.050557487252846506 1 1 1 1 1 1 0.051629974956216032 1 1 0.052540617107105433 1 1 1 1 1 1 1 1 1 1 1 1 1 0.053126231387033436 1 0.057504243718173337 1 1 1 1 0.049744361817993438 1 1 1 0.050042895743475764 1 1 0.048529678568835749 1 1 1 0.050000657195972034 1 1 0.056534567187008229 1 1 1 1 1 0.055463717498975502 1 1 1 1 1 1 1 0.052337618946766182 1 1 1 1 1 1 1 0.050075400045884122 1 1 0.051167333540842734 1 1 1 1 0.050415726165391375 1 0.050690071816463421 1 1 1 1 1 0.051225497430642142 1 1 1 1 0.050504963167262877 1 1 1 1 1 1 0.051476113474899041 0.049118064569364503 1 1 1 1 1 0.053673089006732649 1 1 0.057454091781798181 1 1 1 1 1 1 1 1 1 1 0.049692765961207072 1 1 1 1 1 1 1 1 1 1 1 1 1 1 1 1 1 1 0.049865291669996786 1 1 1 1 1 1 0.049988921303631528 1 1 1 1 1 1 1 0.059208616875968192 0.050043750466319786 1 1 1 1 0.050019738949150669 1 1 1 1 1 1 1 0.054479894130855064 1 1 0.050108310692447589 1 0.049696628743207336 0.05292691670212693 0.048106523673949991 1 1 1 1 1 1 0.050215925862962738 1 1 1 1 1 0.050002533671842445 1 1 1 1 0.049173331620359584 1 1 1 0.05341309357268538 1 1 1 0.05281981271732105 1 1 1 1 1 1 1 1 1 1 1 1 1 1 1 1 1 1 1 1 1 1 1 1 1 0.059866575353250795 1 1 1 1 1 1 1 0.052157359290796707 1 0.061361380364403723 1 1 1 1 1 1 0.05232296326621768 1 1 0.05082279246519418 1 1 1 0.049943774645093794 1 1 0.056569403811595288 1 1 1 1 1 0.04746595394282499 1 1 1 0.049255855280635072 0.052861782769771729 1 1 1 1 1 1 1 1 1 1 1 1 0.051092090225328138 1 1 1 1 1 1 1 1 1 0.052607449555829459 1 1 1 1 1 0.049995631318267932 0.050441661965854118 1 1 1 1 1 1 1 1 1 0.050096741915827782 1 1 1 1 1 1 1 1 0.051164347025947909 1 1 1 1 1 1 1 1 1 1 1 1 1 1 1 1 1 1 0.04958778953008669 1 1 1 1 0.049019970269124608 1 0.050651879275775573 1 0.051165111013376674 1 1 1 1 1 1 1 1 1 1 1 1 1 1 1 1 1 0.052318002236304714 1 1 1 1 1 0.04951262727334059 1 1 1 0.052280916554983667 0.049307585365532938 1 1 1 1 1 0.050328113551237119 1 1 1 1 0.050416265791024102 1 1 1 1 1 1 1 1 0.05073746382604323 1 1 1 1 1 1 1 0.050498316153531383 1 1 1 1 1 1 1 1 1 0.050029140473984518 1 1 1 1 1 1 1 1 1 1 1 1 1 1 1 1 1 1 0.050123187647419347 1 1 1 1 1 1 1 1 1 1 1 1 1 0.049813014174035719 1 1 1 1 1 1 0.05007726660728759 1 1 0.049977457317610559 1 1 0.05017330477366571 1 1 1 1 1 1 1 1 1 1 1 1 1 1 1 1 1 1 1 1 1 1 1 1 1 1 0.050034739589370159 1 0.045667644445885863 1 0.050001131800605766 0.055653034492179218 1 1 1 0.046164030644031739 1 1 1 1 1 1 1 1 1 0.050381780527626083 0.049442410098548058 1 0.066237723330335493 1 1 1 1 1 1 1 1 1 1 1 1 1 1 0.049995511760965658 1 0.058831255464900103 0.052868612052227176 1 0.056039405359388589 1 1 1 1 1 1 1 1 1 0.065263291920982416 0.04961456758004909 1 1 1 1 1 1 1 1 1 1 1 1 1 1 1 1 1 1 1 1 1 1 0.051286763348729635 1 1 1 1 1 0.049764114348437978 1 1 1 1 1 0.049216227313781086 1 1 1 0.053941627783164491 1 1 1 1 1 1 1 1 1 0.050074174916302436 1 1 1 1 0.065525057701326023 1 1 1 1 1 1 0.064548014435413123 1 1 1 1 1 1 1 0.050178055320472162 1 1 1 1 0.062063038617232044 1 1 1 1 1 1 1 1 1 1 0.050045315569867369 1 1 1 1 0.05445959395648723 1 1 1 0.054111732128687716 1 1 1 1 1 0.050226323982198853 1 1 1 1 1 1 1 1 1 1 1 1 1 1 0.05073667349051883 0.058504932570742935 1 1 0.056362969131391397 1 1 1 1 1 1 1 0.050339087299989288 1 1 1 1 1 1 0.050485898463509489 1 1 1 1 1 1 1 1 1 1 1 1 1 1 1 1 1 1 1 1 1 1 1 0.051125791246357202 1 1 1 1 1 1 1 1 0.05038699627732536 1 1 1 1 0.051116115192579227 1 1 1 1 1 0.051337867734266178 1 0.050009688790833992 1 0.0528854736230783 1 1 1 1 1 1 1 0.050014357232762735 1 1 1 0.048552086066752168 1 1 1 1 1 0.050270937859362694 1 1 1 1 1 0.050031057049526532 1 0.050000333046120476 1 1 0.049982427652210643 1 0.051652477731083044 1 1 1 1 1 0.050330012546536768 1 1 1 0.050675042251507547 1 1 1 1 1 1 1 1 1 1 0.050040620620457055 1 1 1 1 1 1 1 1 1 1 1 1 1 1 1 1 1 1 1 1 1 1 0.050109817867258821 1 1 1 1 1 1 1 1 1 1 1 1 1 1 1 1 1 1 0.050220826544351463 1 1 1 0.05019244491378777 1 1 1 1 1 1 0.048282479070362927 1 1 1 0.048960438076810088 0.05161431818767423 1 0.04835810628735198 1 0.051141749371237846 0.048553186362499563 1 0.048066983385488662 1 1 0.0499973834203001 1 1 0.05013270515101035 0.049979883612113959 1 1 1 1 1 1 1 1 0.049992971958985555 1 0.049998749985297596 1 1 1 1 1 1 1 1 1 1 1 1 1 1 1 1 1 1 1 1 1 1 0.05339844789598993 1 1 1 1 1 1 1 1 0.053880174563851045 1 1 0.050041813827549644 1 1 0.054295927499112932 0.050053096226039755 1 1 0.050021341737965588 1 1 1 1 1 1 1 1 1 1 1 1 1 1 1 1 1 1 1 1 1 1 1 1 1 1 1 1 1 1 1 1 1 1 1 1 1 1 1 0.049437504927897689 1 0.048867452520308378 1 1 1 1 1 1 1 1 1 1 1 1 1 1 1 1 1 1 1 1 1 1 1 1 1 1 1 1 1 1 1 1 1 1 1 1 1 1 1 1 0.050024568702515301 1 1 0.049931270111024204 1 1 1 1 1 0.050301598559639636 1 0.050263744056454396 1 1 0.051780303025103565 1 1 1 1 1 1 0.052903490394572469 1 1 1 1 1 1 1 1 1 1 1 0.049903554717840123 1 1 0.059166816807909646 0.049743455388565429 1 0.050597387356868598 1 1 0.055220452242407674 1 1 1 1 0.050003236928795602 1 1 1 1 1 1 1 1 1 0.050006441753614801 1 0.06338058822243213 1 1 1 1 1 1 1 0.049850043759129874 1 0.063490190932578697 1 1 1 1 1 1 1 1 1 0.050623974729797863 1 0.064850095373346517 1 1 1 1 1 1 1 1 1 1 0.051954053032572861 1 1 1 0.061703664360382458 1 1 0.049998053769985465 1 1 0.049710228557245856 1 1 1 1 0.049829876707513251 1 1 1 0.050096038166378115 1 1 1 1 1 1 1 1 1 1 1 1 1 1 0.049942759496966249 1 1 1 1 1 1 0.04959495483641585 1 0.050408119007657681 1 0.051400637283998546 1 1 1 0.049911506160726864 1 1 1 1 1 1 1 1 0.051598553663012678 1 1 1 1 1 0.049986801648608442 1 1 0.052066407502729867 1 1 1 1 1 1 1 1 1 0.051124455433006276 1 1 1 0.050472385147998025 1 1 1 1 1 1 0.05148378766483909 1 1 1 1 1 1 1 1 1 1 1 1 1 1 1 1 1 1 1 1 1 1 1 1 1 1 1 1 1 1 1 0.049860238632125208 1 1 1 1 1 0.049757287170848957 1 1 0.051396725904858956 0.050265151865980087 1 1 1 1 0.049089492534124826 1 1 1 1 1 0.051480373359780653 1 1 1 1 1 1 1 1 1 1 1 1 1 1 1 1 0.049868660347472289 1 1 1 1 1 1 1 1 0.050070664857063511 0.050198615916014801 1 1 1 1 1 1 0.05025162090908504 1 1 1 1 0.04992914779293002 1 1 1 1 1 1 1 1 1 1 1 1 1 1 1 1 1 1 1 1 1 1 1 1 0.050164616168208047 1 1 0.050173037883555108 1 1 1 1 1 1 1 1 1 1 1 1 1 1 1 1 1 1 1 1 1 1 1 1 1 1 1 0.050017869329045977 1 0.050116777470122026 1 1 1 1 1 0.050237546501798916 1 1 1 1 1 1 1 1 1 1 1 1 1 1 1 1 1 1 1 1 0.049930669931175099 0.050404248649561341 1 0.049991301263266792 1 1 1 1 1 1 1 1 1 1 1 1 1 1 1 1 0.05000965914192456 1 1 1 0.050006284024407092 1 1 1 1 1 1 1 1 1 1 1 1 1 0.050120769031676907 1 1 1 1 1 1 1 1 1 1 1 1 1 1 1 1 1 1 1 1 1 1 0.049627854574398063 1 1 1 1 1 1 1 1 1 1 1 1 1 0.052805091181231487 1 0.052325152504946335 1 1 0.048570501848506691 0.059526145380164104 1 1 1 1 1 1 1 1 1 1 1 1 1 1 1 1 1 1 1 1 0.052598681862747784 1 1 0.070668731335375518 1 1 1 0.050239292025427713 1 1 1 1 1 1 0.067229051826552214 1 1 1 0.049673106952713986 1 1 1 1 1 1 1 1 0.04999441329379975 1 1 0.044795002465060581 1 1 0.057597080662967308 1 0.058312430198716132 1 1 1 1 0.047765217963035456 0.048735813701794119 1 1 0.052580432238548296 0.048638896044767864 1 1 0.046901761972814593 1 1 1 1 0.051668163002417389 1 1 0.048410657348054241 0.054826384843684614 1 0.049984422829278265 1 1 1 1 1 1 1 1 1 1 1 1 1 1 1 1 1 1 1 1 0.051806663717363886 1 1 1 1 0.050606716009955338 1 1 1 1 0.05023935598339338 0.052686936556137189 1 1 1 1 1 1 1 1 1 1 1 1 0.050899797269253519 1 1 1 0.059072508694261748 1 1 1 1 1 1 1 0.056611639185908821 1 1 1 0.052292369802168281 1 1 0.050580690851125445 0.051857122847010557 1 1 1 0.054065023984069399 1 1 1 0.050614125412499551 1 1 1 1 1 1 1 1 1 1 1 1 1 1 1 1 1 1 0.049948687120954419 1 1 1 1 1 1 1 1 1 1 1 1 1 1 1 1 1 1 0.050090996833089374 0.049827312334925829 1 1 1 1 1 0.049707335424849362 0.050258061766370023 1 0.049632102044534623 1 1 1 1 1 1 1 1 1 0.050774348158025909 1 1 1 0.050159758533435454 1 1 1 1 1 1 1 1 1 1 1 1 1 1 0.051836579351510495 1 1 1 1 1 1 1 0.049049816183344946 1 1 0.049579874555367671 1 1 1 1 1 1 0.058232433672291639 1 1 1 1 0.059034252310554217 1 1 1 1 1 1 0.051636966850170343 1 1 1 1 1 1 1 1 0.050058928589905592 0.057230827460279132 1 1 1 0.049429756613264778 0.054169129717324183 1 1 1 1 1 0.049819012445412286 1 1 1 1 1 1 0.051694089067527968 1 1 1 1 0.049775992453285518 1 1 1 1 1 0.050542945912645292 1 1 1 1 0.052687389984849391 1 1 1 1 1 1 1 1 1 1 1 1 1 1 1 1 1 1 1 1 1 1 1 1 1 0.050185742242891462 1 1 1 1 0.047840017605101738 1 0.056565718572395653 1 0.045352764478756913 1 1 0.058741263698363189 1 1 0.05311923321390781 1 1 0.049528627090391568 1 1 1 1 1 1 0.059681144976822725 1 1 0.054986941515980867 1 0.050272004728598496 0.051874993839560943 0.053281473941109672 1 1 0.046597250453852629 1 0.049564938116694476 0.04889301032891271 1 1 1 0.050653787375573051 1 0.050027271553304622 1 1 1 1 1 1 0.051535731429172275 1 1 1 0.049967978676227376 1 1 1 1 1 1 1 0.052935354396826409 1 1 1 0.048449826280289439 1 0.068907436620346346 0.067315015606965914 1 1 1 1 1 1 1 0.050250548064390138 1 1 1 1 1 1 1 1 0.050087912145303982 0.049518324955788839 1 1 1 1 0.048153161018429903 1 1 0.048320180296757526 1 1 1 0.049999983582679167 1 1 1 0.049072120815774334 0.050384739736727385 1 1 1 1 0.05008384575428336 1 1 1 1 1 0.049420524199604715 0.049248221509944845 1 1 1 1 1 1 1 1 1 1 1 1 1 1 1 1 1 1 1 1 1 1 1 1 1 1 1 1 1 1 1 0.050219179985384027 1 1 1 0.049944822500375255 1 1 1 1 1 1 1 1 1 1 1 1 1 1 1 0.049948434615637874 1 0.050191558496565439 0.049649607174555639 1 1 0.049842444604101185 1 1 1 1 1 1 1 1 1 1 1 1 1 1 1 1 1 1 1 1 1 1 1 0.05047791675021248 1 1 0.04917555779953605 0.049951087806440253 1 1 1 1 1 1 1 0.049408592209680503 1 1 1 0.050712509676712855 1 1 1 1 0.050138315806037038 0.05004686781032449 1 1 1 1 1 1 1 0.048729027150051715 1 1 1 1 0.049372514000669568 1 1 1 1 0.04986340361563453 1 1 1 1 1 1 1 1 1 1 1 1 1 1 1 1 1 1 1 0.050542044076355326 1 1 1 1 1 1 1 1 1 1 1 1 1 1 1 1 0.051653234356674509 1 1 1 0.050574972828412529 1 1 1 1 1 1 1 1 1 0.049851401371247814 1 1 1 1 1 1 1 1 1 1 1 1 1 1 1 1 1 1 1 1 1 0.049738175227133308 1 1 1 1 1 1 1 1 1 1 1 1 1 1 1 1 1 0.04922997119161767 1 1 1 1 1 0.050013329867582064 1 1 1 1 1 1 1 1 1 1 1 1 1 1 1 1 1 1 1 1 1 1 1 1 1 1 1 0.050114810586904264 1 1 0.057403279844155469 1 1 1 0.057653961529892772 1 1 1 1 1 1 1 1 1 1 1 1 1 1 1 0.065164075923746012 1 0.046593598050968785 1 1 1 1 1 1 1 1 1 0.062123363562891595 1 1 1 1 1 1 1 1 1 0.051954089476319729 0.057664855722872041 1 1 1 1 1 1 1 1 1 1 1 1 1 1 1 1 1 1 1 1 1 1 1 1 1 1 1 1 1 1 1 1 1 1 1 1 1 1 1 1 1 1 1 1 1 1 1 1 1 1 1 1 1 1 1 1 1 1 1 1 1 1 1 1 1 1 1 1 1 1 1 0.052230455325095237 1 1 1 1 1 1 0.055713942915117907 1 1 1 1 1 1 1 1 1 0.052505592492298983 1 0.055437577066342413 1 1 1 1 1 1 1 1 1 1 1 1 1 1 1 1 1 1 1 1 1 1 1 1 1 1 1 1 1 1 1 1 1 1 0.050370015256580393 1 1 1 0.049849451818601641 0.049680038517515193 1 1 1 1 1 1 1 1 1 1 1 1 1 1 1 1 1 1 1 1 1 1 0.050000293636822013 0.048976760844424753 1 1 1 1 1 1 1 1 0.048977904941485365 1 1 1 1 1 1 0.048747123002693384 1 1 1 1 1 0.050229276419655688 1 1 1 1 0.050071956774402071 1 1 1 0.065231793965719237 1 1 1 0.061914924810518468 1 1 0.057034076885537993 1 1 1 1 1 1 1 1 1 1 1 1 1 0.049948546124495938 1 1 1 1 1 1 1 1 0.05069689791599568 1 1 1 1 1 1 1 1 1 1 1 0.053619116036386659 1 1 1 0.051272253116843025 1 1 1 1 0.049541230943842933 1 1 1 1 1 1 1 1 0.048171338167366469 1 0.057769186544293472 1 1 0.047344078933229602 1 1 1 1 1 0.057086925695614445 1 1 1 1 1 1 1 1 1 1 1 1 0.050799556727370659 1 1 1 1 1 1 1 1 1 0.049033386500722045 1 1 1 1 1 1 0.052120423129736616 1 1 1 1 1 1 1 0.051146962188782404 1 1 1 1 1 0.051946518916153053 1 1 1 1 1 1 1 1 1 1 1 1 1 1 1 1 1 1 1 1 1 1 1 1 1 1 1 1 1 1 1 1 1 1 1 1 1 1 1 1 1 1 1 1 1 1 1 0.052135773699187135 1 0.055454251729921647 1 1 1 1 1 1 1 1 1 1 1 1 1 1 0.049660016044050737 1 1 1 1 1 1 1 1 1 1 1 1 1 1 1 0.050511392095664243 1 1 0.051513800321426717 1 0.052738196579777408 1 1 1 1 1 0.054333159260153821 1 1 1 1 1 1 1 1 1 1 1 1 1 1 1 1 1 1 1 1 0.057500176996336118 1 1 1 1 1 1 1 1 1 1 1 0.058560907377278371 1 0.050031987805445148 1 1 0.059280647490704087 1 0.043756792104568454 1 1 1 1 1 1 1 0.050125044853877171 1 0.068700363856014621 1 1 1 1 0.072914524428019434 1 1 1 1 0.050084674817099009 0.054535556807314908 1 1 0.061371660242686053 1 1 1 1 1 1 1 1 1 1 1 1 1 1 1 1 0.051526844577572631 1 1 1 1 1 1 1 1 1 1 1 1 1 1 0.054455130568862614 1 0.050083078779599888 1 1 1 1 1 1 1 0.068180979767982666 1 0.075300058347843007 1 1 1 1 1 1 1 1 1 0.050129126736118156 0.065147452994099186 1 1 1 0.064607108928283419 1 1 1 1 0.043029899123153671 1 0.055697927737549308 1 1 0.051514257467329364 1 0.030250898346917132 0.041622556800588822 0.048710569255311691 1 1 0.049984625622018344 1 1 1 0.037686384810773833 0.058879230288187104 0.057673805998763664 1 1 1 1 1 1 1 1 1 1 1 0.055273042203136433 1 1 1 1 1 1 0.068890704160055549 1 1 1 0.049619248814241193 1 1 1 1 1 1 1 1 0.053074261946203072 1 1 1 0.051030784309677182 1 1 1 1 1 1 1 1 1 1 1 1 1 1 1 1 1 1 1 1 1 1 1 1 1 1 1 1 1 1 1 1 1 1 1 1 1 1 1 1 1 1 1 1 1 1 1 1 1 1 1 1 1 1 1 1 1 1 1 1 0.049967055417746487 1 1 1 1 1 0.049457863948235654 1 1 1 1 0.049763439430056372 1 1 1 0.045715023627953474 1 1 1 1 1 1 1 1 1 1 1 1 1 1 1 1 1 1 1 1 1 1 1 1 1 1 1 1 1 1 1 1 1 1 1 1 1 1 1 1 0.050232401528159373 1 1 0.050624591914714974 1 1 1 1 1 1 1 0.049988498169922291 1 1 1 1 1 1 1 1 1 1 1 0.049962209149171856 1 1 0.050003090171438391 1 0.049486476300936 1 1 1 0.050870408966910002 1 1 1 1 1 1 1 1 0.050060217248046587 1 1 1 1 0.050036044393136934 1 1 1 1 0.051346210551256787 1 0.049496651256582383 1 1 1 1 1 1 1 1 1 1 1 1 0.051222654347148858 1 0.051357751369809204 1 1 1 1 1 1 1 1 1 1 1 1 1 0.049887225002249465 1 1 1 1 1 1 1 1 1 0.049790409911399686 1 1 1 0.049903184909150258 1 1 1 1 1 1 1 1 1 1 1 1 1 1 1 1 1 1 1 1 1 1 1 1 1 1 1 1 1 1 1 1 1 1 1 0.049943497558779693 1 1 0.050011358600402109 1 1 1 1 0.050135329885609051 1 1 1 1 1 1 1 1 1 1 1 1 1 1 1 0.050204772048120024 1 1 1 1 1 1 1 1 1 0.050446349851605551 1 0.050143073467860566 1 1 1 1 1 1 1 0.050061854253245566 1 1 1 1 1 1 1 1 1 1 1 1 1 1 0.052893582660333768 1 1 1 1 1 1 1 1 1 1 1 0.057804919789335198 1 1 1 1 1 1 1 1 1 1 1 1 1 1 1 1 1 1 1 1 1 1 1 0.049805146534189416 1 0.050139655832589156 1 1 1 1 1 1 0.049862380062026451 1 0.053022452496367528 1 1 1 0.048120911384939388 1 1 1 0.059305976104403482 1 1 1 0.046345933146210973 1 1 0.055914497402828445 1 1 1 1 1 1 1 0.052023571042271136 1 1 1 1 1 1 1 0.061304892799185946 1 1 1 1 1 1 1 1 1 1 1 1 1 0.051145728083846792 1 1 1 1 1 1 1 1 0.058561094603673126 1 1 1 1 1 1 1 1 1 1 1 1 1 1 1 1 1 1 1 1 0.061075648091404096 1 1 1 1 1 1 1 1 1 1 1 1 1 1 1 1 1 1 1 1 1 1 1 1 1 1 1 1 1 1 1 1 1 1 1 1 1 1 1 1 1 1 1 1 1 1 1 1 1 1 0.050567473666568552 1 0.052860763007302726 1 1 1 0.049626557339300235 1 1 0.050012846241418177 0.05391764701364693 1 0.05151058716869561 1 1 1 1 1 1 1 1 1 1 1 1 1 1 1 1 1 1 1 1 1 1 1 1 1 1 1 1 1 1 1 1 1 1 1 0.050176538847267749 1 1 1 1 0.046564967173916672 1 1 -1.3877787807814457e-17 1 1 1 0.062661250873741164 1 1 1 1 0.050907809436040535 1 0.049989019276435745 0.050647339446045596 1 1 1 1 0.057262362890201389 1 1 1 0.037619034539202602 1 1 1 0.049904991243090342 1 1 1 1 1 1 0.050002208694130038 1 1 1 1 1 1 1 1 1 1 1 1 1 1 1 1 1 1 1 1 0.05038959284230661 1 1 1 1 1 1 1 1 1 1 1 1 1 1 1 1 1 1 0.050187971860619844 1 1 0.050505861475634045 1 1 0.052412456194072289 1 1 1 1 1 1 1 1 1 1 1 0.05075216368006169 1 1 1 1 0.051200186022014677 1 1 1 1 0.04950826709607814 1 1 1 0.050337807933497694 1 1 1 1 1 1 1 1 1 1 1 1 1 1 1 1 1 1 1 1 1 1 1 1 1 0.05007660420409342 1 1 1 1 1 1 1 1 0.05033784984335811 1 1 1 0.050588636252400482 1 1 1 1 1 1 1 1 1 1 1 1 1 1 1 1 1 1 1 1 1 1 1 1 0.047283752088255242 1 1 1 0.049702453365803582 1 1 1 1 1 1 1 1 0.047339819634096503 1 1 0.056909145544191797 1 1 1 1 0.052539670508165104 1 1 1 1 1 1 1 0.048819599964285532 1 0.055659200709903399 1 1 0.057677677138346643 1 1 0.048180593253388769 0.04998108909237145 1 1 1 1 1 1 1 1 1 1 1 1 1 1 1 1 1 1 1 1 1 0.050000683240170006 1 1 1 1 0.049487611991719173 1 1 1 1 1 1 1 1 1 1 1 1 1 0.048752499870109781 1 1 0.050049322140901929 1 1 1 1 1 1 1 1 1 1 1 1 1 1 1 1 1 1 1 1 1 1 1 1 1 1 1 1 1 1 1 1 1 1 1 1 1 1 1 1 1 1 1 1 1 1 1 1 1 1 1 1 1 1 1 1 1 1 1 1 1 1 1 1 1 1 1 1 1 1 1 1 1 1 1 1 1 1 1 1 1 1 1 1 1 1 1 1 1 1 1 1 1 1 1 1 1 1 1 1 1 1 1 1 1 1 1 1 1 1 1 1 1 1 1 1 1 1 1 1 1 1 1 1 1 1 1 1 0.051933543680049168 1 1 1 1 1 1 1 0.049758491125348837 1 1 1 1 1 1 1 1 1 0.048659680743952445 1 0.052941240985152752 1 1 1 0.051618011899197042 1 1 0.053420512766889819 1 1 1 1 1 1 1 1 1 1 1 1 1 1 1 1 1 1 1 1 1 1 1 1 1 1 1 1 1 1 1 1 1 1 1 1 1 0.05173475543891215 1 1 0.049813220280964805 0.056773021787114485 1 1 0.049685377694164777 1 1 0.052354330596378201 1 1 1 0.053116294254002348 1 1 1 1 1 1 1 1 1 0.054502889588986608 1 1 1 1 1 1 0.051132891601997799 1 1 1 1 1 1 1 1 1 1 1 1 1 1 1 1 1 1 1 1 1 1 1 1 1 1 1 1 1 1 1 0.048616462110219132 1 1 1 1 1 1 1 1 1 1 1 1 1 1 1 1 1 1 1 1 1 1 1 1 1 1 1 1 1 1 1 1 1 1 1 1 1 1 1 1 1 1 1 1 1 1 0.055731142158896144 1 0.057077041182003393 1 1 1 1 0.050044523603097205 1 1 1 1 0.061710057734650541 1 1 1 1 0.049809290933281777 1 1 1 1 1 1 1 1 0.060292402585361005 1 1 0.050460528440583303 1 0.04956918978784923 1 1 1 1 0.047079892555632108 1 1 0.063425443091213757 0.045175372922691498 1 1 1 1 1 1 0.050079748924140306 1 1 1 1 1 1 1 1 1 1 0.063788999639315586 0.049877783754506355 1 1 1 1 1 0.050129817778887434 1 1 0.062804268999983676 1 1 1 1 0.056495166187975551 1 1 0.051380208660998551 1 1 1 1 1 1 1 1 1 1 1 1 1 1 1 1 1 1 1 1 1 1 1 1 1 1 1 1 1 0.05845271949710943 1 0.053515716055251288 1 1 1 1 1 1 1 1 1 1 1 1 1 0.049980688086008584 1 1 1 1 0.05195537295573506 0.050063565742758512 1 1 1 1 1 1 1 1 1 1 1 1 1 1 1 1 1 1 1 1 1 1 1 1 1 1 1 1 1 1 1 1 1 1 1 1 1 1 1 1 1 1 0.049960725043201953 1 1 1 0.049980036957193316 1 1 1 1 1 1 1 1 1 1 1 1 1 1 1 1 1 1 1 1 0.0528455536813216 1 1 0.052419575706279226 1 1 1 1 1 1 1 1 1 0.052632023555705974 1 1 1 1 1 0.056503283556375919 1 1 1 1 1 0.050006335718979091 1 0.049999969405840707 1 1 1 1 1 1 1 1 1 1 1 1 1 0.048709522708046231 1 1 1 0.049726409868173262 0.054916930519792947 1 1 1 1 1 1 1 1 0.056327869322368204 1 1 0.053154496127402244 1 1 0.049928025946241829 0.051420620090957027 1 1 1 1 1 0.051555795403159167 1 1 1 1 1 1 1 0.0506815602186933 1 1 0.051292934192921434 0.052449619450375892 1 1 1 1 1 1 0.049883124141377438 0.050059403368328224 1 1 1 0.049973953335404157 1 1 1 1 1 1 1 0.049924179097921378 1 1 1 1 1 1 1 1 1 1 1 1 1 1 1 1 1 1 1 1 1 1 1 1 1 1 0.082735096439316189 1 1 1 1 1 1 1 0.049592128185750421 1 1 1 1 1 1 1 1 1 1 1 0.074478521040330398 1 1 1 1 1 1 1 1 0.048218649283796079 1 1 1 1 1 1 1 1 1 1 1 1 1 1 1 1 0.051274321425171208 1 1 1 0.049041634291823406 1 1 1 1 1 0.054474863325483139 1 1 1 1 1 1 1 1 1 1 1 1 1 1 0.051552544465568097 1 1 1 1 0.054390663398292273 1 1 0.056574669921191055 1 1 1 1 1 0.049879788948319986 1 1 1 1 1 1 1 1 1 1 1 1 1 1 0.049547213897402249 1 0.041852989058091816 1 1 1 0.059108980348678605 1 0.067500321144065858 1 0.03750339127772441 1 1 1 1 1 1 0.049956782362519284 0.086907078172707181 1 1 1 1 1 1 0.084502331227969532 1 0.049213412166009253 1 1 1 1 1 1 1 1 1 1 1 1 1 1 1 1 1 0.041895061778693274 1 1 1 0.049943988924333708 0.044786291893158636 1 1 1 1 1 0.046968052695264897 1 1 0.049931275195957851 0.048966020998844687 1 1 1 1 1 1 1 1 1 1 1 1 1 1 1 1 1 1 1 1 1 1 1 1 1 1 1 1 1 1 1 1 1 1 1 1 1 1 1 1 1 1 1 1 0.061551668376434998 1 1 0.047350548899761633 0.04954889438070488 0.049542385242022438 1 1 1 1 1 1 0.04985884510720618 1 1 1 1 1 1 1 1 1 0.049867037132096892 1 1 1 0.060543256528381384 1 1 1 1 1 1 1 1 1 1 1 1 1 1 1 1 1 1 1 1 0.05761343945191981 1 1 1 1 0.052760004836408622 1 1 1 1 1 1 1 1 1 1 1 1 1 1 1 1 1 1 1 1 1 1 1 1 1 1 1 1 1 1 1 1 1 1 0.052382578721400556 1 0.050988993072483516 1 1 1 1 1 1 1 1 0.052497451786111107 1 1 1 0.057117472600558855 1 0.051508458713627588 1 1 1 1 1 1 1 1 0.064462896843645034 1 1 1 1 0.054540677825100449 1 1 1 1 0.061506601284714399 1 1 1 1 1 1 1 0.062206018078683721 1 1 1 1 0.055434310673127631 1 1 1 1 1 1 1 1 1 1 1 1 1 1 1 1 1 1 1 1 1 1 1 1 1 1 1 1 1 1 1 1 1 1 1 1 1 1 1 1 1 1 1 1 1 1 0.051183039970295059 1 1 1 1 0.053112440358751782 0.055893204353252658 1 1 0.056918270191270687 0.051755746466393998 1 1 1 1 1 1 1 1 1 1 1 1 1 1 1 1 1 1 1 0.050988711333585048 1 1 1 0.052560868211146534 0.051737775192883702 1 1 1 1 1 1 1 1 1 1 1 1 1 1 1 1 1 1 1 1 1 1 1 1 1 1 1 0.050967908886131369 1 1 1 1 1 1 1 0.051611146081299755 1 1 1 1 1 1 1 1 1 1 1 1 1 1 1 0.052429501251380108 1 1 1 1 1 1 1 1 0.050896691801755441 1 0.050509101330241279 0.052290195297242312 1 1 1 1 1 1 1 1 1 1 1 1 0.049177014991972676 1 1 1 1 1 1 1 1 1 1 1 1 1 1 1 1 1 1 0.044084423262745642 1 1 1 0.042894722248586287 1 1 1 1 1 1 1 1 0.047533329297878575 1 1 1 1 1 1 1 1 1 1 1 1 1 1 1 0.049989562259387089 1 1 1 0.050264951430302747 1 1 1 1 1 1 1 1 1 1 1 1 1 1 1 1 1 1 1 1 1 1 1 1 1 1 1 1 1 1 1 1 1 0.051647864776182426 1 0.050681026547612716 1 1 1 1 1 1 1 1 0.049781242105399658 1 1 1 1 1 1 1 1 1 0.052506869984658873 1 1 0.047506056324004856 1 1 1 1 1 0.048700494331809112 1 1 1 1 0.050065192367781758 1 1 1 1 0.045287291874538949 1 1 1 0.045488415563747248 1 0.062249529012051184 1 1 0.062896980716714831 1 1 1 1 1 1 1 1 1 1 1 1 1 1 0.049736002168810772 1 1 0.052119707420447234 1 0.049581954886097054 1 1 1 0.055838068655363129 1 1 0.053824174226550808 1 1 1 1 0.063342307555047939 1 0.048371197936960215 1 1 1 1 1 1 0.049471663331208469 1 0.05029651140768962 1 1 1 1 1 0.049739088048556576 1 1 1 1 0.06433229934324658 1 1 1 1 1 1 0.048810415335550271 1 1 1 1 1 1 1 1 1 1 1 1 1 1 1 1 1 1 1 1 1 1 1 1 1 1 1 1 1 1 1 1 1 0.050216919935346639 0.049988682405830251 1 1 1 1 1 1 1 1 1 1 0.046678559837234651 1 1 0.065175388380053711 0.047477650647413445 1 0.049976013492500908 1 1 1 1 1 1 1 0.045429670732120099 1 1 1 1 1 1 1 1 1 1 1 1 0.054397274375566754 1 1 1 1 0.05146803929684466 1 1 1 1 1 1 1 1 1 1 1 1 0.054733912420601952 1 1 1 1 1 1 1 1 1 1 1 1 1 1 1 1 1 0.053500238014544586 1 1 1 1 1 0.050894639102620758 1 1 1 0.05504747550849181 1 1 1 1 1 1 0.0539095910446937 1 0.055631941523008967 1 1 1 0.052774342103312173 1 1 1 1 1 1 1 1 1 0.057829615542205753 1 1 0.04994110385914155 1 1 1 1 1 1 1 0.051550610097679028 1 1 1 1 1 1 1 1 1 1 1 1 1 0.049175900934031985 1 1 0.051379032491027127 1 1 1 1 1 1 0.050016183438340509 1 1 1 1 1 1 0.05954446908839639 1 1 1 1 1 1 1 0.063574727854138466 1 1 1 1 1 1 1 1 1 1 1 1 1 1 1 1 1 1 1 1 1 1 0.051707569809516823 1 1 1 1 1 1 1 1 1 1 0.04441906095402811 1 1 1 1 0.04191122724821001 0.058855497648212587 1 1 1 1 0.05699876072896793 1 1 1 1 1 1 1 1 1 0.055186742520514497 1 1 1 1 1 1 1 1 1 1 1 0.05402833962831128 1 1 1 0.049353276540237238 1 1 1 0.051346687725667722 1 1 1 1 1 1 1 1 1 1 1 1 0.047216893035806361 1 1 1 1 1 0.049977242082547592 1 1 0.049977616398129907 1 1 1 1 1 1 1 1 1 1 1 1 1 1 0.051370164418435442 1 1 1 1 1 1 1 0.052681656474652748 1 1 1 0.051346765859504172 1 1 1 1 1 0.050012083003103669 1 1 1 1 1 1 1 1 1 0.050011708687521347 1 1 1 1 1 1 1 1 0.048621630045788275 1 1 1 1 1 0.050496815660261693 1 1 1 1 1 1 1 0.050162795705489462 1 1 1 1 1 1 1 1 1 1 1 1 1 1 1 1 1 1 1 1 1 1 1 1 1 1 1 1 1 1 1 1 1 1 1 1 1 1 1 1 1 1 1 1 1 1 1 1 0.052688494561477145 1 1 1 1 1 1 1 0.052989769001889966 1 1 1 1 1 1 1 1 1 1 1 1 1 1 1 1 1 1 1 1 1 1 0.054574117396413324 0.049587592082876199 1 1 0.058123169389453992 0.046429503326715027 1 1 1 1 1 1 1 0.049060186878459561 1 1 1 1 1 1 1 1 1 1 1 1 1 1 0.055161822451523942 1 1 1 1 1 1 1 1 0.052499076732092038 1 1 0.050535419450073629 1 1 1 0.050828724441839494 1 1 1 1 1 1 1 1 1 1 1 1 1 1 1 1 1 1 1 1 1 1 1 1 1 1 1 1 0.05492586637126684 1 1 1 1 1 1 1 1 0.049727230845625511 1 1 1 1 1 1 0.063561327632998543 0.048427987406860759 1 1 1 1 0.04927279691428841 1 1 0.058392855984116643 1 1 0.057660660901507892 1 1 1 1 1 1 0.0503220354326714 1 1 1 1 1 1 1 1 0.050521641725452301 1 1 1 1 1 1 1 1 1 1 1 0.051205150554683394 1 1 0.050684335596717839 1 1 1 1 1 1 1 0.051787331205532111 1 1 1 0.050631363674878985 1 0.050591869919667742 1 0.051105854390194105 1 1 1 1 1 1 1 1 1 1 1 1 1 1 1 1 1 0.054637205450225386 1 0.049997970711582143 1 1 1 1 1 1 1 1 1 1 0.053178306896518063 1 1 1 1 1 1 1 0.050299828083830808 1 1 1 0.049986420871223382 1 0.051315928139740091 0.049292643687701657 1 1 0.043603726263828177 1 1 1 1 0.055472591158981371 1 1 1 0.048599310176898836 1 1 1 0.050348660950727382 1 0.051788836279468342 0.063896298625080422 1 1 1 1 1 1 0.050968467160230277 1 1 1 1 1 1 1 1 0.06449955695215781 0.049998537596807183 0.054890381643477593 1 0.072835424349609657 1 1 0.045360665071791657 0.05000061384842016 1 1 0.045604389757901743 1 1 1 1 1 1 1 1 1 1 1 0.050149017711501744 1 1 1 1 1 1 1 1 1 1 1 1 1 0.057146189500189168 0.060861829336710999 1 1 1 1 0.059288826287921537 1 1 1 0.050844964966542922 1 1 1 1 1 0.05742614036755949 0.050005103135171348 1 1 1 0.0478674031454598 1 1 1 1 1 1 1 1 1 1 1 1 1 1 1 0.050244456816030514 1 1 1 0.053155168755736212 1 1 1 0.050146578119417723 1 1 1 1 1 1 0.057442278062561365 1 1 1 1 1 0.056773979627671715 1 1 1 1 1 1 1 1 0.053570911485720733 1 1 1 1 1 1 1 1 1 0.050373506162613671 1 1 1 1 0.058537208087646675 1 0.049750472360556963 1 1 0.059160676709631009 1 0.049772367613685524 1 1 1 1 1 1 0.050584028422575061 1 0.049948780461307817 0.066724800590096639 1 1 1 1 1 1 1 1 0.04493596087093589 1 0.049883427586439599 1 0.049999779858527986 1 0.066190420693125057 1 1 1 1 1 1 1 1 1 1 1 0.050228558269545184 1 1 1 0.050547741213769613 1 1 1 1 1 1 1 1 0.050319182944224397 1 1 1 1 1 1 1 1 1 0.050098067771773724 1 1 1 1 0.049759447011262656 1 1 0.049316181508250012 1 1 1 1 1 1 1 1 1 0.049400065333149376 1 1 1 0.049116330563388301 1 1 1 1 1 1 1 1 1 1 1 1 1 1 1 1 1 1 1 0.049995362649883412 1 1 1 1 1 1 1 1 1 1 0.050447064737260738 1 1 1 1 1 1 1 1 1 1 1 1 1 1 1 1 1 1 1 1 1 1 1 1 1 1 1 1 1 1 1 1 1 1 1 1 1 1 1 1 1 1 1 1 1 0.06978349876310129 0.049702864980898084 1 1 1 1 1 1 1 1 1 1 1 1 1 0.081996219254033498 0.04427060531519296 1 1 1 0.047359173917719419 1 1 0.058418253990330959 1 1 1 0.062252373914332484 1 1 1 0.071822169931494192 1 1 1 1 1 1 1 1 0.048370255866160908 1 1 0.052486815744265065 1 0.062371753125390367 0.05262702381093419 1 1 1 1 1 1 0.06428366674674621 1 0.047535937368069617 0.052063003704338612 0.050387718325514523 1 1 0.05612640977153624 1 1 0.059613551613792233 0.060336576959972257 1 1 1 1 1 1 1 1 1 1 1 1 1 1 1 1 1 1 1 1 1 0.050447272293676432 1 1 1 1 1 1 1 1 1 0.05186716229605777 1 1 1 1 1 1 1 0.048366055989863946 0.050399594145375787 1 1 1 1 1 1 1 1 1 1 1 1 1 1 1 1 1 1 1 1 1 1 1 0.051594101290589924 1 0.049953697164860367 1 1 1 1 1 1 1 0.051262471354031058 1 1 1 0.05389949795471588 0.049348789642771673 1 1 0.049627424255306397 1 1 1 1 0.054467282947747067 1 1 1 0.053954860745979008 1 1 1 0.079246216047137663 1 1 1 1 1 1 1 1 1 0.083790515096323903 0.045083341442518049 1 1 1 1 1 0.057592526826024844 1 1 0.04540724441068103 0.066599307761267657 0.083673289361974851 1 1 1 1 1 0.04846606448106338 1 1 1 1 1 1 1 1 1 0.049326232258590286 1 0.049713835222445768 1 1 1 1 1 1 1 1 1 1 1 1 1 1 1 1 1 1 1 1 1 1 1 1 0.049582284608592396 1 1 1 1 0.047573691364276124 0.048767265034884232 1 1 1 0.048420747970088968 1 1 1 1 1 1 1 1 1 1 1 1 1 1 1 1 0.066172560984401371 1 1 1 0.050034663848751819 1 1 0.039500007724448921 1 1 1 1 1 1 1 1 1 1 1 1 1 0.04802570532501578 1 1 0.064515614465272583 1 1 1 0.042914768610149125 1 0.07459649037825837 1 0.050061320230947025 1 0.052467377391752432 0.063463733151500487 0.050016562277467688 1 1 1 1 1 1 1 1 0.049886713035207995 1 1 1 1 1 1 1 1 0.058642430481482613 1 1 0.05163277397612507 1 1 1 1 1 1 1 1 1 1 1 1 1 1 1 1 1 1 1 1 1 0.049404266836376526 1 1 1 1 1 1 1 1 1 1 0.049600546571109488 1 0.049556107827794224 1 1 0.050765815655614291 1 0.050145941168868023 1 0.05000611045002136 1 1 0.050052044814599218 1 0.059521393609054701 1 1 0.04900565871773422 1 1 1 0.049913340309218561 1 1 1 1 1 1 1 1 1 1 1 1 1 1 1 1 1 1 1 1 1 1 1 1 1 1 1 1 1 1 1 1 1 1 1 1 1 1 1 1 1 1 1 1 1 1 1 1 1 1 1 1 1 1 1 1 1 1 1 1 1 0.053766864989936013 1 1 0.06504328032831036 1 1 1 1 1 1 0.04964657586060299 0.056444555260086196 1 1 1 1 1 1 1 1 1 1 1 1 1 1 1 1 1 1 0.061696074412869867 1 1 1 0.050209153557055949 1 1 1 1 1 1 1 1 1 1 1 1 1 1 1 1 0.04989299755783904 1 1 1 1 1 1 1 0.061907987196692368 1 1 1 1 1 1 1 1 0.058642568994997292 1 0.050244714129405912 1 1 1 1 1 1 1 1 1 1 1 1 1 1 1 1 0.049991162137723991 1 1 1 1 1 1 1 0.049966668900238508 1 1 1 1 0.050007872452313154 1 1 1 1 1 1 1 0.050021811405405389 1 1 0.052444522414232919 0.050122869751463836 1 1 0.048747993993029905 1 1 1 1 1 1 0.049927262949056875 1 1 1 1 1 1 1 1 1 0.050102297231354287 1 1 0.050013532917527873 1 1 0.050003953168337861 1 1 0.053249484014110185 1 1 1 1 1 0.053932917843587835 1 1 1 1 1 1 1 1 0.05006953669510026 1 1 1 1 1 1 1 0.050163013100241433 1 1 1 1 1 1 1 1 1 1 1 1 0.049852404648354554 1 1 1 1 1 1 1 0.050049134566439023 0.049991526715153015 1 0.054236939405904364 1 0.05343427525611328 1 1 1 1 1 1 1 1 1 1 1 1 1 1 1 0.050005824871660408 1 0.053199130434698566 1 1 1 1 1 1 1 1 0.049023364624634948 1 0.051292389529375593 1 0.051919735408501699 1 0.049843656903252771 1 0.049982308802128873 1 1 0.050083862124359814 1 1 1 1 1 0.050297152493632848 1 1 1 1 1 1 1 1 0.049948960000912083 1 1 1 1 1 0.049846201706742262 1 1 0.054251399736034656 1 0.049478280300250366 0.051437323706208446 1 1 1 1 1 1 1 1 0.049999903467607409 1 1 1 1 1 1 1 1 1 1 1 1 1 0.04998303385897844 1 1 1 1 1 1 1 0.049999499918846294 1 1 1 0.049999498253221225 1 1 1 1 1 1 1 1 1 1 1 1 1 1 1 1 1 0.050110682808694594 1 1 1 1 1 1 1 0.050052387848825902 1 1 0.050016918590717878 1 1 1 1 1 1 1 1 1 1 1 1 1 1 1 0.050080784196237842 1 1 1 1 0.04997614262407065 1 1 1 1 1 1 1 1 1 1 1 1 1 1 1 1 1 1 1 1 1 1 1 1 1 0.050900609733146557 1 1 1 1 1 1 0.050017352999638186 1 1 1 1 1 1 1 1 1 0.052145832159298411 0.050562066452009419 1 1 1 0.051047609743907332 1 0.049988467079291256 1 1 1 1 1 1 1 1 1 1 1 1 1 1 1 0.050036080237161072 1 1 1 1 1 1 1 1 1 1 1 1 0.050006119544320445 0.050025697598580748 1 1 1 1 1 1 1 1 0.050054304182854031 1 1 0.050000765078565046 1 1 0.050637447912714163 0.049691290783977798 1 1 1 1 1 1 1 0.0502035204053604 1 1 1 1 1 1 1 1 1 0.0500195780542603 1 1 1 0.05084883565419273 1 1 1 1 1 0.050691791426131103 1 1 1 1 1 1 1 1 1 1 1 1 0.050655632349403436 1 1 1 0.050022156491250212 1 1 1 0.050011257977957316 1 1 1 1 1 1 1 1 1 1 1 1 1 1 1 1 1 1 1 1 1 1 1 1 1 1 1 1 1 1 1 1 0.04987851282587772 1 1 1 1 1 1 1 1 1 1 1 1 1 1 1 1 1 1 1 1 1 1 1 1 0.050089229310520081 1 0.050005744605456905 1 1 0.052937009368117148 1 1 1 1 1 1 1 1 1 0.050301729564604443 1 1 1 1 1 1 1 1 1 1 1 1 1 1 0.052514606278532078 1 1 1 1 0.051937707530390294 1 1 1 0.050793057438080873 1 1 1 1 1 1 1 1 1 1 1 1 1 1 1 1 1 1 1 1 1 1 1 1 1 1 1 1 1 1 1 1 1 1 1 1 1 1 1 1 1 1 1 1 1 1 1 1 1 1 1 1 1 1 1 1 1 1 1 1 1 1 1 1 1 1 1 1 1 1 1 1 1 1 1 1 1 1 1 1 1 1 1 1 1 1 1 1 1 1 1 1 1 1 1 1 1 1 1 1 1 1 1 1 1 1 1 1 1 1 1 1 1 1 1 1 1 1 1 1 1 1 1 1 1 1 1 1 1 1 1 1 1 1 1 1 1 1 1 1 1 1 1 1 1 1 1 1 1 1 1 1 1 1 1 1 1 1 1 1 1 1 1 1 1 1 1 1 1 1 1 1 1 1 1 1 1 1 1 1 1 1 1 1 1 1 1 1 1 0.052965653533098879 1 1 1 1 1 1 1 1 1 1 1 1 1 1 1 1 0.051224834589573505 1 1 1 1 1 1 1 1 0.070156898143931015 1 1 1 1 0.049291512664458553 1 1 1 1 1 1 1 1 1 1 1 1 1 1 1 1 1 1 1 1 1 1 0.051047540934190526 1 1 1 1 1 1 1 1 1 1 1 1 1 0.048039256850084824 0.051971806990830115 1 1 1 1 1 0.049906076390119194 1 0.065504125462315266 1 1 1 1 1 1 1 1 1 1 1 0.050309428799611616 1 1 1 1 1 1 1 0.10035768692779896 1 1 1 1 1 1 1 1 1 1 1 1 1 1 1 0.050499186316747491 0.10458076554148943 1 1 1 1 1 1 1 1 1 1 1 1 0.059491343310655219 1 1 1 1 1 1 1 1 1 1 1 1 1 1 1 1 0.053212877041862935 1 1 1 1 1 1 1 0.10651182680936098 1 1 1 1 1 1 1 1 1 1 0.049696991106968409 0.10067912831950476 1 1 1 1 1 1 1 1 1 1 1 1 1 1 1 1 1 1 1 1 1 1 1 1 1 1 1 1 1 1 0.051599460814210768 1 1 1 1 1 0.051535340564037441 1 1 1 1 1 1 1 1 1 1 0.050657505199987719 1 1 1 1 0.050061970257837332 1 1 1 1 1 1 1 1 1 1 0.051393948520092783 1 0.050516113156043034 1 1 1 1 1 1 1 1 1 1 1 1 1 1 1 1 1 1 1 1 1 1 1 1 1 1 1 1 1 1 1 0.050305579757676779 1 1 1 1 1 0.050804766074424274 1 1 1 1 1 1 1 1 1 1 1 1 1 1 1 1 1 1 0.050895545448545632 1 1 0.091247397166285008 1 1 1 0.050301025196146557 1 1 1 1 1 0.096163351245864476 1 1 1 1 1 1 1 1 1 1 0.059129233596122398 1 1 1 1 1 1 0.050698303553135947 1 1 1 1 1 0.033875695576846068 0.049571452001230837 1 1 0.073920444238805671 1 1 0.050732033201740127 1 1 1 1 1 1 1 1 1 1 0.050812271607613806 1 1 0.050501590695668612 1 1 0.05001086534626005 1 1 0.052047627373785987 1 1 0.051196032730837338 1 1 0.049845360508430636 1 1 1 1 1 1 0.051549951267903751 1 1 1 1 1 1 1 1 1 1 1 0.074044717436683019 1 1 1 1 1 1 1 0.050410458366328487 1 1 1 1 0.051024104530072181 1 1 1 0.072205453741389675 1 1 1 1 1 1 1 1 1 1 1 0.05310384428234366 1 1 1 1 1 1 1 1 1 1 1 1 1 1 1 1 1 1 1 1 1 1 1 1 0.050063051150850385 1 1 1 1 1 0.050199894415067087 1 1 1 1 1 1 1 1 1 1 1 1 1 1 0.054098373497310656 1 1 0.052031040415002804 1 0.061297409324858262 1 1 1 1 0.067050030488031723 1 0.04968352015675094 0.051262596167238855 1 0.054357832753292964 1 1 1 1 1 1 1 0.050012959017726989 1 0.053922588678421236 1 1 1 1 1 1 0.048926581148835704 1 1 1 1 1 1 0.050040308263578602 1 1 1 1 0.050063700554629491 1 1 1 1 1 0.050079234589190877 1 1 0.050721014102134296 1 1 1 1 0.049978865353046242 1 1 1 1 0.053391172588199393 1 1 1 1 1 1 0.04962649538934908 1 1 1 1 1 1 1 1 1 0.050000227919399003 1 1 1 1 1 1 0.051165018799839965 1 1 1 1 0.053300951417669253 1 1 1 1 1 1 1 1 1 1 1 1 1 1 1 1 0.050128068811749374 1 1 1 0.049636934559264372 1 1 0.05645885271627607 1 1 1 1 1 1 1 1 1 1 1 1 1 1 1 1 0.049703872613904389 1 0.055822919086291382 1 1 1 1 1 1 1 1 1 1 1 1 1 1 1 1 1 1 1 1 1 1 1 1 1 1 0.06801614540410364 1 1 0.055046238162055589 1 1 1 1 1 1 1 1 1 1 0.053335610949271542 1 1 1 1 0.049553214723085499 1 1 1 1 0.0498493421091811 1 1 1 1 1 1 1 1 1 0.053013679068785506 1 1 1 1 1 1 1 1 1 1 1 1 1 1 1 1 1 1 1 1 1 1 1 1 1 1 1 1 
</DataArray>
</CellData>
</Piece>
</UnstructuredGrid>
</VTKFile>
