<?xml version="1.0"?>
<VTKFile type="UnstructuredGrid" version="0.1" byte_order="LittleEndian">
<UnstructuredGrid>
<Piece NumberOfPoints="31276" NumberOfCells="10929">
<Points>
<DataArray type="Float64" NumberOfComponents="3" format="ascii">
-0.5 -0.5 0 -0.46923843965502993 -0.47425283389558609 0 -0.43682302177596799 -0.50000000000000022 0 -0.5 -0.5 0 -0.46923843965502993 -0.47425283389558609 0 -0.5 -0.46257642347735162 0 -0.46923843965502993 -0.47425283389558609 0 -0.43935653915708822 -0.47402027420018289 0 -0.43682302177596799 -0.50000000000000022 0 -0.46923843965502993 -0.47425283389558609 0 -0.43935653915708822 -0.47402027420018289 0 -0.45571557809183277 -0.45863326473851501 0 -0.45571557809183277 -0.45863326473851501 0 -0.45717673497480088 -0.4400850653914547 0 -0.43576510246219918 -0.45529637433737807 0 -0.45717673497480088 -0.4400850653914547 0 -0.43576510246219918 -0.45529637433737807 0 -0.45717673497480088 -0.4400850653914547 0 -0.43576510246219918 -0.45529637433737807 0 -0.43220274427772282 -0.43822953761653488 0 -0.43935653915708822 -0.47402027420018289 0 -0.45571557809183277 -0.45863326473851501 0 -0.43576510246219918 -0.45529637433737807 0 -0.46923843965502993 -0.47425283389558609 0 -0.45571557809183277 -0.45863326473851501 0 -0.47973031991980669 -0.44915648125863911 0 -0.45571557809183277 -0.45863326473851501 0 -0.45717673497480088 -0.4400850653914547 0 -0.47973031991980669 -0.44915648125863911 0 -0.45717673497480088 -0.4400850653914547 0 -0.47973031991980669 -0.44915648125863911 0 -0.47858836748740269 -0.42487375644553133 0 -0.47973031991980669 -0.44915648125863911 0 -0.5 -0.46257642347735162 0 -0.50000000000000333 -0.40966244749960651 0 -0.46923843965502993 -0.47425283389558609 0 -0.47973031991980669 -0.44915648125863911 0 -0.5 -0.46257642347735162 0 -0.47973031991980669 -0.44915648125863911 0 -0.50000000000000333 -0.40966244749960651 0 -0.47858836748740269 -0.42487375644553133 0 -0.50000000000000333 -0.40966244749960651 0 -0.47858836748740269 -0.42487375644553133 0 -0.50000000000000333 -0.40966244749960651 0 -0.47858836748740269 -0.42487375644553133 0 -0.47678800273139982 -0.4050100869172904 0 -0.47858836748740269 -0.42487375644553133 0 -0.47678800273139982 -0.4050100869172904 0 -0.45958029956000718 -0.418468782386959 0 -0.49023557346368879 -0.39028020158908988 0 -0.49999999999999772 -0.39110536279539732 0 -0.5 -0.36647695644839973 0 -0.50000000000000333 -0.40966244749960651 0 -0.49649642642249142 -0.40194663853446028 0 -0.47678800273139982 -0.4050100869172904 0 -0.49023557346368879 -0.39028020158908988 0 -0.49649642642249142 -0.40194663853446028 0 -0.47678800273139982 -0.4050100869172904 0 -0.50000000000000333 -0.40966244749960651 0 -0.49999999999999772 -0.39110536279539732 0 -0.49649642642249142 -0.40194663853446028 0 -0.49023557346368879 -0.39028020158908988 0 -0.49999999999999772 -0.39110536279539732 0 -0.49023557346368879 -0.39028020158908988 0 -0.49999999999999772 -0.39110536279539732 0 -0.49649642642249142 -0.40194663853446028 0 -0.49023557346368879 -0.39028020158908988 0 -0.49649642642249142 -0.40194663853446028 0 -0.49023557346368879 -0.39028020158908988 0 -0.47678800273139982 -0.4050100869172904 0 -0.46157147162619838 -0.38785788781961472 0 -0.49023557346368879 -0.39028020158908988 0 -0.46157147162619838 -0.38785788781961472 0 -0.49023557346368879 -0.39028020158908988 0 -0.46157147162619838 -0.38785788781961472 0 -0.47746603303382162 -0.36648551431137971 0 -0.49023557346368879 -0.39028020158908988 0 -0.47746603303382162 -0.36648551431137971 0 -0.46157147162619838 -0.38785788781961472 0 -0.47746603303382162 -0.36648551431137971 0 -0.46389872468676258 -0.37208028234858231 0 -0.47678800273139982 -0.4050100869172904 0 -0.46157147162619838 -0.38785788781961472 0 -0.4468951695169443 -0.40157663195815851 0 -0.46157147162619838 -0.38785788781961472 0 -0.4468951695169443 -0.40157663195815851 0 -0.43290736978870797 -0.38543557405013978 0 -0.46157147162619838 -0.38785788781961472 0 -0.43290736978870797 -0.38543557405013978 0 -0.46157147162619838 -0.38785788781961472 0 -0.43290736978870797 -0.38543557405013978 0 -0.46389872468676258 -0.37208028234858231 0 -0.45717673497480088 -0.4400850653914547 0 -0.47858836748740269 -0.42487375644553133 0 -0.45958029956000718 -0.418468782386959 0 -0.45717673497480088 -0.4400850653914547 0 -0.47858836748740269 -0.42487375644553133 0 -0.47678800273139982 -0.4050100869172904 0 -0.4468951695169443 -0.40157663195815851 0 -0.45958029956000718 -0.418468782386959 0 -0.4468951695169443 -0.40157663195815851 0 -0.43845322308948842 -0.42079837122236019 0 -0.42815873913274261 -0.40867043191173108 0 -0.4468951695169443 -0.40157663195815851 0 -0.45958029956000718 -0.418468782386959 0 -0.43845322308948842 -0.42079837122236019 0 -0.45717673497480088 -0.4400850653914547 0 -0.45958029956000718 -0.418468782386959 0 -0.43845322308948842 -0.42079837122236019 0 -0.45717673497480088 -0.4400850653914547 0 -0.43845322308948842 -0.42079837122236019 0 -0.43220274427772282 -0.43822953761653488 0 -0.43845322308948842 -0.42079837122236019 0 -0.41027287653904099 -0.42915817562833569 0 -0.43220274427772282 -0.43822953761653488 0 -0.43845322308948842 -0.42079837122236019 0 -0.42815873913274261 -0.40867043191173108 0 -0.41027287653904099 -0.42915817562833569 0 -0.41027287653904099 -0.42915817562833569 0 -0.41568579642774889 -0.40026933933609382 0 -0.41027287653904099 -0.42915817562833569 0 -0.41568579642774889 -0.40026933933609382 0 -0.39890337244936153 -0.41143880489529572 0 -0.42815873913274261 -0.40867043191173108 0 -0.41027287653904099 -0.42915817562833569 0 -0.41568579642774889 -0.40026933933609382 0 -0.43290736978870797 -0.38543557405013978 0 -0.42318566361039311 -0.38461402300793168 0 -0.43126905445349678 -0.37234441644099969 0 -0.42318566361039311 -0.38461402300793168 0 -0.43126905445349678 -0.37234441644099969 0 -0.42109871631645679 -0.37138050304385167 0 -0.43290736978870797 -0.38543557405013978 0 -0.42948663009049037 -0.39154964141370752 0 -0.43290736978870797 -0.38543557405013978 0 -0.42318566361039311 -0.38461402300793168 0 -0.43290736978870797 -0.38543557405013978 0 -0.42318566361039311 -0.38461402300793168 0 -0.42948663009049037 -0.39154964141370752 0 -0.4468951695169443 -0.40157663195815851 0 -0.43290736978870797 -0.38543557405013978 0 -0.42948663009049037 -0.39154964141370752 0 -0.4468951695169443 -0.40157663195815851 0 -0.42815873913274261 -0.40867043191173108 0 -0.42948663009049037 -0.39154964141370752 0 -0.42815873913274261 -0.40867043191173108 0 -0.42948663009049037 -0.39154964141370752 0 -0.41568579642774889 -0.40026933933609382 0 -0.42318566361039311 -0.38461402300793168 0 -0.42948663009049037 -0.39154964141370752 0 -0.41568579642774889 -0.40026933933609382 0 -0.41568579642774889 -0.40026933933609382 0 -0.40565570684054059 -0.38199308209152538 0 -0.42109871631645679 -0.37138050304385167 0 -0.41568579642774889 -0.40026933933609382 0 -0.42109871631645679 -0.37138050304385167 0 -0.42318566361039311 -0.38461402300793168 0 -0.41568579642774889 -0.40026933933609382 0 -0.42109871631645679 -0.37138050304385167 0 -0.40565570684054059 -0.38199308209152538 0 -0.38546681847730169 -0.39416962699579478 0 -0.39329765606401179 -0.36591906924242928 0 -0.41568579642774889 -0.40026933933609382 0 -0.40565570684054059 -0.38199308209152538 0 -0.38546681847730169 -0.39416962699579478 0 -0.41568579642774889 -0.40026933933609382 0 -0.38546681847730169 -0.39416962699579478 0 -0.39890337244936153 -0.41143880489529572 0 -0.38546681847730169 -0.39416962699579478 0 -0.39329765606401179 -0.36591906924242928 0 -0.37178503006078351 -0.36529734894278382 0 -0.41027287653904099 -0.42915817562833569 0 -0.38418799835335438 -0.42215807762095819 0 -0.38554242520648091 -0.43819238400717231 0 -0.41027287653904099 -0.42915817562833569 0 -0.39890337244936153 -0.41143880489529572 0 -0.38418799835335438 -0.42215807762095819 0 -0.38546681847730169 -0.39416962699579478 0 -0.39890337244936153 -0.41143880489529572 0 -0.38418799835335438 -0.42215807762095819 0 -0.38546681847730169 -0.39416962699579478 0 -0.38418799835335438 -0.42215807762095819 0 -0.36857509023582058 -0.4147292750795083 0 -0.38418799835335438 -0.42215807762095819 0 -0.38554242520648091 -0.43819238400717231 0 -0.37377006278066488 -0.4377091529438093 0 -0.38293400131272082 -0.44971448590963131 0 -0.38554242520648091 -0.43819238400717231 0 -0.37377006278066488 -0.4377091529438093 0 -0.38293400131272082 -0.44971448590963131 0 -0.38554242520648091 -0.43819238400717231 0 -0.39607208800642862 -0.44651253151289028 0 -0.41027287653904099 -0.42915817562833569 0 -0.38554242520648091 -0.43819238400717231 0 -0.39607208800642862 -0.44651253151289028 0 -0.41027287653904099 -0.42915817562833569 0 -0.39607208800642862 -0.44651253151289028 0 -0.40485995665033331 -0.45804701192057767 0 -0.38293400131272082 -0.44971448590963131 0 -0.39607208800642862 -0.44651253151289028 0 -0.3930467882704432 -0.45763966575418841 0 -0.39607208800642862 -0.44651253151289028 0 -0.40485995665033331 -0.45804701192057767 0 -0.39607208800642862 -0.44651253151289028 0 -0.40485995665033331 -0.45804701192057767 0 -0.3930467882704432 -0.45763966575418841 0 -0.40485995665033331 -0.45804701192057767 0 -0.3930467882704432 -0.45763966575418841 0 -0.39654655526454569 -0.46846263852393422 0 -0.3930467882704432 -0.45763966575418841 0 -0.39654655526454569 -0.46846263852393422 0 -0.38282279939685859 -0.46639898879402059 0 -0.38293400131272082 -0.44971448590963131 0 -0.3930467882704432 -0.45763966575418841 0 -0.38282279939685859 -0.46639898879402059 0 -0.38293400131272082 -0.44971448590963131 0 -0.38282279939685859 -0.46639898879402059 0 -0.36535057385478381 -0.45230285639076279 0 -0.38282279939685859 -0.46639898879402059 0 -0.38318830888483713 -0.47966333414824092 0 -0.36972453897116919 -0.47027377262069769 0 -0.38282279939685859 -0.46639898879402059 0 -0.38318830888483713 -0.47966333414824092 0 -0.40060672202465258 -0.4807465902147442 0 -0.38318830888483713 -0.47966333414824092 0 -0.38675538139731658 -0.49011399079108359 0 -0.40060672202465258 -0.4807465902147442 0 -0.38675538139731658 -0.49011399079108359 0 -0.39699919821518381 -0.50000000000000544 0 -0.37321573785569989 -0.50000000000000033 0 -0.37696322049074632 -0.49070689952205598 0 -0.38675538139731658 -0.49011399079108359 0 -0.37321573785569989 -0.50000000000000033 0 -0.38675538139731658 -0.49011399079108359 0 -0.37321573785569989 -0.50000000000000033 0 -0.38318830888483713 -0.47966333414824092 0 -0.37696322049074632 -0.49070689952205598 0 -0.38675538139731658 -0.49011399079108359 0 -0.38318830888483713 -0.47966333414824092 0 -0.37696322049074632 -0.49070689952205598 0 -0.37021707442465868 -0.48402431228606602 0 -0.39699919821518381 -0.50000000000000544 0 -0.40060672202465258 -0.4807465902147442 0 -0.38675538139731658 -0.49011399079108359 0 -0.39699919821518381 -0.50000000000000544 0 -0.40060672202465258 -0.4807465902147442 0 -0.39699919821518381 -0.50000000000000544 0 -0.40060672202465258 -0.4807465902147442 0 -0.40706984252834899 -0.48596086598853883 0 -0.38675538139731658 -0.49011399079108359 0 -0.40060672202465258 -0.4807465902147442 0 -0.40485995665033331 -0.45804701192057767 0 -0.39654655526454569 -0.46846263852393422 0 -0.40060672202465258 -0.4807465902147442 0 -0.40485995665033331 -0.45804701192057767 0 -0.40060672202465258 -0.4807465902147442 0 -0.38282279939685859 -0.46639898879402059 0 -0.40060672202465258 -0.4807465902147442 0 -0.39654655526454569 -0.46846263852393422 0 -0.38282279939685859 -0.46639898879402059 0 -0.40060672202465258 -0.4807465902147442 0 -0.40060672202465258 -0.4807465902147442 0 -0.40706984252834899 -0.48596086598853883 0 -0.40060672202465258 -0.4807465902147442 0 -0.4143534699495971 -0.47050768328330078 0 -0.4143534699495971 -0.47050768328330078 0 -0.40706984252834899 -0.48596086598853883 0 -0.42558824586278249 -0.48525384164165059 0 -0.40485995665033331 -0.45804701192057767 0 -0.40060672202465258 -0.4807465902147442 0 -0.4143534699495971 -0.47050768328330078 0 -0.40060672202465258 -0.4807465902147442 0 -0.4143534699495971 -0.47050768328330078 0 -0.40706984252834899 -0.48596086598853883 0 -0.4143534699495971 -0.47050768328330078 0 -0.42558824586278249 -0.48525384164165059 0 -0.4169111099955759 -0.5 0 -0.40706984252834899 -0.48596086598853883 0 -0.42558824586278249 -0.48525384164165059 0 -0.39699919821518381 -0.50000000000000544 0 -0.4169111099955759 -0.5 0 -0.40706984252834899 -0.48596086598853883 0 -0.43935653915708822 -0.47402027420018289 0 -0.42558824586278249 -0.48525384164165059 0 -0.43682302177596799 -0.50000000000000022 0 -0.4169111099955759 -0.5 0 -0.42558824586278249 -0.48525384164165059 0 -0.43682302177596799 -0.50000000000000022 0 -0.42558824586278249 -0.48525384164165059 0 -0.43682302177596799 -0.50000000000000022 0 -0.43935653915708822 -0.47402027420018289 0 -0.4143534699495971 -0.47050768328330078 0 -0.42558824586278249 -0.48525384164165059 0 -0.4143534699495971 -0.47050768328330078 0 -0.43576510246219918 -0.45529637433737807 0 -0.41934578432308472 -0.44580970150314592 0 -0.4143534699495971 -0.47050768328330078 0 -0.43576510246219918 -0.45529637433737807 0 -0.43935653915708822 -0.47402027420018289 0 -0.4143534699495971 -0.47050768328330078 0 -0.43576510246219918 -0.45529637433737807 0 -0.43576510246219918 -0.45529637433737807 0 -0.43220274427772282 -0.43822953761653488 0 -0.41934578432308472 -0.44580970150314592 0 -0.41027287653904099 -0.42915817562833569 0 -0.40485995665033331 -0.45804701192057767 0 -0.41027287653904099 -0.42915817562833569 0 -0.40485995665033331 -0.45804701192057767 0 -0.41934578432308472 -0.44580970150314592 0 -0.41027287653904099 -0.42915817562833569 0 -0.43220274427772282 -0.43822953761653488 0 -0.41934578432308472 -0.44580970150314592 0 -0.40485995665033331 -0.45804701192057767 0 -0.4143534699495971 -0.47050768328330078 0 -0.41934578432308472 -0.44580970150314592 0 -0.40485995665033331 -0.45804701192057767 0 -0.4143534699495971 -0.47050768328330078 0 -0.43759863023700479 -0.26553954768887672 0 -0.42833458773741268 -0.24897925504711041 0 -0.44852487711113981 -0.2487252104022116 0 -0.45250768629249882 -0.26469745862129251 0 -0.43759863023700479 -0.26553954768887672 0 -0.44852487711113981 -0.2487252104022116 0 -0.43759863023700479 -0.26553954768887672 0 -0.45704432264780648 -0.2816444020937402 0 -0.42952630403250308 -0.27817740054673812 0 -0.45250768629249882 -0.26469745862129251 0 -0.43759863023700479 -0.26553954768887672 0 -0.45704432264780648 -0.2816444020937402 0 -0.45704432264780648 -0.2816444020937402 0 -0.42952630403250308 -0.27817740054673812 0 -0.43759863023700479 -0.26553954768887672 0 -0.45704432264780648 -0.2816444020937402 0 -0.46686291517404421 -0.26288067430034179 0 -0.46632185059303471 -0.28281327999109612 0 -0.45704432264780648 -0.2816444020937402 0 -0.45250768629249882 -0.26469745862129251 0 -0.46686291517404421 -0.26288067430034179 0 -0.45704432264780648 -0.2816444020937402 0 -0.46686291517404421 -0.26288067430034179 0 -0.46632185059303471 -0.28281327999109612 0 -0.45250768629249882 -0.26469745862129251 0 -0.46686291517404421 -0.26288067430034179 0 -0.44852487711113981 -0.2487252104022116 0 -0.46686291517404421 -0.26288067430034179 0 -0.46740397975505588 -0.2429480686095877 0 -0.44852487711113981 -0.2487252104022116 0 -0.46686291517404421 -0.26288067430034179 0 -0.46740397975505588 -0.2429480686095877 0 -0.47841705307217702 -0.25438532903871602 0 -0.48726621247348378 -0.26711775609255611 0 -0.4759976650009175 -0.27390283361340811 0 -0.46686291517404421 -0.26288067430034179 0 -0.47841705307217702 -0.25438532903871602 0 -0.4759976650009175 -0.27390283361340811 0 -0.46686291517404421 -0.26288067430034179 0 -0.47841705307217702 -0.25438532903871602 0 -0.46740397975505588 -0.2429480686095877 0 -0.47841705307217702 -0.25438532903871602 0 -0.48726621247348378 -0.26711775609255611 0 -0.49151080831565569 -0.24535854850053429 0 -0.48726621247348378 -0.26711775609255611 0 -0.49151080831565569 -0.24535854850053429 0 -0.5 -0.25865097633557982 0 -0.48726621247348378 -0.26711775609255611 0 -0.49151080831565569 -0.24535854850053429 0 -0.5 -0.25865097633557982 0 -0.4909191597051093 -0.2759981649845924 0 -0.49999999999999589 -0.28705639784512432 0 -0.5 -0.25865097633557982 0 -0.48726621247348378 -0.26711775609255611 0 -0.4909191597051093 -0.2759981649845924 0 -0.48726621247348378 -0.26711775609255611 0 -0.4909191597051093 -0.2759981649845924 0 -0.4759976650009175 -0.27390283361340811 0 -0.46686291517404421 -0.26288067430034179 0 -0.4759976650009175 -0.27390283361340811 0 -0.46632185059303471 -0.28281327999109612 0 -0.4759976650009175 -0.27390283361340811 0 -0.48316092529651522 -0.28493483891811028 0 -0.46632185059303471 -0.28281327999109612 0 -0.4909191597051093 -0.2759981649845924 0 -0.4759976650009175 -0.27390283361340811 0 -0.48316092529651522 -0.28493483891811028 0 -0.48316092529651522 -0.28493483891811028 0 -0.46614889815243382 -0.28918477966541628 0 -0.46632185059303471 -0.28281327999109612 0 -0.48316092529651522 -0.28493483891811028 0 -0.48005593761530052 -0.30116446744195802 0 -0.46614889815243382 -0.28918477966541628 0 -0.48316092529651522 -0.28493483891811028 0 -0.46632185059303471 -0.28281327999109612 0 -0.48005593761530052 -0.30116446744195802 0 -0.46614889815243382 -0.28918477966541628 0 -0.4909191597051093 -0.2759981649845924 0 -0.48316092529651522 -0.28493483891811028 0 -0.49999999999999589 -0.28705639784512432 0 -0.48316092529651522 -0.28493483891811028 0 -0.49999999999999589 -0.28705639784512432 0 -0.48316092529651522 -0.28493483891811028 0 -0.49176880879739271 -0.29951534996635509 0 -0.48005593761530052 -0.30116446744195802 0 -0.48316092529651522 -0.28493483891811028 0 -0.49999999999999589 -0.28705639784512432 0 -0.49176880879739271 -0.29951534996635509 0 -0.49999999999999589 -0.28705639784512432 0 -0.49999999999999778 -0.30887449577771331 0 -0.49176880879739271 -0.29951534996635509 0 -0.49350859265582347 -0.31184398290848681 0 -0.49999999999999778 -0.30887449577771331 0 -0.49176880879739271 -0.29951534996635509 0 -0.49350859265582347 -0.31184398290848681 0 -0.49999999999999778 -0.30887449577771331 0 -0.49350859265582347 -0.31184398290848681 0 -0.49176880879739271 -0.29951534996635509 0 -0.48005593761530052 -0.30116446744195802 0 -0.49350859265582347 -0.31184398290848681 0 -0.48005593761530052 -0.30116446744195802 0 -0.48005593761530052 -0.30116446744195802 0 -0.47258941737129079 -0.30340912544290871 0 -0.4673983143795401 -0.32378810091117199 0 -0.49350859265582347 -0.31184398290848681 0 -0.48005593761530052 -0.30116446744195802 0 -0.4673983143795401 -0.32378810091117199 0 -0.48005593761530052 -0.30116446744195802 0 -0.4673983143795401 -0.32378810091117199 0 -0.48005593761530052 -0.30116446744195802 0 -0.47258941737129079 -0.30340912544290871 0 -0.46614889815243382 -0.28918477966541628 0 -0.47258941737129079 -0.30340912544290871 0 -0.46566548995666102 -0.30699334687194862 0 -0.46614889815243382 -0.28918477966541628 0 -0.47258941737129079 -0.30340912544290871 0 -0.46566548995666102 -0.30699334687194862 0 -0.4673983143795401 -0.32378810091117199 0 -0.46566548995666102 -0.30699334687194862 0 -0.46614889815243382 -0.28918477966541628 0 -0.46566548995666102 -0.30699334687194862 0 -0.46614889815243382 -0.28918477966541628 0 -0.45455249878237658 -0.29544590796445769 0 -0.46566548995666102 -0.30699334687194862 0 -0.45010357505997362 -0.30960766080215357 0 -0.46025578792770477 -0.31575734672713801 0 -0.46566548995666102 -0.30699334687194862 0 -0.45455249878237658 -0.29544590796445769 0 -0.45010357505997362 -0.30960766080215357 0 -0.46614889815243382 -0.28918477966541628 0 -0.45704432264780648 -0.2816444020937402 0 -0.46632185059303471 -0.28281327999109612 0 -0.45704432264780648 -0.2816444020937402 0 -0.46614889815243382 -0.28918477966541628 0 -0.46632185059303471 -0.28281327999109612 0 -0.45704432264780648 -0.2816444020937402 0 -0.46614889815243382 -0.28918477966541628 0 -0.46632185059303471 -0.28281327999109612 0 -0.46614889815243382 -0.28918477966541628 0 -0.45704432264780648 -0.2816444020937402 0 -0.45455249878237658 -0.29544590796445769 0 -0.45455249878237658 -0.29544590796445769 0 -0.4426433812220455 -0.28911143481225438 0 -0.44230479446029891 -0.29938155685512718 0 -0.45704432264780648 -0.2816444020937402 0 -0.4426433812220455 -0.28911143481225438 0 -0.42952630403250308 -0.27817740054673812 0 -0.45704432264780648 -0.2816444020937402 0 -0.45455249878237658 -0.29544590796445769 0 -0.4426433812220455 -0.28911143481225438 0 -0.4426433812220455 -0.28911143481225438 0 -0.44230479446029891 -0.29938155685512718 0 -0.43017570111974468 -0.29473387401557433 0 -0.44230479446029891 -0.29938155685512718 0 -0.45010357505997362 -0.30960766080215357 0 -0.43145796706030137 -0.31609302327280892 0 -0.45455249878237658 -0.29544590796445769 0 -0.44230479446029891 -0.29938155685512718 0 -0.45010357505997362 -0.30960766080215357 0 -0.45010357505997362 -0.30960766080215357 0 -0.44435118887824693 -0.32029098325517907 0 -0.43145796706030137 -0.31609302327280892 0 -0.44435118887824693 -0.32029098325517907 0 -0.4417979516758016 -0.33549895859754397 0 -0.43145796706030137 -0.31609302327280892 0 -0.45248578672557649 -0.31712972163305359 0 -0.44435118887824693 -0.32029098325517907 0 -0.45499375071391351 -0.32461079429656098 0 -0.44435118887824693 -0.32029098325517907 0 -0.4417979516758016 -0.33549895859754397 0 -0.45499375071391351 -0.32461079429656098 0 -0.45010357505997362 -0.30960766080215357 0 -0.45248578672557649 -0.31712972163305359 0 -0.44435118887824693 -0.32029098325517907 0 -0.4417979516758016 -0.33549895859754397 0 -0.46084149525271739 -0.33550744741770949 0 -0.44166092113712191 -0.34675801097398767 0 -0.4417979516758016 -0.33549895859754397 0 -0.45708426714643552 -0.32850625044347509 0 -0.45499375071391351 -0.32461079429656098 0 -0.4417979516758016 -0.33549895859754397 0 -0.45708426714643552 -0.32850625044347509 0 -0.4417979516758016 -0.33549895859754397 0 -0.46084149525271739 -0.33550744741770949 0 -0.45708426714643552 -0.32850625044347509 0 -0.46084149525271739 -0.33550744741770949 0 -0.45708426714643552 -0.32850625044347509 0 -0.46084149525271739 -0.33550744741770949 0 -0.46469649260395429 -0.34269082703366938 0 -0.46469649260395429 -0.34269082703366938 0 -0.46509799656515649 -0.32789957951390442 0 -0.46084149525271739 -0.33550744741770949 0 -0.45708426714643552 -0.32850625044347509 0 -0.46509799656515649 -0.32789957951390442 0 -0.46509799656515649 -0.32789957951390442 0 -0.4673983143795401 -0.32378810091117199 0 -0.47298438791160979 -0.33380296699225659 0 -0.46469649260395429 -0.34269082703366938 0 -0.46509799656515649 -0.32789957951390442 0 -0.47298438791160979 -0.33380296699225659 0 -0.46084149525271739 -0.33550744741770949 0 -0.46469649260395429 -0.34269082703366938 0 -0.46509799656515649 -0.32789957951390442 0 -0.46084149525271739 -0.33550744741770949 0 -0.46509799656515649 -0.32789957951390442 0 -0.46566548995666102 -0.30699334687194862 0 -0.46518208176088971 -0.32480191407848091 0 -0.46025578792770477 -0.31575734672713801 0 -0.46518208176088971 -0.32480191407848091 0 -0.46509799656515649 -0.32789957951390442 0 -0.4673983143795401 -0.32378810091117199 0 -0.45708426714643552 -0.32850625044347509 0 -0.46518208176088971 -0.32480191407848091 0 -0.46509799656515649 -0.32789957951390442 0 -0.45708426714643552 -0.32850625044347509 0 -0.46518208176088971 -0.32480191407848091 0 -0.46518208176088971 -0.32480191407848091 0 -0.45905061344978038 -0.32192637555877313 0 -0.46025578792770477 -0.31575734672713801 0 -0.46509799656515649 -0.32789957951390442 0 -0.4673983143795401 -0.32378810091117199 0 -0.46566548995666102 -0.30699334687194862 0 -0.46518208176088971 -0.32480191407848091 0 -0.46566548995666102 -0.30699334687194862 0 -0.46518208176088971 -0.32480191407848091 0 -0.4673983143795401 -0.32378810091117199 0 -0.46518208176088971 -0.32480191407848091 0 -0.4673983143795401 -0.32378810091117199 0 -0.46518208176088971 -0.32480191407848091 0 -0.46509799656515649 -0.32789957951390442 0 -0.45708426714643552 -0.32850625044347509 0 -0.45905061344978038 -0.32192637555877313 0 -0.45499375071391351 -0.32461079429656098 0 -0.45708426714643552 -0.32850625044347509 0 -0.46518208176088971 -0.32480191407848091 0 -0.45905061344978038 -0.32192637555877313 0 -0.45248578672557649 -0.31712972163305359 0 -0.45905061344978038 -0.32192637555877313 0 -0.45499375071391351 -0.32461079429656098 0 -0.45708426714643552 -0.32850625044347509 0 -0.45499375071391351 -0.32461079429656098 0 -0.45010357505997362 -0.30960766080215357 0 -0.45248578672557649 -0.31712972163305359 0 -0.46025578792770477 -0.31575734672713801 0 -0.45248578672557649 -0.31712972163305359 0 -0.45905061344978038 -0.32192637555877313 0 -0.46025578792770477 -0.31575734672713801 0 -0.49350859265582347 -0.31184398290848681 0 -0.4673983143795401 -0.32378810091117199 0 -0.49350859265582347 -0.31184398290848681 0 -0.4673983143795401 -0.32378810091117199 0 -0.48528576763365822 -0.32837965709332112 0 -0.49350859265582347 -0.31184398290848681 0 -0.50000000000000067 -0.31722014375440483 0 -0.48528576763365822 -0.32837965709332112 0 -0.49350859265582347 -0.31184398290848681 0 -0.49999999999999778 -0.30887449577771331 0 -0.50000000000000067 -0.31722014375440483 0 -0.49350859265582347 -0.31184398290848681 0 -0.50000000000000067 -0.31722014375440483 0 -0.5 -0.34184855010140219 0 -0.48528576763365822 -0.32837965709332112 0 -0.48244336837574059 -0.34625667040921709 0 -0.50000000000000067 -0.31722014375440483 0 -0.5 -0.34184855010140219 0 -0.48528576763365822 -0.32837965709332112 0 -0.48528576763365822 -0.32837965709332112 0 -0.47298438791160979 -0.33380296699225659 0 -0.48244336837574059 -0.34625667040921709 0 -0.46469649260395429 -0.34269082703366938 0 -0.47298438791160979 -0.33380296699225659 0 -0.48244336837574059 -0.34625667040921709 0 -0.4673983143795401 -0.32378810091117199 0 -0.48528576763365822 -0.32837965709332112 0 -0.47298438791160979 -0.33380296699225659 0 -0.46469649260395429 -0.34269082703366938 0 -0.47746603303382162 -0.36648551431137971 0 -0.46469649260395429 -0.34269082703366938 0 -0.48244336837574059 -0.34625667040921709 0 -0.47746603303382162 -0.36648551431137971 0 -0.5 -0.34184855010140219 0 -0.48244336837574059 -0.34625667040921709 0 -0.5 -0.36647695644839973 0 -0.49023557346368879 -0.39028020158908988 0 -0.5 -0.36647695644839973 0 -0.47746603303382162 -0.36648551431137971 0 -0.48244336837574059 -0.34625667040921709 0 -0.5 -0.36647695644839973 0 -0.47746603303382162 -0.36648551431137971 0 -0.46469649260395429 -0.34269082703366938 0 -0.47746603303382162 -0.36648551431137971 0 -0.46389872468676258 -0.37208028234858231 0 -0.46469649260395429 -0.34269082703366938 0 -0.46389872468676258 -0.37208028234858231 0 -0.46084149525271739 -0.33550744741770949 0 -0.44687443252071368 -0.3604715107339253 0 -0.46469649260395429 -0.34269082703366938 0 -0.46389872468676258 -0.37208028234858231 0 -0.44687443252071368 -0.3604715107339253 0 -0.46084149525271739 -0.33550744741770949 0 -0.46469649260395429 -0.34269082703366938 0 -0.44687443252071368 -0.3604715107339253 0 -0.46084149525271739 -0.33550744741770949 0 -0.44166092113712191 -0.34675801097398767 0 -0.44687443252071368 -0.3604715107339253 0 -0.44166092113712191 -0.34675801097398767 0 -0.44687443252071368 -0.3604715107339253 0 -0.43227909003121101 -0.35982047136914941 0 -0.43290736978870797 -0.38543557405013978 0 -0.44687443252071368 -0.3604715107339253 0 -0.43290736978870797 -0.38543557405013978 0 -0.46389872468676258 -0.37208028234858231 0 -0.44687443252071368 -0.3604715107339253 0 -0.43290736978870797 -0.38543557405013978 0 -0.44687443252071368 -0.3604715107339253 0 -0.43126905445349678 -0.37234441644099969 0 -0.43126905445349678 -0.37234441644099969 0 -0.43227909003121101 -0.35982047136914941 0 -0.42109871631645679 -0.37138050304385167 0 -0.44687443252071368 -0.3604715107339253 0 -0.43126905445349678 -0.37234441644099969 0 -0.43227909003121101 -0.35982047136914941 0 -0.43227909003121101 -0.35982047136914941 0 -0.42109871631645679 -0.37138050304385167 0 -0.42651163620516641 -0.34249166675161002 0 -0.42109871631645679 -0.37138050304385167 0 -0.42651163620516641 -0.34249166675161002 0 -0.44166092113712191 -0.34675801097398767 0 -0.43227909003121101 -0.35982047136914941 0 -0.42651163620516641 -0.34249166675161002 0 -0.41182516172249178 -0.36132552398238871 0 -0.42109871631645679 -0.37138050304385167 0 -0.42651163620516641 -0.34249166675161002 0 -0.41461383023869541 -0.34793430496990069 0 -0.41182516172249178 -0.36132552398238871 0 -0.42651163620516641 -0.34249166675161002 0 -0.41461383023869541 -0.34793430496990069 0 -0.42651163620516641 -0.34249166675161002 0 -0.41461383023869541 -0.34793430496990069 0 -0.41182516172249178 -0.36132552398238871 0 -0.40044762838039122 -0.35141860563878929 0 -0.40565570684054059 -0.38199308209152538 0 -0.41182516172249178 -0.36132552398238871 0 -0.42109871631645679 -0.37138050304385167 0 -0.41182516172249178 -0.36132552398238871 0 -0.39329765606401179 -0.36591906924242928 0 -0.40044762838039122 -0.35141860563878929 0 -0.40565570684054059 -0.38199308209152538 0 -0.41182516172249178 -0.36132552398238871 0 -0.39329765606401179 -0.36591906924242928 0 -0.39329765606401179 -0.36591906924242928 0 -0.37934084389988759 -0.34265061145702203 0 -0.37178503006078351 -0.36529734894278382 0 -0.37934084389988759 -0.34265061145702203 0 -0.37178503006078351 -0.36529734894278382 0 -0.40044762838039122 -0.35141860563878929 0 -0.40113500644273398 -0.33730175990772421 0 -0.37934084389988759 -0.34265061145702203 0 -0.39329765606401179 -0.36591906924242928 0 -0.40044762838039122 -0.35141860563878929 0 -0.37934084389988759 -0.34265061145702203 0 -0.41461383023869541 -0.34793430496990069 0 -0.40044762838039122 -0.35141860563878929 0 -0.40113500644273398 -0.33730175990772421 0 -0.37934084389988759 -0.34265061145702203 0 -0.38689665773899168 -0.32000387397126018 0 -0.36688233114378599 -0.32336449739608991 0 -0.40113500644273398 -0.33730175990772421 0 -0.37934084389988759 -0.34265061145702203 0 -0.38689665773899168 -0.32000387397126018 0 -0.37934084389988759 -0.34265061145702203 0 -0.38689665773899168 -0.32000387397126018 0 -0.40113500644273398 -0.33730175990772421 0 -0.38689665773899168 -0.32000387397126018 0 -0.40789019056120701 -0.32425434509037182 0 -0.38689665773899168 -0.32000387397126018 0 -0.40789019056120701 -0.32425434509037182 0 -0.40707665114014369 -0.30892194600540512 0 -0.40789019056120701 -0.32425434509037182 0 -0.43145796706030137 -0.31609302327280892 0 -0.40707665114014369 -0.30892194600540512 0 -0.40789019056120701 -0.32425434509037182 0 -0.41632172610162049 -0.33361501999848298 0 -0.43145796706030137 -0.31609302327280892 0 -0.40113500644273398 -0.33730175990772421 0 -0.40789019056120701 -0.32425434509037182 0 -0.41632172610162049 -0.33361501999848298 0 -0.41461383023869541 -0.34793430496990069 0 -0.40113500644273398 -0.33730175990772421 0 -0.41632172610162049 -0.33361501999848298 0 -0.41461383023869541 -0.34793430496990069 0 -0.41632172610162049 -0.33361501999848298 0 -0.42651163620516641 -0.34249166675161002 0 -0.42651163620516641 -0.34249166675161002 0 -0.43145796706030137 -0.31609302327280892 0 -0.41632172610162049 -0.33361501999848298 0 -0.42651163620516641 -0.34249166675161002 0 -0.43145796706030137 -0.31609302327280892 0 -0.4417979516758016 -0.33549895859754397 0 -0.42651163620516641 -0.34249166675161002 0 -0.43145796706030137 -0.31609302327280892 0 -0.4417979516758016 -0.33549895859754397 0 -0.44166092113712191 -0.34675801097398767 0 -0.42651163620516641 -0.34249166675161002 0 -0.4417979516758016 -0.33549895859754397 0 -0.42651163620516641 -0.34249166675161002 0 -0.43145796706030137 -0.31609302327280892 0 -0.43017570111974468 -0.29473387401557433 0 -0.41791314895342768 -0.29854386426099699 0 -0.44230479446029891 -0.29938155685512718 0 -0.43145796706030137 -0.31609302327280892 0 -0.43017570111974468 -0.29473387401557433 0 -0.4426433812220455 -0.28911143481225438 0 -0.43017570111974468 -0.29473387401557433 0 -0.42952630403250308 -0.27817740054673812 0 -0.43017570111974468 -0.29473387401557433 0 -0.41720861098989159 -0.28709596434552059 0 -0.42952630403250308 -0.27817740054673812 0 -0.43017570111974468 -0.29473387401557433 0 -0.41720861098989159 -0.28709596434552059 0 -0.41791314895342768 -0.29854386426099699 0 -0.41720861098989159 -0.28709596434552059 0 -0.40746740411384702 -0.29327283039071472 0 -0.40200828541719991 -0.2747103989997367 0 -0.41720861098989159 -0.28709596434552059 0 -0.40746740411384702 -0.29327283039071472 0 -0.41791314895342768 -0.29854386426099699 0 -0.43145796706030137 -0.31609302327280892 0 -0.40707665114014369 -0.30892194600540512 0 -0.41791314895342768 -0.29854386426099699 0 -0.40746740411384702 -0.29327283039071472 0 -0.40707665114014369 -0.30892194600540512 0 -0.41791314895342768 -0.29854386426099699 0 -0.38689665773899168 -0.32000387397126018 0 -0.40707665114014369 -0.30892194600540512 0 -0.39445247157809582 -0.29735713648549839 0 -0.40746740411384702 -0.29327283039071472 0 -0.40707665114014369 -0.30892194600540512 0 -0.39445247157809582 -0.29735713648549839 0 -0.38689665773899168 -0.32000387397126018 0 -0.39445247157809582 -0.29735713648549839 0 -0.38689665773899168 -0.32000387397126018 0 -0.39445247157809582 -0.29735713648549839 0 -0.38037557244982101 -0.30048983606452878 0 -0.38689665773899168 -0.32000387397126018 0 -0.38037557244982101 -0.30048983606452878 0 -0.36717694482859942 -0.30680666312855692 0 -0.38037557244982101 -0.30048983606452878 0 -0.37963392111092292 -0.28717625718561318 0 -0.36583676364519269 -0.28965536830050209 0 -0.39445247157809582 -0.29735713648549839 0 -0.38037557244982101 -0.30048983606452878 0 -0.37963392111092292 -0.28717625718561318 0 -0.39445247157809582 -0.29735713648549839 0 -0.37963392111092292 -0.28717625718561318 0 -0.38989203852294579 -0.28290474668297871 0 -0.39445247157809582 -0.29735713648549839 0 -0.40200828541719991 -0.2747103989997367 0 -0.39445247157809582 -0.29735713648549839 0 -0.38989203852294579 -0.28290474668297871 0 -0.40200828541719991 -0.2747103989997367 0 -0.40746740411384702 -0.29327283039071472 0 -0.39445247157809582 -0.29735713648549839 0 -0.40200828541719991 -0.2747103989997367 0 -0.40200828541719991 -0.2747103989997367 0 -0.38347347598556453 -0.27237519406106647 0 -0.39635240346415312 -0.2588415307594677 0 -0.40200828541719991 -0.2747103989997367 0 -0.38347347598556453 -0.27237519406106647 0 -0.38989203852294579 -0.28290474668297871 0 -0.40200828541719991 -0.2747103989997367 0 -0.38347347598556453 -0.27237519406106647 0 -0.37963392111092292 -0.28717625718561318 0 -0.38989203852294579 -0.28290474668297871 0 -0.38347347598556453 -0.27237519406106647 0 -0.37963392111092292 -0.28717625718561318 0 -0.38347347598556453 -0.27237519406106647 0 -0.37177678906656009 -0.27674374449823708 0 -0.37503959140066129 -0.26459183957438442 0 -0.39635240346415312 -0.2588415307594677 0 -0.37188879865155833 -0.25355628243806172 0 -0.39635240346415312 -0.2588415307594677 0 -0.37188879865155833 -0.25355628243806172 0 -0.39635240346415312 -0.2588415307594677 0 -0.37188879865155833 -0.25355628243806172 0 -0.38717538074916041 -0.24205937736322519 0 -0.38347347598556453 -0.27237519406106647 0 -0.37503959140066129 -0.26459183957438442 0 -0.39635240346415312 -0.2588415307594677 0 -0.40200828541719991 -0.2747103989997367 0 -0.39635240346415312 -0.2588415307594677 0 -0.408217828962744 -0.25609878341776537 0 -0.40200828541719991 -0.2747103989997367 0 -0.408217828962744 -0.25609878341776537 0 -0.39635240346415312 -0.2588415307594677 0 -0.408217828962744 -0.25609878341776537 0 -0.40024772215640941 -0.24409137686402119 0 -0.40200828541719991 -0.2747103989997367 0 -0.408217828962744 -0.25609878341776537 0 -0.41495242933860649 -0.26582550498337337 0 -0.41854359540397512 -0.25437636802851898 0 -0.41495242933860649 -0.26582550498337337 0 -0.42494338421596511 -0.26286915695575841 0 -0.408217828962744 -0.25609878341776537 0 -0.41854359540397512 -0.25437636802851898 0 -0.41495242933860649 -0.26582550498337337 0 -0.41720861098989159 -0.28709596434552059 0 -0.40200828541719991 -0.2747103989997367 0 -0.42952630403250308 -0.27817740054673812 0 -0.40200828541719991 -0.2747103989997367 0 -0.42952630403250308 -0.27817740054673812 0 -0.40200828541719991 -0.2747103989997367 0 -0.41495242933860649 -0.26582550498337337 0 -0.42952630403250308 -0.27817740054673812 0 -0.41495242933860649 -0.26582550498337337 0 -0.42952630403250308 -0.27817740054673812 0 -0.42494338421596511 -0.26286915695575841 0 -0.43759863023700479 -0.26553954768887672 0 -0.42952630403250308 -0.27817740054673812 0 -0.42494338421596511 -0.26286915695575841 0 -0.43759863023700479 -0.26553954768887672 0 -0.42494338421596511 -0.26286915695575841 0 -0.42833458773741268 -0.24897925504711041 0 -0.41854359540397512 -0.25437636802851898 0 -0.42494338421596511 -0.26286915695575841 0 -0.42833458773741268 -0.24897925504711041 0 -0.32718050288791878 -0.26654201225671542 0 -0.31102775191496862 -0.26575833111740338 0 -0.30088630869302119 -0.26030325264646792 0 -0.32718050288791878 -0.26654201225671542 0 -0.30088630869302119 -0.26030325264646792 0 -0.31791543562562691 -0.25779809850038998 0 -0.32718050288791878 -0.26654201225671542 0 -0.30088630869302119 -0.26030325264646792 0 -0.31791543562562691 -0.25779809850038998 0 -0.32718050288791878 -0.26654201225671542 0 -0.33848826412072558 -0.26759081806213109 0 -0.31791543562562691 -0.25779809850038998 0 -0.33318887221925242 -0.25470940155190791 0 -0.32296158902636862 -0.2429857857952496 0 -0.32004575743215868 -0.28044253872316682 0 -0.32718050288791878 -0.26654201225671542 0 -0.31102775191496862 -0.26575833111740338 0 -0.32004575743215868 -0.28044253872316682 0 -0.32718050288791878 -0.26654201225671542 0 -0.33229086667473479 -0.27687074181567289 0 -0.32718050288791878 -0.26654201225671542 0 -0.33229086667473479 -0.27687074181567289 0 -0.33848826412072558 -0.26759081806213109 0 -0.33229086667473479 -0.27687074181567289 0 -0.34288917699532068 -0.28066023778384702 0 -0.33848826412072558 -0.26759081806213109 0 -0.31791543562562691 -0.25779809850038998 0 -0.33848826412072558 -0.26759081806213109 0 -0.33318887221925242 -0.25470940155190791 0 -0.33848826412072558 -0.26759081806213109 0 -0.33318887221925242 -0.25470940155190791 0 -0.34619951054131798 -0.25959090535950452 0 -0.31791543562562691 -0.25779809850038998 0 -0.33848826412072558 -0.26759081806213109 0 -0.33318887221925242 -0.25470940155190791 0 -0.34619951054131798 -0.25959090535950452 0 -0.34742519383896342 -0.2482710341166556 0 -0.34619951054131798 -0.25959090535950452 0 -0.3597330667880439 -0.26087091949655722 0 -0.34742519383896342 -0.2482710341166556 0 -0.33848826412072558 -0.26759081806213109 0 -0.34619951054131798 -0.25959090535950452 0 -0.35216215573960469 -0.26651235357027081 0 -0.34619951054131798 -0.25959090535950452 0 -0.3597330667880439 -0.26087091949655722 0 -0.35216215573960469 -0.26651235357027081 0 -0.3597330667880439 -0.26087091949655722 0 -0.35897374542435051 -0.2687016999532742 0 -0.35216215573960469 -0.26651235357027081 0 -0.3597330667880439 -0.26087091949655722 0 -0.37188879865155833 -0.25355628243806172 0 -0.34742519383896342 -0.2482710341166556 0 -0.37188879865155833 -0.25355628243806172 0 -0.34742519383896342 -0.2482710341166556 0 -0.37503959140066129 -0.26459183957438442 0 -0.3597330667880439 -0.26087091949655722 0 -0.36493866655392909 -0.27003998912239668 0 -0.37503959140066129 -0.26459183957438442 0 -0.3597330667880439 -0.26087091949655722 0 -0.37188879865155833 -0.25355628243806172 0 -0.38347347598556453 -0.27237519406106647 0 -0.37177678906656009 -0.27674374449823708 0 -0.36493866655392909 -0.27003998912239668 0 -0.38347347598556453 -0.27237519406106647 0 -0.37503959140066129 -0.26459183957438442 0 -0.36493866655392909 -0.27003998912239668 0 -0.38347347598556453 -0.27237519406106647 0 -0.36493866655392909 -0.27003998912239668 0 -0.37963392111092292 -0.28717625718561318 0 -0.37177678906656009 -0.27674374449823708 0 -0.35906109261582431 -0.27738353762387208 0 -0.36493866655392909 -0.27003998912239668 0 -0.35906109261582431 -0.27738353762387208 0 -0.35897374542435051 -0.2687016999532742 0 -0.3597330667880439 -0.26087091949655722 0 -0.36493866655392909 -0.27003998912239668 0 -0.35897374542435051 -0.2687016999532742 0 -0.37177678906656009 -0.27674374449823708 0 -0.36493866655392909 -0.27003998912239668 0 -0.35906109261582431 -0.27738353762387208 0 -0.33848826412072558 -0.26759081806213109 0 -0.35906109261582431 -0.27738353762387208 0 -0.35216215573960469 -0.26651235357027081 0 -0.34288917699532068 -0.28066023778384702 0 -0.33848826412072558 -0.26759081806213109 0 -0.35906109261582431 -0.27738353762387208 0 -0.33848826412072558 -0.26759081806213109 0 -0.35906109261582431 -0.27738353762387208 0 -0.35906109261582431 -0.27738353762387208 0 -0.35897374542435051 -0.2687016999532742 0 -0.35216215573960469 -0.26651235357027081 0 -0.34288917699532068 -0.28066023778384702 0 -0.35906109261582431 -0.27738353762387208 0 -0.35210722845770348 -0.29248510496485758 0 -0.35906109261582431 -0.27738353762387208 0 -0.35210722845770348 -0.29248510496485758 0 -0.36583676364519269 -0.28965536830050209 0 -0.37963392111092292 -0.28717625718561318 0 -0.35906109261582431 -0.27738353762387208 0 -0.36583676364519269 -0.28965536830050209 0 -0.35210722845770348 -0.29248510496485758 0 -0.36583676364519269 -0.28965536830050209 0 -0.36717694482859942 -0.30680666312855692 0 -0.37963392111092292 -0.28717625718561318 0 -0.35906109261582431 -0.27738353762387208 0 -0.38037557244982101 -0.30048983606452878 0 -0.36583676364519269 -0.28965536830050209 0 -0.36717694482859942 -0.30680666312855692 0 -0.35210722845770348 -0.29248510496485758 0 -0.33262414653510991 -0.31176418600844519 0 -0.35298601431416099 -0.31324965148243189 0 -0.35210722845770348 -0.29248510496485758 0 -0.36717694482859942 -0.30680666312855692 0 -0.35298601431416099 -0.31324965148243189 0 -0.35210722845770348 -0.29248510496485758 0 -0.33262414653510991 -0.31176418600844519 0 -0.35210722845770348 -0.29248510496485758 0 -0.33262414653510991 -0.31176418600844519 0 -0.33285063193755032 -0.28911810225250428 0 -0.34288917699532068 -0.28066023778384702 0 -0.35210722845770348 -0.29248510496485758 0 -0.33285063193755032 -0.28911810225250428 0 -0.33229086667473479 -0.27687074181567289 0 -0.34288917699532068 -0.28066023778384702 0 -0.33285063193755032 -0.28911810225250428 0 -0.32004575743215868 -0.28044253872316682 0 -0.33229086667473479 -0.27687074181567289 0 -0.33285063193755032 -0.28911810225250428 0 -0.32004575743215868 -0.28044253872316682 0 -0.31760851252970779 -0.29527464433084938 0 -0.30045989251645511 -0.28996897090636758 0 -0.32004575743215868 -0.28044253872316682 0 -0.33285063193755032 -0.28911810225250428 0 -0.31760851252970779 -0.29527464433084938 0 -0.33262414653510991 -0.31176418600844519 0 -0.33285063193755032 -0.28911810225250428 0 -0.31760851252970779 -0.29527464433084938 0 -0.33262414653510991 -0.31176418600844519 0 -0.31760851252970779 -0.29527464433084938 0 -0.30896327336253021 -0.31144898735874421 0 -0.33262414653510991 -0.31176418600844519 0 -0.31314106461251612 -0.33104326705203269 0 -0.33168463361977951 -0.34635441994088689 0 -0.33262414653510991 -0.31176418600844519 0 -0.34988296926897461 -0.33639556796814668 0 -0.33168463361977951 -0.34635441994088689 0 -0.33262414653510991 -0.31176418600844519 0 -0.31314106461251612 -0.33104326705203269 0 -0.33262414653510991 -0.31176418600844519 0 -0.31314106461251612 -0.33104326705203269 0 -0.30896327336253021 -0.31144898735874421 0 -0.31314106461251612 -0.33104326705203269 0 -0.33168463361977951 -0.34635441994088689 0 -0.31419232211825032 -0.35134380601239978 0 -0.33262414653510991 -0.31176418600844519 0 -0.35298601431416099 -0.31324965148243189 0 -0.34988296926897461 -0.33639556796814668 0 -0.35298601431416099 -0.31324965148243189 0 -0.36688233114378599 -0.32336449739608991 0 -0.34988296926897461 -0.33639556796814668 0 -0.36717694482859942 -0.30680666312855692 0 -0.35298601431416099 -0.31324965148243189 0 -0.36688233114378599 -0.32336449739608991 0 -0.38689665773899168 -0.32000387397126018 0 -0.36717694482859942 -0.30680666312855692 0 -0.36688233114378599 -0.32336449739608991 0 -0.37934084389988759 -0.34265061145702203 0 -0.36688233114378599 -0.32336449739608991 0 -0.34988296926897461 -0.33639556796814668 0 -0.34988296926897461 -0.33639556796814668 0 -0.35225036438710611 -0.35868620660607398 0 -0.33168463361977951 -0.34635441994088689 0 -0.37934084389988759 -0.34265061145702203 0 -0.34988296926897461 -0.33639556796814668 0 -0.35225036438710611 -0.35868620660607398 0 -0.37934084389988759 -0.34265061145702203 0 -0.35225036438710611 -0.35868620660607398 0 -0.37178503006078351 -0.36529734894278382 0 -0.35225036438710611 -0.35868620660607398 0 -0.37178503006078351 -0.36529734894278382 0 -0.36071832257077457 -0.38334357118609957 0 -0.35225036438710611 -0.35868620660607398 0 -0.36071832257077457 -0.38334357118609957 0 -0.34271089175443131 -0.38260457501684703 0 -0.35225036438710611 -0.35868620660607398 0 -0.33181720305412532 -0.36523713002702102 0 -0.34271089175443131 -0.38260457501684703 0 -0.35225036438710611 -0.35868620660607398 0 -0.33181720305412532 -0.36523713002702102 0 -0.33168463361977951 -0.34635441994088689 0 -0.33181720305412532 -0.36523713002702102 0 -0.33168463361977951 -0.34635441994088689 0 -0.31419232211825032 -0.35134380601239978 0 -0.33181720305412532 -0.36523713002702102 0 -0.31419232211825032 -0.35134380601239978 0 -0.30939950549939282 -0.3690978934046581 0 -0.33181720305412532 -0.36523713002702102 0 -0.30939950549939282 -0.3690978934046581 0 -0.32401801859692708 -0.38535817519234999 0 -0.30939950549939282 -0.3690978934046581 0 -0.29365798268992238 -0.3503223480956203 0 -0.28980797653648732 -0.36859276033581673 0 -0.31419232211825032 -0.35134380601239978 0 -0.30939950549939282 -0.3690978934046581 0 -0.29365798268992238 -0.3503223480956203 0 -0.31314106461251612 -0.33104326705203269 0 -0.31419232211825032 -0.35134380601239978 0 -0.29365798268992238 -0.3503223480956203 0 -0.29365798268992238 -0.3503223480956203 0 -0.28980797653648732 -0.36859276033581673 0 -0.27808032942746391 -0.3546122674790711 0 -0.29365798268992238 -0.3503223480956203 0 -0.27808032942746391 -0.3546122674790711 0 -0.27932417371942792 -0.33839025048429622 0 -0.28980797653648732 -0.36859276033581673 0 -0.26742365395625978 -0.37098214471832791 0 -0.27808032942746391 -0.3546122674790711 0 -0.26742365395625978 -0.37098214471832791 0 -0.26018786023522222 -0.34477383376129439 0 -0.24859176807149699 -0.36341379124355189 0 -0.26742365395625978 -0.37098214471832791 0 -0.26018786023522222 -0.34477383376129439 0 -0.27808032942746391 -0.3546122674790711 0 -0.26018786023522222 -0.34477383376129439 0 -0.27808032942746391 -0.3546122674790711 0 -0.27932417371942792 -0.33839025048429622 0 -0.26018786023522222 -0.34477383376129439 0 -0.27932417371942792 -0.33839025048429622 0 -0.26654007676695379 -0.32496947236408508 0 -0.26018786023522222 -0.34477383376129439 0 -0.26654007676695379 -0.32496947236408508 0 -0.24829220308125771 -0.3217190068292608 0 -0.26654007676695379 -0.32496947236408508 0 -0.26700625476928802 -0.30644022255972631 0 -0.24829220308125771 -0.3217190068292608 0 -0.26654007676695379 -0.32496947236408508 0 -0.28989203311794148 -0.3141796106953319 0 -0.26700625476928802 -0.30644022255972631 0 -0.27932417371942792 -0.33839025048429622 0 -0.26654007676695379 -0.32496947236408508 0 -0.28989203311794148 -0.3141796106953319 0 -0.27932417371942792 -0.33839025048429622 0 -0.28989203311794148 -0.3141796106953319 0 -0.27932417371942792 -0.33839025048429622 0 -0.28989203311794148 -0.3141796106953319 0 -0.29587721691523272 -0.33308090382889449 0 -0.29365798268992238 -0.3503223480956203 0 -0.27932417371942792 -0.33839025048429622 0 -0.29587721691523272 -0.33308090382889449 0 -0.31314106461251612 -0.33104326705203269 0 -0.29365798268992238 -0.3503223480956203 0 -0.31314106461251612 -0.33104326705203269 0 -0.29365798268992238 -0.3503223480956203 0 -0.29587721691523272 -0.33308090382889449 0 -0.28989203311794148 -0.3141796106953319 0 -0.29587721691523272 -0.33308090382889449 0 -0.30896327336253021 -0.31144898735874421 0 -0.31314106461251612 -0.33104326705203269 0 -0.29587721691523272 -0.33308090382889449 0 -0.30896327336253021 -0.31144898735874421 0 -0.28989203311794148 -0.3141796106953319 0 -0.30896327336253021 -0.31144898735874421 0 -0.30045989251645511 -0.28996897090636758 0 -0.31760851252970779 -0.29527464433084938 0 -0.30896327336253021 -0.31144898735874421 0 -0.30045989251645511 -0.28996897090636758 0 -0.30045989251645511 -0.28996897090636758 0 -0.27917106478415571 -0.29467451143819762 0 -0.28275090593856722 -0.27506735821562028 0 -0.28989203311794148 -0.3141796106953319 0 -0.30045989251645511 -0.28996897090636758 0 -0.28989203311794148 -0.3141796106953319 0 -0.30045989251645511 -0.28996897090636758 0 -0.27917106478415571 -0.29467451143819762 0 -0.28989203311794148 -0.3141796106953319 0 -0.26700625476928802 -0.30644022255972631 0 -0.27917106478415571 -0.29467451143819762 0 -0.26700625476928802 -0.30644022255972631 0 -0.25574623757852688 -0.28771639481394162 0 -0.2483608321007934 -0.30510172651090872 0 -0.26700625476928802 -0.30644022255972631 0 -0.24829220308125771 -0.3217190068292608 0 -0.2483608321007934 -0.30510172651090872 0 -0.26700625476928802 -0.30644022255972631 0 -0.25574623757852688 -0.28771639481394162 0 -0.27917106478415571 -0.29467451143819762 0 -0.25574623757852688 -0.28771639481394162 0 -0.27917106478415571 -0.29467451143819762 0 -0.28275090593856722 -0.27506735821562028 0 -0.25574623757852688 -0.28771639481394162 0 -0.25776330632916039 -0.26646224034157201 0 -0.23846605780934529 -0.27259686614731399 0 -0.25574623757852688 -0.28771639481394162 0 -0.25776330632916039 -0.26646224034157201 0 -0.28275090593856722 -0.27506735821562028 0 -0.25776330632916039 -0.26646224034157201 0 -0.27459211449812371 -0.25406449303622042 0 -0.24829792030322589 -0.24782573342597289 0 -0.27459211449812371 -0.25406449303622042 0 -0.24829792030322589 -0.24782573342597289 0 -0.25776330632916039 -0.26646224034157201 0 -0.27459211449812371 -0.25406449303622042 0 -0.28275090593856722 -0.27506735821562028 0 -0.27459211449812371 -0.25406449303622042 0 -0.30088630869302119 -0.26030325264646792 0 -0.29734260713052812 -0.24800537893864891 0 -0.27459211449812371 -0.25406449303622042 0 -0.30088630869302119 -0.26030325264646792 0 -0.27459211449812371 -0.25406449303622042 0 -0.28275090593856722 -0.27506735821562028 0 -0.30088630869302119 -0.26030325264646792 0 -0.28275090593856722 -0.27506735821562028 0 -0.29859218808952248 -0.27449852690015142 0 -0.30088630869302119 -0.26030325264646792 0 -0.30045989251645511 -0.28996897090636758 0 -0.28275090593856722 -0.27506735821562028 0 -0.29859218808952248 -0.27449852690015142 0 -0.30045989251645511 -0.28996897090636758 0 -0.29859218808952248 -0.27449852690015142 0 -0.31102775191496862 -0.26575833111740338 0 -0.30045989251645511 -0.28996897090636758 0 -0.31102775191496862 -0.26575833111740338 0 -0.32004575743215868 -0.28044253872316682 0 -0.30045989251645511 -0.28996897090636758 0 -0.31102775191496862 -0.26575833111740338 0 -0.29859218808952248 -0.27449852690015142 0 -0.31102775191496862 -0.26575833111740338 0 -0.30088630869302119 -0.26030325264646792 0 -0.31791543562562691 -0.25779809850038998 0 -0.29734260713052812 -0.24800537893864891 0 -0.31791543562562691 -0.25779809850038998 0 -0.30088630869302119 -0.26030325264646792 0 -0.29734260713052812 -0.24800537893864891 0 -0.31791543562562691 -0.25779809850038998 0 -0.29734260713052812 -0.24800537893864891 0 -0.30954081865794197 -0.24672666549110259 0 -0.3318088716460379 -0.45698322677472841 0 -0.34093593996772598 -0.4699684614471365 0 -0.34864763239919327 -0.45512971358297222 0 -0.3318088716460379 -0.45698322677472841 0 -0.32586019831200302 -0.47925710374688618 0 -0.3318088716460379 -0.45698322677472841 0 -0.32586019831200302 -0.47925710374688618 0 -0.34093593996772598 -0.4699684614471365 0 -0.3318088716460379 -0.45698322677472841 0 -0.33775754498007149 -0.43470934980257031 0 -0.32707074995953511 -0.4359603364598188 0 -0.3318088716460379 -0.45698322677472841 0 -0.34864763239919327 -0.45512971358297222 0 -0.34787834831270897 -0.43820672398750499 0 -0.3318088716460379 -0.45698322677472841 0 -0.33775754498007149 -0.43470934980257031 0 -0.3318088716460379 -0.45698322677472841 0 -0.34787834831270897 -0.43820672398750499 0 -0.33775754498007149 -0.43470934980257031 0 -0.31605348825732682 -0.45221516566907588 0 -0.32707074995953511 -0.4359603364598188 0 -0.29851212576262542 -0.44286146587924902 0 -0.3318088716460379 -0.45698322677472841 0 -0.31605348825732682 -0.45221516566907588 0 -0.32707074995953511 -0.4359603364598188 0 -0.32707074995953511 -0.4359603364598188 0 -0.29851212576262542 -0.44286146587924902 0 -0.31605348825732682 -0.45221516566907588 0 -0.32003220181022468 -0.46576933048408931 0 -0.3066069397233826 -0.47173991744962263 0 -0.3318088716460379 -0.45698322677472841 0 -0.32003220181022468 -0.46576933048408931 0 -0.32586019831200302 -0.47925710374688618 0 -0.3318088716460379 -0.45698322677472841 0 -0.31605348825732682 -0.45221516566907588 0 -0.32003220181022468 -0.46576933048408931 0 -0.32003220181022468 -0.46576933048408931 0 -0.32586019831200302 -0.47925710374688618 0 -0.3066069397233826 -0.47173991744962263 0 -0.32586019831200302 -0.47925710374688618 0 -0.3066069397233826 -0.47173991744962263 0 -0.32586019831200302 -0.47925710374688618 0 -0.30875242297607841 -0.48701134229986098 0 -0.3066069397233826 -0.47173991744962263 0 -0.32586019831200302 -0.47925710374688618 0 -0.32032040324328942 -0.49999999999999989 0 -0.30875242297607841 -0.48701134229986098 0 -0.32586019831200302 -0.47925710374688618 0 -0.32032040324328942 -0.49999999999999989 0 -0.32032040324328942 -0.49999999999999989 0 -0.34204366254132279 -0.48557572846108432 0 -0.34588000156725418 -0.5 0 -0.32586019831200302 -0.47925710374688618 0 -0.32032040324328942 -0.49999999999999989 0 -0.34204366254132279 -0.48557572846108432 0 -0.32586019831200302 -0.47925710374688618 0 -0.34204366254132279 -0.48557572846108432 0 -0.32586019831200302 -0.47925710374688618 0 -0.34204366254132279 -0.48557572846108432 0 -0.34093593996772598 -0.4699684614471365 0 -0.34204366254132279 -0.48557572846108432 0 -0.34093593996772598 -0.4699684614471365 0 -0.35631933494007162 -0.47289653467001103 0 -0.34204366254132279 -0.48557572846108432 0 -0.35631933494007162 -0.47289653467001103 0 -0.35822712677064278 -0.4918943531752823 0 -0.34588000156725418 -0.5 0 -0.35822712677064278 -0.4918943531752823 0 -0.371439599891219 -0.5 0 -0.34204366254132279 -0.48557572846108432 0 -0.34588000156725418 -0.5 0 -0.35822712677064278 -0.4918943531752823 0 -0.34204366254132279 -0.48557572846108432 0 -0.35822712677064278 -0.4918943531752823 0 -0.37696322049074632 -0.49070689952205598 0 -0.371439599891219 -0.5 0 -0.37021707442465868 -0.48402431228606602 0 -0.35822712677064278 -0.4918943531752823 0 -0.371439599891219 -0.5 0 -0.37021707442465868 -0.48402431228606602 0 -0.37696322049074632 -0.49070689952205598 0 -0.371439599891219 -0.5 0 -0.37321573785569989 -0.50000000000000033 0 -0.35631933494007162 -0.47289653467001103 0 -0.35822712677064278 -0.4918943531752823 0 -0.37021707442465868 -0.48402431228606602 0 -0.35631933494007162 -0.47289653467001103 0 -0.37021707442465868 -0.48402431228606602 0 -0.36972453897116919 -0.47027377262069769 0 -0.38318830888483713 -0.47966333414824092 0 -0.37021707442465868 -0.48402431228606602 0 -0.36972453897116919 -0.47027377262069769 0 -0.38282279939685859 -0.46639898879402059 0 -0.36972453897116919 -0.47027377262069769 0 -0.36535057385478381 -0.45230285639076279 0 -0.35631933494007162 -0.47289653467001103 0 -0.36972453897116919 -0.47027377262069769 0 -0.36535057385478381 -0.45230285639076279 0 -0.38282279939685859 -0.46639898879402059 0 -0.36535057385478381 -0.45230285639076279 0 -0.35631933494007162 -0.47289653467001103 0 -0.34864763239919327 -0.45512971358297222 0 -0.36535057385478381 -0.45230285639076279 0 -0.34093593996772598 -0.4699684614471365 0 -0.35631933494007162 -0.47289653467001103 0 -0.34864763239919327 -0.45512971358297222 0 -0.34787834831270897 -0.43820672398750499 0 -0.36535057385478381 -0.45230285639076279 0 -0.35562937415644491 -0.42905920704038852 0 -0.34787834831270897 -0.43820672398750499 0 -0.36535057385478381 -0.45230285639076279 0 -0.34864763239919327 -0.45512971358297222 0 -0.34787834831270897 -0.43820672398750499 0 -0.36535057385478381 -0.45230285639076279 0 -0.38293400131272082 -0.44971448590963131 0 -0.36535057385478381 -0.45230285639076279 0 -0.37377006278066488 -0.4377091529438093 0 -0.36535057385478381 -0.45230285639076279 0 -0.37377006278066488 -0.4377091529438093 0 -0.35562937415644491 -0.42905920704038852 0 -0.38418799835335438 -0.42215807762095819 0 -0.37377006278066488 -0.4377091529438093 0 -0.35562937415644491 -0.42905920704038852 0 -0.38418799835335438 -0.42215807762095819 0 -0.36857509023582058 -0.4147292750795083 0 -0.35562937415644491 -0.42905920704038852 0 -0.38418799835335438 -0.42215807762095819 0 -0.35562937415644491 -0.42905920704038852 0 -0.36857509023582058 -0.4147292750795083 0 -0.35260224090209807 -0.41277586592377202 0 -0.36387564773377912 -0.40064239848585281 0 -0.36857509023582058 -0.4147292750795083 0 -0.35260224090209807 -0.41277586592377202 0 -0.35562937415644491 -0.42905920704038852 0 -0.35260224090209807 -0.41277586592377202 0 -0.35562937415644491 -0.42905920704038852 0 -0.33915386437917427 -0.421756523646311 0 -0.34787834831270897 -0.43820672398750499 0 -0.35562937415644491 -0.42905920704038852 0 -0.33775754498007149 -0.43470934980257031 0 -0.38546681847730169 -0.39416962699579478 0 -0.37178503006078351 -0.36529734894278382 0 -0.36071832257077457 -0.38334357118609957 0 -0.38546681847730169 -0.39416962699579478 0 -0.36071832257077457 -0.38334357118609957 0 -0.36387564773377912 -0.40064239848585281 0 -0.38546681847730169 -0.39416962699579478 0 -0.36857509023582058 -0.4147292750795083 0 -0.36387564773377912 -0.40064239848585281 0 -0.35260224090209807 -0.41277586592377202 0 -0.34957778707184273 -0.39781372556312478 0 -0.33449353188899272 -0.4056339987736734 0 -0.36071832257077457 -0.38334357118609957 0 -0.36387564773377912 -0.40064239848585281 0 -0.34957778707184273 -0.39781372556312478 0 -0.35260224090209807 -0.41277586592377202 0 -0.36387564773377912 -0.40064239848585281 0 -0.34957778707184273 -0.39781372556312478 0 -0.36071832257077457 -0.38334357118609957 0 -0.34957778707184273 -0.39781372556312478 0 -0.34271089175443131 -0.38260457501684703 0 -0.33181720305412532 -0.36523713002702102 0 -0.34271089175443131 -0.38260457501684703 0 -0.32401801859692708 -0.38535817519234999 0 -0.34957778707184273 -0.39781372556312478 0 -0.34271089175443131 -0.38260457501684703 0 -0.33449353188899272 -0.4056339987736734 0 -0.34271089175443131 -0.38260457501684703 0 -0.33449353188899272 -0.4056339987736734 0 -0.32401801859692708 -0.38535817519234999 0 -0.31839492617719711 -0.40088023200813983 0 -0.32401801859692708 -0.38535817519234999 0 -0.30328347787813731 -0.39444600295388232 0 -0.33449353188899272 -0.4056339987736734 0 -0.31839492617719711 -0.40088023200813983 0 -0.32401801859692708 -0.38535817519234999 0 -0.35562937415644491 -0.42905920704038852 0 -0.33775754498007149 -0.43470934980257031 0 -0.32707074995953511 -0.4359603364598188 0 -0.35562937415644491 -0.42905920704038852 0 -0.32707074995953511 -0.4359603364598188 0 -0.35562937415644491 -0.42905920704038852 0 -0.33915386437917427 -0.421756523646311 0 -0.32707074995953511 -0.4359603364598188 0 -0.33915386437917427 -0.421756523646311 0 -0.32732783539368632 -0.42380952227401031 0 -0.32707074995953511 -0.4359603364598188 0 -0.33449353188899272 -0.4056339987736734 0 -0.33915386437917427 -0.421756523646311 0 -0.32732783539368632 -0.42380952227401031 0 -0.35260224090209807 -0.41277586592377202 0 -0.33449353188899272 -0.4056339987736734 0 -0.33915386437917427 -0.421756523646311 0 -0.33449353188899272 -0.4056339987736734 0 -0.31678405032643547 -0.41621609820107042 0 -0.32732783539368632 -0.42380952227401031 0 -0.33449353188899272 -0.4056339987736734 0 -0.31839492617719711 -0.40088023200813983 0 -0.31678405032643547 -0.41621609820107042 0 -0.31839492617719711 -0.40088023200813983 0 -0.31678405032643547 -0.41621609820107042 0 -0.30593568394408938 -0.40953851850459361 0 -0.31356300456268782 -0.42838548103223412 0 -0.32707074995953511 -0.4359603364598188 0 -0.29851212576262542 -0.44286146587924902 0 -0.31678405032643547 -0.41621609820107042 0 -0.31356300456268782 -0.42838548103223412 0 -0.32732783539368632 -0.42380952227401031 0 -0.31356300456268782 -0.42838548103223412 0 -0.32732783539368632 -0.42380952227401031 0 -0.32707074995953511 -0.4359603364598188 0 -0.31356300456268782 -0.42838548103223412 0 -0.29772794888160092 -0.42229907206711281 0 -0.29851212576262542 -0.44286146587924902 0 -0.31678405032643547 -0.41621609820107042 0 -0.31356300456268782 -0.42838548103223412 0 -0.29772794888160092 -0.42229907206711281 0 -0.31678405032643547 -0.41621609820107042 0 -0.29772794888160092 -0.42229907206711281 0 -0.30593568394408938 -0.40953851850459361 0 -0.29772794888160092 -0.42229907206711281 0 -0.2822671067730344 -0.40872006864417759 0 -0.27721187024288008 -0.42388573206721458 0 -0.29772794888160092 -0.42229907206711281 0 -0.30593568394408938 -0.40953851850459361 0 -0.2822671067730344 -0.40872006864417759 0 -0.29772794888160092 -0.42229907206711281 0 -0.2880291473034754 -0.43032354514519222 0 -0.27721187024288008 -0.42388573206721458 0 -0.2880291473034754 -0.43032354514519222 0 -0.2791240716529389 -0.43703944868845562 0 -0.29851212576262542 -0.44286146587924902 0 -0.29772794888160092 -0.42229907206711281 0 -0.2880291473034754 -0.43032354514519222 0 -0.29851212576262542 -0.44286146587924902 0 -0.2880291473034754 -0.43032354514519222 0 -0.2791240716529389 -0.43703944868845562 0 -0.27721187024288008 -0.42388573206721458 0 -0.30939950549939282 -0.3690978934046581 0 -0.32401801859692708 -0.38535817519234999 0 -0.30328347787813731 -0.39444600295388232 0 -0.30939950549939282 -0.3690978934046581 0 -0.28980797653648732 -0.36859276033581673 0 -0.30328347787813731 -0.39444600295388232 0 -0.30593568394408938 -0.40953851850459361 0 -0.2822671067730344 -0.40872006864417759 0 -0.30328347787813731 -0.39444600295388232 0 -0.31839492617719711 -0.40088023200813983 0 -0.30593568394408938 -0.40953851850459361 0 -0.30328347787813731 -0.39444600295388232 0 -0.2822671067730344 -0.40872006864417759 0 -0.30328347787813731 -0.39444600295388232 0 -0.2819549322175261 -0.38613846629636922 0 -0.2822671067730344 -0.40872006864417759 0 -0.30328347787813731 -0.39444600295388232 0 -0.28980797653648732 -0.36859276033581673 0 -0.30328347787813731 -0.39444600295388232 0 -0.2819549322175261 -0.38613846629636922 0 -0.26742365395625978 -0.37098214471832791 0 -0.2819549322175261 -0.38613846629636922 0 -0.26929207422222901 -0.39599313771728512 0 -0.28980797653648732 -0.36859276033581673 0 -0.26742365395625978 -0.37098214471832791 0 -0.2819549322175261 -0.38613846629636922 0 -0.2822671067730344 -0.40872006864417759 0 -0.2819549322175261 -0.38613846629636922 0 -0.26929207422222901 -0.39599313771728512 0 -0.26834290009450162 -0.41506523487144548 0 -0.24942693876592151 -0.39256369116226442 0 -0.26929207422222901 -0.39599313771728512 0 -0.26834290009450162 -0.41506523487144548 0 -0.24942693876592151 -0.39256369116226442 0 -0.26742365395625978 -0.37098214471832791 0 -0.24942693876592151 -0.39256369116226442 0 -0.24859176807149699 -0.36341379124355189 0 -0.26742365395625978 -0.37098214471832791 0 -0.26929207422222901 -0.39599313771728512 0 -0.24942693876592151 -0.39256369116226442 0 -0.26854725451272288 -0.43146878472923289 0 -0.27721187024288008 -0.42388573206721458 0 -0.2612507356679315 -0.42299413433447303 0 -0.26854725451272288 -0.43146878472923289 0 -0.2791240716529389 -0.43703944868845562 0 -0.26803046922793849 -0.4425854714899019 0 -0.26854725451272288 -0.43146878472923289 0 -0.2791240716529389 -0.43703944868845562 0 -0.27721187024288008 -0.42388573206721458 0 -0.2822671067730344 -0.40872006864417759 0 -0.26929207422222901 -0.39599313771728512 0 -0.26834290009450162 -0.41506523487144548 0 -0.2822671067730344 -0.40872006864417759 0 -0.2612507356679315 -0.42299413433447303 0 -0.2822671067730344 -0.40872006864417759 0 -0.27721187024288008 -0.42388573206721458 0 -0.2612507356679315 -0.42299413433447303 0 -0.2822671067730344 -0.40872006864417759 0 -0.26834290009450162 -0.41506523487144548 0 -0.2612507356679315 -0.42299413433447303 0 -0.26834290009450162 -0.41506523487144548 0 -0.2612507356679315 -0.42299413433447303 0 -0.24579172529632781 -0.41407627841686551 0 -0.26834290009450162 -0.41506523487144548 0 -0.24579172529632781 -0.41407627841686551 0 -0.24942693876592151 -0.39256369116226442 0 -0.2612507356679315 -0.42299413433447303 0 -0.25409922524604939 -0.43580475414170411 0 -0.24023436456282971 -0.43726820002477002 0 -0.2612507356679315 -0.42299413433447303 0 -0.24023436456282971 -0.43726820002477002 0 -0.26854725451272288 -0.43146878472923289 0 -0.2612507356679315 -0.42299413433447303 0 -0.26106576665067882 -0.43148358815803872 0 -0.2612507356679315 -0.42299413433447303 0 -0.26106576665067882 -0.43148358815803872 0 -0.25409922524604939 -0.43580475414170411 0 -0.26854725451272288 -0.43146878472923289 0 -0.26106576665067882 -0.43148358815803872 0 -0.26012329329615669 -0.4387548702505305 0 -0.26106576665067882 -0.43148358815803872 0 -0.25409922524604939 -0.43580475414170411 0 -0.26012329329615669 -0.4387548702505305 0 -0.25409922524604939 -0.43580475414170411 0 -0.25341089069316469 -0.44321748567236863 0 -0.24889171465428109 -0.44082466645846552 0 -0.25016720565404549 -0.44970375179930561 0 -0.25934576249018382 -0.44576697539217358 0 -0.26581291206362551 -0.4529721774039186 0 -0.25409922524604939 -0.43580475414170411 0 -0.25341089069316469 -0.44321748567236863 0 -0.26012329329615669 -0.4387548702505305 0 -0.25341089069316469 -0.44321748567236863 0 -0.25934576249018382 -0.44576697539217358 0 -0.26012329329615669 -0.4387548702505305 0 -0.25341089069316469 -0.44321748567236863 0 -0.24889171465428109 -0.44082466645846552 0 -0.24782237811508079 -0.4470082259950196 0 -0.25341089069316469 -0.44321748567236863 0 -0.25016720565404549 -0.44970375179930561 0 -0.25934576249018382 -0.44576697539217358 0 -0.25341089069316469 -0.44321748567236863 0 -0.25016720565404549 -0.44970375179930561 0 -0.24782237811508079 -0.4470082259950196 0 -0.25934576249018382 -0.44576697539217358 0 -0.26803046922793849 -0.4425854714899019 0 -0.26581291206362551 -0.4529721774039186 0 -0.26854725451272288 -0.43146878472923289 0 -0.26012329329615669 -0.4387548702505305 0 -0.26803046922793849 -0.4425854714899019 0 -0.25934576249018382 -0.44576697539217358 0 -0.26012329329615669 -0.4387548702505305 0 -0.26803046922793849 -0.4425854714899019 0 -0.25016720565404549 -0.44970375179930561 0 -0.25540248516137032 -0.46791669779003903 0 -0.26810042254614241 -0.45670554485509363 0 -0.25016720565404549 -0.44970375179930561 0 -0.26810042254614241 -0.45670554485509363 0 -0.26581291206362551 -0.4529721774039186 0 -0.25016720565404549 -0.44970375179930561 0 -0.26810042254614241 -0.45670554485509363 0 -0.25540248516137032 -0.46791669779003903 0 -0.26810042254614241 -0.45670554485509363 0 -0.28136412097311869 -0.47835277242754598 0 -0.26810042254614241 -0.45670554485509363 0 -0.28735368113476217 -0.4642227311523589 0 -0.26810042254614241 -0.45670554485509363 0 -0.28735368113476217 -0.4642227311523589 0 -0.28136412097311869 -0.47835277242754598 0 -0.26810042254614241 -0.45670554485509363 0 -0.27497062060223371 -0.44992854827821938 0 -0.28735368113476217 -0.4642227311523589 0 -0.26810042254614241 -0.45670554485509363 0 -0.28136412097311869 -0.47835277242754598 0 -0.26810042254614241 -0.45670554485509363 0 -0.26581291206362551 -0.4529721774039186 0 -0.27497062060223371 -0.44992854827821938 0 -0.26810042254614241 -0.45670554485509363 0 -0.26581291206362551 -0.4529721774039186 0 -0.26803046922793849 -0.4425854714899019 0 -0.26581291206362551 -0.4529721774039186 0 -0.27497062060223371 -0.44992854827821938 0 -0.2791240716529389 -0.43703944868845562 0 -0.26803046922793849 -0.4425854714899019 0 -0.27497062060223371 -0.44992854827821938 0 -0.2791240716529389 -0.43703944868845562 0 -0.27497062060223371 -0.44992854827821938 0 -0.29851212576262542 -0.44286146587924902 0 -0.27497062060223371 -0.44992854827821938 0 -0.28735368113476217 -0.4642227311523589 0 -0.29851212576262542 -0.44286146587924902 0 -0.31605348825732682 -0.45221516566907588 0 -0.29851212576262542 -0.44286146587924902 0 -0.3066069397233826 -0.47173991744962263 0 -0.28735368113476217 -0.4642227311523589 0 -0.29851212576262542 -0.44286146587924902 0 -0.3066069397233826 -0.47173991744962263 0 -0.28735368113476217 -0.4642227311523589 0 -0.3066069397233826 -0.47173991744962263 0 -0.30875242297607841 -0.48701134229986098 0 -0.29634675420162282 -0.4840596903027955 0 -0.29462781940009303 -0.4999999999999995 0 -0.32032040324328942 -0.49999999999999989 0 -0.30875242297607841 -0.48701134229986098 0 -0.29462781940009303 -0.4999999999999995 0 -0.30875242297607841 -0.48701134229986098 0 -0.3066069397233826 -0.47173991744962263 0 -0.29634675420162282 -0.4840596903027955 0 -0.28735368113476217 -0.4642227311523589 0 -0.3066069397233826 -0.47173991744962263 0 -0.29634675420162282 -0.4840596903027955 0 -0.28735368113476217 -0.4642227311523589 0 -0.28136412097311869 -0.47835277242754598 0 -0.29634675420162282 -0.4840596903027955 0 -0.28136412097311869 -0.47835277242754598 0 -0.29634675420162282 -0.4840596903027955 0 -0.29462781940009303 -0.4999999999999995 0 -0.28136412097311869 -0.47835277242754598 0 -0.29462781940009303 -0.4999999999999995 0 -0.27482741278505091 -0.49999999999999928 0 -0.28136412097311869 -0.47835277242754598 0 -0.29462781940009303 -0.4999999999999995 0 -0.28136412097311869 -0.47835277242754598 0 -0.27482741278505091 -0.49999999999999928 0 -0.25369484663182812 -0.4856106569785017 0 -0.25540248516137032 -0.46791669779003903 0 -0.28136412097311869 -0.47835277242754598 0 -0.25369484663182812 -0.4856106569785017 0 -0.27482741278505091 -0.49999999999999928 0 -0.25369484663182812 -0.4856106569785017 0 -0.27482741278505091 -0.49999999999999928 0 -0.25369484663182812 -0.4856106569785017 0 -0.24560515134884051 -0.5 0 -0.25369484663182812 -0.4856106569785017 0 -0.24560515134884051 -0.5 0 -0.23256670011773981 -0.48693456683840541 0 -0.25369484663182812 -0.4856106569785017 0 -0.23256228047860489 -0.47122131395700451 0 -0.25369484663182812 -0.4856106569785017 0 -0.23256228047860489 -0.47122131395700451 0 -0.23256670011773981 -0.48693456683840541 0 -0.25540248516137032 -0.46791669779003903 0 -0.25369484663182812 -0.4856106569785017 0 -0.23256228047860489 -0.47122131395700451 0 -0.23256228047860489 -0.47122131395700451 0 -0.23256670011773981 -0.48693456683840541 0 -0.2145883322167953 -0.47784086325652081 0 -0.24560515134884051 -0.5 0 -0.23256670011773981 -0.48693456683840541 0 -0.21638288991263019 -0.5 0 -0.23256670011773981 -0.48693456683840541 0 -0.21638288991263019 -0.5 0 -0.2145883322167953 -0.47784086325652081 0 -0.25016720565404549 -0.44970375179930561 0 -0.23223398876194931 -0.4427019587435162 0 -0.25016720565404549 -0.44970375179930561 0 -0.24782237811508079 -0.4470082259950196 0 -0.23223398876194931 -0.4427019587435162 0 -0.23223398876194931 -0.4427019587435162 0 -0.24023436456282971 -0.43726820002477002 0 -0.24782237811508079 -0.4470082259950196 0 -0.23223398876194931 -0.4427019587435162 0 -0.24023436456282971 -0.43726820002477002 0 -0.24782237811508079 -0.4470082259950196 0 -0.24023436456282971 -0.43726820002477002 0 -0.24889171465428109 -0.44082466645846552 0 -0.24782237811508079 -0.4470082259950196 0 -0.24023436456282971 -0.43726820002477002 0 -0.25409922524604939 -0.43580475414170411 0 -0.24889171465428109 -0.44082466645846552 0 -0.24023436456282971 -0.43726820002477002 0 -0.25016720565404549 -0.44970375179930561 0 -0.25540248516137032 -0.46791669779003903 0 -0.23256228047860489 -0.47122131395700451 0 -0.25016720565404549 -0.44970375179930561 0 -0.23256228047860489 -0.47122131395700451 0 -0.23223398876194931 -0.4427019587435162 0 -0.23256228047860489 -0.47122131395700451 0 -0.21142971432538199 -0.4568319709355072 0 -0.23256228047860489 -0.47122131395700451 0 -0.21142971432538199 -0.4568319709355072 0 -0.2145883322167953 -0.47784086325652081 0 -0.23256228047860489 -0.47122131395700451 0 -0.23223398876194931 -0.4427019587435162 0 -0.21142971432538199 -0.4568319709355072 0 -0.23223398876194931 -0.4427019587435162 0 -0.2150395218425149 -0.44623694531538288 0 -0.21864648006921489 -0.43739689136030713 0 -0.23223398876194931 -0.4427019587435162 0 -0.21142971432538199 -0.4568319709355072 0 -0.23223398876194931 -0.4427019587435162 0 -0.2150395218425149 -0.44623694531538288 0 -0.21142971432538199 -0.4568319709355072 0 -0.23223398876194931 -0.4427019587435162 0 -0.21864648006921489 -0.43739689136030713 0 -0.20584307988778461 -0.4404079688693342 0 -0.2150395218425149 -0.44623694531538288 0 -0.21864648006921489 -0.43739689136030713 0 -0.2150395218425149 -0.44623694531538288 0 -0.2070443461682436 -0.45384593666824968 0 -0.21142971432538199 -0.4568319709355072 0 -0.20584307988778461 -0.4404079688693342 0 -0.2150395218425149 -0.44623694531538288 0 -0.2070443461682436 -0.45384593666824968 0 -0.20584307988778461 -0.4404079688693342 0 -0.2070443461682436 -0.45384593666824968 0 -0.19837268104550679 -0.44756910969929109 0 -0.21142971432538199 -0.4568319709355072 0 -0.19496541511208801 -0.46801432431801693 0 -0.2145883322167953 -0.47784086325652081 0 -0.21142971432538199 -0.4568319709355072 0 -0.19496541511208801 -0.46801432431801693 0 -0.2070443461682436 -0.45384593666824968 0 -0.21142971432538199 -0.4568319709355072 0 -0.19786376727002419 -0.45825224696994099 0 -0.2070443461682436 -0.45384593666824968 0 -0.21142971432538199 -0.4568319709355072 0 -0.21142971432538199 -0.4568319709355072 0 -0.19496541511208801 -0.46801432431801693 0 -0.19786376727002419 -0.45825224696994099 0 -0.19496541511208801 -0.46801432431801693 0 -0.19786376727002419 -0.45825224696994099 0 -0.18259805655571509 -0.46019065160418832 0 -0.19786376727002419 -0.45825224696994099 0 -0.18843826002397041 -0.45021674885902863 0 -0.18259805655571509 -0.46019065160418832 0 -0.2070443461682436 -0.45384593666824968 0 -0.19786376727002419 -0.45825224696994099 0 -0.19837268104550679 -0.44756910969929109 0 -0.19786376727002419 -0.45825224696994099 0 -0.19837268104550679 -0.44756910969929109 0 -0.18843826002397041 -0.45021674885902863 0 -0.19837268104550679 -0.44756910969929109 0 -0.18843826002397041 -0.45021674885902863 0 -0.19267395187751141 -0.43512264712990251 0 -0.20584307988778461 -0.4404079688693342 0 -0.19837268104550679 -0.44756910969929109 0 -0.19267395187751141 -0.43512264712990251 0 -0.21638288991263019 -0.5 0 -0.2145883322167953 -0.47784086325652081 0 -0.19831967632334549 -0.48501037305501288 0 -0.19496541511208801 -0.46801432431801693 0 -0.19831967632334549 -0.48501037305501288 0 -0.1785011158987943 -0.47919667770052682 0 -0.19496541511208801 -0.46801432431801693 0 -0.2145883322167953 -0.47784086325652081 0 -0.19831967632334549 -0.48501037305501288 0 -0.21638288991263019 -0.5 0 -0.19831967632334549 -0.48501037305501288 0 -0.18716062847641979 -0.5 0 -0.19831967632334549 -0.48501037305501288 0 -0.18716062847641979 -0.5 0 -0.1785011158987943 -0.47919667770052682 0 -0.1785011158987943 -0.47919667770052682 0 -0.16209724814220941 -0.4590461085809025 0 -0.14695504645888749 -0.47762839146978459 0 -0.1579383670402095 -0.5 0 -0.1785011158987943 -0.47919667770052682 0 -0.14695504645888749 -0.47762839146978459 0 -0.18716062847641979 -0.5 0 -0.1579383670402095 -0.5 0 -0.1785011158987943 -0.47919667770052682 0 -0.19496541511208801 -0.46801432431801693 0 -0.1785011158987943 -0.47919667770052682 0 -0.19496541511208801 -0.46801432431801693 0 -0.1785011158987943 -0.47919667770052682 0 -0.18259805655571509 -0.46019065160418832 0 -0.18259805655571509 -0.46019065160418832 0 -0.17372253288720441 -0.44641780319671392 0 -0.16209724814220941 -0.4590461085809025 0 -0.1785011158987943 -0.47919667770052682 0 -0.18259805655571509 -0.46019065160418832 0 -0.16209724814220941 -0.4590461085809025 0 -0.18843826002397041 -0.45021674885902863 0 -0.17372253288720441 -0.44641780319671392 0 -0.19267395187751141 -0.43512264712990251 0 -0.18843826002397041 -0.45021674885902863 0 -0.18259805655571509 -0.46019065160418832 0 -0.17372253288720441 -0.44641780319671392 0 -0.17372253288720441 -0.44641780319671392 0 -0.16209724814220941 -0.4590461085809025 0 -0.15065739787207841 -0.43894829420480402 0 -0.16209724814220941 -0.4590461085809025 0 -0.13468821229704461 -0.45479542492255759 0 -0.14695504645888749 -0.47762839146978459 0 -0.16209724814220941 -0.4590461085809025 0 -0.15065739787207841 -0.43894829420480402 0 -0.13468821229704461 -0.45479542492255759 0 -0.13468821229704461 -0.45479542492255759 0 -0.1345104473539645 -0.42931500370420339 0 -0.1213299483320705 -0.43931237329557188 0 -0.15065739787207841 -0.43894829420480402 0 -0.13468821229704461 -0.45479542492255759 0 -0.1345104473539645 -0.42931500370420339 0 -0.13468821229704461 -0.45479542492255759 0 -0.14695504645888749 -0.47762839146978459 0 -0.11378627236628509 -0.47535842982016541 0 -0.12871610560399899 -0.5 0 -0.14695504645888749 -0.47762839146978459 0 -0.11378627236628509 -0.47535842982016541 0 -0.1579383670402095 -0.5 0 -0.12871610560399899 -0.5 0 -0.14695504645888749 -0.47762839146978459 0 -0.1464537878452046 -0.39299673779244959 0 -0.144231686991382 -0.41666594362095161 0 -0.16493980917902479 -0.40731117223772167 0 -0.1464537878452046 -0.39299673779244959 0 -0.14301444004320071 -0.36465521430155667 0 -0.12465997255891 -0.38276017953189728 0 -0.1464537878452046 -0.39299673779244959 0 -0.12465997255891 -0.38276017953189728 0 -0.1464537878452046 -0.39299673779244959 0 -0.12849527719368559 -0.40215976165868139 0 -0.12465997255891 -0.38276017953189728 0 -0.1464537878452046 -0.39299673779244959 0 -0.12849527719368559 -0.40215976165868139 0 -0.144231686991382 -0.41666594362095161 0 -0.1345104473539645 -0.42931500370420339 0 -0.144231686991382 -0.41666594362095161 0 -0.1215569916070609 -0.41782682216274208 0 -0.12849527719368559 -0.40215976165868139 0 -0.144231686991382 -0.41666594362095161 0 -0.1215569916070609 -0.41782682216274208 0 -0.1345104473539645 -0.42931500370420339 0 -0.1213299483320705 -0.43931237329557188 0 -0.1215569916070609 -0.41782682216274208 0 -0.15065739787207841 -0.43894829420480402 0 -0.1345104473539645 -0.42931500370420339 0 -0.144231686991382 -0.41666594362095161 0 -0.15065739787207841 -0.43894829420480402 0 -0.144231686991382 -0.41666594362095161 0 -0.16188479533273159 -0.42648230336984422 0 -0.16493980917902479 -0.40731117223772167 0 -0.16188479533273159 -0.42648230336984422 0 -0.17974055474834449 -0.42255549305370088 0 -0.144231686991382 -0.41666594362095161 0 -0.16493980917902479 -0.40731117223772167 0 -0.16188479533273159 -0.42648230336984422 0 -0.17372253288720441 -0.44641780319671392 0 -0.15065739787207841 -0.43894829420480402 0 -0.16188479533273159 -0.42648230336984422 0 -0.17372253288720441 -0.44641780319671392 0 -0.16188479533273159 -0.42648230336984422 0 -0.17974055474834449 -0.42255549305370088 0 -0.17372253288720441 -0.44641780319671392 0 -0.17974055474834449 -0.42255549305370088 0 -0.19267395187751141 -0.43512264712990251 0 -0.17974055474834449 -0.42255549305370088 0 -0.1849711935514512 -0.40068401472662929 0 -0.193986213615821 -0.41489159323847008 0 -0.16493980917902479 -0.40731117223772167 0 -0.17974055474834449 -0.42255549305370088 0 -0.1849711935514512 -0.40068401472662929 0 -0.16493980917902479 -0.40731117223772167 0 -0.1849711935514512 -0.40068401472662929 0 -0.17175813323669409 -0.38405981299359132 0 -0.1464537878452046 -0.39299673779244959 0 -0.16493980917902479 -0.40731117223772167 0 -0.17175813323669409 -0.38405981299359132 0 -0.1464537878452046 -0.39299673779244959 0 -0.17175813323669409 -0.38405981299359132 0 -0.16285755575045621 -0.36562947982270128 0 -0.1849711935514512 -0.40068401472662929 0 -0.17175813323669409 -0.38405981299359132 0 -0.195190288498544 -0.37944931664364129 0 -0.195190288498544 -0.37944931664364129 0 -0.21020498051997261 -0.39872227777068431 0 -0.1849711935514512 -0.40068401472662929 0 -0.195190288498544 -0.37944931664364129 0 -0.21020498051997261 -0.39872227777068431 0 -0.1849711935514512 -0.40068401472662929 0 -0.21020498051997261 -0.39872227777068431 0 -0.193986213615821 -0.41489159323847008 0 -0.21020498051997261 -0.39872227777068431 0 -0.21255461610144449 -0.37577110475670111 0 -0.22923642716418749 -0.39558239829159181 0 -0.195190288498544 -0.37944931664364129 0 -0.21020498051997261 -0.39872227777068431 0 -0.21255461610144449 -0.37577110475670111 0 -0.20584307988778461 -0.4404079688693342 0 -0.19267395187751141 -0.43512264712990251 0 -0.2085585490957923 -0.4234757303840988 0 -0.19267395187751141 -0.43512264712990251 0 -0.193986213615821 -0.41489159323847008 0 -0.2085585490957923 -0.4234757303840988 0 -0.17974055474834449 -0.42255549305370088 0 -0.19267395187751141 -0.43512264712990251 0 -0.193986213615821 -0.41489159323847008 0 -0.21020498051997261 -0.39872227777068431 0 -0.2085585490957923 -0.4234757303840988 0 -0.2252196725414011 -0.41799523889772722 0 -0.21020498051997261 -0.39872227777068431 0 -0.193986213615821 -0.41489159323847008 0 -0.2085585490957923 -0.4234757303840988 0 -0.21020498051997261 -0.39872227777068431 0 -0.2252196725414011 -0.41799523889772722 0 -0.20584307988778461 -0.4404079688693342 0 -0.2085585490957923 -0.4234757303840988 0 -0.21864648006921489 -0.43739689136030713 0 -0.2085585490957923 -0.4234757303840988 0 -0.21864648006921489 -0.43739689136030713 0 -0.2252196725414011 -0.41799523889772722 0 -0.2252196725414011 -0.41799523889772722 0 -0.24023436456282971 -0.43726820002477002 0 -0.23223398876194931 -0.4427019587435162 0 -0.21864648006921489 -0.43739689136030713 0 -0.2252196725414011 -0.41799523889772722 0 -0.23223398876194931 -0.4427019587435162 0 -0.2252196725414011 -0.41799523889772722 0 -0.24023436456282971 -0.43726820002477002 0 -0.2252196725414011 -0.41799523889772722 0 -0.24579172529632781 -0.41407627841686551 0 -0.22923642716418749 -0.39558239829159181 0 -0.2252196725414011 -0.41799523889772722 0 -0.24579172529632781 -0.41407627841686551 0 -0.24023436456282971 -0.43726820002477002 0 -0.2612507356679315 -0.42299413433447303 0 -0.24579172529632781 -0.41407627841686551 0 -0.24023436456282971 -0.43726820002477002 0 -0.21255461610144449 -0.37577110475670111 0 -0.22923642716418749 -0.39558239829159181 0 -0.23051097743734139 -0.37006214745308319 0 -0.21020498051997261 -0.39872227777068431 0 -0.2252196725414011 -0.41799523889772722 0 -0.22923642716418749 -0.39558239829159181 0 -0.24579172529632781 -0.41407627841686551 0 -0.22923642716418749 -0.39558239829159181 0 -0.24942693876592151 -0.39256369116226442 0 -0.24942693876592151 -0.39256369116226442 0 -0.24859176807149699 -0.36341379124355189 0 -0.23051097743734139 -0.37006214745308319 0 -0.22923642716418749 -0.39558239829159181 0 -0.24942693876592151 -0.39256369116226442 0 -0.23051097743734139 -0.37006214745308319 0 -0.24942693876592151 -0.39256369116226442 0 -0.23051097743734139 -0.37006214745308319 0 -0.23051097743734139 -0.37006214745308319 0 -0.2336109069808863 -0.33973900339101332 0 -0.2115950161087613 -0.34756060374390202 0 -0.23051097743734139 -0.37006214745308319 0 -0.2115950161087613 -0.34756060374390202 0 -0.24859176807149699 -0.36341379124355189 0 -0.23051097743734139 -0.37006214745308319 0 -0.2336109069808863 -0.33973900339101332 0 -0.26018786023522222 -0.34477383376129439 0 -0.24859176807149699 -0.36341379124355189 0 -0.2336109069808863 -0.33973900339101332 0 -0.26018786023522222 -0.34477383376129439 0 -0.24829220308125771 -0.3217190068292608 0 -0.2336109069808863 -0.33973900339101332 0 -0.24829220308125771 -0.3217190068292608 0 -0.23218680832520389 -0.31855792122641102 0 -0.2336109069808863 -0.33973900339101332 0 -0.24829220308125771 -0.3217190068292608 0 -0.23218680832520389 -0.31855792122641102 0 -0.2483608321007934 -0.30510172651090872 0 -0.23218680832520389 -0.31855792122641102 0 -0.2336109069808863 -0.33973900339101332 0 -0.21310155110252341 -0.32012791286427411 0 -0.23218680832520389 -0.31855792122641102 0 -0.21310155110252341 -0.32012791286427411 0 -0.22995512850707761 -0.29886912434323532 0 -0.2336109069808863 -0.33973900339101332 0 -0.21310155110252341 -0.32012791286427411 0 -0.2115950161087613 -0.34756060374390202 0 -0.21310155110252341 -0.32012791286427411 0 -0.1924732285769776 -0.32411123788675722 0 -0.2115950161087613 -0.34756060374390202 0 -0.1924732285769776 -0.32411123788675722 0 -0.20349528125358449 -0.30144331631947191 0 -0.21310155110252341 -0.32012791286427411 0 -0.1924732285769776 -0.32411123788675722 0 -0.20349528125358449 -0.30144331631947191 0 -0.1924732285769776 -0.32411123788675722 0 -0.20349528125358449 -0.30144331631947191 0 -0.1874433684491324 -0.31714936326452881 0 -0.18972912602311021 -0.32520339830644501 0 -0.18918363051316281 -0.32885714841180902 0 -0.18423056762183279 -0.32692838763744969 0 -0.18972912602311021 -0.32520339830644501 0 -0.1924732285769776 -0.32411123788675722 0 -0.18918363051316281 -0.32885714841180902 0 -0.18972912602311021 -0.32520339830644501 0 -0.18827482570473769 -0.32324189057724001 0 -0.1924732285769776 -0.32411123788675722 0 -0.18827482570473769 -0.32324189057724001 0 -0.1924732285769776 -0.32411123788675722 0 -0.1874433684491324 -0.31714936326452881 0 -0.1924732285769776 -0.32411123788675722 0 -0.19089703025285301 -0.33595085389758261 0 -0.2115950161087613 -0.34756060374390202 0 -0.1924732285769776 -0.32411123788675722 0 -0.2115950161087613 -0.34756060374390202 0 -0.18918363051316281 -0.32885714841180902 0 -0.19089703025285301 -0.33595085389758261 0 -0.18423056762183279 -0.32692838763744969 0 -0.1924732285769776 -0.32411123788675722 0 -0.18918363051316281 -0.32885714841180902 0 -0.19089703025285301 -0.33595085389758261 0 -0.19089703025285301 -0.33595085389758261 0 -0.19172486489071841 -0.34898839123345199 0 -0.18099525622620991 -0.34013907811418248 0 -0.19172486489071841 -0.34898839123345199 0 -0.19859000687986 -0.36324988463730401 0 -0.18017559647711551 -0.36017635551659838 0 -0.19089703025285301 -0.33595085389758261 0 -0.19172486489071841 -0.34898839123345199 0 -0.2115950161087613 -0.34756060374390202 0 -0.19172486489071841 -0.34898839123345199 0 -0.19859000687986 -0.36324988463730401 0 -0.2115950161087613 -0.34756060374390202 0 -0.195190288498544 -0.37944931664364129 0 -0.21255461610144449 -0.37577110475670111 0 -0.19859000687986 -0.36324988463730401 0 -0.195190288498544 -0.37944931664364129 0 -0.18017559647711551 -0.36017635551659838 0 -0.195190288498544 -0.37944931664364129 0 -0.19859000687986 -0.36324988463730401 0 -0.18017559647711551 -0.36017635551659838 0 -0.21255461610144449 -0.37577110475670111 0 -0.19859000687986 -0.36324988463730401 0 -0.2115950161087613 -0.34756060374390202 0 -0.21255461610144449 -0.37577110475670111 0 -0.23051097743734139 -0.37006214745308319 0 -0.2115950161087613 -0.34756060374390202 0 -0.22553938660679851 -0.25610747318490112 0 -0.23846605780934529 -0.27259686614731399 0 -0.24829792030322589 -0.24782573342597289 0 -0.25776330632916039 -0.26646224034157201 0 -0.23846605780934529 -0.27259686614731399 0 -0.24829792030322589 -0.24782573342597289 0 -0.22553938660679851 -0.25610747318490112 0 -0.21451733393019151 -0.27877539475218649 0 -0.22553938660679851 -0.25610747318490112 0 -0.23846605780934529 -0.27259686614731399 0 -0.21451733393019151 -0.27877539475218649 0 -0.23846605780934529 -0.27259686614731399 0 -0.22995512850707761 -0.29886912434323532 0 -0.21451733393019151 -0.27877539475218649 0 -0.25574623757852688 -0.28771639481394162 0 -0.23846605780934529 -0.27259686614731399 0 -0.22995512850707761 -0.29886912434323532 0 -0.23218680832520389 -0.31855792122641102 0 -0.2483608321007934 -0.30510172651090872 0 -0.22995512850707761 -0.29886912434323532 0 -0.25574623757852688 -0.28771639481394162 0 -0.2483608321007934 -0.30510172651090872 0 -0.22995512850707761 -0.29886912434323532 0 -0.21310155110252341 -0.32012791286427411 0 -0.22995512850707761 -0.29886912434323532 0 -0.20349528125358449 -0.30144331631947191 0 -0.20349528125358449 -0.30144331631947191 0 -0.1796452337680291 -0.29005170399417951 0 -0.18074325826612431 -0.30678554573914613 0 -0.20349528125358449 -0.30144331631947191 0 -0.18074325826612431 -0.30678554573914613 0 -0.1874433684491324 -0.31714936326452881 0 -0.20349528125358449 -0.30144331631947191 0 -0.1945361927942704 -0.28046095647545699 0 -0.1796452337680291 -0.29005170399417951 0 -0.22995512850707761 -0.29886912434323532 0 -0.20349528125358449 -0.30144331631947191 0 -0.21451733393019151 -0.27877539475218649 0 -0.20349528125358449 -0.30144331631947191 0 -0.21451733393019151 -0.27877539475218649 0 -0.20349528125358449 -0.30144331631947191 0 -0.21451733393019151 -0.27877539475218649 0 -0.1945361927942704 -0.28046095647545699 0 -0.22553938660679851 -0.25610747318490112 0 -0.21451733393019151 -0.27877539475218649 0 -0.20025091306526199 -0.26319790328966358 0 -0.1945361927942704 -0.28046095647545699 0 -0.20025091306526199 -0.26319790328966358 0 -0.183286160437521 -0.26623984999405959 0 -0.21451733393019151 -0.27877539475218649 0 -0.1945361927942704 -0.28046095647545699 0 -0.20025091306526199 -0.26319790328966358 0 -0.20025091306526199 -0.26319790328966358 0 -0.1835419718658336 -0.246507750115222 0 -0.20445492338319379 -0.24460995720693859 0 -0.20025091306526199 -0.26319790328966358 0 -0.183286160437521 -0.26623984999405959 0 -0.1835419718658336 -0.246507750115222 0 -0.22553938660679851 -0.25610747318490112 0 -0.20025091306526199 -0.26319790328966358 0 -0.20445492338319379 -0.24460995720693859 0 -0.1670977427993986 -0.25356762789353199 0 -0.16316918780325229 -0.26396388613449301 0 -0.183286160437521 -0.26623984999405959 0 -0.1670977427993986 -0.25356762789353199 0 -0.16316918780325229 -0.26396388613449301 0 -0.14952075690691799 -0.25482514058981742 0 -0.1670977427993986 -0.25356762789353199 0 -0.183286160437521 -0.26623984999405959 0 -0.1835419718658336 -0.246507750115222 0 -0.183286160437521 -0.26623984999405959 0 -0.1778403831513026 -0.27866342007153888 0 -0.1644986208848026 -0.27511341803742551 0 -0.1945361927942704 -0.28046095647545699 0 -0.183286160437521 -0.26623984999405959 0 -0.1778403831513026 -0.27866342007153888 0 -0.183286160437521 -0.26623984999405959 0 -0.1644986208848026 -0.27511341803742551 0 -0.16316918780325229 -0.26396388613449301 0 -0.183286160437521 -0.26623984999405959 0 -0.1644986208848026 -0.27511341803742551 0 -0.1778403831513026 -0.27866342007153888 0 -0.1644986208848026 -0.27511341803742551 0 -0.16989250273787121 -0.28564236672709292 0 -0.16316918780325229 -0.26396388613449301 0 -0.1644986208848026 -0.27511341803742551 0 -0.15144265798762149 -0.27007339415763049 0 -0.15867633422500879 -0.28674259306594019 0 -0.16880194166021301 -0.29764069846638019 0 -0.15618876264517831 -0.30347108645123499 0 -0.1644986208848026 -0.27511341803742551 0 -0.15867633422500879 -0.28674259306594019 0 -0.1457110813320846 -0.28398698608079231 0 -0.15867633422500879 -0.28674259306594019 0 -0.16989250273787121 -0.28564236672709292 0 -0.16880194166021301 -0.29764069846638019 0 -0.1644986208848026 -0.27511341803742551 0 -0.15867633422500879 -0.28674259306594019 0 -0.16989250273787121 -0.28564236672709292 0 -0.1945361927942704 -0.28046095647545699 0 -0.1778403831513026 -0.27866342007153888 0 -0.1796452337680291 -0.29005170399417951 0 -0.1778403831513026 -0.27866342007153888 0 -0.16989250273787121 -0.28564236672709292 0 -0.1796452337680291 -0.29005170399417951 0 -0.16989250273787121 -0.28564236672709292 0 -0.1796452337680291 -0.29005170399417951 0 -0.16880194166021301 -0.29764069846638019 0 -0.1796452337680291 -0.29005170399417951 0 -0.18074325826612431 -0.30678554573914613 0 -0.16880194166021301 -0.29764069846638019 0 -0.18074325826612431 -0.30678554573914613 0 -0.16880194166021301 -0.29764069846638019 0 -0.1684363591552574 -0.31409315575695312 0 -0.15618876264517831 -0.30347108645123499 0 -0.1684363591552574 -0.31409315575695312 0 -0.15207051190268109 -0.31750178503778131 0 -0.16880194166021301 -0.29764069846638019 0 -0.15618876264517831 -0.30347108645123499 0 -0.1684363591552574 -0.31409315575695312 0 -0.15618876264517831 -0.30347108645123499 0 -0.1432614682336692 -0.30800224458609998 0 -0.15207051190268109 -0.31750178503778131 0 -0.15618876264517831 -0.30347108645123499 0 -0.1432614682336692 -0.30800224458609998 0 -0.14708490469298841 -0.29661572407283998 0 -0.1432614682336692 -0.30800224458609998 0 -0.13415248522291859 -0.30314904847925572 0 -0.14708490469298841 -0.29661572407283998 0 -0.1432614682336692 -0.30800224458609998 0 -0.13415248522291859 -0.30314904847925572 0 -0.13717142947696839 -0.31915664083778778 0 -0.13415248522291859 -0.30314904847925572 0 -0.1457110813320846 -0.28398698608079231 0 -0.1192769417620527 -0.29647213004997958 0 -0.1457110813320846 -0.28398698608079231 0 -0.1212615555763287 -0.27879053642319629 0 -0.1457110813320846 -0.28398698608079231 0 -0.1192769417620527 -0.29647213004997958 0 -0.1457110813320846 -0.28398698608079231 0 -0.1212615555763287 -0.27879053642319629 0 -0.1192769417620527 -0.29647213004997958 0 -0.15867633422500879 -0.28674259306594019 0 -0.15618876264517831 -0.30347108645123499 0 -0.14708490469298841 -0.29661572407283998 0 -0.13415248522291859 -0.30314904847925572 0 -0.1457110813320846 -0.28398698608079231 0 -0.14708490469298841 -0.29661572407283998 0 -0.15867633422500879 -0.28674259306594019 0 -0.1457110813320846 -0.28398698608079231 0 -0.14708490469298841 -0.29661572407283998 0 -0.15867633422500879 -0.28674259306594019 0 -0.1457110813320846 -0.28398698608079231 0 -0.1644986208848026 -0.27511341803742551 0 -0.1457110813320846 -0.28398698608079231 0 -0.1644986208848026 -0.27511341803742551 0 -0.1457110813320846 -0.28398698608079231 0 -0.15144265798762149 -0.27007339415763049 0 -0.1457110813320846 -0.28398698608079231 0 -0.15144265798762149 -0.27007339415763049 0 -0.13717303167765971 -0.26878616747396578 0 -0.13717303167765971 -0.26878616747396578 0 -0.1241395055170023 -0.26405765775817802 0 -0.1212615555763287 -0.27879053642319629 0 -0.1457110813320846 -0.28398698608079231 0 -0.13717303167765971 -0.26878616747396578 0 -0.1212615555763287 -0.27879053642319629 0 -0.13717303167765971 -0.26878616747396578 0 -0.13190502157042211 -0.25072617741863201 0 -0.1241395055170023 -0.26405765775817802 0 -0.13717303167765971 -0.26878616747396578 0 -0.13190502157042211 -0.25072617741863201 0 -0.14952075690691799 -0.25482514058981742 0 -0.15144265798762149 -0.27007339415763049 0 -0.13717303167765971 -0.26878616747396578 0 -0.14952075690691799 -0.25482514058981742 0 -0.16316918780325229 -0.26396388613449301 0 -0.15144265798762149 -0.27007339415763049 0 -0.14952075690691799 -0.25482514058981742 0 -0.16285755575045621 -0.36562947982270128 0 -0.16516090445568701 -0.34090339438955553 0 -0.14301444004320071 -0.36465521430155667 0 -0.16285755575045621 -0.36562947982270128 0 -0.18017559647711551 -0.36017635551659838 0 -0.16516090445568701 -0.34090339438955553 0 -0.17175813323669409 -0.38405981299359132 0 -0.16285755575045621 -0.36562947982270128 0 -0.18017559647711551 -0.36017635551659838 0 -0.17175813323669409 -0.38405981299359132 0 -0.195190288498544 -0.37944931664364129 0 -0.18017559647711551 -0.36017635551659838 0 -0.18017559647711551 -0.36017635551659838 0 -0.18099525622620991 -0.34013907811418248 0 -0.16516090445568701 -0.34090339438955553 0 -0.18017559647711551 -0.36017635551659838 0 -0.16516090445568701 -0.34090339438955553 0 -0.19172486489071841 -0.34898839123345199 0 -0.18017559647711551 -0.36017635551659838 0 -0.18099525622620991 -0.34013907811418248 0 -0.18099525622620991 -0.34013907811418248 0 -0.17378257365905261 -0.3278870860104578 0 -0.16516090445568701 -0.34090339438955553 0 -0.19089703025285301 -0.33595085389758261 0 -0.18099525622620991 -0.34013907811418248 0 -0.18423056762183279 -0.32692838763744969 0 -0.18099525622620991 -0.34013907811418248 0 -0.18423056762183279 -0.32692838763744969 0 -0.17378257365905261 -0.3278870860104578 0 -0.18074325826612431 -0.30678554573914613 0 -0.1874433684491324 -0.31714936326452881 0 -0.17820051618050189 -0.31780971428005528 0 -0.18827482570473769 -0.32324189057724001 0 -0.1874433684491324 -0.31714936326452881 0 -0.18423056762183279 -0.32692838763744969 0 -0.1874433684491324 -0.31714936326452881 0 -0.18423056762183279 -0.32692838763744969 0 -0.17820051618050189 -0.31780971428005528 0 -0.18972912602311021 -0.32520339830644501 0 -0.18827482570473769 -0.32324189057724001 0 -0.18423056762183279 -0.32692838763744969 0 -0.18423056762183279 -0.32692838763744969 0 -0.17378257365905261 -0.3278870860104578 0 -0.17820051618050189 -0.31780971428005528 0 -0.18074325826612431 -0.30678554573914613 0 -0.17820051618050189 -0.31780971428005528 0 -0.1684363591552574 -0.31409315575695312 0 -0.17378257365905261 -0.3278870860104578 0 -0.17820051618050189 -0.31780971428005528 0 -0.1684363591552574 -0.31409315575695312 0 -0.1684363591552574 -0.31409315575695312 0 -0.16130857202940679 -0.32635720632559811 0 -0.15207051190268109 -0.31750178503778131 0 -0.17378257365905261 -0.3278870860104578 0 -0.1684363591552574 -0.31409315575695312 0 -0.16130857202940679 -0.32635720632559811 0 -0.16130857202940679 -0.32635720632559811 0 -0.16516090445568701 -0.34090339438955553 0 -0.14709251097435599 -0.33140061043324259 0 -0.17378257365905261 -0.3278870860104578 0 -0.16130857202940679 -0.32635720632559811 0 -0.16516090445568701 -0.34090339438955553 0 -0.16516090445568701 -0.34090339438955553 0 -0.14709251097435599 -0.33140061043324259 0 -0.1406618473891891 -0.34639876141345272 0 -0.16130857202940679 -0.32635720632559811 0 -0.14709251097435599 -0.33140061043324259 0 -0.15207051190268109 -0.31750178503778131 0 -0.14709251097435599 -0.33140061043324259 0 -0.15207051190268109 -0.31750178503778131 0 -0.13717142947696839 -0.31915664083778778 0 -0.1432614682336692 -0.30800224458609998 0 -0.15207051190268109 -0.31750178503778131 0 -0.13717142947696839 -0.31915664083778778 0 -0.13415248522291859 -0.30314904847925572 0 -0.13717142947696839 -0.31915664083778778 0 -0.12074189044222509 -0.3175124367468366 0 -0.13717142947696839 -0.31915664083778778 0 -0.1257097100859606 -0.33737371974351132 0 -0.12074189044222509 -0.3175124367468366 0 -0.14709251097435599 -0.33140061043324259 0 -0.1257097100859606 -0.33737371974351132 0 -0.1406618473891891 -0.34639876141345272 0 -0.14709251097435599 -0.33140061043324259 0 -0.13717142947696839 -0.31915664083778778 0 -0.1257097100859606 -0.33737371974351132 0 -0.1406618473891891 -0.34639876141345272 0 -0.14301444004320071 -0.36465521430155667 0 -0.12088664471827019 -0.35799882911990683 0 -0.1257097100859606 -0.33737371974351132 0 -0.1406618473891891 -0.34639876141345272 0 -0.12088664471827019 -0.35799882911990683 0 -0.16516090445568701 -0.34090339438955553 0 -0.1406618473891891 -0.34639876141345272 0 -0.14301444004320071 -0.36465521430155667 0 -0.1464537878452046 -0.39299673779244959 0 -0.16285755575045621 -0.36562947982270128 0 -0.14301444004320071 -0.36465521430155667 0 -0.14301444004320071 -0.36465521430155667 0 -0.12088664471827019 -0.35799882911990683 0 -0.12465997255891 -0.38276017953189728 0 -0.1028661572726154 -0.37252362127134497 0 -0.12088664471827019 -0.35799882911990683 0 -0.12465997255891 -0.38276017953189728 0 -0.1028661572726154 -0.37252362127134497 0 -0.1040966563146542 -0.35414840256788849 0 -0.09286042927860455 -0.3548202832813398 0 -0.1028661572726154 -0.37252362127134497 0 -0.1040966563146542 -0.35414840256788849 0 -0.12088664471827019 -0.35799882911990683 0 -0.098066318519519358 -0.34387940146386209 0 -0.1040966563146542 -0.35414840256788849 0 -0.09286042927860455 -0.3548202832813398 0 -0.098066318519519358 -0.34387940146386209 0 -0.1040966563146542 -0.35414840256788849 0 -0.1124611322471978 -0.34464897453944221 0 -0.1040966563146542 -0.35414840256788849 0 -0.1124611322471978 -0.34464897453944221 0 -0.12088664471827019 -0.35799882911990683 0 -0.1257097100859606 -0.33737371974351132 0 -0.1124611322471978 -0.34464897453944221 0 -0.12088664471827019 -0.35799882911990683 0 -0.1257097100859606 -0.33737371974351132 0 -0.12074189044222509 -0.3175124367468366 0 -0.10674985038553921 -0.33196240454032439 0 -0.1257097100859606 -0.33737371974351132 0 -0.1124611322471978 -0.34464897453944221 0 -0.10674985038553921 -0.33196240454032439 0 -0.12074189044222509 -0.3175124367468366 0 -0.1061318788509036 -0.31662987471019099 0 -0.10674985038553921 -0.33196240454032439 0 -0.1061318788509036 -0.31662987471019099 0 -0.086917360709287794 -0.33261017244288699 0 -0.092842802192021207 -0.30895727401916778 0 -0.1061318788509036 -0.31662987471019099 0 -0.10674985038553921 -0.33196240454032439 0 -0.086917360709287794 -0.33261017244288699 0 -0.098066318519519358 -0.34387940146386209 0 -0.10674985038553921 -0.33196240454032439 0 -0.086917360709287794 -0.33261017244288699 0 -0.098066318519519358 -0.34387940146386209 0 -0.1124611322471978 -0.34464897453944221 0 -0.10674985038553921 -0.33196240454032439 0 -0.098066318519519358 -0.34387940146386209 0 -0.086917360709287794 -0.33261017244288699 0 -0.085312482181832572 -0.34508617141129111 0 -0.086917360709287794 -0.33261017244288699 0 -0.079469528485788477 -0.32480420047095349 0 -0.071709288419854716 -0.33620693743340258 0 -0.086917360709287794 -0.33261017244288699 0 -0.071709288419854716 -0.33620693743340258 0 -0.086917360709287794 -0.33261017244288699 0 -0.071709288419854716 -0.33620693743340258 0 -0.085312482181832572 -0.34508617141129111 0 -0.086917360709287794 -0.33261017244288699 0 -0.079469528485788477 -0.32480420047095349 0 -0.092842802192021207 -0.30895727401916778 0 -0.06640866262199005 -0.32144241798835671 0 -0.092842802192021207 -0.30895727401916778 0 -0.079469528485788477 -0.32480420047095349 0 -0.06640866262199005 -0.32144241798835671 0 -0.092842802192021207 -0.30895727401916778 0 -0.079469528485788477 -0.32480420047095349 0 -0.06640866262199005 -0.32144241798835671 0 -0.071709288419854716 -0.33620693743340258 0 -0.06640866262199005 -0.32144241798835671 0 -0.071709288419854716 -0.33620693743340258 0 -0.06640866262199005 -0.32144241798835671 0 -0.071709288419854716 -0.33620693743340258 0 -0.062459090678893589 -0.3313646601907651 0 -0.071709288419854716 -0.33620693743340258 0 -0.056357985279413228 -0.33983757704659923 0 -0.062459090678893589 -0.3313646601907651 0 -0.071709288419854716 -0.33620693743340258 0 -0.056357985279413228 -0.33983757704659923 0 -0.071709288419854716 -0.33620693743340258 0 -0.065631420931502565 -0.34633528279781151 0 -0.056357985279413228 -0.33983757704659923 0 -0.065631420931502565 -0.34633528279781151 0 -0.0656707524679572 -0.35505293413804839 0 -0.056357985279413228 -0.33983757704659923 0 -0.071709288419854716 -0.33620693743340258 0 -0.065631420931502565 -0.34633528279781151 0 -0.068787657558785006 -0.35424368257319561 0 -0.071709288419854716 -0.33620693743340258 0 -0.068787657558785006 -0.35424368257319561 0 -0.081072341986320295 -0.36228706301079372 0 -0.071709288419854716 -0.33620693743340258 0 -0.081072341986320295 -0.36228706301079372 0 -0.068787657558785006 -0.35424368257319561 0 -0.0656707524679572 -0.35505293413804839 0 -0.081072341986320295 -0.36228706301079372 0 -0.0656707524679572 -0.35505293413804839 0 -0.081072341986320295 -0.36228706301079372 0 -0.065631420931502565 -0.34633528279781151 0 -0.068787657558785006 -0.35424368257319561 0 -0.0656707524679572 -0.35505293413804839 0 -0.068787657558785006 -0.35424368257319561 0 -0.0656707524679572 -0.35505293413804839 0 -0.0656707524679572 -0.35505293413804839 0 -0.067810616814213173 -0.37381830527796678 0 -0.081072341986320295 -0.36228706301079372 0 -0.1028661572726154 -0.37252362127134497 0 -0.081072341986320295 -0.36228706301079372 0 -0.085896755113254841 -0.37572512563582677 0 -0.1028661572726154 -0.37252362127134497 0 -0.081072341986320295 -0.36228706301079372 0 -0.067810616814213173 -0.37381830527796678 0 -0.081072341986320295 -0.36228706301079372 0 -0.085896755113254841 -0.37572512563582677 0 -0.1028661572726154 -0.37252362127134497 0 -0.081072341986320295 -0.36228706301079372 0 -0.09286042927860455 -0.3548202832813398 0 -0.081072341986320295 -0.36228706301079372 0 -0.085896755113254841 -0.37572512563582677 0 -0.081072341986320295 -0.36228706301079372 0 -0.09286042927860455 -0.3548202832813398 0 -0.085312482181832572 -0.34508617141129111 0 -0.071709288419854716 -0.33620693743340258 0 -0.081072341986320295 -0.36228706301079372 0 -0.085312482181832572 -0.34508617141129111 0 -0.098066318519519358 -0.34387940146386209 0 -0.09286042927860455 -0.3548202832813398 0 -0.085312482181832572 -0.34508617141129111 0 -0.11634393893025979 -0.25228084384553928 0 -0.1111609307102279 -0.26619814818480692 0 -0.09461907742776908 -0.2483346929327824 0 -0.096812029820572576 -0.27359408676560082 0 -0.09461907742776908 -0.2483346929327824 0 -0.1111609307102279 -0.26619814818480692 0 -0.096812029820572576 -0.27359408676560082 0 -0.09461907742776908 -0.2483346929327824 0 -0.13190502157042211 -0.25072617741863201 0 -0.11634393893025979 -0.25228084384553928 0 -0.1241395055170023 -0.26405765775817802 0 -0.11634393893025979 -0.25228084384553928 0 -0.1241395055170023 -0.26405765775817802 0 -0.1111609307102279 -0.26619814818480692 0 -0.1111609307102279 -0.26619814818480692 0 -0.1212615555763287 -0.27879053642319629 0 -0.096812029820572576 -0.27359408676560082 0 -0.1241395055170023 -0.26405765775817802 0 -0.1111609307102279 -0.26619814818480692 0 -0.1212615555763287 -0.27879053642319629 0 -0.1212615555763287 -0.27879053642319629 0 -0.096812029820572576 -0.27359408676560082 0 -0.10845815597273981 -0.28716581082212722 0 -0.1212615555763287 -0.27879053642319629 0 -0.096812029820572576 -0.27359408676560082 0 -0.096812029820572576 -0.27359408676560082 0 -0.097643708131475437 -0.28317372473050312 0 -0.088010229302250442 -0.28030547870135458 0 -0.096812029820572576 -0.27359408676560082 0 -0.097643708131475437 -0.28317372473050312 0 -0.10845815597273981 -0.28716581082212722 0 -0.092842802192021207 -0.30895727401916778 0 -0.088392788306270453 -0.29279827998129371 0 -0.097643708131475437 -0.28317372473050312 0 -0.10845815597273981 -0.28716581082212722 0 -0.088392788306270453 -0.29279827998129371 0 -0.096812029820572576 -0.27359408676560082 0 -0.097643708131475437 -0.28317372473050312 0 -0.10845815597273981 -0.28716581082212722 0 -0.1212615555763287 -0.27879053642319629 0 -0.10845815597273981 -0.28716581082212722 0 -0.1192769417620527 -0.29647213004997958 0 -0.13415248522291859 -0.30314904847925572 0 -0.12074189044222509 -0.3175124367468366 0 -0.1192769417620527 -0.29647213004997958 0 -0.12074189044222509 -0.3175124367468366 0 -0.1061318788509036 -0.31662987471019099 0 -0.1192769417620527 -0.29647213004997958 0 -0.1061318788509036 -0.31662987471019099 0 -0.1192769417620527 -0.29647213004997958 0 -0.092842802192021207 -0.30895727401916778 0 -0.1192769417620527 -0.29647213004997958 0 -0.092842802192021207 -0.30895727401916778 0 -0.10845815597273981 -0.28716581082212722 0 -0.1192769417620527 -0.29647213004997958 0 -0.092842802192021207 -0.30895727401916778 0 -0.092842802192021207 -0.30895727401916778 0 -0.07412517869397317 -0.30345385070565811 0 -0.088392788306270453 -0.29279827998129371 0 -0.06640866262199005 -0.32144241798835671 0 -0.07412517869397317 -0.30345385070565811 0 -0.057460270572650532 -0.29651730283165362 0 -0.06640866262199005 -0.32144241798835671 0 -0.092842802192021207 -0.30895727401916778 0 -0.07412517869397317 -0.30345385070565811 0 -0.07600553434966846 -0.28376719930463989 0 -0.057460270572650532 -0.29651730283165362 0 -0.07412517869397317 -0.30345385070565811 0 -0.07600553434966846 -0.28376719930463989 0 -0.057460270572650532 -0.29651730283165362 0 -0.07600553434966846 -0.28376719930463989 0 -0.062588794301653428 -0.28096115862392013 0 -0.057460270572650532 -0.29651730283165362 0 -0.07600553434966846 -0.28376719930463989 0 -0.088392788306270453 -0.29279827998129371 0 -0.088010229302250442 -0.28030547870135458 0 -0.07412517869397317 -0.30345385070565811 0 -0.07600553434966846 -0.28376719930463989 0 -0.088392788306270453 -0.29279827998129371 0 -0.097643708131475437 -0.28317372473050312 0 -0.088392788306270453 -0.29279827998129371 0 -0.088010229302250442 -0.28030547870135458 0 -0.096812029820572576 -0.27359408676560082 0 -0.088010229302250442 -0.28030547870135458 0 -0.081736335997756149 -0.27038993120093913 0 -0.096812029820572576 -0.27359408676560082 0 -0.081736335997756149 -0.27038993120093913 0 -0.07600553434966846 -0.28376719930463989 0 -0.088010229302250442 -0.28030547870135458 0 -0.081736335997756149 -0.27038993120093913 0 -0.07600553434966846 -0.28376719930463989 0 -0.062588794301653428 -0.28096115862392013 0 -0.066660642174939444 -0.26718577563627882 0 -0.07600553434966846 -0.28376719930463989 0 -0.081736335997756149 -0.27038993120093913 0 -0.066660642174939444 -0.26718577563627882 0 -0.081736335997756149 -0.27038993120093913 0 -0.066660642174939444 -0.26718577563627882 0 -0.081736335997756149 -0.27038993120093913 0 -0.066660642174939444 -0.26718577563627882 0 -0.076119915636259583 -0.25974745641386071 0 -0.066660642174939444 -0.26718577563627882 0 -0.049824171052072701 -0.25988622408920969 0 -0.073993733862166705 -0.24790322582111429 0 -0.066660642174939444 -0.26718577563627882 0 -0.076119915636259583 -0.25974745641386071 0 -0.073993733862166705 -0.24790322582111429 0 -0.076119915636259583 -0.25974745641386071 0 -0.073993733862166705 -0.24790322582111429 0 -0.09461907742776908 -0.2483346929327824 0 -0.096812029820572576 -0.27359408676560082 0 -0.081736335997756149 -0.27038993120093913 0 -0.09461907742776908 -0.2483346929327824 0 -0.081736335997756149 -0.27038993120093913 0 -0.076119915636259583 -0.25974745641386071 0 -0.09461907742776908 -0.2483346929327824 0 -0.049824171052072701 -0.25988622408920969 0 -0.036970221907899517 -0.27476836985998432 0 -0.02496809639129045 -0.26055585461843961 0 -0.049824171052072701 -0.25988622408920969 0 -0.02496809639129045 -0.26055585461843961 0 -0.037341291717499163 -0.24905135370329429 0 -0.062588794301653428 -0.28096115862392013 0 -0.066660642174939444 -0.26718577563627882 0 -0.050228730109355302 -0.27637435672310801 0 -0.066660642174939444 -0.26718577563627882 0 -0.049824171052072701 -0.25988622408920969 0 -0.050228730109355302 -0.27637435672310801 0 -0.050228730109355302 -0.27637435672310801 0 -0.036970221907899517 -0.27476836985998432 0 -0.039709023110120617 -0.28983872365357599 0 -0.049824171052072701 -0.25988622408920969 0 -0.050228730109355302 -0.27637435672310801 0 -0.036970221907899517 -0.27476836985998432 0 -0.039709023110120617 -0.28983872365357599 0 -0.037852423381281787 -0.309997945902455 0 -0.020121088876658502 -0.2871866902155879 0 -0.036970221907899517 -0.27476836985998432 0 -0.039709023110120617 -0.28983872365357599 0 -0.020121088876658502 -0.2871866902155879 0 -0.050228730109355302 -0.27637435672310801 0 -0.057460270572650532 -0.29651730283165362 0 -0.062588794301653428 -0.28096115862392013 0 -0.050228730109355302 -0.27637435672310801 0 -0.057460270572650532 -0.29651730283165362 0 -0.050228730109355302 -0.27637435672310801 0 -0.039709023110120617 -0.28983872365357599 0 -0.057460270572650532 -0.29651730283165362 0 -0.057460270572650532 -0.29651730283165362 0 -0.037852423381281787 -0.309997945902455 0 -0.051773700865952108 -0.31812942299761893 0 -0.06640866262199005 -0.32144241798835671 0 -0.057460270572650532 -0.29651730283165362 0 -0.057460270572650532 -0.29651730283165362 0 -0.037852423381281787 -0.309997945902455 0 -0.06640866262199005 -0.32144241798835671 0 -0.057460270572650532 -0.29651730283165362 0 -0.051773700865952108 -0.31812942299761893 0 -0.039709023110120617 -0.28983872365357599 0 -0.057460270572650532 -0.29651730283165362 0 -0.037852423381281787 -0.309997945902455 0 -0.037852423381281787 -0.309997945902455 0 -0.011741705958280189 -0.30517245176052349 0 -0.020121088876658502 -0.2871866902155879 0 -0.011741705958280189 -0.30517245176052349 0 0.007359152392873396 -0.30414063040254607 0 0.0001914317168464046 -0.28580454581531212 0 -0.011741705958280189 -0.30517245176052349 0 -0.001476048506313423 -0.31866223119492831 0 0.007359152392873396 -0.30414063040254607 0 -0.011741705958280189 -0.30517245176052349 0 -0.020121088876658502 -0.2871866902155879 0 0.0001914317168464046 -0.28580454581531212 0 -0.036970221907899517 -0.27476836985998432 0 -0.020121088876658502 -0.2871866902155879 0 -0.02496809639129045 -0.26055585461843961 0 -0.020121088876658502 -0.2871866902155879 0 -0.02496809639129045 -0.26055585461843961 0 -0.020121088876658502 -0.2871866902155879 0 -0.0045210631122281813 -0.25968277032720372 0 -0.02496809639129045 -0.26055585461843961 0 -0.020121088876658502 -0.2871866902155879 0 -0.0045210631122281813 -0.25968277032720372 0 0.0001914317168464046 -0.28580454581531212 0 -0.0045210631122281813 -0.25968277032720372 0 -0.02496809639129045 -0.26055585461843961 0 -0.013591985608380611 -0.2401022274723569 0 -0.035206527701389108 -0.34712147945920713 0 -0.049895158549929187 -0.35914879964971008 0 -0.041006682138971233 -0.34346821665979349 0 -0.035206527701389108 -0.34712147945920713 0 -0.041006682138971233 -0.34346821665979349 0 -0.018800033599468441 -0.34872017065524558 0 -0.035206527701389108 -0.34712147945920713 0 -0.036350687077897362 -0.35618683356661829 0 -0.049895158549929187 -0.35914879964971008 0 -0.035206527701389108 -0.34712147945920713 0 -0.049895158549929187 -0.35914879964971008 0 -0.035206527701389108 -0.34712147945920713 0 -0.036350687077897362 -0.35618683356661829 0 -0.02821306657356256 -0.35487499232169317 0 -0.036350687077897362 -0.35618683356661829 0 -0.03189754898589111 -0.36382157385325381 0 -0.02821306657356256 -0.35487499232169317 0 -0.03189754898589111 -0.36382157385325381 0 -0.049895158549929187 -0.35914879964971008 0 -0.03189754898589111 -0.36382157385325381 0 -0.053348878278263748 -0.37320544570679759 0 -0.049895158549929187 -0.35914879964971008 0 -0.03189754898589111 -0.36382157385325381 0 -0.053348878278263748 -0.37320544570679759 0 -0.040928727905890569 -0.38063897401196828 0 -0.036350687077897362 -0.35618683356661829 0 -0.03189754898589111 -0.36382157385325381 0 -0.049895158549929187 -0.35914879964971008 0 -0.0656707524679572 -0.35505293413804839 0 -0.067810616814213173 -0.37381830527796678 0 -0.049895158549929187 -0.35914879964971008 0 -0.067810616814213173 -0.37381830527796678 0 -0.053348878278263748 -0.37320544570679759 0 -0.049895158549929187 -0.35914879964971008 0 -0.067810616814213173 -0.37381830527796678 0 -0.049895158549929187 -0.35914879964971008 0 -0.0656707524679572 -0.35505293413804839 0 -0.041006682138971233 -0.34346821665979349 0 -0.0656707524679572 -0.35505293413804839 0 -0.049895158549929187 -0.35914879964971008 0 -0.0656707524679572 -0.35505293413804839 0 -0.049895158549929187 -0.35914879964971008 0 -0.041006682138971233 -0.34346821665979349 0 -0.0656707524679572 -0.35505293413804839 0 -0.056357985279413228 -0.33983757704659923 0 -0.041006682138971233 -0.34346821665979349 0 -0.056357985279413228 -0.33983757704659923 0 -0.062459090678893589 -0.3313646601907651 0 -0.052584846408619053 -0.32797156319356618 0 -0.056357985279413228 -0.33983757704659923 0 -0.047917560337735088 -0.33598855613852119 0 -0.052584846408619053 -0.32797156319356618 0 -0.056357985279413228 -0.33983757704659923 0 -0.041006682138971233 -0.34346821665979349 0 -0.056357985279413228 -0.33983757704659923 0 -0.047917560337735088 -0.33598855613852119 0 -0.041006682138971233 -0.34346821665979349 0 -0.06640866262199005 -0.32144241798835671 0 -0.062459090678893589 -0.3313646601907651 0 -0.052584846408619053 -0.32797156319356618 0 -0.06640866262199005 -0.32144241798835671 0 -0.052584846408619053 -0.32797156319356618 0 -0.06640866262199005 -0.32144241798835671 0 -0.052584846408619053 -0.32797156319356618 0 -0.051773700865952108 -0.31812942299761893 0 -0.051773700865952108 -0.31812942299761893 0 -0.033380262263956413 -0.33007699021531128 0 -0.037852423381281787 -0.309997945902455 0 -0.051773700865952108 -0.31812942299761893 0 -0.033380262263956413 -0.33007699021531128 0 -0.052584846408619053 -0.32797156319356618 0 -0.051773700865952108 -0.31812942299761893 0 -0.033380262263956413 -0.33007699021531128 0 -0.052584846408619053 -0.32797156319356618 0 -0.033380262263956413 -0.33007699021531128 0 -0.038761030195248493 -0.33450070839877638 0 -0.047917560337735088 -0.33598855613852119 0 -0.041006682138971233 -0.34346821665979349 0 -0.038761030195248493 -0.33450070839877638 0 -0.052584846408619053 -0.32797156319356618 0 -0.038761030195248493 -0.33450070839877638 0 -0.047917560337735088 -0.33598855613852119 0 -0.052584846408619053 -0.32797156319356618 0 -0.038761030195248493 -0.33450070839877638 0 -0.033380262263956413 -0.33007699021531128 0 -0.038761030195248493 -0.33450070839877638 0 -0.032591531975593398 -0.33951561938450542 0 -0.041006682138971233 -0.34346821665979349 0 -0.032591531975593398 -0.33951561938450542 0 -0.041006682138971233 -0.34346821665979349 0 -0.038761030195248493 -0.33450070839877638 0 -0.032591531975593398 -0.33951561938450542 0 -0.033380262263956413 -0.33007699021531128 0 -0.02387816534130861 -0.34139449576654318 0 -0.014986823661960731 -0.34202455743300381 0 -0.032591531975593398 -0.33951561938450542 0 -0.02387816534130861 -0.34139449576654318 0 -0.018800033599468441 -0.34872017065524558 0 -0.033380262263956413 -0.33007699021531128 0 -0.01824457618991266 -0.32347858897325599 0 -0.014986823661960731 -0.34202455743300381 0 -0.033380262263956413 -0.33007699021531128 0 -0.032591531975593398 -0.33951561938450542 0 -0.02387816534130861 -0.34139449576654318 0 -0.033380262263956413 -0.33007699021531128 0 -0.014986823661960731 -0.34202455743300381 0 -0.037852423381281787 -0.309997945902455 0 -0.011741705958280189 -0.30517245176052349 0 -0.01824457618991266 -0.32347858897325599 0 -0.037852423381281787 -0.309997945902455 0 -0.033380262263956413 -0.33007699021531128 0 -0.01824457618991266 -0.32347858897325599 0 -0.037852423381281787 -0.309997945902455 0 -0.01824457618991266 -0.32347858897325599 0 -0.01824457618991266 -0.32347858897325599 0 -0.001476048506313423 -0.31866223119492831 0 0.001363271001456459 -0.33695923204405698 0 -0.011741705958280189 -0.30517245176052349 0 -0.01824457618991266 -0.32347858897325599 0 -0.001476048506313423 -0.31866223119492831 0 -0.01824457618991266 -0.32347858897325599 0 0.001363271001456459 -0.33695923204405698 0 -0.01824457618991266 -0.32347858897325599 0 -0.014986823661960731 -0.34202455743300381 0 0.001363271001456459 -0.33695923204405698 0 -0.014986823661960731 -0.34202455743300381 0 -0.004807145623944774 -0.3459625356740248 0 0.001363271001456459 -0.33695923204405698 0 -0.004807145623944774 -0.3459625356740248 0 0.001841636670160379 -0.34665091486273469 0 0.001363271001456459 -0.33695923204405698 0 -0.018800033599468441 -0.34872017065524558 0 0.0034066149400347099 -0.3539721246506965 0 -0.014986823661960731 -0.34202455743300381 0 -0.004807145623944774 -0.3459625356740248 0 0.0034066149400347099 -0.3539721246506965 0 -0.014986823661960731 -0.34202455743300381 0 0.0034066149400347099 -0.3539721246506965 0 -0.004807145623944774 -0.3459625356740248 0 0.001841636670160379 -0.34665091486273469 0 0.0013316416042528519 -0.34933408190008453 0 -0.014986823661960731 -0.34202455743300381 0 -0.018800033599468441 -0.34872017065524558 0 0.0034066149400347099 -0.3539721246506965 0 -0.0089530248603548954 -0.35665818151079948 0 -0.018800033599468441 -0.34872017065524558 0 0.0034066149400347099 -0.3539721246506965 0 -0.004807145623944774 -0.3459625356740248 0 0.0013316416042528519 -0.34933408190008453 0 0.0034066149400347099 -0.3539721246506965 0 -0.0028400579241715002 -0.35784654174796909 0 -0.0089530248603548954 -0.35665818151079948 0 0.0034066149400347099 -0.3539721246506965 0 -0.041006682138971233 -0.34346821665979349 0 -0.032591531975593398 -0.33951561938450542 0 -0.018800033599468441 -0.34872017065524558 0 -0.035206527701389108 -0.34712147945920713 0 -0.018800033599468441 -0.34872017065524558 0 -0.02821306657356256 -0.35487499232169317 0 -0.02387816534130861 -0.34139449576654318 0 -0.014986823661960731 -0.34202455743300381 0 -0.018800033599468441 -0.34872017065524558 0 -0.041006682138971233 -0.34346821665979349 0 -0.018800033599468441 -0.34872017065524558 0 -0.018800033599468441 -0.34872017065524558 0 -0.02035272268822591 -0.35851385327955759 0 -0.02821306657356256 -0.35487499232169317 0 -0.0089530248603548954 -0.35665818151079948 0 -0.018800033599468441 -0.34872017065524558 0 -0.02035272268822591 -0.35851385327955759 0 -0.03189754898589111 -0.36382157385325381 0 -0.02035272268822591 -0.35851385327955759 0 -0.02821306657356256 -0.35487499232169317 0 -0.03189754898589111 -0.36382157385325381 0 -0.01389993942185256 -0.36849434805679587 0 -0.01389993942185256 -0.36849434805679587 0 -0.040928727905890569 -0.38063897401196828 0 -0.03189754898589111 -0.36382157385325381 0 -0.02035272268822591 -0.35851385327955759 0 -0.01389993942185256 -0.36849434805679587 0 -0.03189754898589111 -0.36382157385325381 0 -0.01389993942185256 -0.36849434805679587 0 -0.040928727905890569 -0.38063897401196828 0 -0.01389993942185256 -0.36849434805679587 0 0.0029551226172910491 -0.36092099995658328 0 -0.0028400579241715002 -0.35784654174796909 0 -0.01389993942185256 -0.36849434805679587 0 0.0029551226172910491 -0.36092099995658328 0 -0.01389993942185256 -0.36849434805679587 0 0.0029551226172910491 -0.36092099995658328 0 0.0088809091835504086 -0.36962472348447162 0 -0.01389993942185256 -0.36849434805679587 0 0.01275949946975607 -0.37541601939822422 0 -0.0028400579241715002 -0.35784654174796909 0 -0.0089530248603548954 -0.35665818151079948 0 -0.01389993942185256 -0.36849434805679587 0 -0.0089530248603548954 -0.35665818151079948 0 -0.02035272268822591 -0.35851385327955759 0 -0.01389993942185256 -0.36849434805679587 0 -0.01389993942185256 -0.36849434805679587 0 -0.0076172317887358574 -0.38547578003663552 0 -0.022588048445441759 -0.38611769244340782 0 -0.01389993942185256 -0.36849434805679587 0 -0.0076172317887358574 -0.38547578003663552 0 0.002186550478631818 -0.37664663839193951 0 -0.0076172317887358574 -0.38547578003663552 0 0.0024663421228158611 -0.38577551295023971 0 0.002186550478631818 -0.37664663839193951 0 -0.0076172317887358574 -0.38547578003663552 0 0.0024663421228158611 -0.38577551295023971 0 0.0005835934915041272 -0.3961125858119427 0 -0.01672752882726937 -0.40076872455973372 0 -0.001367206077267252 -0.40650877190431511 0 0.0005835934915041272 -0.3961125858119427 0 -0.0076172317887358574 -0.38547578003663552 0 -0.01672752882726937 -0.40076872455973372 0 0.0005835934915041272 -0.3961125858119427 0 -0.01672752882726937 -0.40076872455973372 0 -0.022588048445441759 -0.38611769244340782 0 -0.033766814283460428 -0.39521063555190572 0 -0.0076172317887358574 -0.38547578003663552 0 -0.01672752882726937 -0.40076872455973372 0 -0.022588048445441759 -0.38611769244340782 0 -0.01389993942185256 -0.36849434805679587 0 -0.022588048445441759 -0.38611769244340782 0 -0.040928727905890569 -0.38063897401196828 0 -0.022588048445441759 -0.38611769244340782 0 -0.040928727905890569 -0.38063897401196828 0 -0.033766814283460428 -0.39521063555190572 0 -0.040928727905890569 -0.38063897401196828 0 -0.033766814283460428 -0.39521063555190572 0 -0.048251484993442777 -0.40577856855982608 0 -0.048251484993442777 -0.40577856855982608 0 -0.067957516389928668 -0.39278359996714107 0 -0.065332784143535244 -0.41172300893397479 0 -0.040928727905890569 -0.38063897401196828 0 -0.048251484993442777 -0.40577856855982608 0 -0.067957516389928668 -0.39278359996714107 0 -0.040928727905890569 -0.38063897401196828 0 -0.067957516389928668 -0.39278359996714107 0 -0.053348878278263748 -0.37320544570679759 0 -0.040928727905890569 -0.38063897401196828 0 -0.067957516389928668 -0.39278359996714107 0 -0.033766814283460428 -0.39521063555190572 0 -0.048251484993442777 -0.40577856855982608 0 -0.029750761448358431 -0.42691561591870258 0 -0.048251484993442777 -0.40577856855982608 0 -0.054716503961535337 -0.42867888979675489 0 -0.065332784143535244 -0.41172300893397479 0 -0.048251484993442777 -0.40577856855982608 0 -0.054716503961535337 -0.42867888979675489 0 -0.029750761448358431 -0.42691561591870258 0 -0.054716503961535337 -0.42867888979675489 0 -0.029750761448358431 -0.42691561591870258 0 -0.042773994069447492 -0.45306250727767161 0 -0.029750761448358431 -0.42691561591870258 0 -0.0082866790812689186 -0.43278516735961292 0 -0.019609908789343562 -0.44559425876730152 0 -0.01672752882726937 -0.40076872455973372 0 -0.033766814283460428 -0.39521063555190572 0 -0.029750761448358431 -0.42691561591870258 0 -0.01672752882726937 -0.40076872455973372 0 -0.029750761448358431 -0.42691561591870258 0 -0.01672752882726937 -0.40076872455973372 0 -0.029750761448358431 -0.42691561591870258 0 -0.0018914237909277061 -0.41928909002879139 0 -0.01672752882726937 -0.40076872455973372 0 -0.0018914237909277061 -0.41928909002879139 0 -0.001367206077267252 -0.40650877190431511 0 -0.029750761448358431 -0.42691561591870258 0 -0.0018914237909277061 -0.41928909002879139 0 -0.0082866790812689186 -0.43278516735961292 0 -0.0018914237909277061 -0.41928909002879139 0 -0.0082866790812689186 -0.43278516735961292 0 0.0061512126340387023 -0.43027995724634288 0 -0.0082866790812689186 -0.43278516735961292 0 -0.019609908789343562 -0.44559425876730152 0 0.0030651850402754859 -0.4419511729918677 0 -0.00056832804991988322 -0.45874236693044629 0 -0.019609908789343562 -0.44559425876730152 0 0.0030651850402754859 -0.4419511729918677 0 -0.00056832804991988322 -0.45874236693044629 0 -0.017308223425906891 -0.4628734242143645 0 -0.0045807544369819847 -0.48001459429476379 0 -0.00056832804991988322 -0.45874236693044629 0 -0.017308223425906891 -0.4628734242143645 0 -0.019609908789343562 -0.44559425876730152 0 -0.017308223425906891 -0.4628734242143645 0 -0.019609908789343562 -0.44559425876730152 0 -0.042773994069447492 -0.45306250727767161 0 -0.017308223425906891 -0.4628734242143645 0 -0.030440821094949819 -0.47819289251781411 0 -0.042773994069447492 -0.45306250727767161 0 -0.029750761448358431 -0.42691561591870258 0 -0.019609908789343562 -0.44559425876730152 0 -0.042773994069447492 -0.45306250727767161 0 -0.01182705985915739 -0.5 0 -0.0045807544369819847 -0.48001459429476379 0 -0.030440821094949819 -0.47819289251781411 0 -0.017308223425906891 -0.4628734242143645 0 -0.0045807544369819847 -0.48001459429476379 0 -0.030440821094949819 -0.47819289251781411 0 -0.01182705985915739 -0.5 0 -0.030440821094949819 -0.47819289251781411 0 -0.041049321295367647 -0.5 0 -0.030440821094949819 -0.47819289251781411 0 -0.041049321295367647 -0.5 0 -0.055797226690536543 -0.47920939863664053 0 -0.030440821094949819 -0.47819289251781411 0 -0.055797226690536543 -0.47920939863664053 0 -0.042773994069447492 -0.45306250727767161 0 -0.041049321295367647 -0.5 0 -0.055797226690536543 -0.47920939863664053 0 -0.070271582731578131 -0.5 0 -0.029750761448358431 -0.42691561591870258 0 -0.042773994069447492 -0.45306250727767161 0 -0.055797226690536543 -0.47920939863664053 0 -0.042773994069447492 -0.45306250727767161 0 -0.055797226690536543 -0.47920939863664053 0 -0.042773994069447492 -0.45306250727767161 0 -0.069888439322978571 -0.45110842523423239 0 -0.054716503961535337 -0.42867888979675489 0 -0.042773994069447492 -0.45306250727767161 0 -0.069888439322978571 -0.45110842523423239 0 -0.069888439322978571 -0.45110842523423239 0 -0.086783991628407345 -0.43884184532403919 0 -0.074491484066324332 -0.42520281385673209 0 -0.069888439322978571 -0.45110842523423239 0 -0.083901698021069726 -0.47675002150051599 0 -0.094172822847251425 -0.45482387531205792 0 -0.069888439322978571 -0.45110842523423239 0 -0.086783991628407345 -0.43884184532403919 0 -0.094172822847251425 -0.45482387531205792 0 -0.055797226690536543 -0.47920939863664053 0 -0.070271582731578131 -0.5 0 -0.083901698021069726 -0.47675002150051599 0 -0.055797226690536543 -0.47920939863664053 0 -0.069888439322978571 -0.45110842523423239 0 -0.083901698021069726 -0.47675002150051599 0 -0.070271582731578131 -0.5 0 -0.083901698021069726 -0.47675002150051599 0 -0.099493844167788614 -0.5 0 -0.083901698021069726 -0.47675002150051599 0 -0.099493844167788614 -0.5 0 -0.11378627236628509 -0.47535842982016541 0 -0.083901698021069726 -0.47675002150051599 0 -0.11378627236628509 -0.47535842982016541 0 -0.094172822847251425 -0.45482387531205792 0 -0.12871610560399899 -0.5 0 -0.099493844167788614 -0.5 0 -0.11378627236628509 -0.47535842982016541 0 -0.094172822847251425 -0.45482387531205792 0 -0.1133743382217787 -0.45308008989519583 0 -0.10328879414208671 -0.43443340349753118 0 -0.086783991628407345 -0.43884184532403919 0 -0.094172822847251425 -0.45482387531205792 0 -0.10328879414208671 -0.43443340349753118 0 -0.11378627236628509 -0.47535842982016541 0 -0.094172822847251425 -0.45482387531205792 0 -0.1133743382217787 -0.45308008989519583 0 -0.13468821229704461 -0.45479542492255759 0 -0.11378627236628509 -0.47535842982016541 0 -0.1133743382217787 -0.45308008989519583 0 -0.13468821229704461 -0.45479542492255759 0 -0.1213299483320705 -0.43931237329557188 0 -0.1133743382217787 -0.45308008989519583 0 -0.1213299483320705 -0.43931237329557188 0 -0.1133743382217787 -0.45308008989519583 0 -0.10328879414208671 -0.43443340349753118 0 -0.1213299483320705 -0.43931237329557188 0 -0.10328879414208671 -0.43443340349753118 0 -0.1215569916070609 -0.41782682216274208 0 -0.086783991628407345 -0.43884184532403919 0 -0.10328879414208671 -0.43443340349753118 0 -0.094521483081802596 -0.41884868783824658 0 -0.10328879414208671 -0.43443340349753118 0 -0.094521483081802596 -0.41884868783824658 0 -0.1215569916070609 -0.41782682216274208 0 -0.094521483081802596 -0.41884868783824658 0 -0.1215569916070609 -0.41782682216274208 0 -0.1036415333427783 -0.40315731653448361 0 -0.1215569916070609 -0.41782682216274208 0 -0.1036415333427783 -0.40315731653448361 0 -0.12849527719368559 -0.40215976165868139 0 -0.1215569916070609 -0.41782682216274208 0 -0.1036415333427783 -0.40315731653448361 0 -0.12849527719368559 -0.40215976165868139 0 -0.12465997255891 -0.38276017953189728 0 -0.1036415333427783 -0.40315731653448361 0 -0.12465997255891 -0.38276017953189728 0 -0.10095122347193131 -0.38666774131185899 0 -0.1036415333427783 -0.40315731653448361 0 -0.1028661572726154 -0.37252362127134497 0 -0.12465997255891 -0.38276017953189728 0 -0.10095122347193131 -0.38666774131185899 0 -0.1028661572726154 -0.37252362127134497 0 -0.12465997255891 -0.38276017953189728 0 -0.1028661572726154 -0.37252362127134497 0 -0.10095122347193131 -0.38666774131185899 0 -0.085896755113254841 -0.37572512563582677 0 -0.10095122347193131 -0.38666774131185899 0 -0.1036415333427783 -0.40315731653448361 0 -0.08572607507849575 -0.38848781090622531 0 -0.1036415333427783 -0.40315731653448361 0 -0.08572607507849575 -0.38848781090622531 0 -0.0812469313064451 -0.40617117248942031 0 -0.08572607507849575 -0.38848781090622531 0 -0.067957516389928668 -0.39278359996714107 0 -0.1036415333427783 -0.40315731653448361 0 -0.0812469313064451 -0.40617117248942031 0 -0.08572607507849575 -0.38848781090622531 0 -0.067810616814213173 -0.37381830527796678 0 -0.08572607507849575 -0.38848781090622531 0 -0.085896755113254841 -0.37572512563582677 0 -0.10095122347193131 -0.38666774131185899 0 -0.08572607507849575 -0.38848781090622531 0 -0.085896755113254841 -0.37572512563582677 0 -0.067810616814213173 -0.37381830527796678 0 -0.053348878278263748 -0.37320544570679759 0 -0.067957516389928668 -0.39278359996714107 0 -0.067810616814213173 -0.37381830527796678 0 -0.08572607507849575 -0.38848781090622531 0 -0.067810616814213173 -0.37381830527796678 0 -0.08572607507849575 -0.38848781090622531 0 -0.067957516389928668 -0.39278359996714107 0 -0.0812469313064451 -0.40617117248942031 0 -0.067957516389928668 -0.39278359996714107 0 -0.065332784143535244 -0.41172300893397479 0 -0.054716503961535337 -0.42867888979675489 0 -0.065332784143535244 -0.41172300893397479 0 -0.074491484066324332 -0.42520281385673209 0 -0.0812469313064451 -0.40617117248942031 0 -0.065332784143535244 -0.41172300893397479 0 -0.074491484066324332 -0.42520281385673209 0 -0.054716503961535337 -0.42867888979675489 0 -0.069888439322978571 -0.45110842523423239 0 -0.074491484066324332 -0.42520281385673209 0 -0.086783991628407345 -0.43884184532403919 0 -0.094521483081802596 -0.41884868783824658 0 -0.074491484066324332 -0.42520281385673209 0 -0.094521483081802596 -0.41884868783824658 0 -0.1036415333427783 -0.40315731653448361 0 -0.0812469313064451 -0.40617117248942031 0 -0.094521483081802596 -0.41884868783824658 0 -0.0812469313064451 -0.40617117248942031 0 -0.074491484066324332 -0.42520281385673209 0 -0.092941597712339896 -0.078673635867946221 0 -0.077633610203629119 -0.097959239876917098 0 -0.092941597712339896 -0.078673635867946221 0 -0.075289334224501514 -0.075453014134425983 0 -0.077633610203629119 -0.097959239876917098 0 -0.092941597712339896 -0.078673635867946221 0 -0.077633610203629119 -0.097959239876917098 0 -0.1009120422868619 -0.094394347726965852 0 -0.092941597712339896 -0.078673635867946221 0 -0.094659711062007532 -0.054626520914848278 0 -0.080791250763238232 -0.05686910861525897 0 -0.092941597712339896 -0.078673635867946221 0 -0.075289334224501514 -0.075453014134425983 0 -0.080791250763238232 -0.05686910861525897 0 -0.075289334224501514 -0.075453014134425983 0 -0.067862191526602694 -0.061817240819373363 0 -0.059347391197914837 -0.070639833464531288 0 -0.075289334224501514 -0.075453014134425983 0 -0.080791250763238232 -0.05686910861525897 0 -0.067862191526602694 -0.061817240819373363 0 -0.075289334224501514 -0.075453014134425983 0 -0.063434838827999634 -0.08263531953485731 0 -0.059347391197914837 -0.070639833464531288 0 -0.063434838827999634 -0.08263531953485731 0 -0.077633610203629119 -0.097959239876917098 0 -0.054154531554566072 -0.092930486793401712 0 -0.075289334224501514 -0.075453014134425983 0 -0.063434838827999634 -0.08263531953485731 0 -0.077633610203629119 -0.097959239876917098 0 -0.077633610203629119 -0.097959239876917098 0 -0.070965667365074439 -0.1173043930244804 0 -0.054154531554566072 -0.092930486793401712 0 -0.077633610203629119 -0.097959239876917098 0 -0.070965667365074439 -0.1173043930244804 0 -0.097425521323536782 -0.113010558039779 0 -0.070965667365074439 -0.1173043930244804 0 -0.097425521323536782 -0.113010558039779 0 -0.082333871038512835 -0.1343179275555568 0 -0.077633610203629119 -0.097959239876917098 0 -0.1009120422868619 -0.094394347726965852 0 -0.097425521323536782 -0.113010558039779 0 -0.1009120422868619 -0.094394347726965852 0 -0.097425521323536782 -0.113010558039779 0 -0.1204271970110269 -0.1031177539053135 0 -0.097425521323536782 -0.113010558039779 0 -0.1174342759398118 -0.1212314737839226 0 -0.10558030979801381 -0.1330474094886375 0 -0.097425521323536782 -0.113010558039779 0 -0.1174342759398118 -0.1212314737839226 0 -0.1204271970110269 -0.1031177539053135 0 -0.1174342759398118 -0.1212314737839226 0 -0.1204271970110269 -0.1031177539053135 0 -0.13464975142020449 -0.11779795748306381 0 -0.1204271970110269 -0.1031177539053135 0 -0.11613228518377661 -0.079210550944873379 0 -0.13153467129835861 -0.080136189156815654 0 -0.1009120422868619 -0.094394347726965852 0 -0.1204271970110269 -0.1031177539053135 0 -0.11613228518377661 -0.079210550944873379 0 -0.092941597712339896 -0.078673635867946221 0 -0.1009120422868619 -0.094394347726965852 0 -0.11613228518377661 -0.079210550944873379 0 -0.092941597712339896 -0.078673635867946221 0 -0.11613228518377661 -0.079210550944873379 0 -0.1082495852210507 -0.059388031858975253 0 -0.092941597712339896 -0.078673635867946221 0 -0.1082495852210507 -0.059388031858975253 0 -0.092941597712339896 -0.078673635867946221 0 -0.094659711062007532 -0.054626520914848278 0 -0.1082495852210507 -0.059388031858975253 0 -0.11613228518377661 -0.079210550944873379 0 -0.13153467129835861 -0.080136189156815654 0 -0.12625576057893989 -0.061747420413339339 0 -0.11613228518377661 -0.079210550944873379 0 -0.1082495852210507 -0.059388031858975253 0 -0.12625576057893989 -0.061747420413339339 0 -0.12355757272976151 -0.040102427850004389 0 -0.1082495852210507 -0.059388031858975253 0 -0.12355757272976151 -0.040102427850004389 0 -0.1082495852210507 -0.059388031858975253 0 -0.12625576057893989 -0.061747420413339339 0 -0.12355757272976151 -0.040102427850004389 0 -0.102732701779107 -0.03927861764911713 0 -0.10741057513537321 -0.024211523008536639 0 -0.12355757272976151 -0.040102427850004389 0 -0.102732701779107 -0.03927861764911713 0 -0.1082495852210507 -0.059388031858975253 0 -0.102732701779107 -0.03927861764911713 0 -0.094659711062007532 -0.054626520914848278 0 -0.088583419834301805 -0.038923210582943853 0 -0.102732701779107 -0.03927861764911713 0 -0.094342370661278249 -0.019790940378292439 0 -0.088583419834301805 -0.038923210582943853 0 -0.102732701779107 -0.03927861764911713 0 -0.094659711062007532 -0.054626520914848278 0 -0.1082495852210507 -0.059388031858975253 0 -0.113185123950466 -0.0023048807743676759 0 -0.12152508443855629 -4.6565042202755903e-05 0 -0.1190128475456516 -0.015143404725753861 0 -0.12152508443855629 -4.6565042202755903e-05 0 -0.1190128475456516 -0.015143404725753861 0 -0.13072301095149069 -0.005437812573230668 0 -0.113185123950466 -0.0023048807743676759 0 -0.1190128475456516 -0.015143404725753861 0 -0.10539382048894801 -0.01109668752989507 0 -0.12355757272976151 -0.040102427850004389 0 -0.1190128475456516 -0.015143404725753861 0 -0.10741057513537321 -0.024211523008536639 0 -0.1190128475456516 -0.015143404725753861 0 -0.10741057513537321 -0.024211523008536639 0 -0.10539382048894801 -0.01109668752989507 0 -0.102732701779107 -0.03927861764911713 0 -0.10741057513537321 -0.024211523008536639 0 -0.094342370661278249 -0.019790940378292439 0 -0.10741057513537321 -0.024211523008536639 0 -0.094342370661278249 -0.019790940378292439 0 -0.10539382048894801 -0.01109668752989507 0 -0.094342370661278249 -0.019790940378292439 0 -0.10539382048894801 -0.01109668752989507 0 -0.09385193615150994 -0.0060618757144698344 0 -0.10539382048894801 -0.01109668752989507 0 -0.09385193615150994 -0.0060618757144698344 0 -0.10564944294261031 0.00105739657185959 0 -0.113185123950466 -0.0023048807743676759 0 -0.10539382048894801 -0.01109668752989507 0 -0.10564944294261031 0.00105739657185959 0 -0.09385193615150994 -0.0060618757144698344 0 -0.078600163196295716 -0.0056513456052398056 0 -0.080706650965978968 -0.0214627331115648 0 -0.09385193615150994 -0.0060618757144698344 0 -0.078600163196295716 -0.0056513456052398056 0 -0.09031233222172122 0.0050713261246467774 0 -0.09385193615150994 -0.0060618757144698344 0 -0.080706650965978968 -0.0214627331115648 0 -0.094342370661278249 -0.019790940378292439 0 -0.080706650965978968 -0.0214627331115648 0 -0.088583419834301805 -0.038923210582943853 0 -0.094342370661278249 -0.019790940378292439 0 -0.09385193615150994 -0.0060618757144698344 0 -0.080706650965978968 -0.0214627331115648 0 -0.080706650965978968 -0.0214627331115648 0 -0.067561365780447996 -0.036863590508659748 0 -0.080706650965978968 -0.0214627331115648 0 -0.070586921766953345 -0.025140675176976511 0 -0.067561365780447996 -0.036863590508659748 0 -0.070586921766953345 -0.025140675176976511 0 -0.065161754051967877 -0.029882736584464799 0 -0.067282680112731086 -0.01541702298438403 0 -0.070586921766953345 -0.025140675176976511 0 -0.065161754051967877 -0.029882736584464799 0 -0.067561365780447996 -0.036863590508659748 0 -0.080706650965978968 -0.0214627331115648 0 -0.070586921766953345 -0.025140675176976511 0 -0.067282680112731086 -0.01541702298438403 0 -0.078600163196295716 -0.0056513456052398056 0 -0.080706650965978968 -0.0214627331115648 0 -0.067282680112731086 -0.01541702298438403 0 -0.078600163196295716 -0.0056513456052398056 0 -0.067282680112731086 -0.01541702298438403 0 -0.065042571787998396 -0.0024164373520884279 0 -0.078600163196295716 -0.0056513456052398056 0 -0.065042571787998396 -0.0024164373520884279 0 -0.075425995574936927 0.0068699248734238926 0 -0.094659711062007532 -0.054626520914848278 0 -0.080791250763238232 -0.05686910861525897 0 -0.088583419834301805 -0.038923210582943853 0 -0.080791250763238232 -0.05686910861525897 0 -0.088583419834301805 -0.038923210582943853 0 -0.077389115151030752 -0.040591167311790591 0 -0.080706650965978968 -0.0214627331115648 0 -0.088583419834301805 -0.038923210582943853 0 -0.077389115151030752 -0.040591167311790591 0 -0.080706650965978968 -0.0214627331115648 0 -0.077389115151030752 -0.040591167311790591 0 -0.067561365780447996 -0.036863590508659748 0 -0.077389115151030752 -0.040591167311790591 0 -0.067561365780447996 -0.036863590508659748 0 -0.069302888411186855 -0.0488371937405256 0 -0.065161754051967877 -0.029882736584464799 0 -0.067561365780447996 -0.036863590508659748 0 -0.058113543320318657 -0.036237912389696807 0 -0.067561365780447996 -0.036863590508659748 0 -0.069302888411186855 -0.0488371937405256 0 -0.058813650915706693 -0.044195519168826809 0 -0.069302888411186855 -0.0488371937405256 0 -0.067862191526602694 -0.061817240819373363 0 -0.060569887675864548 -0.053289418573433472 0 -0.080791250763238232 -0.05686910861525897 0 -0.077389115151030752 -0.040591167311790591 0 -0.069302888411186855 -0.0488371937405256 0 -0.069302888411186855 -0.0488371937405256 0 -0.060569887675864548 -0.053289418573433472 0 -0.058813650915706693 -0.044195519168826809 0 -0.080791250763238232 -0.05686910861525897 0 -0.069302888411186855 -0.0488371937405256 0 -0.067862191526602694 -0.061817240819373363 0 -0.067862191526602694 -0.061817240819373363 0 -0.053164477218185263 -0.060615209986296499 0 -0.060569887675864548 -0.053289418573433472 0 -0.053164477218185263 -0.060615209986296499 0 -0.050202168855596571 -0.050415827308185092 0 -0.060569887675864548 -0.053289418573433472 0 -0.053164477218185263 -0.060615209986296499 0 -0.050202168855596571 -0.050415827308185092 0 -0.041470599931449553 -0.059922654889461323 0 -0.050202168855596571 -0.050415827308185092 0 -0.060569887675864548 -0.053289418573433472 0 -0.058813650915706693 -0.044195519168826809 0 -0.058813650915706693 -0.044195519168826809 0 -0.058113543320318657 -0.036237912389696807 0 -0.049262490839258238 -0.038494411700845853 0 -0.067561365780447996 -0.036863590508659748 0 -0.058813650915706693 -0.044195519168826809 0 -0.058113543320318657 -0.036237912389696807 0 -0.065161754051967877 -0.029882736584464799 0 -0.058113543320318657 -0.036237912389696807 0 -0.054747462067038372 -0.027782575851101731 0 -0.058113543320318657 -0.036237912389696807 0 -0.049262490839258238 -0.038494411700845853 0 -0.054747462067038372 -0.027782575851101731 0 -0.050202168855596571 -0.050415827308185092 0 -0.058813650915706693 -0.044195519168826809 0 -0.049262490839258238 -0.038494411700845853 0 -0.039810182837564899 -0.03408311511315136 0 -0.036615390762049317 -0.019779629212070951 0 -0.027573605653594398 -0.040930614381309037 0 -0.049262490839258238 -0.038494411700845853 0 -0.039810182837564899 -0.03408311511315136 0 -0.039980558747888029 -0.047603962578829033 0 -0.050202168855596571 -0.050415827308185092 0 -0.049262490839258238 -0.038494411700845853 0 -0.039980558747888029 -0.047603962578829033 0 -0.049262490839258238 -0.038494411700845853 0 -0.039810182837564899 -0.03408311511315136 0 -0.047667520379807433 -0.025233170741284349 0 -0.039810182837564899 -0.03408311511315136 0 -0.039980558747888029 -0.047603962578829033 0 -0.027573605653594398 -0.040930614381309037 0 -0.031564304369864522 -0.06177715208002154 0 -0.039980558747888029 -0.047603962578829033 0 -0.027573605653594398 -0.040930614381309037 0 -0.031564304369864522 -0.06177715208002154 0 -0.041470599931449553 -0.059922654889461323 0 -0.039980558747888029 -0.047603962578829033 0 -0.050202168855596571 -0.050415827308185092 0 -0.041470599931449553 -0.059922654889461323 0 -0.039980558747888029 -0.047603962578829033 0 -0.065042571787998396 -0.0024164373520884279 0 -0.053532001743839631 -0.0090646478392168665 0 -0.055448025631663143 0.0046361647304281181 0 -0.067282680112731086 -0.01541702298438403 0 -0.065042571787998396 -0.0024164373520884279 0 -0.053532001743839631 -0.0090646478392168665 0 -0.065161754051967877 -0.029882736584464799 0 -0.067282680112731086 -0.01541702298438403 0 -0.053532001743839631 -0.0090646478392168665 0 -0.065161754051967877 -0.029882736584464799 0 -0.053532001743839631 -0.0090646478392168665 0 -0.054747462067038372 -0.027782575851101731 0 -0.053532001743839631 -0.0090646478392168665 0 -0.054747462067038372 -0.027782575851101731 0 -0.047667520379807433 -0.025233170741284349 0 -0.065161754051967877 -0.029882736584464799 0 -0.053532001743839631 -0.0090646478392168665 0 -0.049262490839258238 -0.038494411700845853 0 -0.054747462067038372 -0.027782575851101731 0 -0.047667520379807433 -0.025233170741284349 0 -0.053532001743839631 -0.0090646478392168665 0 -0.047667520379807433 -0.025233170741284349 0 -0.036615390762049317 -0.019779629212070951 0 -0.036615390762049317 -0.019779629212070951 0 -0.027573605653594398 -0.040930614381309037 0 -0.039810182837564899 -0.03408311511315136 0 -0.047667520379807433 -0.025233170741284349 0 -0.036615390762049317 -0.019779629212070951 0 -0.036615390762049317 -0.019779629212070951 0 -0.03079959356037669 -0.0067929839172564252 0 -0.04565717587050426 0.0013713559571671839 0 -0.036615390762049317 -0.019779629212070951 0 -0.04565717587050426 0.0013713559571671839 0 -0.053532001743839631 -0.0090646478392168665 0 -0.036615390762049317 -0.019779629212070951 0 -0.04565717587050426 0.0013713559571671839 0 -0.03079959356037669 -0.0067929839172564252 0 -0.033051866494802067 0.003827832867512487 0 -0.04565717587050426 0.0013713559571671839 0 -0.036615390762049317 -0.019779629212070951 0 -0.03079959356037669 -0.0067929839172564252 0 -0.017584885691495911 -0.018296736658512201 0 -0.0210886489830319 -0.001087742540378641 0 -0.03079959356037669 -0.0067929839172564252 0 -0.017584885691495911 -0.018296736658512201 0 -0.0210886489830319 -0.001087742540378641 0 -0.017584885691495911 -0.018296736658512201 0 -0.0091487766804286413 -0.0045324441906254851 0 -0.0210886489830319 -0.001087742540378641 0 -0.03079959356037669 -0.0067929839172564252 0 -0.033051866494802067 0.003827832867512487 0 -0.036615390762049317 -0.019779629212070951 0 -0.017584885691495911 -0.018296736658512201 0 -0.027573605653594398 -0.040930614381309037 0 -0.0076707263748008424 -0.037220070045335563 0 0.003190367795538461 -0.01235854054012421 0 -0.017584885691495911 -0.018296736658512201 0 -0.0076707263748008424 -0.037220070045335563 0 0.003190367795538461 -0.01235854054012421 0 -0.0091487766804286413 -0.0045324441906254851 0 0.0009626133680662478 0.004694825809427778 0 0.003190367795538461 -0.01235854054012421 0 -0.017584885691495911 -0.018296736658512201 0 -0.0091487766804286413 -0.0045324441906254851 0 0.003190367795538461 -0.01235854054012421 0 -0.031564304369864522 -0.06177715208002154 0 -0.018531820545139788 -0.062081599550547192 0 -0.027573605653594398 -0.040930614381309037 0 -0.018531820545139788 -0.062081599550547192 0 -0.027573605653594398 -0.040930614381309037 0 -0.018531820545139788 -0.062081599550547192 0 -0.027573605653594398 -0.040930614381309037 0 -0.0076707263748008424 -0.037220070045335563 0 -0.017584885691495911 -0.018296736658512201 0 -0.027573605653594398 -0.040930614381309037 0 -0.0076707263748008424 -0.037220070045335563 0 -0.0076707263748008424 -0.037220070045335563 0 -0.0020415661367895162 -0.053431008488494879 0 0.0043878529276636484 -0.036986451752035958 0 -0.018531820545139788 -0.062081599550547192 0 -0.0076707263748008424 -0.037220070045335563 0 -0.018531820545139788 -0.062081599550547192 0 -0.0020415661367895162 -0.053431008488494879 0 -0.0031264906627298181 -0.070164676629234424 0 -0.018531820545139788 -0.062081599550547192 0 -0.0076707263748008424 -0.037220070045335563 0 -0.0020415661367895162 -0.053431008488494879 0 -0.018531820545139788 -0.062081599550547192 0 -0.0031264906627298181 -0.070164676629234424 0 -0.0069547684239616298 -0.089163205094297177 0 -0.018531820545139788 -0.062081599550547192 0 -0.0069547684239616298 -0.089163205094297177 0 -0.018531820545139788 -0.062081599550547192 0 -0.0069547684239616298 -0.089163205094297177 0 -0.018430953300878281 -0.083340229722595374 0 -0.0031264906627298181 -0.070164676629234424 0 -0.0069547684239616298 -0.089163205094297177 0 0.006311249423132298 -0.081515978952543436 0 -0.0069547684239616298 -0.089163205094297177 0 -0.018430953300878281 -0.083340229722595374 0 -0.018464530708326082 -0.095299092586620893 0 -0.018430953300878281 -0.083340229722595374 0 -0.03079884531530604 -0.090161366973750309 0 -0.018464530708326082 -0.095299092586620893 0 -0.018430953300878281 -0.083340229722595374 0 -0.03079884531530604 -0.090161366973750309 0 -0.024665332930223108 -0.076121483262148654 0 -0.03079884531530604 -0.090161366973750309 0 -0.024665332930223108 -0.076121483262148654 0 -0.018531820545139788 -0.062081599550547192 0 -0.018430953300878281 -0.083340229722595374 0 -0.024665332930223108 -0.076121483262148654 0 -0.018531820545139788 -0.062081599550547192 0 -0.024665332930223108 -0.076121483262148654 0 -0.031564304369864522 -0.06177715208002154 0 -0.018531820545139788 -0.062081599550547192 0 -0.024665332930223108 -0.076121483262148654 0 -0.031564304369864522 -0.06177715208002154 0 -0.024665332930223108 -0.076121483262148654 0 -0.043753971700701881 -0.076515089618736667 0 -0.053164477218185263 -0.060615209986296499 0 -0.041470599931449553 -0.059922654889461323 0 -0.043753971700701881 -0.076515089618736667 0 -0.031564304369864522 -0.06177715208002154 0 -0.041470599931449553 -0.059922654889461323 0 -0.043753971700701881 -0.076515089618736667 0 -0.043753971700701881 -0.076515089618736667 0 -0.042491346986817793 -0.090357841391334501 0 -0.054154531554566072 -0.092930486793401712 0 -0.03079884531530604 -0.090161366973750309 0 -0.024665332930223108 -0.076121483262148654 0 -0.043753971700701881 -0.076515089618736667 0 -0.03079884531530604 -0.090161366973750309 0 -0.043753971700701881 -0.076515089618736667 0 -0.042491346986817793 -0.090357841391334501 0 -0.063434838827999634 -0.08263531953485731 0 -0.043753971700701881 -0.076515089618736667 0 -0.054154531554566072 -0.092930486793401712 0 -0.053164477218185263 -0.060615209986296499 0 -0.043753971700701881 -0.076515089618736667 0 -0.059347391197914837 -0.070639833464531288 0 -0.063434838827999634 -0.08263531953485731 0 -0.043753971700701881 -0.076515089618736667 0 -0.059347391197914837 -0.070639833464531288 0 -0.067862191526602694 -0.061817240819373363 0 -0.053164477218185263 -0.060615209986296499 0 -0.059347391197914837 -0.070639833464531288 0 -0.070965667365074439 -0.1173043930244804 0 -0.048919810412421869 -0.11656184694228609 0 -0.060610838484087021 -0.1314003202688139 0 -0.070965667365074439 -0.1173043930244804 0 -0.054154531554566072 -0.092930486793401712 0 -0.048919810412421869 -0.11656184694228609 0 -0.054154531554566072 -0.092930486793401712 0 -0.048919810412421869 -0.11656184694228609 0 -0.041258039376697211 -0.1018244221794494 0 -0.03079884531530604 -0.090161366973750309 0 -0.041258039376697211 -0.1018244221794494 0 -0.02721931185537654 -0.1102446008778267 0 -0.042491346986817793 -0.090357841391334501 0 -0.054154531554566072 -0.092930486793401712 0 -0.041258039376697211 -0.1018244221794494 0 -0.03079884531530604 -0.090161366973750309 0 -0.042491346986817793 -0.090357841391334501 0 -0.041258039376697211 -0.1018244221794494 0 -0.048919810412421869 -0.11656184694228609 0 -0.034710826254036993 -0.1241274308342202 0 -0.02721931185537654 -0.1102446008778267 0 -0.048919810412421869 -0.11656184694228609 0 -0.041258039376697211 -0.1018244221794494 0 -0.02721931185537654 -0.1102446008778267 0 -0.034710826254036993 -0.1241274308342202 0 -0.02721931185537654 -0.1102446008778267 0 -0.021401543869523421 -0.13090672776956999 0 -0.02721931185537654 -0.1102446008778267 0 -0.01472874606824503 -0.1185018977087864 0 -0.021401543869523421 -0.13090672776956999 0 -0.02721931185537654 -0.1102446008778267 0 -0.0088459854321982258 -0.1039253986426602 0 -0.01472874606824503 -0.1185018977087864 0 -0.03079884531530604 -0.090161366973750309 0 -0.02721931185537654 -0.1102446008778267 0 -0.018464530708326082 -0.095299092586620893 0 -0.02721931185537654 -0.1102446008778267 0 -0.018464530708326082 -0.095299092586620893 0 -0.0088459854321982258 -0.1039253986426602 0 -0.0069547684239616298 -0.089163205094297177 0 -0.0088459854321982258 -0.1039253986426602 0 0.0046222836972163346 -0.11624481063804749 0 -0.0069547684239616298 -0.089163205094297177 0 0.0046222836972163346 -0.11624481063804749 0 -0.0069547684239616298 -0.089163205094297177 0 -0.018464530708326082 -0.095299092586620893 0 -0.0088459854321982258 -0.1039253986426602 0 -0.0088459854321982258 -0.1039253986426602 0 -0.001448143115881912 -0.12893086354508901 0 -0.0088459854321982258 -0.1039253986426602 0 -0.01472874606824503 -0.1185018977087864 0 -0.001448143115881912 -0.12893086354508901 0 -0.0088459854321982258 -0.1039253986426602 0 -0.001448143115881912 -0.12893086354508901 0 0.0046222836972163346 -0.11624481063804749 0 -0.001448143115881912 -0.12893086354508901 0 -0.021401543869523421 -0.13090672776956999 0 -0.0040270011763860244 -0.15492426055975811 0 -0.01472874606824503 -0.1185018977087864 0 -0.001448143115881912 -0.12893086354508901 0 -0.021401543869523421 -0.13090672776956999 0 -0.021401543869523421 -0.13090672776956999 0 -0.023935678191415691 -0.15116447598566651 0 -0.041302638878826133 -0.13879654774719821 0 -0.021401543869523421 -0.13090672776956999 0 -0.023935678191415691 -0.15116447598566651 0 -0.0040270011763860244 -0.15492426055975811 0 -0.021401543869523421 -0.13090672776956999 0 -0.0040270011763860244 -0.15492426055975811 0 -0.023935678191415691 -0.15116447598566651 0 -0.0040270011763860244 -0.15492426055975811 0 -0.016216668619656038 -0.16547099925826661 0 -0.0040270011763860244 -0.15492426055975811 0 -0.002026644035102563 -0.1743026528086962 0 -0.016216668619656038 -0.16547099925826661 0 -0.002026644035102563 -0.1743026528086962 0 -0.013928872099773851 -0.18142680311253059 0 0.008872794213139211 -0.19712976163152199 0 -0.002026644035102563 -0.1743026528086962 0 -0.013928872099773851 -0.18142680311253059 0 -0.016216668619656038 -0.16547099925826661 0 -0.013928872099773851 -0.18142680311253059 0 -0.03673053841268685 -0.16572384459353939 0 -0.0354248693902324 -0.1872407023138779 0 -0.013928872099773851 -0.18142680311253059 0 -0.03673053841268685 -0.16572384459353939 0 -0.023935678191415691 -0.15116447598566651 0 -0.016216668619656038 -0.16547099925826661 0 -0.03673053841268685 -0.16572384459353939 0 -0.013928872099773851 -0.18142680311253059 0 -0.016216668619656038 -0.16547099925826661 0 -0.03673053841268685 -0.16572384459353939 0 -0.03673053841268685 -0.16572384459353939 0 -0.0354248693902324 -0.1872407023138779 0 -0.056542705749465787 -0.1743473967071357 0 -0.0354248693902324 -0.1872407023138779 0 -0.056542705749465787 -0.1743473967071357 0 -0.055276631100907123 -0.19583898122559629 0 -0.056542705749465787 -0.1743473967071357 0 -0.055276631100907123 -0.19583898122559629 0 -0.07213573659477765 -0.18464185645429379 0 -0.03673053841268685 -0.16572384459353939 0 -0.059532204725599849 -0.15002088607454811 0 -0.03673053841268685 -0.16572384459353939 0 -0.056542705749465787 -0.1743473967071357 0 -0.059532204725599849 -0.15002088607454811 0 -0.048919810412421869 -0.11656184694228609 0 -0.060610838484087021 -0.1314003202688139 0 -0.041302638878826133 -0.13879654774719821 0 -0.059532204725599849 -0.15002088607454811 0 -0.060610838484087021 -0.1314003202688139 0 -0.041302638878826133 -0.13879654774719821 0 -0.048919810412421869 -0.11656184694228609 0 -0.034710826254036993 -0.1241274308342202 0 -0.041302638878826133 -0.13879654774719821 0 -0.034710826254036993 -0.1241274308342202 0 -0.021401543869523421 -0.13090672776956999 0 -0.041302638878826133 -0.13879654774719821 0 -0.023935678191415691 -0.15116447598566651 0 -0.03673053841268685 -0.16572384459353939 0 -0.041302638878826133 -0.13879654774719821 0 -0.03673053841268685 -0.16572384459353939 0 -0.059532204725599849 -0.15002088607454811 0 -0.041302638878826133 -0.13879654774719821 0 -0.02496809639129045 -0.26055585461843961 0 -0.013591985608380611 -0.2401022274723569 0 -0.029815103905922399 -0.2339250190212912 0 -0.02496809639129045 -0.26055585461843961 0 -0.029815103905922399 -0.2339250190212912 0 -0.02496809639129045 -0.26055585461843961 0 -0.029815103905922399 -0.2339250190212912 0 -0.037341291717499163 -0.24905135370329429 0 -0.0045210631122281813 -0.25968277032720372 0 -0.013591985608380611 -0.2401022274723569 0 0.0018127702096612051 -0.2393031948996299 0 -0.013591985608380611 -0.2401022274723569 0 -0.0017643924418505161 -0.22612608804366419 0 0.0018127702096612051 -0.2393031948996299 0 -0.013591985608380611 -0.2401022274723569 0 -0.0017643924418505161 -0.22612608804366419 0 -0.021628323169546219 -0.22158082517617669 0 -0.0017643924418505161 -0.22612608804366419 0 -0.021628323169546219 -0.22158082517617669 0 -0.0011302105970761101 -0.2104360268166206 0 -0.013591985608380611 -0.2401022274723569 0 -0.021628323169546219 -0.22158082517617669 0 -0.029815103905922399 -0.2339250190212912 0 -0.021628323169546219 -0.22158082517617669 0 -0.029815103905922399 -0.2339250190212912 0 -0.034662111420554337 -0.20729418342414291 0 -0.021628323169546219 -0.22158082517617669 0 -0.018503224257332741 -0.2006539291958496 0 -0.034662111420554337 -0.20729418342414291 0 -0.021628323169546219 -0.22158082517617669 0 -0.0011302105970761101 -0.2104360268166206 0 -0.018503224257332741 -0.2006539291958496 0 -0.021628323169546219 -0.22158082517617669 0 -0.0011302105970761101 -0.2104360268166206 0 -0.0011302105970761101 -0.2104360268166206 0 -0.0061723781852608727 -0.19741163018913069 0 -0.018503224257332741 -0.2006539291958496 0 -0.013928872099773851 -0.18142680311253059 0 -0.0061723781852608727 -0.19741163018913069 0 -0.018503224257332741 -0.2006539291958496 0 -0.013928872099773851 -0.18142680311253059 0 0.008872794213139211 -0.19712976163152199 0 -0.013928872099773851 -0.18142680311253059 0 -0.0061723781852608727 -0.19741163018913069 0 0.008872794213139211 -0.19712976163152199 0 -0.0354248693902324 -0.1872407023138779 0 -0.018503224257332741 -0.2006539291958496 0 -0.034662111420554337 -0.20729418342414291 0 -0.013928872099773851 -0.18142680311253059 0 -0.0354248693902324 -0.1872407023138779 0 -0.018503224257332741 -0.2006539291958496 0 -0.0354248693902324 -0.1872407023138779 0 -0.055276631100907123 -0.19583898122559629 0 -0.034662111420554337 -0.20729418342414291 0 -0.055276631100907123 -0.19583898122559629 0 -0.034662111420554337 -0.20729418342414291 0 -0.05819613662983561 -0.21888778582617691 0 -0.055276631100907123 -0.19583898122559629 0 -0.05819613662983561 -0.21888778582617691 0 -0.073675594713681902 -0.20146618813136349 0 -0.034662111420554337 -0.20729418342414291 0 -0.045883925249727502 -0.22995148511704841 0 -0.05819613662983561 -0.21888778582617691 0 -0.029815103905922399 -0.2339250190212912 0 -0.034662111420554337 -0.20729418342414291 0 -0.045883925249727502 -0.22995148511704841 0 -0.029815103905922399 -0.2339250190212912 0 -0.034662111420554337 -0.20729418342414291 0 -0.045883925249727502 -0.22995148511704841 0 -0.05819613662983561 -0.21888778582617691 0 -0.056025411639023658 -0.24073630712485899 0 -0.049824171052072701 -0.25988622408920969 0 -0.056025411639023658 -0.24073630712485899 0 -0.037341291717499163 -0.24905135370329429 0 -0.049824171052072701 -0.25988622408920969 0 -0.056025411639023658 -0.24073630712485899 0 -0.073993733862166705 -0.24790322582111429 0 -0.045883925249727502 -0.22995148511704841 0 -0.056025411639023658 -0.24073630712485899 0 -0.037341291717499163 -0.24905135370329429 0 -0.029815103905922399 -0.2339250190212912 0 -0.045883925249727502 -0.22995148511704841 0 -0.037341291717499163 -0.24905135370329429 0 -0.092426125034966028 -0.2230752990999639 0 -0.09461907742776908 -0.2483346929327824 0 -0.073993733862166705 -0.24790322582111429 0 -0.074341758442218922 -0.22890548287990159 0 -0.09461907742776908 -0.2483346929327824 0 -0.056025411639023658 -0.24073630712485899 0 -0.073993733862166705 -0.24790322582111429 0 -0.074341758442218922 -0.22890548287990159 0 -0.05819613662983561 -0.21888778582617691 0 -0.056025411639023658 -0.24073630712485899 0 -0.074341758442218922 -0.22890548287990159 0 -0.074341758442218922 -0.22890548287990159 0 -0.092426125034966028 -0.2230752990999639 0 -0.09461907742776908 -0.2483346929327824 0 -0.092426125034966028 -0.2230752990999639 0 -0.090233172642162962 -0.19781590526714549 0 -0.074341758442218922 -0.22890548287990159 0 -0.092426125034966028 -0.2230752990999639 0 -0.073675594713681902 -0.20146618813136349 0 -0.092426125034966028 -0.2230752990999639 0 -0.073675594713681902 -0.20146618813136349 0 -0.090233172642162962 -0.19781590526714549 0 -0.05819613662983561 -0.21888778582617691 0 -0.073675594713681902 -0.20146618813136349 0 -0.05819613662983561 -0.21888778582617691 0 -0.074341758442218922 -0.22890548287990159 0 -0.073675594713681902 -0.20146618813136349 0 -0.055276631100907123 -0.19583898122559629 0 -0.073675594713681902 -0.20146618813136349 0 -0.07213573659477765 -0.18464185645429379 0 -0.073675594713681902 -0.20146618813136349 0 -0.090233172642162962 -0.19781590526714549 0 -0.089155052797528167 -0.18404459043655011 0 -0.073675594713681902 -0.20146618813136349 0 -0.089155052797528167 -0.18404459043655011 0 -0.073675594713681902 -0.20146618813136349 0 -0.07213573659477765 -0.18464185645429379 0 -0.089155052797528167 -0.18404459043655011 0 -0.090233172642162962 -0.19781590526714549 0 -0.11023855300123241 -0.18933182634864409 0 -0.089155052797528167 -0.18404459043655011 0 -0.090233172642162962 -0.19781590526714549 0 -0.11023855300123241 -0.18933182634864409 0 -0.103872158142813 -0.20950759803314181 0 -0.11023855300123241 -0.18933182634864409 0 -0.1203508380757386 -0.20792606086752499 0 -0.103872158142813 -0.20950759803314181 0 -0.1203508380757386 -0.20792606086752499 0 -0.117195281036431 -0.23057071178205549 0 -0.13623400590796689 -0.21767556607224639 0 -0.1203508380757386 -0.20792606086752499 0 -0.103872158142813 -0.20950759803314181 0 -0.117195281036431 -0.23057071178205549 0 -0.092426125034966028 -0.2230752990999639 0 -0.090233172642162962 -0.19781590526714549 0 -0.103872158142813 -0.20950759803314181 0 -0.092426125034966028 -0.2230752990999639 0 -0.117195281036431 -0.23057071178205549 0 -0.09461907742776908 -0.2483346929327824 0 -0.092426125034966028 -0.2230752990999639 0 -0.103872158142813 -0.20950759803314181 0 -0.117195281036431 -0.23057071178205549 0 -0.11634393893025979 -0.25228084384553928 0 -0.117195281036431 -0.23057071178205549 0 -0.09461907742776908 -0.2483346929327824 0 -0.13190502157042211 -0.25072617741863201 0 -0.11634393893025979 -0.25228084384553928 0 -0.117195281036431 -0.23057071178205549 0 -0.082333871038512835 -0.1343179275555568 0 -0.08140437881574332 -0.16366647313137661 0 -0.098813407899773054 -0.14937123959284621 0 -0.059532204725599849 -0.15002088607454811 0 -0.060610838484087021 -0.1314003202688139 0 -0.082333871038512835 -0.1343179275555568 0 -0.070965667365074439 -0.1173043930244804 0 -0.060610838484087021 -0.1314003202688139 0 -0.082333871038512835 -0.1343179275555568 0 -0.059532204725599849 -0.15002088607454811 0 -0.082333871038512835 -0.1343179275555568 0 -0.059532204725599849 -0.15002088607454811 0 -0.082333871038512835 -0.1343179275555568 0 -0.08140437881574332 -0.16366647313137661 0 -0.056542705749465787 -0.1743473967071357 0 -0.059532204725599849 -0.15002088607454811 0 -0.08140437881574332 -0.16366647313137661 0 -0.056542705749465787 -0.1743473967071357 0 -0.07213573659477765 -0.18464185645429379 0 -0.08140437881574332 -0.16366647313137661 0 -0.07213573659477765 -0.18464185645429379 0 -0.089155052797528167 -0.18404459043655011 0 -0.08140437881574332 -0.16366647313137661 0 -0.089155052797528167 -0.18404459043655011 0 -0.08140437881574332 -0.16366647313137661 0 -0.1046345108813745 -0.16662299274173681 0 -0.08140437881574332 -0.16366647313137661 0 -0.1046345108813745 -0.16662299274173681 0 -0.098813407899773054 -0.14937123959284621 0 -0.11023855300123241 -0.18933182634864409 0 -0.089155052797528167 -0.18404459043655011 0 -0.1046345108813745 -0.16662299274173681 0 -0.089155052797528167 -0.18404459043655011 0 -0.1046345108813745 -0.16662299274173681 0 -0.11023855300123241 -0.18933182634864409 0 -0.1046345108813745 -0.16662299274173681 0 -0.12723545111342249 -0.16693242261751531 0 -0.1046345108813745 -0.16662299274173681 0 -0.12011396896522079 -0.14920139504692331 0 -0.1046345108813745 -0.16662299274173681 0 -0.12011396896522079 -0.14920139504692331 0 -0.12723545111342249 -0.16693242261751531 0 -0.1046345108813745 -0.16662299274173681 0 -0.12011396896522079 -0.14920139504692331 0 -0.098813407899773054 -0.14937123959284621 0 -0.12011396896522079 -0.14920139504692331 0 -0.098813407899773054 -0.14937123959284621 0 -0.10558030979801381 -0.1330474094886375 0 -0.082333871038512835 -0.1343179275555568 0 -0.098813407899773054 -0.14937123959284621 0 -0.10558030979801381 -0.1330474094886375 0 -0.097425521323536782 -0.113010558039779 0 -0.082333871038512835 -0.1343179275555568 0 -0.10558030979801381 -0.1330474094886375 0 -0.1174342759398118 -0.1212314737839226 0 -0.10558030979801381 -0.1330474094886375 0 -0.12692856010807471 -0.13607657467343601 0 -0.12011396896522079 -0.14920139504692331 0 -0.10558030979801381 -0.1330474094886375 0 -0.12692856010807471 -0.13607657467343601 0 -0.12692856010807471 -0.13607657467343601 0 -0.15042224429725781 -0.13156026486962469 0 -0.13464975142020449 -0.11779795748306381 0 -0.12692856010807471 -0.13607657467343601 0 -0.15042224429725781 -0.13156026486962469 0 -0.1348807246383148 -0.14879360752465759 0 -0.1174342759398118 -0.1212314737839226 0 -0.12692856010807471 -0.13607657467343601 0 -0.13464975142020449 -0.11779795748306381 0 -0.12692856010807471 -0.13607657467343601 0 -0.15042224429725781 -0.13156026486962469 0 -0.15042224429725781 -0.13156026486962469 0 -0.1348807246383148 -0.14879360752465759 0 -0.14764619765514109 -0.15964251548194419 0 -0.15042224429725781 -0.13156026486962469 0 -0.14764619765514109 -0.15964251548194419 0 -0.16517017523970201 -0.14814535032186141 0 -0.15042224429725781 -0.13156026486962469 0 -0.14764619765514109 -0.15964251548194419 0 -0.12011396896522079 -0.14920139504692331 0 -0.1348807246383148 -0.14879360752465759 0 -0.12723545111342249 -0.16693242261751531 0 -0.12011396896522079 -0.14920139504692331 0 -0.12692856010807471 -0.13607657467343601 0 -0.1348807246383148 -0.14879360752465759 0 -0.11023855300123241 -0.18933182634864409 0 -0.12723545111342249 -0.16693242261751531 0 -0.1448701510130232 -0.18772476609426361 0 -0.1348807246383148 -0.14879360752465759 0 -0.12723545111342249 -0.16693242261751531 0 -0.14764619765514109 -0.15964251548194419 0 -0.12723545111342249 -0.16693242261751531 0 -0.14764619765514109 -0.15964251548194419 0 -0.1448701510130232 -0.18772476609426361 0 -0.14764619765514109 -0.15964251548194419 0 -0.16789073520916559 -0.17201109602779149 0 -0.1448701510130232 -0.18772476609426361 0 -0.14764619765514109 -0.15964251548194419 0 -0.1448701510130232 -0.18772476609426361 0 -0.14764619765514109 -0.15964251548194419 0 -0.16789073520916559 -0.17201109602779149 0 -0.16517017523970201 -0.14814535032186141 0 -0.16789073520916559 -0.17201109602779149 0 -0.16460532204637821 -0.19365769372898581 0 -0.1826781660255751 -0.19102734095606949 0 -0.16789073520916559 -0.17201109602779149 0 -0.1448701510130232 -0.18772476609426361 0 -0.16460532204637821 -0.19365769372898581 0 -0.16789073520916559 -0.17201109602779149 0 -0.1826781660255751 -0.19102734095606949 0 -0.18858983352424749 -0.17333681994431269 0 -0.16789073520916559 -0.17201109602779149 0 -0.1867050954138593 -0.15324605169153249 0 -0.18858983352424749 -0.17333681994431269 0 -0.16789073520916559 -0.17201109602779149 0 -0.1867050954138593 -0.15324605169153249 0 -0.16517017523970201 -0.14814535032186141 0 -0.1867050954138593 -0.15324605169153249 0 -0.17668939490623681 -0.12651079758053249 0 -0.16517017523970201 -0.14814535032186141 0 -0.15042224429725781 -0.13156026486962469 0 -0.17668939490623681 -0.12651079758053249 0 -0.15042224429725781 -0.13156026486962469 0 -0.17668939490623681 -0.12651079758053249 0 -0.16517017523970201 -0.14814535032186141 0 -0.14952075690691799 -0.25482514058981742 0 -0.13940081639796401 -0.23604127279548659 0 -0.159962802380996 -0.2370314089208887 0 -0.13190502157042211 -0.25072617741863201 0 -0.117195281036431 -0.23057071178205549 0 -0.13940081639796401 -0.23604127279548659 0 -0.13190502157042211 -0.25072617741863201 0 -0.14952075690691799 -0.25482514058981742 0 -0.13940081639796401 -0.23604127279548659 0 -0.117195281036431 -0.23057071178205549 0 -0.13940081639796401 -0.23604127279548659 0 -0.13623400590796689 -0.21767556607224639 0 -0.13940081639796401 -0.23604127279548659 0 -0.15600670893055529 -0.21476591803681569 0 -0.13623400590796689 -0.21767556607224639 0 -0.13940081639796401 -0.23604127279548659 0 -0.15600670893055529 -0.21476591803681569 0 -0.159962802380996 -0.2370314089208887 0 -0.11023855300123241 -0.18933182634864409 0 -0.1203508380757386 -0.20792606086752499 0 -0.1448701510130232 -0.18772476609426361 0 -0.15600670893055529 -0.21476591803681569 0 -0.13623400590796689 -0.21767556607224639 0 -0.1448701510130232 -0.18772476609426361 0 -0.1203508380757386 -0.20792606086752499 0 -0.13623400590796689 -0.21767556607224639 0 -0.1448701510130232 -0.18772476609426361 0 -0.15600670893055529 -0.21476591803681569 0 -0.1448701510130232 -0.18772476609426361 0 -0.16460532204637821 -0.19365769372898581 0 -0.16460532204637821 -0.19365769372898581 0 -0.1826781660255751 -0.19102734095606949 0 -0.1735624682457885 -0.20766735819984891 0 -0.1735624682457885 -0.20766735819984891 0 -0.1761433433061636 -0.22685696037701941 0 -0.19225251584544231 -0.21375320505685499 0 -0.1826781660255751 -0.19102734095606949 0 -0.1735624682457885 -0.20766735819984891 0 -0.19225251584544231 -0.21375320505685499 0 -0.15600670893055529 -0.21476591803681569 0 -0.16460532204637821 -0.19365769372898581 0 -0.1735624682457885 -0.20766735819984891 0 -0.15600670893055529 -0.21476591803681569 0 -0.1735624682457885 -0.20766735819984891 0 -0.1761433433061636 -0.22685696037701941 0 -0.15600670893055529 -0.21476591803681569 0 -0.1761433433061636 -0.22685696037701941 0 -0.159962802380996 -0.2370314089208887 0 -0.1761433433061636 -0.22685696037701941 0 -0.19203986928588609 -0.23310343383104631 0 -0.19225251584544231 -0.21375320505685499 0 -0.1761433433061636 -0.22685696037701941 0 -0.1835419718658336 -0.246507750115222 0 -0.159962802380996 -0.2370314089208887 0 -0.1761433433061636 -0.22685696037701941 0 -0.1835419718658336 -0.246507750115222 0 -0.19203986928588609 -0.23310343383104631 0 -0.1670977427993986 -0.25356762789353199 0 -0.14952075690691799 -0.25482514058981742 0 -0.159962802380996 -0.2370314089208887 0 -0.1670977427993986 -0.25356762789353199 0 -0.1835419718658336 -0.246507750115222 0 -0.159962802380996 -0.2370314089208887 0 -0.22553938660679851 -0.25610747318490112 0 -0.20445492338319379 -0.24460995720693859 0 -0.21963282372470541 -0.23658525482100451 0 -0.20445492338319379 -0.24460995720693859 0 -0.2069494739289312 -0.22766342969538281 0 -0.21963282372470541 -0.23658525482100451 0 -0.1835419718658336 -0.246507750115222 0 -0.20445492338319379 -0.24460995720693859 0 -0.19203986928588609 -0.23310343383104631 0 -0.20445492338319379 -0.24460995720693859 0 -0.19203986928588609 -0.23310343383104631 0 -0.2069494739289312 -0.22766342969538281 0 -0.19203986928588609 -0.23310343383104631 0 -0.2069494739289312 -0.22766342969538281 0 -0.19225251584544231 -0.21375320505685499 0 -0.2069494739289312 -0.22766342969538281 0 -0.21082450863623201 -0.21286429363176451 0 -0.22465889542119771 -0.22110586240018409 0 -0.2069494739289312 -0.22766342969538281 0 -0.22465889542119771 -0.22110586240018409 0 -0.21963282372470541 -0.23658525482100451 0 -0.2069494739289312 -0.22766342969538281 0 -0.21082450863623201 -0.21286429363176451 0 -0.19225251584544231 -0.21375320505685499 0 -0.21082450863623201 -0.21286429363176451 0 -0.20431327467038801 -0.19760877065415669 0 -0.2259483833152009 -0.20419020035224411 0 -0.21082450863623201 -0.21286429363176451 0 -0.19225251584544231 -0.21375320505685499 0 -0.20431327467038801 -0.19760877065415669 0 -0.1826781660255751 -0.19102734095606949 0 -0.20431327467038801 -0.19760877065415669 0 -0.1826781660255751 -0.19102734095606949 0 -0.19225251584544231 -0.21375320505685499 0 -0.20431327467038801 -0.19760877065415669 0 -0.1826781660255751 -0.19102734095606949 0 -0.20431327467038801 -0.19760877065415669 0 -0.20839869204333589 -0.1818037423256908 0 -0.20431327467038801 -0.19760877065415669 0 -0.2259483833152009 -0.20419020035224411 0 -0.20839869204333589 -0.1818037423256908 0 -0.20431327467038801 -0.19760877065415669 0 -0.2259483833152009 -0.20419020035224411 0 -0.2259483833152009 -0.20419020035224411 0 -0.20839869204333589 -0.1818037423256908 0 -0.23046192297163401 -0.1805233946765398 0 -0.2410011031893961 -0.1951748177335508 0 -0.2259483833152009 -0.20419020035224411 0 -0.23046192297163401 -0.1805233946765398 0 -0.2410011031893961 -0.1951748177335508 0 -0.24758349196001381 -0.21077163005033109 0 -0.26001061451073582 -0.18521404585508841 0 -0.24758349196001381 -0.21077163005033109 0 -0.2259483833152009 -0.20419020035224411 0 -0.2410011031893961 -0.1951748177335508 0 -0.24758349196001381 -0.21077163005033109 0 -0.2259483833152009 -0.20419020035224411 0 -0.21082450863623201 -0.21286429363176451 0 -0.2259483833152009 -0.20419020035224411 0 -0.22465889542119771 -0.22110586240018409 0 -0.24758349196001381 -0.21077163005033109 0 -0.2259483833152009 -0.20419020035224411 0 -0.22465889542119771 -0.22110586240018409 0 -0.22465889542119771 -0.22110586240018409 0 -0.23656143928340551 -0.2334395516176157 0 -0.21963282372470541 -0.23658525482100451 0 -0.24758349196001381 -0.21077163005033109 0 -0.23656143928340551 -0.2334395516176157 0 -0.24758349196001381 -0.21077163005033109 0 -0.22465889542119771 -0.22110586240018409 0 -0.23656143928340551 -0.2334395516176157 0 -0.24758349196001381 -0.21077163005033109 0 -0.23656143928340551 -0.2334395516176157 0 -0.25546154519320902 -0.22812854792533949 0 -0.23656143928340551 -0.2334395516176157 0 -0.24829792030322589 -0.24782573342597289 0 -0.25546154519320902 -0.22812854792533949 0 -0.22553938660679851 -0.25610747318490112 0 -0.23656143928340551 -0.2334395516176157 0 -0.24829792030322589 -0.24782573342597289 0 -0.22553938660679851 -0.25610747318490112 0 -0.23656143928340551 -0.2334395516176157 0 -0.21963282372470541 -0.23658525482100451 0 -0.22553938660679851 -0.25610747318490112 0 -0.23656143928340551 -0.2334395516176157 0 -0.2065425340883176 -0.1516629958064778 0 -0.22229536177179579 -0.15211415715342519 0 -0.22209321394893949 -0.13379705403357231 0 -0.20354303623097381 -0.13603850785260449 0 -0.22209321394893949 -0.13379705403357231 0 -0.20295654551521569 -0.12146133029144079 0 -0.2065425340883176 -0.1516629958064778 0 -0.20354303623097381 -0.13603850785260449 0 -0.22209321394893949 -0.13379705403357231 0 -0.20354303623097381 -0.13603850785260449 0 -0.20295654551521569 -0.12146133029144079 0 -0.1867050954138593 -0.15324605169153249 0 -0.17668939490623681 -0.12651079758053249 0 -0.20354303623097381 -0.13603850785260449 0 -0.17668939490623681 -0.12651079758053249 0 -0.20354303623097381 -0.13603850785260449 0 -0.20295654551521569 -0.12146133029144079 0 -0.1867050954138593 -0.15324605169153249 0 -0.2065425340883176 -0.1516629958064778 0 -0.20354303623097381 -0.13603850785260449 0 -0.1867050954138593 -0.15324605169153249 0 -0.20185165736146801 -0.16684961605735879 0 -0.18858983352424749 -0.17333681994431269 0 -0.1867050954138593 -0.15324605169153249 0 -0.2065425340883176 -0.1516629958064778 0 -0.20185165736146801 -0.16684961605735879 0 -0.20185165736146801 -0.16684961605735879 0 -0.18858983352424749 -0.17333681994431269 0 -0.20839869204333589 -0.1818037423256908 0 -0.1826781660255751 -0.19102734095606949 0 -0.18858983352424749 -0.17333681994431269 0 -0.20839869204333589 -0.1818037423256908 0 -0.20185165736146801 -0.16684961605735879 0 -0.20839869204333589 -0.1818037423256908 0 -0.21802665873648239 -0.167302994371618 0 -0.2065425340883176 -0.1516629958064778 0 -0.20185165736146801 -0.16684961605735879 0 -0.21802665873648239 -0.167302994371618 0 -0.2065425340883176 -0.1516629958064778 0 -0.21802665873648239 -0.167302994371618 0 -0.22229536177179579 -0.15211415715342519 0 -0.21802665873648239 -0.167302994371618 0 -0.23046192297163401 -0.1805233946765398 0 -0.23627614412310499 -0.1615133026162052 0 -0.21802665873648239 -0.167302994371618 0 -0.23627614412310499 -0.1615133026162052 0 -0.22229536177179579 -0.15211415715342519 0 -0.20839869204333589 -0.1818037423256908 0 -0.21802665873648239 -0.167302994371618 0 -0.23046192297163401 -0.1805233946765398 0 -0.2410011031893961 -0.1951748177335508 0 -0.23046192297163401 -0.1805233946765398 0 -0.26001061451073582 -0.18521404585508841 0 -0.23046192297163401 -0.1805233946765398 0 -0.26001061451073582 -0.18521404585508841 0 -0.25091645840663013 -0.17637603814579611 0 -0.23046192297163401 -0.1805233946765398 0 -0.244449584344379 -0.17162131013761661 0 -0.25091645840663013 -0.17637603814579611 0 -0.23046192297163401 -0.1805233946765398 0 -0.26001061451073582 -0.18521404585508841 0 -0.23627614412310499 -0.1615133026162052 0 -0.244449584344379 -0.17162131013761661 0 -0.25651351907222891 -0.16575695802891849 0 -0.23046192297163401 -0.1805233946765398 0 -0.23627614412310499 -0.1615133026162052 0 -0.244449584344379 -0.17162131013761661 0 -0.23627614412310499 -0.1615133026162052 0 -0.24979743725614659 -0.1480852786081506 0 -0.25651351907222891 -0.16575695802891849 0 -0.24979743725614659 -0.1480852786081506 0 -0.23443965161148081 -0.14531762881191931 0 -0.2417361009574174 -0.13107835164824319 0 -0.23627614412310499 -0.1615133026162052 0 -0.24979743725614659 -0.1480852786081506 0 -0.23443965161148081 -0.14531762881191931 0 -0.23627614412310499 -0.1615133026162052 0 -0.23443965161148081 -0.14531762881191931 0 -0.22229536177179579 -0.15211415715342519 0 -0.23443965161148081 -0.14531762881191931 0 -0.22229536177179579 -0.15211415715342519 0 -0.22209321394893949 -0.13379705403357231 0 -0.23443965161148081 -0.14531762881191931 0 -0.22209321394893949 -0.13379705403357231 0 -0.2417361009574174 -0.13107835164824319 0 -0.22209321394893949 -0.13379705403357231 0 -0.2417361009574174 -0.13107835164824319 0 -0.2290330484928795 -0.1164485121613081 0 -0.2417361009574174 -0.13107835164824319 0 -0.2290330484928795 -0.1164485121613081 0 -0.25510955147054348 -0.1114356940311754 0 -0.2290330484928795 -0.1164485121613081 0 -0.25510955147054348 -0.1114356940311754 0 -0.2290330484928795 -0.1164485121613081 0 -0.23785610355444059 -0.092014800063554239 0 -0.25510955147054348 -0.1114356940311754 0 -0.2290330484928795 -0.1164485121613081 0 -0.23785610355444059 -0.092014800063554239 0 -0.21367923057321331 -0.10690942638472629 0 -0.22917208765230329 -0.067531326958075719 0 -0.25765642400509209 -0.069992013610756909 0 -0.23785610355444059 -0.092014800063554239 0 -0.22917208765230329 -0.067531326958075719 0 -0.25765642400509209 -0.069992013610756909 0 -0.23785610355444059 -0.092014800063554239 0 -0.21458615877991191 -0.080300333839821117 0 -0.21367923057321331 -0.10690942638472629 0 -0.23785610355444059 -0.092014800063554239 0 -0.22917208765230329 -0.067531326958075719 0 -0.21458615877991191 -0.080300333839821117 0 -0.22917208765230329 -0.067531326958075719 0 -0.20068775129951461 -0.065070640305394556 0 -0.22917208765230329 -0.067531326958075719 0 -0.20068775129951461 -0.065070640305394556 0 -0.21619927366059241 -0.056883930176080379 0 -0.22917208765230329 -0.067531326958075719 0 -0.21458615877991191 -0.080300333839821117 0 -0.20068775129951461 -0.065070640305394556 0 -0.21458615877991191 -0.080300333839821117 0 -0.2018221484073649 -0.093265985298417731 0 -0.21367923057321331 -0.10690942638472629 0 -0.21458615877991191 -0.080300333839821117 0 -0.2018221484073649 -0.093265985298417731 0 -0.20068775129951461 -0.065070640305394556 0 -0.2018221484073649 -0.093265985298417731 0 -0.190941051431324 -0.080120052354576421 0 -0.17895836696600739 -0.099716613486967254 0 -0.2018221484073649 -0.093265985298417731 0 -0.20068775129951461 -0.065070640305394556 0 -0.2018221484073649 -0.093265985298417731 0 -0.190941051431324 -0.080120052354576421 0 -0.20068775129951461 -0.065070640305394556 0 -0.190941051431324 -0.080120052354576421 0 -0.19109421900410381 -0.064241880365931467 0 -0.20068775129951461 -0.065070640305394556 0 -0.1803998751816098 -0.069046295682096387 0 -0.2003907679051368 -0.057689142941022953 0 -0.19109421900410381 -0.064241880365931467 0 -0.1803998751816098 -0.069046295682096387 0 -0.2003907679051368 -0.057689142941022953 0 -0.19109421900410381 -0.064241880365931467 0 -0.20068775129951461 -0.065070640305394556 0 -0.2290330484928795 -0.1164485121613081 0 -0.21367923057321331 -0.10690942638472629 0 -0.20295654551521569 -0.12146133029144079 0 -0.22209321394893949 -0.13379705403357231 0 -0.2290330484928795 -0.1164485121613081 0 -0.20295654551521569 -0.12146133029144079 0 -0.2290330484928795 -0.1164485121613081 0 -0.20295654551521569 -0.12146133029144079 0 -0.2018221484073649 -0.093265985298417731 0 -0.21367923057321331 -0.10690942638472629 0 -0.20295654551521569 -0.12146133029144079 0 -0.2018221484073649 -0.093265985298417731 0 -0.1877991083860808 -0.11345800615956191 0 -0.17895836696600739 -0.099716613486967254 0 -0.2018221484073649 -0.093265985298417731 0 -0.20295654551521569 -0.12146133029144079 0 -0.17668939490623681 -0.12651079758053249 0 -0.1877991083860808 -0.11345800615956191 0 -0.20295654551521569 -0.12146133029144079 0 -0.2018221484073649 -0.093265985298417731 0 -0.1877991083860808 -0.11345800615956191 0 -0.20295654551521569 -0.12146133029144079 0 -0.17668939490623681 -0.12651079758053249 0 -0.20295654551521569 -0.12146133029144079 0 -0.17668939490623681 -0.12651079758053249 0 -0.1877991083860808 -0.11345800615956191 0 -0.17895836696600739 -0.099716613486967254 0 -0.17668939490623681 -0.12651079758053249 0 -0.17895836696600739 -0.099716613486967254 0 -0.1526273212614612 -0.10925389472847651 0 -0.15042224429725781 -0.13156026486962469 0 -0.17668939490623681 -0.12651079758053249 0 -0.1526273212614612 -0.10925389472847651 0 -0.16599193985991589 -0.090809110396063805 0 -0.1548323982256633 -0.086947524587328129 0 -0.1526273212614612 -0.10925389472847651 0 -0.17895836696600739 -0.099716613486967254 0 -0.16599193985991589 -0.090809110396063805 0 -0.1526273212614612 -0.10925389472847651 0 -0.190941051431324 -0.080120052354576421 0 -0.17895836696600739 -0.099716613486967254 0 -0.175686984612868 -0.08418473463183182 0 -0.17895836696600739 -0.099716613486967254 0 -0.175686984612868 -0.08418473463183182 0 -0.16599193985991589 -0.090809110396063805 0 -0.190941051431324 -0.080120052354576421 0 -0.19109421900410381 -0.064241880365931467 0 -0.1803998751816098 -0.069046295682096387 0 -0.175686984612868 -0.08418473463183182 0 -0.1803998751816098 -0.069046295682096387 0 -0.16040898245808219 -0.080403448423168766 0 -0.190941051431324 -0.080120052354576421 0 -0.175686984612868 -0.08418473463183182 0 -0.1803998751816098 -0.069046295682096387 0 -0.1803998751816098 -0.069046295682096387 0 -0.16863531226060441 -0.068236305777929912 0 -0.1732320012061925 -0.058391568732209943 0 -0.1803998751816098 -0.069046295682096387 0 -0.16863531226060441 -0.068236305777929912 0 -0.16040898245808219 -0.080403448423168766 0 -0.1803998751816098 -0.069046295682096387 0 -0.16040898245808219 -0.080403448423168766 0 -0.16863531226060441 -0.068236305777929912 0 -0.16187238702213591 -0.06148476349085201 0 -0.1732320012061925 -0.058391568732209943 0 -0.16863531226060441 -0.068236305777929912 0 -0.16195371188401439 -0.070288371346511516 0 -0.16187238702213591 -0.06148476349085201 0 -0.16195371188401439 -0.070288371346511516 0 -0.16040898245808219 -0.080403448423168766 0 -0.15424336401974181 -0.070245427086689904 0 -0.16863531226060441 -0.068236305777929912 0 -0.16195371188401439 -0.070288371346511516 0 -0.16040898245808219 -0.080403448423168766 0 -0.16195371188401439 -0.070288371346511516 0 -0.15424336401974181 -0.070245427086689904 0 -0.16187238702213591 -0.06148476349085201 0 -0.175686984612868 -0.08418473463183182 0 -0.16599193985991589 -0.090809110396063805 0 -0.16040898245808219 -0.080403448423168766 0 -0.16599193985991589 -0.090809110396063805 0 -0.16040898245808219 -0.080403448423168766 0 -0.1548323982256633 -0.086947524587328129 0 -0.16040898245808219 -0.080403448423168766 0 -0.14577240694808891 -0.078005099622249455 0 -0.14041808973455461 -0.091760601164241132 0 -0.16040898245808219 -0.080403448423168766 0 -0.14041808973455461 -0.091760601164241132 0 -0.16040898245808219 -0.080403448423168766 0 -0.1548323982256633 -0.086947524587328129 0 -0.14041808973455461 -0.091760601164241132 0 -0.15424336401974181 -0.070245427086689904 0 -0.1502024381125068 -0.05917000328786326 0 -0.16187238702213591 -0.06148476349085201 0 -0.16040898245808219 -0.080403448423168766 0 -0.15424336401974181 -0.070245427086689904 0 -0.14577240694808891 -0.078005099622249455 0 -0.15424336401974181 -0.070245427086689904 0 -0.14577240694808891 -0.078005099622249455 0 -0.140202288333765 -0.066975708890877172 0 -0.15424336401974181 -0.070245427086689904 0 -0.140202288333765 -0.066975708890877172 0 -0.1502024381125068 -0.05917000328786326 0 -0.140202288333765 -0.066975708890877172 0 -0.13153467129835861 -0.080136189156815654 0 -0.12625576057893989 -0.061747420413339339 0 -0.14577240694808891 -0.078005099622249455 0 -0.140202288333765 -0.066975708890877172 0 -0.13153467129835861 -0.080136189156815654 0 -0.1204271970110269 -0.1031177539053135 0 -0.14041808973455461 -0.091760601164241132 0 -0.13153467129835861 -0.080136189156815654 0 -0.14577240694808891 -0.078005099622249455 0 -0.14041808973455461 -0.091760601164241132 0 -0.13153467129835861 -0.080136189156815654 0 -0.1204271970110269 -0.1031177539053135 0 -0.1370305898568118 -0.1054825518202737 0 -0.13464975142020449 -0.11779795748306381 0 -0.1204271970110269 -0.1031177539053135 0 -0.14041808973455461 -0.091760601164241132 0 -0.1204271970110269 -0.1031177539053135 0 -0.14041808973455461 -0.091760601164241132 0 -0.1370305898568118 -0.1054825518202737 0 -0.15042224429725781 -0.13156026486962469 0 -0.1526273212614612 -0.10925389472847651 0 -0.1370305898568118 -0.1054825518202737 0 -0.13464975142020449 -0.11779795748306381 0 -0.1526273212614612 -0.10925389472847651 0 -0.15042224429725781 -0.13156026486962469 0 -0.13464975142020449 -0.11779795748306381 0 -0.1526273212614612 -0.10925389472847651 0 -0.1548323982256633 -0.086947524587328129 0 -0.14041808973455461 -0.091760601164241132 0 -0.1526273212614612 -0.10925389472847651 0 -0.1548323982256633 -0.086947524587328129 0 -0.1526273212614612 -0.10925389472847651 0 -0.14041808973455461 -0.091760601164241132 0 -0.1370305898568118 -0.1054825518202737 0 -0.1526273212614612 -0.10925389472847651 0 -0.15611443532734939 -0.030705145050076429 0 -0.13886556023847221 -0.020816823841033592 0 -0.1622406895765654 -0.0080810254460947795 0 -0.14346822796634109 -0.00072879923856594079 0 -0.13886556023847221 -0.020816823841033592 0 -0.1622406895765654 -0.0080810254460947795 0 -0.14346822796634109 -0.00072879923856594079 0 -0.13072301095149069 -0.005437812573230668 0 -0.13886556023847221 -0.020816823841033592 0 -0.1190128475456516 -0.015143404725753861 0 -0.13072301095149069 -0.005437812573230668 0 -0.13886556023847221 -0.020816823841033592 0 -0.12355757272976151 -0.040102427850004389 0 -0.1190128475456516 -0.015143404725753861 0 -0.13886556023847221 -0.020816823841033592 0 -0.12355757272976151 -0.040102427850004389 0 -0.13886556023847221 -0.020816823841033592 0 -0.12355757272976151 -0.040102427850004389 0 -0.13886556023847221 -0.020816823841033592 0 -0.13919395099957679 -0.048653710766588858 0 -0.140202288333765 -0.066975708890877172 0 -0.13919395099957679 -0.048653710766588858 0 -0.12625576057893989 -0.061747420413339339 0 -0.12355757272976151 -0.040102427850004389 0 -0.13919395099957679 -0.048653710766588858 0 -0.12625576057893989 -0.061747420413339339 0 -0.140202288333765 -0.066975708890877172 0 -0.13919395099957679 -0.048653710766588858 0 -0.1502024381125068 -0.05917000328786326 0 -0.13919395099957679 -0.048653710766588858 0 -0.15550020018731439 -0.048490406204308348 0 -0.1502024381125068 -0.05917000328786326 0 -0.15550020018731439 -0.048490406204308348 0 -0.1502024381125068 -0.05917000328786326 0 -0.16187238702213591 -0.06148476349085201 0 -0.15611443532734939 -0.030705145050076429 0 -0.13886556023847221 -0.020816823841033592 0 -0.13919395099957679 -0.048653710766588858 0 -0.15611443532734939 -0.030705145050076429 0 -0.13919395099957679 -0.048653710766588858 0 -0.15550020018731439 -0.048490406204308348 0 -0.15611443532734939 -0.030705145050076429 0 -0.17028190314916719 -0.043581030183336589 0 -0.17557108451450651 -0.02596509085961235 0 -0.15611443532734939 -0.030705145050076429 0 -0.15550020018731439 -0.048490406204308348 0 -0.17028190314916719 -0.043581030183336589 0 -0.15550020018731439 -0.048490406204308348 0 -0.16187238702213591 -0.06148476349085201 0 -0.1653517200342666 -0.052888855099095883 0 -0.15550020018731439 -0.048490406204308348 0 -0.17028190314916719 -0.043581030183336589 0 -0.1653517200342666 -0.052888855099095883 0 -0.17028190314916719 -0.043581030183336589 0 -0.1653517200342666 -0.052888855099095883 0 -0.1732320012061925 -0.058391568732209943 0 -0.16187238702213591 -0.06148476349085201 0 -0.1653517200342666 -0.052888855099095883 0 -0.1732320012061925 -0.058391568732209943 0 -0.1803998751816098 -0.069046295682096387 0 -0.1732320012061925 -0.058391568732209943 0 -0.18135424147131499 -0.051614077070536862 0 -0.1803998751816098 -0.069046295682096387 0 -0.18135424147131499 -0.051614077070536862 0 -0.1913709798523168 -0.05180147635962791 0 -0.17028190314916719 -0.043581030183336589 0 -0.1732320012061925 -0.058391568732209943 0 -0.18135424147131499 -0.051614077070536862 0 -0.18135424147131499 -0.051614077070536862 0 -0.18554012794348559 -0.040564661807980573 0 -0.1913709798523168 -0.05180147635962791 0 -0.18554012794348559 -0.040564661807980573 0 -0.17557108451450651 -0.02596509085961235 0 -0.19288469192577129 -0.027385970016539089 0 -0.17028190314916719 -0.043581030183336589 0 -0.18554012794348559 -0.040564661807980573 0 -0.17557108451450651 -0.02596509085961235 0 -0.17028190314916719 -0.043581030183336589 0 -0.18135424147131499 -0.051614077070536862 0 -0.18554012794348559 -0.040564661807980573 0 -0.17557108451450651 -0.02596509085961235 0 -0.18701109662081961 -0.010325168466654461 0 -0.19288469192577129 -0.027385970016539089 0 -0.15611443532734939 -0.030705145050076429 0 -0.17557108451450651 -0.02596509085961235 0 -0.1622406895765654 -0.0080810254460947795 0 -0.17557108451450651 -0.02596509085961235 0 -0.1622406895765654 -0.0080810254460947795 0 -0.18701109662081961 -0.010325168466654461 0 -0.1622406895765654 -0.0080810254460947795 0 -0.18701109662081961 -0.010325168466654461 0 -0.17798670521398249 0.01035253212461292 0 -0.18701109662081961 -0.010325168466654461 0 -0.20362176907401769 -0.01480843455015322 0 -0.20691340487803511 0.002975467710678561 0 -0.18701109662081961 -0.010325168466654461 0 -0.19288469192577129 -0.027385970016539089 0 -0.20362176907401769 -0.01480843455015322 0 -0.19288469192577129 -0.027385970016539089 0 -0.2089970088199874 -0.029214278871118961 0 -0.20362176907401769 -0.01480843455015322 0 -0.2089970088199874 -0.029214278871118961 0 -0.20362176907401769 -0.01480843455015322 0 -0.22145944420988151 -0.017959813382455361 0 -0.20362176907401769 -0.01480843455015322 0 -0.22145944420988151 -0.017959813382455361 0 -0.20691340487803511 0.002975467710678561 0 -0.20362176907401769 -0.01480843455015322 0 -0.20691340487803511 0.002975467710678561 0 -0.1803998751816098 -0.069046295682096387 0 -0.2003907679051368 -0.057689142941022953 0 -0.1913709798523168 -0.05180147635962791 0 -0.19109421900410381 -0.064241880365931467 0 -0.20068775129951461 -0.065070640305394556 0 -0.2003907679051368 -0.057689142941022953 0 -0.20068775129951461 -0.065070640305394556 0 -0.2003907679051368 -0.057689142941022953 0 -0.2003907679051368 -0.057689142941022953 0 -0.1913709798523168 -0.05180147635962791 0 -0.19983259832357339 -0.04381588479552747 0 -0.2003907679051368 -0.057689142941022953 0 -0.19983259832357339 -0.04381588479552747 0 -0.19288469192577129 -0.027385970016539089 0 -0.2089970088199874 -0.029214278871118961 0 -0.19983259832357339 -0.04381588479552747 0 -0.18554012794348559 -0.040564661807980573 0 -0.19288469192577129 -0.027385970016539089 0 -0.19983259832357339 -0.04381588479552747 0 -0.18554012794348559 -0.040564661807980573 0 -0.1913709798523168 -0.05180147635962791 0 -0.19983259832357339 -0.04381588479552747 0 -0.2089970088199874 -0.029214278871118961 0 -0.19983259832357339 -0.04381588479552747 0 -0.22648235569734321 -0.042866085666326652 0 -0.2003907679051368 -0.057689142941022953 0 -0.22648235569734321 -0.042866085666326652 0 -0.2003907679051368 -0.057689142941022953 0 -0.21619927366059241 -0.056883930176080379 0 -0.22648235569734321 -0.042866085666326652 0 -0.2003907679051368 -0.057689142941022953 0 -0.19983259832357339 -0.04381588479552747 0 -0.22648235569734321 -0.042866085666326652 0 -0.20068775129951461 -0.065070640305394556 0 -0.2003907679051368 -0.057689142941022953 0 -0.21619927366059241 -0.056883930176080379 0 -0.22917208765230329 -0.067531326958075719 0 -0.21619927366059241 -0.056883930176080379 0 -0.22648235569734321 -0.042866085666326652 0 -0.22648235569734321 -0.042866085666326652 0 -0.23932329073706721 -0.026411523131329721 0 -0.25388588928690081 -0.045058880800337188 0 -0.22917208765230329 -0.067531326958075719 0 -0.22648235569734321 -0.042866085666326652 0 -0.25388588928690081 -0.045058880800337188 0 -0.22917208765230329 -0.067531326958075719 0 -0.25388588928690081 -0.045058880800337188 0 -0.25765642400509209 -0.069992013610756909 0 -0.23578128998160799 -0.0043865974532140608 0 -0.20691340487803511 0.002975467710678561 0 -0.22145944420988151 -0.017959813382455361 0 -0.23578128998160799 -0.0043865974532140608 0 -0.20691340487803511 0.002975467710678561 0 -0.22648235569734321 -0.042866085666326652 0 -0.22145944420988151 -0.017959813382455361 0 -0.23932329073706721 -0.026411523131329721 0 -0.2089970088199874 -0.029214278871118961 0 -0.22648235569734321 -0.042866085666326652 0 -0.22145944420988151 -0.017959813382455361 0 -0.22145944420988151 -0.017959813382455361 0 -0.23932329073706721 -0.026411523131329721 0 -0.23578128998160799 -0.0043865974532140608 0 -0.23932329073706721 -0.026411523131329721 0 -0.23578128998160799 -0.0043865974532140608 0 -0.25900747450960282 -0.021786238354315309 0 -0.23578128998160799 -0.0043865974532140608 0 -0.25900747450960282 -0.021786238354315309 0 -0.25440382098127251 0.00065316407925673781 0 -0.25900747450960282 -0.021786238354315309 0 -0.27240378417376582 -0.003003043958320204 0 -0.25440382098127251 0.00065316407925673781 0 -0.23932329073706721 -0.026411523131329721 0 -0.25900747450960282 -0.021786238354315309 0 -0.25388588928690081 -0.045058880800337188 0 -0.25900747450960282 -0.021786238354315309 0 -0.27448151213116628 -0.019863449650200309 0 -0.27743407085693939 -0.036003245137224353 0 -0.27448151213116628 -0.019863449650200309 0 -0.28908071898435739 -0.01866127115094136 0 -0.27743407085693939 -0.036003245137224353 0 -0.25900747450960282 -0.021786238354315309 0 -0.27448151213116628 -0.019863449650200309 0 -0.27240378417376582 -0.003003043958320204 0 -0.27448151213116628 -0.019863449650200309 0 -0.27240378417376582 -0.003003043958320204 0 -0.28908071898435739 -0.01866127115094136 0 -0.29276646731868922 -0.0013987410529109081 0 -0.28908071898435739 -0.01866127115094136 0 -0.30125682179293012 -0.01626612804378598 0 -0.27240378417376582 -0.003003043958320204 0 -0.29276646731868922 -0.0013987410529109081 0 -0.28908071898435739 -0.01866127115094136 0 -0.28908071898435739 -0.01866127115094136 0 -0.30125682179293012 -0.01626612804378598 0 -0.29697139940341177 -0.034456552897005957 0 -0.28908071898435739 -0.01866127115094136 0 -0.29697139940341177 -0.034456552897005957 0 -0.27743407085693939 -0.036003245137224353 0 -0.30125682179293012 -0.01626612804378598 0 -0.3122687049375778 -0.024091360851427188 0 -0.29697139940341177 -0.034456552897005957 0 -0.3122687049375778 -0.024091360851427188 0 -0.30737101450398863 -0.0043330092588996019 0 -0.30125682179293012 -0.01626612804378598 0 -0.3122687049375778 -0.024091360851427188 0 -0.30737101450398863 -0.0043330092588996019 0 -0.29276646731868922 -0.0013987410529109081 0 -0.30125682179293012 -0.01626612804378598 0 -0.30737101450398863 -0.0043330092588996019 0 -0.30553135590384223 -0.072466478758290542 0 -0.31353693143861472 -0.044857678453813013 0 -0.29779332840307399 -0.055033103785140723 0 -0.30553135590384223 -0.072466478758290542 0 -0.31353693143861472 -0.044857678453813013 0 -0.3122687049375778 -0.024091360851427188 0 -0.29697139940341177 -0.034456552897005957 0 -0.31353693143861472 -0.044857678453813013 0 -0.29779332840307399 -0.055033103785140723 0 -0.29697139940341177 -0.034456552897005957 0 -0.31353693143861472 -0.044857678453813013 0 -0.29779332840307399 -0.055033103785140723 0 -0.29697139940341177 -0.034456552897005957 0 -0.28579884361525942 -0.046618560980095598 0 -0.29697139940341177 -0.034456552897005957 0 -0.28579884361525942 -0.046618560980095598 0 -0.27743407085693939 -0.036003245137224353 0 -0.29779332840307399 -0.055033103785140723 0 -0.28579884361525942 -0.046618560980095598 0 -0.28785212937693039 -0.061855340410438997 0 -0.29779332840307399 -0.055033103785140723 0 -0.28785212937693039 -0.061855340410438997 0 -0.29603677281539909 -0.068225607875615615 0 -0.28579884361525942 -0.046618560980095598 0 -0.28785212937693039 -0.061855340410438997 0 -0.27671571701783571 -0.055767616000114761 0 -0.27671571701783571 -0.055767616000114761 0 -0.27743407085693939 -0.036003245137224353 0 -0.25388588928690081 -0.045058880800337188 0 -0.28579884361525942 -0.046618560980095598 0 -0.27671571701783571 -0.055767616000114761 0 -0.27743407085693939 -0.036003245137224353 0 -0.25900747450960282 -0.021786238354315309 0 -0.27743407085693939 -0.036003245137224353 0 -0.25388588928690081 -0.045058880800337188 0 -0.27671571701783571 -0.055767616000114761 0 -0.25388588928690081 -0.045058880800337188 0 -0.25765642400509209 -0.069992013610756909 0 -0.23785610355444059 -0.092014800063554239 0 -0.25765642400509209 -0.069992013610756909 0 -0.26493997850700329 -0.091045998968474554 0 -0.25765642400509209 -0.069992013610756909 0 -0.26493997850700329 -0.091045998968474554 0 -0.27558678456986141 -0.081458188908350049 0 -0.26493997850700329 -0.091045998968474554 0 -0.27558678456986141 -0.081458188908350049 0 -0.28440579691331469 -0.090743484941712152 0 -0.27558678456986141 -0.081458188908350049 0 -0.28370504409196717 -0.080268403782863124 0 -0.28440579691331469 -0.090743484941712152 0 -0.27671571701783571 -0.055767616000114761 0 -0.25765642400509209 -0.069992013610756909 0 -0.28614076035788089 -0.0724527002634381 0 -0.25765642400509209 -0.069992013610756909 0 -0.28614076035788089 -0.0724527002634381 0 -0.25765642400509209 -0.069992013610756909 0 -0.27558678456986141 -0.081458188908350049 0 -0.28614076035788089 -0.0724527002634381 0 -0.25510955147054348 -0.1114356940311754 0 -0.27443259859187469 -0.11696764363190409 0 -0.26239997571054502 -0.13313794113371141 0 -0.23785610355444059 -0.092014800063554239 0 -0.26493997850700329 -0.091045998968474554 0 -0.25510955147054348 -0.1114356940311754 0 -0.26493997850700329 -0.091045998968474554 0 -0.25510955147054348 -0.1114356940311754 0 -0.27365947825357112 -0.1030048811840789 0 -0.27365947825357112 -0.1030048811840789 0 -0.27443259859187469 -0.11696764363190409 0 -0.28940946578511928 -0.10483158434712821 0 -0.26493997850700329 -0.091045998968474554 0 -0.27365947825357112 -0.1030048811840789 0 -0.28440579691331469 -0.090743484941712152 0 -0.25510955147054348 -0.1114356940311754 0 -0.27365947825357112 -0.1030048811840789 0 -0.27443259859187469 -0.11696764363190409 0 -0.28940946578511928 -0.10483158434712821 0 -0.29948807541511741 -0.1138159121037627 0 -0.29013209704342657 -0.13324392767630419 0 -0.28940946578511928 -0.10483158434712821 0 -0.29013209704342657 -0.13324392767630419 0 -0.27443259859187469 -0.11696764363190409 0 -0.28940946578511928 -0.10483158434712821 0 -0.29013209704342657 -0.13324392767630419 0 -0.28940946578511928 -0.10483158434712821 0 -0.29752578036906963 -0.1000752790627681 0 -0.28868683452681188 -0.076419241017952222 0 -0.27365947825357112 -0.1030048811840789 0 -0.28940946578511928 -0.10483158434712821 0 -0.28440579691331469 -0.090743484941712152 0 -0.28940946578511928 -0.10483158434712821 0 -0.29752578036906963 -0.1000752790627681 0 -0.29948807541511741 -0.1138159121037627 0 -0.29752578036906963 -0.1000752790627681 0 -0.30839747515922927 -0.10625178233707711 0 -0.30035781515576349 -0.090308450614076413 0 -0.30035781515576349 -0.090308450614076413 0 -0.31920701414489627 -0.09898729205926575 0 -0.30839747515922927 -0.10625178233707711 0 -0.30035781515576349 -0.090308450614076413 0 -0.31920701414489627 -0.09898729205926575 0 -0.29752578036906963 -0.1000752790627681 0 -0.30035781515576349 -0.090308450614076413 0 -0.29752578036906963 -0.1000752790627681 0 -0.30839747515922927 -0.10625178233707711 0 -0.29948807541511741 -0.1138159121037627 0 -0.31197555871874222 -0.1246769870955361 0 -0.29948807541511741 -0.1138159121037627 0 -0.29013209704342657 -0.13324392767630419 0 -0.30839747515922927 -0.10625178233707711 0 -0.31197555871874222 -0.1246769870955361 0 -0.29948807541511741 -0.1138159121037627 0 -0.28785212937693039 -0.061855340410438997 0 -0.27671571701783571 -0.055767616000114761 0 -0.28614076035788089 -0.0724527002634381 0 -0.29139270464436928 -0.071881958599821646 0 -0.28868683452681188 -0.076419241017952222 0 -0.29690058794877278 -0.078044966455667691 0 -0.29139270464436928 -0.071881958599821646 0 -0.29603677281539909 -0.068225607875615615 0 -0.29690058794877278 -0.078044966455667691 0 -0.28785212937693039 -0.061855340410438997 0 -0.29139270464436928 -0.071881958599821646 0 -0.29603677281539909 -0.068225607875615615 0 -0.28785212937693039 -0.061855340410438997 0 -0.29139270464436928 -0.071881958599821646 0 -0.28614076035788089 -0.0724527002634381 0 -0.27558678456986141 -0.081458188908350049 0 -0.28614076035788089 -0.0724527002634381 0 -0.28370504409196717 -0.080268403782863124 0 -0.28614076035788089 -0.0724527002634381 0 -0.28868683452681188 -0.076419241017952222 0 -0.28370504409196717 -0.080268403782863124 0 -0.29139270464436928 -0.071881958599821646 0 -0.28614076035788089 -0.0724527002634381 0 -0.28868683452681188 -0.076419241017952222 0 -0.29752578036906963 -0.1000752790627681 0 -0.28868683452681188 -0.076419241017952222 0 -0.29690058794877278 -0.078044966455667691 0 -0.28868683452681188 -0.076419241017952222 0 -0.28370504409196717 -0.080268403782863124 0 -0.28440579691331469 -0.090743484941712152 0 -0.28940946578511928 -0.10483158434712821 0 -0.28868683452681188 -0.076419241017952222 0 -0.28440579691331469 -0.090743484941712152 0 -0.28940946578511928 -0.10483158434712821 0 -0.28868683452681188 -0.076419241017952222 0 -0.30035781515576349 -0.090308450614076413 0 -0.30553135590384223 -0.072466478758290542 0 -0.31408137714229162 -0.085995436480834284 0 -0.29752578036906963 -0.1000752790627681 0 -0.30035781515576349 -0.090308450614076413 0 -0.29690058794877278 -0.078044966455667691 0 -0.30035781515576349 -0.090308450614076413 0 -0.30553135590384223 -0.072466478758290542 0 -0.30035781515576349 -0.090308450614076413 0 -0.30553135590384223 -0.072466478758290542 0 -0.29690058794877278 -0.078044966455667691 0 -0.30035781515576349 -0.090308450614076413 0 -0.31408137714229162 -0.085995436480834284 0 -0.31920701414489627 -0.09898729205926575 0 -0.29779332840307399 -0.055033103785140723 0 -0.29603677281539909 -0.068225607875615615 0 -0.30553135590384223 -0.072466478758290542 0 -0.29603677281539909 -0.068225607875615615 0 -0.30553135590384223 -0.072466478758290542 0 -0.29690058794877278 -0.078044966455667691 0 -0.30553135590384223 -0.072466478758290542 0 -0.32194944371834427 -0.062501567545088843 0 -0.32227902223300031 -0.077030368950773698 0 -0.32194944371834427 -0.062501567545088843 0 -0.32227902223300031 -0.077030368950773698 0 -0.33415125653598821 -0.068560016685151146 0 -0.30553135590384223 -0.072466478758290542 0 -0.32227902223300031 -0.077030368950773698 0 -0.31408137714229162 -0.085995436480834284 0 -0.32227902223300031 -0.077030368950773698 0 -0.31408137714229162 -0.085995436480834284 0 -0.32427572554130563 -0.088189745873117981 0 -0.31408137714229162 -0.085995436480834284 0 -0.32427572554130563 -0.088189745873117981 0 -0.31920701414489627 -0.09898729205926575 0 -0.32227902223300031 -0.077030368950773698 0 -0.32427572554130563 -0.088189745873117981 0 -0.33374328086813448 -0.084059975030391643 0 -0.32427572554130563 -0.088189745873117981 0 -0.33374328086813448 -0.084059975030391643 0 -0.332067933318205 -0.094875656844324474 0 -0.33374328086813448 -0.084059975030391643 0 -0.34528133990093118 -0.080763376461902361 0 -0.3450933002825749 -0.09352552301500347 0 -0.33374328086813448 -0.084059975030391643 0 -0.332067933318205 -0.094875656844324474 0 -0.3450933002825749 -0.09352552301500347 0 -0.33415125653598821 -0.068560016685151146 0 -0.34528133990093118 -0.080763376461902361 0 -0.34827619167673241 -0.055153848520419067 0 -0.33374328086813448 -0.084059975030391643 0 -0.33415125653598821 -0.068560016685151146 0 -0.34528133990093118 -0.080763376461902361 0 -0.32227902223300031 -0.077030368950773698 0 -0.33374328086813448 -0.084059975030391643 0 -0.33415125653598821 -0.068560016685151146 0 -0.31197555871874222 -0.1246769870955361 0 -0.32267064030218379 -0.1126400900047403 0 -0.33302846690082011 -0.116517695728242 0 -0.30839747515922927 -0.10625178233707711 0 -0.31197555871874222 -0.1246769870955361 0 -0.32267064030218379 -0.1126400900047403 0 -0.32267064030218379 -0.1126400900047403 0 -0.32815747674712559 -0.10892870477048371 0 -0.33302846690082011 -0.116517695728242 0 -0.32267064030218379 -0.1126400900047403 0 -0.33302846690082011 -0.116517695728242 0 -0.32267064030218379 -0.1126400900047403 0 -0.31920701414489627 -0.09898729205926575 0 -0.32815747674712559 -0.10892870477048371 0 -0.30839747515922927 -0.10625178233707711 0 -0.32267064030218379 -0.1126400900047403 0 -0.31920701414489627 -0.09898729205926575 0 -0.32427572554130563 -0.088189745873117981 0 -0.31920701414489627 -0.09898729205926575 0 -0.332067933318205 -0.094875656844324474 0 -0.31920701414489627 -0.09898729205926575 0 -0.33772378564060029 -0.10756974128968561 0 -0.32815747674712559 -0.10892870477048371 0 -0.31920701414489627 -0.09898729205926575 0 -0.332067933318205 -0.094875656844324474 0 -0.33772378564060029 -0.10756974128968561 0 -0.31920701414489627 -0.09898729205926575 0 -0.33772378564060029 -0.10756974128968561 0 -0.332067933318205 -0.094875656844324474 0 -0.33772378564060029 -0.10756974128968561 0 -0.3450933002825749 -0.09352552301500347 0 -0.33772378564060029 -0.10756974128968561 0 -0.3450933002825749 -0.09352552301500347 0 -0.33302846690082011 -0.116517695728242 0 -0.35439246048661499 -0.12451562299765891 0 -0.33772378564060029 -0.10756974128968561 0 -0.33302846690082011 -0.116517695728242 0 -0.35585752130570908 -0.1159746549507823 0 -0.33302846690082011 -0.116517695728242 0 -0.35439246048661499 -0.12451562299765891 0 -0.34002231122023863 -0.13347939898964339 0 -0.33772378564060029 -0.10756974128968561 0 -0.33302846690082011 -0.116517695728242 0 -0.33772378564060029 -0.10756974128968561 0 -0.32815747674712559 -0.10892870477048371 0 -0.33302846690082011 -0.116517695728242 0 -0.33302846690082011 -0.116517695728242 0 -0.35585752130570908 -0.1159746549507823 0 -0.35439246048661499 -0.12451562299765891 0 -0.33772378564060029 -0.10756974128968561 0 -0.35585752130570908 -0.1159746549507823 0 -0.35585752130570908 -0.1159746549507823 0 -0.35238879220120117 -0.1035603214189104 0 -0.36941498139749829 -0.1032922115518254 0 -0.33772378564060029 -0.10756974128968561 0 -0.35585752130570908 -0.1159746549507823 0 -0.35238879220120117 -0.1035603214189104 0 -0.33772378564060029 -0.10756974128968561 0 -0.35238879220120117 -0.1035603214189104 0 -0.3450933002825749 -0.09352552301500347 0 -0.35238879220120117 -0.1035603214189104 0 -0.35755390387979891 -0.093851694021335544 0 -0.3450933002825749 -0.09352552301500347 0 -0.35238879220120117 -0.1035603214189104 0 -0.35755390387979891 -0.093851694021335544 0 -0.36941498139749829 -0.1032922115518254 0 -0.35585752130570908 -0.1159746549507823 0 -0.36941498139749829 -0.1032922115518254 0 -0.3739912569708187 -0.1243795686118775 0 -0.35585752130570908 -0.1159746549507823 0 -0.3739912569708187 -0.1243795686118775 0 -0.36941498139749829 -0.1032922115518254 0 -0.3739912569708187 -0.1243795686118775 0 -0.38015779294788898 -0.1126213161533491 0 -0.35585752130570908 -0.1159746549507823 0 -0.35439246048661499 -0.12451562299765891 0 -0.3739912569708187 -0.1243795686118775 0 -0.36941498139749829 -0.1032922115518254 0 -0.3739912569708187 -0.1243795686118775 0 -0.35774039456930601 -0.070079110435945308 0 -0.34528133990093118 -0.080763376461902361 0 -0.36483870582417521 -0.08220485449177399 0 -0.34528133990093118 -0.080763376461902361 0 -0.34827619167673241 -0.055153848520419067 0 -0.35774039456930601 -0.070079110435945308 0 -0.34528133990093118 -0.080763376461902361 0 -0.34827619167673241 -0.055153848520419067 0 -0.35755390387979891 -0.093851694021335544 0 -0.34528133990093118 -0.080763376461902361 0 -0.36483870582417521 -0.08220485449177399 0 -0.35755390387979891 -0.093851694021335544 0 -0.34528133990093118 -0.080763376461902361 0 -0.3450933002825749 -0.09352552301500347 0 -0.36941498139749829 -0.1032922115518254 0 -0.36483870582417521 -0.08220485449177399 0 -0.36941498139749829 -0.1032922115518254 0 -0.36483870582417521 -0.08220485449177399 0 -0.38210270571931482 -0.083490593739675559 0 -0.35755390387979891 -0.093851694021335544 0 -0.36941498139749829 -0.1032922115518254 0 -0.36483870582417521 -0.08220485449177399 0 -0.35774039456930601 -0.070079110435945308 0 -0.36483870582417521 -0.08220485449177399 0 -0.37256534087538529 -0.062194362269685839 0 -0.36483870582417521 -0.08220485449177399 0 -0.37256534087538529 -0.062194362269685839 0 -0.38210270571931482 -0.083490593739675559 0 -0.35774039456930601 -0.070079110435945308 0 -0.37256534087538529 -0.062194362269685839 0 -0.34827619167673241 -0.055153848520419067 0 -0.37256534087538529 -0.062194362269685839 0 -0.34827619167673241 -0.055153848520419067 0 -0.36782868189174639 -0.042254469611562033 0 -0.34827619167673241 -0.055153848520419067 0 -0.35127104345253363 -0.029544320578935749 0 -0.34827619167673241 -0.055153848520419067 0 -0.36782868189174639 -0.042254469611562033 0 -0.35127104345253363 -0.029544320578935749 0 -0.36782868189174639 -0.042254469611562033 0 -0.35127104345253363 -0.029544320578935749 0 -0.37810958769244252 -0.025069686016307331 0 -0.35426589522833479 -0.0039347926374523889 0 -0.35127104345253363 -0.029544320578935749 0 -0.37810958769244252 -0.025069686016307331 0 -0.35426589522833479 -0.0039347926374523889 0 -0.37978125087613779 -0.0020942699323121378 0 -0.37810958769244252 -0.025069686016307331 0 -0.35426589522833479 -0.0039347926374523889 0 -0.3378008196820424 -0.010337744317943751 0 -0.34279599242091202 0.01035116478988357 0 -0.35426589522833479 -0.0039347926374523889 0 -0.35127104345253363 -0.029544320578935749 0 -0.3378008196820424 -0.010337744317943751 0 -0.35426589522833479 -0.0039347926374523889 0 -0.35127104345253363 -0.029544320578935749 0 -0.35127104345253363 -0.029544320578935749 0 -0.33332454603800488 -0.022386649293767311 0 -0.33155878551074858 -0.03511831166021083 0 -0.33332454603800488 -0.022386649293767311 0 -0.32154250697338732 -0.01724887814933548 0 -0.33155878551074858 -0.03511831166021083 0 -0.33332454603800488 -0.022386649293767311 0 -0.3378008196820424 -0.010337744317943751 0 -0.32154250697338732 -0.01724887814933548 0 -0.35127104345253363 -0.029544320578935749 0 -0.33332454603800488 -0.022386649293767311 0 -0.3378008196820424 -0.010337744317943751 0 -0.3378008196820424 -0.010337744317943751 0 -0.3200740018433208 -0.0046276192937831457 0 -0.3286331089770298 0.0047635663336856454 0 -0.3122687049375778 -0.024091360851427188 0 -0.30737101450398863 -0.0043330092588996019 0 -0.32154250697338732 -0.01724887814933548 0 -0.3378008196820424 -0.010337744317943751 0 -0.3200740018433208 -0.0046276192937831457 0 -0.32154250697338732 -0.01724887814933548 0 -0.30737101450398863 -0.0043330092588996019 0 -0.3200740018433208 -0.0046276192937831457 0 -0.32154250697338732 -0.01724887814933548 0 -0.30737101450398863 -0.0043330092588996019 0 -0.3200740018433208 -0.0046276192937831457 0 -0.31495711888873212 0.008631866307555195 0 -0.3122687049375778 -0.024091360851427188 0 -0.32154250697338732 -0.01724887814933548 0 -0.31353693143861472 -0.044857678453813013 0 -0.32154250697338732 -0.01724887814933548 0 -0.31353693143861472 -0.044857678453813013 0 -0.31353693143861472 -0.044857678453813013 0 -0.33111817222146872 -0.052249795312845349 0 -0.33155878551074858 -0.03511831166021083 0 -0.32154250697338732 -0.01724887814933548 0 -0.31353693143861472 -0.044857678453813013 0 -0.33155878551074858 -0.03511831166021083 0 -0.30553135590384223 -0.072466478758290542 0 -0.32194944371834427 -0.062501567545088843 0 -0.31353693143861472 -0.044857678453813013 0 -0.32194944371834427 -0.062501567545088843 0 -0.31353693143861472 -0.044857678453813013 0 -0.33111817222146872 -0.052249795312845349 0 -0.34827619167673241 -0.055153848520419067 0 -0.33111817222146872 -0.052249795312845349 0 -0.33155878551074858 -0.03511831166021083 0 -0.32194944371834427 -0.062501567545088843 0 -0.33415125653598821 -0.068560016685151146 0 -0.33111817222146872 -0.052249795312845349 0 -0.33415125653598821 -0.068560016685151146 0 -0.34827619167673241 -0.055153848520419067 0 -0.33111817222146872 -0.052249795312845349 0 -0.34827619167673241 -0.055153848520419067 0 -0.35127104345253363 -0.029544320578935749 0 -0.33155878551074858 -0.03511831166021083 0 -0.29849798421377383 -0.23770053747384359 0 -0.32296158902636862 -0.2429857857952496 0 -0.29849798421377383 -0.23770053747384359 0 -0.31163932664942717 -0.23235221995903069 0 -0.32296158902636862 -0.2429857857952496 0 -0.29849798421377383 -0.23770053747384359 0 -0.30954081865794197 -0.24672666549110259 0 -0.32296158902636862 -0.2429857857952496 0 -0.29849798421377383 -0.23770053747384359 0 -0.29734260713052812 -0.24800537893864891 0 -0.30954081865794197 -0.24672666549110259 0 -0.31163932664942717 -0.23235221995903069 0 -0.3051534896264817 -0.22329495734419061 0 -0.31536821525987019 -0.22481605273290339 0 -0.31163932664942717 -0.23235221995903069 0 -0.3051534896264817 -0.22329495734419061 0 -0.30276213199168012 -0.2296935033221793 0 -0.3051534896264817 -0.22329495734419061 0 -0.30276213199168012 -0.2296935033221793 0 -0.29575772747703788 -0.22542629851165241 0 -0.3051534896264817 -0.22329495734419061 0 -0.29575772747703788 -0.22542629851165241 0 -0.29851531872112402 -0.21540605615408651 0 -0.29849798421377383 -0.23770053747384359 0 -0.30276213199168012 -0.2296935033221793 0 -0.29575772747703788 -0.22542629851165241 0 -0.29849798421377383 -0.23770053747384359 0 -0.31163932664942717 -0.23235221995903069 0 -0.30276213199168012 -0.2296935033221793 0 -0.29849798421377383 -0.23770053747384359 0 -0.29575772747703788 -0.22542629851165241 0 -0.27403437940117897 -0.2324152891524375 0 -0.29575772747703788 -0.22542629851165241 0 -0.27167060971852569 -0.21809896428099179 0 -0.29575772747703788 -0.22542629851165241 0 -0.27167060971852569 -0.21809896428099179 0 -0.28885403070025301 -0.21329252173164651 0 -0.29849798421377383 -0.23770053747384359 0 -0.28611677131090107 -0.24304642465028761 0 -0.27403437940117897 -0.2324152891524375 0 -0.27459211449812371 -0.25406449303622042 0 -0.29734260713052812 -0.24800537893864891 0 -0.28611677131090107 -0.24304642465028761 0 -0.29849798421377383 -0.23770053747384359 0 -0.27403437940117897 -0.2324152891524375 0 -0.29849798421377383 -0.23770053747384359 0 -0.29734260713052812 -0.24800537893864891 0 -0.28611677131090107 -0.24304642465028761 0 -0.27459211449812371 -0.25406449303622042 0 -0.28611677131090107 -0.24304642465028761 0 -0.27403437940117897 -0.2324152891524375 0 -0.27459211449812371 -0.25406449303622042 0 -0.26309648984893441 -0.2406085158849926 0 -0.27403437940117897 -0.2324152891524375 0 -0.27459211449812371 -0.25406449303622042 0 -0.24829792030322589 -0.24782573342597289 0 -0.26309648984893441 -0.2406085158849926 0 -0.24829792030322589 -0.24782573342597289 0 -0.26309648984893441 -0.2406085158849926 0 -0.25546154519320902 -0.22812854792533949 0 -0.24758349196001381 -0.21077163005033109 0 -0.25546154519320902 -0.22812854792533949 0 -0.27167060971852569 -0.21809896428099179 0 -0.26309648984893441 -0.2406085158849926 0 -0.25546154519320902 -0.22812854792533949 0 -0.27403437940117897 -0.2324152891524375 0 -0.29575772747703788 -0.22542629851165241 0 -0.27403437940117897 -0.2324152891524375 0 -0.27167060971852569 -0.21809896428099179 0 -0.25546154519320902 -0.22812854792533949 0 -0.27403437940117897 -0.2324152891524375 0 -0.27167060971852569 -0.21809896428099179 0 -0.27167060971852569 -0.21809896428099179 0 -0.26944085345660468 -0.20113151427180989 0 -0.28341200996895272 -0.20246699214981009 0 -0.24758349196001381 -0.21077163005033109 0 -0.27167060971852569 -0.21809896428099179 0 -0.24758349196001381 -0.21077163005033109 0 -0.27167060971852569 -0.21809896428099179 0 -0.26944085345660468 -0.20113151427180989 0 -0.24758349196001381 -0.21077163005033109 0 -0.26944085345660468 -0.20113151427180989 0 -0.26001061451073582 -0.18521404585508841 0 -0.24758349196001381 -0.21077163005033109 0 -0.26001061451073582 -0.18521404585508841 0 -0.26944085345660468 -0.20113151427180989 0 -0.2845275411247955 -0.18910593902282791 0 -0.26001061451073582 -0.18521404585508841 0 -0.26944085345660468 -0.20113151427180989 0 -0.2845275411247955 -0.18910593902282791 0 -0.28341200996895272 -0.20246699214981009 0 -0.2845275411247955 -0.18910593902282791 0 -0.2948256851418844 -0.20427178594681539 0 -0.3090444677388553 -0.1929978321905666 0 -0.2845275411247955 -0.18910593902282791 0 -0.3090444677388553 -0.1929978321905666 0 -0.2845275411247955 -0.18910593902282791 0 -0.28341200996895272 -0.20246699214981009 0 -0.2948256851418844 -0.20427178594681539 0 -0.28341200996895272 -0.20246699214981009 0 -0.28885403070025301 -0.21329252173164651 0 -0.2948256851418844 -0.20427178594681539 0 -0.27167060971852569 -0.21809896428099179 0 -0.28341200996895272 -0.20246699214981009 0 -0.28885403070025301 -0.21329252173164651 0 -0.28885403070025301 -0.21329252173164651 0 -0.2948256851418844 -0.20427178594681539 0 -0.29851531872112402 -0.21540605615408651 0 -0.29575772747703788 -0.22542629851165241 0 -0.28885403070025301 -0.21329252173164651 0 -0.29851531872112402 -0.21540605615408651 0 -0.2948256851418844 -0.20427178594681539 0 -0.29851531872112402 -0.21540605615408651 0 -0.30607321637757262 -0.20919748014280809 0 -0.30607321637757262 -0.20919748014280809 0 -0.3090444677388553 -0.1929978321905666 0 -0.31935744198969801 -0.21009234135124691 0 -0.3051534896264817 -0.22329495734419061 0 -0.29851531872112402 -0.21540605615408651 0 -0.30607321637757262 -0.20919748014280809 0 -0.3051534896264817 -0.22329495734419061 0 -0.30607321637757262 -0.20919748014280809 0 -0.31935744198969801 -0.21009234135124691 0 -0.3051534896264817 -0.22329495734419061 0 -0.31935744198969801 -0.21009234135124691 0 -0.2948256851418844 -0.20427178594681539 0 -0.30607321637757262 -0.20919748014280809 0 -0.3090444677388553 -0.1929978321905666 0 -0.3090444677388553 -0.1929978321905666 0 -0.30064727630013471 -0.178227120416801 0 -0.31437334305635012 -0.1762764417618593 0 -0.2845275411247955 -0.18910593902282791 0 -0.3090444677388553 -0.1929978321905666 0 -0.30064727630013471 -0.178227120416801 0 -0.30064727630013471 -0.178227120416801 0 -0.3114410065003636 -0.1576573121872816 0 -0.30064727630013471 -0.178227120416801 0 -0.3114410065003636 -0.1576573121872816 0 -0.31437334305635012 -0.1762764417618593 0 -0.30064727630013471 -0.178227120416801 0 -0.3114410065003636 -0.1576573121872816 0 -0.29085472830173392 -0.16165627100548011 0 -0.29085472830173392 -0.16165627100548011 0 -0.28598897914018129 -0.17592668450119481 0 -0.27758337757672258 -0.1688526056196008 0 -0.30064727630013471 -0.178227120416801 0 -0.29085472830173392 -0.16165627100548011 0 -0.28598897914018129 -0.17592668450119481 0 -0.2845275411247955 -0.18910593902282791 0 -0.30064727630013471 -0.178227120416801 0 -0.28598897914018129 -0.17592668450119481 0 -0.2845275411247955 -0.18910593902282791 0 -0.28598897914018129 -0.17592668450119481 0 -0.27455966899941081 -0.18051223789202969 0 -0.2845275411247955 -0.18910593902282791 0 -0.27455966899941081 -0.18051223789202969 0 -0.26001061451073582 -0.18521404585508841 0 -0.2845275411247955 -0.18910593902282791 0 -0.26001061451073582 -0.18521404585508841 0 -0.28598897914018129 -0.17592668450119481 0 -0.27455966899941081 -0.18051223789202969 0 -0.27758337757672258 -0.1688526056196008 0 -0.27455966899941081 -0.18051223789202969 0 -0.26314665113417229 -0.17876448203081671 0 -0.26657682705876318 -0.16953911340847749 0 -0.27455966899941081 -0.18051223789202969 0 -0.26657682705876318 -0.16953911340847749 0 -0.27758337757672258 -0.1688526056196008 0 -0.27455966899941081 -0.18051223789202969 0 -0.26001061451073582 -0.18521404585508841 0 -0.26314665113417229 -0.17876448203081671 0 -0.26001061451073582 -0.18521404585508841 0 -0.26314665113417229 -0.17876448203081671 0 -0.25091645840663013 -0.17637603814579611 0 -0.26001061451073582 -0.18521404585508841 0 -0.26314665113417229 -0.17876448203081671 0 -0.26314665113417229 -0.17876448203081671 0 -0.25091645840663013 -0.17637603814579611 0 -0.25651351907222891 -0.16575695802891849 0 -0.24979743725614659 -0.1480852786081506 0 -0.25651351907222891 -0.16575695802891849 0 -0.26854390075456858 -0.15510749670654631 0 -0.244449584344379 -0.17162131013761661 0 -0.25091645840663013 -0.17637603814579611 0 -0.25651351907222891 -0.16575695802891849 0 -0.26314665113417229 -0.17876448203081671 0 -0.25651351907222891 -0.16575695802891849 0 -0.26657682705876318 -0.16953911340847749 0 -0.25651351907222891 -0.16575695802891849 0 -0.26657682705876318 -0.16953911340847749 0 -0.26854390075456858 -0.15510749670654631 0 -0.29085472830173392 -0.16165627100548011 0 -0.27758337757672258 -0.1688526056196008 0 -0.26854390075456858 -0.15510749670654631 0 -0.26657682705876318 -0.16953911340847749 0 -0.27758337757672258 -0.1688526056196008 0 -0.26854390075456858 -0.15510749670654631 0 -0.24979743725614659 -0.1480852786081506 0 -0.26854390075456858 -0.15510749670654631 0 -0.26239997571054502 -0.13313794113371141 0 -0.24979743725614659 -0.1480852786081506 0 -0.2417361009574174 -0.13107835164824319 0 -0.26239997571054502 -0.13313794113371141 0 -0.2417361009574174 -0.13107835164824319 0 -0.25510955147054348 -0.1114356940311754 0 -0.26239997571054502 -0.13313794113371141 0 -0.26854390075456858 -0.15510749670654631 0 -0.26239997571054502 -0.13313794113371141 0 -0.29013209704342657 -0.13324392767630419 0 -0.27443259859187469 -0.11696764363190409 0 -0.26239997571054502 -0.13313794113371141 0 -0.29013209704342657 -0.13324392767630419 0 -0.29085472830173392 -0.16165627100548011 0 -0.29013209704342657 -0.13324392767630419 0 -0.29085472830173392 -0.16165627100548011 0 -0.26854390075456858 -0.15510749670654631 0 -0.29013209704342657 -0.13324392767630419 0 -0.29085472830173392 -0.16165627100548011 0 -0.29013209704342657 -0.13324392767630419 0 -0.30532762545297182 -0.14286440038447279 0 -0.3114410065003636 -0.1576573121872816 0 -0.29085472830173392 -0.16165627100548011 0 -0.30532762545297182 -0.14286440038447279 0 -0.31197555871874222 -0.1246769870955361 0 -0.29013209704342657 -0.13324392767630419 0 -0.30532762545297182 -0.14286440038447279 0 -0.33302846690082011 -0.116517695728242 0 -0.32223473670059261 -0.13708750395776209 0 -0.31197555871874222 -0.1246769870955361 0 -0.30532762545297182 -0.14286440038447279 0 -0.32223473670059261 -0.13708750395776209 0 -0.31197555871874222 -0.1246769870955361 0 -0.33302846690082011 -0.116517695728242 0 -0.32223473670059261 -0.13708750395776209 0 -0.3114410065003636 -0.1576573121872816 0 -0.32223473670059261 -0.13708750395776209 0 -0.3280290044982237 -0.15754495849710509 0 -0.3114410065003636 -0.1576573121872816 0 -0.32223473670059261 -0.13708750395776209 0 -0.3114410065003636 -0.1576573121872816 0 -0.30532762545297182 -0.14286440038447279 0 -0.32223473670059261 -0.13708750395776209 0 -0.32223473670059261 -0.13708750395776209 0 -0.34350490032530479 -0.15206547543657281 0 -0.3280290044982237 -0.15754495849710509 0 -0.32223473670059261 -0.13708750395776209 0 -0.34350490032530479 -0.15206547543657281 0 -0.34002231122023863 -0.13347939898964339 0 -0.33302846690082011 -0.116517695728242 0 -0.32223473670059261 -0.13708750395776209 0 -0.34002231122023863 -0.13347939898964339 0 -0.35439246048661499 -0.12451562299765891 0 -0.34002231122023863 -0.13347939898964339 0 -0.35049156351979299 -0.13930515729527521 0 -0.35439246048661499 -0.12451562299765891 0 -0.35049156351979299 -0.13930515729527521 0 -0.36404658204701351 -0.14716013175722559 0 -0.35439246048661499 -0.12451562299765891 0 -0.37575645407240971 -0.1325135502670762 0 -0.35439246048661499 -0.12451562299765891 0 -0.36404658204701351 -0.14716013175722559 0 -0.37575645407240971 -0.1325135502670762 0 -0.35439246048661499 -0.12451562299765891 0 -0.3739912569708187 -0.1243795686118775 0 -0.37575645407240971 -0.1325135502670762 0 -0.3739912569708187 -0.1243795686118775 0 -0.37575645407240971 -0.1325135502670762 0 -0.36404658204701351 -0.14716013175722559 0 -0.36717011672577671 -0.16565031789228951 0 -0.38077423244393482 -0.1556353405686432 0 -0.36404658204701351 -0.14716013175722559 0 -0.38077423244393482 -0.1556353405686432 0 -0.37575645407240971 -0.1325135502670762 0 -0.34350490032530479 -0.15206547543657281 0 -0.34002231122023863 -0.13347939898964339 0 -0.35049156351979299 -0.13930515729527521 0 -0.34350490032530479 -0.15206547543657281 0 -0.35049156351979299 -0.13930515729527521 0 -0.36404658204701351 -0.14716013175722559 0 -0.34350490032530479 -0.15206547543657281 0 -0.36404658204701351 -0.14716013175722559 0 -0.35211009739108878 -0.16530668270166091 0 -0.35211009739108878 -0.16530668270166091 0 -0.36717011672577671 -0.16565031789228951 0 -0.35036575553934551 -0.1812700216252964 0 -0.34350490032530479 -0.15206547543657281 0 -0.35211009739108878 -0.16530668270166091 0 -0.33957867403676018 -0.16868290735565081 0 -0.35211009739108878 -0.16530668270166091 0 -0.35036575553934551 -0.1812700216252964 0 -0.33957867403676018 -0.16868290735565081 0 -0.36404658204701351 -0.14716013175722559 0 -0.35211009739108878 -0.16530668270166091 0 -0.36717011672577671 -0.16565031789228951 0 -0.36630070741635051 -0.1815642549291209 0 -0.37196082915391743 -0.19581332290899181 0 -0.38579201081546027 -0.17875713087021011 0 -0.36717011672577671 -0.16565031789228951 0 -0.36630070741635051 -0.1815642549291209 0 -0.38579201081546027 -0.17875713087021011 0 -0.36717011672577671 -0.16565031789228951 0 -0.36630070741635051 -0.1815642549291209 0 -0.35036575553934551 -0.1812700216252964 0 -0.36630070741635051 -0.1815642549291209 0 -0.35036575553934551 -0.1812700216252964 0 -0.35830138768953668 -0.19308616722047681 0 -0.36717011672577671 -0.16565031789228951 0 -0.35036575553934551 -0.1812700216252964 0 -0.35036575553934551 -0.1812700216252964 0 -0.33539161033459852 -0.18177702122782621 0 -0.33356139435291521 -0.1968897253583044 0 -0.33539161033459852 -0.18177702122782621 0 -0.32445242987036232 -0.18485309869519079 0 -0.32807067613199981 -0.17413328464544331 0 -0.33539161033459852 -0.18177702122782621 0 -0.33957867403676018 -0.16868290735565081 0 -0.32807067613199981 -0.17413328464544331 0 -0.35036575553934551 -0.1812700216252964 0 -0.33539161033459852 -0.18177702122782621 0 -0.33957867403676018 -0.16868290735565081 0 -0.33957867403676018 -0.16868290735565081 0 -0.3280290044982237 -0.15754495849710509 0 -0.32807067613199981 -0.17413328464544331 0 -0.34350490032530479 -0.15206547543657281 0 -0.33957867403676018 -0.16868290735565081 0 -0.3280290044982237 -0.15754495849710509 0 -0.3114410065003636 -0.1576573121872816 0 -0.31437334305635012 -0.1762764417618593 0 -0.32807067613199981 -0.17413328464544331 0 -0.3114410065003636 -0.1576573121872816 0 -0.3280290044982237 -0.15754495849710509 0 -0.32807067613199981 -0.17413328464544331 0 -0.3090444677388553 -0.1929978321905666 0 -0.31437334305635012 -0.1762764417618593 0 -0.32445242987036232 -0.18485309869519079 0 -0.31437334305635012 -0.1762764417618593 0 -0.32445242987036232 -0.18485309869519079 0 -0.32807067613199981 -0.17413328464544331 0 -0.3090444677388553 -0.1929978321905666 0 -0.31935744198969801 -0.21009234135124691 0 -0.33356139435291521 -0.1968897253583044 0 -0.3090444677388553 -0.1929978321905666 0 -0.32445242987036232 -0.18485309869519079 0 -0.33356139435291521 -0.1968897253583044 0 -0.3090444677388553 -0.1929978321905666 0 -0.33356139435291521 -0.1968897253583044 0 -0.31935744198969801 -0.21009234135124691 0 -0.33539660633712243 -0.21037351895153961 0 -0.32550071368156741 -0.22761636284529291 0 -0.31935744198969801 -0.21009234135124691 0 -0.33356139435291521 -0.1968897253583044 0 -0.31935744198969801 -0.21009234135124691 0 -0.33539660633712243 -0.21037351895153961 0 -0.33356139435291521 -0.1968897253583044 0 -0.33539660633712243 -0.21037351895153961 0 -0.34585726175858328 -0.2131466195117466 0 -0.33996784299639338 -0.2225102185773514 0 -0.33539660633712243 -0.21037351895153961 0 -0.34398505493425741 -0.1985444096520573 0 -0.34585726175858328 -0.2131466195117466 0 -0.33356139435291521 -0.1968897253583044 0 -0.34398505493425741 -0.1985444096520573 0 -0.33539660633712243 -0.21037351895153961 0 -0.33356139435291521 -0.1968897253583044 0 -0.34398505493425741 -0.1985444096520573 0 -0.35036575553934551 -0.1812700216252964 0 -0.33356139435291521 -0.1968897253583044 0 -0.34398505493425741 -0.1985444096520573 0 -0.35036575553934551 -0.1812700216252964 0 -0.33356139435291521 -0.1968897253583044 0 -0.33539161033459852 -0.18177702122782621 0 -0.32445242987036232 -0.18485309869519079 0 -0.33356139435291521 -0.1968897253583044 0 -0.35036575553934551 -0.1812700216252964 0 -0.34398505493425741 -0.1985444096520573 0 -0.35830138768953668 -0.19308616722047681 0 -0.34398505493425741 -0.1985444096520573 0 -0.35830138768953668 -0.19308616722047681 0 -0.35889459140381302 -0.20823882698691759 0 -0.36630070741635051 -0.1815642549291209 0 -0.35830138768953668 -0.19308616722047681 0 -0.37196082915391743 -0.19581332290899181 0 -0.35830138768953668 -0.19308616722047681 0 -0.37196082915391743 -0.19581332290899181 0 -0.35889459140381302 -0.20823882698691759 0 -0.35889459140381302 -0.20823882698691759 0 -0.36463703033003142 -0.22209799320525511 0 -0.37629006016151928 -0.21424038020273439 0 -0.37196082915391743 -0.19581332290899181 0 -0.35889459140381302 -0.20823882698691759 0 -0.37629006016151928 -0.21424038020273439 0 -0.35889459140381302 -0.20823882698691759 0 -0.34585726175858328 -0.2131466195117466 0 -0.35104221312133038 -0.22606612339086729 0 -0.34398505493425741 -0.1985444096520573 0 -0.35889459140381302 -0.20823882698691759 0 -0.34585726175858328 -0.2131466195117466 0 -0.34585726175858328 -0.2131466195117466 0 -0.35104221312133038 -0.22606612339086729 0 -0.33996784299639338 -0.2225102185773514 0 -0.35104221312133038 -0.22606612339086729 0 -0.36463703033003142 -0.22209799320525511 0 -0.36218140191793569 -0.23922904877417231 0 -0.35889459140381302 -0.20823882698691759 0 -0.35104221312133038 -0.22606612339086729 0 -0.36463703033003142 -0.22209799320525511 0 -0.36463703033003142 -0.22209799320525511 0 -0.37561055333585702 -0.23241250547012091 0 -0.37629006016151928 -0.21424038020273439 0 -0.36463703033003142 -0.22209799320525511 0 -0.36218140191793569 -0.23922904877417231 0 -0.37561055333585702 -0.23241250547012091 0 -0.37188879865155833 -0.25355628243806172 0 -0.36218140191793569 -0.23922904877417231 0 -0.34742519383896342 -0.2482710341166556 0 -0.37188879865155833 -0.25355628243806172 0 -0.36218140191793569 -0.23922904877417231 0 -0.37561055333585702 -0.23241250547012091 0 -0.35104221312133038 -0.22606612339086729 0 -0.36218140191793569 -0.23922904877417231 0 -0.34742519383896342 -0.2482710341166556 0 -0.35104221312133038 -0.22606612339086729 0 -0.34742519383896342 -0.2482710341166556 0 -0.3376909443808388 -0.2340994802115873 0 -0.34742519383896342 -0.2482710341166556 0 -0.3376909443808388 -0.2340994802115873 0 -0.32296158902636862 -0.2429857857952496 0 -0.33318887221925242 -0.25470940155190791 0 -0.34742519383896342 -0.2482710341166556 0 -0.32296158902636862 -0.2429857857952496 0 -0.34742519383896342 -0.2482710341166556 0 -0.32296158902636862 -0.2429857857952496 0 -0.3376909443808388 -0.2340994802115873 0 -0.32550071368156741 -0.22761636284529291 0 -0.32296158902636862 -0.2429857857952496 0 -0.33539660633712243 -0.21037351895153961 0 -0.33996784299639338 -0.2225102185773514 0 -0.32550071368156741 -0.22761636284529291 0 -0.35104221312133038 -0.22606612339086729 0 -0.3376909443808388 -0.2340994802115873 0 -0.33996784299639338 -0.2225102185773514 0 -0.3376909443808388 -0.2340994802115873 0 -0.33996784299639338 -0.2225102185773514 0 -0.32550071368156741 -0.22761636284529291 0 -0.31935744198969801 -0.21009234135124691 0 -0.32550071368156741 -0.22761636284529291 0 -0.31536821525987019 -0.22481605273290339 0 -0.3051534896264817 -0.22329495734419061 0 -0.31935744198969801 -0.21009234135124691 0 -0.31536821525987019 -0.22481605273290339 0 -0.31163932664942717 -0.23235221995903069 0 -0.32550071368156741 -0.22761636284529291 0 -0.31536821525987019 -0.22481605273290339 0 -0.31163932664942717 -0.23235221995903069 0 -0.32550071368156741 -0.22761636284529291 0 -0.32296158902636862 -0.2429857857952496 0 -0.31791543562562691 -0.25779809850038998 0 -0.30954081865794197 -0.24672666549110259 0 -0.32296158902636862 -0.2429857857952496 0 -0.42833458773741268 -0.24897925504711041 0 -0.43347790079981591 -0.2251389595977441 0 -0.41366543004747852 -0.23845648130630359 0 -0.42833458773741268 -0.24897925504711041 0 -0.43347790079981591 -0.2251389595977441 0 -0.44852487711113981 -0.2487252104022116 0 -0.43347790079981591 -0.2251389595977441 0 -0.41366543004747852 -0.23845648130630359 0 -0.41159263266127832 -0.21347081508955509 0 -0.41366543004747852 -0.23845648130630359 0 -0.3958275675585114 -0.22500071147334411 0 -0.41159263266127832 -0.21347081508955509 0 -0.408217828962744 -0.25609878341776537 0 -0.41366543004747852 -0.23845648130630359 0 -0.40024772215640941 -0.24409137686402119 0 -0.41854359540397512 -0.25437636802851898 0 -0.42833458773741268 -0.24897925504711041 0 -0.41366543004747852 -0.23845648130630359 0 -0.408217828962744 -0.25609878341776537 0 -0.41854359540397512 -0.25437636802851898 0 -0.41366543004747852 -0.23845648130630359 0 -0.40024772215640941 -0.24409137686402119 0 -0.38717538074916041 -0.24205937736322519 0 -0.3958275675585114 -0.22500071147334411 0 -0.41366543004747852 -0.23845648130630359 0 -0.40024772215640941 -0.24409137686402119 0 -0.3958275675585114 -0.22500071147334411 0 -0.39635240346415312 -0.2588415307594677 0 -0.40024772215640941 -0.24409137686402119 0 -0.38717538074916041 -0.24205937736322519 0 -0.37188879865155833 -0.25355628243806172 0 -0.38717538074916041 -0.24205937736322519 0 -0.37561055333585702 -0.23241250547012091 0 -0.38717538074916041 -0.24205937736322519 0 -0.37561055333585702 -0.23241250547012091 0 -0.3958275675585114 -0.22500071147334411 0 -0.37561055333585702 -0.23241250547012091 0 -0.3958275675585114 -0.22500071147334411 0 -0.37629006016151928 -0.21424038020273439 0 -0.3958275675585114 -0.22500071147334411 0 -0.39080978918698578 -0.20187892117177711 0 -0.41159263266127832 -0.21347081508955509 0 -0.3958275675585114 -0.22500071147334411 0 -0.39080978918698578 -0.20187892117177711 0 -0.37196082915391743 -0.19581332290899181 0 -0.37629006016151928 -0.21424038020273439 0 -0.39080978918698578 -0.20187892117177711 0 -0.3958275675585114 -0.22500071147334411 0 -0.37629006016151928 -0.21424038020273439 0 -0.39080978918698578 -0.20187892117177711 0 -0.37196082915391743 -0.19581332290899181 0 -0.39080978918698578 -0.20187892117177711 0 -0.38579201081546027 -0.17875713087021011 0 -0.39080978918698578 -0.20187892117177711 0 -0.38579201081546027 -0.17875713087021011 0 -0.39080978918698578 -0.20187892117177711 0 -0.40696893459959532 -0.19313667495808359 0 -0.41159263266127832 -0.21347081508955509 0 -0.39080978918698578 -0.20187892117177711 0 -0.40696893459959532 -0.19313667495808359 0 -0.38579201081546027 -0.17875713087021011 0 -0.40696893459959532 -0.19313667495808359 0 -0.42860206123633798 -0.2012355765720901 0 -0.4231409757129545 -0.18065167820747419 0 -0.40696893459959532 -0.19313667495808359 0 -0.41159263266127832 -0.21347081508955509 0 -0.42860206123633798 -0.2012355765720901 0 -0.43347790079981591 -0.2251389595977441 0 -0.42860206123633798 -0.2012355765720901 0 -0.44828499772239389 -0.20859204432940481 0 -0.43347790079981591 -0.2251389595977441 0 -0.41159263266127832 -0.21347081508955509 0 -0.42860206123633798 -0.2012355765720901 0 -0.42860206123633798 -0.2012355765720901 0 -0.4231409757129545 -0.18065167820747419 0 -0.44876065047530328 -0.18516583038405959 0 -0.4231409757129545 -0.18065167820747419 0 -0.44011645622655959 -0.1655455434204906 0 -0.44876065047530328 -0.18516583038405959 0 -0.4231409757129545 -0.18065167820747419 0 -0.44876065047530328 -0.18516583038405959 0 -0.4231409757129545 -0.18065167820747419 0 -0.41694614581370348 -0.15690599912631481 0 -0.44011645622655959 -0.1655455434204906 0 -0.41694614581370348 -0.15690599912631481 0 -0.40541119141163501 -0.17558297628797159 0 -0.39875393432258471 -0.15929543178925329 0 -0.4231409757129545 -0.18065167820747419 0 -0.41694614581370348 -0.15690599912631481 0 -0.40541119141163501 -0.17558297628797159 0 -0.40696893459959532 -0.19313667495808359 0 -0.4231409757129545 -0.18065167820747419 0 -0.40541119141163501 -0.17558297628797159 0 -0.40696893459959532 -0.19313667495808359 0 -0.40541119141163501 -0.17558297628797159 0 -0.38579201081546027 -0.17875713087021011 0 -0.36717011672577671 -0.16565031789228951 0 -0.38579201081546027 -0.17875713087021011 0 -0.38077423244393482 -0.1556353405686432 0 -0.38579201081546027 -0.17875713087021011 0 -0.39875393432258471 -0.15929543178925329 0 -0.38077423244393482 -0.1556353405686432 0 -0.38579201081546027 -0.17875713087021011 0 -0.38077423244393482 -0.1556353405686432 0 -0.40541119141163501 -0.17558297628797159 0 -0.38579201081546027 -0.17875713087021011 0 -0.39875393432258471 -0.15929543178925329 0 -0.39875393432258471 -0.15929543178925329 0 -0.39266814496537478 -0.14946836012289549 0 -0.38077423244393482 -0.1556353405686432 0 -0.39875393432258471 -0.15929543178925329 0 -0.40070319585873337 -0.14817280483568571 0 -0.40923093721433862 -0.14851279218208691 0 -0.40538184413213812 -0.1414565619809276 0 -0.40070319585873337 -0.14817280483568571 0 -0.40923093721433862 -0.14851279218208691 0 -0.40538184413213812 -0.1414565619809276 0 -0.40070319585873337 -0.14817280483568571 0 -0.39829881828533559 -0.1409526180252488 0 -0.39829881828533559 -0.1409526180252488 0 -0.39266814496537478 -0.14946836012289549 0 -0.38481108333666503 -0.14265392077149339 0 -0.40070319585873337 -0.14817280483568571 0 -0.39829881828533559 -0.1409526180252488 0 -0.39266814496537478 -0.14946836012289549 0 -0.39875393432258471 -0.15929543178925329 0 -0.40070319585873337 -0.14817280483568571 0 -0.39266814496537478 -0.14946836012289549 0 -0.38077423244393482 -0.1556353405686432 0 -0.37575645407240971 -0.1325135502670762 0 -0.38481108333666503 -0.14265392077149339 0 -0.38077423244393482 -0.1556353405686432 0 -0.37575645407240971 -0.1325135502670762 0 -0.39266814496537478 -0.14946836012289549 0 -0.38481108333666503 -0.14265392077149339 0 -0.38077423244393482 -0.1556353405686432 0 -0.39829881828533559 -0.1409526180252488 0 -0.37575645407240971 -0.1325135502670762 0 -0.39664287223915301 -0.1348785013266123 0 -0.39829881828533559 -0.1409526180252488 0 -0.38481108333666503 -0.14265392077149339 0 -0.37575645407240971 -0.1325135502670762 0 -0.39829881828533559 -0.1409526180252488 0 -0.37575645407240971 -0.1325135502670762 0 -0.3739912569708187 -0.1243795686118775 0 -0.37575645407240971 -0.1325135502670762 0 -0.39664287223915301 -0.1348785013266123 0 -0.3739912569708187 -0.1243795686118775 0 -0.39664287223915301 -0.1348785013266123 0 -0.38724244880964509 -0.12178349074753279 0 -0.3739912569708187 -0.1243795686118775 0 -0.39664287223915301 -0.1348785013266123 0 -0.39664287223915301 -0.1348785013266123 0 -0.38724244880964509 -0.12178349074753279 0 -0.39629701838819797 -0.12265781388132151 0 -0.40538184413213812 -0.1414565619809276 0 -0.39829881828533559 -0.1409526180252488 0 -0.40212530752759912 -0.1367032263972881 0 -0.39829881828533559 -0.1409526180252488 0 -0.39664287223915301 -0.1348785013266123 0 -0.40212530752759912 -0.1367032263972881 0 -0.39664287223915301 -0.1348785013266123 0 -0.40212530752759912 -0.1367032263972881 0 -0.40328190617092402 -0.1299749966182735 0 -0.40212530752759912 -0.1367032263972881 0 -0.40328190617092402 -0.1299749966182735 0 -0.40783879643654969 -0.13507519395736181 0 -0.40538184413213812 -0.1414565619809276 0 -0.40212530752759912 -0.1367032263972881 0 -0.40783879643654969 -0.13507519395736181 0 -0.39664287223915301 -0.1348785013266123 0 -0.40328190617092402 -0.1299749966182735 0 -0.39629701838819797 -0.12265781388132151 0 -0.41107163900062982 -0.12823648704067181 0 -0.41777699867985119 -0.1323796280938758 0 -0.40783879643654969 -0.13507519395736181 0 -0.40328190617092402 -0.1299749966182735 0 -0.41107163900062982 -0.12823648704067181 0 -0.40587191182719362 -0.122312780132297 0 -0.40328190617092402 -0.1299749966182735 0 -0.41107163900062982 -0.12823648704067181 0 -0.40783879643654969 -0.13507519395736181 0 -0.41777699867985119 -0.1323796280938758 0 -0.41619927298833048 -0.1219732414036446 0 -0.42672272971874342 -0.1247380180757096 0 -0.41107163900062982 -0.12823648704067181 0 -0.41777699867985119 -0.1323796280938758 0 -0.41619927298833048 -0.1219732414036446 0 -0.41777699867985119 -0.1323796280938758 0 -0.42032473273508358 -0.1441132741702755 0 -0.42705623278115462 -0.135267414822479 0 -0.41777699867985119 -0.1323796280938758 0 -0.41337121514422281 -0.1396816117025485 0 -0.42032473273508358 -0.1441132741702755 0 -0.41777699867985119 -0.1323796280938758 0 -0.41337121514422281 -0.1396816117025485 0 -0.40783879643654969 -0.13507519395736181 0 -0.40538184413213812 -0.1414565619809276 0 -0.41337121514422281 -0.1396816117025485 0 -0.40783879643654969 -0.13507519395736181 0 -0.40538184413213812 -0.1414565619809276 0 -0.41337121514422281 -0.1396816117025485 0 -0.40923093721433862 -0.14851279218208691 0 -0.41694614581370348 -0.15690599912631481 0 -0.39875393432258471 -0.15929543178925329 0 -0.40923093721433862 -0.14851279218208691 0 -0.41694614581370348 -0.15690599912631481 0 -0.40923093721433862 -0.14851279218208691 0 -0.42032473273508358 -0.1441132741702755 0 -0.41337121514422281 -0.1396816117025485 0 -0.40923093721433862 -0.14851279218208691 0 -0.42032473273508358 -0.1441132741702755 0 -0.41694614581370348 -0.15690599912631481 0 -0.43349522808280783 -0.1454674955236577 0 -0.44011645622655959 -0.1655455434204906 0 -0.41694614581370348 -0.15690599912631481 0 -0.42032473273508358 -0.1441132741702755 0 -0.43349522808280783 -0.1454674955236577 0 -0.42032473273508358 -0.1441132741702755 0 -0.43349522808280783 -0.1454674955236577 0 -0.42705623278115462 -0.135267414822479 0 -0.43349522808280783 -0.1454674955236577 0 -0.43696147468928698 -0.12963865824887649 0 -0.42705623278115462 -0.135267414822479 0 -0.43696147468928698 -0.12963865824887649 0 -0.42705623278115462 -0.135267414822479 0 -0.42672272971874342 -0.1247380180757096 0 -0.41777699867985119 -0.1323796280938758 0 -0.42705623278115462 -0.135267414822479 0 -0.42672272971874342 -0.1247380180757096 0 -0.43349522808280783 -0.1454674955236577 0 -0.43696147468928698 -0.12963865824887649 0 -0.45144107161191932 -0.13640651406842391 0 -0.43696147468928698 -0.12963865824887649 0 -0.45144107161191932 -0.13640651406842391 0 -0.44765781704265412 -0.1202993624052747 0 -0.43349522808280783 -0.1454674955236577 0 -0.45144107161191932 -0.13640651406842391 0 -0.4561276570266603 -0.15371965446543229 0 -0.43349522808280783 -0.1454674955236577 0 -0.4561276570266603 -0.15371965446543229 0 -0.44011645622655959 -0.1655455434204906 0 -0.4561276570266603 -0.15371965446543229 0 -0.46723734347837692 -0.13988119977490199 0 -0.479145712933707 -0.15544151415553531 0 -0.45144107161191932 -0.13640651406842391 0 -0.4561276570266603 -0.15371965446543229 0 -0.46723734347837692 -0.13988119977490199 0 -0.46055086447481308 -0.1258766313127726 0 -0.46723734347837692 -0.13988119977490199 0 -0.47233828860242277 -0.12000117715973239 0 -0.45144107161191932 -0.13640651406842391 0 -0.46055086447481308 -0.1258766313127726 0 -0.44765781704265412 -0.1202993624052747 0 -0.45144107161191932 -0.13640651406842391 0 -0.46055086447481308 -0.1258766313127726 0 -0.46723734347837692 -0.13988119977490199 0 -0.46723734347837692 -0.13988119977490199 0 -0.48038209996372799 -0.1323922832433265 0 -0.47233828860242277 -0.12000117715973239 0 -0.48038209996372799 -0.1323922832433265 0 -0.5 -0.13647721432007451 0 -0.49200460939636009 -0.121441657513913 0 -0.5 -0.13647721432007451 0 -0.479145712933707 -0.15544151415553531 0 -0.5 -0.16533567452865269 0 -0.48038209996372799 -0.1323922832433265 0 -0.5 -0.13647721432007451 0 -0.479145712933707 -0.15544151415553531 0 -0.46723734347837692 -0.13988119977490199 0 -0.48038209996372799 -0.1323922832433265 0 -0.479145712933707 -0.15544151415553531 0 -0.479145712933707 -0.15544151415553531 0 -0.48398512410123018 -0.1751539295411374 0 -0.4663995823347919 -0.17111834172362311 0 -0.479145712933707 -0.15544151415553531 0 -0.5 -0.16533567452865269 0 -0.48398512410123018 -0.1751539295411374 0 -0.48398512410123018 -0.1751539295411374 0 -0.47438032523765211 -0.18967998256064511 0 -0.50000000000000089 -0.19419413473723079 0 -0.5 -0.16533567452865269 0 -0.48398512410123018 -0.1751539295411374 0 -0.50000000000000089 -0.19419413473723079 0 -0.48398512410123018 -0.1751539295411374 0 -0.4663995823347919 -0.17111834172362311 0 -0.47438032523765211 -0.18967998256064511 0 -0.4663995823347919 -0.17111834172362311 0 -0.44876065047530328 -0.18516583038405959 0 -0.47438032523765211 -0.18967998256064511 0 -0.44876065047530328 -0.18516583038405959 0 -0.47438032523765211 -0.18967998256064511 0 -0.4561276570266603 -0.15371965446543229 0 -0.479145712933707 -0.15544151415553531 0 -0.4663995823347919 -0.17111834172362311 0 -0.4561276570266603 -0.15371965446543229 0 -0.4663995823347919 -0.17111834172362311 0 -0.44011645622655959 -0.1655455434204906 0 -0.4663995823347919 -0.17111834172362311 0 -0.44011645622655959 -0.1655455434204906 0 -0.44876065047530328 -0.18516583038405959 0 -0.42860206123633798 -0.2012355765720901 0 -0.44876065047530328 -0.18516583038405959 0 -0.44828499772239389 -0.20859204432940481 0 -0.44828499772239389 -0.20859204432940481 0 -0.47438032523765211 -0.18967998256064511 0 -0.47006011985516988 -0.21694792255861181 0 -0.44828499772239389 -0.20859204432940481 0 -0.47006011985516988 -0.21694792255861181 0 -0.45355037504871498 -0.22847044109951201 0 -0.44876065047530328 -0.18516583038405959 0 -0.44828499772239389 -0.20859204432940481 0 -0.47438032523765211 -0.18967998256064511 0 -0.47438032523765211 -0.18967998256064511 0 -0.50000000000000089 -0.19419413473723079 0 -0.48748950831260651 -0.2079605667670815 0 -0.47438032523765211 -0.18967998256064511 0 -0.50000000000000089 -0.19419413473723079 0 -0.49999999999999978 -0.20184013331649081 0 -0.50000000000000089 -0.19419413473723079 0 -0.48748950831260651 -0.2079605667670815 0 -0.48748950831260651 -0.2079605667670815 0 -0.48369144250987722 -0.2206529808375185 0 -0.49575540415782759 -0.22359934090851249 0 -0.49999999999999978 -0.20184013331649081 0 -0.49575540415782759 -0.22359934090851249 0 -0.49999999999999978 -0.20184013331649081 0 -0.5 -0.23024555482603529 0 -0.49575540415782759 -0.22359934090851249 0 -0.49999999999999978 -0.20184013331649081 0 -0.48748950831260651 -0.2079605667670815 0 -0.49575540415782759 -0.22359934090851249 0 -0.47438032523765211 -0.18967998256064511 0 -0.48748950831260651 -0.2079605667670815 0 -0.47006011985516988 -0.21694792255861181 0 -0.48748950831260651 -0.2079605667670815 0 -0.47006011985516988 -0.21694792255861181 0 -0.48369144250987722 -0.2206529808375185 0 -0.47006011985516988 -0.21694792255861181 0 -0.48146073771390502 -0.23410409311586819 0 -0.46740397975505588 -0.2429480686095877 0 -0.47006011985516988 -0.21694792255861181 0 -0.48146073771390502 -0.23410409311586819 0 -0.48369144250987722 -0.2206529808375185 0 -0.48146073771390502 -0.23410409311586819 0 -0.48369144250987722 -0.2206529808375185 0 -0.49575540415782759 -0.22359934090851249 0 -0.48146073771390502 -0.23410409311586819 0 -0.49575540415782759 -0.22359934090851249 0 -0.49151080831565569 -0.24535854850053429 0 -0.5 -0.23024555482603529 0 -0.49575540415782759 -0.22359934090851249 0 -0.49151080831565569 -0.24535854850053429 0 -0.5 -0.25865097633557982 0 -0.5 -0.23024555482603529 0 -0.49151080831565569 -0.24535854850053429 0 -0.49575540415782759 -0.22359934090851249 0 -0.49151080831565569 -0.24535854850053429 0 -0.47841705307217702 -0.25438532903871602 0 -0.48146073771390502 -0.23410409311586819 0 -0.46740397975505588 -0.2429480686095877 0 -0.47841705307217702 -0.25438532903871602 0 -0.48146073771390502 -0.23410409311586819 0 -0.49151080831565569 -0.24535854850053429 0 -0.46740397975505588 -0.2429480686095877 0 -0.45355037504871498 -0.22847044109951201 0 -0.44852487711113981 -0.2487252104022116 0 -0.47006011985516988 -0.21694792255861181 0 -0.46740397975505588 -0.2429480686095877 0 -0.45355037504871498 -0.22847044109951201 0 -0.43347790079981591 -0.2251389595977441 0 -0.45355037504871498 -0.22847044109951201 0 -0.44852487711113981 -0.2487252104022116 0 -0.43347790079981591 -0.2251389595977441 0 -0.44828499772239389 -0.20859204432940481 0 -0.45355037504871498 -0.22847044109951201 0 -0.42837811314968782 -0.045967060103154683 0 -0.41727702572863362 -0.026446241624173781 0 -0.39570947482307378 -0.046173111608600638 0 -0.42837811314968782 -0.045967060103154683 0 -0.39570947482307378 -0.046173111608600638 0 -0.41285820329439371 -0.063280336135353027 0 -0.42837811314968782 -0.045967060103154683 0 -0.41285820329439371 -0.063280336135353027 0 -0.4406657366714728 -0.06205669905121828 0 -0.42837811314968782 -0.045967060103154683 0 -0.41727702572863362 -0.026446241624173781 0 -0.44112709277215162 -0.031613507450532818 0 -0.41727702572863362 -0.026446241624173781 0 -0.44112709277215162 -0.031613507450532818 0 -0.44141630127035969 -0.01336694823038213 0 -0.41929943937428749 -0.0015561529808880089 0 -0.41727702572863362 -0.026446241624173781 0 -0.44141630127035969 -0.01336694823038213 0 -0.41929943937428749 -0.0015561529808880089 0 -0.44141630127035969 -0.01336694823038213 0 -0.44452819621460998 0.012267109071806261 0 -0.41929943937428749 -0.0015561529808880089 0 -0.41727702572863362 -0.026446241624173781 0 -0.40065493480299758 -0.011346487014277319 0 -0.39846911657878709 -0.027753251846940271 0 -0.40065493480299758 -0.011346487014277319 0 -0.37810958769244252 -0.025069686016307331 0 -0.41727702572863362 -0.026446241624173781 0 -0.39846911657878709 -0.027753251846940271 0 -0.40065493480299758 -0.011346487014277319 0 -0.40065493480299758 -0.011346487014277319 0 -0.37978125087613779 -0.0020942699323121378 0 -0.37810958769244252 -0.025069686016307331 0 -0.36782868189174639 -0.042254469611562033 0 -0.37810958769244252 -0.025069686016307331 0 -0.39570947482307378 -0.046173111608600638 0 -0.39846911657878709 -0.027753251846940271 0 -0.37810958769244252 -0.025069686016307331 0 -0.39570947482307378 -0.046173111608600638 0 -0.41727702572863362 -0.026446241624173781 0 -0.39846911657878709 -0.027753251846940271 0 -0.39570947482307378 -0.046173111608600638 0 -0.39570947482307378 -0.046173111608600638 0 -0.39389284629170901 -0.067510496972957398 0 -0.41285820329439371 -0.063280336135353027 0 -0.37256534087538529 -0.062194362269685839 0 -0.36782868189174639 -0.042254469611562033 0 -0.39570947482307378 -0.046173111608600638 0 -0.37256534087538529 -0.062194362269685839 0 -0.39570947482307378 -0.046173111608600638 0 -0.39389284629170901 -0.067510496972957398 0 -0.37256534087538529 -0.062194362269685839 0 -0.38210270571931482 -0.083490593739675559 0 -0.39389284629170901 -0.067510496972957398 0 -0.38210270571931482 -0.083490593739675559 0 -0.40429086056662628 -0.08493980702190787 0 -0.39389284629170901 -0.067510496972957398 0 -0.38210270571931482 -0.083490593739675559 0 -0.40429086056662628 -0.08493980702190787 0 -0.38761349936049511 -0.1008018301299029 0 -0.40429086056662628 -0.08493980702190787 0 -0.39389284629170901 -0.067510496972957398 0 -0.41285820329439371 -0.063280336135353027 0 -0.3739912569708187 -0.1243795686118775 0 -0.38724244880964509 -0.12178349074753279 0 -0.38015779294788898 -0.1126213161533491 0 -0.38724244880964509 -0.12178349074753279 0 -0.38015779294788898 -0.1126213161533491 0 -0.38912330350216762 -0.1143802537645018 0 -0.36941498139749829 -0.1032922115518254 0 -0.38210270571931482 -0.083490593739675559 0 -0.38761349936049511 -0.1008018301299029 0 -0.36941498139749829 -0.1032922115518254 0 -0.38015779294788898 -0.1126213161533491 0 -0.38761349936049511 -0.1008018301299029 0 -0.38015779294788898 -0.1126213161533491 0 -0.38912330350216762 -0.1143802537645018 0 -0.38761349936049511 -0.1008018301299029 0 -0.40429086056662628 -0.08493980702190787 0 -0.38761349936049511 -0.1008018301299029 0 -0.4034127136173189 -0.10151420370618761 0 -0.38761349936049511 -0.1008018301299029 0 -0.4034127136173189 -0.10151420370618761 0 -0.40099310021137891 -0.113603576684596 0 -0.4034127136173189 -0.10151420370618761 0 -0.40099310021137891 -0.113603576684596 0 -0.41228665076042031 -0.1116072854751278 0 -0.38912330350216762 -0.1143802537645018 0 -0.40099310021137891 -0.113603576684596 0 -0.39629701838819797 -0.12265781388132151 0 -0.38912330350216762 -0.1143802537645018 0 -0.38761349936049511 -0.1008018301299029 0 -0.40099310021137891 -0.113603576684596 0 -0.40328190617092402 -0.1299749966182735 0 -0.40587191182719362 -0.122312780132297 0 -0.39629701838819797 -0.12265781388132151 0 -0.40099310021137891 -0.113603576684596 0 -0.40587191182719362 -0.122312780132297 0 -0.39629701838819797 -0.12265781388132151 0 -0.38724244880964509 -0.12178349074753279 0 -0.38912330350216762 -0.1143802537645018 0 -0.39629701838819797 -0.12265781388132151 0 -0.41107163900062982 -0.12823648704067181 0 -0.40587191182719362 -0.122312780132297 0 -0.41619927298833048 -0.1219732414036446 0 -0.40587191182719362 -0.122312780132297 0 -0.41619927298833048 -0.1219732414036446 0 -0.41228665076042031 -0.1116072854751278 0 -0.40099310021137891 -0.113603576684596 0 -0.40587191182719362 -0.122312780132297 0 -0.41228665076042031 -0.1116072854751278 0 -0.41619927298833048 -0.1219732414036446 0 -0.41228665076042031 -0.1116072854751278 0 -0.42507045783663983 -0.1129731566671428 0 -0.40429086056662628 -0.08493980702190787 0 -0.4034127136173189 -0.10151420370618761 0 -0.42217244808166032 -0.097266754256898902 0 -0.4034127136173189 -0.10151420370618761 0 -0.41228665076042031 -0.1116072854751278 0 -0.42217244808166032 -0.097266754256898902 0 -0.41228665076042031 -0.1116072854751278 0 -0.42217244808166032 -0.097266754256898902 0 -0.42507045783663983 -0.1129731566671428 0 -0.42217244808166032 -0.097266754256898902 0 -0.43962585887151101 -0.092136440097682765 0 -0.4406479341133861 -0.106162632262749 0 -0.42217244808166032 -0.097266754256898902 0 -0.42507045783663983 -0.1129731566671428 0 -0.4406479341133861 -0.106162632262749 0 -0.42507045783663983 -0.1129731566671428 0 -0.43541208268014209 -0.11876236553195051 0 -0.4406479341133861 -0.106162632262749 0 -0.43696147468928698 -0.12963865824887649 0 -0.43541208268014209 -0.11876236553195051 0 -0.42672272971874342 -0.1247380180757096 0 -0.42507045783663983 -0.1129731566671428 0 -0.43541208268014209 -0.11876236553195051 0 -0.42672272971874342 -0.1247380180757096 0 -0.41619927298833048 -0.1219732414036446 0 -0.42507045783663983 -0.1129731566671428 0 -0.42672272971874342 -0.1247380180757096 0 -0.40429086056662628 -0.08493980702190787 0 -0.41285820329439371 -0.063280336135353027 0 -0.42956283827605152 -0.079037315985910656 0 -0.40429086056662628 -0.08493980702190787 0 -0.42217244808166032 -0.097266754256898902 0 -0.42956283827605152 -0.079037315985910656 0 -0.42217244808166032 -0.097266754256898902 0 -0.42956283827605152 -0.079037315985910656 0 -0.43962585887151101 -0.092136440097682765 0 -0.41285820329439371 -0.063280336135353027 0 -0.42956283827605152 -0.079037315985910656 0 -0.4406657366714728 -0.06205669905121828 0 -0.42956283827605152 -0.079037315985910656 0 -0.45280984567727151 -0.080825640502637616 0 -0.4406657366714728 -0.06205669905121828 0 -0.45280984567727151 -0.080825640502637616 0 -0.46404274814094698 -0.062026050979292778 0 -0.4406657366714728 -0.06205669905121828 0 -0.45280984567727151 -0.080825640502637616 0 -0.43962585887151101 -0.092136440097682765 0 -0.45293622820918489 -0.097389857480217668 0 -0.42956283827605152 -0.079037315985910656 0 -0.45280984567727151 -0.080825640502637616 0 -0.43962585887151101 -0.092136440097682765 0 -0.45280984567727151 -0.080825640502637616 0 -0.45293622820918489 -0.097389857480217668 0 -0.46641523873838819 -0.095040508212674513 0 -0.45280984567727151 -0.080825640502637616 0 -0.46641523873838819 -0.095040508212674513 0 -0.47532977466876408 -0.081755236575326212 0 -0.45280984567727151 -0.080825640502637616 0 -0.47532977466876408 -0.081755236575326212 0 -0.46404274814094698 -0.062026050979292778 0 -0.44765781704265412 -0.1202993624052747 0 -0.4406479341133861 -0.106162632262749 0 -0.45931470129159452 -0.1101697761763438 0 -0.43696147468928698 -0.12963865824887649 0 -0.43541208268014209 -0.11876236553195051 0 -0.44765781704265412 -0.1202993624052747 0 -0.43541208268014209 -0.11876236553195051 0 -0.44765781704265412 -0.1202993624052747 0 -0.4406479341133861 -0.106162632262749 0 -0.4406479341133861 -0.106162632262749 0 -0.45293622820918489 -0.097389857480217668 0 -0.45931470129159452 -0.1101697761763438 0 -0.43962585887151101 -0.092136440097682765 0 -0.4406479341133861 -0.106162632262749 0 -0.45293622820918489 -0.097389857480217668 0 -0.45293622820918489 -0.097389857480217668 0 -0.46641523873838819 -0.095040508212674513 0 -0.45931470129159452 -0.1101697761763438 0 -0.46641523873838819 -0.095040508212674513 0 -0.45931470129159452 -0.1101697761763438 0 -0.47465653786031259 -0.10641826440098601 0 -0.46055086447481308 -0.1258766313127726 0 -0.45931470129159452 -0.1101697761763438 0 -0.47233828860242277 -0.12000117715973239 0 -0.46055086447481308 -0.1258766313127726 0 -0.44765781704265412 -0.1202993624052747 0 -0.45931470129159452 -0.1101697761763438 0 -0.47233828860242277 -0.12000117715973239 0 -0.47465653786031259 -0.10641826440098601 0 -0.49019104998186391 -0.1055762885731225 0 -0.48038209996372799 -0.1323922832433265 0 -0.47233828860242277 -0.12000117715973239 0 -0.49019104998186391 -0.1055762885731225 0 -0.45931470129159452 -0.1101697761763438 0 -0.47233828860242277 -0.12000117715973239 0 -0.47465653786031259 -0.10641826440098601 0 -0.47465653786031259 -0.10641826440098601 0 -0.48174721015935329 -0.093991654663594826 0 -0.49019104998186391 -0.1055762885731225 0 -0.46641523873838819 -0.095040508212674513 0 -0.47465653786031259 -0.10641826440098601 0 -0.48174721015935329 -0.093991654663594826 0 -0.5 -0.1076187541114966 0 -0.49019104998186391 -0.1055762885731225 0 -0.49999999999999989 -0.078760293902918624 0 -0.5 -0.1076187541114966 0 -0.49019104998186391 -0.1055762885731225 0 -0.49200460939636009 -0.121441657513913 0 -0.5 -0.13647721432007451 0 -0.5 -0.1076187541114966 0 -0.49200460939636009 -0.121441657513913 0 -0.48038209996372799 -0.1323922832433265 0 -0.49019104998186391 -0.1055762885731225 0 -0.49200460939636009 -0.121441657513913 0 -0.48038209996372799 -0.1323922832433265 0 -0.49019104998186391 -0.1055762885731225 0 -0.4836602963147445 -0.064028817077896719 0 -0.47532977466876408 -0.081755236575326212 0 -0.46404274814094698 -0.062026050979292778 0 -0.46641523873838819 -0.095040508212674513 0 -0.48174721015935329 -0.093991654663594826 0 -0.47532977466876408 -0.081755236575326212 0 -0.48174721015935329 -0.093991654663594826 0 -0.49019104998186391 -0.1055762885731225 0 -0.49999999999999989 -0.078760293902918624 0 -0.48174721015935329 -0.093991654663594826 0 -0.47532977466876408 -0.081755236575326212 0 -0.49999999999999989 -0.078760293902918624 0 -0.49019104998186391 -0.1055762885731225 0 -0.49999999999999989 -0.078760293902918624 0 -0.4836602963147445 -0.064028817077896719 0 -0.49999999999999989 -0.078760293902918624 0 -0.5 -0.051311779895148568 0 -0.4836602963147445 -0.064028817077896719 0 -0.47532977466876408 -0.081755236575326212 0 -0.49999999999999989 -0.078760293902918624 0 -0.47892895876401109 -0.046290724036797473 0 -0.46580402527698761 -0.02660201617057285 0 -0.5 -0.023863265887378641 0 -0.4836602963147445 -0.064028817077896719 0 -0.5 -0.051311779895148568 0 -0.47892895876401109 -0.046290724036797473 0 -0.5 -0.051311779895148568 0 -0.47892895876401109 -0.046290724036797473 0 -0.5 -0.023863265887378641 0 -0.4836602963147445 -0.064028817077896719 0 -0.47892895876401109 -0.046290724036797473 0 -0.46404274814094698 -0.062026050979292778 0 -0.47892895876401109 -0.046290724036797473 0 -0.46404274814094698 -0.062026050979292778 0 -0.45275999843508941 -0.045685271124380679 0 -0.45275999843508941 -0.045685271124380679 0 -0.44112709277215162 -0.031613507450532818 0 -0.46580402527698761 -0.02660201617057285 0 -0.47892895876401109 -0.046290724036797473 0 -0.45275999843508941 -0.045685271124380679 0 -0.46580402527698761 -0.02660201617057285 0 -0.42837811314968782 -0.045967060103154683 0 -0.45275999843508941 -0.045685271124380679 0 -0.44112709277215162 -0.031613507450532818 0 -0.42837811314968782 -0.045967060103154683 0 -0.45275999843508941 -0.045685271124380679 0 -0.4406657366714728 -0.06205669905121828 0 -0.46404274814094698 -0.062026050979292778 0 -0.45275999843508941 -0.045685271124380679 0 -0.4406657366714728 -0.06205669905121828 0 -0.44141630127035969 -0.01336694823038213 0 -0.46132279601450688 -0.0051415088080673009 0 -0.44452819621460998 0.012267109071806261 0 -0.44112709277215162 -0.031613507450532818 0 -0.44141630127035969 -0.01336694823038213 0 -0.46580402527698761 -0.02660201617057285 0 -0.44141630127035969 -0.01336694823038213 0 -0.46580402527698761 -0.02660201617057285 0 -0.46132279601450688 -0.0051415088080673009 0 -0.46580402527698761 -0.02660201617057285 0 -0.48146118186546538 -0.0090362719606215218 0 -0.5 -0.023863265887378641 0 -0.46580402527698761 -0.02660201617057285 0 -0.46132279601450688 -0.0051415088080673009 0 -0.48146118186546538 -0.0090362719606215218 0 -0.46132279601450688 -0.0051415088080673009 0 -0.48146118186546538 -0.0090362719606215218 0 -0.47162143002650059 0.012133320172305831 0 -0.48146118186546538 -0.0090362719606215218 0 -0.5 -0.023863265887378641 0 -0.5 0.003585248120391404 0 -0.5 0.003585248120391404 0 -0.5 0.03103376212816145 0 -0.48135060688786208 0.02778717887832307 0 -0.48135060688786208 0.02778717887832307 0 -0.47162143002650059 0.012133320172305831 0 -0.45510291699101663 0.029129439503900109 0 -0.5 0.003585248120391404 0 -0.48135060688786208 0.02778717887832307 0 -0.47162143002650059 0.012133320172305831 0 -0.48146118186546538 -0.0090362719606215218 0 -0.5 0.003585248120391404 0 -0.47162143002650059 0.012133320172305831 0 -0.5 0.058482276135931488 0 -0.4911538889985072 0.042403706744986031 0 -0.48376301353007772 0.057959669289569998 0 -0.5 0.03103376212816145 0 -0.5 0.058482276135931488 0 -0.4911538889985072 0.042403706744986031 0 -0.5 0.03103376212816145 0 -0.48135060688786208 0.02778717887832307 0 -0.4911538889985072 0.042403706744986031 0 -0.4911538889985072 0.042403706744986031 0 -0.46311240504136159 0.048032065789100097 0 -0.48135060688786208 0.02778717887832307 0 -0.4911538889985072 0.042403706744986031 0 -0.46311240504136159 0.048032065789100097 0 -0.4911538889985072 0.042403706744986031 0 -0.48376301353007772 0.057959669289569998 0 -0.46311240504136159 0.048032065789100097 0 -0.48376301353007772 0.057959669289569998 0 -0.46311240504136159 0.048032065789100097 0 -0.47338612135590841 0.068673764638015861 0 -0.46311240504136159 0.048032065789100097 0 -0.45701929801263003 0.066257821726193322 0 -0.47338612135590841 0.068673764638015861 0 -0.48135060688786208 0.02778717887832307 0 -0.46311240504136159 0.048032065789100097 0 -0.45510291699101663 0.029129439503900109 0 -0.46311240504136159 0.048032065789100097 0 -0.45510291699101663 0.029129439503900109 0 -0.43507092108421602 0.053660424833214142 0 -0.45510291699101663 0.029129439503900109 0 -0.4333786733384542 0.03095373234968329 0 -0.43507092108421602 0.053660424833214142 0 -0.46311240504136159 0.048032065789100097 0 -0.43507092108421602 0.053660424833214142 0 -0.46311240504136159 0.048032065789100097 0 -0.43507092108421602 0.053660424833214142 0 -0.45701929801263003 0.066257821726193322 0 -0.46132279601450688 -0.0051415088080673009 0 -0.47162143002650059 0.012133320172305831 0 -0.44452819621460998 0.012267109071806261 0 -0.47162143002650059 0.012133320172305831 0 -0.45510291699101663 0.029129439503900109 0 -0.44452819621460998 0.012267109071806261 0 -0.45510291699101663 0.029129439503900109 0 -0.44452819621460998 0.012267109071806261 0 -0.4333786733384542 0.03095373234968329 0 -0.41929943937428749 -0.0015561529808880089 0 -0.44452819621460998 0.012267109071806261 0 -0.41868542712653561 0.019109026570272639 0 -0.41929943937428749 -0.0015561529808880089 0 -0.40065493480299758 -0.011346487014277319 0 -0.39934772136755431 0.014231930332185869 0 -0.41929943937428749 -0.0015561529808880089 0 -0.41868542712653561 0.019109026570272639 0 -0.39934772136755431 0.014231930332185869 0 -0.41868542712653561 0.019109026570272639 0 -0.4333786733384542 0.03095373234968329 0 -0.41157966918592409 0.037396873266866963 0 -0.41868542712653561 0.019109026570272639 0 -0.41157966918592409 0.037396873266866963 0 -0.39934772136755431 0.014231930332185869 0 -0.44452819621460998 0.012267109071806261 0 -0.41868542712653561 0.019109026570272639 0 -0.4333786733384542 0.03095373234968329 0 -0.4333786733384542 0.03095373234968329 0 -0.43507092108421602 0.053660424833214142 0 -0.41157966918592409 0.037396873266866963 0 -0.43507092108421602 0.053660424833214142 0 -0.40702943712707051 0.059288783877328187 0 -0.42544945112491173 0.069965464234501243 0 -0.43507092108421602 0.053660424833214142 0 -0.40702943712707051 0.059288783877328187 0 -0.41157966918592409 0.037396873266866963 0 -0.43507092108421602 0.053660424833214142 0 -0.40702943712707051 0.059288783877328187 0 -0.40702943712707051 0.059288783877328187 0 -0.41157966918592409 0.037396873266866963 0 -0.3881703305004876 0.040251079225752003 0 -0.40702943712707051 0.059288783877328187 0 -0.3789879531699249 0.064917142921442239 0 -0.40702943712707051 0.059288783877328187 0 -0.3881703305004876 0.040251079225752003 0 -0.3789879531699249 0.064917142921442239 0 -0.3881703305004876 0.040251079225752003 0 -0.3789879531699249 0.064917142921442239 0 -0.36026358073383941 0.04735251840028866 0 -0.3881703305004876 0.040251079225752003 0 -0.37938183371844991 0.01666791152100406 0 -0.39934772136755431 0.014231930332185869 0 -0.3881703305004876 0.040251079225752003 0 -0.37938183371844991 0.01666791152100406 0 -0.37126912298922737 0.03148656111276902 0 -0.37978125087613779 -0.0020942699323121378 0 -0.37938183371844991 0.01666791152100406 0 -0.39934772136755431 0.014231930332185869 0 -0.37978125087613779 -0.0020942699323121378 0 -0.37938183371844991 0.01666791152100406 0 -0.36671908423792321 0.0078954618654100157 0 -0.40065493480299758 -0.011346487014277319 0 -0.37978125087613779 -0.0020942699323121378 0 -0.39934772136755431 0.014231930332185869 0 -0.41157966918592409 0.037396873266866963 0 -0.3881703305004876 0.040251079225752003 0 -0.39934772136755431 0.014231930332185869 0 -0.39917529978560651 0.1117698010917199 0 -0.39228124823864918 0.084742967616103421 0 -0.41237550154761121 0.097547583070086222 0 -0.39917529978560651 0.1117698010917199 0 -0.38818711833353492 0.12028534050425969 0 -0.39703409423189068 0.12927456218209341 0 -0.39917529978560651 0.1117698010917199 0 -0.41010664653338519 0.12698145367527419 0 -0.39703409423189068 0.12927456218209341 0 -0.38818711833353492 0.12028534050425969 0 -0.3764080014033851 0.11982670789268041 0 -0.37418481420438637 0.10031217511242969 0 -0.39917529978560651 0.1117698010917199 0 -0.38818711833353492 0.12028534050425969 0 -0.37418481420438637 0.10031217511242969 0 -0.38818711833353492 0.12028534050425969 0 -0.3764080014033851 0.11982670789268041 0 -0.37921364210791342 0.13063004216970839 0 -0.39917529978560651 0.1117698010917199 0 -0.37418481420438637 0.10031217511242969 0 -0.39917529978560651 0.1117698010917199 0 -0.39228124823864918 0.084742967616103421 0 -0.37418481420438637 0.10031217511242969 0 -0.39228124823864918 0.084742967616103421 0 -0.36956174000020592 0.082627895495934967 0 -0.37418481420438637 0.10031217511242969 0 -0.3789879531699249 0.064917142921442239 0 -0.39228124823864918 0.084742967616103421 0 -0.36956174000020592 0.082627895495934967 0 -0.40702943712707051 0.059288783877328187 0 -0.39228124823864918 0.084742967616103421 0 -0.41320154161449291 0.078762085676596927 0 -0.40702943712707051 0.059288783877328187 0 -0.3789879531699249 0.064917142921442239 0 -0.39228124823864918 0.084742967616103421 0 -0.39228124823864918 0.084742967616103421 0 -0.41320154161449291 0.078762085676596927 0 -0.41237550154761121 0.097547583070086222 0 -0.41320154161449291 0.078762085676596927 0 -0.42963301290257883 0.084501406001875112 0 -0.41237550154761121 0.097547583070086222 0 -0.40702943712707051 0.059288783877328187 0 -0.41320154161449291 0.078762085676596927 0 -0.42544945112491173 0.069965464234501243 0 -0.42544945112491173 0.069965464234501243 0 -0.42963301290257883 0.084501406001875112 0 -0.44383422863291488 0.078086173617310975 0 -0.41320154161449291 0.078762085676596927 0 -0.42544945112491173 0.069965464234501243 0 -0.42963301290257883 0.084501406001875112 0 -0.43507092108421602 0.053660424833214142 0 -0.42544945112491173 0.069965464234501243 0 -0.44383422863291488 0.078086173617310975 0 -0.42963301290257883 0.084501406001875112 0 -0.44383422863291488 0.078086173617310975 0 -0.43766588340799523 0.092856037396337396 0 -0.42963301290257883 0.084501406001875112 0 -0.42929997477159632 0.099323098462430509 0 -0.43766588340799523 0.092856037396337396 0 -0.42963301290257883 0.084501406001875112 0 -0.42929997477159632 0.099323098462430509 0 -0.41237550154761121 0.097547583070086222 0 -0.42929997477159632 0.099323098462430509 0 -0.4396283449807834 0.10314783967123101 0 -0.43766588340799523 0.092856037396337396 0 -0.43127542992560369 0.1080913257264796 0 -0.43970277086943171 0.1141550219588984 0 -0.4396283449807834 0.10314783967123101 0 -0.43127542992560369 0.1080913257264796 0 -0.42929997477159632 0.099323098462430509 0 -0.4396283449807834 0.10314783967123101 0 -0.43127542992560369 0.1080913257264796 0 -0.42929997477159632 0.099323098462430509 0 -0.42069939240861393 0.1057451062468979 0 -0.42929997477159632 0.099323098462430509 0 -0.42069939240861393 0.1057451062468979 0 -0.41237550154761121 0.097547583070086222 0 -0.42069939240861393 0.1057451062468979 0 -0.41237550154761121 0.097547583070086222 0 -0.4115526373260382 0.10966631757793049 0 -0.39917529978560651 0.1117698010917199 0 -0.41237550154761121 0.097547583070086222 0 -0.4115526373260382 0.10966631757793049 0 -0.39917529978560651 0.1117698010917199 0 -0.4241657853668267 0.1232274270710098 0 -0.39917529978560651 0.1117698010917199 0 -0.4115526373260382 0.10966631757793049 0 -0.4241657853668267 0.1232274270710098 0 -0.39917529978560651 0.1117698010917199 0 -0.4241657853668267 0.1232274270710098 0 -0.41010664653338519 0.12698145367527419 0 -0.42069939240861393 0.1057451062468979 0 -0.4115526373260382 0.10966631757793049 0 -0.42032944292336261 0.11440425788057471 0 -0.4115526373260382 0.10966631757793049 0 -0.42032944292336261 0.11440425788057471 0 -0.4241657853668267 0.1232274270710098 0 -0.4241657853668267 0.1232274270710098 0 -0.44162094209116348 0.11856660655411499 0 -0.43127542992560369 0.1080913257264796 0 -0.42032944292336261 0.11440425788057471 0 -0.43970277086943171 0.1141550219588984 0 -0.42032944292336261 0.11440425788057471 0 -0.43970277086943171 0.1141550219588984 0 -0.4241657853668267 0.1232274270710098 0 -0.44162094209116348 0.11856660655411499 0 -0.43970277086943171 0.1141550219588984 0 -0.42032944292336261 0.11440425788057471 0 -0.4241657853668267 0.1232274270710098 0 -0.43970277086943171 0.1141550219588984 0 -0.43127542992560369 0.1080913257264796 0 -0.42069939240861393 0.1057451062468979 0 -0.42032944292336261 0.11440425788057471 0 -0.44162094209116348 0.11856660655411499 0 -0.43970277086943171 0.1141550219588984 0 -0.4590760988155006 0.1139057860372213 0 -0.43970277086943171 0.1141550219588984 0 -0.44975061409553663 0.1048396728477646 0 -0.4590760988155006 0.1139057860372213 0 -0.44162094209116348 0.11856660655411499 0 -0.45143228336521662 0.12350749422614 0 -0.4590760988155006 0.1139057860372213 0 -0.43970277086943171 0.1141550219588984 0 -0.4590760988155006 0.1139057860372213 0 -0.44162094209116348 0.11856660655411499 0 -0.4590760988155006 0.1139057860372213 0 -0.43970277086943171 0.1141550219588984 0 -0.4396283449807834 0.10314783967123101 0 -0.44975061409553663 0.1048396728477646 0 -0.4396283449807834 0.10314783967123101 0 -0.44910161846836832 0.094469860339811973 0 -0.43766588340799523 0.092856037396337396 0 -0.4396283449807834 0.10314783967123101 0 -0.44910161846836832 0.094469860339811973 0 -0.44975061409553663 0.1048396728477646 0 -0.4590760988155006 0.1139057860372213 0 -0.47486635738248439 0.1096895213391525 0 -0.47123316617220679 0.1018122916036676 0 -0.44975061409553663 0.1048396728477646 0 -0.46124423734359932 0.098519856231660555 0 -0.4590760988155006 0.1139057860372213 0 -0.44910161846836832 0.094469860339811973 0 -0.44975061409553663 0.1048396728477646 0 -0.46124423734359932 0.098519856231660555 0 -0.46124423734359932 0.098519856231660555 0 -0.4590760988155006 0.1139057860372213 0 -0.47123316617220679 0.1018122916036676 0 -0.4590760988155006 0.1139057860372213 0 -0.47486635738248439 0.1096895213391525 0 -0.4590760988155006 0.1139057860372213 0 -0.46946798898866809 0.1223819590546872 0 -0.45905051662177337 0.12832806392830709 0 -0.45143228336521662 0.12350749422614 0 -0.4590760988155006 0.1139057860372213 0 -0.45905051662177337 0.12832806392830709 0 -0.43507092108421602 0.053660424833214142 0 -0.44383422863291488 0.078086173617310975 0 -0.45701929801263003 0.066257821726193322 0 -0.44910161846836832 0.094469860339811973 0 -0.44383422863291488 0.078086173617310975 0 -0.43766588340799523 0.092856037396337396 0 -0.44910161846836832 0.094469860339811973 0 -0.44383422863291488 0.078086173617310975 0 -0.45997789134108452 0.083779184044953853 0 -0.46124423734359932 0.098519856231660555 0 -0.45997789134108452 0.083779184044953853 0 -0.47787740579854598 0.088725577691488922 0 -0.44910161846836832 0.094469860339811973 0 -0.46124423734359932 0.098519856231660555 0 -0.45997789134108452 0.083779184044953853 0 -0.44383422863291488 0.078086173617310975 0 -0.45997789134108452 0.083779184044953853 0 -0.45701929801263003 0.066257821726193322 0 -0.45997789134108452 0.083779184044953853 0 -0.45701929801263003 0.066257821726193322 0 -0.47338612135590841 0.068673764638015861 0 -0.47338612135590841 0.068673764638015861 0 -0.47787740579854598 0.088725577691488922 0 -0.4870053081369064 0.07195441557974154 0 -0.48376301353007772 0.057959669289569998 0 -0.47338612135590841 0.068673764638015861 0 -0.4870053081369064 0.07195441557974154 0 -0.45997789134108452 0.083779184044953853 0 -0.47338612135590841 0.068673764638015861 0 -0.47787740579854598 0.088725577691488922 0 -0.47787740579854598 0.088725577691488922 0 -0.5 0.085930790143701474 0 -0.4870053081369064 0.07195441557974154 0 -0.47787740579854598 0.088725577691488922 0 -0.5 0.085930790143701474 0 -0.48310173152090391 0.098220716718814785 0 -0.5 0.058482276135931488 0 -0.48376301353007772 0.057959669289569998 0 -0.4870053081369064 0.07195441557974154 0 -0.5 0.058482276135931488 0 -0.5 0.085930790143701474 0 -0.4870053081369064 0.07195441557974154 0 -0.4590760988155006 0.1139057860372213 0 -0.47953804940775169 0.11364254509434681 0 -0.47486635738248439 0.1096895213391525 0 -0.4590760988155006 0.1139057860372213 0 -0.47953804940775169 0.11364254509434681 0 -0.4590760988155006 0.1139057860372213 0 -0.47953804940775169 0.11364254509434681 0 -0.46946798898866809 0.1223819590546872 0 -0.47953804940775169 0.11364254509434681 0 -0.47486635738248439 0.1096895213391525 0 -0.49065661594946852 0.1054732566410844 0 -0.47953804940775169 0.11364254509434681 0 -0.47888971647342182 0.12423596726562711 0 -0.48918238700200511 0.1216373576475417 0 -0.47953804940775169 0.11364254509434681 0 -0.47888971647342182 0.12423596726562711 0 -0.46946798898866809 0.1223819590546872 0 -0.46124423734359932 0.098519856231660555 0 -0.47787740579854598 0.088725577691488922 0 -0.47123316617220679 0.1018122916036676 0 -0.47486635738248439 0.1096895213391525 0 -0.49065661594946852 0.1054732566410844 0 -0.47486635738248439 0.1096895213391525 0 -0.47123316617220679 0.1018122916036676 0 -0.48310173152090391 0.098220716718814785 0 -0.47486635738248439 0.1096895213391525 0 -0.48310173152090391 0.098220716718814785 0 -0.49065661594946852 0.1054732566410844 0 -0.47787740579854598 0.088725577691488922 0 -0.47123316617220679 0.1018122916036676 0 -0.48310173152090391 0.098220716718814785 0 -0.5 0.085930790143701474 0 -0.48310173152090391 0.098220716718814785 0 -0.49065661594946852 0.1054732566410844 0 -0.5 0.085930790143701474 0 -0.49065661594946852 0.1054732566410844 0 -0.50000000000000289 0.1133793041514716 0 -0.47953804940775169 0.11364254509434681 0 -0.49065661594946852 0.1054732566410844 0 -0.50000000000000289 0.1133793041514716 0 -0.47953804940775169 0.11364254509434681 0 -0.50000000000000289 0.1133793041514716 0 -0.48918238700200511 0.1216373576475417 0 -0.47953804940775169 0.11364254509434681 0 -0.50000000000000289 0.1133793041514716 0 -0.50000000000000289 0.1133793041514716 0 -0.48918238700200511 0.1216373576475417 0 -0.5 0.14017673848237339 0 -0.5 0.14017673848237339 0 -0.48436163360261908 0.13196799255825081 0 -0.48117370306901269 0.14431853070057121 0 -0.48918238700200511 0.1216373576475417 0 -0.5 0.14017673848237339 0 -0.48436163360261908 0.13196799255825081 0 -0.47888971647342182 0.12423596726562711 0 -0.48918238700200511 0.1216373576475417 0 -0.48436163360261908 0.13196799255825081 0 -0.47888971647342182 0.12423596726562711 0 -0.48436163360261908 0.13196799255825081 0 -0.47192055349234119 0.1333563321730174 0 -0.48436163360261908 0.13196799255825081 0 -0.47192055349234119 0.1333563321730174 0 -0.48117370306901269 0.14431853070057121 0 -0.47888971647342182 0.12423596726562711 0 -0.46946798898866809 0.1223819590546872 0 -0.47192055349234119 0.1333563321730174 0 -0.47227156686576938 0.1537448310336656 0 -0.47023389264484089 0.14477404885491951 0 -0.46441402155712203 0.15429631130238969 0 -0.47227156686576938 0.1537448310336656 0 -0.47023389264484089 0.14477404885491951 0 -0.48117370306901269 0.14431853070057121 0 -0.47192055349234119 0.1333563321730174 0 -0.47023389264484089 0.14477404885491951 0 -0.48117370306901269 0.14431853070057121 0 -0.47227156686576938 0.1537448310336656 0 -0.48117370306901269 0.14431853070057121 0 -0.47930702725321722 0.1598414716856128 0 -0.5 0.14017673848237339 0 -0.48117370306901269 0.14431853070057121 0 -0.5 0.16697417281327531 0 -0.48117370306901269 0.14431853070057121 0 -0.5 0.16697417281327531 0 -0.47930702725321722 0.1598414716856128 0 -0.5 0.16697417281327531 0 -0.48465184467921629 0.1675680698282844 0 -0.47930702725321722 0.1598414716856128 0 -0.5 0.16697417281327531 0 -0.48465184467921629 0.1675680698282844 0 -0.48222796816777957 0.17623986677655029 0 -0.5 0.16697417281327531 0 -0.4879325177972384 0.18616588362887451 0 -0.48222796816777957 0.17623986677655029 0 -0.5 0.16697417281327531 0 -0.4879325177972384 0.18616588362887451 0 -0.5 0.1937716071441771 0 -0.48222796816777957 0.17623986677655029 0 -0.45584411131787728 0.18262627408468471 0 -0.48222796816777957 0.17623986677655029 0 -0.46801114279101358 0.17026479159887881 0 -0.46562273810859017 0.1752815389623229 0 -0.47696227928808138 0.18289150367538379 0 -0.48222796816777957 0.17623986677655029 0 -0.45584411131787728 0.18262627408468471 0 -0.4879325177972384 0.18616588362887451 0 -0.47696227928808138 0.18289150367538379 0 -0.47893338733185892 0.19259102580618689 0 -0.4879325177972384 0.18616588362887451 0 -0.47696227928808138 0.18289150367538379 0 -0.48222796816777957 0.17623986677655029 0 -0.48465184467921629 0.1675680698282844 0 -0.48222796816777957 0.17623986677655029 0 -0.47707238329586882 0.1672167680376993 0 -0.48465184467921629 0.1675680698282844 0 -0.47930702725321722 0.1598414716856128 0 -0.47707238329586882 0.1672167680376993 0 -0.47707238329586882 0.1672167680376993 0 -0.47025466624628082 0.16156884247514711 0 -0.46801114279101358 0.17026479159887881 0 -0.48222796816777957 0.17623986677655029 0 -0.47707238329586882 0.1672167680376993 0 -0.46801114279101358 0.17026479159887881 0 -0.47227156686576938 0.1537448310336656 0 -0.47930702725321722 0.1598414716856128 0 -0.47025466624628082 0.16156884247514711 0 -0.47930702725321722 0.1598414716856128 0 -0.47707238329586882 0.1672167680376993 0 -0.47025466624628082 0.16156884247514711 0 -0.47227156686576938 0.1537448310336656 0 -0.47025466624628082 0.16156884247514711 0 -0.46441402155712203 0.15429631130238969 0 -0.47025466624628082 0.16156884247514711 0 -0.46045185571469371 0.1640488811926368 0 -0.46441402155712203 0.15429631130238969 0 -0.46801114279101358 0.17026479159887881 0 -0.46045185571469371 0.1640488811926368 0 -0.45640773015769043 0.17199522338917789 0 -0.47025466624628082 0.16156884247514711 0 -0.46801114279101358 0.17026479159887881 0 -0.46045185571469371 0.1640488811926368 0 -0.46045185571469371 0.1640488811926368 0 -0.45640773015769043 0.17199522338917789 0 -0.44896310482265711 0.16687655090607079 0 -0.45345668289804592 0.15717468951817901 0 -0.46045185571469371 0.1640488811926368 0 -0.44896310482265711 0.16687655090607079 0 -0.45345668289804592 0.15717468951817901 0 -0.46045185571469371 0.1640488811926368 0 -0.46441402155712203 0.15429631130238969 0 -0.47696227928808138 0.18289150367538379 0 -0.45584411131787728 0.18262627408468471 0 -0.45424193148661862 0.1894340458536817 0 -0.48222796816777957 0.17623986677655029 0 -0.46562273810859017 0.1752815389623229 0 -0.45584411131787728 0.18262627408468471 0 -0.47696227928808138 0.18289150367538379 0 -0.45424193148661862 0.1894340458536817 0 -0.46801114279101358 0.17026479159887881 0 -0.46562273810859017 0.1752815389623229 0 -0.45640773015769043 0.17199522338917789 0 -0.46562273810859017 0.1752815389623229 0 -0.45640773015769043 0.17199522338917789 0 -0.45584411131787728 0.18262627408468471 0 -0.45640773015769043 0.17199522338917789 0 -0.45584411131787728 0.18262627408468471 0 -0.44871191328716847 0.17605729167109199 0 -0.45584411131787728 0.18262627408468471 0 -0.44421560096394991 0.18415156248882111 0 -0.42946025446797498 0.18901268139281921 0 -0.45584411131787728 0.18262627408468471 0 -0.44276697023940681 0.18926239734079131 0 -0.42946025446797498 0.18901268139281921 0 -0.45584411131787728 0.18262627408468471 0 -0.42946025446797498 0.18901268139281921 0 -0.45584411131787728 0.18262627408468471 0 -0.44871191328716847 0.17605729167109199 0 -0.44421560096394991 0.18415156248882111 0 -0.45584411131787728 0.18262627408468471 0 -0.45424193148661862 0.1894340458536817 0 -0.44276697023940681 0.18926239734079131 0 -0.44871191328716847 0.17605729167109199 0 -0.44421560096394991 0.18415156248882111 0 -0.43835461547807331 0.16938984511619909 0 -0.45345668289804592 0.15717468951817901 0 -0.44896310482265711 0.16687655090607079 0 -0.43943037001951468 0.15691627210674769 0 -0.44871191328716847 0.17605729167109199 0 -0.44896310482265711 0.16687655090607079 0 -0.43835461547807331 0.16938984511619909 0 -0.45640773015769043 0.17199522338917789 0 -0.44871191328716847 0.17605729167109199 0 -0.44896310482265711 0.16687655090607079 0 -0.44896310482265711 0.16687655090607079 0 -0.43835461547807331 0.16938984511619909 0 -0.43943037001951468 0.15691627210674769 0 -0.43943037001951468 0.15691627210674769 0 -0.44726175790202721 0.14833464546090719 0 -0.43732858393527901 0.1451604981661298 0 -0.45345668289804592 0.15717468951817901 0 -0.43943037001951468 0.15691627210674769 0 -0.44726175790202721 0.14833464546090719 0 -0.44726175790202721 0.14833464546090719 0 -0.4459815759324286 0.1332295203849167 0 -0.45875441810716439 0.142773258728214 0 -0.44726175790202721 0.14833464546090719 0 -0.4459815759324286 0.1332295203849167 0 -0.43732858393527901 0.1451604981661298 0 -0.4459815759324286 0.1332295203849167 0 -0.43092335212315158 0.1367470138504287 0 -0.43732858393527901 0.1451604981661298 0 -0.44162094209116348 0.11856660655411499 0 -0.45143228336521662 0.12350749422614 0 -0.4459815759324286 0.1332295203849167 0 -0.45143228336521662 0.12350749422614 0 -0.4459815759324286 0.1332295203849167 0 -0.45905051662177337 0.12832806392830709 0 -0.4459815759324286 0.1332295203849167 0 -0.45905051662177337 0.12832806392830709 0 -0.45875441810716439 0.142773258728214 0 -0.46946798898866809 0.1223819590546872 0 -0.47192055349234119 0.1333563321730174 0 -0.45905051662177337 0.12832806392830709 0 -0.47192055349234119 0.1333563321730174 0 -0.47023389264484089 0.14477404885491951 0 -0.45875441810716439 0.142773258728214 0 -0.47192055349234119 0.1333563321730174 0 -0.45905051662177337 0.12832806392830709 0 -0.45875441810716439 0.142773258728214 0 -0.47023389264484089 0.14477404885491951 0 -0.46441402155712203 0.15429631130238969 0 -0.45875441810716439 0.142773258728214 0 -0.45345668289804592 0.15717468951817901 0 -0.44726175790202721 0.14833464546090719 0 -0.45875441810716439 0.142773258728214 0 -0.45345668289804592 0.15717468951817901 0 -0.46441402155712203 0.15429631130238969 0 -0.45875441810716439 0.142773258728214 0 -0.47938485524443469 0.24736044176889169 0 -0.45876971048887399 0.24735440773180231 0 -0.47938485524443469 0.24736044176889169 0 -0.4771780204241628 0.23211287266187491 0 -0.46606817213537349 0.23861167729182239 0 -0.47938485524443469 0.24736044176889169 0 -0.48834820221686681 0.23428230944130871 0 -0.4771780204241628 0.23211287266187491 0 -0.47938485524443469 0.24736044176889169 0 -0.49999999999999539 0.24736647580598109 0 -0.47938485524443469 0.24736044176889169 0 -0.49999999999999539 0.24736647580598109 0 -0.48834820221686681 0.23428230944130871 0 -0.49999999999999539 0.24736647580598109 0 -0.48834820221686681 0.23428230944130871 0 -0.5 0.22056904147507919 0 -0.48834820221686681 0.23428230944130871 0 -0.5 0.22056904147507919 0 -0.48517813541573651 0.22400271549471651 0 -0.48517813541573651 0.22400271549471651 0 -0.4771780204241628 0.23211287266187491 0 -0.47556845162478489 0.2194054801335559 0 -0.48834820221686681 0.23428230944130871 0 -0.48517813541573651 0.22400271549471651 0 -0.4771780204241628 0.23211287266187491 0 -0.4771780204241628 0.23211287266187491 0 -0.46899142896986012 0.22714943189591799 0 -0.46606817213537349 0.23861167729182239 0 -0.46899142896986012 0.22714943189591799 0 -0.47556845162478489 0.2194054801335559 0 -0.46711802913255379 0.21701776302499609 0 -0.4771780204241628 0.23211287266187491 0 -0.46899142896986012 0.22714943189591799 0 -0.47556845162478489 0.2194054801335559 0 -0.47556845162478489 0.2194054801335559 0 -0.47325119284087003 0.2103214855041444 0 -0.46711802913255379 0.21701776302499609 0 -0.47325119284087003 0.2103214855041444 0 -0.47500219439699509 0.20186894932824639 0 -0.46575933037586492 0.2050135266326617 0 -0.47325119284087003 0.2103214855041444 0 -0.48472023440535622 0.20941516362713539 0 -0.47500219439699509 0.20186894932824639 0 -0.48517813541573651 0.22400271549471651 0 -0.47556845162478489 0.2194054801335559 0 -0.48472023440535622 0.20941516362713539 0 -0.47556845162478489 0.2194054801335559 0 -0.47325119284087003 0.2103214855041444 0 -0.48472023440535622 0.20941516362713539 0 -0.5 0.22056904147507919 0 -0.48472023440535622 0.20941516362713539 0 -0.5 0.1937716071441771 0 -0.5 0.22056904147507919 0 -0.48517813541573651 0.22400271549471651 0 -0.48472023440535622 0.20941516362713539 0 -0.48472023440535622 0.20941516362713539 0 -0.48456707132296623 0.19658953148493349 0 -0.5 0.1937716071441771 0 -0.4879325177972384 0.18616588362887451 0 -0.48456707132296623 0.19658953148493349 0 -0.5 0.1937716071441771 0 -0.4879325177972384 0.18616588362887451 0 -0.48456707132296623 0.19658953148493349 0 -0.47893338733185892 0.19259102580618689 0 -0.48472023440535622 0.20941516362713539 0 -0.48456707132296623 0.19658953148493349 0 -0.47500219439699509 0.20186894932824639 0 -0.48456707132296623 0.19658953148493349 0 -0.47893338733185892 0.19259102580618689 0 -0.47500219439699509 0.20186894932824639 0 -0.47893338733185892 0.19259102580618689 0 -0.47020287385401299 0.19543926091349639 0 -0.47500219439699509 0.20186894932824639 0 -0.47020287385401299 0.19543926091349639 0 -0.47500219439699509 0.20186894932824639 0 -0.46575933037586492 0.2050135266326617 0 -0.47696227928808138 0.18289150367538379 0 -0.47020287385401299 0.19543926091349639 0 -0.46234992656508528 0.19474921308952059 0 -0.47696227928808138 0.18289150367538379 0 -0.47893338733185892 0.19259102580618689 0 -0.47020287385401299 0.19543926091349639 0 -0.47696227928808138 0.18289150367538379 0 -0.46234992656508528 0.19474921308952059 0 -0.45424193148661862 0.1894340458536817 0 -0.46234992656508528 0.19474921308952059 0 -0.45645566530173037 0.20203834335193621 0 -0.46575933037586492 0.2050135266326617 0 -0.47020287385401299 0.19543926091349639 0 -0.46234992656508528 0.19474921308952059 0 -0.46575933037586492 0.2050135266326617 0 -0.46234992656508528 0.19474921308952059 0 -0.45645566530173037 0.20203834335193621 0 -0.45509952345242027 0.1962144220730215 0 -0.46234992656508528 0.19474921308952059 0 -0.45509952345242027 0.1962144220730215 0 -0.45424193148661862 0.1894340458536817 0 -0.45424193148661862 0.1894340458536817 0 -0.44735057045624682 0.19863608599694749 0 -0.43152158368515581 0.19597658803197959 0 -0.45509952345242027 0.1962144220730215 0 -0.45424193148661862 0.1894340458536817 0 -0.44735057045624682 0.19863608599694749 0 -0.44735057045624682 0.19863608599694749 0 -0.43927201698748353 0.20358489946028871 0 -0.43152158368515581 0.19597658803197959 0 -0.45424193148661862 0.1894340458536817 0 -0.43152158368515581 0.19597658803197959 0 -0.45424193148661862 0.1894340458536817 0 -0.44276697023940681 0.18926239734079131 0 -0.43152158368515581 0.19597658803197959 0 -0.45645566530173037 0.20203834335193621 0 -0.45509952345242027 0.1962144220730215 0 -0.44735057045624682 0.19863608599694749 0 -0.45645566530173037 0.20203834335193621 0 -0.44735057045624682 0.19863608599694749 0 -0.44819820250369491 0.20720612846540151 0 -0.44020816275455499 0.21239067409349879 0 -0.44697919338481329 0.2265808282646414 0 -0.42789021463425309 0.2145499792374605 0 -0.44735057045624682 0.19863608599694749 0 -0.44819820250369491 0.20720612846540151 0 -0.43927201698748353 0.20358489946028871 0 -0.44819820250369491 0.20720612846540151 0 -0.43927201698748353 0.20358489946028871 0 -0.44020816275455499 0.21239067409349879 0 -0.44819820250369491 0.20720612846540151 0 -0.45062091996783898 0.2166984354466106 0 -0.45827196227900008 0.2139378361931617 0 -0.44020816275455499 0.21239067409349879 0 -0.45062091996783898 0.2166984354466106 0 -0.44697919338481329 0.2265808282646414 0 -0.44819820250369491 0.20720612846540151 0 -0.44020816275455499 0.21239067409349879 0 -0.45062091996783898 0.2166984354466106 0 -0.45062091996783898 0.2166984354466106 0 -0.45827196227900008 0.2139378361931617 0 -0.45944707891713182 0.22337671021634939 0 -0.45645566530173037 0.20203834335193621 0 -0.45827196227900008 0.2139378361931617 0 -0.46575933037586492 0.2050135266326617 0 -0.45645566530173037 0.20203834335193621 0 -0.44819820250369491 0.20720612846540151 0 -0.45827196227900008 0.2139378361931617 0 -0.47325119284087003 0.2103214855041444 0 -0.46575933037586492 0.2050135266326617 0 -0.46711802913255379 0.21701776302499609 0 -0.45827196227900008 0.2139378361931617 0 -0.46575933037586492 0.2050135266326617 0 -0.46711802913255379 0.21701776302499609 0 -0.45827196227900008 0.2139378361931617 0 -0.46711802913255379 0.21701776302499609 0 -0.45944707891713182 0.22337671021634939 0 -0.45944707891713182 0.22337671021634939 0 -0.44697919338481329 0.2265808282646414 0 -0.46606817213537349 0.23861167729182239 0 -0.44697919338481329 0.2265808282646414 0 -0.46606817213537349 0.23861167729182239 0 -0.46899142896986012 0.22714943189591799 0 -0.46711802913255379 0.21701776302499609 0 -0.45944707891713182 0.22337671021634939 0 -0.46899142896986012 0.22714943189591799 0 -0.45944707891713182 0.22337671021634939 0 -0.46606817213537349 0.23861167729182239 0 -0.45062091996783898 0.2166984354466106 0 -0.45944707891713182 0.22337671021634939 0 -0.44697919338481329 0.2265808282646414 0 -0.44697919338481329 0.2265808282646414 0 -0.44846444480730369 0.2394706177615539 0 -0.43065210994476771 0.23040648575507841 0 -0.44846444480730369 0.2394706177615539 0 -0.43815456573331341 0.24734837369471299 0 -0.43065210994476771 0.23040648575507841 0 -0.44846444480730369 0.2394706177615539 0 -0.43815456573331341 0.24734837369471299 0 -0.45876971048887399 0.24735440773180231 0 -0.43815456573331341 0.24734837369471299 0 -0.45876971048887399 0.24735440773180231 0 -0.47938485524443469 0.24736044176889169 0 -0.45876971048887399 0.24735440773180231 0 -0.46606817213537349 0.23861167729182239 0 -0.44697919338481329 0.2265808282646414 0 -0.44846444480730369 0.2394706177615539 0 -0.46606817213537349 0.23861167729182239 0 -0.44846444480730369 0.2394706177615539 0 -0.45876971048887399 0.24735440773180231 0 -0.46606817213537349 0.23861167729182239 0 -0.41659169976103583 0.24640880725911149 0 -0.43065210994476771 0.23040648575507841 0 -0.4163858695220124 0.2286728156466464 0 -0.41659169976103583 0.24640880725911149 0 -0.4163858695220124 0.2286728156466464 0 -0.39712451166790241 0.22922822127083101 0 -0.41659169976103583 0.24640880725911149 0 -0.43065210994476771 0.23040648575507841 0 -0.43815456573331341 0.24734837369471299 0 -0.41659169976103583 0.24640880725911149 0 -0.43065210994476771 0.23040648575507841 0 -0.44697919338481329 0.2265808282646414 0 -0.42789021463425309 0.2145499792374605 0 -0.44697919338481329 0.2265808282646414 0 -0.43065210994476771 0.23040648575507841 0 -0.42789021463425309 0.2145499792374605 0 -0.43065210994476771 0.23040648575507841 0 -0.4163858695220124 0.2286728156466464 0 -0.42789021463425309 0.2145499792374605 0 -0.4163858695220124 0.2286728156466464 0 -0.41027064823890569 0.21654382645331841 0 -0.42789021463425309 0.2145499792374605 0 -0.4163858695220124 0.2286728156466464 0 -0.41027064823890569 0.21654382645331841 0 -0.39712451166790241 0.22922822127083101 0 -0.42789021463425309 0.2145499792374605 0 -0.40880123588369333 0.2025191302102787 0 -0.41027064823890569 0.21654382645331841 0 -0.42789021463425309 0.2145499792374605 0 -0.40880123588369333 0.2025191302102787 0 -0.41027064823890569 0.21654382645331841 0 -0.40880123588369333 0.2025191302102787 0 -0.40145132780507009 0.2046356067726586 0 -0.42789021463425309 0.2145499792374605 0 -0.4296556614158954 0.2054594845056438 0 -0.40880123588369333 0.2025191302102787 0 -0.44020816275455499 0.21239067409349879 0 -0.42789021463425309 0.2145499792374605 0 -0.4296556614158954 0.2054594845056438 0 -0.43927201698748353 0.20358489946028871 0 -0.44020816275455499 0.21239067409349879 0 -0.4296556614158954 0.2054594845056438 0 -0.4296556614158954 0.2054594845056438 0 -0.43152158368515581 0.19597658803197959 0 -0.40880123588369333 0.2025191302102787 0 -0.43927201698748353 0.20358489946028871 0 -0.4296556614158954 0.2054594845056438 0 -0.43152158368515581 0.19597658803197959 0 -0.44276697023940681 0.18926239734079131 0 -0.43152158368515581 0.19597658803197959 0 -0.42946025446797498 0.18901268139281921 0 -0.43152158368515581 0.19597658803197959 0 -0.42946025446797498 0.18901268139281921 0 -0.41605084107720358 0.19613919482101971 0 -0.43152158368515581 0.19597658803197959 0 -0.41605084107720358 0.19613919482101971 0 -0.40880123588369333 0.2025191302102787 0 -0.42946025446797498 0.18901268139281921 0 -0.41605084107720358 0.19613919482101971 0 -0.4030763976180729 0.1953990887009546 0 -0.42946025446797498 0.18901268139281921 0 -0.4030763976180729 0.1953990887009546 0 -0.41652830243604871 0.1830210197370761 0 -0.42946025446797498 0.18901268139281921 0 -0.4030763976180729 0.1953990887009546 0 -0.43152158368515581 0.19597658803197959 0 -0.40880123588369333 0.2025191302102787 0 -0.41605084107720358 0.19613919482101971 0 -0.40880123588369333 0.2025191302102787 0 -0.40761216411610579 0.198154475755878 0 -0.41605084107720358 0.19613919482101971 0 -0.40761216411610579 0.198154475755878 0 -0.4030763976180729 0.1953990887009546 0 -0.40880123588369333 0.2025191302102787 0 -0.40761216411610579 0.198154475755878 0 -0.40252018188545541 0.19856048929125869 0 -0.4030763976180729 0.1953990887009546 0 -0.41652830243604871 0.1830210197370761 0 -0.40472592334367491 0.18602356892186561 0 -0.39941840483933561 0.1962845328552392 0 -0.39141661766712732 0.20285658666543771 0 -0.38147194991732808 0.20062860474438821 0 -0.39941840483933561 0.1962845328552392 0 -0.39567911971075981 0.18957543160949061 0 -0.38147194991732808 0.20062860474438821 0 -0.4030763976180729 0.1953990887009546 0 -0.40472592334367491 0.18602356892186561 0 -0.4030763976180729 0.1953990887009546 0 -0.39567911971075981 0.18957543160949061 0 -0.40472592334367491 0.18602356892186561 0 -0.4030763976180729 0.1953990887009546 0 -0.39941840483933561 0.1962845328552392 0 -0.39567911971075981 0.18957543160949061 0 -0.40761216411610579 0.198154475755878 0 -0.40252018188545541 0.19856048929125869 0 -0.4030763976180729 0.1953990887009546 0 -0.40252018188545541 0.19856048929125869 0 -0.4030763976180729 0.1953990887009546 0 -0.40880123588369333 0.2025191302102787 0 -0.40252018188545541 0.19856048929125869 0 -0.40880123588369333 0.2025191302102787 0 -0.40252018188545541 0.19856048929125869 0 -0.40145132780507009 0.2046356067726586 0 -0.40252018188545541 0.19856048929125869 0 -0.39885054717550122 0.20104644067277119 0 -0.40145132780507009 0.2046356067726586 0 -0.40252018188545541 0.19856048929125869 0 -0.40145132780507009 0.2046356067726586 0 -0.40252018188545541 0.19856048929125869 0 -0.39885054717550122 0.20104644067277119 0 -0.39941840483933561 0.1962845328552392 0 -0.4030763976180729 0.1953990887009546 0 -0.39941840483933561 0.1962845328552392 0 -0.40252018188545541 0.19856048929125869 0 -0.4030763976180729 0.1953990887009546 0 -0.39941840483933561 0.1962845328552392 0 -0.40252018188545541 0.19856048929125869 0 -0.39941840483933561 0.1962845328552392 0 -0.39885054717550122 0.20104644067277119 0 -0.39941840483933561 0.1962845328552392 0 -0.39141661766712732 0.20285658666543771 0 -0.39885054717550122 0.20104644067277119 0 -0.39141661766712732 0.20285658666543771 0 -0.40145132780507009 0.2046356067726586 0 -0.39567911971075981 0.18957543160949061 0 -0.38843775585270363 0.1878095920114434 0 -0.38147194991732808 0.20062860474438821 0 -0.38843775585270363 0.1878095920114434 0 -0.37992640120883259 0.18906635376057579 0 -0.38147194991732808 0.20062860474438821 0 -0.39941840483933561 0.1962845328552392 0 -0.38147194991732808 0.20062860474438821 0 -0.37992640120883259 0.18906635376057579 0 -0.37348043130877812 0.1831144448797524 0 -0.37190947556069809 0.1940057694855678 0 -0.37992640120883259 0.18906635376057579 0 -0.38147194991732808 0.20062860474438821 0 -0.37190947556069809 0.1940057694855678 0 -0.39141661766712732 0.20285658666543771 0 -0.37877509363707029 0.21116544600688039 0 -0.40145132780507009 0.2046356067726586 0 -0.37877509363707029 0.21116544600688039 0 -0.40145132780507009 0.2046356067726586 0 -0.37877509363707029 0.21116544600688039 0 -0.39062906670647668 0.21662596176497931 0 -0.40145132780507009 0.2046356067726586 0 -0.39141661766712732 0.20285658666543771 0 -0.38147194991732808 0.20062860474438821 0 -0.37877509363707029 0.21116544600688039 0 -0.37877509363707029 0.21116544600688039 0 -0.38239096510898363 0.22293442493893731 0 -0.37237880706425752 0.2197632947265008 0 -0.37877509363707029 0.21116544600688039 0 -0.39062906670647668 0.21662596176497931 0 -0.38239096510898363 0.22293442493893731 0 -0.41027064823890569 0.21654382645331841 0 -0.40145132780507009 0.2046356067726586 0 -0.39712451166790241 0.22922822127083101 0 -0.39062906670647668 0.21662596176497931 0 -0.40145132780507009 0.2046356067726586 0 -0.39712451166790241 0.22922822127083101 0 -0.40145132780507009 0.2046356067726586 0 -0.39712451166790241 0.22922822127083101 0 -0.40880123588369333 0.2025191302102787 0 -0.40145132780507009 0.2046356067726586 0 -0.39712451166790241 0.22922822127083101 0 -0.38239096510898363 0.22293442493893731 0 -0.38057471247023261 0.23237742138141931 0 -0.39062906670647668 0.21662596176497931 0 -0.39712451166790241 0.22922822127083101 0 -0.38239096510898363 0.22293442493893731 0 -0.38239096510898363 0.22293442493893731 0 -0.37158473276555049 0.2288343176620575 0 -0.37237880706425752 0.2197632947265008 0 -0.38239096510898363 0.22293442493893731 0 -0.38057471247023261 0.23237742138141931 0 -0.37158473276555049 0.2288343176620575 0 -0.39712451166790241 0.22922822127083101 0 -0.38071427544245973 0.2427464974365349 0 -0.39279769553073562 0.25382083576900361 0 -0.39712451166790241 0.22922822127083101 0 -0.38057471247023261 0.23237742138141931 0 -0.38071427544245973 0.2427464974365349 0 -0.38057471247023261 0.23237742138141931 0 -0.38071427544245973 0.2427464974365349 0 -0.3710590773662667 0.23814364559873599 0 -0.41659169976103583 0.24640880725911149 0 -0.39712451166790241 0.22922822127083101 0 -0.39279769553073562 0.25382083576900361 0 -0.39712451166790241 0.22922822127083101 0 -0.39279769553073562 0.25382083576900361 0 -0.41610956349134431 0.1490023570976195 0 -0.40482680429473078 0.1605384338175605 0 -0.40404198192733909 0.14131284739494701 0 -0.41610956349134431 0.1490023570976195 0 -0.41930089808229248 0.13589582542926551 0 -0.42744685851345082 0.14743423285190199 0 -0.41610956349134431 0.1490023570976195 0 -0.41930089808229248 0.13589582542926551 0 -0.40404198192733909 0.14131284739494701 0 -0.41010664653338519 0.12698145367527419 0 -0.41930089808229248 0.13589582542926551 0 -0.40404198192733909 0.14131284739494701 0 -0.4241657853668267 0.1232274270710098 0 -0.41010664653338519 0.12698145367527419 0 -0.4241657853668267 0.1232274270710098 0 -0.41010664653338519 0.12698145367527419 0 -0.41930089808229248 0.13589582542926551 0 -0.4241657853668267 0.1232274270710098 0 -0.4459815759324286 0.1332295203849167 0 -0.41930089808229248 0.13589582542926551 0 -0.43092335212315158 0.1367470138504287 0 -0.42744685851345082 0.14743423285190199 0 -0.4241657853668267 0.1232274270710098 0 -0.44162094209116348 0.11856660655411499 0 -0.4459815759324286 0.1332295203849167 0 -0.4241657853668267 0.1232274270710098 0 -0.4459815759324286 0.1332295203849167 0 -0.43092335212315158 0.1367470138504287 0 -0.4241657853668267 0.1232274270710098 0 -0.41930089808229248 0.13589582542926551 0 -0.43092335212315158 0.1367470138504287 0 -0.43092335212315158 0.1367470138504287 0 -0.43732858393527901 0.1451604981661298 0 -0.42744685851345082 0.14743423285190199 0 -0.41610956349134431 0.1490023570976195 0 -0.42744685851345082 0.14743423285190199 0 -0.42493127463890812 0.15983044599442259 0 -0.43943037001951468 0.15691627210674769 0 -0.43732858393527901 0.1451604981661298 0 -0.42744685851345082 0.14743423285190199 0 -0.43943037001951468 0.15691627210674769 0 -0.42744685851345082 0.14743423285190199 0 -0.42493127463890812 0.15983044599442259 0 -0.43835461547807331 0.16938984511619909 0 -0.43943037001951468 0.15691627210674769 0 -0.42493127463890812 0.15983044599442259 0 -0.43835461547807331 0.16938984511619909 0 -0.42493127463890812 0.15983044599442259 0 -0.42452120262934029 0.17234499815319079 0 -0.44421560096394991 0.18415156248882111 0 -0.42452120262934029 0.17234499815319079 0 -0.42868134012432851 0.18213256544297679 0 -0.44421560096394991 0.18415156248882111 0 -0.43835461547807331 0.16938984511619909 0 -0.42452120262934029 0.17234499815319079 0 -0.44421560096394991 0.18415156248882111 0 -0.42452120262934029 0.17234499815319079 0 -0.44421560096394991 0.18415156248882111 0 -0.42946025446797498 0.18901268139281921 0 -0.42868134012432851 0.18213256544297679 0 -0.42452120262934029 0.17234499815319079 0 -0.42868134012432851 0.18213256544297679 0 -0.41652830243604871 0.1830210197370761 0 -0.42946025446797498 0.18901268139281921 0 -0.42868134012432851 0.18213256544297679 0 -0.41652830243604871 0.1830210197370761 0 -0.42452120262934029 0.17234499815319079 0 -0.41652830243604871 0.1830210197370761 0 -0.40928809357415818 0.1752074458597824 0 -0.41652830243604871 0.1830210197370761 0 -0.40928809357415818 0.1752074458597824 0 -0.40472592334367491 0.18602356892186561 0 -0.42452120262934029 0.17234499815319079 0 -0.40928809357415818 0.1752074458597824 0 -0.40482680429473078 0.1605384338175605 0 -0.41610956349134431 0.1490023570976195 0 -0.42493127463890812 0.15983044599442259 0 -0.40482680429473078 0.1605384338175605 0 -0.42452120262934029 0.17234499815319079 0 -0.40482680429473078 0.1605384338175605 0 -0.42493127463890812 0.15983044599442259 0 -0.42452120262934029 0.17234499815319079 0 -0.40482680429473078 0.1605384338175605 0 -0.40482680429473078 0.1605384338175605 0 -0.39665919989697579 0.17792962870339979 0 -0.3892156570744445 0.16896574267246409 0 -0.40482680429473078 0.1605384338175605 0 -0.38604507119586162 0.16024989878697379 0 -0.3892156570744445 0.16896574267246409 0 -0.40482680429473078 0.1605384338175605 0 -0.38604507119586162 0.16024989878697379 0 -0.38513240596012061 0.14873186948193151 0 -0.40928809357415818 0.1752074458597824 0 -0.40482680429473078 0.1605384338175605 0 -0.39665919989697579 0.17792962870339979 0 -0.39567911971075981 0.18957543160949061 0 -0.40472592334367491 0.18602356892186561 0 -0.39665919989697579 0.17792962870339979 0 -0.40928809357415818 0.1752074458597824 0 -0.40472592334367491 0.18602356892186561 0 -0.39665919989697579 0.17792962870339979 0 -0.39567911971075981 0.18957543160949061 0 -0.38843775585270363 0.1878095920114434 0 -0.39665919989697579 0.17792962870339979 0 -0.38843775585270363 0.1878095920114434 0 -0.37992640120883259 0.18906635376057579 0 -0.38433239340465519 0.1797733576817272 0 -0.38843775585270363 0.1878095920114434 0 -0.39665919989697579 0.17792962870339979 0 -0.38433239340465519 0.1797733576817272 0 -0.38433239340465519 0.1797733576817272 0 -0.3892156570744445 0.16896574267246409 0 -0.37926355610311058 0.17091244727351959 0 -0.39665919989697579 0.17792962870339979 0 -0.38433239340465519 0.1797733576817272 0 -0.3892156570744445 0.16896574267246409 0 -0.38433239340465519 0.1797733576817272 0 -0.37926355610311058 0.17091244727351959 0 -0.37348043130877812 0.1831144448797524 0 -0.37992640120883259 0.18906635376057579 0 -0.38433239340465519 0.1797733576817272 0 -0.37348043130877812 0.1831144448797524 0 -0.38604507119586162 0.16024989878697379 0 -0.3892156570744445 0.16896574267246409 0 -0.37926355610311058 0.17091244727351959 0 -0.38604507119586162 0.16024989878697379 0 -0.37926355610311058 0.17091244727351959 0 -0.37535318022308489 0.16159078985107689 0 -0.38604507119586162 0.16024989878697379 0 -0.37535318022308489 0.16159078985107689 0 -0.38513240596012061 0.14873186948193151 0 -0.38513240596012061 0.14873186948193151 0 -0.38249809021268788 0.13885024554412739 0 -0.36261523479171048 0.13523308543484119 0 -0.38731376770951609 0.14323382810415991 0 -0.38513240596012061 0.14873186948193151 0 -0.38249809021268788 0.13885024554412739 0 -0.38996196595429072 0.1464866460495923 0 -0.38731376770951609 0.14323382810415991 0 -0.38513240596012061 0.14873186948193151 0 -0.38996196595429072 0.1464866460495923 0 -0.38513240596012061 0.14873186948193151 0 -0.38996196595429072 0.1464866460495923 0 -0.38731376770951609 0.14323382810415991 0 -0.39166260871096548 0.1388665513409886 0 -0.40482680429473078 0.1605384338175605 0 -0.38513240596012061 0.14873186948193151 0 -0.40482680429473078 0.1605384338175605 0 -0.38996196595429072 0.1464866460495923 0 -0.40404198192733909 0.14131284739494701 0 -0.40482680429473078 0.1605384338175605 0 -0.38996196595429072 0.1464866460495923 0 -0.38513240596012061 0.14873186948193151 0 -0.38996196595429072 0.1464866460495923 0 -0.40404198192733909 0.14131284739494701 0 -0.39166260871096548 0.1388665513409886 0 -0.41010664653338519 0.12698145367527419 0 -0.40404198192733909 0.14131284739494701 0 -0.39703409423189068 0.12927456218209341 0 -0.39166260871096548 0.1388665513409886 0 -0.39703409423189068 0.12927456218209341 0 -0.38771911071939852 0.13158134834823551 0 -0.40404198192733909 0.14131284739494701 0 -0.39166260871096548 0.1388665513409886 0 -0.39703409423189068 0.12927456218209341 0 -0.38818711833353492 0.12028534050425969 0 -0.39703409423189068 0.12927456218209341 0 -0.38771911071939852 0.13158134834823551 0 -0.38818711833353492 0.12028534050425969 0 -0.38771911071939852 0.13158134834823551 0 -0.37921364210791342 0.13063004216970839 0 -0.39166260871096548 0.1388665513409886 0 -0.38771911071939852 0.13158134834823551 0 -0.38249809021268788 0.13885024554412739 0 -0.38731376770951609 0.14323382810415991 0 -0.39166260871096548 0.1388665513409886 0 -0.38249809021268788 0.13885024554412739 0 -0.38771911071939852 0.13158134834823551 0 -0.38249809021268788 0.13885024554412739 0 -0.37921364210791342 0.13063004216970839 0 -0.3764080014033851 0.11982670789268041 0 -0.37921364210791342 0.13063004216970839 0 -0.36980941732460793 0.1264429815483126 0 -0.37921364210791342 0.13063004216970839 0 -0.36980941732460793 0.1264429815483126 0 -0.36261523479171048 0.13523308543484119 0 -0.38249809021268788 0.13885024554412739 0 -0.37921364210791342 0.13063004216970839 0 -0.36261523479171048 0.13523308543484119 0 -0.36261523479171048 0.13523308543484119 0 -0.35399323396578908 0.1295811750523686 0 -0.36205342399503448 0.1243971346714505 0 -0.36980941732460793 0.1264429815483126 0 -0.36261523479171048 0.13523308543484119 0 -0.36205342399503448 0.1243971346714505 0 -0.36261523479171048 0.13523308543484119 0 -0.35399323396578908 0.1295811750523686 0 -0.35219470683963439 0.13915650663672779 0 -0.36261523479171048 0.13523308543484119 0 -0.35219470683963439 0.13915650663672779 0 -0.35912125460303979 0.14613997691501179 0 -0.35399323396578908 0.1295811750523686 0 -0.35219470683963439 0.13915650663672779 0 -0.33886829202793262 0.13513192314932879 0 -0.35219470683963439 0.13915650663672779 0 -0.3463755188097003 0.14969637263208871 0 -0.33886829202793262 0.13513192314932879 0 -0.35219470683963439 0.13915650663672779 0 -0.3463755188097003 0.14969637263208871 0 -0.35912125460303979 0.14613997691501179 0 -0.3463755188097003 0.14969637263208871 0 -0.35912125460303979 0.14613997691501179 0 -0.36188216171322118 0.15954072023724711 0 -0.38513240596012061 0.14873186948193151 0 -0.36261523479171048 0.13523308543484119 0 -0.38513240596012061 0.14873186948193151 0 -0.37048502152756602 0.14763529503494771 0 -0.36188216171322118 0.15954072023724711 0 -0.38513240596012061 0.14873186948193151 0 -0.36188216171322118 0.15954072023724711 0 -0.38513240596012061 0.14873186948193151 0 -0.36261523479171048 0.13523308543484119 0 -0.37048502152756602 0.14763529503494771 0 -0.35912125460303979 0.14613997691501179 0 -0.37048502152756602 0.14763529503494771 0 -0.36188216171322118 0.15954072023724711 0 -0.36261523479171048 0.13523308543484119 0 -0.35912125460303979 0.14613997691501179 0 -0.37048502152756602 0.14763529503494771 0 -0.36715460341183942 0.17178044976912299 0 -0.36188216171322118 0.15954072023724711 0 -0.35263350375716529 0.17624291809871731 0 -0.37535318022308489 0.16159078985107689 0 -0.38513240596012061 0.14873186948193151 0 -0.36188216171322118 0.15954072023724711 0 -0.37535318022308489 0.16159078985107689 0 -0.36715460341183942 0.17178044976912299 0 -0.36188216171322118 0.15954072023724711 0 -0.37926355610311058 0.17091244727351959 0 -0.37535318022308489 0.16159078985107689 0 -0.36715460341183942 0.17178044976912299 0 -0.36715460341183942 0.17178044976912299 0 -0.35270882896383982 0.1914340433001912 0 -0.36715460341183942 0.17178044976912299 0 -0.36502416829234791 0.1892385656444914 0 -0.35270882896383982 0.1914340433001912 0 -0.36715460341183942 0.17178044976912299 0 -0.37348043130877812 0.1831144448797524 0 -0.36502416829234791 0.1892385656444914 0 -0.37926355610311058 0.17091244727351959 0 -0.36715460341183942 0.17178044976912299 0 -0.37348043130877812 0.1831144448797524 0 -0.36715460341183942 0.17178044976912299 0 -0.35263350375716529 0.17624291809871731 0 -0.35270882896383982 0.1914340433001912 0 -0.35263350375716529 0.17624291809871731 0 -0.33863191746632071 0.1703495709925604 0 -0.34250646118456562 0.18388888239834131 0 -0.35263350375716529 0.17624291809871731 0 -0.34250646118456562 0.18388888239834131 0 -0.35270882896383982 0.1914340433001912 0 -0.36188216171322118 0.15954072023724711 0 -0.33863191746632071 0.1703495709925604 0 -0.36188216171322118 0.15954072023724711 0 -0.35263350375716529 0.17624291809871731 0 -0.33863191746632071 0.1703495709925604 0 -0.3463755188097003 0.14969637263208871 0 -0.36188216171322118 0.15954072023724711 0 -0.33863191746632071 0.1703495709925604 0 -0.33863191746632071 0.1703495709925604 0 -0.32345589195455199 0.16811586971415529 0 -0.32779740170334348 0.15005705407099471 0 -0.3463755188097003 0.14969637263208871 0 -0.33863191746632071 0.1703495709925604 0 -0.32779740170334348 0.15005705407099471 0 -0.33863191746632071 0.1703495709925604 0 -0.33288253740055102 0.18193382650795989 0 -0.31538167321942018 0.18115842174787369 0 -0.34250646118456562 0.18388888239834131 0 -0.33288253740055102 0.18193382650795989 0 -0.33257855051186919 0.19129762531633679 0 -0.33863191746632071 0.1703495709925604 0 -0.34250646118456562 0.18388888239834131 0 -0.33288253740055102 0.18193382650795989 0 -0.33288253740055102 0.18193382650795989 0 -0.32407341648084897 0.18627451091909741 0 -0.33257855051186919 0.19129762531633679 0 -0.33863191746632071 0.1703495709925604 0 -0.31538167321942018 0.18115842174787369 0 -0.33863191746632071 0.1703495709925604 0 -0.31538167321942018 0.18115842174787369 0 -0.32345589195455199 0.16811586971415529 0 -0.33288253740055102 0.18193382650795989 0 -0.32407341648084897 0.18627451091909741 0 -0.31538167321942018 0.18115842174787369 0 -0.32407341648084897 0.18627451091909741 0 -0.31538167321942018 0.18115842174787369 0 -0.32318829756725492 0.19409589633449009 0 -0.31538167321942018 0.18115842174787369 0 -0.32345589195455199 0.16811586971415529 0 -0.31041188603412179 0.17618773946550689 0 -0.32345589195455199 0.16811586971415529 0 -0.30519629345656302 0.14688777634237529 0 -0.31041188603412179 0.17618773946550689 0 -0.32779740170334348 0.15005705407099471 0 -0.32109016926520251 0.1322618198354257 0 -0.30519629345656302 0.14688777634237529 0 -0.32345589195455199 0.16811586971415529 0 -0.32779740170334348 0.15005705407099471 0 -0.30519629345656302 0.14688777634237529 0 -0.32779740170334348 0.15005705407099471 0 -0.32109016926520251 0.1322618198354257 0 -0.33886829202793262 0.13513192314932879 0 -0.32109016926520251 0.1322618198354257 0 -0.33886829202793262 0.13513192314932879 0 -0.33360815825916912 0.111644532395186 0 -0.35399323396578908 0.1295811750523686 0 -0.33886829202793262 0.13513192314932879 0 -0.33360815825916912 0.111644532395186 0 -0.3463755188097003 0.14969637263208871 0 -0.32779740170334348 0.15005705407099471 0 -0.33886829202793262 0.13513192314932879 0 -0.35364027290512279 0.24275260996615611 0 -0.34329172676424913 0.24335930576628789 0 -0.35145338992010933 0.25362928199555479 0 -0.35364027290512279 0.24275260996615611 0 -0.346477315000352 0.23288321910592 0 -0.34329172676424913 0.24335930576628789 0 -0.35364027290512279 0.24275260996615611 0 -0.3647464168940881 0.24641932805505659 0 -0.35835592108634318 0.2327849001753238 0 -0.35364027290512279 0.24275260996615611 0 -0.35835592108634318 0.2327849001753238 0 -0.346477315000352 0.23288321910592 0 -0.35364027290512279 0.24275260996615611 0 -0.3647464168940881 0.24641932805505659 0 -0.35145338992010933 0.25362928199555479 0 -0.38071427544245973 0.2427464974365349 0 -0.3647464168940881 0.24641932805505659 0 -0.37784715853102169 0.25516297643002489 0 -0.38071427544245973 0.2427464974365349 0 -0.3647464168940881 0.24641932805505659 0 -0.3710590773662667 0.23814364559873599 0 -0.3647464168940881 0.24641932805505659 0 -0.3710590773662667 0.23814364559873599 0 -0.35835592108634318 0.2327849001753238 0 -0.3710590773662667 0.23814364559873599 0 -0.37158473276555049 0.2288343176620575 0 -0.35835592108634318 0.2327849001753238 0 -0.37158473276555049 0.2288343176620575 0 -0.36460458009630531 0.2247694494512455 0 -0.35835592108634318 0.2327849001753238 0 -0.37237880706425752 0.2197632947265008 0 -0.36460458009630531 0.2247694494512455 0 -0.35609885946906977 0.2176952852410998 0 -0.38057471247023261 0.23237742138141931 0 -0.3710590773662667 0.23814364559873599 0 -0.37158473276555049 0.2288343176620575 0 -0.37158473276555049 0.2288343176620575 0 -0.37237880706425752 0.2197632947265008 0 -0.36460458009630531 0.2247694494512455 0 -0.36460458009630531 0.2247694494512455 0 -0.35835592108634318 0.2327849001753238 0 -0.35609885946906977 0.2176952852410998 0 -0.35609885946906977 0.2176952852410998 0 -0.33342262530106931 0.2242251244753192 0 -0.346477315000352 0.23288321910592 0 -0.35609885946906977 0.2176952852410998 0 -0.33342262530106931 0.2242251244753192 0 -0.35835592108634318 0.2327849001753238 0 -0.346477315000352 0.23288321910592 0 -0.35609885946906977 0.2176952852410998 0 -0.35609885946906977 0.2176952852410998 0 -0.35986750221658348 0.2058581207878227 0 -0.33826305451583899 0.21108763683125839 0 -0.35986750221658348 0.2058581207878227 0 -0.33826305451583899 0.21108763683125839 0 -0.38147194991732808 0.20062860474438821 0 -0.35986750221658348 0.2058581207878227 0 -0.38147194991732808 0.20062860474438821 0 -0.37877509363707029 0.21116544600688039 0 -0.35986750221658348 0.2058581207878227 0 -0.37877509363707029 0.21116544600688039 0 -0.35609885946906977 0.2176952852410998 0 -0.35986750221658348 0.2058581207878227 0 -0.37877509363707029 0.21116544600688039 0 -0.37237880706425752 0.2197632947265008 0 -0.35609885946906977 0.2176952852410998 0 -0.37877509363707029 0.21116544600688039 0 -0.35609885946906977 0.2176952852410998 0 -0.35986750221658348 0.2058581207878227 0 -0.37190947556069809 0.1940057694855678 0 -0.36502416829234791 0.1892385656444914 0 -0.38147194991732808 0.20062860474438821 0 -0.35986750221658348 0.2058581207878227 0 -0.37190947556069809 0.1940057694855678 0 -0.37348043130877812 0.1831144448797524 0 -0.37190947556069809 0.1940057694855678 0 -0.36502416829234791 0.1892385656444914 0 -0.35270882896383982 0.1914340433001912 0 -0.33826305451583899 0.21108763683125839 0 -0.35986750221658348 0.2058581207878227 0 -0.36502416829234791 0.1892385656444914 0 -0.35270882896383982 0.1914340433001912 0 -0.35986750221658348 0.2058581207878227 0 -0.35270882896383982 0.1914340433001912 0 -0.33826305451583899 0.21108763683125839 0 -0.34250646118456562 0.18388888239834131 0 -0.35270882896383982 0.1914340433001912 0 -0.33930574338162561 0.19596674089477001 0 -0.35270882896383982 0.1914340433001912 0 -0.33930574338162561 0.19596674089477001 0 -0.33826305451583899 0.21108763683125839 0 -0.34250646118456562 0.18388888239834131 0 -0.33930574338162561 0.19596674089477001 0 -0.33257855051186919 0.19129762531633679 0 -0.33930574338162561 0.19596674089477001 0 -0.33047182173201478 0.20212551662772241 0 -0.33826305451583899 0.21108763683125839 0 -0.33930574338162561 0.19596674089477001 0 -0.33047182173201478 0.20212551662772241 0 -0.33257855051186919 0.19129762531633679 0 -0.33047182173201478 0.20212551662772241 0 -0.33257855051186919 0.19129762531633679 0 -0.32318829756725492 0.19409589633449009 0 -0.31538167321942018 0.18115842174787369 0 -0.32318829756725492 0.19409589633449009 0 -0.31562747861168072 0.20548770258863849 0 -0.31562747861168072 0.20548770258863849 0 -0.31041188603412179 0.17618773946550689 0 -0.31538167321942018 0.18115842174787369 0 -0.31562747861168072 0.20548770258863849 0 -0.31041188603412179 0.17618773946550689 0 -0.32407341648084897 0.18627451091909741 0 -0.33257855051186919 0.19129762531633679 0 -0.32318829756725492 0.19409589633449009 0 -0.33047182173201478 0.20212551662772241 0 -0.32318829756725492 0.19409589633449009 0 -0.31562747861168072 0.20548770258863849 0 -0.31562747861168072 0.20548770258863849 0 -0.3292665044255772 0.21326531819040459 0 -0.32084307118924138 0.23478766571176971 0 -0.33047182173201478 0.20212551662772241 0 -0.31562747861168072 0.20548770258863849 0 -0.3292665044255772 0.21326531819040459 0 -0.35609885946906977 0.2176952852410998 0 -0.33826305451583899 0.21108763683125839 0 -0.33342262530106931 0.2242251244753192 0 -0.3292665044255772 0.21326531819040459 0 -0.33826305451583899 0.21108763683125839 0 -0.33047182173201478 0.20212551662772241 0 -0.3292665044255772 0.21326531819040459 0 -0.33826305451583899 0.21108763683125839 0 -0.33826305451583899 0.21108763683125839 0 -0.32084307118924138 0.23478766571176971 0 -0.3292665044255772 0.21326531819040459 0 -0.33826305451583899 0.21108763683125839 0 -0.32084307118924138 0.23478766571176971 0 -0.33826305451583899 0.21108763683125839 0 -0.33342262530106931 0.2242251244753192 0 -0.32084307118924138 0.23478766571176971 0 -0.346477315000352 0.23288321910592 0 -0.33342262530106931 0.2242251244753192 0 -0.33386079592152212 0.23875284843684849 0 -0.33342262530106931 0.2242251244753192 0 -0.32084307118924138 0.23478766571176971 0 -0.33386079592152212 0.23875284843684849 0 -0.31562747861168072 0.20548770258863849 0 -0.32084307118924138 0.23478766571176971 0 -0.32084307118924138 0.23478766571176971 0 -0.32367731706940328 0.25070978741429673 0 -0.32084307118924138 0.23478766571176971 0 -0.3065795590668664 0.25419328986766071 0 -0.32084307118924138 0.23478766571176971 0 -0.32367731706940328 0.25070978741429673 0 -0.3065795590668664 0.25419328986766071 0 -0.32084307118924138 0.23478766571176971 0 -0.33386079592152212 0.23875284843684849 0 -0.32367731706940328 0.25070978741429673 0 -0.33386079592152212 0.23875284843684849 0 -0.33632480984135271 0.25252799294456663 0 -0.32367731706940328 0.25070978741429673 0 -0.346477315000352 0.23288321910592 0 -0.33386079592152212 0.23875284843684849 0 -0.34329172676424913 0.24335930576628789 0 -0.33386079592152212 0.23875284843684849 0 -0.34329172676424913 0.24335930576628789 0 -0.33632480984135271 0.25252799294456663 0 -0.34329172676424913 0.24335930576628789 0 -0.35145338992010933 0.25362928199555479 0 -0.33632480984135271 0.25252799294456663 0 -0.2921040364502262 0.23935641012805051 0 -0.3065795590668664 0.25419328986766071 0 -0.28743946519297292 0.25607360513546729 0 -0.2921040364502262 0.23935641012805051 0 -0.27402586863852069 0.24422816852138379 0 -0.28743946519297292 0.25607360513546729 0 -0.2921040364502262 0.23935641012805051 0 -0.2812999643011736 0.2256972098976768 0 -0.27402586863852069 0.24422816852138379 0 -0.2921040364502262 0.23935641012805051 0 -0.30474508535172951 0.23707797846898029 0 -0.3065795590668664 0.25419328986766071 0 -0.32084307118924138 0.23478766571176971 0 -0.30474508535172951 0.23707797846898029 0 -0.3065795590668664 0.25419328986766071 0 -0.31562747861168072 0.20548770258863849 0 -0.32084307118924138 0.23478766571176971 0 -0.29945367470058398 0.21997454816844031 0 -0.32084307118924138 0.23478766571176971 0 -0.30474508535172951 0.23707797846898029 0 -0.29945367470058398 0.21997454816844031 0 -0.2921040364502262 0.23935641012805051 0 -0.30474508535172951 0.23707797846898029 0 -0.29945367470058398 0.21997454816844031 0 -0.2921040364502262 0.23935641012805051 0 -0.29945367470058398 0.21997454816844031 0 -0.2812999643011736 0.2256972098976768 0 -0.29945367470058398 0.21997454816844031 0 -0.27726743585877728 0.20601649955787499 0 -0.29945367470058398 0.21997454816844031 0 -0.30187845513900841 0.20640966342643241 0 -0.27726743585877728 0.20601649955787499 0 -0.29945367470058398 0.21997454816844031 0 -0.2812999643011736 0.2256972098976768 0 -0.27726743585877728 0.20601649955787499 0 -0.31562747861168072 0.20548770258863849 0 -0.29945367470058398 0.21997454816844031 0 -0.30187845513900841 0.20640966342643241 0 -0.31562747861168072 0.20548770258863849 0 -0.29474174273226211 0.19438641379123059 0 -0.30167039336394819 0.18365831416882589 0 -0.31562747861168072 0.20548770258863849 0 -0.30187845513900841 0.20640966342643241 0 -0.29474174273226211 0.19438641379123059 0 -0.31562747861168072 0.20548770258863849 0 -0.31041188603412179 0.17618773946550689 0 -0.30167039336394819 0.18365831416882589 0 -0.29474174273226211 0.19438641379123059 0 -0.27726743585877728 0.20601649955787499 0 -0.27550411419829168 0.18340033594111449 0 -0.30187845513900841 0.20640966342643241 0 -0.29474174273226211 0.19438641379123059 0 -0.27726743585877728 0.20601649955787499 0 -0.25508119701697057 0.19205845094730969 0 -0.27726743585877728 0.20601649955787499 0 -0.25508119701697057 0.19205845094730969 0 -0.27726743585877728 0.20601649955787499 0 -0.27550411419829168 0.18340033594111449 0 -0.25508119701697057 0.19205845094730969 0 -0.27726743585877728 0.20601649955787499 0 -0.26076456779167362 0.22086102137108299 0 -0.25508119701697057 0.19205845094730969 0 -0.26076456779167362 0.22086102137108299 0 -0.2418524378781827 0.20624867095867719 0 -0.2812999643011736 0.2256972098976768 0 -0.27726743585877728 0.20601649955787499 0 -0.26076456779167362 0.22086102137108299 0 -0.2812999643011736 0.2256972098976768 0 -0.26076456779167362 0.22086102137108299 0 -0.27402586863852069 0.24422816852138379 0 -0.26076456779167362 0.22086102137108299 0 -0.2498521202164147 0.24664314714166921 0 -0.24291454888764341 0.22641203327300219 0 -0.26076456779167362 0.22086102137108299 0 -0.27402586863852069 0.24422816852138379 0 -0.2498521202164147 0.24664314714166921 0 -0.2828927339413489 0.13311423673239881 0 -0.30519629345656302 0.14688777634237529 0 -0.2932356360209088 0.15926414280488099 0 -0.2828927339413489 0.13311423673239881 0 -0.2932356360209088 0.15926414280488099 0 -0.2777934536419121 0.16160873987673979 0 -0.2828927339413489 0.13311423673239881 0 -0.30519629345656302 0.14688777634237529 0 -0.29998070087900408 0.11758781321924371 0 -0.32109016926520251 0.1322618198354257 0 -0.30519629345656302 0.14688777634237529 0 -0.29998070087900408 0.11758781321924371 0 -0.30519629345656302 0.14688777634237529 0 -0.29998070087900408 0.11758781321924371 0 -0.30519629345656302 0.14688777634237529 0 -0.30050614602657438 0.16843390665869851 0 -0.2932356360209088 0.15926414280488099 0 -0.30519629345656302 0.14688777634237529 0 -0.31041188603412179 0.17618773946550689 0 -0.30519629345656302 0.14688777634237529 0 -0.30050614602657438 0.16843390665869851 0 -0.31041188603412179 0.17618773946550689 0 -0.30050614602657438 0.16843390665869851 0 -0.30167039336394819 0.18365831416882589 0 -0.29201652125733008 0.1761715605119035 0 -0.30050614602657438 0.16843390665869851 0 -0.31041188603412179 0.17618773946550689 0 -0.30167039336394819 0.18365831416882589 0 -0.29474174273226211 0.19438641379123059 0 -0.30167039336394819 0.18365831416882589 0 -0.29201652125733008 0.1761715605119035 0 -0.29201652125733008 0.1761715605119035 0 -0.2777934536419121 0.16160873987673979 0 -0.27550411419829168 0.18340033594111449 0 -0.29474174273226211 0.19438641379123059 0 -0.29201652125733008 0.1761715605119035 0 -0.27550411419829168 0.18340033594111449 0 -0.30050614602657438 0.16843390665869851 0 -0.29201652125733008 0.1761715605119035 0 -0.2932356360209088 0.15926414280488099 0 -0.29201652125733008 0.1761715605119035 0 -0.2932356360209088 0.15926414280488099 0 -0.2777934536419121 0.16160873987673979 0 -0.2777934536419121 0.16160873987673979 0 -0.27550411419829168 0.18340033594111449 0 -0.25612433468249851 0.1701603509616286 0 -0.25508119701697057 0.19205845094730969 0 -0.27550411419829168 0.18340033594111449 0 -0.25612433468249851 0.1701603509616286 0 -0.2777934536419121 0.16160873987673979 0 -0.25612433468249851 0.1701603509616286 0 -0.26218428132652249 0.14345971158502821 0 -0.25612433468249851 0.1701603509616286 0 -0.26218428132652249 0.14345971158502821 0 -0.2427016249851594 0.15282697900020459 0 -0.26218428132652249 0.14345971158502821 0 -0.24674899311506121 0.12645216703654991 0 -0.2427016249851594 0.15282697900020459 0 -0.2828927339413489 0.13311423673239881 0 -0.2777934536419121 0.16160873987673979 0 -0.26218428132652249 0.14345971158502821 0 -0.2828927339413489 0.13311423673239881 0 -0.26218428132652249 0.14345971158502821 0 -0.26684454759315512 0.1165957959026474 0 -0.26218428132652249 0.14345971158502821 0 -0.26684454759315512 0.1165957959026474 0 -0.24674899311506121 0.12645216703654991 0 -0.2507963612449623 0.1000773550728951 0 -0.26684454759315512 0.1165957959026474 0 -0.24674899311506121 0.12645216703654991 0 -0.2507963612449623 0.1000773550728951 0 -0.2621046385035396 0.097513526946488224 0 -0.26684454759315512 0.1165957959026474 0 -0.2507963612449623 0.1000773550728951 0 -0.26684454759315512 0.1165957959026474 0 -0.2507963612449623 0.1000773550728951 0 -0.2524414654835232 0.089356977395346426 0 -0.25592957919815768 0.094976826138118572 0 -0.2507963612449623 0.1000773550728951 0 -0.2524414654835232 0.089356977395346426 0 -0.25592957919815768 0.094976826138118572 0 -0.2507963612449623 0.1000773550728951 0 -0.2621046385035396 0.097513526946488224 0 -0.25592957919815768 0.094976826138118572 0 -0.2621046385035396 0.097513526946488224 0 -0.26390762975146309 0.089240890693280145 0 -0.27517850724437531 0.095947448857309769 0 -0.26684454759315512 0.1165957959026474 0 -0.28361216020677882 0.1104267449893877 0 -0.2621046385035396 0.097513526946488224 0 -0.27517850724437531 0.095947448857309769 0 -0.26684454759315512 0.1165957959026474 0 -0.2621046385035396 0.097513526946488224 0 -0.27517850724437531 0.095947448857309769 0 -0.26390762975146309 0.089240890693280145 0 -0.2828927339413489 0.13311423673239881 0 -0.26684454759315512 0.1165957959026474 0 -0.2828927339413489 0.13311423673239881 0 -0.26684454759315512 0.1165957959026474 0 -0.28361216020677882 0.1104267449893877 0 -0.2828927339413489 0.13311423673239881 0 -0.28361216020677882 0.1104267449893877 0 -0.29998070087900408 0.11758781321924371 0 -0.28361216020677882 0.1104267449893877 0 -0.29357262255741601 0.095488539806864642 0 -0.29998070087900408 0.11758781321924371 0 -0.27517850724437531 0.095947448857309769 0 -0.28361216020677882 0.1104267449893877 0 -0.29357262255741601 0.095488539806864642 0 -0.29357262255741601 0.095488539806864642 0 -0.29998070087900408 0.11758781321924371 0 -0.31322308255254933 0.093707889738003453 0 -0.29283800684592942 0.075771247080820864 0 -0.31322308255254933 0.093707889738003453 0 -0.29357262255741601 0.095488539806864642 0 -0.29283800684592942 0.075771247080820864 0 -0.31322308255254933 0.093707889738003453 0 -0.30616746072214968 0.066098375726851774 0 -0.29283800684592942 0.075771247080820864 0 -0.31322308255254933 0.093707889738003453 0 -0.27517850724437531 0.095947448857309769 0 -0.29357262255741601 0.095488539806864642 0 -0.28293590101933402 0.084866052184098414 0 -0.29357262255741601 0.095488539806864642 0 -0.28293590101933402 0.084866052184098414 0 -0.29283800684592942 0.075771247080820864 0 -0.28293590101933402 0.084866052184098414 0 -0.29283800684592942 0.075771247080820864 0 -0.27990909213896448 0.074153889021256303 0 -0.30616746072214968 0.066098375726851774 0 -0.29283800684592942 0.075771247080820864 0 -0.28988410386293362 0.066814353345032121 0 -0.30616746072214968 0.066098375726851774 0 -0.28988410386293362 0.066814353345032121 0 -0.29198992201938467 0.057717673059394382 0 -0.29283800684592942 0.075771247080820864 0 -0.28988410386293362 0.066814353345032121 0 -0.27990909213896448 0.074153889021256303 0 -0.28988410386293362 0.066814353345032121 0 -0.27990909213896448 0.074153889021256303 0 -0.27851603758823978 0.060330581836837281 0 -0.26547875153588169 0.074843779616092065 0 -0.26079546638720358 0.061795843062908751 0 -0.27851603758823978 0.060330581836837281 0 -0.27990909213896448 0.074153889021256303 0 -0.26547875153588169 0.074843779616092065 0 -0.27851603758823978 0.060330581836837281 0 -0.27990909213896448 0.074153889021256303 0 -0.27318127630998479 0.082969136154240453 0 -0.26547875153588169 0.074843779616092065 0 -0.26547875153588169 0.074843779616092065 0 -0.27851603758823978 0.060330581836837281 0 -0.27517850724437531 0.095947448857309769 0 -0.28293590101933402 0.084866052184098414 0 -0.27318127630998479 0.082969136154240453 0 -0.28293590101933402 0.084866052184098414 0 -0.27990909213896448 0.074153889021256303 0 -0.27318127630998479 0.082969136154240453 0 -0.27318127630998479 0.082969136154240453 0 -0.26390762975146309 0.089240890693280145 0 -0.26547875153588169 0.074843779616092065 0 -0.27517850724437531 0.095947448857309769 0 -0.27318127630998479 0.082969136154240453 0 -0.26390762975146309 0.089240890693280145 0 -0.2524414654835232 0.089356977395346426 0 -0.26547875153588169 0.074843779616092065 0 -0.26390762975146309 0.089240890693280145 0 -0.2524414654835232 0.089356977395346426 0 -0.26547875153588169 0.074843779616092065 0 -0.2524414654835232 0.089356977395346426 0 -0.25463713592647902 0.075048816336487523 0 -0.2453540382212071 0.082717383994226748 0 -0.2524414654835232 0.089356977395346426 0 -0.25463713592647902 0.075048816336487523 0 -0.2524414654835232 0.089356977395346426 0 -0.26547875153588169 0.074843779616092065 0 -0.25463713592647902 0.075048816336487523 0 -0.25592957919815768 0.094976826138118572 0 -0.26390762975146309 0.089240890693280145 0 -0.2524414654835232 0.089356977395346426 0 -0.26547875153588169 0.074843779616092065 0 -0.25463713592647902 0.075048816336487523 0 -0.26079546638720358 0.061795843062908751 0 -0.25463713592647902 0.075048816336487523 0 -0.26079546638720358 0.061795843062908751 0 -0.24568172363412241 0.062469702665654013 0 -0.26079546638720358 0.061795843062908751 0 -0.25175468998927231 0.045554675848431037 0 -0.24568172363412241 0.062469702665654013 0 -0.26079546638720358 0.061795843062908751 0 -0.25175468998927231 0.045554675848431037 0 -0.2694383596252658 0.051729665955151632 0 -0.25175468998927231 0.045554675848431037 0 -0.27466516181304168 0.040369184887294039 0 -0.24794929732059029 0.030806793726077451 0 -0.25175468998927231 0.045554675848431037 0 -0.27466516181304168 0.040369184887294039 0 -0.2694383596252658 0.051729665955151632 0 -0.25175468998927231 0.045554675848431037 0 -0.27466516181304168 0.040369184887294039 0 -0.27466516181304168 0.040369184887294039 0 -0.2694383596252658 0.051729665955151632 0 -0.28331911530280052 0.049051844061464678 0 -0.26079546638720358 0.061795843062908751 0 -0.27851603758823978 0.060330581836837281 0 -0.2694383596252658 0.051729665955151632 0 -0.27851603758823978 0.060330581836837281 0 -0.2694383596252658 0.051729665955151632 0 -0.28331911530280052 0.049051844061464678 0 -0.25440382098127251 0.00065316407925673781 0 -0.26169731721211992 0.01730014321422807 0 -0.2431292390292662 0.015141556947905199 0 -0.27240378417376582 -0.003003043958320204 0 -0.25440382098127251 0.00065316407925673781 0 -0.26169731721211992 0.01730014321422807 0 -0.26169731721211992 0.01730014321422807 0 -0.24794929732059029 0.030806793726077451 0 -0.2431292390292662 0.015141556947905199 0 -0.27466516181304168 0.040369184887294039 0 -0.26169731721211992 0.01730014321422807 0 -0.24794929732059029 0.030806793726077451 0 -0.27466516181304168 0.040369184887294039 0 -0.26169731721211992 0.01730014321422807 0 -0.28238276459156358 0.01811018563746725 0 -0.27240378417376582 -0.003003043958320204 0 -0.26169731721211992 0.01730014321422807 0 -0.28238276459156358 0.01811018563746725 0 -0.29276646731868922 -0.0013987410529109081 0 -0.28238276459156358 0.01811018563746725 0 -0.30247332407039951 0.015425342333627971 0 -0.27240378417376582 -0.003003043958320204 0 -0.29276646731868922 -0.0013987410529109081 0 -0.28238276459156358 0.01811018563746725 0 -0.28238276459156358 0.01811018563746725 0 -0.30247332407039951 0.015425342333627971 0 -0.29757563363681089 0.035183693926155703 0 -0.27466516181304168 0.040369184887294039 0 -0.28238276459156358 0.01811018563746725 0 -0.29757563363681089 0.035183693926155703 0 -0.30247332407039951 0.015425342333627971 0 -0.29757563363681089 0.035183693926155703 0 -0.30247332407039951 0.015425342333627971 0 -0.31495711888873212 0.008631866307555195 0 -0.31747067142591862 0.030680707718781671 0 -0.30247332407039951 0.015425342333627971 0 -0.29757563363681089 0.035183693926155703 0 -0.31747067142591862 0.030680707718781671 0 -0.29276646731868922 -0.0013987410529109081 0 -0.30737101450398863 -0.0043330092588996019 0 -0.30247332407039951 0.015425342333627971 0 -0.30737101450398863 -0.0043330092588996019 0 -0.30247332407039951 0.015425342333627971 0 -0.31495711888873212 0.008631866307555195 0 -0.30737101450398863 -0.0043330092588996019 0 -0.30247332407039951 0.015425342333627971 0 -0.29198992201938467 0.057717673059394382 0 -0.28331911530280052 0.049051844061464678 0 -0.29757563363681089 0.035183693926155703 0 -0.27851603758823978 0.060330581836837281 0 -0.29198992201938467 0.057717673059394382 0 -0.28331911530280052 0.049051844061464678 0 -0.28988410386293362 0.066814353345032121 0 -0.27851603758823978 0.060330581836837281 0 -0.29198992201938467 0.057717673059394382 0 -0.27466516181304168 0.040369184887294039 0 -0.29757563363681089 0.035183693926155703 0 -0.27466516181304168 0.040369184887294039 0 -0.28331911530280052 0.049051844061464678 0 -0.29757563363681089 0.035183693926155703 0 -0.29198992201938467 0.057717673059394382 0 -0.29757563363681089 0.035183693926155703 0 -0.29757563363681089 0.035183693926155703 0 -0.30803228644408809 0.049734965144228149 0 -0.31747067142591862 0.030680707718781671 0 -0.29757563363681089 0.035183693926155703 0 -0.31747067142591862 0.030680707718781671 0 -0.29198992201938467 0.057717673059394382 0 -0.29757563363681089 0.035183693926155703 0 -0.30803228644408809 0.049734965144228149 0 -0.30616746072214968 0.066098375726851774 0 -0.29198992201938467 0.057717673059394382 0 -0.30803228644408809 0.049734965144228149 0 -0.30803228644408809 0.049734965144228149 0 -0.32434027696326823 0.060327880703971187 0 -0.32454759217111462 0.043539839132314177 0 -0.30616746072214968 0.066098375726851774 0 -0.30803228644408809 0.049734965144228149 0 -0.32434027696326823 0.060327880703971187 0 -0.32454759217111462 0.043539839132314177 0 -0.31747067142591862 0.030680707718781671 0 -0.33736570921502568 0.026177721511406359 0 -0.30803228644408809 0.049734965144228149 0 -0.32454759217111462 0.043539839132314177 0 -0.31747067142591862 0.030680707718781671 0 -0.32454759217111462 0.043539839132314177 0 -0.33893873523848861 0.047444670435209002 0 -0.33736570921502568 0.026177721511406359 0 -0.32434027696326823 0.060327880703971187 0 -0.32454759217111462 0.043539839132314177 0 -0.33893873523848861 0.047444670435209002 0 -0.32434027696326823 0.060327880703971187 0 -0.33893873523848861 0.047444670435209002 0 -0.35094646921277911 0.07054550196555634 0 -0.3200740018433208 -0.0046276192937831457 0 -0.31495711888873212 0.008631866307555195 0 -0.3286331089770298 0.0047635663336856454 0 -0.31495711888873212 0.008631866307555195 0 -0.32736655611809018 0.01683932085812188 0 -0.3286331089770298 0.0047635663336856454 0 -0.31747067142591862 0.030680707718781671 0 -0.33736570921502568 0.026177721511406359 0 -0.31747067142591862 0.030680707718781671 0 -0.32736655611809018 0.01683932085812188 0 -0.33736570921502568 0.026177721511406359 0 -0.31495711888873212 0.008631866307555195 0 -0.31747067142591862 0.030680707718781671 0 -0.32736655611809018 0.01683932085812188 0 -0.32736655611809018 0.01683932085812188 0 -0.33736570921502568 0.026177721511406359 0 -0.34279599242091202 0.01035116478988357 0 -0.3378008196820424 -0.010337744317943751 0 -0.34279599242091202 0.01035116478988357 0 -0.3286331089770298 0.0047635663336856454 0 -0.32736655611809018 0.01683932085812188 0 -0.34279599242091202 0.01035116478988357 0 -0.3286331089770298 0.0047635663336856454 0 -0.35426589522833479 -0.0039347926374523889 0 -0.35726074700413302 0.02167473530403136 0 -0.35426589522833479 -0.0039347926374523889 0 -0.34279599242091202 0.01035116478988357 0 -0.35726074700413302 0.02167473530403136 0 -0.33736570921502568 0.026177721511406359 0 -0.34279599242091202 0.01035116478988357 0 -0.35726074700413302 0.02167473530403136 0 -0.33736570921502568 0.026177721511406359 0 -0.35726074700413302 0.02167473530403136 0 -0.37938183371844991 0.01666791152100406 0 -0.35726074700413302 0.02167473530403136 0 -0.37126912298922737 0.03148656111276902 0 -0.37938183371844991 0.01666791152100406 0 -0.35726074700413302 0.02167473530403136 0 -0.35426589522833479 -0.0039347926374523889 0 -0.35726074700413302 0.02167473530403136 0 -0.36671908423792321 0.0078954618654100157 0 -0.37938183371844991 0.01666791152100406 0 -0.35726074700413302 0.02167473530403136 0 -0.36671908423792321 0.0078954618654100157 0 -0.35426589522833479 -0.0039347926374523889 0 -0.37978125087613779 -0.0020942699323121378 0 -0.36671908423792321 0.0078954618654100157 0 -0.33893873523848861 0.047444670435209002 0 -0.36026358073383941 0.04735251840028866 0 -0.35094646921277911 0.07054550196555634 0 -0.35726074700413302 0.02167473530403136 0 -0.36026358073383941 0.04735251840028866 0 -0.33893873523848861 0.047444670435209002 0 -0.33736570921502568 0.026177721511406359 0 -0.36026358073383941 0.04735251840028866 0 -0.33736570921502568 0.026177721511406359 0 -0.35726074700413302 0.02167473530403136 0 -0.36026358073383941 0.04735251840028866 0 -0.35726074700413302 0.02167473530403136 0 -0.37126912298922737 0.03148656111276902 0 -0.36026358073383941 0.04735251840028866 0 -0.3881703305004876 0.040251079225752003 0 -0.37126912298922737 0.03148656111276902 0 -0.36026358073383941 0.04735251840028866 0 -0.3789879531699249 0.064917142921442239 0 -0.36026358073383941 0.04735251840028866 0 -0.35094646921277911 0.07054550196555634 0 -0.3789879531699249 0.064917142921442239 0 -0.35094646921277911 0.07054550196555634 0 -0.36956174000020592 0.082627895495934967 0 -0.3789879531699249 0.064917142921442239 0 -0.35094646921277911 0.07054550196555634 0 -0.35094646921277911 0.07054550196555634 0 -0.35140821517528981 0.092621689864143181 0 -0.36956174000020592 0.082627895495934967 0 -0.35094646921277911 0.07054550196555634 0 -0.35140821517528981 0.092621689864143181 0 -0.33010546709491168 0.081888035645658566 0 -0.35140821517528981 0.092621689864143181 0 -0.36956174000020592 0.082627895495934967 0 -0.37418481420438637 0.10031217511242969 0 -0.35140821517528981 0.092621689864143181 0 -0.37418481420438637 0.10031217511242969 0 -0.35670769404848351 0.11293319569096789 0 -0.37418481420438637 0.10031217511242969 0 -0.36714153984458148 0.117795235630762 0 -0.35670769404848351 0.11293319569096789 0 -0.3764080014033851 0.11982670789268041 0 -0.37418481420438637 0.10031217511242969 0 -0.36714153984458148 0.117795235630762 0 -0.3764080014033851 0.11982670789268041 0 -0.36980941732460793 0.1264429815483126 0 -0.36714153984458148 0.117795235630762 0 -0.36714153984458148 0.117795235630762 0 -0.36205342399503448 0.1243971346714505 0 -0.35670769404848351 0.11293319569096789 0 -0.36980941732460793 0.1264429815483126 0 -0.36714153984458148 0.117795235630762 0 -0.36205342399503448 0.1243971346714505 0 -0.35399323396578908 0.1295811750523686 0 -0.33360815825916912 0.111644532395186 0 -0.35399323396578908 0.1295811750523686 0 -0.35670769404848351 0.11293319569096789 0 -0.33360815825916912 0.111644532395186 0 -0.35399323396578908 0.1295811750523686 0 -0.36205342399503448 0.1243971346714505 0 -0.35670769404848351 0.11293319569096789 0 -0.35140821517528981 0.092621689864143181 0 -0.35670769404848351 0.11293319569096789 0 -0.33360815825916912 0.111644532395186 0 -0.32109016926520251 0.1322618198354257 0 -0.29998070087900408 0.11758781321924371 0 -0.33360815825916912 0.111644532395186 0 -0.29998070087900408 0.11758781321924371 0 -0.33360815825916912 0.111644532395186 0 -0.31322308255254933 0.093707889738003453 0 -0.35140821517528981 0.092621689864143181 0 -0.33360815825916912 0.111644532395186 0 -0.33010546709491168 0.081888035645658566 0 -0.33360815825916912 0.111644532395186 0 -0.31322308255254933 0.093707889738003453 0 -0.33360815825916912 0.111644532395186 0 -0.31322308255254933 0.093707889738003453 0 -0.33010546709491168 0.081888035645658566 0 -0.30616746072214968 0.066098375726851774 0 -0.31322308255254933 0.093707889738003453 0 -0.33010546709491168 0.081888035645658566 0 -0.30616746072214968 0.066098375726851774 0 -0.32434027696326823 0.060327880703971187 0 -0.33010546709491168 0.081888035645658566 0 -0.32434027696326823 0.060327880703971187 0 -0.35094646921277911 0.07054550196555634 0 -0.33010546709491168 0.081888035645658566 0 -0.39227706888138708 0.48077530252521788 0 -0.41035481552643671 0.4721982253420256 0 -0.41502356562598919 0.499999999999999 0 -0.39227706888138708 0.48077530252521788 0 -0.39107052145973109 0.46395433171519113 0 -0.41035481552643671 0.4721982253420256 0 -0.39227706888138708 0.48077530252521788 0 -0.38787688520105151 0.5 0 -0.41502356562598919 0.499999999999999 0 -0.39227706888138708 0.48077530252521788 0 -0.38787688520105151 0.5 0 -0.36807790769688781 0.48336625549826751 0 -0.39227706888138708 0.48077530252521788 0 -0.37462302209290838 0.46732637768348528 0 -0.36807790769688781 0.48336625549826751 0 -0.39227706888138708 0.48077530252521788 0 -0.39107052145973109 0.46395433171519113 0 -0.37462302209290838 0.46732637768348528 0 -0.38438363364687439 0.45430120485422981 0 -0.37462302209290838 0.46732637768348528 0 -0.36794188151749818 0.45356385133716282 0 -0.38438363364687439 0.45430120485422981 0 -0.39107052145973109 0.46395433171519113 0 -0.37462302209290838 0.46732637768348528 0 -0.38438363364687439 0.45430120485422981 0 -0.39487010069572792 0.45017935328304198 0 -0.39107052145973109 0.46395433171519113 0 -0.3804235055036993 0.4401558411045346 0 -0.39189664367992311 0.43913038250348091 0 -0.36794188151749818 0.45356385133716282 0 -0.39189664367992311 0.43913038250348091 0 -0.36794188151749818 0.45356385133716282 0 -0.38438363364687439 0.45430120485422981 0 -0.39189664367992311 0.43913038250348091 0 -0.36794188151749818 0.45356385133716282 0 -0.38438363364687439 0.45430120485422981 0 -0.39189664367992311 0.43913038250348091 0 -0.39487010069572792 0.45017935328304198 0 -0.3804235055036993 0.4401558411045346 0 -0.39189664367992311 0.43913038250348091 0 -0.3860200209034596 0.43538596426685772 0 -0.3804235055036993 0.4401558411045346 0 -0.39189664367992311 0.43913038250348091 0 -0.39583698599636391 0.438778198309629 0 -0.41208331923994213 0.4373261158972751 0 -0.39583698599636391 0.438778198309629 0 -0.40568606542688418 0.44439645068405209 0 -0.41572933960897263 0.44831785207929259 0 -0.39583698599636391 0.438778198309629 0 -0.41572933960897263 0.44831785207929259 0 -0.39583698599636391 0.438778198309629 0 -0.39189664367992311 0.43913038250348091 0 -0.39487010069572792 0.45017935328304198 0 -0.39583698599636391 0.438778198309629 0 -0.39396839504937708 0.43788208963296987 0 -0.39583698599636391 0.438778198309629 0 -0.39189664367992311 0.43913038250348091 0 -0.39396839504937708 0.43788208963296987 0 -0.39189664367992311 0.43913038250348091 0 -0.39583698599636391 0.438778198309629 0 -0.39396839504937708 0.43788208963296987 0 -0.39189664367992311 0.43913038250348091 0 -0.39396839504937708 0.43788208963296987 0 -0.39189664367992311 0.43913038250348091 0 -0.39123527357416582 0.43657138336403117 0 -0.39583698599636391 0.438778198309629 0 -0.39487010069572792 0.45017935328304198 0 -0.40568606542688418 0.44439645068405209 0 -0.39487010069572792 0.45017935328304198 0 -0.40568606542688418 0.44439645068405209 0 -0.41035481552643671 0.4721982253420256 0 -0.39487010069572792 0.45017935328304198 0 -0.39107052145973109 0.46395433171519113 0 -0.41035481552643671 0.4721982253420256 0 -0.40568606542688418 0.44439645068405209 0 -0.41035481552643671 0.4721982253420256 0 -0.41572933960897263 0.44831785207929259 0 -0.42445670137282199 0.46776797163618622 0 -0.41035481552643671 0.4721982253420256 0 -0.40568606542688418 0.44439645068405209 0 -0.41572933960897263 0.44831785207929259 0 -0.41035481552643671 0.4721982253420256 0 -0.42052848025208089 0.44109905576629937 0 -0.4283296524835199 0.4358740334849176 0 -0.41208331923994213 0.4373261158972751 0 -0.39583698599636391 0.438778198309629 0 -0.41572933960897263 0.44831785207929259 0 -0.41208331923994213 0.4373261158972751 0 -0.41572933960897263 0.44831785207929259 0 -0.42052848025208089 0.44109905576629937 0 -0.41208331923994213 0.4373261158972751 0 -0.41572933960897263 0.44831785207929259 0 -0.42052848025208089 0.44109905576629937 0 -0.42754966760724372 0.4431126529547233 0 -0.41572933960897263 0.44831785207929259 0 -0.42754966760724372 0.4431126529547233 0 -0.43366783066046988 0.44856701060648579 0 -0.41572933960897263 0.44831785207929259 0 -0.43562169322157979 0.45785750584895929 0 -0.41572933960897263 0.44831785207929259 0 -0.43366783066046988 0.44856701060648579 0 -0.43562169322157979 0.45785750584895929 0 -0.42754966760724372 0.4431126529547233 0 -0.4283296524835199 0.4358740334849176 0 -0.42052848025208089 0.44109905576629937 0 -0.42754966760724372 0.4431126529547233 0 -0.4283296524835199 0.4358740334849176 0 -0.43366783066046988 0.44856701060648579 0 -0.43562169322157979 0.45785750584895929 0 -0.44289181012718931 0.45194615970109531 0 -0.42754966760724372 0.4431126529547233 0 -0.43644870854774859 0.44099763061608149 0 -0.4283296524835199 0.4358740334849176 0 -0.42754966760724372 0.4431126529547233 0 -0.43366783066046988 0.44856701060648579 0 -0.43644870854774859 0.44099763061608149 0 -0.42445670137282199 0.46776797163618622 0 -0.43562169322157979 0.45785750584895929 0 -0.43855190880722028 0.47593504996891139 0 -0.41572933960897263 0.44831785207929259 0 -0.42445670137282199 0.46776797163618622 0 -0.43562169322157979 0.45785750584895929 0 -0.42445670137282199 0.46776797163618622 0 -0.42438861127750488 0.4835662424043724 0 -0.43855190880722028 0.47593504996891139 0 -0.42445670137282199 0.46776797163618622 0 -0.42438861127750488 0.4835662424043724 0 -0.41035481552643671 0.4721982253420256 0 -0.42438861127750488 0.4835662424043724 0 -0.41035481552643671 0.4721982253420256 0 -0.41502356562598919 0.499999999999999 0 -0.41035481552643671 0.4721982253420256 0 -0.41502356562598919 0.499999999999999 0 -0.42438861127750488 0.4835662424043724 0 -0.43828178821026548 0.5 0 -0.43855190880722028 0.47593504996891139 0 -0.42438861127750488 0.4835662424043724 0 -0.41502356562598919 0.499999999999999 0 -0.43828178821026548 0.5 0 -0.43828178821026548 0.5 0 -0.45852702881436508 0.48369857980931202 0 -0.46154001079454199 0.49999999999999878 0 -0.43828178821026548 0.5 0 -0.43855190880722028 0.47593504996891139 0 -0.45852702881436508 0.48369857980931202 0 -0.43855190880722028 0.47593504996891139 0 -0.45852702881436508 0.48369857980931202 0 -0.45551404683418739 0.46739715961862532 0 -0.46081794960953609 0.46994071967643319 0 -0.45852702881436508 0.48369857980931202 0 -0.45551404683418739 0.46739715961862532 0 -0.45852702881436508 0.48369857980931202 0 -0.45551404683418739 0.46739715961862532 0 -0.46081794960953609 0.46994071967643319 0 -0.45852702881436508 0.48369857980931202 0 -0.47409719741699591 0.47922161223355358 0 -0.46081794960953609 0.46994071967643319 0 -0.47409719741699591 0.47922161223355358 0 -0.46892304684740899 0.46591629586352129 0 -0.45852702881436508 0.48369857980931202 0 -0.46154001079454199 0.49999999999999878 0 -0.47409719741699591 0.47922161223355358 0 -0.45852702881436508 0.48369857980931202 0 -0.46154001079454199 0.49999999999999878 0 -0.46154001079454199 0.49999999999999878 0 -0.5 0.5 0 -0.47409719741699591 0.47922161223355358 0 -0.5 0.5 0 -0.47409719741699591 0.47922161223355358 0 -0.5 0.45957372943656488 0 -0.47409719741699591 0.47922161223355358 0 -0.47761761397886848 0.46340769253540032 0 -0.46892304684740899 0.46591629586352129 0 -0.5 0.45957372943656488 0 -0.48315970477012438 0.4466108790052169 0 -0.50000000000000711 0.42946820334738001 0 -0.5 0.45957372943656488 0 -0.47761761397886848 0.46340769253540032 0 -0.48315970477012438 0.4466108790052169 0 -0.47409719741699591 0.47922161223355358 0 -0.5 0.45957372943656488 0 -0.47761761397886848 0.46340769253540032 0 -0.47761761397886848 0.46340769253540032 0 -0.46892304684740899 0.46591629586352129 0 -0.46454022823351998 0.45870206482011122 0 -0.47761761397886848 0.46340769253540032 0 -0.46351063574092383 0.44887261861847461 0 -0.47761761397886848 0.46340769253540032 0 -0.48315970477012438 0.4466108790052169 0 -0.46351063574092383 0.44887261861847461 0 -0.48315970477012438 0.4466108790052169 0 -0.46351063574092383 0.44887261861847461 0 -0.47467027413083013 0.4317321510882649 0 -0.46351063574092383 0.44887261861847461 0 -0.44909368284378559 0.43401816343450672 0 -0.47467027413083013 0.4317321510882649 0 -0.46351063574092383 0.44887261861847461 0 -0.45245885216858289 0.45086735216008728 0 -0.44909368284378559 0.43401816343450672 0 -0.46351063574092383 0.44887261861847461 0 -0.46454022823351998 0.45870206482011122 0 -0.45245885216858289 0.45086735216008728 0 -0.46351063574092383 0.44887261861847461 0 -0.44909368284378559 0.43401816343450672 0 -0.45551404683418739 0.46739715961862532 0 -0.45245885216858289 0.45086735216008728 0 -0.46045082473864718 0.46256471842775571 0 -0.45551404683418739 0.46739715961862532 0 -0.45245885216858289 0.45086735216008728 0 -0.46081794960953609 0.46994071967643319 0 -0.46892304684740899 0.46591629586352129 0 -0.46045082473864718 0.46256471842775571 0 -0.46892304684740899 0.46591629586352129 0 -0.46454022823351998 0.45870206482011122 0 -0.46045082473864718 0.46256471842775571 0 -0.47761761397886848 0.46340769253540032 0 -0.46351063574092383 0.44887261861847461 0 -0.46454022823351998 0.45870206482011122 0 -0.46454022823351998 0.45870206482011122 0 -0.46045082473864718 0.46256471842775571 0 -0.45245885216858289 0.45086735216008728 0 -0.46081794960953609 0.46994071967643319 0 -0.46045082473864718 0.46256471842775571 0 -0.45551404683418739 0.46739715961862532 0 -0.46081794960953609 0.46994071967643319 0 -0.45551404683418739 0.46739715961862532 0 -0.43562169322157979 0.45785750584895929 0 -0.45551404683418739 0.46739715961862532 0 -0.43562169322157979 0.45785750584895929 0 -0.43855190880722028 0.47593504996891139 0 -0.45551404683418739 0.46739715961862532 0 -0.45551404683418739 0.46739715961862532 0 -0.45245885216858289 0.45086735216008728 0 -0.44289181012718931 0.45194615970109531 0 -0.43562169322157979 0.45785750584895929 0 -0.45551404683418739 0.46739715961862532 0 -0.44289181012718931 0.45194615970109531 0 -0.45245885216858289 0.45086735216008728 0 -0.44360270914372429 0.44341629259977339 0 -0.44909368284378559 0.43401816343450672 0 -0.45245885216858289 0.45086735216008728 0 -0.44909368284378559 0.43401816343450672 0 -0.45245885216858289 0.45086735216008728 0 -0.44289181012718931 0.45194615970109531 0 -0.44360270914372429 0.44341629259977339 0 -0.43366783066046988 0.44856701060648579 0 -0.44289181012718931 0.45194615970109531 0 -0.44360270914372429 0.44341629259977339 0 -0.43366783066046988 0.44856701060648579 0 -0.43644870854774859 0.44099763061608149 0 -0.44360270914372429 0.44341629259977339 0 -0.43644870854774859 0.44099763061608149 0 -0.44360270914372429 0.44341629259977339 0 -0.44909368284378559 0.43401816343450672 0 -0.44909368284378559 0.43401816343450672 0 -0.43058456928533417 0.41494736533933452 0 -0.44909368284378559 0.43401816343450672 0 -0.4283296524835199 0.4358740334849176 0 -0.44909368284378559 0.43401816343450672 0 -0.44611910563867718 0.41656682438847192 0 -0.46283452916362788 0.42012489001245212 0 -0.44909368284378559 0.43401816343450672 0 -0.44611910563867718 0.41656682438847192 0 -0.43644870854774859 0.44099763061608149 0 -0.44909368284378559 0.43401816343450672 0 -0.4283296524835199 0.4358740334849176 0 -0.44611910563867718 0.41656682438847192 0 -0.4428976630157016 0.39913754994779738 0 -0.44611910563867718 0.41656682438847192 0 -0.43869326081361348 0.40609766221372873 0 -0.4428976630157016 0.39913754994779738 0 -0.44909368284378559 0.43401816343450672 0 -0.44611910563867718 0.41656682438847192 0 -0.43058456928533417 0.41494736533933452 0 -0.44611910563867718 0.41656682438847192 0 -0.43869326081361348 0.40609766221372873 0 -0.43058456928533417 0.41494736533933452 0 -0.44611910563867718 0.41656682438847192 0 -0.46419139621484651 0.40504918254141881 0 -0.45333744222054823 0.40009710814713562 0 -0.44611910563867718 0.41656682438847192 0 -0.46283452916362788 0.42012489001245212 0 -0.46419139621484651 0.40504918254141881 0 -0.44909368284378559 0.43401816343450672 0 -0.47467027413083013 0.4317321510882649 0 -0.44909368284378559 0.43401816343450672 0 -0.46283452916362788 0.42012489001245212 0 -0.47467027413083013 0.4317321510882649 0 -0.46283452916362788 0.42012489001245212 0 -0.47467027413083013 0.4317321510882649 0 -0.47985132157213278 0.41328019321495529 0 -0.46283452916362788 0.42012489001245212 0 -0.47985132157213278 0.41328019321495529 0 -0.46419139621484651 0.40504918254141881 0 -0.47985132157213278 0.41328019321495529 0 -0.5 0.40742231964276521 0 -0.50000000000000711 0.42946820334738001 0 -0.47467027413083013 0.4317321510882649 0 -0.50000000000000711 0.42946820334738001 0 -0.48315970477012438 0.4466108790052169 0 -0.47467027413083013 0.4317321510882649 0 -0.50000000000000711 0.42946820334738001 0 -0.47467027413083013 0.4317321510882649 0 -0.47985132157213278 0.41328019321495529 0 -0.50000000000000711 0.42946820334738001 0 -0.5 0.38537643593815019 0 -0.4812206557778364 0.39416363165748608 0 -0.48175657835970898 0.37335443362329679 0 -0.47985132157213278 0.41328019321495529 0 -0.5 0.40742231964276521 0 -0.4812206557778364 0.39416363165748608 0 -0.5 0.40742231964276521 0 -0.5 0.38537643593815019 0 -0.4812206557778364 0.39416363165748608 0 -0.4812206557778364 0.39416363165748608 0 -0.46351315671941962 0.38337831501305891 0 -0.46419139621484651 0.40504918254141881 0 -0.47985132157213278 0.41328019321495529 0 -0.4812206557778364 0.39416363165748608 0 -0.46419139621484651 0.40504918254141881 0 -0.46351315671941962 0.38337831501305891 0 -0.48175657835970898 0.37335443362329679 0 -0.4812206557778364 0.39416363165748608 0 -0.46351315671941962 0.38337831501305891 0 -0.48175657835970898 0.37335443362329679 0 -0.46351315671941962 0.38337831501305891 0 -0.4452697350791302 0.39340219640282098 0 -0.46351315671941962 0.38337831501305891 0 -0.44850160054439309 0.383966682313301 0 -0.45159147587071952 0.37318423334928219 0 -0.46351315671941962 0.38337831501305891 0 -0.45333744222054823 0.40009710814713562 0 -0.4452697350791302 0.39340219640282098 0 -0.46351315671941962 0.38337831501305891 0 -0.46419139621484651 0.40504918254141881 0 -0.45333744222054823 0.40009710814713562 0 -0.44611910563867718 0.41656682438847192 0 -0.45333744222054823 0.40009710814713562 0 -0.4428976630157016 0.39913754994779738 0 -0.45333744222054823 0.40009710814713562 0 -0.4452697350791302 0.39340219640282098 0 -0.4428976630157016 0.39913754994779738 0 -0.43948455477369602 0.39478494396430169 0 -0.44139172569786178 0.38926042176642389 0 -0.43301325209637431 0.39240806846743193 0 -0.4452697350791302 0.39340219640282098 0 -0.43948455477369602 0.39478494396430169 0 -0.44139172569786178 0.38926042176642389 0 -0.4452697350791302 0.39340219640282098 0 -0.43948455477369602 0.39478494396430169 0 -0.4428976630157016 0.39913754994779738 0 -0.43948455477369602 0.39478494396430169 0 -0.43869326081361348 0.40609766221372873 0 -0.4428976630157016 0.39913754994779738 0 -0.46351315671941962 0.38337831501305891 0 -0.4452697350791302 0.39340219640282098 0 -0.44850160054439309 0.383966682313301 0 -0.44850160054439309 0.383966682313301 0 -0.44068948599571528 0.38174021768426442 0 -0.45159147587071952 0.37318423334928219 0 -0.44850160054439309 0.383966682313301 0 -0.44139172569786178 0.38926042176642389 0 -0.44068948599571528 0.38174021768426442 0 -0.44139172569786178 0.38926042176642389 0 -0.44068948599571528 0.38174021768426442 0 -0.43301325209637431 0.39240806846743193 0 -0.4452697350791302 0.39340219640282098 0 -0.44850160054439309 0.383966682313301 0 -0.44139172569786178 0.38926042176642389 0 -0.44068948599571528 0.38174021768426442 0 -0.43301325209637431 0.39240806846743193 0 -0.43544193490741723 0.3698687715955295 0 -0.42131029772405898 0.38034997183051078 0 -0.43301325209637431 0.39240806846743193 0 -0.43544193490741723 0.3698687715955295 0 -0.43301325209637431 0.39240806846743193 0 -0.43544193490741723 0.3698687715955295 0 -0.42131029772405898 0.38034997183051078 0 -0.43544193490741723 0.3698687715955295 0 -0.42131029772405898 0.38034997183051078 0 -0.41757607939677421 0.38022956704979272 0 -0.42586242526106183 0.36795024234797769 0 -0.42131029772405898 0.38034997183051078 0 -0.41757607939677421 0.38022956704979272 0 -0.40717866054070029 0.39083117206549128 0 -0.42131029772405898 0.38034997183051078 0 -0.40717866054070029 0.39083117206549128 0 -0.41757607939677421 0.38022956704979272 0 -0.41027362905413112 0.37998154063598899 0 -0.40717866054070029 0.39083117206549128 0 -0.41027362905413112 0.37998154063598899 0 -0.40717866054070029 0.39083117206549128 0 -0.40426514155647242 0.37757438208842647 0 -0.41027362905413112 0.37998154063598899 0 -0.40426514155647242 0.37757438208842647 0 -0.41109613290372737 0.37273425749363098 0 -0.41757607939677421 0.38022956704979272 0 -0.41027362905413112 0.37998154063598899 0 -0.41109613290372737 0.37273425749363098 0 -0.42131029772405898 0.38034997183051078 0 -0.40717866054070029 0.39083117206549128 0 -0.41888161491301601 0.40288926870241409 0 -0.40717866054070029 0.39083117206549128 0 -0.41888161491301601 0.40288926870241409 0 -0.40375811410309748 0.4101726824747024 0 -0.40717866054070029 0.39083117206549128 0 -0.41888161491301601 0.40288926870241409 0 -0.43869326081361348 0.40609766221372873 0 -0.43301325209637431 0.39240806846743193 0 -0.43058456928533417 0.41494736533933452 0 -0.41888161491301601 0.40288926870241409 0 -0.43301325209637431 0.39240806846743193 0 -0.43058456928533417 0.41494736533933452 0 -0.43301325209637431 0.39240806846743193 0 -0.43058456928533417 0.41494736533933452 0 -0.42131029772405898 0.38034997183051078 0 -0.41888161491301601 0.40288926870241409 0 -0.43301325209637431 0.39240806846743193 0 -0.43948455477369602 0.39478494396430169 0 -0.43869326081361348 0.40609766221372873 0 -0.43301325209637431 0.39240806846743193 0 -0.41888161491301601 0.40288926870241409 0 -0.43058456928533417 0.41494736533933452 0 -0.44909368284378559 0.43401816343450672 0 -0.43058456928533417 0.41494736533933452 0 -0.4283296524835199 0.4358740334849176 0 -0.43058456928533417 0.41494736533933452 0 -0.4283296524835199 0.4358740334849176 0 -0.43058456928533417 0.41494736533933452 0 -0.4283296524835199 0.4358740334849176 0 -0.41884325199304429 0.4269857954775601 0 -0.4283296524835199 0.4358740334849176 0 -0.41884325199304429 0.4269857954775601 0 -0.41208331923994213 0.4373261158972751 0 -0.4283296524835199 0.4358740334849176 0 -0.41208331923994213 0.4373261158972751 0 -0.41884325199304429 0.4269857954775601 0 -0.4099222783260274 0.42765107034344219 0 -0.41402656818589773 0.4176193529147848 0 -0.4099222783260274 0.42765107034344219 0 -0.41402656818589773 0.4176193529147848 0 -0.4030771167939422 0.42302890415146238 0 -0.4099222783260274 0.42765107034344219 0 -0.41208331923994213 0.4373261158972751 0 -0.40158113541731072 0.4332951832761287 0 -0.41884325199304429 0.4269857954775601 0 -0.4099222783260274 0.42765107034344219 0 -0.41208331923994213 0.4373261158972751 0 -0.41888161491301601 0.40288926870241409 0 -0.43058456928533417 0.41494736533933452 0 -0.41402656818589773 0.4176193529147848 0 -0.43058456928533417 0.41494736533933452 0 -0.41884325199304429 0.4269857954775601 0 -0.41402656818589773 0.4176193529147848 0 -0.41402656818589773 0.4176193529147848 0 -0.40375811410309748 0.4101726824747024 0 -0.4030771167939422 0.42302890415146238 0 -0.41888161491301601 0.40288926870241409 0 -0.41402656818589773 0.4176193529147848 0 -0.40375811410309748 0.4101726824747024 0 -0.40375811410309748 0.4101726824747024 0 -0.39254612074755002 0.42075034292912461 0 -0.38683860343747911 0.40591705408493789 0 -0.40375811410309748 0.4101726824747024 0 -0.39254612074755002 0.42075034292912461 0 -0.4030771167939422 0.42302890415146238 0 -0.39583698599636391 0.438778198309629 0 -0.41208331923994213 0.4373261158972751 0 -0.40158113541731072 0.4332951832761287 0 -0.40158113541731072 0.4332951832761287 0 -0.4030771167939422 0.42302890415146238 0 -0.39612359233859568 0.42830273118228163 0 -0.4099222783260274 0.42765107034344219 0 -0.40158113541731072 0.4332951832761287 0 -0.4030771167939422 0.42302890415146238 0 -0.39254612074755002 0.42075034292912461 0 -0.4030771167939422 0.42302890415146238 0 -0.39612359233859568 0.42830273118228163 0 -0.39254612074755002 0.42075034292912461 0 -0.39612359233859568 0.42830273118228163 0 -0.38981185999419499 0.43063716681277903 0 -0.40158113541731072 0.4332951832761287 0 -0.39612359233859568 0.42830273118228163 0 -0.39445213650426658 0.43336843446868512 0 -0.39612359233859568 0.42830273118228163 0 -0.39445213650426658 0.43336843446868512 0 -0.38981185999419499 0.43063716681277903 0 -0.39445213650426658 0.43336843446868512 0 -0.39123527357416582 0.43657138336403117 0 -0.38981185999419499 0.43063716681277903 0 -0.39396839504937708 0.43788208963296987 0 -0.39445213650426658 0.43336843446868512 0 -0.39123527357416582 0.43657138336403117 0 -0.39396839504937708 0.43788208963296987 0 -0.39123527357416582 0.43657138336403117 0 -0.39583698599636391 0.438778198309629 0 -0.39396839504937708 0.43788208963296987 0 -0.40158113541731072 0.4332951832761287 0 -0.39396839504937708 0.43788208963296987 0 -0.40158113541731072 0.4332951832761287 0 -0.39396839504937708 0.43788208963296987 0 -0.40158113541731072 0.4332951832761287 0 -0.39445213650426658 0.43336843446868512 0 -0.3804235055036993 0.4401558411045346 0 -0.38153556631197177 0.42786881453112707 0 -0.36404659543697337 0.43742407143792272 0 -0.3860200209034596 0.43538596426685772 0 -0.38981185999419499 0.43063716681277903 0 -0.38153556631197177 0.42786881453112707 0 -0.39189664367992311 0.43913038250348091 0 -0.39123527357416582 0.43657138336403117 0 -0.3860200209034596 0.43538596426685772 0 -0.39123527357416582 0.43657138336403117 0 -0.3860200209034596 0.43538596426685772 0 -0.38981185999419499 0.43063716681277903 0 -0.39254612074755002 0.42075034292912461 0 -0.38981185999419499 0.43063716681277903 0 -0.38153556631197177 0.42786881453112707 0 -0.3804235055036993 0.4401558411045346 0 -0.3860200209034596 0.43538596426685772 0 -0.38153556631197177 0.42786881453112707 0 -0.38153556631197177 0.42786881453112707 0 -0.38683860343747911 0.40591705408493789 0 -0.36649854633425821 0.42100293610438511 0 -0.39254612074755002 0.42075034292912461 0 -0.38153556631197177 0.42786881453112707 0 -0.38683860343747911 0.40591705408493789 0 -0.38683860343747911 0.40591705408493789 0 -0.36649854633425821 0.42100293610438511 0 -0.38683860343747911 0.40591705408493789 0 -0.38898449514801908 0.38915950349357908 0 -0.37064961076277242 0.39305837976689562 0 -0.38898449514801908 0.38915950349357908 0 -0.390888468557469 0.37404663177604752 0 -0.37193073854527031 0.37242375593596277 0 -0.38898449514801908 0.38915950349357908 0 -0.37193073854527031 0.37242375593596277 0 -0.37064961076277242 0.39305837976689562 0 -0.40717866054070029 0.39083117206549128 0 -0.40426514155647242 0.37757438208842647 0 -0.390888468557469 0.37404663177604752 0 -0.40717866054070029 0.39083117206549128 0 -0.390888468557469 0.37404663177604752 0 -0.40717866054070029 0.39083117206549128 0 -0.38898449514801908 0.38915950349357908 0 -0.390888468557469 0.37404663177604752 0 -0.40717866054070029 0.39083117206549128 0 -0.38683860343747911 0.40591705408493789 0 -0.38898449514801908 0.38915950349357908 0 -0.40717866054070029 0.39083117206549128 0 -0.40375811410309748 0.4101726824747024 0 -0.38683860343747911 0.40591705408493789 0 -0.40717866054070029 0.39083117206549128 0 -0.38683860343747911 0.40591705408493789 0 -0.39616389190444862 0.3593443234676803 0 -0.4055902997503828 0.34547633675242001 0 -0.40506128624209392 0.36326474968081729 0 -0.39616389190444862 0.3593443234676803 0 -0.4055902997503828 0.34547633675242001 0 -0.38707055319658901 0.35635414697172701 0 -0.4055902997503828 0.34547633675242001 0 -0.37602190945387942 0.3491704939964701 0 -0.39616389190444862 0.3593443234676803 0 -0.390888468557469 0.37404663177604752 0 -0.38707055319658901 0.35635414697172701 0 -0.40426514155647242 0.37757438208842647 0 -0.40506128624209392 0.36326474968081729 0 -0.390888468557469 0.37404663177604752 0 -0.39616389190444862 0.3593443234676803 0 -0.40506128624209392 0.36326474968081729 0 -0.390888468557469 0.37404663177604752 0 -0.390888468557469 0.37404663177604752 0 -0.37459827657424383 0.35726209148659771 0 -0.37193073854527031 0.37242375593596277 0 -0.390888468557469 0.37404663177604752 0 -0.37459827657424383 0.35726209148659771 0 -0.390888468557469 0.37404663177604752 0 -0.38707055319658901 0.35635414697172701 0 -0.37459827657424383 0.35726209148659771 0 -0.38707055319658901 0.35635414697172701 0 -0.37602190945387942 0.3491704939964701 0 -0.37459827657424383 0.35726209148659771 0 -0.4055902997503828 0.34547633675242001 0 -0.38707055319658901 0.35635414697172701 0 -0.37602190945387942 0.3491704939964701 0 -0.37602190945387942 0.3491704939964701 0 -0.37459827657424383 0.35726209148659771 0 -0.4055902997503828 0.34547633675242001 0 -0.37602190945387942 0.3491704939964701 0 -0.38965685334309919 0.3364953171579198 0 -0.37602190945387942 0.3491704939964701 0 -0.38075850863932192 0.32224876815761322 0 -0.37602190945387942 0.3491704939964701 0 -0.38075850863932192 0.32224876815761322 0 -0.36874583341778983 0.33708993244623131 0 -0.38965685334309919 0.3364953171579198 0 -0.38075850863932192 0.32224876815761322 0 -0.39808331277608933 0.32579564623218071 0 -0.37602190945387942 0.3491704939964701 0 -0.38965685334309919 0.3364953171579198 0 -0.38075850863932192 0.32224876815761322 0 -0.38075850863932192 0.32224876815761322 0 -0.39808331277608933 0.32579564623218071 0 -0.39497501839183119 0.31053796890603952 0 -0.39808331277608933 0.32579564623218071 0 -0.41054561301564219 0.31356548040022503 0 -0.39497501839183119 0.31053796890603952 0 -0.4055902997503828 0.34547633675242001 0 -0.39808331277608933 0.32579564623218071 0 -0.41084791432519802 0.32949182816197792 0 -0.4055902997503828 0.34547633675242001 0 -0.38965685334309919 0.3364953171579198 0 -0.39808331277608933 0.32579564623218071 0 -0.4055902997503828 0.34547633675242001 0 -0.41084791432519802 0.32949182816197792 0 -0.41733959924296621 0.33966082746794207 0 -0.41084791432519802 0.32949182816197792 0 -0.41733959924296621 0.33966082746794207 0 -0.4196536762835088 0.3251936477104061 0 -0.39808331277608933 0.32579564623218071 0 -0.41084791432519802 0.32949182816197792 0 -0.41054561301564219 0.31356548040022503 0 -0.41084791432519802 0.32949182816197792 0 -0.41054561301564219 0.31356548040022503 0 -0.4196536762835088 0.3251936477104061 0 -0.41054561301564219 0.31356548040022503 0 -0.4196536762835088 0.3251936477104061 0 -0.42295468832839012 0.31669221303955147 0 -0.41054561301564219 0.31356548040022503 0 -0.42295468832839012 0.31669221303955147 0 -0.42273449005145669 0.3081815841916653 0 -0.43713179088865101 0.32058412454915652 0 -0.42993419600096983 0.32979151333027551 0 -0.43611325430306752 0.30457248647051688 0 -0.42993419600096983 0.32979151333027551 0 -0.43611325430306752 0.30457248647051688 0 -0.42295468832839012 0.31669221303955147 0 -0.42993419600096983 0.32979151333027551 0 -0.43009025027089293 0.3106299296583368 0 -0.42993419600096983 0.32979151333027551 0 -0.43009025027089293 0.3106299296583368 0 -0.43611325430306752 0.30457248647051688 0 -0.4196536762835088 0.3251936477104061 0 -0.42295468832839012 0.31669221303955147 0 -0.42993419600096983 0.32979151333027551 0 -0.43713179088865101 0.32058412454915652 0 -0.42993419600096983 0.32979151333027551 0 -0.44124848568328012 0.33106316063400498 0 -0.43122867657818592 0.35429236107402001 0 -0.44124848568328012 0.33106316063400498 0 -0.42993419600096983 0.32979151333027551 0 -0.42375513769887202 0.35501054019003409 0 -0.41733959924296621 0.33966082746794207 0 -0.42993419600096983 0.32979151333027551 0 -0.42375513769887202 0.35501054019003409 0 -0.42993419600096983 0.32979151333027551 0 -0.43122867657818592 0.35429236107402001 0 -0.44124848568328012 0.33106316063400498 0 -0.41733959924296621 0.33966082746794207 0 -0.4196536762835088 0.3251936477104061 0 -0.42993419600096983 0.32979151333027551 0 -0.42993419600096983 0.32979151333027551 0 -0.43122867657818592 0.35429236107402001 0 -0.42375513769887202 0.35501054019003409 0 -0.43122867657818592 0.35429236107402001 0 -0.43754740154187899 0.35032906994641172 0 -0.44141683151327082 0.34108395444544087 0 -0.43122867657818592 0.35429236107402001 0 -0.43544193490741723 0.3698687715955295 0 -0.43754740154187899 0.35032906994641172 0 -0.43122867657818592 0.35429236107402001 0 -0.42375513769887202 0.35501054019003409 0 -0.42586242526106183 0.36795024234797769 0 -0.41733959924296621 0.33966082746794207 0 -0.42375513769887202 0.35501054019003409 0 -0.4131636784716064 0.35367904620671481 0 -0.4055902997503828 0.34547633675242001 0 -0.40506128624209392 0.36326474968081729 0 -0.4131636784716064 0.35367904620671481 0 -0.42375513769887202 0.35501054019003409 0 -0.4131636784716064 0.35367904620671481 0 -0.41407206942371771 0.36498277694236059 0 -0.4055902997503828 0.34547633675242001 0 -0.41733959924296621 0.33966082746794207 0 -0.4131636784716064 0.35367904620671481 0 -0.41757607939677421 0.38022956704979272 0 -0.42375513769887202 0.35501054019003409 0 -0.41407206942371771 0.36498277694236059 0 -0.41757607939677421 0.38022956704979272 0 -0.42375513769887202 0.35501054019003409 0 -0.40426514155647242 0.37757438208842647 0 -0.40506128624209392 0.36326474968081729 0 -0.41109613290372737 0.37273425749363098 0 -0.40506128624209392 0.36326474968081729 0 -0.41109613290372737 0.37273425749363098 0 -0.41407206942371771 0.36498277694236059 0 -0.40506128624209392 0.36326474968081729 0 -0.4131636784716064 0.35367904620671481 0 -0.41407206942371771 0.36498277694236059 0 -0.41757607939677421 0.38022956704979272 0 -0.41109613290372737 0.37273425749363098 0 -0.41407206942371771 0.36498277694236059 0 -0.41757607939677421 0.38022956704979272 0 -0.42375513769887202 0.35501054019003409 0 -0.42586242526106183 0.36795024234797769 0 -0.42131029772405898 0.38034997183051078 0 -0.42586242526106183 0.36795024234797769 0 -0.43544193490741723 0.3698687715955295 0 -0.43544193490741723 0.3698687715955295 0 -0.43754740154187899 0.35032906994641172 0 -0.43122867657818592 0.35429236107402001 0 -0.42586242526106183 0.36795024234797769 0 -0.43544193490741723 0.3698687715955295 0 -0.43544193490741723 0.3698687715955295 0 -0.44958393798091889 0.35937988315225761 0 -0.45159147587071952 0.37318423334928219 0 -0.44068948599571528 0.38174021768426442 0 -0.43544193490741723 0.3698687715955295 0 -0.45159147587071952 0.37318423334928219 0 -0.43544193490741723 0.3698687715955295 0 -0.44958393798091889 0.35937988315225761 0 -0.43754740154187899 0.35032906994641172 0 -0.43544193490741723 0.3698687715955295 0 -0.44958393798091889 0.35937988315225761 0 -0.43754740154187899 0.35032906994641172 0 -0.44802133999525112 0.34910491513231762 0 -0.44141683151327082 0.34108395444544087 0 -0.44958393798091889 0.35937988315225761 0 -0.43754740154187899 0.35032906994641172 0 -0.44802133999525112 0.34910491513231762 0 -0.44958393798091889 0.35937988315225761 0 -0.44802133999525112 0.34910491513231762 0 -0.45742280466127322 0.3505534172917612 0 -0.44802133999525112 0.34910491513231762 0 -0.45254115632031322 0.34267665053301399 0 -0.44141683151327082 0.34108395444544087 0 -0.44802133999525112 0.34910491513231762 0 -0.45742280466127322 0.3505534172917612 0 -0.45254115632031322 0.34267665053301399 0 -0.46810058484791411 0.35912424747803318 0 -0.45742280466127322 0.3505534172917612 0 -0.46567786824476948 0.33947818957777848 0 -0.44958393798091889 0.35937988315225761 0 -0.46810058484791411 0.35912424747803318 0 -0.45742280466127322 0.3505534172917612 0 -0.45742280466127322 0.3505534172917612 0 -0.46567786824476948 0.33947818957777848 0 -0.45254115632031322 0.34267665053301399 0 -0.46351315671941962 0.38337831501305891 0 -0.45159147587071952 0.37318423334928219 0 -0.46810058484791411 0.35912424747803318 0 -0.44958393798091889 0.35937988315225761 0 -0.45159147587071952 0.37318423334928219 0 -0.46810058484791411 0.35912424747803318 0 -0.46810058484791411 0.35912424747803318 0 -0.48175657835970898 0.37335443362329679 0 -0.48343154642407549 0.34923730861997571 0 -0.46351315671941962 0.38337831501305891 0 -0.46810058484791411 0.35912424747803318 0 -0.48175657835970898 0.37335443362329679 0 -0.46810058484791411 0.35912424747803318 0 -0.48343154642407549 0.34923730861997571 0 -0.46567786824476948 0.33947818957777848 0 -0.48343154642407549 0.34923730861997571 0 -0.49999999999999861 0.36333055223353539 0 -0.5 0.33436292125626621 0 -0.48175657835970898 0.37335443362329679 0 -0.48343154642407549 0.34923730861997571 0 -0.49999999999999861 0.36333055223353539 0 -0.48175657835970898 0.37335443362329679 0 -0.49999999999999861 0.36333055223353539 0 -0.5 0.38537643593815019 0 -0.48175657835970898 0.37335443362329679 0 -0.49999999999999861 0.36333055223353539 0 -0.48670426105835901 0.31999280709030581 0 -0.5 0.33436292125626621 0 -0.49999999999999939 0.30539529027899681 0 -0.48670426105835901 0.31999280709030581 0 -0.5 0.33436292125626621 0 -0.48163724089615018 0.33352928688681799 0 -0.48343154642407549 0.34923730861997571 0 -0.5 0.33436292125626621 0 -0.48163724089615018 0.33352928688681799 0 -0.48163724089615018 0.33352928688681799 0 -0.47067591315217377 0.3260832589945285 0 -0.46567786824476948 0.33947818957777848 0 -0.48343154642407549 0.34923730861997571 0 -0.48163724089615018 0.33352928688681799 0 -0.46567786824476948 0.33947818957777848 0 -0.48670426105835901 0.31999280709030581 0 -0.47070184067464221 0.31311688363431411 0 -0.48369108944507733 0.30601552261210191 0 -0.48670426105835901 0.31999280709030581 0 -0.47067591315217377 0.3260832589945285 0 -0.47070184067464221 0.31311688363431411 0 -0.48670426105835901 0.31999280709030581 0 -0.48163724089615018 0.33352928688681799 0 -0.47067591315217377 0.3260832589945285 0 -0.47070184067464221 0.31311688363431411 0 -0.46457308547343001 0.31972041345957292 0 -0.45694860768221268 0.31668640963408329 0 -0.47067591315217377 0.3260832589945285 0 -0.47070184067464221 0.31311688363431411 0 -0.46457308547343001 0.31972041345957292 0 -0.47070184067464221 0.31311688363431411 0 -0.45694860768221268 0.31668640963408329 0 -0.45126829478837632 0.3078339601939909 0 -0.47067591315217377 0.3260832589945285 0 -0.46457308547343001 0.31972041345957292 0 -0.45783353874850902 0.32582076721151182 0 -0.46457308547343001 0.31972041345957292 0 -0.45783353874850902 0.32582076721151182 0 -0.45694860768221268 0.31668640963408329 0 -0.47067591315217377 0.3260832589945285 0 -0.45783353874850902 0.32582076721151182 0 -0.46567786824476948 0.33947818957777848 0 -0.45783353874850902 0.32582076721151182 0 -0.46567786824476948 0.33947818957777848 0 -0.4515849931039827 0.33438510214417089 0 -0.46567786824476948 0.33947818957777848 0 -0.45254115632031322 0.34267665053301399 0 -0.4515849931039827 0.33438510214417089 0 -0.45783353874850902 0.32582076721151182 0 -0.4515849931039827 0.33438510214417089 0 -0.44124848568328012 0.33106316063400498 0 -0.43122867657818592 0.35429236107402001 0 -0.44124848568328012 0.33106316063400498 0 -0.44141683151327082 0.34108395444544087 0 -0.45254115632031322 0.34267665053301399 0 -0.4515849931039827 0.33438510214417089 0 -0.44141683151327082 0.34108395444544087 0 -0.4515849931039827 0.33438510214417089 0 -0.44124848568328012 0.33106316063400498 0 -0.44141683151327082 0.34108395444544087 0 -0.45694860768221268 0.31668640963408329 0 -0.44124848568328012 0.33106316063400498 0 -0.45126829478837632 0.3078339601939909 0 -0.45783353874850902 0.32582076721151182 0 -0.45694860768221268 0.31668640963408329 0 -0.44124848568328012 0.33106316063400498 0 -0.44124848568328012 0.33106316063400498 0 -0.45126829478837632 0.3078339601939909 0 -0.43713179088865101 0.32058412454915652 0 -0.44123122756728622 0.31690933776182861 0 -0.43611325430306752 0.30457248647051688 0 -0.44124848568328012 0.33106316063400498 0 -0.44123122756728622 0.31690933776182861 0 -0.45126829478837632 0.3078339601939909 0 -0.43713179088865101 0.32058412454915652 0 -0.44124848568328012 0.33106316063400498 0 -0.44123122756728622 0.31690933776182861 0 -0.45126829478837632 0.3078339601939909 0 -0.43611325430306752 0.30457248647051688 0 -0.43449344768886872 0.30327379225199708 0 -0.45126829478837632 0.3078339601939909 0 -0.43449344768886872 0.30327379225199708 0 -0.45126829478837632 0.3078339601939909 0 -0.43564767695069262 0.30059791064632591 0 -0.43449344768886872 0.30327379225199708 0 -0.44123122756728622 0.31690933776182861 0 -0.45126829478837632 0.3078339601939909 0 -0.43611325430306752 0.30457248647051688 0 -0.45357675331202402 0.30248219698264828 0 -0.43564767695069262 0.30059791064632591 0 -0.45126829478837632 0.3078339601939909 0 -0.45357675331202402 0.30248219698264828 0 -0.43564767695069262 0.30059791064632591 0 -0.45126829478837632 0.3078339601939909 0 -0.45357675331202402 0.30248219698264828 0 -0.44627833903432262 0.28568680364339027 0 -0.45357675331202402 0.30248219698264828 0 -0.43564767695069262 0.30059791064632591 0 -0.44627833903432262 0.28568680364339027 0 -0.45357675331202402 0.30248219698264828 0 -0.46350321039134318 0.27946941712464779 0 -0.45357675331202402 0.30248219698264828 0 -0.46350321039134318 0.27946941712464779 0 -0.46416899909735598 0.29421880274671602 0 -0.45357675331202402 0.30248219698264828 0 -0.46350321039134318 0.27946941712464779 0 -0.46416899909735598 0.29421880274671602 0 -0.46901126689696321 0.30410431306212532 0 -0.47058476578909358 0.29081928381744249 0 -0.46416899909735598 0.29421880274671602 0 -0.47058476578909358 0.29081928381744249 0 -0.46350321039134318 0.27946941712464779 0 -0.47070184067464221 0.31311688363431411 0 -0.45126829478837632 0.3078339601939909 0 -0.46901126689696321 0.30410431306212532 0 -0.45126829478837632 0.3078339601939909 0 -0.45357675331202402 0.30248219698264828 0 -0.46901126689696321 0.30410431306212532 0 -0.47070184067464221 0.31311688363431411 0 -0.45126829478837632 0.3078339601939909 0 -0.45357675331202402 0.30248219698264828 0 -0.46901126689696321 0.30410431306212532 0 -0.46416899909735598 0.29421880274671602 0 -0.45357675331202402 0.30248219698264828 0 -0.46901126689696321 0.30410431306212532 0 -0.47070184067464221 0.31311688363431411 0 -0.48369108944507733 0.30601552261210191 0 -0.46901126689696321 0.30410431306212532 0 -0.46901126689696321 0.30410431306212532 0 -0.47058476578909358 0.29081928381744249 0 -0.4760850083359523 0.29585714686340581 0 -0.48369108944507733 0.30601552261210191 0 -0.46901126689696321 0.30410431306212532 0 -0.4760850083359523 0.29585714686340581 0 -0.47058476578909358 0.29081928381744249 0 -0.4760850083359523 0.29585714686340581 0 -0.48105291121267513 0.28248946796195351 0 -0.48369108944507733 0.30601552261210191 0 -0.4760850083359523 0.29585714686340581 0 -0.48105291121267513 0.28248946796195351 0 -0.47058476578909358 0.29081928381744249 0 -0.48105291121267513 0.28248946796195351 0 -0.46350321039134318 0.27946941712464779 0 -0.48105291121267513 0.28248946796195351 0 -0.49999999999999939 0.30539529027899681 0 -0.48105291121267513 0.28248946796195351 0 -0.49999999999999939 0.30539529027899681 0 -0.5 0.27638088304248898 0 -0.48670426105835901 0.31999280709030581 0 -0.48369108944507733 0.30601552261210191 0 -0.49999999999999939 0.30539529027899681 0 -0.48369108944507733 0.30601552261210191 0 -0.48105291121267513 0.28248946796195351 0 -0.49999999999999939 0.30539529027899681 0 -0.47938485524443469 0.24736044176889169 0 -0.49999999999999539 0.24736647580598109 0 -0.48840359308806391 0.25717915994725898 0 -0.49999999999999539 0.24736647580598109 0 -0.48840359308806391 0.25717915994725898 0 -0.5 0.27638088304248898 0 -0.48840359308806391 0.25717915994725898 0 -0.5 0.27638088304248898 0 -0.4788917183159383 0.26498797355945553 0 -0.48105291121267513 0.28248946796195351 0 -0.5 0.27638088304248898 0 -0.4788917183159383 0.26498797355945553 0 -0.48105291121267513 0.28248946796195351 0 -0.46210582242535131 0.25958364564490988 0 -0.46350321039134318 0.27946941712464779 0 -0.48105291121267513 0.28248946796195351 0 -0.46210582242535131 0.25958364564490988 0 -0.48105291121267513 0.28248946796195351 0 -0.4788917183159383 0.26498797355945553 0 -0.46210582242535131 0.25958364564490988 0 -0.47938485524443469 0.24736044176889169 0 -0.48840359308806391 0.25717915994725898 0 -0.47252599614824459 0.25598922631049958 0 -0.4788917183159383 0.26498797355945553 0 -0.47252599614824459 0.25598922631049958 0 -0.46210582242535131 0.25958364564490988 0 -0.48840359308806391 0.25717915994725898 0 -0.4788917183159383 0.26498797355945553 0 -0.47252599614824459 0.25598922631049958 0 -0.47938485524443469 0.24736044176889169 0 -0.45876971048887399 0.24735440773180231 0 -0.47252599614824459 0.25598922631049958 0 -0.45876971048887399 0.24735440773180231 0 -0.47252599614824459 0.25598922631049958 0 -0.46210582242535131 0.25958364564490988 0 -0.45876971048887399 0.24735440773180231 0 -0.46210582242535131 0.25958364564490988 0 -0.45054718556558321 0.25589131290802603 0 -0.46210582242535131 0.25958364564490988 0 -0.46350321039134318 0.27946941712464779 0 -0.44482614827370709 0.26568857135559959 0 -0.44627833903432262 0.28568680364339027 0 -0.46350321039134318 0.27946941712464779 0 -0.44482614827370709 0.26568857135559959 0 -0.44627833903432262 0.28568680364339027 0 -0.44482614827370709 0.26568857135559959 0 -0.42803435117422117 0.27306989657765562 0 -0.46210582242535131 0.25958364564490988 0 -0.44482614827370709 0.26568857135559959 0 -0.45054718556558321 0.25589131290802603 0 -0.43815456573331341 0.24734837369471299 0 -0.45876971048887399 0.24735440773180231 0 -0.45054718556558321 0.25589131290802603 0 -0.43815456573331341 0.24734837369471299 0 -0.44482614827370709 0.26568857135559959 0 -0.45054718556558321 0.25589131290802603 0 -0.43815456573331341 0.24734837369471299 0 -0.41659169976103583 0.24640880725911149 0 -0.42767343044885092 0.25958998607848682 0 -0.43815456573331341 0.24734837369471299 0 -0.44482614827370709 0.26568857135559959 0 -0.42767343044885092 0.25958998607848682 0 -0.41659169976103583 0.24640880725911149 0 -0.41549471155326001 0.26770488479775167 0 -0.40253128957730389 0.2624111287631446 0 -0.41659169976103583 0.24640880725911149 0 -0.40253128957730389 0.2624111287631446 0 -0.41659169976103583 0.24640880725911149 0 -0.42767343044885092 0.25958998607848682 0 -0.41549471155326001 0.26770488479775167 0 -0.41549471155326001 0.26770488479775167 0 -0.417822773466616 0.28382654550697978 0 -0.40396510204789471 0.27885787366660503 0 -0.41549471155326001 0.26770488479775167 0 -0.40253128957730389 0.2624111287631446 0 -0.40396510204789471 0.27885787366660503 0 -0.41549471155326001 0.26770488479775167 0 -0.42803435117422117 0.27306989657765562 0 -0.417822773466616 0.28382654550697978 0 -0.44482614827370709 0.26568857135559959 0 -0.42767343044885092 0.25958998607848682 0 -0.42803435117422117 0.27306989657765562 0 -0.42767343044885092 0.25958998607848682 0 -0.41549471155326001 0.26770488479775167 0 -0.42803435117422117 0.27306989657765562 0 -0.44627833903432262 0.28568680364339027 0 -0.42803435117422117 0.27306989657765562 0 -0.42910034824304272 0.28837895613687092 0 -0.44627833903432262 0.28568680364339027 0 -0.42910034824304272 0.28837895613687092 0 -0.43564767695069262 0.30059791064632591 0 -0.42910034824304272 0.28837895613687092 0 -0.43564767695069262 0.30059791064632591 0 -0.41771860058936122 0.2987136243100032 0 -0.42803435117422117 0.27306989657765562 0 -0.42910034824304272 0.28837895613687092 0 -0.417822773466616 0.28382654550697978 0 -0.43449344768886872 0.30327379225199708 0 -0.42273449005145669 0.3081815841916653 0 -0.41771860058936122 0.2987136243100032 0 -0.43564767695069262 0.30059791064632591 0 -0.41771860058936122 0.2987136243100032 0 -0.43449344768886872 0.30327379225199708 0 -0.41771860058936122 0.2987136243100032 0 -0.43564767695069262 0.30059791064632591 0 -0.43449344768886872 0.30327379225199708 0 -0.41771860058936122 0.2987136243100032 0 -0.43009025027089293 0.3106299296583368 0 -0.43611325430306752 0.30457248647051688 0 -0.43449344768886872 0.30327379225199708 0 -0.42295468832839012 0.31669221303955147 0 -0.43009025027089293 0.3106299296583368 0 -0.42273449005145669 0.3081815841916653 0 -0.43009025027089293 0.3106299296583368 0 -0.43449344768886872 0.30327379225199708 0 -0.42273449005145669 0.3081815841916653 0 -0.41771860058936122 0.2987136243100032 0 -0.40160685420706271 0.2970203333143816 0 -0.41054561301564219 0.31356548040022503 0 -0.41771860058936122 0.2987136243100032 0 -0.40160685420706271 0.2970203333143816 0 -0.41054561301564219 0.31356548040022503 0 -0.42273449005145669 0.3081815841916653 0 -0.41771860058936122 0.2987136243100032 0 -0.417822773466616 0.28382654550697978 0 -0.40205796078032929 0.29445634868867337 0 -0.40396510204789471 0.27885787366660503 0 -0.41771860058936122 0.2987136243100032 0 -0.40205796078032929 0.29445634868867337 0 -0.41771860058936122 0.2987136243100032 0 -0.417822773466616 0.28382654550697978 0 -0.40205796078032929 0.29445634868867337 0 -0.41771860058936122 0.2987136243100032 0 -0.40205796078032929 0.29445634868867337 0 -0.40160685420706271 0.2970203333143816 0 -0.42910034824304272 0.28837895613687092 0 -0.41771860058936122 0.2987136243100032 0 -0.417822773466616 0.28382654550697978 0 -0.40205796078032929 0.29445634868867337 0 -0.39599860942445808 0.28581309847788722 0 -0.38639732097129742 0.29019907306734383 0 -0.40205796078032929 0.29445634868867337 0 -0.39599860942445808 0.28581309847788722 0 -0.40396510204789471 0.27885787366660503 0 -0.40205796078032929 0.29445634868867337 0 -0.40160685420706271 0.2970203333143816 0 -0.38549510782476459 0.29532704231875612 0 -0.40205796078032929 0.29445634868867337 0 -0.38639732097129742 0.29019907306734383 0 -0.40205796078032929 0.29445634868867337 0 -0.38549510782476459 0.29532704231875612 0 -0.38639732097129742 0.29019907306734383 0 -0.40160685420706271 0.2970203333143816 0 -0.38549510782476459 0.29532704231875612 0 -0.41054561301564219 0.31356548040022503 0 -0.40160685420706271 0.2970203333143816 0 -0.39497501839183119 0.31053796890603952 0 -0.40160685420706271 0.2970203333143816 0 -0.39497501839183119 0.31053796890603952 0 -0.38549510782476459 0.29532704231875612 0 -0.38075850863932192 0.32224876815761322 0 -0.38549510782476459 0.29532704231875612 0 -0.38075850863932192 0.32224876815761322 0 -0.39497501839183119 0.31053796890603952 0 -0.38549510782476459 0.29532704231875612 0 -0.38075850863932192 0.32224876815761322 0 -0.38549510782476459 0.29532704231875612 0 -0.36863812422899189 0.31275911477311319 0 -0.39599860942445808 0.28581309847788722 0 -0.38639732097129742 0.29019907306734383 0 -0.3884708793935705 0.27841345026717629 0 -0.37971223960340861 0.28838176328427262 0 -0.3884708793935705 0.27841345026717629 0 -0.38639732097129742 0.29019907306734383 0 -0.3884708793935705 0.27841345026717629 0 -0.38639732097129742 0.29019907306734383 0 -0.37971223960340861 0.28838176328427262 0 -0.3884708793935705 0.27841345026717629 0 -0.38549510782476459 0.29532704231875612 0 -0.38639732097129742 0.29019907306734383 0 -0.38639732097129742 0.29019907306734383 0 -0.37971223960340861 0.28838176328427262 0 -0.38549510782476459 0.29532704231875612 0 -0.38639732097129742 0.29019907306734383 0 -0.38155479919482038 0.29202285206306772 0 -0.38549510782476459 0.29532704231875612 0 -0.37461452837980919 0.29418352958189631 0 -0.38549510782476459 0.29532704231875612 0 -0.37461452837980919 0.29418352958189631 0 -0.36989494458996303 0.29955494451101139 0 -0.38639732097129742 0.29019907306734383 0 -0.38155479919482038 0.29202285206306772 0 -0.37971223960340861 0.28838176328427262 0 -0.38549510782476459 0.29532704231875612 0 -0.38155479919482038 0.29202285206306772 0 -0.37461452837980919 0.29418352958189631 0 -0.38155479919482038 0.29202285206306772 0 -0.37971223960340861 0.28838176328427262 0 -0.37461452837980919 0.29418352958189631 0 -0.37971223960340861 0.28838176328427262 0 -0.37461452837980919 0.29418352958189631 0 -0.37971223960340861 0.28838176328427262 0 -0.3798968017655126 0.27971189065433771 0 -0.37178896183686422 0.27745251252664249 0 -0.37971223960340861 0.28838176328427262 0 -0.3798968017655126 0.27971189065433771 0 -0.3884708793935705 0.27841345026717629 0 -0.3798968017655126 0.27971189065433771 0 -0.3789219789783646 0.27328958319545399 0 -0.37178896183686422 0.27745251252664249 0 -0.3798968017655126 0.27971189065433771 0 -0.3884708793935705 0.27841345026717629 0 -0.3789219789783646 0.27328958319545399 0 -0.3884708793935705 0.27841345026717629 0 -0.38284329185367749 0.26495380451170653 0 -0.39279769553073562 0.25382083576900361 0 -0.3884708793935705 0.27841345026717629 0 -0.3789219789783646 0.27328958319545399 0 -0.38284329185367749 0.26495380451170653 0 -0.3789219789783646 0.27328958319545399 0 -0.38284329185367749 0.26495380451170653 0 -0.37160996004219671 0.26591625801740582 0 -0.37784715853102169 0.25516297643002489 0 -0.38284329185367749 0.26495380451170653 0 -0.37160996004219671 0.26591625801740582 0 -0.38071427544245973 0.2427464974365349 0 -0.37784715853102169 0.25516297643002489 0 -0.39279769553073562 0.25382083576900361 0 -0.37784715853102169 0.25516297643002489 0 -0.38284329185367749 0.26495380451170653 0 -0.39279769553073562 0.25382083576900361 0 -0.3884708793935705 0.27841345026717629 0 -0.40253128957730389 0.2624111287631446 0 -0.39279769553073562 0.25382083576900361 0 -0.41659169976103583 0.24640880725911149 0 -0.40253128957730389 0.2624111287631446 0 -0.39279769553073562 0.25382083576900361 0 -0.3884708793935705 0.27841345026717629 0 -0.40253128957730389 0.2624111287631446 0 -0.40396510204789471 0.27885787366660503 0 -0.3884708793935705 0.27841345026717629 0 -0.39279769553073562 0.25382083576900361 0 -0.3884708793935705 0.27841345026717629 0 -0.40253128957730389 0.2624111287631446 0 -0.39599860942445808 0.28581309847788722 0 -0.3884708793935705 0.27841345026717629 0 -0.40396510204789471 0.27885787366660503 0 -0.35912281431585452 0.2827846191443924 0 -0.33853338902830038 0.27718747500451268 0 -0.35277338397092611 0.2743735062541906 0 -0.35912281431585452 0.2827846191443924 0 -0.33853338902830038 0.27718747500451268 0 -0.35329662529476752 0.2661901450367482 0 -0.35277338397092611 0.2743735062541906 0 -0.36257173489977113 0.27244662364982469 0 -0.35277338397092611 0.2743735062541906 0 -0.36257173489977113 0.27244662364982469 0 -0.35912281431585452 0.2827846191443924 0 -0.35277338397092611 0.2743735062541906 0 -0.34665105701187149 0.27076668245276131 0 -0.33853338902830038 0.27718747500451268 0 -0.35329662529476752 0.2661901450367482 0 -0.34665105701187149 0.27076668245276131 0 -0.34015518010146001 0.26406961052423689 0 -0.35329662529476752 0.2661901450367482 0 -0.35277338397092611 0.2743735062541906 0 -0.34665105701187149 0.27076668245276131 0 -0.35329662529476752 0.2661901450367482 0 -0.35145338992010933 0.25362928199555479 0 -0.34015518010146001 0.26406961052423689 0 -0.35329662529476752 0.2661901450367482 0 -0.35145338992010933 0.25362928199555479 0 -0.36316024968869082 0.25876946024677611 0 -0.3647464168940881 0.24641932805505659 0 -0.35145338992010933 0.25362928199555479 0 -0.36316024968869082 0.25876946024677611 0 -0.3647464168940881 0.24641932805505659 0 -0.37784715853102169 0.25516297643002489 0 -0.36316024968869082 0.25876946024677611 0 -0.37784715853102169 0.25516297643002489 0 -0.36316024968869082 0.25876946024677611 0 -0.37160996004219671 0.26591625801740582 0 -0.37160996004219671 0.26591625801740582 0 -0.36257173489977113 0.27244662364982469 0 -0.37178896183686422 0.27745251252664249 0 -0.3789219789783646 0.27328958319545399 0 -0.37160996004219671 0.26591625801740582 0 -0.37178896183686422 0.27745251252664249 0 -0.35329662529476752 0.2661901450367482 0 -0.36316024968869082 0.25876946024677611 0 -0.36257173489977113 0.27244662364982469 0 -0.36316024968869082 0.25876946024677611 0 -0.37160996004219671 0.26591625801740582 0 -0.36257173489977113 0.27244662364982469 0 -0.36257173489977113 0.27244662364982469 0 -0.37178896183686422 0.27745251252664249 0 -0.35912281431585452 0.2827846191443924 0 -0.37971223960340861 0.28838176328427262 0 -0.35912281431585452 0.2827846191443924 0 -0.37971223960340861 0.28838176328427262 0 -0.37461452837980919 0.29418352958189631 0 -0.3638337698042392 0.29305050768663737 0 -0.37971223960340861 0.28838176328427262 0 -0.37178896183686422 0.27745251252664249 0 -0.35912281431585452 0.2827846191443924 0 -0.37971223960340861 0.28838176328427262 0 -0.3638337698042392 0.29305050768663737 0 -0.35912281431585452 0.2827846191443924 0 -0.37461452837980919 0.29418352958189631 0 -0.3638337698042392 0.29305050768663737 0 -0.36989494458996303 0.29955494451101139 0 -0.37461452837980919 0.29418352958189631 0 -0.3638337698042392 0.29305050768663737 0 -0.37461452837980919 0.29418352958189631 0 -0.36989494458996303 0.29955494451101139 0 -0.3638337698042392 0.29305050768663737 0 -0.35960399514614177 0.29985272419231812 0 -0.35597885106720561 0.29063324782060018 0 -0.3638337698042392 0.29305050768663737 0 -0.35912281431585452 0.2827846191443924 0 -0.35597885106720561 0.29063324782060018 0 -0.35960399514614177 0.29985272419231812 0 -0.35013800581267052 0.30973114760283732 0 -0.36863812422899189 0.31275911477311319 0 -0.38549510782476459 0.29532704231875612 0 -0.36989494458996303 0.29955494451101139 0 -0.36863812422899189 0.31275911477311319 0 -0.3638337698042392 0.29305050768663737 0 -0.36989494458996303 0.29955494451101139 0 -0.35960399514614177 0.29985272419231812 0 -0.36989494458996303 0.29955494451101139 0 -0.35960399514614177 0.29985272419231812 0 -0.36863812422899189 0.31275911477311319 0 -0.35013800581267052 0.30973114760283732 0 -0.34888904460952441 0.29369469455497937 0 -0.3344381332587465 0.28983063593756081 0 -0.35960399514614177 0.29985272419231812 0 -0.35013800581267052 0.30973114760283732 0 -0.34888904460952441 0.29369469455497937 0 -0.35912281431585452 0.2827846191443924 0 -0.34625389919595367 0.28646345237943288 0 -0.33853338902830038 0.27718747500451268 0 -0.35912281431585452 0.2827846191443924 0 -0.35597885106720561 0.29063324782060018 0 -0.34625389919595367 0.28646345237943288 0 -0.35960399514614177 0.29985272419231812 0 -0.35597885106720561 0.29063324782060018 0 -0.34888904460952441 0.29369469455497937 0 -0.35597885106720561 0.29063324782060018 0 -0.34888904460952441 0.29369469455497937 0 -0.34625389919595367 0.28646345237943288 0 -0.34625389919595367 0.28646345237943288 0 -0.3344381332587465 0.28983063593756081 0 -0.33853338902830038 0.27718747500451268 0 -0.34888904460952441 0.29369469455497937 0 -0.34625389919595367 0.28646345237943288 0 -0.3344381332587465 0.28983063593756081 0 -0.35013800581267052 0.30973114760283732 0 -0.3344381332587465 0.28983063593756081 0 -0.32872108641603298 0.31559166135088462 0 -0.3344381332587465 0.28983063593756081 0 -0.32872108641603298 0.31559166135088462 0 -0.3344381332587465 0.28983063593756081 0 -0.31977580649477533 0.28775697543076179 0 -0.32872108641603298 0.31559166135088462 0 -0.31977580649477533 0.28775697543076179 0 -0.30899645809149562 0.30165290278503343 0 -0.32872108641603298 0.31559166135088462 0 -0.3344381332587465 0.28983063593756081 0 -0.31977580649477533 0.28775697543076179 0 -0.32818825771726479 0.27606759379886803 0 -0.31977580649477533 0.28775697543076179 0 -0.3194246507680048 0.27467092745743138 0 -0.30493683203415489 0.28300802661657448 0 -0.3194246507680048 0.27467092745743138 0 -0.32714751796333708 0.26400981964434889 0 -0.31234698730770938 0.26669846083731052 0 -0.3194246507680048 0.27467092745743138 0 -0.32818825771726479 0.27606759379886803 0 -0.32714751796333708 0.26400981964434889 0 -0.31977580649477533 0.28775697543076179 0 -0.3194246507680048 0.27467092745743138 0 -0.32818825771726479 0.27606759379886803 0 -0.3344381332587465 0.28983063593756081 0 -0.33853338902830038 0.27718747500451268 0 -0.34015518010146001 0.26406961052423689 0 -0.3344381332587465 0.28983063593756081 0 -0.34015518010146001 0.26406961052423689 0 -0.3344381332587465 0.28983063593756081 0 -0.32818825771726479 0.27606759379886803 0 -0.34015518010146001 0.26406961052423689 0 -0.32818825771726479 0.27606759379886803 0 -0.34015518010146001 0.26406961052423689 0 -0.32714751796333708 0.26400981964434889 0 -0.34665105701187149 0.27076668245276131 0 -0.33853338902830038 0.27718747500451268 0 -0.34015518010146001 0.26406961052423689 0 -0.35145338992010933 0.25362928199555479 0 -0.33632480984135271 0.25252799294456663 0 -0.34015518010146001 0.26406961052423689 0 -0.33632480984135271 0.25252799294456663 0 -0.34015518010146001 0.26406961052423689 0 -0.32714751796333708 0.26400981964434889 0 -0.33632480984135271 0.25252799294456663 0 -0.32367731706940328 0.25070978741429673 0 -0.32714751796333708 0.26400981964434889 0 -0.32367731706940328 0.25070978741429673 0 -0.32714751796333708 0.26400981964434889 0 -0.31234698730770938 0.26669846083731052 0 -0.32367731706940328 0.25070978741429673 0 -0.3065795590668664 0.25419328986766071 0 -0.31234698730770938 0.26669846083731052 0 -0.3065795590668664 0.25419328986766071 0 -0.31234698730770938 0.26669846083731052 0 -0.29231604694449043 0.27359891402355091 0 -0.3065795590668664 0.25419328986766071 0 -0.29231604694449043 0.27359891402355091 0 -0.31234698730770938 0.26669846083731052 0 -0.29231604694449043 0.27359891402355091 0 -0.30493683203415489 0.28300802661657448 0 -0.3194246507680048 0.27467092745743138 0 -0.31234698730770938 0.26669846083731052 0 -0.30493683203415489 0.28300802661657448 0 -0.29231604694449043 0.27359891402355091 0 -0.28743946519297292 0.25607360513546729 0 -0.26829313679589162 0.26814807036796989 0 -0.3065795590668664 0.25419328986766071 0 -0.29231604694449043 0.27359891402355091 0 -0.28743946519297292 0.25607360513546729 0 -0.27402586863852069 0.24422816852138379 0 -0.28743946519297292 0.25607360513546729 0 -0.26829313679589162 0.26814807036796989 0 -0.29231604694449043 0.27359891402355091 0 -0.26829313679589162 0.26814807036796989 0 -0.27805253482211428 0.29300453817944111 0 -0.26829313679589162 0.26814807036796989 0 -0.24859791685371649 0.2880020299304798 0 -0.24484340631482909 0.26800778059861019 0 -0.27402586863852069 0.24422816852138379 0 -0.26829313679589162 0.26814807036796989 0 -0.2498521202164147 0.24664314714166921 0 -0.26829313679589162 0.26814807036796989 0 -0.24484340631482909 0.26800778059861019 0 -0.2498521202164147 0.24664314714166921 0 -0.25646132123655913 0.30730868465492878 0 -0.27805253482211428 0.29300453817944111 0 -0.24859791685371649 0.2880020299304798 0 -0.26829313679589162 0.26814807036796989 0 -0.27805253482211428 0.29300453817944111 0 -0.24859791685371649 0.2880020299304798 0 -0.25646132123655913 0.30730868465492878 0 -0.27805253482211428 0.29300453817944111 0 -0.27556195089851998 0.31716717055599303 0 -0.27805253482211428 0.29300453817944111 0 -0.29328795583654738 0.30352532556077932 0 -0.27556195089851998 0.31716717055599303 0 -0.27805253482211428 0.29300453817944111 0 -0.29328795583654738 0.30352532556077932 0 -0.30493683203415489 0.28300802661657448 0 -0.29231604694449043 0.27359891402355091 0 -0.27805253482211428 0.29300453817944111 0 -0.29231604694449043 0.27359891402355091 0 -0.27805253482211428 0.29300453817944111 0 -0.30493683203415489 0.28300802661657448 0 -0.31977580649477533 0.28775697543076179 0 -0.30493683203415489 0.28300802661657448 0 -0.30899645809149562 0.30165290278503343 0 -0.29328795583654738 0.30352532556077932 0 -0.30493683203415489 0.28300802661657448 0 -0.30899645809149562 0.30165290278503343 0 -0.29328795583654738 0.30352532556077932 0 -0.30899645809149562 0.30165290278503343 0 -0.29784151518383423 0.32501040336017328 0 -0.29784151518383423 0.32501040336017328 0 -0.30810571611221321 0.33740412354455612 0 -0.32872108641603298 0.31559166135088462 0 -0.30899645809149562 0.30165290278503343 0 -0.29784151518383423 0.32501040336017328 0 -0.32872108641603298 0.31559166135088462 0 -0.29784151518383423 0.32501040336017328 0 -0.30810571611221321 0.33740412354455612 0 -0.29616209854808162 0.35438200337672082 0 -0.29784151518383423 0.32501040336017328 0 -0.27503720436556101 0.34165029457590917 0 -0.29616209854808162 0.35438200337672082 0 -0.29784151518383423 0.32501040336017328 0 -0.27556195089851998 0.31716717055599303 0 -0.27503720436556101 0.34165029457590917 0 -0.29328795583654738 0.30352532556077932 0 -0.29784151518383423 0.32501040336017328 0 -0.27556195089851998 0.31716717055599303 0 -0.27556195089851998 0.31716717055599303 0 -0.27503720436556101 0.34165029457590917 0 -0.25391231018304028 0.32891858577509753 0 -0.27503720436556101 0.34165029457590917 0 -0.25391231018304028 0.32891858577509753 0 -0.27503720436556101 0.34165029457590917 0 -0.25391231018304028 0.32891858577509753 0 -0.25555285531660432 0.34950511563052261 0 -0.25646132123655913 0.30730868465492878 0 -0.27556195089851998 0.31716717055599303 0 -0.25391231018304028 0.32891858577509753 0 -0.25388726156416042 0.36855600570744479 0 -0.25555285531660432 0.34950511563052261 0 -0.2723448300965004 0.36221893130954169 0 -0.25388726156416042 0.36855600570744479 0 -0.2723448300965004 0.36221893130954169 0 -0.26812931041450588 0.38090258278187988 0 -0.27503720436556101 0.34165029457590917 0 -0.2723448300965004 0.36221893130954169 0 -0.29616209854808162 0.35438200337672082 0 -0.27503720436556101 0.34165029457590917 0 -0.25555285531660432 0.34950511563052261 0 -0.2723448300965004 0.36221893130954169 0 -0.2723448300965004 0.36221893130954169 0 -0.28334534416272261 0.37300124569309812 0 -0.26812931041450588 0.38090258278187988 0 -0.2723448300965004 0.36221893130954169 0 -0.28334534416272261 0.37300124569309812 0 -0.29616209854808162 0.35438200337672082 0 -0.28334534416272261 0.37300124569309812 0 -0.29616209854808162 0.35438200337672082 0 -0.2987438919906496 0.37398963596052642 0 -0.27503720436556101 0.34165029457590917 0 -0.29616209854808162 0.35438200337672082 0 -0.29616209854808162 0.35438200337672082 0 -0.31177096296344348 0.35237466658650662 0 -0.31728699273060279 0.36711371217753141 0 -0.30810571611221321 0.33740412354455612 0 -0.29616209854808162 0.35438200337672082 0 -0.31177096296344348 0.35237466658650662 0 -0.29616209854808162 0.35438200337672082 0 -0.31728699273060279 0.36711371217753141 0 -0.29616209854808162 0.35438200337672082 0 -0.2987438919906496 0.37398963596052642 0 -0.31728699273060279 0.36711371217753141 0 -0.31728699273060279 0.36711371217753141 0 -0.3325803176743799 0.36443707825094068 0 -0.3340392482075355 0.37721008646685739 0 -0.31728699273060279 0.36711371217753141 0 -0.3340392482075355 0.37721008646685739 0 -0.31728699273060279 0.36711371217753141 0 -0.31975499985375522 0.35599286675350178 0 -0.31728699273060279 0.36711371217753141 0 -0.3325803176743799 0.36443707825094068 0 -0.31975499985375522 0.35599286675350178 0 -0.3325803176743799 0.36443707825094068 0 -0.34704460986182811 0.36916849325601281 0 -0.34405057020662327 0.35316486613840581 0 -0.3325803176743799 0.36443707825094068 0 -0.34704460986182811 0.36916849325601281 0 -0.3340392482075355 0.37721008646685739 0 -0.31975499985375522 0.35599286675350178 0 -0.34405057020662327 0.35316486613840581 0 -0.33174000010207821 0.34675136289345582 0 -0.33955248352951511 0.33636234062638648 0 -0.34405057020662327 0.35316486613840581 0 -0.33174000010207821 0.34675136289345582 0 -0.31975499985375522 0.35599286675350178 0 -0.34405057020662327 0.35316486613840581 0 -0.3325803176743799 0.36443707825094068 0 -0.31975499985375522 0.35599286675350178 0 -0.34405057020662327 0.35316486613840581 0 -0.31975499985375522 0.35599286675350178 0 -0.32300403957331958 0.34135268676420838 0 -0.33174000010207821 0.34675136289345582 0 -0.31975499985375522 0.35599286675350178 0 -0.32300403957331958 0.34135268676420838 0 -0.31177096296344348 0.35237466658650662 0 -0.31728699273060279 0.36711371217753141 0 -0.31975499985375522 0.35599286675350178 0 -0.31177096296344348 0.35237466658650662 0 -0.31975499985375522 0.35599286675350178 0 -0.32300403957331958 0.34135268676420838 0 -0.30810571611221321 0.33740412354455612 0 -0.31177096296344348 0.35237466658650662 0 -0.32300403957331958 0.34135268676420838 0 -0.30810571611221321 0.33740412354455612 0 -0.32300403957331958 0.34135268676420838 0 -0.32872108641603298 0.31559166135088462 0 -0.32300403957331958 0.34135268676420838 0 -0.32872108641603298 0.31559166135088462 0 -0.35013800581267052 0.30973114760283732 0 -0.32872108641603298 0.31559166135088462 0 -0.34798352269951582 0.32445161392661698 0 -0.32872108641603298 0.31559166135088462 0 -0.33955248352951511 0.33636234062638648 0 -0.34798352269951582 0.32445161392661698 0 -0.33174000010207821 0.34675136289345582 0 -0.32300403957331958 0.34135268676420838 0 -0.33955248352951511 0.33636234062638648 0 -0.32300403957331958 0.34135268676420838 0 -0.32872108641603298 0.31559166135088462 0 -0.33955248352951511 0.33636234062638648 0 -0.35779448092426908 0.33994836151994551 0 -0.34798352269951582 0.32445161392661698 0 -0.36164995513661768 0.32400635907018932 0 -0.33955248352951511 0.33636234062638648 0 -0.35779448092426908 0.33994836151994551 0 -0.34798352269951582 0.32445161392661698 0 -0.33955248352951511 0.33636234062638648 0 -0.35779448092426908 0.33994836151994551 0 -0.34405057020662327 0.35316486613840581 0 -0.35013800581267052 0.30973114760283732 0 -0.34798352269951582 0.32445161392661698 0 -0.36164995513661768 0.32400635907018932 0 -0.38075850863932192 0.32224876815761322 0 -0.36164995513661768 0.32400635907018932 0 -0.36863812422899189 0.31275911477311319 0 -0.35013800581267052 0.30973114760283732 0 -0.36164995513661768 0.32400635907018932 0 -0.36863812422899189 0.31275911477311319 0 -0.38075850863932192 0.32224876815761322 0 -0.36164995513661768 0.32400635907018932 0 -0.36874583341778983 0.33708993244623131 0 -0.35779448092426908 0.33994836151994551 0 -0.36164995513661768 0.32400635907018932 0 -0.36874583341778983 0.33708993244623131 0 -0.35779448092426908 0.33994836151994551 0 -0.36874583341778983 0.33708993244623131 0 -0.36774823331439149 0.35020417423198857 0 -0.37602190945387942 0.3491704939964701 0 -0.36774823331439149 0.35020417423198857 0 -0.37602190945387942 0.3491704939964701 0 -0.36874583341778983 0.33708993244623131 0 -0.36774823331439149 0.35020417423198857 0 -0.35779448092426908 0.33994836151994551 0 -0.36774823331439149 0.35020417423198857 0 -0.37602190945387942 0.3491704939964701 0 -0.36774823331439149 0.35020417423198857 0 -0.37459827657424383 0.35726209148659771 0 -0.36774823331439149 0.35020417423198857 0 -0.37459827657424383 0.35726209148659771 0 -0.36071057953408409 0.36296699016480211 0 -0.36774823331439149 0.35020417423198857 0 -0.37459827657424383 0.35726209148659771 0 -0.37459827657424383 0.35726209148659771 0 -0.37193073854527031 0.37242375593596277 0 -0.37459827657424383 0.35726209148659771 0 -0.37193073854527031 0.37242375593596277 0 -0.36071057953408409 0.36296699016480211 0 -0.37193073854527031 0.37242375593596277 0 -0.36071057953408409 0.36296699016480211 0 -0.35876378843569051 0.37617588476876967 0 -0.36071057953408409 0.36296699016480211 0 -0.34704460986182811 0.36916849325601281 0 -0.34405057020662327 0.35316486613840581 0 -0.36071057953408409 0.36296699016480211 0 -0.34704460986182811 0.36916849325601281 0 -0.35876378843569051 0.37617588476876967 0 -0.36774823331439149 0.35020417423198857 0 -0.36071057953408409 0.36296699016480211 0 -0.34405057020662327 0.35316486613840581 0 -0.36774823331439149 0.35020417423198857 0 -0.34405057020662327 0.35316486613840581 0 -0.35779448092426908 0.33994836151994551 0 -0.36774823331439149 0.35020417423198857 0 -0.34405057020662327 0.35316486613840581 0 -0.35079150368446871 0.38730646075618252 0 -0.35131072788356371 0.40757345711559839 0 -0.33361436191491112 0.39521907254606548 0 -0.35079150368446871 0.38730646075618252 0 -0.37064961076277242 0.39305837976689562 0 -0.35131072788356371 0.40757345711559839 0 -0.34704460986182811 0.36916849325601281 0 -0.35079150368446871 0.38730646075618252 0 -0.3340392482075355 0.37721008646685739 0 -0.34704460986182811 0.36916849325601281 0 -0.35079150368446871 0.38730646075618252 0 -0.35876378843569051 0.37617588476876967 0 -0.37193073854527031 0.37242375593596277 0 -0.35876378843569051 0.37617588476876967 0 -0.37064961076277242 0.39305837976689562 0 -0.35079150368446871 0.38730646075618252 0 -0.35876378843569051 0.37617588476876967 0 -0.37064961076277242 0.39305837976689562 0 -0.38683860343747911 0.40591705408493789 0 -0.37064961076277242 0.39305837976689562 0 -0.36649854633425821 0.42100293610438511 0 -0.37064961076277242 0.39305837976689562 0 -0.36649854633425821 0.42100293610438511 0 -0.35131072788356371 0.40757345711559839 0 -0.38153556631197177 0.42786881453112707 0 -0.36649854633425821 0.42100293610438511 0 -0.36404659543697337 0.43742407143792272 0 -0.36649854633425821 0.42100293610438511 0 -0.36404659543697337 0.43742407143792272 0 -0.34615848923103731 0.43608881812383221 0 -0.36649854633425821 0.42100293610438511 0 -0.34615848923103731 0.43608881812383221 0 -0.36649854633425821 0.42100293610438511 0 -0.34615848923103731 0.43608881812383221 0 -0.35131072788356371 0.40757345711559839 0 -0.34615848923103731 0.43608881812383221 0 -0.35131072788356371 0.40757345711559839 0 -0.33128857542830209 0.41075687450258758 0 -0.34615848923103731 0.43608881812383221 0 -0.32415192154657863 0.42691202075257018 0 -0.32778183569271918 0.44098721396009888 0 -0.34615848923103731 0.43608881812383221 0 -0.33128857542830209 0.41075687450258758 0 -0.32415192154657863 0.42691202075257018 0 -0.32415192154657863 0.42691202075257018 0 -0.31571276072974269 0.43566100469432112 0 -0.3077990714796523 0.42743984374790889 0 -0.32415192154657863 0.42691202075257018 0 -0.3114159864618623 0.41547440475445202 0 -0.3077990714796523 0.42743984374790889 0 -0.32415192154657863 0.42691202075257018 0 -0.31571276072974269 0.43566100469432112 0 -0.32778183569271918 0.44098721396009888 0 -0.33128857542830209 0.41075687450258758 0 -0.3177136592125252 0.40269396999622981 0 -0.3114159864618623 0.41547440475445202 0 -0.33128857542830209 0.41075687450258758 0 -0.32415192154657863 0.42691202075257018 0 -0.3114159864618623 0.41547440475445202 0 -0.3177136592125252 0.40269396999622981 0 -0.33361436191491112 0.39521907254606548 0 -0.31263754668885108 0.38806412607735619 0 -0.33128857542830209 0.41075687450258758 0 -0.3177136592125252 0.40269396999622981 0 -0.33361436191491112 0.39521907254606548 0 -0.35131072788356371 0.40757345711559839 0 -0.33128857542830209 0.41075687450258758 0 -0.33361436191491112 0.39521907254606548 0 -0.35079150368446871 0.38730646075618252 0 -0.33361436191491112 0.39521907254606548 0 -0.3340392482075355 0.37721008646685739 0 -0.35079150368446871 0.38730646075618252 0 -0.3340392482075355 0.37721008646685739 0 -0.31728699273060279 0.36711371217753141 0 -0.31263754668885108 0.38806412607735619 0 -0.33361436191491112 0.39521907254606548 0 -0.3340392482075355 0.37721008646685739 0 -0.31263754668885108 0.38806412607735619 0 -0.31728699273060279 0.36711371217753141 0 -0.3340392482075355 0.37721008646685739 0 -0.31263754668885108 0.38806412607735619 0 -0.2987438919906496 0.37398963596052642 0 -0.31728699273060279 0.36711371217753141 0 -0.31263754668885108 0.38806412607735619 0 -0.2987438919906496 0.37398963596052642 0 -0.31263754668885108 0.38806412607735619 0 -0.2989606459913341 0.40151986115434152 0 -0.3177136592125252 0.40269396999622981 0 -0.31263754668885108 0.38806412607735619 0 -0.2989606459913341 0.40151986115434152 0 -0.2989606459913341 0.40151986115434152 0 -0.28198717010599178 0.40441937541042938 0 -0.28202447626546329 0.38837484314222093 0 -0.2987438919906496 0.37398963596052642 0 -0.2989606459913341 0.40151986115434152 0 -0.28202447626546329 0.38837484314222093 0 -0.28334534416272261 0.37300124569309812 0 -0.2987438919906496 0.37398963596052642 0 -0.28202447626546329 0.38837484314222093 0 -0.28202447626546329 0.38837484314222093 0 -0.26812931041450588 0.38090258278187988 0 -0.26674532783723992 0.39930985244471978 0 -0.28334534416272261 0.37300124569309812 0 -0.28202447626546329 0.38837484314222093 0 -0.26812931041450588 0.38090258278187988 0 -0.28198717010599178 0.40441937541042938 0 -0.28202447626546329 0.38837484314222093 0 -0.26674532783723992 0.39930985244471978 0 -0.25406446795309762 0.39959820971143162 0 -0.2585706408991808 0.41661745634763608 0 -0.23848739152810641 0.39723196554850421 0 -0.26674532783723992 0.39930985244471978 0 -0.25406446795309762 0.39959820971143162 0 -0.2585706408991808 0.41661745634763608 0 -0.26674532783723992 0.39930985244471978 0 -0.25406446795309762 0.39959820971143162 0 -0.25245451154786352 0.38523356450486601 0 -0.25388726156416042 0.36855600570744479 0 -0.26812931041450588 0.38090258278187988 0 -0.25245451154786352 0.38523356450486601 0 -0.26812931041450588 0.38090258278187988 0 -0.26674532783723992 0.39930985244471978 0 -0.25245451154786352 0.38523356450486601 0 -0.25238344478234498 0.43354098405421049 0 -0.2585706408991808 0.41661745634763608 0 -0.2479034750772163 0.42330646490623342 0 -0.26406605535294292 0.43649097427503208 0 -0.25238344478234498 0.43354098405421049 0 -0.2585706408991808 0.41661745634763608 0 -0.26674532783723992 0.39930985244471978 0 -0.2585706408991808 0.41661745634763608 0 -0.27379000683386229 0.41694832662004688 0 -0.28198717010599178 0.40441937541042938 0 -0.26674532783723992 0.39930985244471978 0 -0.27379000683386229 0.41694832662004688 0 -0.2585706408991808 0.41661745634763608 0 -0.27379000683386229 0.41694832662004688 0 -0.27379000683386229 0.41694832662004688 0 -0.27618575912296123 0.43362056704667351 0 -0.28735981451622961 0.4288775491811454 0 -0.2585706408991808 0.41661745634763608 0 -0.27379000683386229 0.41694832662004688 0 -0.27618575912296123 0.43362056704667351 0 -0.2585706408991808 0.41661745634763608 0 -0.27618575912296123 0.43362056704667351 0 -0.26406605535294292 0.43649097427503208 0 -0.2585706408991808 0.41661745634763608 0 -0.27618575912296123 0.43362056704667351 0 -0.28735981451622961 0.4288775491811454 0 -0.28900937276854388 0.41727919689245802 0 -0.29873223144865008 0.42060273320649683 0 -0.28735981451622961 0.4288775491811454 0 -0.29873223144865008 0.42060273320649683 0 -0.29784849747427877 0.43302554350867523 0 -0.2989606459913341 0.40151986115434152 0 -0.28198717010599178 0.40441937541042938 0 -0.28900937276854388 0.41727919689245802 0 -0.2989606459913341 0.40151986115434152 0 -0.28900937276854388 0.41727919689245802 0 -0.29873223144865008 0.42060273320649683 0 -0.28198717010599178 0.40441937541042938 0 -0.27379000683386229 0.41694832662004688 0 -0.28900937276854388 0.41727919689245802 0 -0.27379000683386229 0.41694832662004688 0 -0.28735981451622961 0.4288775491811454 0 -0.28900937276854388 0.41727919689245802 0 -0.27379000683386229 0.41694832662004688 0 -0.28900937276854388 0.41727919689245802 0 -0.2989606459913341 0.40151986115434152 0 -0.29873223144865008 0.42060273320649683 0 -0.3114159864618623 0.41547440475445202 0 -0.3177136592125252 0.40269396999622981 0 -0.2989606459913341 0.40151986115434152 0 -0.3114159864618623 0.41547440475445202 0 -0.29873223144865008 0.42060273320649683 0 -0.3114159864618623 0.41547440475445202 0 -0.3077990714796523 0.42743984374790889 0 -0.3037903017576038 0.43668751742415413 0 -0.29784849747427877 0.43302554350867523 0 -0.3077990714796523 0.42743984374790889 0 -0.29873223144865008 0.42060273320649683 0 -0.29784849747427877 0.43302554350867523 0 -0.3077990714796523 0.42743984374790889 0 -0.31571276072974269 0.43566100469432112 0 -0.3037903017576038 0.43668751742415413 0 -0.3077990714796523 0.42743984374790889 0 -0.30118987071759612 0.45775595302441968 0 -0.29380087734674132 0.4506236777457111 0 -0.31636815832426513 0.4446827721949706 0 -0.31571276072974269 0.43566100469432112 0 -0.29380087734674132 0.4506236777457111 0 -0.31571276072974269 0.43566100469432112 0 -0.29380087734674132 0.4506236777457111 0 -0.31636815832426513 0.4446827721949706 0 -0.3037903017576038 0.43668751742415413 0 -0.29784849747427877 0.43302554350867523 0 -0.29380087734674132 0.4506236777457111 0 -0.31571276072974269 0.43566100469432112 0 -0.3037903017576038 0.43668751742415413 0 -0.29380087734674132 0.4506236777457111 0 -0.30118987071759612 0.45775595302441968 0 -0.31636815832426513 0.4446827721949706 0 -0.30920249159951468 0.465490188929849 0 -0.30118987071759612 0.45775595302441968 0 -0.30118987071759612 0.45775595302441968 0 -0.31364296931230218 0.45820183306721268 0 -0.31636815832426513 0.4446827721949706 0 -0.30920249159951468 0.465490188929849 0 -0.30118987071759612 0.45775595302441968 0 -0.31364296931230218 0.45820183306721268 0 -0.30118987071759612 0.45775595302441968 0 -0.29380087734674132 0.4506236777457111 0 -0.30920249159951468 0.465490188929849 0 -0.30118987071759612 0.45775595302441968 0 -0.29731474549003212 0.46978818990928212 0 -0.30118987071759612 0.45775595302441968 0 -0.29380087734674132 0.4506236777457111 0 -0.28484107483718552 0.47183730201628099 0 -0.29380087734674132 0.4506236777457111 0 -0.26933381259844358 0.46733117312422268 0 -0.28484107483718552 0.47183730201628099 0 -0.30118987071759612 0.45775595302441968 0 -0.28484107483718552 0.47183730201628099 0 -0.29731474549003212 0.46978818990928212 0 -0.29380087734674132 0.4506236777457111 0 -0.26933381259844358 0.46733117312422268 0 -0.30118987071759612 0.45775595302441968 0 -0.28484107483718552 0.47183730201628099 0 -0.28735981451622961 0.4288775491811454 0 -0.29784849747427877 0.43302554350867523 0 -0.29380087734674132 0.4506236777457111 0 -0.27618575912296123 0.43362056704667351 0 -0.29380087734674132 0.4506236777457111 0 -0.27618575912296123 0.43362056704667351 0 -0.28735981451622961 0.4288775491811454 0 -0.29380087734674132 0.4506236777457111 0 -0.27618575912296123 0.43362056704667351 0 -0.29380087734674132 0.4506236777457111 0 -0.27504035042158098 0.45065549763010898 0 -0.26406605535294292 0.43649097427503208 0 -0.27504035042158098 0.45065549763010898 0 -0.25815008153864683 0.44802036629653152 0 -0.26406605535294292 0.43649097427503208 0 -0.27618575912296123 0.43362056704667351 0 -0.27504035042158098 0.45065549763010898 0 -0.29380087734674132 0.4506236777457111 0 -0.27504035042158098 0.45065549763010898 0 -0.26933381259844358 0.46733117312422268 0 -0.27504035042158098 0.45065549763010898 0 -0.26933381259844358 0.46733117312422268 0 -0.26353632438375812 0.45751679820847241 0 -0.25162105297636073 0.4640601557830264 0 -0.26353632438375812 0.45751679820847241 0 -0.25815008153864683 0.44802036629653152 0 -0.25162105297636073 0.4640601557830264 0 -0.25815008153864683 0.44802036629653152 0 -0.2439277080015006 0.45329424780325722 0 -0.26933381259844358 0.46733117312422268 0 -0.25162105297636073 0.4640601557830264 0 -0.26353632438375812 0.45751679820847241 0 -0.27504035042158098 0.45065549763010898 0 -0.26353632438375812 0.45751679820847241 0 -0.25815008153864683 0.44802036629653152 0 -0.25815008153864683 0.44802036629653152 0 -0.24833902215036341 0.44346703360991241 0 -0.2439277080015006 0.45329424780325722 0 -0.25238344478234498 0.43354098405421049 0 -0.25815008153864683 0.44802036629653152 0 -0.24833902215036341 0.44346703360991241 0 -0.26406605535294292 0.43649097427503208 0 -0.25238344478234498 0.43354098405421049 0 -0.25815008153864683 0.44802036629653152 0 -0.25214348307636342 0.50000000000000244 0 -0.26849227895677502 0.48591865100814252 0 -0.25214348307636342 0.50000000000000244 0 -0.26849227895677502 0.48591865100814252 0 -0.24486674785014559 0.48403866850273408 0 -0.26933381259844358 0.46733117312422268 0 -0.26849227895677502 0.48591865100814252 0 -0.24486674785014559 0.48403866850273408 0 -0.26933381259844358 0.46733117312422268 0 -0.24486674785014559 0.48403866850273408 0 -0.26933381259844358 0.46733117312422268 0 -0.25162105297636073 0.4640601557830264 0 -0.24486674785014559 0.48403866850273408 0 -0.26933381259844358 0.46733117312422268 0 -0.26849227895677502 0.48591865100814252 0 -0.28484107483718552 0.47183730201628099 0 -0.26849227895677502 0.48591865100814252 0 -0.2879303905560423 0.48778095281364903 0 -0.28484107483718552 0.47183730201628099 0 -0.26849227895677502 0.48591865100814252 0 -0.28484107483718552 0.47183730201628099 0 -0.25214348307636342 0.50000000000000244 0 -0.26849227895677502 0.48591865100814252 0 -0.27929016350130098 0.5 0 -0.26849227895677502 0.48591865100814252 0 -0.27929016350130098 0.5 0 -0.2879303905560423 0.48778095281364903 0 -0.27929016350130098 0.5 0 -0.2879303905560423 0.48778095281364903 0 -0.3064368439262386 0.5 0 -0.28484107483718552 0.47183730201628099 0 -0.30059159155871129 0.48114881104382129 0 -0.29731474549003212 0.46978818990928212 0 -0.2879303905560423 0.48778095281364903 0 -0.28484107483718552 0.47183730201628099 0 -0.30059159155871129 0.48114881104382129 0 -0.30920249159951468 0.465490188929849 0 -0.30059159155871129 0.48114881104382129 0 -0.29731474549003212 0.46978818990928212 0 -0.30920249159951468 0.465490188929849 0 -0.30059159155871129 0.48114881104382129 0 -0.32003235719264711 0.48243078900452452 0 -0.30059159155871129 0.48114881104382129 0 -0.3064368439262386 0.5 0 -0.32003235719264711 0.48243078900452452 0 -0.2879303905560423 0.48778095281364903 0 -0.30059159155871129 0.48114881104382129 0 -0.3064368439262386 0.5 0 -0.3064368439262386 0.5 0 -0.33358352435117622 0.5 0 -0.32003235719264711 0.48243078900452452 0 -0.33358352435117622 0.5 0 -0.32003235719264711 0.48243078900452452 0 -0.34528222267437952 0.48675887293472708 0 -0.32003235719264711 0.48243078900452452 0 -0.32156186822339738 0.46822209513583068 0 -0.34398711935507281 0.46799732017084361 0 -0.32003235719264711 0.48243078900452452 0 -0.34398711935507281 0.46799732017084361 0 -0.34528222267437952 0.48675887293472708 0 -0.32003235719264711 0.48243078900452452 0 -0.34398711935507281 0.46799732017084361 0 -0.30920249159951468 0.465490188929849 0 -0.32003235719264711 0.48243078900452452 0 -0.32156186822339738 0.46822209513583068 0 -0.30920249159951468 0.465490188929849 0 -0.31364296931230218 0.45820183306721268 0 -0.32156186822339738 0.46822209513583068 0 -0.31364296931230218 0.45820183306721268 0 -0.32258506617599653 0.45338153487139549 0 -0.32156186822339738 0.46822209513583068 0 -0.32258506617599653 0.45338153487139549 0 -0.32156186822339738 0.46822209513583068 0 -0.33168580212298621 0.46071810626764848 0 -0.31571276072974269 0.43566100469432112 0 -0.31636815832426513 0.4446827721949706 0 -0.32778183569271918 0.44098721396009888 0 -0.31364296931230218 0.45820183306721268 0 -0.32258506617599653 0.45338153487139549 0 -0.31636815832426513 0.4446827721949706 0 -0.32258506617599653 0.45338153487139549 0 -0.31636815832426513 0.4446827721949706 0 -0.32778183569271918 0.44098721396009888 0 -0.34615848923103731 0.43608881812383221 0 -0.32778183569271918 0.44098721396009888 0 -0.34200491456029269 0.45112096267536778 0 -0.32258506617599653 0.45338153487139549 0 -0.32778183569271918 0.44098721396009888 0 -0.34200491456029269 0.45112096267536778 0 -0.32156186822339738 0.46822209513583068 0 -0.33168580212298621 0.46071810626764848 0 -0.34398711935507281 0.46799732017084361 0 -0.32258506617599653 0.45338153487139549 0 -0.34200491456029269 0.45112096267536778 0 -0.33168580212298621 0.46071810626764848 0 -0.34200491456029269 0.45112096267536778 0 -0.33168580212298621 0.46071810626764848 0 -0.34398711935507281 0.46799732017084361 0 -0.34398711935507281 0.46799732017084361 0 -0.36794188151749818 0.45356385133716282 0 -0.34200491456029269 0.45112096267536778 0 -0.34398711935507281 0.46799732017084361 0 -0.36794188151749818 0.45356385133716282 0 -0.36404659543697337 0.43742407143792272 0 -0.34200491456029269 0.45112096267536778 0 -0.36794188151749818 0.45356385133716282 0 -0.36404659543697337 0.43742407143792272 0 -0.34615848923103731 0.43608881812383221 0 -0.34200491456029269 0.45112096267536778 0 -0.3804235055036993 0.4401558411045346 0 -0.36404659543697337 0.43742407143792272 0 -0.36794188151749818 0.45356385133716282 0 -0.34398711935507281 0.46799732017084361 0 -0.37462302209290838 0.46732637768348528 0 -0.36794188151749818 0.45356385133716282 0 -0.34398711935507281 0.46799732017084361 0 -0.37462302209290838 0.46732637768348528 0 -0.36807790769688781 0.48336625549826751 0 -0.38787688520105151 0.5 0 -0.36807790769688781 0.48336625549826751 0 -0.36073020477611373 0.5 0 -0.33358352435117622 0.5 0 -0.36073020477611373 0.5 0 -0.34528222267437952 0.48675887293472708 0 -0.36807790769688781 0.48336625549826751 0 -0.36073020477611373 0.5 0 -0.34528222267437952 0.48675887293472708 0 -0.34398711935507281 0.46799732017084361 0 -0.36807790769688781 0.48336625549826751 0 -0.34528222267437952 0.48675887293472708 0 -0.1407690030600974 0.481176573493382 0 -0.15475328439277769 0.47817061310165948 0 -0.15768068774666441 0.48693323263817401 0 -0.1407690030600974 0.481176573493382 0 -0.1415539212150419 0.46619809181737182 0 -0.15637574194294221 0.46776966413519772 0 -0.1407690030600974 0.481176573493382 0 -0.15637574194294221 0.46776966413519772 0 -0.1407690030600974 0.481176573493382 0 -0.15475328439277769 0.47817061310165948 0 -0.15637574194294221 0.46776966413519772 0 -0.1407690030600974 0.481176573493382 0 -0.14314839427836751 0.5 0 -0.15768068774666441 0.48693323263817401 0 -0.1407690030600974 0.481176573493382 0 -0.12516226417725271 0.49458348285156623 0 -0.14314839427836751 0.5 0 -0.12516226417725271 0.49458348285156623 0 -0.1134368365049991 0.5 0 -0.1407690030600974 0.481176573493382 0 -0.14314839427836751 0.5 0 -0.12516226417725271 0.49458348285156623 0 -0.1407690030600974 0.481176573493382 0 -0.12516226417725271 0.49458348285156623 0 -0.12128549607814799 0.47718533142900871 0 -0.1407690030600974 0.481176573493382 0 -0.12943623685269401 0.46761185370050051 0 -0.12128549607814799 0.47718533142900871 0 -0.1407690030600974 0.481176573493382 0 -0.12943623685269401 0.46761185370050051 0 -0.1415539212150419 0.46619809181737182 0 -0.125402629074886 0.45481485359698892 0 -0.14111404505245351 0.45044076418504447 0 -0.1415539212150419 0.46619809181737182 0 -0.12943623685269401 0.46761185370050051 0 -0.125402629074886 0.45481485359698892 0 -0.1415539212150419 0.46619809181737182 0 -0.125402629074886 0.45481485359698892 0 -0.14111404505245351 0.45044076418504447 0 -0.13448153792001111 0.43701302413473381 0 -0.1488571617600366 0.44454898215049821 0 -0.15717824460582999 0.4331636405207332 0 -0.13448153792001111 0.43701302413473381 0 -0.14111404505245351 0.45044076418504447 0 -0.1488571617600366 0.44454898215049821 0 -0.13448153792001111 0.43701302413473381 0 -0.14111404505245351 0.45044076418504447 0 -0.1488571617600366 0.44454898215049821 0 -0.15033645244885949 0.45348703170234378 0 -0.1488571617600366 0.44454898215049821 0 -0.15033645244885949 0.45348703170234378 0 -0.16117552877302921 0.44864045020963528 0 -0.1488571617600366 0.44454898215049821 0 -0.16117552877302921 0.44864045020963528 0 -0.15717824460582999 0.4331636405207332 0 -0.14111404505245351 0.45044076418504447 0 -0.1415539212150419 0.46619809181737182 0 -0.15033645244885949 0.45348703170234378 0 -0.15033645244885949 0.45348703170234378 0 -0.15676820102041431 0.46028042329719238 0 -0.16117552877302921 0.44864045020963528 0 -0.1415539212150419 0.46619809181737182 0 -0.15033645244885949 0.45348703170234378 0 -0.15676820102041431 0.46028042329719238 0 -0.1415539212150419 0.46619809181737182 0 -0.15637574194294221 0.46776966413519772 0 -0.15676820102041431 0.46028042329719238 0 -0.1415539212150419 0.46619809181737182 0 -0.15676820102041431 0.46028042329719238 0 -0.15676820102041431 0.46028042329719238 0 -0.16117552877302921 0.44864045020963528 0 -0.17198248082578679 0.45436275477701332 0 -0.15637574194294221 0.46776966413519772 0 -0.15676820102041431 0.46028042329719238 0 -0.17198248082578679 0.45436275477701332 0 -0.15676820102041431 0.46028042329719238 0 -0.17198248082578679 0.45436275477701332 0 -0.15637574194294221 0.46776966413519772 0 -0.16905780764238379 0.46815390719760752 0 -0.17053456028457559 0.46253840900629978 0 -0.15637574194294221 0.46776966413519772 0 -0.17053456028457559 0.46253840900629978 0 -0.17198248082578679 0.45436275477701332 0 -0.15637574194294221 0.46776966413519772 0 -0.17198248082578679 0.45436275477701332 0 -0.16117552877302921 0.44864045020963528 0 -0.1770002932670928 0.4500522221870869 0 -0.17198248082578679 0.45436275477701332 0 -0.16117552877302921 0.44864045020963528 0 -0.1770002932670928 0.4500522221870869 0 -0.15717824460582999 0.4331636405207332 0 -0.1770002932670928 0.4500522221870869 0 -0.15717824460582999 0.4331636405207332 0 -0.1770002932670928 0.4500522221870869 0 -0.17732394712977509 0.42974690970327861 0 -0.15717824460582999 0.4331636405207332 0 -0.1770002932670928 0.4500522221870869 0 -0.19698704464285641 0.43288267984573631 0 -0.17732394712977509 0.42974690970327861 0 -0.1770002932670928 0.4500522221870869 0 -0.17890109652066141 0.45167172537407541 0 -0.19887744332007529 0.44390182761254382 0 -0.17890109652066141 0.45167172537407541 0 -0.18330481806999749 0.45542373972399491 0 -0.19887744332007529 0.44390182761254382 0 -0.1770002932670928 0.4500522221870869 0 -0.19698704464285641 0.43288267984573631 0 -0.17890109652066141 0.45167172537407541 0 -0.17198248082578679 0.45436275477701332 0 -0.1770002932670928 0.4500522221870869 0 -0.17198248082578679 0.45436275477701332 0 -0.1770002932670928 0.4500522221870869 0 -0.17890109652066141 0.45167172537407541 0 -0.17198248082578679 0.45436275477701332 0 -0.1770002932670928 0.4500522221870869 0 -0.17890109652066141 0.45167172537407541 0 -0.16905780764238379 0.46815390719760752 0 -0.17053456028457559 0.46253840900629978 0 -0.17771717221577829 0.46455047429392171 0 -0.17771717221577829 0.46455047429392171 0 -0.17753959879598649 0.45785524462775878 0 -0.183268669751987 0.46118897948567811 0 -0.17053456028457559 0.46253840900629978 0 -0.17771717221577829 0.46455047429392171 0 -0.17753959879598649 0.45785524462775878 0 -0.17053456028457559 0.46253840900629978 0 -0.17198248082578679 0.45436275477701332 0 -0.17753959879598649 0.45785524462775878 0 -0.17890109652066141 0.45167172537407541 0 -0.17198248082578679 0.45436275477701332 0 -0.17753959879598649 0.45785524462775878 0 -0.17753959879598649 0.45785524462775878 0 -0.18330481806999749 0.45542373972399491 0 -0.183268669751987 0.46118897948567811 0 -0.17890109652066141 0.45167172537407541 0 -0.18330481806999749 0.45542373972399491 0 -0.17890109652066141 0.45167172537407541 0 -0.17753959879598649 0.45785524462775878 0 -0.18330481806999749 0.45542373972399491 0 -0.18330481806999749 0.45542373972399491 0 -0.183268669751987 0.46118897948567811 0 -0.18984518912406689 0.46003668988818808 0 -0.183268669751987 0.46118897948567811 0 -0.18984518912406689 0.46003668988818808 0 -0.18844011154641291 0.46856195592650363 0 -0.17771717221577829 0.46455047429392171 0 -0.183268669751987 0.46118897948567811 0 -0.18844011154641291 0.46856195592650363 0 -0.17771717221577829 0.46455047429392171 0 -0.17673468537718909 0.47387831835943273 0 -0.18844011154641291 0.46856195592650363 0 -0.18499233083350561 0.48405394967281451 0 -0.17673468537718909 0.47387831835943273 0 -0.18844011154641291 0.46856195592650363 0 -0.18499233083350561 0.48405394967281451 0 -0.17673468537718909 0.47387831835943273 0 -0.17129107216610029 0.48433369656206121 0 -0.16905780764238379 0.46815390719760752 0 -0.17771717221577829 0.46455047429392171 0 -0.17673468537718909 0.47387831835943273 0 -0.16905780764238379 0.46815390719760752 0 -0.17673468537718909 0.47387831835943273 0 -0.16418770482140679 0.47680298213988448 0 -0.17673468537718909 0.47387831835943273 0 -0.17129107216610029 0.48433369656206121 0 -0.16418770482140679 0.47680298213988448 0 -0.17129107216610029 0.48433369656206121 0 -0.16418770482140679 0.47680298213988448 0 -0.15768068774666441 0.48693323263817401 0 -0.15475328439277769 0.47817061310165948 0 -0.16418770482140679 0.47680298213988448 0 -0.15768068774666441 0.48693323263817401 0 -0.15475328439277769 0.47817061310165948 0 -0.15637574194294221 0.46776966413519772 0 -0.16418770482140679 0.47680298213988448 0 -0.15637574194294221 0.46776966413519772 0 -0.16905780764238379 0.46815390719760752 0 -0.16418770482140679 0.47680298213988448 0 -0.14314839427836751 0.5 0 -0.15768068774666441 0.48693323263817401 0 -0.17285995205173579 0.5 0 -0.17129107216610029 0.48433369656206121 0 -0.15768068774666441 0.48693323263817401 0 -0.17285995205173579 0.5 0 -0.18499233083350561 0.48405394967281451 0 -0.17129107216610029 0.48433369656206121 0 -0.17285995205173579 0.5 0 -0.18499233083350561 0.48405394967281451 0 -0.17285995205173579 0.5 0 -0.20257150982510411 0.49999999999999989 0 -0.18499233083350561 0.48405394967281451 0 -0.20257150982510411 0.49999999999999989 0 -0.19869087615429129 0.4792867312459963 0 -0.18499233083350561 0.48405394967281451 0 -0.19869087615429129 0.4792867312459963 0 -0.18844011154641291 0.46856195592650363 0 -0.19869087615429129 0.4792867312459963 0 -0.2027711372567107 0.46414690520211349 0 -0.18844011154641291 0.46856195592650363 0 -0.19869087615429129 0.4792867312459963 0 -0.21467929130972299 0.4796708454285501 0 -0.2027711372567107 0.46414690520211349 0 -0.20257150982510411 0.49999999999999989 0 -0.19869087615429129 0.4792867312459963 0 -0.21467929130972299 0.4796708454285501 0 -0.20257150982510411 0.49999999999999989 0 -0.21467929130972299 0.4796708454285501 0 -0.22735749645073369 0.5 0 -0.20257150982510411 0.49999999999999989 0 -0.21467929130972299 0.4796708454285501 0 -0.21467929130972299 0.4796708454285501 0 -0.22735749645073369 0.5 0 -0.2299573781854661 0.48526770708290717 0 -0.22735749645073369 0.5 0 -0.2299573781854661 0.48526770708290717 0 -0.24486674785014559 0.48403866850273408 0 -0.21467929130972299 0.4796708454285501 0 -0.2299573781854661 0.48526770708290717 0 -0.23598382514153721 0.47157530858172142 0 -0.21467929130972299 0.4796708454285501 0 -0.23598382514153721 0.47157530858172142 0 -0.22678707279434199 0.45934169085710019 0 -0.21467929130972299 0.4796708454285501 0 -0.22678707279434199 0.45934169085710019 0 -0.25162105297636073 0.4640601557830264 0 -0.23598382514153721 0.47157530858172142 0 -0.24486674785014559 0.48403866850273408 0 -0.2299573781854661 0.48526770708290717 0 -0.23598382514153721 0.47157530858172142 0 -0.24486674785014559 0.48403866850273408 0 -0.25214348307636342 0.50000000000000244 0 -0.22735749645073369 0.5 0 -0.24486674785014559 0.48403866850273408 0 -0.23889485427896109 0.43901253628565051 0 -0.2439277080015006 0.45329424780325722 0 -0.22678707279434199 0.45934169085710019 0 -0.25238344478234498 0.43354098405421049 0 -0.23889485427896109 0.43901253628565051 0 -0.24833902215036341 0.44346703360991241 0 -0.23889485427896109 0.43901253628565051 0 -0.24833902215036341 0.44346703360991241 0 -0.2439277080015006 0.45329424780325722 0 -0.25162105297636073 0.4640601557830264 0 -0.23598382514153721 0.47157530858172142 0 -0.2439277080015006 0.45329424780325722 0 -0.23598382514153721 0.47157530858172142 0 -0.2439277080015006 0.45329424780325722 0 -0.22678707279434199 0.45934169085710019 0 -0.23889485427896109 0.43901253628565051 0 -0.22678707279434199 0.45934169085710019 0 -0.2188537901194893 0.43613192985101218 0 -0.23889485427896109 0.43901253628565051 0 -0.22678707279434199 0.45934169085710019 0 -0.19887744332007529 0.44390182761254382 0 -0.2188537901194893 0.43613192985101218 0 -0.19887744332007529 0.44390182761254382 0 -0.19698704464285641 0.43288267984573631 0 -0.2188537901194893 0.43613192985101218 0 -0.22678707279434199 0.45934169085710019 0 -0.2086243059877525 0.45171955758885102 0 -0.2188537901194893 0.43613192985101218 0 -0.2086243059877525 0.45171955758885102 0 -0.19887744332007529 0.44390182761254382 0 -0.2188537901194893 0.43613192985101218 0 -0.22678707279434199 0.45934169085710019 0 -0.2086243059877525 0.45171955758885102 0 -0.2027711372567107 0.46414690520211349 0 -0.21467929130972299 0.4796708454285501 0 -0.22678707279434199 0.45934169085710019 0 -0.2027711372567107 0.46414690520211349 0 -0.2027711372567107 0.46414690520211349 0 -0.19583208644814529 0.45507543442148501 0 -0.18984518912406689 0.46003668988818808 0 -0.2086243059877525 0.45171955758885102 0 -0.2027711372567107 0.46414690520211349 0 -0.19583208644814529 0.45507543442148501 0 -0.18330481806999749 0.45542373972399491 0 -0.19583208644814529 0.45507543442148501 0 -0.18984518912406689 0.46003668988818808 0 -0.2027711372567107 0.46414690520211349 0 -0.18984518912406689 0.46003668988818808 0 -0.18844011154641291 0.46856195592650363 0 -0.17890109652066141 0.45167172537407541 0 -0.19887744332007529 0.44390182761254382 0 -0.1770002932670928 0.4500522221870869 0 -0.19887744332007529 0.44390182761254382 0 -0.19698704464285641 0.43288267984573631 0 -0.2086243059877525 0.45171955758885102 0 -0.19583208644814529 0.45507543442148501 0 -0.19887744332007529 0.44390182761254382 0 -0.18330481806999749 0.45542373972399491 0 -0.19583208644814529 0.45507543442148501 0 -0.19887744332007529 0.44390182761254382 0 -0.19698704464285641 0.43288267984573631 0 -0.19068577465971739 0.41514163374887308 0 -0.17732394712977509 0.42974690970327861 0 -0.19068577465971739 0.41514163374887308 0 -0.21697379601861921 0.41571313750438449 0 -0.20008750404510081 0.39639776102304242 0 -0.19698704464285641 0.43288267984573631 0 -0.19068577465971739 0.41514163374887308 0 -0.21697379601861921 0.41571313750438449 0 -0.19068577465971739 0.41514163374887308 0 -0.21697379601861921 0.41571313750438449 0 -0.19698704464285641 0.43288267984573631 0 -0.21697379601861921 0.41571313750438449 0 -0.2188537901194893 0.43613192985101218 0 -0.19698704464285641 0.43288267984573631 0 -0.21697379601861921 0.41571313750438449 0 -0.23889485427896109 0.43901253628565051 0 -0.2188537901194893 0.43613192985101218 0 -0.2388301369189034 0.42836203208948059 0 -0.21697379601861921 0.41571313750438449 0 -0.2188537901194893 0.43613192985101218 0 -0.22721460742197949 0.42322528966286282 0 -0.2188537901194893 0.43613192985101218 0 -0.2388301369189034 0.42836203208948059 0 -0.2188537901194893 0.43613192985101218 0 -0.22721460742197949 0.42322528966286282 0 -0.2388301369189034 0.42836203208948059 0 -0.21697379601861921 0.41571313750438449 0 -0.22721460742197949 0.42322528966286282 0 -0.23777221845890009 0.41616529692601001 0 -0.21697379601861921 0.41571313750438449 0 -0.23777221845890009 0.41616529692601001 0 -0.23848739152810641 0.39723196554850421 0 -0.21697379601861921 0.41571313750438449 0 -0.23777221845890009 0.41616529692601001 0 -0.21697379601861921 0.41571313750438449 0 -0.23848739152810641 0.39723196554850421 0 -0.2585706408991808 0.41661745634763608 0 -0.23777221845890009 0.41616529692601001 0 -0.23848739152810641 0.39723196554850421 0 -0.2585706408991808 0.41661745634763608 0 -0.23777221845890009 0.41616529692601001 0 -0.2479034750772163 0.42330646490623342 0 -0.2585706408991808 0.41661745634763608 0 -0.23848739152810641 0.39723196554850421 0 -0.2585706408991808 0.41661745634763608 0 -0.23777221845890009 0.41616529692601001 0 -0.25238344478234498 0.43354098405421049 0 -0.2479034750772163 0.42330646490623342 0 -0.2388301369189034 0.42836203208948059 0 -0.25238344478234498 0.43354098405421049 0 -0.23889485427896109 0.43901253628565051 0 -0.2388301369189034 0.42836203208948059 0 -0.23777221845890009 0.41616529692601001 0 -0.2479034750772163 0.42330646490623342 0 -0.2388301369189034 0.42836203208948059 0 -0.22721460742197949 0.42322528966286282 0 -0.23777221845890009 0.41616529692601001 0 -0.2388301369189034 0.42836203208948059 0 -0.25245451154786352 0.38523356450486601 0 -0.23848739152810641 0.39723196554850421 0 -0.23807406657626479 0.37449872563355091 0 -0.25388726156416042 0.36855600570744479 0 -0.25245451154786352 0.38523356450486601 0 -0.23807406657626479 0.37449872563355091 0 -0.25245451154786352 0.38523356450486601 0 -0.23848739152810641 0.39723196554850421 0 -0.25406446795309762 0.39959820971143162 0 -0.25245451154786352 0.38523356450486601 0 -0.23848739152810641 0.39723196554850421 0 -0.21697379601861921 0.41571313750438449 0 -0.23848739152810641 0.39723196554850421 0 -0.21917881643168149 0.39746394869269702 0 -0.23848739152810641 0.39723196554850421 0 -0.21917881643168149 0.39746394869269702 0 -0.22116657413489921 0.38051293069485659 0 -0.23848739152810641 0.39723196554850421 0 -0.22116657413489921 0.38051293069485659 0 -0.23807406657626479 0.37449872563355091 0 -0.23848739152810641 0.39723196554850421 0 -0.22116657413489921 0.38051293069485659 0 -0.22116657413489921 0.38051293069485659 0 -0.20008750404510081 0.39639776102304242 0 -0.1937283514820283 0.3777557556897807 0 -0.21917881643168149 0.39746394869269702 0 -0.22116657413489921 0.38051293069485659 0 -0.20008750404510081 0.39639776102304242 0 -0.21697379601861921 0.41571313750438449 0 -0.21917881643168149 0.39746394869269702 0 -0.20008750404510081 0.39639776102304242 0 -0.19068577465971739 0.41514163374887308 0 -0.20008750404510081 0.39639776102304242 0 -0.17780881819189531 0.40257192616375331 0 -0.20008750404510081 0.39639776102304242 0 -0.1937283514820283 0.3777557556897807 0 -0.17953122315795761 0.38477963532132448 0 -0.17953122315795761 0.38477963532132448 0 -0.1601295698213418 0.37782552819920251 0 -0.18316049184609981 0.36448771503007432 0 -0.1937283514820283 0.3777557556897807 0 -0.17953122315795761 0.38477963532132448 0 -0.18316049184609981 0.36448771503007432 0 -0.17953122315795761 0.38477963532132448 0 -0.1601295698213418 0.37782552819920251 0 -0.1630069806942599 0.39649562980601938 0 -0.1630069806942599 0.39649562980601938 0 -0.17780881819189531 0.40257192616375331 0 -0.16439775330081571 0.41457012999336201 0 -0.17953122315795761 0.38477963532132448 0 -0.1630069806942599 0.39649562980601938 0 -0.17780881819189531 0.40257192616375331 0 -0.20008750404510081 0.39639776102304242 0 -0.17953122315795761 0.38477963532132448 0 -0.17780881819189531 0.40257192616375331 0 -0.19068577465971739 0.41514163374887308 0 -0.17780881819189531 0.40257192616375331 0 -0.16439775330081571 0.41457012999336201 0 -0.19068577465971739 0.41514163374887308 0 -0.16439775330081571 0.41457012999336201 0 -0.19068577465971739 0.41514163374887308 0 -0.17732394712977509 0.42974690970327861 0 -0.16439775330081571 0.41457012999336201 0 -0.17732394712977509 0.42974690970327861 0 -0.15717824460582999 0.4331636405207332 0 -0.16439775330081571 0.41457012999336201 0 -0.17732394712977509 0.42974690970327861 0 -0.15717824460582999 0.4331636405207332 0 -0.15717824460582999 0.4331636405207332 0 -0.16439775330081571 0.41457012999336201 0 -0.1509960365762672 0.40906271597372851 0 -0.1630069806942599 0.39649562980601938 0 -0.16439775330081571 0.41457012999336201 0 -0.1509960365762672 0.40906271597372851 0 -0.1509960365762672 0.40906271597372851 0 -0.13901058719099649 0.41768461657219291 0 -0.13696401555234641 0.40163329194434477 0 -0.15717824460582999 0.4331636405207332 0 -0.1509960365762672 0.40906271597372851 0 -0.13901058719099649 0.41768461657219291 0 -0.15717824460582999 0.4331636405207332 0 -0.13448153792001111 0.43701302413473381 0 -0.13901058719099649 0.41768461657219291 0 -0.15717824460582999 0.4331636405207332 0 -0.13901058719099649 0.41768461657219291 0 -0.15717824460582999 0.4331636405207332 0 -0.13448153792001111 0.43701302413473381 0 -0.13448153792001111 0.43701302413473381 0 -0.13901058719099649 0.41768461657219291 0 -0.1191954370207851 0.42244219748149592 0 -0.13901058719099649 0.41768461657219291 0 -0.12084292977616209 0.40220559262365357 0 -0.1191954370207851 0.42244219748149592 0 -0.13901058719099649 0.41768461657219291 0 -0.13696401555234641 0.40163329194434477 0 -0.12084292977616209 0.40220559262365357 0 -0.13901058719099649 0.41768461657219291 0 -0.12084292977616209 0.40220559262365357 0 -0.13696401555234641 0.40163329194434477 0 -0.12913571711656729 0.39128712338514521 0 -0.14541863811335479 0.39082898700571889 0 -0.13696401555234641 0.40163329194434477 0 -0.12913571711656729 0.39128712338514521 0 -0.12084292977616209 0.40220559262365357 0 -0.12913571711656729 0.39128712338514521 0 -0.14541863811335479 0.39082898700571889 0 -0.1316688985582615 0.37395036026003298 0 -0.1601295698213418 0.37782552819920251 0 -0.14541863811335479 0.39082898700571889 0 -0.1316688985582615 0.37395036026003298 0 -0.1601295698213418 0.37782552819920251 0 -0.1630069806942599 0.39649562980601938 0 -0.14541863811335479 0.39082898700571889 0 -0.1509960365762672 0.40906271597372851 0 -0.13696401555234641 0.40163329194434477 0 -0.14541863811335479 0.39082898700571889 0 -0.1630069806942599 0.39649562980601938 0 -0.1509960365762672 0.40906271597372851 0 -0.14541863811335479 0.39082898700571889 0 -0.1525536935338109 0.36008333542809068 0 -0.1301315718582082 0.34852002884837258 0 -0.1488920472096224 0.34023897988082302 0 -0.1601295698213418 0.37782552819920251 0 -0.1525536935338109 0.36008333542809068 0 -0.1316688985582615 0.37395036026003298 0 -0.1525536935338109 0.36008333542809068 0 -0.1316688985582615 0.37395036026003298 0 -0.1525536935338109 0.36008333542809068 0 -0.1316688985582615 0.37395036026003298 0 -0.1301315718582082 0.34852002884837258 0 -0.1316688985582615 0.37395036026003298 0 -0.1301315718582082 0.34852002884837258 0 -0.1183129240464134 0.36183617403739649 0 -0.1301315718582082 0.34852002884837258 0 -0.13338994618507699 0.33245683908299473 0 -0.11474023773839349 0.32822781435910903 0 -0.1301315718582082 0.34852002884837258 0 -0.13338994618507699 0.33245683908299473 0 -0.1488920472096224 0.34023897988082302 0 -0.13338994618507699 0.33245683908299473 0 -0.12932394091554861 0.31885650945505761 0 -0.11474023773839349 0.32822781435910903 0 -0.13338994618507699 0.33245683908299473 0 -0.12932394091554861 0.31885650945505761 0 -0.14386193320361221 0.32644086287161161 0 -0.12932394091554861 0.31885650945505761 0 -0.14117379783119521 0.31455915124218392 0 -0.14386193320361221 0.32644086287161161 0 -0.12932394091554861 0.31885650945505761 0 -0.14117379783119521 0.31455915124218392 0 -0.13330191435783509 0.31065133313023668 0 -0.14386193320361221 0.32644086287161161 0 -0.15227418085697991 0.31502886575503092 0 -0.16232640514340471 0.32688092942971969 0 -0.14117379783119521 0.31455915124218392 0 -0.14386193320361221 0.32644086287161161 0 -0.15227418085697991 0.31502886575503092 0 -0.14386193320361221 0.32644086287161161 0 -0.1488920472096224 0.34023897988082302 0 -0.16232640514340471 0.32688092942971969 0 -0.13338994618507699 0.33245683908299473 0 -0.14386193320361221 0.32644086287161161 0 -0.1488920472096224 0.34023897988082302 0 -0.16232640514340471 0.32688092942971969 0 -0.1791480316511711 0.32805869970942553 0 -0.17343848850936039 0.34621631059614838 0 -0.1488920472096224 0.34023897988082302 0 -0.16232640514340471 0.32688092942971969 0 -0.17343848850936039 0.34621631059614838 0 -0.15227418085697991 0.31502886575503092 0 -0.16232640514340471 0.32688092942971969 0 -0.16348911133213759 0.31109383769857779 0 -0.16232640514340471 0.32688092942971969 0 -0.17338179329072051 0.31767076830896712 0 -0.16348911133213759 0.31109383769857779 0 -0.16232640514340471 0.32688092942971969 0 -0.1791480316511711 0.32805869970942553 0 -0.17338179329072051 0.31767076830896712 0 -0.1791480316511711 0.32805869970942553 0 -0.17338179329072051 0.31767076830896712 0 -0.18950974577664309 0.31590213183382643 0 -0.17338179329072051 0.31767076830896712 0 -0.18950974577664309 0.31590213183382643 0 -0.17618505861563269 0.30552225514913189 0 -0.1791480316511711 0.32805869970942553 0 -0.17343848850936039 0.34621631059614838 0 -0.19708372553572689 0.33362335837846607 0 -0.17343848850936039 0.34621631059614838 0 -0.18316049184609981 0.36448771503007432 0 -0.19708372553572689 0.33362335837846607 0 -0.1525536935338109 0.36008333542809068 0 -0.17343848850936039 0.34621631059614838 0 -0.1525536935338109 0.36008333542809068 0 -0.17343848850936039 0.34621631059614838 0 -0.18316049184609981 0.36448771503007432 0 -0.1525536935338109 0.36008333542809068 0 -0.1488920472096224 0.34023897988082302 0 -0.17343848850936039 0.34621631059614838 0 -0.1601295698213418 0.37782552819920251 0 -0.1525536935338109 0.36008333542809068 0 -0.18316049184609981 0.36448771503007432 0 -0.1937283514820283 0.3777557556897807 0 -0.18316049184609981 0.36448771503007432 0 -0.20384575674169189 0.3637938958412093 0 -0.18316049184609981 0.36448771503007432 0 -0.20384575674169189 0.3637938958412093 0 -0.19708372553572689 0.33362335837846607 0 -0.20384575674169189 0.3637938958412093 0 -0.2219073923132179 0.34095955757839908 0 -0.19708372553572689 0.33362335837846607 0 -0.20384575674169189 0.3637938958412093 0 -0.223785224886002 0.36249128838945122 0 -0.2219073923132179 0.34095955757839908 0 -0.22116657413489921 0.38051293069485659 0 -0.20384575674169189 0.3637938958412093 0 -0.223785224886002 0.36249128838945122 0 -0.22116657413489921 0.38051293069485659 0 -0.1937283514820283 0.3777557556897807 0 -0.20384575674169189 0.3637938958412093 0 -0.22116657413489921 0.38051293069485659 0 -0.20384575674169189 0.3637938958412093 0 -0.22116657413489921 0.38051293069485659 0 -0.223785224886002 0.36249128838945122 0 -0.23807406657626479 0.37449872563355091 0 -0.223785224886002 0.36249128838945122 0 -0.23974242103901289 0.35638209320221331 0 -0.23807406657626479 0.37449872563355091 0 -0.223785224886002 0.36249128838945122 0 -0.23974242103901289 0.35638209320221331 0 -0.2219073923132179 0.34095955757839908 0 -0.23974242103901289 0.35638209320221331 0 -0.23986408012078619 0.33861761948273811 0 -0.2219073923132179 0.34095955757839908 0 -0.25388726156416042 0.36855600570744479 0 -0.25555285531660432 0.34950511563052261 0 -0.23974242103901289 0.35638209320221331 0 -0.25555285531660432 0.34950511563052261 0 -0.23974242103901289 0.35638209320221331 0 -0.23986408012078619 0.33861761948273811 0 -0.25388726156416042 0.36855600570744479 0 -0.23974242103901289 0.35638209320221331 0 -0.23807406657626479 0.37449872563355091 0 -0.25391231018304028 0.32891858577509753 0 -0.23986408012078619 0.33861761948273811 0 -0.23278741600051961 0.31618687697428588 0 -0.25391231018304028 0.32891858577509753 0 -0.23278741600051961 0.31618687697428588 0 -0.25646132123655913 0.30730868465492878 0 -0.25391231018304028 0.32891858577509753 0 -0.23278741600051961 0.31618687697428588 0 -0.25391231018304028 0.32891858577509753 0 -0.25555285531660432 0.34950511563052261 0 -0.23986408012078619 0.33861761948273811 0 -0.23986408012078619 0.33861761948273811 0 -0.2219073923132179 0.34095955757839908 0 -0.23278741600051961 0.31618687697428588 0 -0.2219073923132179 0.34095955757839908 0 -0.23278741600051961 0.31618687697428588 0 -0.2184081386653571 0.31615404010330522 0 -0.2184081386653571 0.31615404010330522 0 -0.19708372553572689 0.33362335837846607 0 -0.20628658880685169 0.30841887856850891 0 -0.2219073923132179 0.34095955757839908 0 -0.2184081386653571 0.31615404010330522 0 -0.19708372553572689 0.33362335837846607 0 -0.19708372553572689 0.33362335837846607 0 -0.20628658880685169 0.30841887856850891 0 -0.19708372553572689 0.33362335837846607 0 -0.18950974577664309 0.31590213183382643 0 -0.20628658880685169 0.30841887856850891 0 -0.1791480316511711 0.32805869970942553 0 -0.19708372553572689 0.33362335837846607 0 -0.18950974577664309 0.31590213183382643 0 -0.18950974577664309 0.31590213183382643 0 -0.19496815427226799 0.30596431169937799 0 -0.20628658880685169 0.30841887856850891 0 -0.18950974577664309 0.31590213183382643 0 -0.19496815427226799 0.30596431169937799 0 -0.18733186015208861 0.29924897486665308 0 -0.19496815427226799 0.30596431169937799 0 -0.20096232848435169 0.29830505589614498 0 -0.18733186015208861 0.29924897486665308 0 -0.19496815427226799 0.30596431169937799 0 -0.20096232848435169 0.29830505589614498 0 -0.20628658880685169 0.30841887856850891 0 -0.1986981257515324 0.28938981504180927 0 -0.1939107235235247 0.27224888809965331 0 -0.18618362856967419 0.28696183019305749 0 -0.1986981257515324 0.28938981504180927 0 -0.2154894520779766 0.28321439875855181 0 -0.1939107235235247 0.27224888809965331 0 -0.1986981257515324 0.28938981504180927 0 -0.18618362856967419 0.28696183019305749 0 -0.18733186015208861 0.29924897486665308 0 -0.20096232848435169 0.29830505589614498 0 -0.1986981257515324 0.28938981504180927 0 -0.18733186015208861 0.29924897486665308 0 -0.20096232848435169 0.29830505589614498 0 -0.1986981257515324 0.28938981504180927 0 -0.2154894520779766 0.28321439875855181 0 -0.20096232848435169 0.29830505589614498 0 -0.2154894520779766 0.28321439875855181 0 -0.20628658880685169 0.30841887856850891 0 -0.2154894520779766 0.28321439875855181 0 -0.20628658880685169 0.30841887856850891 0 -0.2154894520779766 0.28321439875855181 0 -0.20628658880685169 0.30841887856850891 0 -0.2116625218179988 0.30345516817347418 0 -0.2184081386653571 0.31615404010330522 0 -0.20628658880685169 0.30841887856850891 0 -0.2116625218179988 0.30345516817347418 0 -0.23278741600051961 0.31618687697428588 0 -0.2116625218179988 0.30345516817347418 0 -0.22956557460324009 0.29635794111323871 0 -0.23278741600051961 0.31618687697428588 0 -0.2116625218179988 0.30345516817347418 0 -0.23278741600051961 0.31618687697428588 0 -0.2184081386653571 0.31615404010330522 0 -0.2116625218179988 0.30345516817347418 0 -0.2154894520779766 0.28321439875855181 0 -0.22956557460324009 0.29635794111323871 0 -0.23278154235902129 0.27923573660433793 0 -0.2154894520779766 0.28321439875855181 0 -0.2116625218179988 0.30345516817347418 0 -0.22956557460324009 0.29635794111323871 0 -0.22956557460324009 0.29635794111323871 0 -0.24859791685371649 0.2880020299304798 0 -0.2418530571735088 0.3019638831682333 0 -0.22956557460324009 0.29635794111323871 0 -0.24859791685371649 0.2880020299304798 0 -0.23278154235902129 0.27923573660433793 0 -0.25646132123655913 0.30730868465492878 0 -0.23278741600051961 0.31618687697428588 0 -0.2418530571735088 0.3019638831682333 0 -0.25646132123655913 0.30730868465492878 0 -0.24859791685371649 0.2880020299304798 0 -0.2418530571735088 0.3019638831682333 0 -0.23278741600051961 0.31618687697428588 0 -0.22956557460324009 0.29635794111323871 0 -0.2418530571735088 0.3019638831682333 0 -0.24484340631482909 0.26800778059861019 0 -0.2246923153491015 0.2580099189485946 0 -0.2498521202164147 0.24664314714166921 0 -0.24859791685371649 0.2880020299304798 0 -0.24484340631482909 0.26800778059861019 0 -0.23278154235902129 0.27923573660433793 0 -0.2154894520779766 0.28321439875855181 0 -0.23278154235902129 0.27923573660433793 0 -0.2246923153491015 0.2580099189485946 0 -0.24484340631482909 0.26800778059861019 0 -0.23278154235902129 0.27923573660433793 0 -0.2246923153491015 0.2580099189485946 0 -0.2154894520779766 0.28321439875855181 0 -0.2246923153491015 0.2580099189485946 0 -0.2246923153491015 0.2580099189485946 0 -0.20922758868048891 0.26589711210059952 0 -0.1992355655274293 0.24593280249212751 0 -0.2154894520779766 0.28321439875855181 0 -0.20922758868048891 0.26589711210059952 0 -0.1939107235235247 0.27224888809965331 0 -0.2154894520779766 0.28321439875855181 0 -0.2246923153491015 0.2580099189485946 0 -0.20922758868048891 0.26589711210059952 0 -0.1939107235235247 0.27224888809965331 0 -0.17708334863010269 0.25567643143270868 0 -0.1992355655274293 0.24593280249212751 0 -0.20922758868048891 0.26589711210059952 0 -0.1939107235235247 0.27224888809965331 0 -0.1992355655274293 0.24593280249212751 0 -0.17708334863010269 0.25567643143270868 0 -0.1584297322636746 0.26031430093366159 0 -0.16402011641522299 0.2417029532036388 0 -0.1693845848548515 0.28338426734517758 0 -0.15160583778667741 0.2831383099384609 0 -0.1515139816893793 0.27400318117322481 0 -0.17708334863010269 0.25567643143270868 0 -0.1584297322636746 0.26031430093366159 0 -0.1693845848548515 0.28338426734517758 0 -0.1584297322636746 0.26031430093366159 0 -0.1693845848548515 0.28338426734517758 0 -0.1515139816893793 0.27400318117322481 0 -0.1939107235235247 0.27224888809965331 0 -0.18618362856967419 0.28696183019305749 0 -0.1693845848548515 0.28338426734517758 0 -0.1939107235235247 0.27224888809965331 0 -0.1693845848548515 0.28338426734517758 0 -0.1939107235235247 0.27224888809965331 0 -0.17708334863010269 0.25567643143270868 0 -0.1693845848548515 0.28338426734517758 0 -0.18618362856967419 0.28696183019305749 0 -0.1759784393786539 0.2942666823299509 0 -0.1693845848548515 0.28338426734517758 0 -0.18618362856967419 0.28696183019305749 0 -0.1759784393786539 0.2942666823299509 0 -0.18733186015208861 0.29924897486665308 0 -0.18950974577664309 0.31590213183382643 0 -0.18733186015208861 0.29924897486665308 0 -0.17618505861563269 0.30552225514913189 0 -0.1759784393786539 0.2942666823299509 0 -0.18733186015208861 0.29924897486665308 0 -0.17618505861563269 0.30552225514913189 0 -0.1759784393786539 0.2942666823299509 0 -0.17618505861563269 0.30552225514913189 0 -0.1646881156751879 0.2988372638038268 0 -0.17338179329072051 0.31767076830896712 0 -0.17618505861563269 0.30552225514913189 0 -0.16348911133213759 0.31109383769857779 0 -0.17618505861563269 0.30552225514913189 0 -0.1646881156751879 0.2988372638038268 0 -0.16348911133213759 0.31109383769857779 0 -0.15227418085697991 0.31502886575503092 0 -0.16348911133213759 0.31109383769857779 0 -0.1551406313297054 0.30559250972024699 0 -0.1646881156751879 0.2988372638038268 0 -0.16348911133213759 0.31109383769857779 0 -0.1551406313297054 0.30559250972024699 0 -0.1646881156751879 0.2988372638038268 0 -0.1693845848548515 0.28338426734517758 0 -0.14886491641959701 0.29769653297286119 0 -0.1693845848548515 0.28338426734517758 0 -0.14485844618617841 0.29451964659070229 0 -0.1759784393786539 0.2942666823299509 0 -0.1646881156751879 0.2988372638038268 0 -0.1693845848548515 0.28338426734517758 0 -0.1693845848548515 0.28338426734517758 0 -0.14485844618617841 0.29451964659070229 0 -0.14886491641959701 0.29769653297286119 0 -0.1693845848548515 0.28338426734517758 0 -0.15160583778667741 0.2831383099384609 0 -0.14485844618617841 0.29451964659070229 0 -0.14485844618617841 0.29451964659070229 0 -0.14886491641959701 0.29769653297286119 0 -0.15160583778667741 0.2831383099384609 0 -0.14485844618617841 0.29451964659070229 0 -0.1406663384163003 0.28064614464473903 0 -0.1646881156751879 0.2988372638038268 0 -0.1551406313297054 0.30559250972024699 0 -0.14886491641959701 0.29769653297286119 0 -0.15227418085697991 0.31502886575503092 0 -0.1551406313297054 0.30559250972024699 0 -0.14766246441412681 0.3065433675273786 0 -0.1551406313297054 0.30559250972024699 0 -0.14886491641959701 0.29769653297286119 0 -0.14766246441412681 0.3065433675273786 0 -0.14886491641959701 0.29769653297286119 0 -0.1413823614074167 0.30171545368253649 0 -0.14766246441412681 0.3065433675273786 0 -0.14485844618617841 0.29451964659070229 0 -0.14886491641959701 0.29769653297286119 0 -0.1413823614074167 0.30171545368253649 0 -0.14117379783119521 0.31455915124218392 0 -0.14766246441412681 0.3065433675273786 0 -0.138515838452963 0.30719457162604202 0 -0.14117379783119521 0.31455915124218392 0 -0.15227418085697991 0.31502886575503092 0 -0.14766246441412681 0.3065433675273786 0 -0.1413823614074167 0.30171545368253649 0 -0.14766246441412681 0.3065433675273786 0 -0.138515838452963 0.30719457162604202 0 -0.14485844618617841 0.29451964659070229 0 -0.1413823614074167 0.30171545368253649 0 -0.12701014156421819 0.30262314969569842 0 -0.12932394091554861 0.31885650945505761 0 -0.13330191435783509 0.31065133313023668 0 -0.12701014156421819 0.30262314969569842 0 -0.14485844618617841 0.29451964659070229 0 -0.12701014156421819 0.30262314969569842 0 -0.14117379783119521 0.31455915124218392 0 -0.138515838452963 0.30719457162604202 0 -0.13330191435783509 0.31065133313023668 0 -0.138515838452963 0.30719457162604202 0 -0.13330191435783509 0.31065133313023668 0 -0.12701014156421819 0.30262314969569842 0 -0.1413823614074167 0.30171545368253649 0 -0.138515838452963 0.30719457162604202 0 -0.12701014156421819 0.30262314969569842 0 -0.12701014156421819 0.30262314969569842 0 -0.1321621514173428 0.29187200718436113 0 -0.14485844618617841 0.29451964659070229 0 -0.12701014156421819 0.30262314969569842 0 -0.1321621514173428 0.29187200718436113 0 -0.14485844618617841 0.29451964659070229 0 -0.12648551561544941 0.27995103393918902 0 -0.1406663384163003 0.28064614464473903 0 -0.14485844618617841 0.29451964659070229 0 -0.12648551561544941 0.27995103393918902 0 -0.14485844618617841 0.29451964659070229 0 -0.1321621514173428 0.29187200718436113 0 -0.12648551561544941 0.27995103393918902 0 -0.12701014156421819 0.30262314969569842 0 -0.1321621514173428 0.29187200718436113 0 -0.1172889139204244 0.29062801409630701 0 -0.1321621514173428 0.29187200718436113 0 -0.12648551561544941 0.27995103393918902 0 -0.1172889139204244 0.29062801409630701 0 -0.12648551561544941 0.27995103393918902 0 -0.12981328336705 0.26969280123045009 0 -0.1406663384163003 0.28064614464473903 0 -0.13205824862631149 0.25781386204121309 0 -0.14548168625616259 0.24581136689616459 0 -0.12239846071040809 0.24920872385165541 0 -0.12981328336705 0.26969280123045009 0 -0.13205824862631149 0.25781386204121309 0 -0.1205564568069222 0.25944460472600878 0 -0.13205824862631149 0.25781386204121309 0 -0.1205564568069222 0.25944460472600878 0 -0.12239846071040809 0.24920872385165541 0 -0.13205824862631149 0.25781386204121309 0 -0.14309467573632839 0.26130760555105531 0 -0.14548168625616259 0.24581136689616459 0 -0.12981328336705 0.26969280123045009 0 -0.13205824862631149 0.25781386204121309 0 -0.14309467573632839 0.26130760555105531 0 -0.1584297322636746 0.26031430093366159 0 -0.14309467573632839 0.26130760555105531 0 -0.14548168625616259 0.24581136689616459 0 -0.1584297322636746 0.26031430093366159 0 -0.14309467573632839 0.26130760555105531 0 -0.1515139816893793 0.27400318117322481 0 -0.12981328336705 0.26969280123045009 0 -0.14309467573632839 0.26130760555105531 0 -0.1515139816893793 0.27400318117322481 0 -0.12981328336705 0.26969280123045009 0 -0.1515139816893793 0.27400318117322481 0 -0.1406663384163003 0.28064614464473903 0 -0.12981328336705 0.26969280123045009 0 -0.1515139816893793 0.27400318117322481 0 -0.15160583778667741 0.2831383099384609 0 -0.1515139816893793 0.27400318117322481 0 -0.1406663384163003 0.28064614464473903 0 -0.096054554386385577 0.26298735119697891 0 -0.1081125850447207 0.26538242128767547 0 -0.098502194110174843 0.28366356268430948 0 -0.096054554386385577 0.26298735119697891 0 -0.098502194110174843 0.28366356268430948 0 -0.1081125850447207 0.26538242128767547 0 -0.1125973021726924 0.27990625800187019 0 -0.098502194110174843 0.28366356268430948 0 -0.095118341533690268 0.25507877921583277 0 -0.1081125850447207 0.26538242128767547 0 -0.1107955376595843 0.25477349258218562 0 -0.096054554386385577 0.26298735119697891 0 -0.095118341533690268 0.25507877921583277 0 -0.095118341533690268 0.25507877921583277 0 -0.1107955376595843 0.25477349258218562 0 -0.1077918442021823 0.24475293382975541 0 -0.096054554386385577 0.26298735119697891 0 -0.095118341533690268 0.25507877921583277 0 -0.1081125850447207 0.26538242128767547 0 -0.095118341533690268 0.25507877921583277 0 -0.1081125850447207 0.26538242128767547 0 -0.096054554386385577 0.26298735119697891 0 -0.1081125850447207 0.26538242128767547 0 -0.12981328336705 0.26969280123045009 0 -0.1081125850447207 0.26538242128767547 0 -0.1205564568069222 0.25944460472600878 0 -0.1081125850447207 0.26538242128767547 0 -0.1107955376595843 0.25477349258218562 0 -0.1205564568069222 0.25944460472600878 0 -0.1107955376595843 0.25477349258218562 0 -0.1205564568069222 0.25944460472600878 0 -0.12239846071040809 0.24920872385165541 0 -0.12648551561544941 0.27995103393918902 0 -0.1081125850447207 0.26538242128767547 0 -0.12648551561544941 0.27995103393918902 0 -0.1081125850447207 0.26538242128767547 0 -0.1125973021726924 0.27990625800187019 0 -0.12648551561544941 0.27995103393918902 0 -0.12981328336705 0.26969280123045009 0 -0.1081125850447207 0.26538242128767547 0 -0.12981328336705 0.26969280123045009 0 -0.1081125850447207 0.26538242128767547 0 -0.12648551561544941 0.27995103393918902 0 -0.1125973021726924 0.27990625800187019 0 -0.1172889139204244 0.29062801409630701 0 -0.1125973021726924 0.27990625800187019 0 -0.1172889139204244 0.29062801409630701 0 -0.098502194110174843 0.28366356268430948 0 -0.12701014156421819 0.30262314969569842 0 -0.1172889139204244 0.29062801409630701 0 -0.1037541331188916 0.2980370398924726 0 -0.12701014156421819 0.30262314969569842 0 -0.1037541331188916 0.2980370398924726 0 -0.1034142099450754 0.31333619551102759 0 -0.12701014156421819 0.30262314969569842 0 -0.1034142099450754 0.31333619551102759 0 -0.1037541331188916 0.2980370398924726 0 -0.088033847755895844 0.30279958465283802 0 -0.1034142099450754 0.31333619551102759 0 -0.1037541331188916 0.2980370398924726 0 -0.098502194110174843 0.28366356268430948 0 -0.088033847755895844 0.30279958465283802 0 -0.1172889139204244 0.29062801409630701 0 -0.1037541331188916 0.2980370398924726 0 -0.098502194110174843 0.28366356268430948 0 -0.098502194110174843 0.28366356268430948 0 -0.088033847755895844 0.30279958465283802 0 -0.076814276400449744 0.28742660237262768 0 -0.098502194110174843 0.28366356268430948 0 -0.076814276400449744 0.28742660237262768 0 -0.08488422002937851 0.27359806280567428 0 -0.088033847755895844 0.30279958465283802 0 -0.065564674949872684 0.30603865125947061 0 -0.079818278325932634 0.32404924132635682 0 -0.088033847755895844 0.30279958465283802 0 -0.065564674949872684 0.30603865125947061 0 -0.076814276400449744 0.28742660237262768 0 -0.065564674949872684 0.30603865125947061 0 -0.076814276400449744 0.28742660237262768 0 -0.053017199562786443 0.28187263881364177 0 -0.076814276400449744 0.28742660237262768 0 -0.070133679365689552 0.26867644757707898 0 -0.08488422002937851 0.27359806280567428 0 -0.076814276400449744 0.28742660237262768 0 -0.070133679365689552 0.26867644757707898 0 -0.053017199562786443 0.28187263881364177 0 -0.096054554386385577 0.26298735119697891 0 -0.098502194110174843 0.28366356268430948 0 -0.08488422002937851 0.27359806280567428 0 -0.070133679365689552 0.26867644757707898 0 -0.08488422002937851 0.27359806280567428 0 -0.080154621318093006 0.25982916930020022 0 -0.096054554386385577 0.26298735119697891 0 -0.095118341533690268 0.25507877921583277 0 -0.080154621318093006 0.25982916930020022 0 -0.096054554386385577 0.26298735119697891 0 -0.080154621318093006 0.25982916930020022 0 -0.095118341533690268 0.25507877921583277 0 -0.080154621318093006 0.25982916930020022 0 -0.077333197375133444 0.24097624531684669 0 -0.096054554386385577 0.26298735119697891 0 -0.08488422002937851 0.27359806280567428 0 -0.080154621318093006 0.25982916930020022 0 -0.070133679365689552 0.26867644757707898 0 -0.080154621318093006 0.25982916930020022 0 -0.064254688249800379 0.25667098740342192 0 -0.080154621318093006 0.25982916930020022 0 -0.064254688249800379 0.25667098740342192 0 -0.077333197375133444 0.24097624531684669 0 -0.080154621318093006 0.25982916930020022 0 -0.064254688249800379 0.25667098740342192 0 -0.070133679365689552 0.26867644757707898 0 -0.062757023430971379 0.25752841825603962 0 -0.064254688249800379 0.25667098740342192 0 -0.062757023430971379 0.25752841825603962 0 -0.045372874053630351 0.26356861235578238 0 -0.052881971493888867 0.24751266973014979 0 -0.062757023430971379 0.25752841825603962 0 -0.064254688249800379 0.25667098740342192 0 -0.052881971493888867 0.24751266973014979 0 -0.070133679365689552 0.26867644757707898 0 -0.062757023430971379 0.25752841825603962 0 -0.053017199562786443 0.28187263881364177 0 -0.062757023430971379 0.25752841825603962 0 -0.045372874053630351 0.26356861235578238 0 -0.053017199562786443 0.28187263881364177 0 -0.062757023430971379 0.25752841825603962 0 -0.053017199562786443 0.28187263881364177 0 -0.045372874053630351 0.26356861235578238 0 -0.030905506094596271 0.27222730248973759 0 -0.053017199562786443 0.28187263881364177 0 -0.045372874053630351 0.26356861235578238 0 -0.028430745612644661 0.25404909414345389 0 -0.052881971493888867 0.24751266973014979 0 -0.045372874053630351 0.26356861235578238 0 -0.028430745612644661 0.25404909414345389 0 -0.030905506094596271 0.27222730248973759 0 -0.028430745612644661 0.25404909414345389 0 -0.052881971493888867 0.24751266973014979 0 -0.028430745612644661 0.25404909414345389 0 -0.01353007234780859 0.26055202432608088 0 -0.016072689309413999 0.24082991343790081 0 -0.028430745612644661 0.25404909414345389 0 -0.030905506094596271 0.27222730248973759 0 -0.01353007234780859 0.26055202432608088 0 -0.030905506094596271 0.27222730248973759 0 -0.01441201617890675 0.2806593130904535 0 -0.01353007234780859 0.26055202432608088 0 -0.01441201617890675 0.2806593130904535 0 -0.01353007234780859 0.26055202432608088 0 0.0076965934919400961 0.26915301454252388 0 -0.01441201617890675 0.2806593130904535 0 -0.003227979543891877 0.2930284770625457 0 0.0076965934919400961 0.26915301454252388 0 -0.01353007234780859 0.26055202432608088 0 -0.00045679976148860701 0.24809875771850209 0 0.0076965934919400961 0.26915301454252388 0 -0.015436342006023141 0.3043878247029288 0 -0.003227979543891877 0.2930284770625457 0 -0.002441496602033208 0.31402100451125609 0 -0.01441201617890675 0.2806593130904535 0 -0.015436342006023141 0.3043878247029288 0 -0.003227979543891877 0.2930284770625457 0 -0.01441201617890675 0.2806593130904535 0 -0.015436342006023141 0.3043878247029288 0 -0.01441201617890675 0.2806593130904535 0 -0.015436342006023141 0.3043878247029288 0 -0.030670128811800829 0.29266213220901338 0 -0.030905506094596271 0.27222730248973759 0 -0.01441201617890675 0.2806593130904535 0 -0.030670128811800829 0.29266213220901338 0 -0.015436342006023141 0.3043878247029288 0 -0.030670128811800829 0.29266213220901338 0 -0.028441827201914311 0.31149310572219302 0 -0.030670128811800829 0.29266213220901338 0 -0.028441827201914311 0.31149310572219302 0 -0.043277375694601522 0.30621685937124399 0 -0.030670128811800829 0.29266213220901338 0 -0.043277375694601522 0.30621685937124399 0 -0.053017199562786443 0.28187263881364177 0 -0.030905506094596271 0.27222730248973759 0 -0.030670128811800829 0.29266213220901338 0 -0.053017199562786443 0.28187263881364177 0 -0.043277375694601522 0.30621685937124399 0 -0.053017199562786443 0.28187263881364177 0 -0.065564674949872684 0.30603865125947061 0 -0.043277375694601522 0.30621685937124399 0 -0.053017199562786443 0.28187263881364177 0 -0.065564674949872684 0.30603865125947061 0 -0.043277375694601522 0.30621685937124399 0 -0.05162230471562218 0.32367606533028398 0 -0.05162230471562218 0.32367606533028398 0 -0.059326428535272147 0.3409821215877411 0 -0.043191861586496919 0.34579653066351568 0 -0.05162230471562218 0.32367606533028398 0 -0.033537551826416552 0.33056107992884631 0 -0.043191861586496919 0.34579653066351568 0 -0.028441827201914311 0.31149310572219302 0 -0.043277375694601522 0.30621685937124399 0 -0.033537551826416552 0.33056107992884631 0 -0.043277375694601522 0.30621685937124399 0 -0.033537551826416552 0.33056107992884631 0 -0.043277375694601522 0.30621685937124399 0 -0.05162230471562218 0.32367606533028398 0 -0.033537551826416552 0.33056107992884631 0 -0.015436342006023141 0.3043878247029288 0 -0.016460667833139521 0.32811633631540399 0 -0.028441827201914311 0.31149310572219302 0 -0.033537551826416552 0.33056107992884631 0 -0.016460667833139521 0.32811633631540399 0 -0.015436342006023141 0.3043878247029288 0 -0.028441827201914311 0.31149310572219302 0 -0.016460667833139521 0.32811633631540399 0 -0.033537551826416552 0.33056107992884631 0 -0.016460667833139521 0.32811633631540399 0 -0.02316103986679794 0.3405444371870282 0 -0.016460667833139521 0.32811633631540399 0 -0.017484993660256722 0.3518448479278794 0 -0.033537551826416552 0.33056107992884631 0 -0.02379772795823518 0.35490530048645019 0 -0.033537551826416552 0.33056107992884631 0 -0.02316103986679794 0.3405444371870282 0 -0.02379772795823518 0.35490530048645019 0 -0.016460667833139521 0.32811633631540399 0 -0.02316103986679794 0.3405444371870282 0 -0.017484993660256722 0.3518448479278794 0 -0.002697893735798772 0.33006307357789327 0 -0.017484993660256722 0.3518448479278794 0 0.0086928153310342343 0.33915368452331762 0 -0.016460667833139521 0.32811633631540399 0 -0.002697893735798772 0.33006307357789327 0 -0.017484993660256722 0.3518448479278794 0 -0.016460667833139521 0.32811633631540399 0 -0.002697893735798772 0.33006307357789327 0 -0.002441496602033208 0.31402100451125609 0 -0.015436342006023141 0.3043878247029288 0 -0.016460667833139521 0.32811633631540399 0 -0.002441496602033208 0.31402100451125609 0 -0.01298845703962298 0.35974321345150378 0 0.0064616500294893166 0.37590280414288318 0 -0.01298845703962298 0.35974321345150378 0 0.0064616500294893166 0.37590280414288318 0 0.0053995666687935966 0.3573960307483004 0 -0.01298845703962298 0.35974321345150378 0 -0.0066720667952192923 0.37360948796106253 0 0.0064616500294893166 0.37590280414288318 0 -0.01298845703962298 0.35974321345150378 0 -0.01348445599382808 0.37010593841236561 0 -0.01821903720090046 0.36884896928961269 0 -0.01298845703962298 0.35974321345150378 0 -0.01348445599382808 0.37010593841236561 0 -0.0066720667952192923 0.37360948796106253 0 -0.01348445599382808 0.37010593841236561 0 -0.01444046291139898 0.37295046248379021 0 -0.01836170820937566 0.37215394373402322 0 -0.01444046291139898 0.37295046248379021 0 -0.016070446726766479 0.37359254619603799 0 -0.014464353601989961 0.37565634894642752 0 -0.01348445599382808 0.37010593841236561 0 -0.01444046291139898 0.37295046248379021 0 -0.01155362819535294 0.37367029465570212 0 -0.01444046291139898 0.37295046248379021 0 -0.01155362819535294 0.37367029465570212 0 -0.014464353601989961 0.37565634894642752 0 -0.01348445599382808 0.37010593841236561 0 -0.01155362819535294 0.37367029465570212 0 -0.0066720667952192923 0.37360948796106253 0 -0.017484993660256722 0.3518448479278794 0 0.0086928153310342343 0.33915368452331762 0 -0.017484993660256722 0.3518448479278794 0 0.0053995666687935966 0.3573960307483004 0 0.0086928153310342343 0.33915368452331762 0 -0.01298845703962298 0.35974321345150378 0 -0.017484993660256722 0.3518448479278794 0 0.0053995666687935966 0.3573960307483004 0 -0.017484993660256722 0.3518448479278794 0 -0.02379772795823518 0.35490530048645019 0 -0.01821903720090046 0.36884896928961269 0 -0.017484993660256722 0.3518448479278794 0 -0.02379772795823518 0.35490530048645019 0 -0.02316103986679794 0.3405444371870282 0 -0.017484993660256722 0.3518448479278794 0 -0.02379772795823518 0.35490530048645019 0 -0.02379772795823518 0.35490530048645019 0 -0.02702628424760806 0.37002643043231642 0 -0.042708578203073153 0.36407339742902622 0 -0.017484993660256722 0.3518448479278794 0 -0.01821903720090046 0.36884896928961269 0 -0.01298845703962298 0.35974321345150378 0 -0.017484993660256722 0.3518448479278794 0 -0.01821903720090046 0.36884896928961269 0 -0.02379772795823518 0.35490530048645019 0 -0.01821903720090046 0.36884896928961269 0 -0.02379772795823518 0.35490530048645019 0 -0.01821903720090046 0.36884896928961269 0 -0.02702628424760806 0.37002643043231642 0 -0.01821903720090046 0.36884896928961269 0 -0.022034907257985029 0.37195692518126711 0 -0.02702628424760806 0.37002643043231642 0 -0.01444046291139898 0.37295046248379021 0 -0.01836170820937566 0.37215394373402322 0 -0.016070446726766479 0.37359254619603799 0 -0.01836170820937566 0.37215394373402322 0 -0.019500397764489089 0.37432995690158982 0 -0.017034618856495421 0.37502202355730091 0 -0.016070446726766479 0.37359254619603799 0 -0.017034618856495421 0.37502202355730091 0 -0.014464353601989961 0.37565634894642752 0 -0.01836170820937566 0.37215394373402322 0 -0.016070446726766479 0.37359254619603799 0 -0.017034618856495421 0.37502202355730091 0 -0.01348445599382808 0.37010593841236561 0 -0.01836170820937566 0.37215394373402322 0 -0.01821903720090046 0.36884896928961269 0 -0.01836170820937566 0.37215394373402322 0 -0.01821903720090046 0.36884896928961269 0 -0.01836170820937566 0.37215394373402322 0 -0.01821903720090046 0.36884896928961269 0 -0.022034907257985029 0.37195692518126711 0 -0.01836170820937566 0.37215394373402322 0 -0.019500397764489089 0.37432995690158982 0 -0.022034907257985029 0.37195692518126711 0 -0.019500397764489089 0.37432995690158982 0 -0.022034907257985029 0.37195692518126711 0 -0.02276380427485284 0.37584067803819537 0 -0.022034907257985029 0.37195692518126711 0 -0.02702628424760806 0.37002643043231642 0 -0.02276380427485284 0.37584067803819537 0 -0.02379772795823518 0.35490530048645019 0 -0.042708578203073153 0.36407339742902622 0 -0.02702628424760806 0.37002643043231642 0 -0.042708578203073153 0.36407339742902622 0 -0.036327028634482922 0.37529465541912599 0 -0.042708578203073153 0.36407339742902622 0 -0.049081901540940699 0.37953421683033378 0 -0.036327028634482922 0.37529465541912599 0 -0.033537551826416552 0.33056107992884631 0 -0.02379772795823518 0.35490530048645019 0 -0.043191861586496919 0.34579653066351568 0 -0.02379772795823518 0.35490530048645019 0 -0.042708578203073153 0.36407339742902622 0 -0.043191861586496919 0.34579653066351568 0 -0.059326428535272147 0.3409821215877411 0 -0.043191861586496919 0.34579653066351568 0 -0.057470228042752779 0.35771240227543938 0 -0.042708578203073153 0.36407339742902622 0 -0.043191861586496919 0.34579653066351568 0 -0.057470228042752779 0.35771240227543938 0 -0.042708578203073153 0.36407339742902622 0 -0.061619428447911018 0.37324149437160242 0 -0.042708578203073153 0.36407339742902622 0 -0.057470228042752779 0.35771240227543938 0 -0.061619428447911018 0.37324149437160242 0 -0.042708578203073153 0.36407339742902622 0 -0.061619428447911018 0.37324149437160242 0 -0.049081901540940699 0.37953421683033378 0 -0.061619428447911018 0.37324149437160242 0 -0.078263617492921128 0.36485278809800858 0 -0.080530278692748869 0.38240959131417862 0 -0.057470228042752779 0.35771240227543938 0 -0.061619428447911018 0.37324149437160242 0 -0.078263617492921128 0.36485278809800858 0 -0.078263617492921128 0.36485278809800858 0 -0.1024703339125687 0.35383247902251957 0 -0.090200430086744041 0.37943714368593018 0 -0.078263617492921128 0.36485278809800858 0 -0.07838025158432442 0.34473518868353109 0 -0.1024703339125687 0.35383247902251957 0 -0.057470228042752779 0.35771240227543938 0 -0.078263617492921128 0.36485278809800858 0 -0.07838025158432442 0.34473518868353109 0 -0.059326428535272147 0.3409821215877411 0 -0.057470228042752779 0.35771240227543938 0 -0.07838025158432442 0.34473518868353109 0 -0.05162230471562218 0.32367606533028398 0 -0.059326428535272147 0.3409821215877411 0 -0.079818278325932634 0.32404924132635682 0 -0.059326428535272147 0.3409821215877411 0 -0.07838025158432442 0.34473518868353109 0 -0.079818278325932634 0.32404924132635682 0 -0.065564674949872684 0.30603865125947061 0 -0.05162230471562218 0.32367606533028398 0 -0.079818278325932634 0.32404924132635682 0 -0.079818278325932634 0.32404924132635682 0 -0.095546813139354314 0.33238586962747912 0 -0.1034142099450754 0.31333619551102759 0 -0.079818278325932634 0.32404924132635682 0 -0.1034142099450754 0.31333619551102759 0 -0.088033847755895844 0.30279958465283802 0 -0.079818278325932634 0.32404924132635682 0 -0.1034142099450754 0.31333619551102759 0 -0.07838025158432442 0.34473518868353109 0 -0.095546813139354314 0.33238586962747912 0 -0.1024703339125687 0.35383247902251957 0 -0.07838025158432442 0.34473518868353109 0 -0.079818278325932634 0.32404924132635682 0 -0.095546813139354314 0.33238586962747912 0 -0.095546813139354314 0.33238586962747912 0 -0.11474023773839349 0.32822781435910903 0 -0.1024703339125687 0.35383247902251957 0 -0.11474023773839349 0.32822781435910903 0 -0.1024703339125687 0.35383247902251957 0 -0.095546813139354314 0.33238586962747912 0 -0.1034142099450754 0.31333619551102759 0 -0.11474023773839349 0.32822781435910903 0 -0.12701014156421819 0.30262314969569842 0 -0.11474023773839349 0.32822781435910903 0 -0.12701014156421819 0.30262314969569842 0 -0.1034142099450754 0.31333619551102759 0 -0.11474023773839349 0.32822781435910903 0 -0.12932394091554861 0.31885650945505761 0 -0.12701014156421819 0.30262314969569842 0 -0.11474023773839349 0.32822781435910903 0 -0.1301315718582082 0.34852002884837258 0 -0.11474023773839349 0.32822781435910903 0 -0.1024703339125687 0.35383247902251957 0 -0.1301315718582082 0.34852002884837258 0 -0.1183129240464134 0.36183617403739649 0 -0.1024703339125687 0.35383247902251957 0 -0.1316688985582615 0.37395036026003298 0 -0.1183129240464134 0.36183617403739649 0 -0.1064972718629514 0.3717967988509232 0 -0.1024703339125687 0.35383247902251957 0 -0.090200430086744041 0.37943714368593018 0 -0.1183129240464134 0.36183617403739649 0 -0.1064972718629514 0.3717967988509232 0 -0.1024703339125687 0.35383247902251957 0 -0.1064972718629514 0.3717967988509232 0 -0.1024703339125687 0.35383247902251957 0 -0.090200430086744041 0.37943714368593018 0 -0.096986051875403004 0.38598496006916211 0 -0.1107841035827119 0.38781738509197528 0 -0.089899308607162276 0.40168440992391768 0 -0.1107841035827119 0.38781738509197528 0 -0.089899308607162276 0.40168440992391768 0 -0.1107841035827119 0.38781738509197528 0 -0.1048334080172154 0.4109464963926247 0 -0.089899308607162276 0.40168440992391768 0 -0.1064972718629514 0.3717967988509232 0 -0.096986051875403004 0.38598496006916211 0 -0.090200430086744041 0.37943714368593018 0 -0.1064972718629514 0.3717967988509232 0 -0.096986051875403004 0.38598496006916211 0 -0.1107841035827119 0.38781738509197528 0 -0.12913571711656729 0.39128712338514521 0 -0.1316688985582615 0.37395036026003298 0 -0.1107841035827119 0.38781738509197528 0 -0.1316688985582615 0.37395036026003298 0 -0.1107841035827119 0.38781738509197528 0 -0.1316688985582615 0.37395036026003298 0 -0.1064972718629514 0.3717967988509232 0 -0.1107841035827119 0.38781738509197528 0 -0.1107841035827119 0.38781738509197528 0 -0.12084292977616209 0.40220559262365357 0 -0.1048334080172154 0.4109464963926247 0 -0.12913571711656729 0.39128712338514521 0 -0.1107841035827119 0.38781738509197528 0 -0.12084292977616209 0.40220559262365357 0 -0.12084292977616209 0.40220559262365357 0 -0.1191954370207851 0.42244219748149592 0 -0.1048334080172154 0.4109464963926247 0 -0.1191954370207851 0.42244219748149592 0 -0.1024823546010096 0.42672768074767781 0 -0.1117848312341921 0.44086240774873342 0 -0.13448153792001111 0.43701302413473381 0 -0.1191954370207851 0.42244219748149592 0 -0.1117848312341921 0.44086240774873342 0 -0.1024823546010096 0.42672768074767781 0 -0.094219926621094685 0.43462278907053248 0 -0.086188278932907189 0.42339358902716168 0 -0.1024823546010096 0.42672768074767781 0 -0.094219926621094685 0.43462278907053248 0 -0.1117848312341921 0.44086240774873342 0 -0.1024823546010096 0.42672768074767781 0 -0.1048334080172154 0.4109464963926247 0 -0.086188278932907189 0.42339358902716168 0 -0.1191954370207851 0.42244219748149592 0 -0.1024823546010096 0.42672768074767781 0 -0.1048334080172154 0.4109464963926247 0 -0.1048334080172154 0.4109464963926247 0 -0.086188278932907189 0.42339358902716168 0 -0.089899308607162276 0.40168440992391768 0 -0.086188278932907189 0.42339358902716168 0 -0.075527355789384104 0.41318542108875889 0 -0.089899308607162276 0.40168440992391768 0 -0.094219926621094685 0.43462278907053248 0 -0.086188278932907189 0.42339358902716168 0 -0.08155604378899145 0.43741847646635651 0 -0.086188278932907189 0.42339358902716168 0 -0.08155604378899145 0.43741847646635651 0 -0.071786573188817079 0.42803613000021451 0 -0.08155604378899145 0.43741847646635651 0 -0.071786573188817079 0.42803613000021451 0 -0.065957804293597308 0.44123940949751972 0 -0.071786573188817079 0.42803613000021451 0 -0.061083500341701277 0.42054052117937418 0 -0.056961782541193287 0.43360255886829752 0 -0.071786573188817079 0.42803613000021451 0 -0.056961782541193287 0.43360255886829752 0 -0.065957804293597308 0.44123940949751972 0 -0.086188278932907189 0.42339358902716168 0 -0.071786573188817079 0.42803613000021451 0 -0.075527355789384104 0.41318542108875889 0 -0.071786573188817079 0.42803613000021451 0 -0.075527355789384104 0.41318542108875889 0 -0.061083500341701277 0.42054052117937418 0 -0.075527355789384104 0.41318542108875889 0 -0.064393724440175354 0.4091178353577905 0 -0.061083500341701277 0.42054052117937418 0 -0.075527355789384104 0.41318542108875889 0 -0.064393724440175354 0.4091178353577905 0 -0.07786416697828405 0.39573941743605268 0 -0.064393724440175354 0.4091178353577905 0 -0.066006156058392232 0.39682441401930479 0 -0.07786416697828405 0.39573941743605268 0 -0.066006156058392232 0.39682441401930479 0 -0.07786416697828405 0.39573941743605268 0 -0.066627839548182424 0.38547948324932618 0 -0.075527355789384104 0.41318542108875889 0 -0.07786416697828405 0.39573941743605268 0 -0.089899308607162276 0.40168440992391768 0 -0.096986051875403004 0.38598496006916211 0 -0.089899308607162276 0.40168440992391768 0 -0.087549145237445447 0.38918906279306409 0 -0.07786416697828405 0.39573941743605268 0 -0.089899308607162276 0.40168440992391768 0 -0.087549145237445447 0.38918906279306409 0 -0.078263617492921128 0.36485278809800858 0 -0.090200430086744041 0.37943714368593018 0 -0.080530278692748869 0.38240959131417862 0 -0.096986051875403004 0.38598496006916211 0 -0.090200430086744041 0.37943714368593018 0 -0.087549145237445447 0.38918906279306409 0 -0.090200430086744041 0.37943714368593018 0 -0.087549145237445447 0.38918906279306409 0 -0.080530278692748869 0.38240959131417862 0 -0.07786416697828405 0.39573941743605268 0 -0.087549145237445447 0.38918906279306409 0 -0.080530278692748869 0.38240959131417862 0 -0.061619428447911018 0.37324149437160242 0 -0.080530278692748869 0.38240959131417862 0 -0.061619428447911018 0.37324149437160242 0 -0.080530278692748869 0.38240959131417862 0 -0.066627839548182424 0.38547948324932618 0 -0.07786416697828405 0.39573941743605268 0 -0.080530278692748869 0.38240959131417862 0 -0.066627839548182424 0.38547948324932618 0 -0.066627839548182424 0.38547948324932618 0 -0.049081901540940699 0.37953421683033378 0 -0.050851512412925397 0.39449939793314431 0 -0.061619428447911018 0.37324149437160242 0 -0.066627839548182424 0.38547948324932618 0 -0.049081901540940699 0.37953421683033378 0 -0.064393724440175354 0.4091178353577905 0 -0.050851512412925397 0.39449939793314431 0 -0.050883074489459272 0.410989792393885 0 -0.066006156058392232 0.39682441401930479 0 -0.066627839548182424 0.38547948324932618 0 -0.050851512412925397 0.39449939793314431 0 -0.064393724440175354 0.4091178353577905 0 -0.066006156058392232 0.39682441401930479 0 -0.050851512412925397 0.39449939793314431 0 -0.050851512412925397 0.39449939793314431 0 -0.038730707949088741 0.39885269589167532 0 -0.050883074489459272 0.410989792393885 0 -0.050851512412925397 0.39449939793314431 0 -0.038730707949088741 0.39885269589167532 0 -0.036357021999069282 0.38461687257977761 0 -0.038730707949088741 0.39885269589167532 0 -0.036357021999069282 0.38461687257977761 0 -0.02620174394578053 0.39158762504428207 0 -0.038730707949088741 0.39885269589167532 0 -0.02620174394578053 0.39158762504428207 0 -0.030964451969007181 0.40505617028186403 0 -0.038730707949088741 0.39885269589167532 0 -0.030964451969007181 0.40505617028186403 0 -0.039149548416679357 0.41271897355877601 0 -0.049081901540940699 0.37953421683033378 0 -0.036357021999069282 0.38461687257977761 0 -0.036327028634482922 0.37529465541912599 0 -0.049081901540940699 0.37953421683033378 0 -0.050851512412925397 0.39449939793314431 0 -0.036357021999069282 0.38461687257977761 0 -0.036357021999069282 0.38461687257977761 0 -0.036327028634482922 0.37529465541912599 0 -0.0277509215932711 0.37972047834118727 0 -0.02702628424760806 0.37002643043231642 0 -0.036327028634482922 0.37529465541912599 0 -0.0277509215932711 0.37972047834118727 0 -0.02702628424760806 0.37002643043231642 0 -0.0277509215932711 0.37972047834118727 0 -0.02276380427485284 0.37584067803819537 0 -0.0277509215932711 0.37972047834118727 0 -0.02276380427485284 0.37584067803819537 0 -0.020837352826514971 0.38197056265722928 0 -0.02276380427485284 0.37584067803819537 0 -0.020837352826514971 0.38197056265722928 0 -0.019228795013316081 0.377213278542604 0 -0.019500397764489089 0.37432995690158982 0 -0.02276380427485284 0.37584067803819537 0 -0.019228795013316081 0.377213278542604 0 -0.020837352826514971 0.38197056265722928 0 -0.01613256176106187 0.37870695065856858 0 -0.019228795013316081 0.377213278542604 0 -0.020837352826514971 0.38197056265722928 0 -0.01613256176106187 0.37870695065856858 0 -0.01480833564022062 0.38349446184985048 0 -0.01613256176106187 0.37870695065856858 0 -0.017034618856495421 0.37502202355730091 0 -0.019228795013316081 0.377213278542604 0 -0.01613256176106187 0.37870695065856858 0 -0.017034618856495421 0.37502202355730091 0 -0.014464353601989961 0.37565634894642752 0 -0.019500397764489089 0.37432995690158982 0 -0.017034618856495421 0.37502202355730091 0 -0.019228795013316081 0.377213278542604 0 -0.020837352826514971 0.38197056265722928 0 -0.01709991518037348 0.3908870101690809 0 -0.01480833564022062 0.38349446184985048 0 -0.020837352826514971 0.38197056265722928 0 -0.02620174394578053 0.39158762504428207 0 -0.01709991518037348 0.3908870101690809 0 -0.036357021999069282 0.38461687257977761 0 -0.0277509215932711 0.37972047834118727 0 -0.02620174394578053 0.39158762504428207 0 -0.0277509215932711 0.37972047834118727 0 -0.020837352826514971 0.38197056265722928 0 -0.02620174394578053 0.39158762504428207 0 -0.02620174394578053 0.39158762504428207 0 -0.030964451969007181 0.40505617028186403 0 -0.01941730521571311 0.40396508601932291 0 -0.01941730521571311 0.40396508601932291 0 -0.01709991518037348 0.3908870101690809 0 -0.01091218200410596 0.39738256474865868 0 -0.02620174394578053 0.39158762504428207 0 -0.01941730521571311 0.40396508601932291 0 -0.01709991518037348 0.3908870101690809 0 -0.01709991518037348 0.3908870101690809 0 -0.01091218200410596 0.39738256474865868 0 -0.0089892299431857167 0.38814435242507361 0 -0.01941730521571311 0.40396508601932291 0 -0.01091218200410596 0.39738256474865868 0 -0.0072800668744587137 0.40727001201776891 0 -0.01091218200410596 0.39738256474865868 0 -0.0022908109905751309 0.39614741140520843 0 -0.0072800668744587137 0.40727001201776891 0 -0.0022908109905751309 0.39614741140520843 0 -0.0072800668744587137 0.40727001201776891 0 0.0065146757135608191 0.40661753301827669 0 -0.01091218200410596 0.39738256474865868 0 -0.0022908109905751309 0.39614741140520843 0 -0.0089892299431857167 0.38814435242507361 0 -0.0022908109905751309 0.39614741140520843 0 -0.0014178203071608399 0.38460551199721982 0 -0.0089892299431857167 0.38814435242507361 0 -0.0014178203071608399 0.38460551199721982 0 -0.01060083049011689 0.37971266172301232 0 -0.0089892299431857167 0.38814435242507361 0 -0.0066720667952192923 0.37360948796106253 0 -0.0014178203071608399 0.38460551199721982 0 0.0064616500294893166 0.37590280414288318 0 -0.0066720667952192923 0.37360948796106253 0 -0.0014178203071608399 0.38460551199721982 0 -0.01060083049011689 0.37971266172301232 0 -0.01155362819535294 0.37367029465570212 0 -0.0066720667952192923 0.37360948796106253 0 -0.01060083049011689 0.37971266172301232 0 -0.01155362819535294 0.37367029465570212 0 -0.01060083049011689 0.37971266172301232 0 -0.014464353601989961 0.37565634894642752 0 -0.01613256176106187 0.37870695065856858 0 -0.01060083049011689 0.37971266172301232 0 -0.014464353601989961 0.37565634894642752 0 -0.01613256176106187 0.37870695065856858 0 -0.01060083049011689 0.37971266172301232 0 -0.01480833564022062 0.38349446184985048 0 -0.01060083049011689 0.37971266172301232 0 -0.0089892299431857167 0.38814435242507361 0 -0.01480833564022062 0.38349446184985048 0 -0.01709991518037348 0.3908870101690809 0 -0.0089892299431857167 0.38814435242507361 0 -0.01480833564022062 0.38349446184985048 0 -0.0047535049403858321 0.43159789699643453 0 -0.01304268943739159 0.42047262144243908 0 -0.018056179120583611 0.43850863026579662 0 -0.0047535049403858321 0.43159789699643453 0 -0.01304268943739159 0.42047262144243908 0 0.00090433381781004777 0.41979830144503072 0 -0.0072800668744587137 0.40727001201776891 0 -0.01304268943739159 0.42047262144243908 0 0.00090433381781004777 0.41979830144503072 0 -0.01941730521571311 0.40396508601932291 0 -0.0072800668744587137 0.40727001201776891 0 -0.01304268943739159 0.42047262144243908 0 -0.01941730521571311 0.40396508601932291 0 -0.01304268943739159 0.42047262144243908 0 -0.029058907182411959 0.42094888362789029 0 -0.030964451969007181 0.40505617028186403 0 -0.01941730521571311 0.40396508601932291 0 -0.029058907182411959 0.42094888362789029 0 -0.01304268943739159 0.42047262144243908 0 -0.029058907182411959 0.42094888362789029 0 -0.018056179120583611 0.43850863026579662 0 -0.029058907182411959 0.42094888362789029 0 -0.036891221309114167 0.43882191937151649 0 -0.018056179120583611 0.43850863026579662 0 -0.029058907182411959 0.42094888362789029 0 -0.045671160183175727 0.42443702638727682 0 -0.036891221309114167 0.43882191937151649 0 -0.045671160183175727 0.42443702638727682 0 -0.056961782541193287 0.43360255886829752 0 -0.036891221309114167 0.43882191937151649 0 -0.029058907182411959 0.42094888362789029 0 -0.045671160183175727 0.42443702638727682 0 -0.039149548416679357 0.41271897355877601 0 -0.030964451969007181 0.40505617028186403 0 -0.029058907182411959 0.42094888362789029 0 -0.039149548416679357 0.41271897355877601 0 -0.045671160183175727 0.42443702638727682 0 -0.039149548416679357 0.41271897355877601 0 -0.050883074489459272 0.410989792393885 0 -0.038730707949088741 0.39885269589167532 0 -0.039149548416679357 0.41271897355877601 0 -0.050883074489459272 0.410989792393885 0 -0.045671160183175727 0.42443702638727682 0 -0.050883074489459272 0.410989792393885 0 -0.061083500341701277 0.42054052117937418 0 -0.064393724440175354 0.4091178353577905 0 -0.050883074489459272 0.410989792393885 0 -0.061083500341701277 0.42054052117937418 0 -0.045671160183175727 0.42443702638727682 0 -0.061083500341701277 0.42054052117937418 0 -0.056961782541193287 0.43360255886829752 0 -0.056961782541193287 0.43360255886829752 0 -0.052871731629001009 0.44892577516038779 0 -0.036891221309114167 0.43882191937151649 0 -0.052871731629001009 0.44892577516038779 0 -0.066612890319983672 0.45821410699234227 0 -0.065957804293597308 0.44123940949751972 0 -0.056961782541193287 0.43360255886829752 0 -0.052871731629001009 0.44892577516038779 0 -0.065957804293597308 0.44123940949751972 0 -0.051669736850975971 0.47900973751832809 0 -0.066612890319983672 0.45821410699234227 0 -0.052871731629001009 0.44892577516038779 0 -0.048574195280828722 0.46444552076598922 0 -0.066612890319983672 0.45821410699234227 0 -0.048574195280828722 0.46444552076598922 0 -0.051669736850975971 0.47900973751832809 0 -0.066612890319983672 0.45821410699234227 0 -0.052871731629001009 0.44892577516038779 0 -0.048574195280828722 0.46444552076598922 0 -0.036400297279642807 0.45909781285824558 0 -0.048574195280828722 0.46444552076598922 0 -0.036400297279642807 0.45909781285824558 0 -0.030541269715503649 0.4783871338314466 0 -0.036400297279642807 0.45909781285824558 0 -0.036891221309114167 0.43882191937151649 0 -0.025684531975961541 0.45047445555582982 0 -0.052871731629001009 0.44892577516038779 0 -0.036400297279642807 0.45909781285824558 0 -0.036891221309114167 0.43882191937151649 0 -0.018056179120583611 0.43850863026579662 0 -0.025684531975961541 0.45047445555582982 0 -0.01395321655433915 0.45911900910945458 0 -0.036891221309114167 0.43882191937151649 0 -0.018056179120583611 0.43850863026579662 0 -0.025684531975961541 0.45047445555582982 0 -0.036400297279642807 0.45909781285824558 0 -0.024668701829368839 0.46573152027305381 0 -0.030541269715503649 0.4783871338314466 0 -0.036400297279642807 0.45909781285824558 0 -0.025684531975961541 0.45047445555582982 0 -0.024668701829368839 0.46573152027305381 0 -0.024668701829368839 0.46573152027305381 0 -0.01395321655433915 0.45911900910945458 0 -0.0099657085561305949 0.47544558769919709 0 -0.025684531975961541 0.45047445555582982 0 -0.024668701829368839 0.46573152027305381 0 -0.01395321655433915 0.45911900910945458 0 -0.01395321655433915 0.45911900910945458 0 -0.0099657085561305949 0.47544558769919709 0 0.00019032937963638021 0.4599463752571149 0 -0.01395321655433915 0.45911900910945458 0 -0.002103054149575386 0.44647914075093459 0 0.00019032937963638021 0.4599463752571149 0 -0.0047535049403858321 0.43159789699643453 0 -0.018056179120583611 0.43850863026579662 0 -0.002103054149575386 0.44647914075093459 0 -0.018056179120583611 0.43850863026579662 0 -0.01395321655433915 0.45911900910945458 0 -0.002103054149575386 0.44647914075093459 0 -0.0099657085561305949 0.47544558769919709 0 -0.01831617672715961 0.48861729852614771 0 0.0054093945884738934 0.5 0 -0.01831617672715961 0.48861729852614771 0 -0.024302163184894421 0.5 0 0.0054093945884738934 0.5 0 -0.024668701829368839 0.46573152027305381 0 -0.0099657085561305949 0.47544558769919709 0 -0.030541269715503649 0.4783871338314466 0 -0.0099657085561305949 0.47544558769919709 0 -0.030541269715503649 0.4783871338314466 0 -0.01831617672715961 0.48861729852614771 0 -0.030541269715503649 0.4783871338314466 0 -0.01831617672715961 0.48861729852614771 0 -0.032181136767743257 0.4892537711000946 0 -0.01831617672715961 0.48861729852614771 0 -0.024302163184894421 0.5 0 -0.032181136767743257 0.4892537711000946 0 -0.024302163184894421 0.5 0 -0.036726583381968173 0.5 0 -0.032181136767743257 0.4892537711000946 0 -0.036726583381968173 0.5 0 -0.032181136767743257 0.4892537711000946 0 -0.051669736850975971 0.47900973751832809 0 -0.036726583381968173 0.5 0 -0.051669736850975971 0.47900973751832809 0 -0.030541269715503649 0.4783871338314466 0 -0.032181136767743257 0.4892537711000946 0 -0.051669736850975971 0.47900973751832809 0 -0.048574195280828722 0.46444552076598922 0 -0.030541269715503649 0.4783871338314466 0 -0.051669736850975971 0.47900973751832809 0 -0.036726583381968173 0.5 0 -0.051669736850975971 0.47900973751832809 0 -0.054013720958262623 0.5 0 -0.051669736850975971 0.47900973751832809 0 -0.054013720958262623 0.5 0 -0.072039866998557023 0.47973266089665101 0 -0.054013720958262623 0.5 0 -0.083725278731630937 0.5 0 -0.072039866998557023 0.47973266089665101 0 -0.083725278731630937 0.5 0 -0.072039866998557023 0.47973266089665101 0 -0.095424067983703564 0.48358368202038471 0 -0.072039866998557023 0.47973266089665101 0 -0.08787573764289186 0.46534321372302362 0 -0.095424067983703564 0.48358368202038471 0 -0.051669736850975971 0.47900973751832809 0 -0.072039866998557023 0.47973266089665101 0 -0.066612890319983672 0.45821410699234227 0 -0.072039866998557023 0.47973266089665101 0 -0.066612890319983672 0.45821410699234227 0 -0.08787573764289186 0.46534321372302362 0 -0.08155604378899145 0.43741847646635651 0 -0.066612890319983672 0.45821410699234227 0 -0.065957804293597308 0.44123940949751972 0 -0.08155604378899145 0.43741847646635651 0 -0.066612890319983672 0.45821410699234227 0 -0.08155604378899145 0.43741847646635651 0 -0.066612890319983672 0.45821410699234227 0 -0.089088124548373088 0.44471179136273298 0 -0.094219926621094685 0.43462278907053248 0 -0.08155604378899145 0.43741847646635651 0 -0.089088124548373088 0.44471179136273298 0 -0.066612890319983672 0.45821410699234227 0 -0.089088124548373088 0.44471179136273298 0 -0.08787573764289186 0.46534321372302362 0 -0.08787573764289186 0.46534321372302362 0 -0.10598884419020679 0.45697520388432089 0 -0.105050439428287 0.47142162478576388 0 -0.089088124548373088 0.44471179136273298 0 -0.08787573764289186 0.46534321372302362 0 -0.10598884419020679 0.45697520388432089 0 -0.094219926621094685 0.43462278907053248 0 -0.089088124548373088 0.44471179136273298 0 -0.1117848312341921 0.44086240774873342 0 -0.089088124548373088 0.44471179136273298 0 -0.10598884419020679 0.45697520388432089 0 -0.1117848312341921 0.44086240774873342 0 -0.089088124548373088 0.44471179136273298 0 -0.1117848312341921 0.44086240774873342 0 -0.13448153792001111 0.43701302413473381 0 -0.1117848312341921 0.44086240774873342 0 -0.125402629074886 0.45481485359698892 0 -0.13448153792001111 0.43701302413473381 0 -0.1117848312341921 0.44086240774873342 0 -0.125402629074886 0.45481485359698892 0 -0.10598884419020679 0.45697520388432089 0 -0.1117848312341921 0.44086240774873342 0 -0.125402629074886 0.45481485359698892 0 -0.10598884419020679 0.45697520388432089 0 -0.11746222535326251 0.46532507926677402 0 -0.10598884419020679 0.45697520388432089 0 -0.11746222535326251 0.46532507926677402 0 -0.105050439428287 0.47142162478576388 0 -0.12943623685269401 0.46761185370050051 0 -0.125402629074886 0.45481485359698892 0 -0.11746222535326251 0.46532507926677402 0 -0.11746222535326251 0.46532507926677402 0 -0.12128549607814799 0.47718533142900871 0 -0.105050439428287 0.47142162478576388 0 -0.12128549607814799 0.47718533142900871 0 -0.1104162485958555 0.48500459271686958 0 -0.105050439428287 0.47142162478576388 0 -0.12943623685269401 0.46761185370050051 0 -0.11746222535326251 0.46532507926677402 0 -0.12128549607814799 0.47718533142900871 0 -0.12516226417725271 0.49458348285156623 0 -0.12128549607814799 0.47718533142900871 0 -0.1104162485958555 0.48500459271686958 0 -0.12516226417725271 0.49458348285156623 0 -0.1134368365049991 0.5 0 -0.1104162485958555 0.48500459271686958 0 -0.1134368365049991 0.5 0 -0.1104162485958555 0.48500459271686958 0 -0.095424067983703564 0.48358368202038471 0 -0.083725278731630937 0.5 0 -0.1134368365049991 0.5 0 -0.095424067983703564 0.48358368202038471 0 -0.08787573764289186 0.46534321372302362 0 -0.095424067983703564 0.48358368202038471 0 -0.105050439428287 0.47142162478576388 0 -0.1104162485958555 0.48500459271686958 0 -0.095424067983703564 0.48358368202038471 0 -0.105050439428287 0.47142162478576388 0 -0.16115588760314489 0.079303835386836746 0 -0.16546244303094171 0.094073964495737253 0 -0.14895026118402321 0.095303034576461568 0 -0.16115588760314489 0.079303835386836746 0 -0.17711641391154309 0.077990878136875136 0 -0.16546244303094171 0.094073964495737253 0 -0.16115588760314489 0.079303835386836746 0 -0.16745452341379841 0.067500467711368306 0 -0.17711641391154309 0.077990878136875136 0 -0.16115588760314489 0.079303835386836746 0 -0.16745452341379841 0.067500467711368306 0 -0.14996024074177111 0.065019287594427405 0 -0.18688571273968849 0.064794272860611554 0 -0.17711641391154309 0.077990878136875136 0 -0.1957058492120104 0.085190016344094996 0 -0.16745452341379841 0.067500467711368306 0 -0.18688571273968849 0.064794272860611554 0 -0.17711641391154309 0.077990878136875136 0 -0.17711641391154309 0.077990878136875136 0 -0.18029771947639489 0.091579072044630949 0 -0.1957058492120104 0.085190016344094996 0 -0.17711641391154309 0.077990878136875136 0 -0.18029771947639489 0.091579072044630949 0 -0.16546244303094171 0.094073964495737253 0 -0.18029771947639489 0.091579072044630949 0 -0.17407724728530041 0.1017929794424924 0 -0.18913700503696751 0.1003280978803313 0 -0.17407724728530041 0.1017929794424924 0 -0.17946457119465409 0.1122230238000228 0 -0.1636028664340185 0.1081617597770396 0 -0.17946457119465409 0.1122230238000228 0 -0.19199734899891249 0.1152329014036889 0 -0.18913700503696751 0.1003280978803313 0 -0.17407724728530041 0.1017929794424924 0 -0.17946457119465409 0.1122230238000228 0 -0.18913700503696751 0.1003280978803313 0 -0.18029771947639489 0.091579072044630949 0 -0.17407724728530041 0.1017929794424924 0 -0.16546244303094171 0.094073964495737253 0 -0.17946457119465409 0.1122230238000228 0 -0.17162251468671061 0.1232110551526293 0 -0.18839345918863831 0.12639625269004601 0 -0.17946457119465409 0.1122230238000228 0 -0.19199734899891249 0.1152329014036889 0 -0.18839345918863831 0.12639625269004601 0 -0.17946457119465409 0.1122230238000228 0 -0.17162251468671061 0.1232110551526293 0 -0.1636028664340185 0.1081617597770396 0 -0.17162251468671061 0.1232110551526293 0 -0.1636028664340185 0.1081617597770396 0 -0.15512093016006639 0.12137006157731491 0 -0.1636028664340185 0.1081617597770396 0 -0.15512093016006639 0.12137006157731491 0 -0.1636028664340185 0.1081617597770396 0 -0.15512093016006639 0.12137006157731491 0 -0.1501322844487841 0.1147619265129963 0 -0.17407724728530041 0.1017929794424924 0 -0.16546244303094171 0.094073964495737253 0 -0.1636028664340185 0.1081617597770396 0 -0.16546244303094171 0.094073964495737253 0 -0.1636028664340185 0.1081617597770396 0 -0.1535966862780585 0.10478613593910931 0 -0.16546244303094171 0.094073964495737253 0 -0.14895026118402321 0.095303034576461568 0 -0.1535966862780585 0.10478613593910931 0 -0.1535966862780585 0.10478613593910931 0 -0.14216875594384509 0.108103908748774 0 -0.1501322844487841 0.1147619265129963 0 -0.1636028664340185 0.1081617597770396 0 -0.1535966862780585 0.10478613593910931 0 -0.1501322844487841 0.1147619265129963 0 -0.14895026118402321 0.095303034576461568 0 -0.1535966862780585 0.10478613593910931 0 -0.14216875594384509 0.108103908748774 0 -0.14216875594384509 0.108103908748774 0 -0.1501322844487841 0.1147619265129963 0 -0.1487090112585778 0.12513642102532321 0 -0.15512093016006639 0.12137006157731491 0 -0.1501322844487841 0.1147619265129963 0 -0.1487090112585778 0.12513642102532321 0 -0.15512093016006639 0.12137006157731491 0 -0.1487090112585778 0.12513642102532321 0 -0.15155321825865031 0.12692579956075631 0 -0.15512093016006639 0.12137006157731491 0 -0.15155321825865031 0.12692579956075631 0 -0.15512093016006639 0.12137006157731491 0 -0.1501322844487841 0.1147619265129963 0 -0.14216875594384509 0.108103908748774 0 -0.13017052272918739 0.1005343898467644 0 -0.13095425995938231 0.12915849522848741 0 -0.13017052272918739 0.1005343898467644 0 -0.13095425995938231 0.12915849522848741 0 -0.13017052272918739 0.1005343898467644 0 -0.13095425995938231 0.12915849522848741 0 -0.1264941796651104 0.12914036777275359 0 -0.14216875594384509 0.108103908748774 0 -0.1487090112585778 0.12513642102532321 0 -0.13095425995938231 0.12915849522848741 0 -0.13017052272918739 0.1005343898467644 0 -0.1264941796651104 0.12914036777275359 0 -0.12171505972308121 0.099774495224226684 0 -0.14895026118402321 0.095303034576461568 0 -0.14216875594384509 0.108103908748774 0 -0.13017052272918739 0.1005343898467644 0 -0.13017052272918739 0.1005343898467644 0 -0.12938678549899241 0.07191028446504151 0 -0.12171505972308121 0.099774495224226684 0 -0.13017052272918739 0.1005343898467644 0 -0.14392473955142379 0.082414166373906347 0 -0.12938678549899241 0.07191028446504151 0 -0.13017052272918739 0.1005343898467644 0 -0.12938678549899241 0.07191028446504151 0 -0.16115588760314489 0.079303835386836746 0 -0.14895026118402321 0.095303034576461568 0 -0.14392473955142379 0.082414166373906347 0 -0.14895026118402321 0.095303034576461568 0 -0.13017052272918739 0.1005343898467644 0 -0.14392473955142379 0.082414166373906347 0 -0.14392473955142379 0.082414166373906347 0 -0.14996024074177111 0.065019287594427405 0 -0.12938678549899241 0.07191028446504151 0 -0.16115588760314489 0.079303835386836746 0 -0.14392473955142379 0.082414166373906347 0 -0.14996024074177111 0.065019287594427405 0 -0.12938678549899241 0.07191028446504151 0 -0.12860304826879579 0.043286179083318721 0 -0.1432252532741051 0.045280793122137793 0 -0.12938678549899241 0.07191028446504151 0 -0.12860304826879579 0.043286179083318721 0 -0.12860304826879579 0.043286179083318721 0 -0.1287110431512061 0.034778633130733289 0 -0.13260625998306871 0.038689498113595323 0 -0.12860304826879579 0.043286179083318721 0 -0.1287110431512061 0.034778633130733289 0 -0.1229295450058164 0.037868452923291163 0 -0.1287110431512061 0.034778633130733289 0 -0.13260625998306871 0.038689498113595323 0 -0.13385653989948559 0.029726207043600121 0 -0.13260625998306871 0.038689498113595323 0 -0.13742301140600061 0.035993856295569851 0 -0.13385653989948559 0.029726207043600121 0 -0.13260625998306871 0.038689498113595323 0 -0.13742301140600061 0.035993856295569851 0 -0.1432252532741051 0.045280793122137793 0 -0.12860304826879579 0.043286179083318721 0 -0.1432252532741051 0.045280793122137793 0 -0.12860304826879579 0.043286179083318721 0 -0.13260625998306871 0.038689498113595323 0 -0.1432252532741051 0.045280793122137793 0 -0.13742301140600061 0.035993856295569851 0 -0.15420936899696669 0.0340528766712761 0 -0.16215436207284459 0.05039406457809071 0 -0.13742301140600061 0.035993856295569851 0 -0.1432252532741051 0.045280793122137793 0 -0.16215436207284459 0.05039406457809071 0 -0.13742301140600061 0.035993856295569851 0 -0.15420936899696669 0.0340528766712761 0 -0.1445273165529781 0.027680973473232749 0 -0.13742301140600061 0.035993856295569851 0 -0.16215436207284459 0.05039406457809071 0 -0.14996024074177111 0.065019287594427405 0 -0.12938678549899241 0.07191028446504151 0 -0.1432252532741051 0.045280793122137793 0 -0.14996024074177111 0.065019287594427405 0 -0.1432252532741051 0.045280793122137793 0 -0.16215436207284459 0.05039406457809071 0 -0.14346822796634109 -0.00072879923856594079 0 -0.13072301095149069 -0.005437812573230668 0 -0.1305622280860454 0.0096379025991953846 0 -0.12152508443855629 -4.6565042202755903e-05 0 -0.13072301095149069 -0.005437812573230668 0 -0.1305622280860454 0.0096379025991953846 0 -0.1305622280860454 0.0096379025991953846 0 -0.12787977143513179 0.018424739451976979 0 -0.12356325337797559 0.01429926066788118 0 -0.1305622280860454 0.0096379025991953846 0 -0.13529887065436089 0.021983328193282341 0 -0.1490600055499299 0.017729596538547159 0 -0.12787977143513179 0.018424739451976979 0 -0.12925545507246761 0.025474708153412969 0 -0.1207190499848096 0.02072849764611303 0 -0.1305622280860454 0.0096379025991953846 0 -0.13529887065436089 0.021983328193282341 0 -0.12787977143513179 0.018424739451976979 0 -0.13529887065436089 0.021983328193282341 0 -0.12787977143513179 0.018424739451976979 0 -0.12925545507246761 0.025474708153412969 0 -0.1287110431512061 0.034778633130733289 0 -0.12925545507246761 0.025474708153412969 0 -0.1207190499848096 0.02072849764611303 0 -0.1287110431512061 0.034778633130733289 0 -0.12925545507246761 0.025474708153412969 0 -0.13385653989948559 0.029726207043600121 0 -0.13529887065436089 0.021983328193282341 0 -0.12925545507246761 0.025474708153412969 0 -0.13385653989948559 0.029726207043600121 0 -0.13529887065436089 0.021983328193282341 0 -0.13385653989948559 0.029726207043600121 0 -0.1445273165529781 0.027680973473232749 0 -0.13742301140600061 0.035993856295569851 0 -0.13385653989948559 0.029726207043600121 0 -0.1445273165529781 0.027680973473232749 0 -0.15420936899696669 0.0340528766712761 0 -0.1445273165529781 0.027680973473232749 0 -0.1490600055499299 0.017729596538547159 0 -0.13529887065436089 0.021983328193282341 0 -0.1445273165529781 0.027680973473232749 0 -0.1490600055499299 0.017729596538547159 0 -0.14346822796634109 -0.00072879923856594079 0 -0.1622406895765654 -0.0080810254460947795 0 -0.1490600055499299 0.017729596538547159 0 -0.14346822796634109 -0.00072879923856594079 0 -0.1305622280860454 0.0096379025991953846 0 -0.1490600055499299 0.017729596538547159 0 -0.1622406895765654 -0.0080810254460947795 0 -0.1490600055499299 0.017729596538547159 0 -0.17798670521398249 0.01035253212461292 0 -0.1490600055499299 0.017729596538547159 0 -0.17798670521398249 0.01035253212461292 0 -0.15420936899696669 0.0340528766712761 0 -0.1490600055499299 0.017729596538547159 0 -0.16872434686312041 0.031843163746684722 0 -0.1490600055499299 0.017729596538547159 0 -0.17798670521398249 0.01035253212461292 0 -0.16872434686312041 0.031843163746684722 0 -0.17798670521398249 0.01035253212461292 0 -0.16872434686312041 0.031843163746684722 0 -0.18751156723722889 0.032402639581565952 0 -0.17798670521398249 0.01035253212461292 0 -0.18751156723722889 0.032402639581565952 0 -0.1937727340522582 0.016880035037217422 0 -0.16745452341379841 0.067500467711368306 0 -0.14996024074177111 0.065019287594427405 0 -0.16215436207284459 0.05039406457809071 0 -0.15420936899696669 0.0340528766712761 0 -0.16215436207284459 0.05039406457809071 0 -0.16872434686312041 0.031843163746684722 0 -0.16215436207284459 0.05039406457809071 0 -0.16872434686312041 0.031843163746684722 0 -0.18142407210776981 0.046127272986015523 0 -0.16872434686312041 0.031843163746684722 0 -0.18142407210776981 0.046127272986015523 0 -0.18751156723722889 0.032402639581565952 0 -0.16745452341379841 0.067500467711368306 0 -0.18688571273968849 0.064794272860611554 0 -0.16215436207284459 0.05039406457809071 0 -0.18688571273968849 0.064794272860611554 0 -0.16215436207284459 0.05039406457809071 0 -0.18688571273968849 0.064794272860611554 0 -0.16215436207284459 0.05039406457809071 0 -0.18142407210776981 0.046127272986015523 0 -0.18688571273968849 0.064794272860611554 0 -0.18142407210776981 0.046127272986015523 0 -0.19917459028432921 0.046942929123501481 0 -0.18688571273968849 0.064794272860611554 0 -0.2028589565933617 0.061754212292830082 0 -0.19917459028432921 0.046942929123501481 0 -0.18142407210776981 0.046127272986015523 0 -0.19917459028432921 0.046942929123501481 0 -0.18751156723722889 0.032402639581565952 0 -0.19917459028432921 0.046942929123501481 0 -0.18751156723722889 0.032402639581565952 0 -0.19856055560228769 0.034414576317309431 0 -0.19856055560228769 0.034414576317309431 0 -0.20386645708802889 0.040926345425209329 0 -0.20595816817437679 0.029725133199477231 0 -0.19917459028432921 0.046942929123501481 0 -0.19856055560228769 0.034414576317309431 0 -0.20386645708802889 0.040926345425209329 0 -0.19917459028432921 0.046942929123501481 0 -0.20542701435326441 0.045916118591608081 0 -0.20386645708802889 0.040926345425209329 0 -0.21482981173042021 0.045745875526779868 0 -0.2115426369534513 0.047573317076487723 0 -0.20595816817437679 0.029725133199477231 0 -0.21482981173042021 0.045745875526779868 0 -0.2108716083042268 0.024360671618729381 0 -0.2202275159942183 0.033687895023283898 0 -0.21482981173042021 0.045745875526779868 0 -0.2108716083042268 0.024360671618729381 0 -0.20386645708802889 0.040926345425209329 0 -0.2115426369534513 0.047573317076487723 0 -0.20595816817437679 0.029725133199477231 0 -0.21482981173042021 0.045745875526779868 0 -0.20595816817437679 0.029725133199477231 0 -0.2108716083042268 0.024360671618729381 0 -0.20542701435326441 0.045916118591608081 0 -0.20386645708802889 0.040926345425209329 0 -0.2115426369534513 0.047573317076487723 0 -0.2115426369534513 0.047573317076487723 0 -0.20595816817437679 0.029725133199477231 0 -0.21482981173042021 0.045745875526779868 0 -0.22062838055236439 0.042276575389992563 0 -0.2202275159942183 0.033687895023283898 0 -0.21482981173042021 0.045745875526779868 0 -0.2115426369534513 0.047573317076487723 0 -0.2171271057325265 0.065421500953498024 0 -0.19917459028432921 0.046942929123501481 0 -0.20542701435326441 0.045916118591608081 0 -0.2171271057325265 0.065421500953498024 0 -0.19917459028432921 0.046942929123501481 0 -0.2171271057325265 0.065421500953498024 0 -0.2028589565933617 0.061754212292830082 0 -0.19917459028432921 0.046942929123501481 0 -0.2171271057325265 0.065421500953498024 0 -0.21482981173042021 0.045745875526779868 0 -0.2187880151566125 0.067131079434830626 0 -0.2171271057325265 0.065421500953498024 0 -0.2115426369534513 0.047573317076487723 0 -0.2171271057325265 0.065421500953498024 0 -0.21482981173042021 0.045745875526779868 0 -0.2187880151566125 0.067131079434830626 0 -0.20542701435326441 0.045916118591608081 0 -0.2115426369534513 0.047573317076487723 0 -0.2171271057325265 0.065421500953498024 0 -0.18701109662081961 -0.010325168466654461 0 -0.17798670521398249 0.01035253212461292 0 -0.20691340487803511 0.002975467710678561 0 -0.2011926499476073 0.022982538716881828 0 -0.1937727340522582 0.016880035037217422 0 -0.20691340487803511 0.002975467710678561 0 -0.17798670521398249 0.01035253212461292 0 -0.1937727340522582 0.016880035037217422 0 -0.20691340487803511 0.002975467710678561 0 -0.17798670521398249 0.01035253212461292 0 -0.20691340487803511 0.002975467710678561 0 -0.18751156723722889 0.032402639581565952 0 -0.2011926499476073 0.022982538716881828 0 -0.1937727340522582 0.016880035037217422 0 -0.19856055560228769 0.034414576317309431 0 -0.2011926499476073 0.022982538716881828 0 -0.20595816817437679 0.029725133199477231 0 -0.18751156723722889 0.032402639581565952 0 -0.19856055560228769 0.034414576317309431 0 -0.2011926499476073 0.022982538716881828 0 -0.2011926499476073 0.022982538716881828 0 -0.2108716083042268 0.024360671618729381 0 -0.20691340487803511 0.002975467710678561 0 -0.2011926499476073 0.022982538716881828 0 -0.20595816817437679 0.029725133199477231 0 -0.2108716083042268 0.024360671618729381 0 -0.2108716083042268 0.024360671618729381 0 -0.22064277633262669 0.02413281513641009 0 -0.2202275159942183 0.033687895023283898 0 -0.2108716083042268 0.024360671618729381 0 -0.21662888994096199 0.01274141445158799 0 -0.22064277633262669 0.02413281513641009 0 -0.2108716083042268 0.024360671618729381 0 -0.20691340487803511 0.002975467710678561 0 -0.21662888994096199 0.01274141445158799 0 -0.2108716083042268 0.024360671618729381 0 -0.20691340487803511 0.002975467710678561 0 -0.23578128998160799 -0.0043865974532140608 0 -0.21662888994096199 0.01274141445158799 0 -0.22819171089519821 0.016149603059852781 0 -0.23578128998160799 -0.0043865974532140608 0 -0.20691340487803511 0.002975467710678561 0 -0.21662888994096199 0.01274141445158799 0 -0.22819171089519821 0.016149603059852781 0 -0.23104575101164909 0.030396178277663059 0 -0.2431292390292662 0.015141556947905199 0 -0.21662888994096199 0.01274141445158799 0 -0.22819171089519821 0.016149603059852781 0 -0.22064277633262669 0.02413281513641009 0 -0.22064277633262669 0.02413281513641009 0 -0.23104575101164909 0.030396178277663059 0 -0.2202275159942183 0.033687895023283898 0 -0.22819171089519821 0.016149603059852781 0 -0.22064277633262669 0.02413281513641009 0 -0.23104575101164909 0.030396178277663059 0 -0.23104575101164909 0.030396178277663059 0 -0.24794929732059029 0.030806793726077451 0 -0.2431292390292662 0.015141556947905199 0 -0.23578128998160799 -0.0043865974532140608 0 -0.22819171089519821 0.016149603059852781 0 -0.2431292390292662 0.015141556947905199 0 -0.23578128998160799 -0.0043865974532140608 0 -0.25440382098127251 0.00065316407925673781 0 -0.2431292390292662 0.015141556947905199 0 -0.21482981173042021 0.045745875526779868 0 -0.222890813587834 0.05363394857805015 0 -0.2187880151566125 0.067131079434830626 0 -0.222890813587834 0.05363394857805015 0 -0.22648870208618949 0.04372780870543172 0 -0.23449886551819391 0.053893171588237171 0 -0.22706387585794099 0.060319665012824847 0 -0.222890813587834 0.05363394857805015 0 -0.23449886551819391 0.053893171588237171 0 -0.22706387585794099 0.060319665012824847 0 -0.23449886551819391 0.053893171588237171 0 -0.2320778091691246 0.066620460450180483 0 -0.22706387585794099 0.060319665012824847 0 -0.222890813587834 0.05363394857805015 0 -0.2187880151566125 0.067131079434830626 0 -0.21482981173042021 0.045745875526779868 0 -0.222890813587834 0.05363394857805015 0 -0.22096749239862981 0.045944722304474751 0 -0.222890813587834 0.05363394857805015 0 -0.22096749239862981 0.045944722304474751 0 -0.22648870208618949 0.04372780870543172 0 -0.22062838055236439 0.042276575389992563 0 -0.22648870208618949 0.04372780870543172 0 -0.2202275159942183 0.033687895023283898 0 -0.21482981173042021 0.045745875526779868 0 -0.22096749239862981 0.045944722304474751 0 -0.22062838055236439 0.042276575389992563 0 -0.22096749239862981 0.045944722304474751 0 -0.22062838055236439 0.042276575389992563 0 -0.22648870208618949 0.04372780870543172 0 -0.23104575101164909 0.030396178277663059 0 -0.22648870208618949 0.04372780870543172 0 -0.2202275159942183 0.033687895023283898 0 -0.23104575101164909 0.030396178277663059 0 -0.22648870208618949 0.04372780870543172 0 -0.23834746118517899 0.040875725629168087 0 -0.22648870208618949 0.04372780870543172 0 -0.23834746118517899 0.040875725629168087 0 -0.23449886551819391 0.053893171588237171 0 -0.23104575101164909 0.030396178277663059 0 -0.24794929732059029 0.030806793726077451 0 -0.23834746118517899 0.040875725629168087 0 -0.25175468998927231 0.045554675848431037 0 -0.23834746118517899 0.040875725629168087 0 -0.23449886551819391 0.053893171588237171 0 -0.25175468998927231 0.045554675848431037 0 -0.24794929732059029 0.030806793726077451 0 -0.23834746118517899 0.040875725629168087 0 -0.25175468998927231 0.045554675848431037 0 -0.23449886551819391 0.053893171588237171 0 -0.24568172363412241 0.062469702665654013 0 -0.23449886551819391 0.053893171588237171 0 -0.24568172363412241 0.062469702665654013 0 -0.2320778091691246 0.066620460450180483 0 -0.25463713592647902 0.075048816336487523 0 -0.24568172363412241 0.062469702665654013 0 -0.24158874284655951 0.073162263788198692 0 -0.25463713592647902 0.075048816336487523 0 -0.24158874284655951 0.073162263788198692 0 -0.2453540382212071 0.082717383994226748 0 -0.24158874284655951 0.073162263788198692 0 -0.2327177433460618 0.081468985655483883 0 -0.2320778091691246 0.066620460450180483 0 -0.24568172363412241 0.062469702665654013 0 -0.24158874284655951 0.073162263788198692 0 -0.2320778091691246 0.066620460450180483 0 -0.2327177433460618 0.081468985655483883 0 -0.22611156922643691 0.094136202891932752 0 -0.24664747153551139 0.09580689187613696 0 -0.2524414654835232 0.089356977395346426 0 -0.2453540382212071 0.082717383994226748 0 -0.24664747153551139 0.09580689187613696 0 -0.2524414654835232 0.089356977395346426 0 -0.24664747153551139 0.09580689187613696 0 -0.24158874284655951 0.073162263788198692 0 -0.2453540382212071 0.082717383994226748 0 -0.2327177433460618 0.081468985655483883 0 -0.2453540382212071 0.082717383994226748 0 -0.2327177433460618 0.081468985655483883 0 -0.24664747153551139 0.09580689187613696 0 -0.2327177433460618 0.081468985655483883 0 -0.24664747153551139 0.09580689187613696 0 -0.2327177433460618 0.081468985655483883 0 -0.22041883437506191 0.075941996350544883 0 -0.22611156922643691 0.094136202891932752 0 -0.22041883437506191 0.075941996350544883 0 -0.22611156922643691 0.094136202891932752 0 -0.22209633576596119 0.085005125613437968 0 -0.22041883437506191 0.075941996350544883 0 -0.22611156922643691 0.094136202891932752 0 -0.22209633576596119 0.085005125613437968 0 -0.22041883437506191 0.075941996350544883 0 -0.22209633576596119 0.085005125613437968 0 -0.2180255109116841 0.098429442494135905 0 -0.22611156922643691 0.094136202891932752 0 -0.2327177433460618 0.081468985655483883 0 -0.2320778091691246 0.066620460450180483 0 -0.2187880151566125 0.067131079434830626 0 -0.2327177433460618 0.081468985655483883 0 -0.22041883437506191 0.075941996350544883 0 -0.2187880151566125 0.067131079434830626 0 -0.2327177433460618 0.081468985655483883 0 -0.2187880151566125 0.067131079434830626 0 -0.22041883437506191 0.075941996350544883 0 -0.2171271057325265 0.065421500953498024 0 -0.22041883437506191 0.075941996350544883 0 -0.2187880151566125 0.067131079434830626 0 -0.22041883437506191 0.075941996350544883 0 -0.2187880151566125 0.067131079434830626 0 -0.2171271057325265 0.065421500953498024 0 -0.22706387585794099 0.060319665012824847 0 -0.2320778091691246 0.066620460450180483 0 -0.2187880151566125 0.067131079434830626 0 -0.2171271057325265 0.065421500953498024 0 -0.20666277786533649 0.068616293879383825 0 -0.21438188477819131 0.072109127623781979 0 -0.2187880151566125 0.067131079434830626 0 -0.2171271057325265 0.065421500953498024 0 -0.2028589565933617 0.061754212292830082 0 -0.2171271057325265 0.065421500953498024 0 -0.20666277786533649 0.068616293879383825 0 -0.20666277786533649 0.068616293879383825 0 -0.21438188477819131 0.072109127623781979 0 -0.21161706340653269 0.079194481143132531 0 -0.22041883437506191 0.075941996350544883 0 -0.2171271057325265 0.065421500953498024 0 -0.21438188477819131 0.072109127623781979 0 -0.22041883437506191 0.075941996350544883 0 -0.21438188477819131 0.072109127623781979 0 -0.21161706340653269 0.079194481143132531 0 -0.22209633576596119 0.085005125613437968 0 -0.21161706340653269 0.079194481143132531 0 -0.21365768493628429 0.088297399697812098 0 -0.22209633576596119 0.085005125613437968 0 -0.22041883437506191 0.075941996350544883 0 -0.21161706340653269 0.079194481143132531 0 -0.21161706340653269 0.079194481143132531 0 -0.206123270694134 0.088027704659970646 0 -0.1957058492120104 0.085190016344094996 0 -0.21365768493628429 0.088297399697812098 0 -0.20907733946636939 0.093817429790240728 0 -0.2180255109116841 0.098429442494135905 0 -0.22209633576596119 0.085005125613437968 0 -0.21365768493628429 0.088297399697812098 0 -0.2180255109116841 0.098429442494135905 0 -0.206123270694134 0.088027704659970646 0 -0.20112244363722931 0.09604125515615225 0 -0.20907733946636939 0.093817429790240728 0 -0.21365768493628429 0.088297399697812098 0 -0.206123270694134 0.088027704659970646 0 -0.20907733946636939 0.093817429790240728 0 -0.21161706340653269 0.079194481143132531 0 -0.21365768493628429 0.088297399697812098 0 -0.206123270694134 0.088027704659970646 0 -0.206123270694134 0.088027704659970646 0 -0.1957058492120104 0.085190016344094996 0 -0.20112244363722931 0.09604125515615225 0 -0.18029771947639489 0.091579072044630949 0 -0.1957058492120104 0.085190016344094996 0 -0.18913700503696751 0.1003280978803313 0 -0.18688571273968849 0.064794272860611554 0 -0.21161706340653269 0.079194481143132531 0 -0.18688571273968849 0.064794272860611554 0 -0.20666277786533649 0.068616293879383825 0 -0.21161706340653269 0.079194481143132531 0 -0.18688571273968849 0.064794272860611554 0 -0.21161706340653269 0.079194481143132531 0 -0.1957058492120104 0.085190016344094996 0 -0.18688571273968849 0.064794272860611554 0 -0.2028589565933617 0.061754212292830082 0 -0.20666277786533649 0.068616293879383825 0 -0.19844819055787019 0.10679912347164359 0 -0.2075547101705098 0.1043814762515777 0 -0.20316215272653651 0.1184291402193727 0 -0.19199734899891249 0.1152329014036889 0 -0.19844819055787019 0.10679912347164359 0 -0.20316215272653651 0.1184291402193727 0 -0.19199734899891249 0.1152329014036889 0 -0.20316215272653651 0.1184291402193727 0 -0.18839345918863831 0.12639625269004601 0 -0.19199734899891249 0.1152329014036889 0 -0.18913700503696751 0.1003280978803313 0 -0.19844819055787019 0.10679912347164359 0 -0.18913700503696751 0.1003280978803313 0 -0.20112244363722931 0.09604125515615225 0 -0.19844819055787019 0.10679912347164359 0 -0.1957058492120104 0.085190016344094996 0 -0.18913700503696751 0.1003280978803313 0 -0.20112244363722931 0.09604125515615225 0 -0.20112244363722931 0.09604125515615225 0 -0.19844819055787019 0.10679912347164359 0 -0.2075547101705098 0.1043814762515777 0 -0.20112244363722931 0.09604125515615225 0 -0.2075547101705098 0.1043814762515777 0 -0.20907733946636939 0.093817429790240728 0 -0.2075547101705098 0.1043814762515777 0 -0.20907733946636939 0.093817429790240728 0 -0.2180255109116841 0.098429442494135905 0 -0.2075547101705098 0.1043814762515777 0 -0.2180255109116841 0.098429442494135905 0 -0.2154926237233693 0.112772466377921 0 -0.2154926237233693 0.112772466377921 0 -0.20316215272653651 0.1184291402193727 0 -0.2166565967551615 0.1291929428925872 0 -0.2075547101705098 0.1043814762515777 0 -0.2154926237233693 0.112772466377921 0 -0.20316215272653651 0.1184291402193727 0 -0.23180430407781269 0.1123304094333205 0 -0.2166565967551615 0.1291929428925872 0 -0.2154926237233693 0.112772466377921 0 -0.23180430407781269 0.1123304094333205 0 -0.2166565967551615 0.1291929428925872 0 -0.23180430407781269 0.1123304094333205 0 -0.2345229960484102 0.12101945688184571 0 -0.2166565967551615 0.1291929428925872 0 -0.23180430407781269 0.1123304094333205 0 -0.2345229960484102 0.12101945688184571 0 -0.23180430407781269 0.1123304094333205 0 -0.22611156922643691 0.094136202891932752 0 -0.2180255109116841 0.098429442494135905 0 -0.2154926237233693 0.112772466377921 0 -0.23180430407781269 0.1123304094333205 0 -0.2180255109116841 0.098429442494135905 0 -0.23180430407781269 0.1123304094333205 0 -0.22611156922643691 0.094136202891932752 0 -0.2507963612449623 0.1000773550728951 0 -0.23180430407781269 0.1123304094333205 0 -0.24664747153551139 0.09580689187613696 0 -0.23180430407781269 0.1123304094333205 0 -0.24664747153551139 0.09580689187613696 0 -0.23180430407781269 0.1123304094333205 0 -0.22611156922643691 0.094136202891932752 0 -0.24664747153551139 0.09580689187613696 0 -0.2507963612449623 0.1000773550728951 0 -0.2524414654835232 0.089356977395346426 0 -0.24664747153551139 0.09580689187613696 0 -0.2507963612449623 0.1000773550728951 0 -0.24664747153551139 0.09580689187613696 0 -0.2507963612449623 0.1000773550728951 0 -0.23180430407781269 0.1123304094333205 0 -0.24674899311506121 0.12645216703654991 0 -0.2507963612449623 0.1000773550728951 0 -0.24674899311506121 0.12645216703654991 0 -0.23180430407781269 0.1123304094333205 0 -0.2345229960484102 0.12101945688184571 0 -0.24674899311506121 0.12645216703654991 0 -0.24674899311506121 0.12645216703654991 0 -0.2427016249851594 0.15282697900020459 0 -0.2345229960484102 0.12101945688184571 0 -0.24674899311506121 0.12645216703654991 0 -0.2318104996829404 0.13912067805115899 0 -0.24674899311506121 0.12645216703654991 0 -0.2318104996829404 0.13912067805115899 0 -0.2427016249851594 0.15282697900020459 0 -0.2345229960484102 0.12101945688184571 0 -0.2318104996829404 0.13912067805115899 0 -0.2166565967551615 0.1291929428925872 0 -0.2318104996829404 0.13912067805115899 0 -0.2166565967551615 0.1291929428925872 0 -0.21683955935191351 0.1472049066368572 0 -0.2318104996829404 0.13912067805115899 0 -0.2427016249851594 0.15282697900020459 0 -0.22746350475365609 0.1606287635524403 0 -0.2318104996829404 0.13912067805115899 0 -0.22746350475365609 0.1606287635524403 0 -0.21683955935191351 0.1472049066368572 0 -0.25612433468249851 0.1701603509616286 0 -0.2427016249851594 0.15282697900020459 0 -0.2328949581751639 0.1781004023367444 0 -0.25508119701697057 0.19205845094730969 0 -0.25612433468249851 0.1701603509616286 0 -0.2328949581751639 0.1781004023367444 0 -0.25508119701697057 0.19205845094730969 0 -0.2328949581751639 0.1781004023367444 0 -0.2427016249851594 0.15282697900020459 0 -0.2328949581751639 0.1781004023367444 0 -0.22746350475365609 0.1606287635524403 0 -0.2328949581751639 0.1781004023367444 0 -0.22746350475365609 0.1606287635524403 0 -0.21070871933335719 0.16414235372617911 0 -0.2328949581751639 0.1781004023367444 0 -0.21070871933335719 0.16414235372617911 0 -0.22746350475365609 0.1606287635524403 0 -0.21070871933335719 0.16414235372617911 0 -0.21683955935191351 0.1472049066368572 0 -0.2328949581751639 0.1781004023367444 0 -0.21070871933335719 0.16414235372617911 0 -0.20531973932905789 0.18786516470849429 0 -0.18915801373812369 0.1831520491821218 0 -0.19232524010262059 0.17065219530734491 0 -0.20531973932905789 0.18786516470849429 0 -0.19232524010262059 0.17065219530734491 0 -0.20531973932905789 0.18786516470849429 0 -0.21070871933335719 0.16414235372617911 0 -0.19232524010262059 0.17065219530734491 0 -0.20531973932905789 0.18786516470849429 0 -0.21070871933335719 0.16414235372617911 0 -0.1885224804915504 0.15018430511561379 0 -0.21070871933335719 0.16414235372617911 0 -0.19232524010262059 0.17065219530734491 0 -0.1885224804915504 0.15018430511561379 0 -0.21070871933335719 0.16414235372617911 0 -0.1885224804915504 0.15018430511561379 0 -0.20233031817283151 0.14748107570876159 0 -0.20233031817283151 0.14748107570876159 0 -0.19237270101108769 0.13991058201972151 0 -0.20320813067624829 0.13596323104543651 0 -0.1885224804915504 0.15018430511561379 0 -0.20233031817283151 0.14748107570876159 0 -0.19237270101108769 0.13991058201972151 0 -0.20316215272653651 0.1184291402193727 0 -0.18839345918863831 0.12639625269004601 0 -0.20320813067624829 0.13596323104543651 0 -0.19237270101108769 0.13991058201972151 0 -0.18839345918863831 0.12639625269004601 0 -0.20320813067624829 0.13596323104543651 0 -0.2166565967551615 0.1291929428925872 0 -0.20320813067624829 0.13596323104543651 0 -0.21683955935191351 0.1472049066368572 0 -0.20316215272653651 0.1184291402193727 0 -0.2166565967551615 0.1291929428925872 0 -0.20320813067624829 0.13596323104543651 0 -0.21070871933335719 0.16414235372617911 0 -0.20233031817283151 0.14748107570876159 0 -0.21683955935191351 0.1472049066368572 0 -0.20233031817283151 0.14748107570876159 0 -0.20320813067624829 0.13596323104543651 0 -0.21683955935191351 0.1472049066368572 0 -0.2246923153491015 0.2580099189485946 0 -0.2257836452137138 0.23635557483672789 0 -0.2498521202164147 0.24664314714166921 0 -0.2257836452137138 0.23635557483672789 0 -0.2498521202164147 0.24664314714166921 0 -0.24291454888764341 0.22641203327300219 0 -0.2257836452137138 0.23635557483672789 0 -0.24291454888764341 0.22641203327300219 0 -0.2277608726542418 0.21909791506280221 0 -0.2257836452137138 0.23635557483672789 0 -0.2277608726542418 0.21909791506280221 0 -0.21024644864745209 0.22203763210217159 0 -0.2277608726542418 0.21909791506280221 0 -0.22238869432810321 0.20270017660886311 0 -0.21024644864745209 0.22203763210217159 0 -0.2277608726542418 0.21909791506280221 0 -0.2418524378781827 0.20624867095867719 0 -0.22238869432810321 0.20270017660886311 0 -0.24291454888764341 0.22641203327300219 0 -0.2277608726542418 0.21909791506280221 0 -0.2418524378781827 0.20624867095867719 0 -0.26076456779167362 0.22086102137108299 0 -0.24291454888764341 0.22641203327300219 0 -0.2418524378781827 0.20624867095867719 0 -0.25508119701697057 0.19205845094730969 0 -0.2328949581751639 0.1781004023367444 0 -0.2418524378781827 0.20624867095867719 0 -0.2328949581751639 0.1781004023367444 0 -0.22238869432810321 0.20270017660886311 0 -0.20531973932905789 0.18786516470849429 0 -0.2328949581751639 0.1781004023367444 0 -0.2418524378781827 0.20624867095867719 0 -0.22238869432810321 0.20270017660886311 0 -0.22238869432810321 0.20270017660886311 0 -0.20531973932905789 0.18786516470849429 0 -0.20495989645233489 0.20497104415835779 0 -0.20531973932905789 0.18786516470849429 0 -0.1880452818400728 0.1959988191052501 0 -0.20495989645233489 0.20497104415835779 0 -0.18915801373812369 0.1831520491821218 0 -0.20531973932905789 0.18786516470849429 0 -0.1880452818400728 0.1959988191052501 0 -0.1880452818400728 0.1959988191052501 0 -0.19181712431864709 0.21609959306580401 0 -0.20495989645233489 0.20497104415835779 0 -0.19181712431864709 0.21609959306580401 0 -0.20495989645233489 0.20497104415835779 0 -0.21024644864745209 0.22203763210217159 0 -0.22238869432810321 0.20270017660886311 0 -0.20495989645233489 0.20497104415835779 0 -0.21024644864745209 0.22203763210217159 0 -0.21024644864745209 0.22203763210217159 0 -0.19466920135099069 0.22958501467628581 0 -0.1992355655274293 0.24593280249212751 0 -0.19181712431864709 0.21609959306580401 0 -0.19466920135099069 0.22958501467628581 0 -0.1791633773006393 0.2321020610136677 0 -0.19181712431864709 0.21609959306580401 0 -0.21024644864745209 0.22203763210217159 0 -0.19466920135099069 0.22958501467628581 0 -0.19466920135099069 0.22958501467628581 0 -0.1992355655274293 0.24593280249212751 0 -0.1791633773006393 0.2321020610136677 0 -0.2257836452137138 0.23635557483672789 0 -0.21024644864745209 0.22203763210217159 0 -0.1992355655274293 0.24593280249212751 0 -0.2246923153491015 0.2580099189485946 0 -0.2257836452137138 0.23635557483672789 0 -0.1992355655274293 0.24593280249212751 0 -0.17708334863010269 0.25567643143270868 0 -0.16402011641522299 0.2417029532036388 0 -0.1791633773006393 0.2321020610136677 0 -0.17708334863010269 0.25567643143270868 0 -0.1992355655274293 0.24593280249212751 0 -0.1791633773006393 0.2321020610136677 0 -0.19181712431864709 0.21609959306580401 0 -0.1791633773006393 0.2321020610136677 0 -0.17347998560628269 0.21051595706923151 0 -0.1791633773006393 0.2321020610136677 0 -0.15921500987295961 0.22322696346696211 0 -0.17347998560628269 0.21051595706923151 0 -0.16402011641522299 0.2417029532036388 0 -0.1791633773006393 0.2321020610136677 0 -0.15921500987295961 0.22322696346696211 0 -0.1614470018874283 0.2075850678741156 0 -0.17347998560628269 0.21051595706923151 0 -0.1625857289415451 0.19372626535019241 0 -0.15921500987295961 0.22322696346696211 0 -0.1614470018874283 0.2075850678741156 0 -0.149386647102312 0.20817021023034141 0 -0.15921500987295961 0.22322696346696211 0 -0.1614470018874283 0.2075850678741156 0 -0.17347998560628269 0.21051595706923151 0 -0.1614470018874283 0.2075850678741156 0 -0.1625857289415451 0.19372626535019241 0 -0.149386647102312 0.20817021023034141 0 -0.1880452818400728 0.1959988191052501 0 -0.19181712431864709 0.21609959306580401 0 -0.17347998560628269 0.21051595706923151 0 -0.1880452818400728 0.1959988191052501 0 -0.1625857289415451 0.19372626535019241 0 -0.17423111358700491 0.18459620325179679 0 -0.1880452818400728 0.1959988191052501 0 -0.17347998560628269 0.21051595706923151 0 -0.1625857289415451 0.19372626535019241 0 -0.1880452818400728 0.1959988191052501 0 -0.1625857289415451 0.19372626535019241 0 -0.18915801373812369 0.1831520491821218 0 -0.1880452818400728 0.1959988191052501 0 -0.17423111358700491 0.18459620325179679 0 -0.1625857289415451 0.19372626535019241 0 -0.17423111358700491 0.18459620325179679 0 -0.1604633879170852 0.1844009334303035 0 -0.1625857289415451 0.19372626535019241 0 -0.13649532114903859 0.1905935745805587 0 -0.149386647102312 0.20817021023034141 0 -0.1625857289415451 0.19372626535019241 0 -0.1397119548681614 0.18924361007983259 0 -0.13649532114903859 0.1905935745805587 0 -0.1625857289415451 0.19372626535019241 0 -0.1397119548681614 0.18924361007983259 0 -0.14441449776289589 0.1872700356770981 0 -0.1625857289415451 0.19372626535019241 0 -0.1511468522884073 0.18224030603998859 0 -0.14441449776289589 0.1872700356770981 0 -0.1625857289415451 0.19372626535019241 0 -0.13649532114903859 0.1905935745805587 0 -0.13649532114903859 0.1905935745805587 0 -0.149386647102312 0.20817021023034141 0 -0.1397119548681614 0.18924361007983259 0 -0.13470318013734731 0.1881500858572335 0 -0.14441449776289589 0.1872700356770981 0 -0.13649532114903859 0.1905935745805587 0 -0.13598035861989621 0.19673933074901259 0 -0.14105487682786169 0.21861030832367209 0 -0.1397119548681614 0.18924361007983259 0 -0.13730490334988471 0.18914289795810979 0 -0.13470318013734731 0.1881500858572335 0 -0.1397119548681614 0.18924361007983259 0 -0.13730490334988471 0.18914289795810979 0 -0.13649532114903859 0.1905935745805587 0 -0.13649532114903859 0.1905935745805587 0 -0.13184076356291621 0.19098192860559959 0 -0.13598035861989621 0.19673933074901259 0 -0.13184076356291621 0.19098192860559959 0 -0.13598035861989621 0.19673933074901259 0 -0.13649532114903859 0.1905935745805587 0 -0.13470318013734731 0.1881500858572335 0 -0.13184076356291621 0.19098192860559959 0 -0.13649532114903859 0.1905935745805587 0 -0.13184076356291621 0.19098192860559959 0 -0.13649532114903859 0.1905935745805587 0 -0.13470318013734731 0.1881500858572335 0 -0.13730490334988471 0.18914289795810979 0 -0.13649532114903859 0.1905935745805587 0 -0.13470318013734731 0.1881500858572335 0 -0.13184076356291621 0.19098192860559959 0 -0.12782187032645351 0.19062319681827869 0 -0.13470318013734731 0.1881500858572335 0 -0.13081054133833811 0.18954908226137371 0 -0.13081054133833811 0.18954908226137371 0 -0.13184076356291621 0.19098192860559959 0 -0.12782187032645351 0.19062319681827869 0 -0.13081054133833811 0.18954908226137371 0 -0.12782187032645351 0.19062319681827869 0 -0.13470318013734731 0.1881500858572335 0 -0.13081054133833811 0.18954908226137371 0 -0.13184076356291621 0.19098192860559959 0 -0.13081054133833811 0.18954908226137371 0 -0.13184076356291621 0.19098192860559959 0 -0.13184076356291621 0.19098192860559959 0 -0.12982061872798731 0.19661420155223669 0 -0.13598035861989621 0.19673933074901259 0 -0.13184076356291621 0.19098192860559959 0 -0.12782187032645351 0.19062319681827869 0 -0.12982061872798731 0.19661420155223669 0 -0.13081054133833811 0.18954908226137371 0 -0.12782187032645351 0.19062319681827869 0 -0.12650879603858101 0.18356615947101279 0 -0.12782187032645351 0.19062319681827869 0 -0.1255604935427049 0.19940652691928251 0 -0.12982061872798731 0.19661420155223669 0 -0.1255604935427049 0.19940652691928251 0 -0.12946875259747301 0.20183595347192301 0 -0.1240103389159177 0.20769051875160641 0 -0.1255604935427049 0.19940652691928251 0 -0.12982061872798731 0.19661420155223669 0 -0.12946875259747301 0.20183595347192301 0 -0.12982061872798731 0.19661420155223669 0 -0.12946875259747301 0.20183595347192301 0 -0.13598035861989621 0.19673933074901259 0 -0.12946875259747301 0.20183595347192301 0 -0.13598035861989621 0.19673933074901259 0 -0.1343761124835684 0.20863573423156351 0 -0.13598035861989621 0.19673933074901259 0 -0.1343761124835684 0.20863573423156351 0 -0.14105487682786169 0.21861030832367209 0 -0.13649532114903859 0.1905935745805587 0 -0.14105487682786169 0.21861030832367209 0 -0.12946875259747301 0.20183595347192301 0 -0.1343761124835684 0.20863573423156351 0 -0.1240103389159177 0.20769051875160641 0 -0.1343761124835684 0.20863573423156351 0 -0.13047323729424359 0.22122652269772711 0 -0.1240103389159177 0.20769051875160641 0 -0.1343761124835684 0.20863573423156351 0 -0.14105487682786169 0.21861030832367209 0 -0.13047323729424359 0.22122652269772711 0 -0.13649532114903859 0.1905935745805587 0 -0.14105487682786169 0.21861030832367209 0 -0.149386647102312 0.20817021023034141 0 -0.15921500987295961 0.22322696346696211 0 -0.14105487682786169 0.21861030832367209 0 -0.149386647102312 0.20817021023034141 0 -0.15921500987295961 0.22322696346696211 0 -0.14105487682786169 0.21861030832367209 0 -0.14548168625616259 0.24581136689616459 0 -0.14105487682786169 0.21861030832367209 0 -0.14548168625616259 0.24581136689616459 0 -0.13047323729424359 0.22122652269772711 0 -0.14548168625616259 0.24581136689616459 0 -0.11916008899418459 0.22979487073713159 0 -0.14105487682786169 0.21861030832367209 0 -0.13047323729424359 0.22122652269772711 0 -0.14548168625616259 0.24581136689616459 0 -0.14548168625616259 0.24581136689616459 0 -0.12239846071040809 0.24920872385165541 0 -0.11916008899418459 0.22979487073713159 0 -0.1584297322636746 0.26031430093366159 0 -0.16402011641522299 0.2417029532036388 0 -0.14548168625616259 0.24581136689616459 0 -0.16402011641522299 0.2417029532036388 0 -0.15921500987295961 0.22322696346696211 0 -0.14548168625616259 0.24581136689616459 0 -0.16536414247421599 0.15123154081981871 0 -0.1663362416497445 0.13622625650504719 0 -0.1793307408761832 0.15343922590619549 0 -0.16536414247421599 0.15123154081981871 0 -0.1793307408761832 0.15343922590619549 0 -0.16947818063466899 0.16308706642553239 0 -0.16536414247421599 0.15123154081981871 0 -0.15677203831724251 0.15889203584728731 0 -0.15490351089324139 0.14451311941502959 0 -0.16536414247421599 0.15123154081981871 0 -0.1663362416497445 0.13622625650504719 0 -0.15490351089324139 0.14451311941502959 0 -0.17162251468671061 0.1232110551526293 0 -0.15512093016006639 0.12137006157731491 0 -0.1663362416497445 0.13622625650504719 0 -0.1663362416497445 0.13622625650504719 0 -0.15490351089324139 0.14451311941502959 0 -0.15155321825865031 0.12692579956075631 0 -0.1663362416497445 0.13622625650504719 0 -0.15155321825865031 0.12692579956075631 0 -0.15512093016006639 0.12137006157731491 0 -0.1663362416497445 0.13622625650504719 0 -0.15512093016006639 0.12137006157731491 0 -0.1663362416497445 0.13622625650504719 0 -0.15155321825865031 0.12692579956075631 0 -0.1885224804915504 0.15018430511561379 0 -0.1663362416497445 0.13622625650504719 0 -0.1811536052703496 0.1351722896646694 0 -0.17162251468671061 0.1232110551526293 0 -0.18839345918863831 0.12639625269004601 0 -0.1811536052703496 0.1351722896646694 0 -0.17162251468671061 0.1232110551526293 0 -0.1663362416497445 0.13622625650504719 0 -0.1811536052703496 0.1351722896646694 0 -0.19237270101108769 0.13991058201972151 0 -0.18839345918863831 0.12639625269004601 0 -0.1811536052703496 0.1351722896646694 0 -0.1885224804915504 0.15018430511561379 0 -0.1663362416497445 0.13622625650504719 0 -0.1793307408761832 0.15343922590619549 0 -0.1663362416497445 0.13622625650504719 0 -0.1793307408761832 0.15343922590619549 0 -0.1885224804915504 0.15018430511561379 0 -0.1663362416497445 0.13622625650504719 0 -0.1885224804915504 0.15018430511561379 0 -0.19237270101108769 0.13991058201972151 0 -0.1811536052703496 0.1351722896646694 0 -0.19232524010262059 0.17065219530734491 0 -0.1793307408761832 0.15343922590619549 0 -0.17999883219887489 0.16516840957122891 0 -0.19232524010262059 0.17065219530734491 0 -0.1793307408761832 0.15343922590619549 0 -0.19232524010262059 0.17065219530734491 0 -0.1885224804915504 0.15018430511561379 0 -0.1793307408761832 0.15343922590619549 0 -0.19232524010262059 0.17065219530734491 0 -0.17999883219887489 0.16516840957122891 0 -0.17886116718202669 0.17349515064584259 0 -0.17999883219887489 0.16516840957122891 0 -0.17886116718202669 0.17349515064584259 0 -0.16947818063466899 0.16308706642553239 0 -0.1793307408761832 0.15343922590619549 0 -0.17999883219887489 0.16516840957122891 0 -0.16947818063466899 0.16308706642553239 0 -0.18915801373812369 0.1831520491821218 0 -0.17886116718202669 0.17349515064584259 0 -0.17423111358700491 0.18459620325179679 0 -0.18915801373812369 0.1831520491821218 0 -0.19232524010262059 0.17065219530734491 0 -0.17886116718202669 0.17349515064584259 0 -0.17886116718202669 0.17349515064584259 0 -0.17423111358700491 0.18459620325179679 0 -0.16627310190317621 0.17680400179707029 0 -0.17423111358700491 0.18459620325179679 0 -0.16627310190317621 0.17680400179707029 0 -0.1604633879170852 0.1844009334303035 0 -0.16627310190317621 0.17680400179707029 0 -0.1511468522884073 0.18224030603998859 0 -0.16627310190317621 0.17680400179707029 0 -0.15906754774665521 0.17315279547673759 0 -0.16150939920807869 0.166413548963707 0 -0.16627310190317621 0.17680400179707029 0 -0.1511468522884073 0.18224030603998859 0 -0.1549352728546412 0.17919731251027801 0 -0.16627310190317621 0.17680400179707029 0 -0.15906754774665521 0.17315279547673759 0 -0.1549352728546412 0.17919731251027801 0 -0.16627310190317621 0.17680400179707029 0 -0.1604633879170852 0.1844009334303035 0 -0.1511468522884073 0.18224030603998859 0 -0.1625857289415451 0.19372626535019241 0 -0.1604633879170852 0.1844009334303035 0 -0.1511468522884073 0.18224030603998859 0 -0.17886116718202669 0.17349515064584259 0 -0.16627310190317621 0.17680400179707029 0 -0.16947818063466899 0.16308706642553239 0 -0.16627310190317621 0.17680400179707029 0 -0.16947818063466899 0.16308706642553239 0 -0.16150939920807869 0.166413548963707 0 -0.16150939920807869 0.166413548963707 0 -0.15677203831724251 0.15889203584728731 0 -0.1551025226248304 0.16733079661281891 0 -0.15906754774665521 0.17315279547673759 0 -0.16150939920807869 0.166413548963707 0 -0.1551025226248304 0.16733079661281891 0 -0.16947818063466899 0.16308706642553239 0 -0.16150939920807869 0.166413548963707 0 -0.15677203831724251 0.15889203584728731 0 -0.16536414247421599 0.15123154081981871 0 -0.16947818063466899 0.16308706642553239 0 -0.15677203831724251 0.15889203584728731 0 -0.15677203831724251 0.15889203584728731 0 -0.1551025226248304 0.16733079661281891 0 -0.14786060477659951 0.16477448024407981 0 -0.15677203831724251 0.15889203584728731 0 -0.14786060477659951 0.16477448024407981 0 -0.14497326706497701 0.15619836621398389 0 -0.15906754774665521 0.17315279547673759 0 -0.1551025226248304 0.16733079661281891 0 -0.1493884966074705 0.17334740084960981 0 -0.1551025226248304 0.16733079661281891 0 -0.14786060477659951 0.16477448024407981 0 -0.1493884966074705 0.17334740084960981 0 -0.14786060477659951 0.16477448024407981 0 -0.14296353827794939 0.1712980782443502 0 -0.1493884966074705 0.17334740084960981 0 -0.14786060477659951 0.16477448024407981 0 -0.14296353827794939 0.1712980782443502 0 -0.13914560087149849 0.16495245682226969 0 -0.14786060477659951 0.16477448024407981 0 -0.13914560087149849 0.16495245682226969 0 -0.14497326706497701 0.15619836621398389 0 -0.1511468522884073 0.18224030603998859 0 -0.1549352728546412 0.17919731251027801 0 -0.13513587082231099 0.18224026988952041 0 -0.1493884966074705 0.17334740084960981 0 -0.1549352728546412 0.17919731251027801 0 -0.13513587082231099 0.18224026988952041 0 -0.13470318013734731 0.1881500858572335 0 -0.1511468522884073 0.18224030603998859 0 -0.13470318013734731 0.1881500858572335 0 -0.1511468522884073 0.18224030603998859 0 -0.14441449776289589 0.1872700356770981 0 -0.1549352728546412 0.17919731251027801 0 -0.13513587082231099 0.18224026988952041 0 -0.15906754774665521 0.17315279547673759 0 -0.1493884966074705 0.17334740084960981 0 -0.1549352728546412 0.17919731251027801 0 -0.14296353827794939 0.1712980782443502 0 -0.1493884966074705 0.17334740084960981 0 -0.13513587082231099 0.18224026988952041 0 -0.13513587082231099 0.18224026988952041 0 -0.1318558138368508 0.16208556848941921 0 -0.13470318013734731 0.1881500858572335 0 -0.1511468522884073 0.18224030603998859 0 -0.13513587082231099 0.18224026988952041 0 -0.13513587082231099 0.18224026988952041 0 -0.1322603647043685 0.1768608097539236 0 -0.1318558138368508 0.16208556848941921 0 -0.14296353827794939 0.1712980782443502 0 -0.13513587082231099 0.18224026988952041 0 -0.13914560087149849 0.16495245682226969 0 -0.13470318013734731 0.1881500858572335 0 -0.13513587082231099 0.18224026988952041 0 -0.13085163627695509 0.18289871114460729 0 -0.13470318013734731 0.1881500858572335 0 -0.13513587082231099 0.18224026988952041 0 -0.13513587082231099 0.18224026988952041 0 -0.13085163627695509 0.18289871114460729 0 -0.13085163627695509 0.18289871114460729 0 -0.12272479767150379 0.1718181999799373 0 -0.1322603647043685 0.1768608097539236 0 -0.13085163627695509 0.18289871114460729 0 -0.12272479767150379 0.1718181999799373 0 -0.13085163627695509 0.18289871114460729 0 -0.12650879603858101 0.18356615947101279 0 -0.12272479767150379 0.1718181999799373 0 -0.13513587082231099 0.18224026988952041 0 -0.1322603647043685 0.1768608097539236 0 -0.13085163627695509 0.18289871114460729 0 -0.13085163627695509 0.18289871114460729 0 -0.12650879603858101 0.18356615947101279 0 -0.13081054133833811 0.18954908226137371 0 -0.12650879603858101 0.18356615947101279 0 -0.13081054133833811 0.18954908226137371 0 -0.13085163627695509 0.18289871114460729 0 -0.12650879603858101 0.18356615947101279 0 -0.13470318013734731 0.1881500858572335 0 -0.13081054133833811 0.18954908226137371 0 -0.13085163627695509 0.18289871114460729 0 -0.13470318013734731 0.1881500858572335 0 -0.13085163627695509 0.18289871114460729 0 -0.13513587082231099 0.18224026988952041 0 -0.13914560087149849 0.16495245682226969 0 -0.1318558138368508 0.16208556848941921 0 -0.13914560087149849 0.16495245682226969 0 -0.13173799718957629 0.15778260061021029 0 -0.14497326706497701 0.15619836621398389 0 -0.13914560087149849 0.16495245682226969 0 -0.1318558138368508 0.16208556848941921 0 -0.13173799718957629 0.15778260061021029 0 -0.1322603647043685 0.1768608097539236 0 -0.1318558138368508 0.16208556848941921 0 -0.1322603647043685 0.1768608097539236 0 -0.1318558138368508 0.16208556848941921 0 -0.12272479767150379 0.1718181999799373 0 -0.13173799718957629 0.15778260061021029 0 -0.12272479767150379 0.1718181999799373 0 -0.1318558138368508 0.16208556848941921 0 -0.13173799718957629 0.15778260061021029 0 -0.12272479767150379 0.1718181999799373 0 -0.13173799718957629 0.15778260061021029 0 -0.1217316554424835 0.1593157851010957 0 -0.12272479767150379 0.1718181999799373 0 -0.1318558138368508 0.16208556848941921 0 -0.13173799718957629 0.15778260061021029 0 -0.13173799718957629 0.15778260061021029 0 -0.1264941796651104 0.12914036777275359 0 -0.12088058938728841 0.14967783300830581 0 -0.13173799718957629 0.15778260061021029 0 -0.13095425995938231 0.12915849522848741 0 -0.13173799718957629 0.15778260061021029 0 -0.1264941796651104 0.12914036777275359 0 -0.13173799718957629 0.15778260061021029 0 -0.14164560772411261 0.14235420008548291 0 -0.13095425995938231 0.12915849522848741 0 -0.13173799718957629 0.15778260061021029 0 -0.14164560772411261 0.14235420008548291 0 -0.13173799718957629 0.15778260061021029 0 -0.14497326706497701 0.15619836621398389 0 -0.14164560772411261 0.14235420008548291 0 -0.14497326706497701 0.15619836621398389 0 -0.14164560772411261 0.14235420008548291 0 -0.15490351089324139 0.14451311941502959 0 -0.15677203831724251 0.15889203584728731 0 -0.14497326706497701 0.15619836621398389 0 -0.15490351089324139 0.14451311941502959 0 -0.14164560772411261 0.14235420008548291 0 -0.15490351089324139 0.14451311941502959 0 -0.15155321825865031 0.12692579956075631 0 -0.14164560772411261 0.14235420008548291 0 -0.1487090112585778 0.12513642102532321 0 -0.15155321825865031 0.12692579956075631 0 -0.1487090112585778 0.12513642102532321 0 -0.15155321825865031 0.12692579956075631 0 -0.14164560772411261 0.14235420008548291 0 -0.15155321825865031 0.12692579956075631 0 -0.13173799718957629 0.15778260061021029 0 -0.13095425995938231 0.12915849522848741 0 -0.1264941796651104 0.12914036777275359 0 -0.14164560772411261 0.14235420008548291 0 -0.1487090112585778 0.12513642102532321 0 -0.13095425995938231 0.12915849522848741 0 -0.1264941796651104 0.12914036777275359 0 -0.1075713076840287 0.12540789134565311 0 -0.1139013726696214 0.14136234152422411 0 -0.1264941796651104 0.12914036777275359 0 -0.1139013726696214 0.14136234152422411 0 -0.12088058938728841 0.14967783300830581 0 -0.1075713076840287 0.12540789134565311 0 -0.10137107253649021 0.1427035342097781 0 -0.09141071441716081 0.13475129531753779 0 -0.1075713076840287 0.12540789134565311 0 -0.09141071441716081 0.13475129531753779 0 -0.093673927622337574 0.11804829874094711 0 -0.1075713076840287 0.12540789134565311 0 -0.10137107253649021 0.1427035342097781 0 -0.1139013726696214 0.14136234152422411 0 -0.1059678514232404 0.1549975490324893 0 -0.09141071441716081 0.13475129531753779 0 -0.10137107253649021 0.1427035342097781 0 -0.1059678514232404 0.1549975490324893 0 -0.09141071441716081 0.13475129531753779 0 -0.10137107253649021 0.1427035342097781 0 -0.1139013726696214 0.14136234152422411 0 -0.1120479351039968 0.15726086709485779 0 -0.096532313246969231 0.15376220551894201 0 -0.1059678514232404 0.1549975490324893 0 -0.09141071441716081 0.13475129531753779 0 -0.10137107253649021 0.1427035342097781 0 -0.1059678514232404 0.1549975490324893 0 -0.1120479351039968 0.15726086709485779 0 -0.096532313246969231 0.15376220551894201 0 -0.1059678514232404 0.1549975490324893 0 -0.1022880964939263 0.15919949808722819 0 -0.10137107253649021 0.1427035342097781 0 -0.1120479351039968 0.15726086709485779 0 -0.1139013726696214 0.14136234152422411 0 -0.12088058938728841 0.14967783300830581 0 -0.1120479351039968 0.15726086709485779 0 -0.12088058938728841 0.14967783300830581 0 -0.1217316554424835 0.1593157851010957 0 -0.1120479351039968 0.15726086709485779 0 -0.13173799718957629 0.15778260061021029 0 -0.12088058938728841 0.14967783300830581 0 -0.1217316554424835 0.1593157851010957 0 -0.1059678514232404 0.1549975490324893 0 -0.1205249884293183 0.17524380274744189 0 -0.1059678514232404 0.1549975490324893 0 -0.1120479351039968 0.15726086709485779 0 -0.1205249884293183 0.17524380274744189 0 -0.1059678514232404 0.1549975490324893 0 -0.1205249884293183 0.17524380274744189 0 -0.1063021511680885 0.16547732636150281 0 -0.12272479767150379 0.1718181999799373 0 -0.1120479351039968 0.15726086709485779 0 -0.1205249884293183 0.17524380274744189 0 -0.1217316554424835 0.1593157851010957 0 -0.12272479767150379 0.1718181999799373 0 -0.1120479351039968 0.15726086709485779 0 -0.12272479767150379 0.1718181999799373 0 -0.1120479351039968 0.15726086709485779 0 -0.1205249884293183 0.17524380274744189 0 -0.10889721654058029 0.17187836527557471 0 -0.1063021511680885 0.16547732636150281 0 -0.1205249884293183 0.17524380274744189 0 -0.1139401967340319 0.18549781942407831 0 -0.12782187032645351 0.19062319681827869 0 -0.12650879603858101 0.18356615947101279 0 -0.1139401967340319 0.18549781942407831 0 -0.12650879603858101 0.18356615947101279 0 -0.1139401967340319 0.18549781942407831 0 -0.12650879603858101 0.18356615947101279 0 -0.1205249884293183 0.17524380274744189 0 -0.1139401967340319 0.18549781942407831 0 -0.12650879603858101 0.18356615947101279 0 -0.12272479767150379 0.1718181999799373 0 -0.1205249884293183 0.17524380274744189 0 -0.12650879603858101 0.18356615947101279 0 -0.1205249884293183 0.17524380274744189 0 -0.12272479767150379 0.1718181999799373 0 -0.1205249884293183 0.17524380274744189 0 -0.1205249884293183 0.17524380274744189 0 -0.11051457285052139 0.1780554473362389 0 -0.10889721654058029 0.17187836527557471 0 -0.1205249884293183 0.17524380274744189 0 -0.11051457285052139 0.1780554473362389 0 -0.1139401967340319 0.18549781942407831 0 -0.11051457285052139 0.1780554473362389 0 -0.1139401967340319 0.18549781942407831 0 -0.1051126072686825 0.18078435944167781 0 -0.1139401967340319 0.18549781942407831 0 -0.11157985193502371 0.18917341252582559 0 -0.1139401967340319 0.18549781942407831 0 -0.1051126072686825 0.18078435944167781 0 -0.097944026696918873 0.18795626052116651 0 -0.1139401967340319 0.18549781942407831 0 -0.097944026696918873 0.18795626052116651 0 -0.1051126072686825 0.18078435944167781 0 -0.1048223641162945 0.17544468712886549 0 -0.09841641976267626 0.17662962154769321 0 -0.11051457285052139 0.1780554473362389 0 -0.1051126072686825 0.18078435944167781 0 -0.1048223641162945 0.17544468712886549 0 -0.11051457285052139 0.1780554473362389 0 -0.10889721654058029 0.17187836527557471 0 -0.1048223641162945 0.17544468712886549 0 -0.10889721654058029 0.17187836527557471 0 -0.1048223641162945 0.17544468712886549 0 -0.10117100415901201 0.16987564204314309 0 -0.1048223641162945 0.17544468712886549 0 -0.09841641976267626 0.17662962154769321 0 -0.10117100415901201 0.16987564204314309 0 -0.1051126072686825 0.18078435944167781 0 -0.09841641976267626 0.17662962154769321 0 -0.097944026696918873 0.18795626052116651 0 -0.09841641976267626 0.17662962154769321 0 -0.090613635159056308 0.17983170177915089 0 -0.097944026696918873 0.18795626052116651 0 -0.1059678514232404 0.1549975490324893 0 -0.1022880964939263 0.15919949808722819 0 -0.1063021511680885 0.16547732636150281 0 -0.1022880964939263 0.15919949808722819 0 -0.1063021511680885 0.16547732636150281 0 -0.098980889122722363 0.16256121842380561 0 -0.10889721654058029 0.17187836527557471 0 -0.1063021511680885 0.16547732636150281 0 -0.10117100415901201 0.16987564204314309 0 -0.1063021511680885 0.16547732636150281 0 -0.10117100415901201 0.16987564204314309 0 -0.098980889122722363 0.16256121842380561 0 -0.09841641976267626 0.17662962154769321 0 -0.10117100415901201 0.16987564204314309 0 -0.091776433567411914 0.1690652936469266 0 -0.10117100415901201 0.16987564204314309 0 -0.098980889122722363 0.16256121842380561 0 -0.091776433567411914 0.1690652936469266 0 -0.096532313246969231 0.15376220551894201 0 -0.098980889122722363 0.16256121842380561 0 -0.091381309067865457 0.15924707431092 0 -0.098980889122722363 0.16256121842380561 0 -0.091381309067865457 0.15924707431092 0 -0.091776433567411914 0.1690652936469266 0 -0.096532313246969231 0.15376220551894201 0 -0.1022880964939263 0.15919949808722819 0 -0.098980889122722363 0.16256121842380561 0 -0.091381309067865457 0.15924707431092 0 -0.081199094132618138 0.16018253748460209 0 -0.08841781526960564 0.1506641164803238 0 -0.091381309067865457 0.15924707431092 0 -0.091776433567411914 0.1690652936469266 0 -0.081199094132618138 0.16018253748460209 0 -0.091776433567411914 0.1690652936469266 0 -0.081199094132618138 0.16018253748460209 0 -0.080912071527475177 0.1746966028502154 0 -0.090613635159056308 0.17983170177915089 0 -0.081990166797998615 0.18653219764129361 0 -0.097944026696918873 0.18795626052116651 0 -0.081990166797998615 0.18653219764129361 0 -0.097944026696918873 0.18795626052116651 0 -0.091776433567411914 0.1690652936469266 0 -0.090613635159056308 0.17983170177915089 0 -0.080912071527475177 0.1746966028502154 0 -0.09841641976267626 0.17662962154769321 0 -0.091776433567411914 0.1690652936469266 0 -0.090613635159056308 0.17983170177915089 0 -0.090613635159056308 0.17983170177915089 0 -0.080912071527475177 0.1746966028502154 0 -0.084104813200846479 0.18035432063214951 0 -0.080912071527475177 0.1746966028502154 0 -0.084104813200846479 0.18035432063214951 0 -0.077130053694179912 0.18445742039988899 0 -0.090613635159056308 0.17983170177915089 0 -0.084104813200846479 0.18035432063214951 0 -0.081990166797998615 0.18653219764129361 0 -0.081990166797998615 0.18653219764129361 0 -0.077130053694179912 0.18445742039988899 0 -0.078774311760827526 0.1909024416950979 0 -0.084104813200846479 0.18035432063214951 0 -0.081990166797998615 0.18653219764129361 0 -0.077130053694179912 0.18445742039988899 0 -0.072632647547005297 0.17985830935403979 0 -0.067262738939772748 0.16805113731736959 0 -0.065634821334183885 0.19085383763484401 0 -0.067262738939772748 0.16805113731736959 0 -0.065634821334183885 0.19085383763484401 0 -0.055549509222324697 0.18023608485537079 0 -0.067262738939772748 0.16805113731736959 0 -0.065634821334183885 0.19085383763484401 0 -0.072632647547005297 0.17985830935403979 0 -0.077130053694179912 0.18445742039988899 0 -0.065634821334183885 0.19085383763484401 0 -0.080912071527475177 0.1746966028502154 0 -0.072632647547005297 0.17985830935403979 0 -0.067262738939772748 0.16805113731736959 0 -0.080912071527475177 0.1746966028502154 0 -0.072632647547005297 0.17985830935403979 0 -0.077130053694179912 0.18445742039988899 0 -0.081199094132618138 0.16018253748460209 0 -0.067262738939772748 0.16805113731736959 0 -0.068890656545361612 0.1452484369998952 0 -0.067262738939772748 0.16805113731736959 0 -0.068890656545361612 0.1452484369998952 0 -0.081199094132618138 0.16018253748460209 0 -0.080912071527475177 0.1746966028502154 0 -0.067262738939772748 0.16805113731736959 0 -0.081199094132618138 0.16018253748460209 0 -0.068890656545361612 0.1452484369998952 0 -0.081515005974284863 0.1426408413637249 0 -0.067262738939772748 0.16805113731736959 0 -0.068890656545361612 0.1452484369998952 0 -0.054221750566417537 0.15267247508177889 0 -0.068890656545361612 0.1452484369998952 0 -0.054576734574750249 0.1339179416313582 0 -0.070518574150950461 0.12244573668242099 0 -0.068890656545361612 0.1452484369998952 0 -0.070518574150950461 0.12244573668242099 0 -0.068890656545361612 0.1452484369998952 0 -0.081413616827771013 0.1284346449919557 0 -0.070518574150950461 0.12244573668242099 0 -0.068890656545361612 0.1452484369998952 0 -0.081413616827771013 0.1284346449919557 0 -0.081515005974284863 0.1426408413637249 0 -0.081413616827771013 0.1284346449919557 0 -0.09141071441716081 0.13475129531753779 0 -0.081515005974284863 0.1426408413637249 0 -0.081413616827771013 0.1284346449919557 0 -0.09141071441716081 0.13475129531753779 0 -0.093673927622337574 0.11804829874094711 0 -0.09141071441716081 0.13475129531753779 0 -0.08841781526960564 0.1506641164803238 0 -0.081515005974284863 0.1426408413637249 0 -0.081199094132618138 0.16018253748460209 0 -0.08841781526960564 0.1506641164803238 0 -0.081515005974284863 0.1426408413637249 0 -0.096532313246969231 0.15376220551894201 0 -0.09141071441716081 0.13475129531753779 0 -0.08841781526960564 0.1506641164803238 0 -0.096532313246969231 0.15376220551894201 0 -0.091381309067865457 0.15924707431092 0 -0.08841781526960564 0.1506641164803238 0 -0.1077918442021823 0.24475293382975541 0 -0.11916008899418459 0.22979487073713159 0 -0.092954540558931431 0.23680026945980279 0 -0.095118341533690268 0.25507877921583277 0 -0.1077918442021823 0.24475293382975541 0 -0.092954540558931431 0.23680026945980279 0 -0.095118341533690268 0.25507877921583277 0 -0.092954540558931431 0.23680026945980279 0 -0.1107955376595843 0.25477349258218562 0 -0.1077918442021823 0.24475293382975541 0 -0.12239846071040809 0.24920872385165541 0 -0.1077918442021823 0.24475293382975541 0 -0.12239846071040809 0.24920872385165541 0 -0.11916008899418459 0.22979487073713159 0 -0.13047323729424359 0.22122652269772711 0 -0.11916008899418459 0.22979487073713159 0 -0.1187563202877663 0.21681633724622451 0 -0.11916008899418459 0.22979487073713159 0 -0.1073414887541969 0.21820121115238861 0 -0.1187563202877663 0.21681633724622451 0 -0.11916008899418459 0.22979487073713159 0 -0.092954540558931431 0.23680026945980279 0 -0.11916008899418459 0.22979487073713159 0 -0.1073414887541969 0.21820121115238861 0 -0.092954540558931431 0.23680026945980279 0 -0.095972727873671296 0.2206718285035463 0 -0.1073414887541969 0.21820121115238861 0 -0.092954540558931431 0.23680026945980279 0 -0.095972727873671296 0.2206718285035463 0 -0.098854916361446304 0.2136510515698877 0 -0.1073414887541969 0.21820121115238861 0 -0.095972727873671296 0.2206718285035463 0 -0.098854916361446304 0.2136510515698877 0 -0.094492077823573994 0.21103226581358159 0 -0.098854916361446304 0.2136510515698877 0 -0.095671365317517909 0.2067559273788058 0 -0.10402828467232079 0.2100150694351299 0 -0.098854916361446304 0.2136510515698877 0 -0.094492077823573994 0.21103226581358159 0 -0.095671365317517909 0.2067559273788058 0 -0.094492077823573994 0.21103226581358159 0 -0.095671365317517909 0.2067559273788058 0 -0.092412689700083442 0.20743998062449201 0 -0.10402828467232079 0.2100150694351299 0 -0.1076488545720633 0.20477956871258851 0 -0.1129666717145098 0.20943339795260979 0 -0.095671365317517909 0.2067559273788058 0 -0.10402828467232079 0.2100150694351299 0 -0.1076488545720633 0.20477956871258851 0 -0.10402828467232079 0.2100150694351299 0 -0.1073414887541969 0.21820121115238861 0 -0.1129666717145098 0.20943339795260979 0 -0.098854916361446304 0.2136510515698877 0 -0.10402828467232079 0.2100150694351299 0 -0.1073414887541969 0.21820121115238861 0 -0.1073414887541969 0.21820121115238861 0 -0.1187563202877663 0.21681633724622451 0 -0.1129666717145098 0.20943339795260979 0 -0.1187563202877663 0.21681633724622451 0 -0.1240103389159177 0.20769051875160641 0 -0.1129666717145098 0.20943339795260979 0 -0.13047323729424359 0.22122652269772711 0 -0.1187563202877663 0.21681633724622451 0 -0.1240103389159177 0.20769051875160641 0 -0.1240103389159177 0.20769051875160641 0 -0.1129666717145098 0.20943339795260979 0 -0.1166808871456933 0.20026876400236779 0 -0.1076488545720633 0.20477956871258851 0 -0.1129666717145098 0.20943339795260979 0 -0.1166808871456933 0.20026876400236779 0 -0.1076488545720633 0.20477956871258851 0 -0.1166808871456933 0.20026876400236779 0 -0.1088970640102747 0.1974246847940293 0 -0.12782187032645351 0.19062319681827869 0 -0.1166808871456933 0.20026876400236779 0 -0.1088970640102747 0.1974246847940293 0 -0.12782187032645351 0.19062319681827869 0 -0.1139401967340319 0.18549781942407831 0 -0.11157985193502371 0.18917341252582559 0 -0.12782187032645351 0.19062319681827869 0 -0.1088970640102747 0.1974246847940293 0 -0.12782187032645351 0.19062319681827869 0 -0.1102404820475926 0.19125911573367921 0 -0.1088970640102747 0.1974246847940293 0 -0.12782187032645351 0.19062319681827869 0 -0.11157985193502371 0.18917341252582559 0 -0.1102404820475926 0.19125911573367921 0 -0.12782187032645351 0.19062319681827869 0 -0.11157985193502371 0.18917341252582559 0 -0.1255604935427049 0.19940652691928251 0 -0.1240103389159177 0.20769051875160641 0 -0.1166808871456933 0.20026876400236779 0 -0.12782187032645351 0.19062319681827869 0 -0.1255604935427049 0.19940652691928251 0 -0.1166808871456933 0.20026876400236779 0 -0.11157985193502371 0.18917341252582559 0 -0.1102404820475926 0.19125911573367921 0 -0.1088970640102747 0.1974246847940293 0 -0.097978604953467385 0.19778067013072459 0 -0.089972257694095781 0.20422617276977981 0 -0.095671365317517909 0.2067559273788058 0 -0.1088970640102747 0.1974246847940293 0 -0.089972257694095781 0.20422617276977981 0 -0.11157985193502371 0.18917341252582559 0 -0.1102404820475926 0.19125911573367921 0 -0.1053280059286554 0.19271882874108501 0 -0.1088970640102747 0.1974246847940293 0 -0.089972257694095781 0.20422617276977981 0 -0.11157985193502371 0.18917341252582559 0 -0.097944026696918873 0.18795626052116651 0 -0.11157985193502371 0.18917341252582559 0 -0.1053280059286554 0.19271882874108501 0 -0.097944026696918873 0.18795626052116651 0 -0.1139401967340319 0.18549781942407831 0 -0.11157985193502371 0.18917341252582559 0 -0.097944026696918873 0.18795626052116651 0 -0.1102404820475926 0.19125911573367921 0 -0.1053280059286554 0.19271882874108501 0 -0.1088970640102747 0.1974246847940293 0 -0.095671365317517909 0.2067559273788058 0 -0.1076488545720633 0.20477956871258851 0 -0.1088970640102747 0.1974246847940293 0 -0.1053280059286554 0.19271882874108501 0 -0.1088970640102747 0.1974246847940293 0 -0.097978604953467385 0.19778067013072459 0 -0.1053280059286554 0.19271882874108501 0 -0.097978604953467385 0.19778067013072459 0 -0.097944026696918873 0.18795626052116651 0 -0.097978604953467385 0.19778067013072459 0 -0.097944026696918873 0.18795626052116651 0 -0.091699384353946617 0.19756200648351949 0 -0.081990166797998615 0.18653219764129361 0 -0.097944026696918873 0.18795626052116651 0 -0.078774311760827526 0.1909024416950979 0 -0.097944026696918873 0.18795626052116651 0 -0.078774311760827526 0.1909024416950979 0 -0.097944026696918873 0.18795626052116651 0 -0.086633107205569368 0.19592632761222259 0 -0.078774311760827526 0.1909024416950979 0 -0.097944026696918873 0.18795626052116651 0 -0.091699384353946617 0.19756200648351949 0 -0.086633107205569368 0.19592632761222259 0 -0.097978604953467385 0.19778067013072459 0 -0.091699384353946617 0.19756200648351949 0 -0.090594378521073632 0.20019800276939759 0 -0.097978604953467385 0.19778067013072459 0 -0.090594378521073632 0.20019800276939759 0 -0.089972257694095781 0.20422617276977981 0 -0.091699384353946617 0.19756200648351949 0 -0.090594378521073632 0.20019800276939759 0 -0.088749794631799286 0.19846837468082881 0 -0.090594378521073632 0.20019800276939759 0 -0.087153713919559755 0.2007704464246434 0 -0.089972257694095781 0.20422617276977981 0 -0.090594378521073632 0.20019800276939759 0 -0.087153713919559755 0.2007704464246434 0 -0.088749794631799286 0.19846837468082881 0 -0.091699384353946617 0.19756200648351949 0 -0.086633107205569368 0.19592632761222259 0 -0.088749794631799286 0.19846837468082881 0 -0.087153713919559755 0.2007704464246434 0 -0.086633107205569368 0.19592632761222259 0 -0.088749794631799286 0.19846837468082881 0 -0.087153713919559755 0.2007704464246434 0 -0.086633107205569368 0.19592632761222259 0 -0.083000911422065185 0.19990291903999191 0 -0.086633107205569368 0.19592632761222259 0 -0.083000911422065185 0.19990291903999191 0 -0.08131091793527985 0.1958536062776961 0 -0.087153713919559755 0.2007704464246434 0 -0.083000911422065185 0.19990291903999191 0 -0.085681182829230054 0.2048333086320458 0 -0.083000911422065185 0.19990291903999191 0 -0.077570467645842744 0.1981174064381751 0 -0.080115532930150224 0.20481308740185819 0 -0.083000911422065185 0.19990291903999191 0 -0.08131091793527985 0.1958536062776961 0 -0.077570467645842744 0.1981174064381751 0 -0.08131091793527985 0.1958536062776961 0 -0.078774311760827526 0.1909024416950979 0 -0.077570467645842744 0.1981174064381751 0 -0.086633107205569368 0.19592632761222259 0 -0.08131091793527985 0.1958536062776961 0 -0.078774311760827526 0.1909024416950979 0 -0.078774311760827526 0.1909024416950979 0 -0.069872978793345489 0.19682297426003059 0 -0.059604596824736213 0.1938486228690294 0 -0.078774311760827526 0.1909024416950979 0 -0.065634821334183885 0.19085383763484401 0 -0.059604596824736213 0.1938486228690294 0 -0.077130053694179912 0.18445742039988899 0 -0.078774311760827526 0.1909024416950979 0 -0.065634821334183885 0.19085383763484401 0 -0.078774311760827526 0.1909024416950979 0 -0.069872978793345489 0.19682297426003059 0 -0.077570467645842744 0.1981174064381751 0 -0.078774311760827526 0.1909024416950979 0 -0.059604596824736213 0.1938486228690294 0 -0.064686429839550003 0.19900745585684829 0 -0.069872978793345489 0.19682297426003059 0 -0.059604596824736213 0.1938486228690294 0 -0.064686429839550003 0.19900745585684829 0 -0.067969193912958886 0.20173885566738209 0 -0.061626928082827687 0.2036608219695667 0 -0.064686429839550003 0.19900745585684829 0 -0.069872978793345489 0.19682297426003059 0 -0.067969193912958886 0.20173885566738209 0 -0.069872978793345489 0.19682297426003059 0 -0.067969193912958886 0.20173885566738209 0 -0.07325263073117283 0.2017894668927544 0 -0.069872978793345489 0.19682297426003059 0 -0.07325263073117283 0.2017894668927544 0 -0.077570467645842744 0.1981174064381751 0 -0.07325263073117283 0.2017894668927544 0 -0.077570467645842744 0.1981174064381751 0 -0.080115532930150224 0.20481308740185819 0 -0.07723472296379072 0.21030060449403379 0 -0.071062958629235118 0.20749646203494149 0 -0.080115532930150224 0.20481308740185819 0 -0.07325263073117283 0.2017894668927544 0 -0.071062958629235118 0.20749646203494149 0 -0.080115532930150224 0.20481308740185819 0 -0.067969193912958886 0.20173885566738209 0 -0.07325263073117283 0.2017894668927544 0 -0.071062958629235118 0.20749646203494149 0 -0.071062958629235118 0.20749646203494149 0 -0.063180472889600353 0.21393061275763159 0 -0.061626928082827687 0.2036608219695667 0 -0.067969193912958886 0.20173885566738209 0 -0.071062958629235118 0.20749646203494149 0 -0.061626928082827687 0.2036608219695667 0 -0.071062958629235118 0.20749646203494149 0 -0.063180472889600353 0.21393061275763159 0 -0.07284744998003001 0.21716695237991929 0 -0.07723472296379072 0.21030060449403379 0 -0.07284744998003001 0.21716695237991929 0 -0.083047482382757401 0.21764525228648979 0 -0.07723472296379072 0.21030060449403379 0 -0.071062958629235118 0.20749646203494149 0 -0.07284744998003001 0.21716695237991929 0 -0.083047482382757401 0.21764525228648979 0 -0.083118795814214885 0.20906756187004569 0 -0.089515057965146097 0.2077455565358009 0 -0.07723472296379072 0.21030060449403379 0 -0.083047482382757401 0.21764525228648979 0 -0.083118795814214885 0.20906756187004569 0 -0.07723472296379072 0.21030060449403379 0 -0.080115532930150224 0.20481308740185819 0 -0.083118795814214885 0.20906756187004569 0 -0.080115532930150224 0.20481308740185819 0 -0.085681182829230054 0.2048333086320458 0 -0.083118795814214885 0.20906756187004569 0 -0.083000911422065185 0.19990291903999191 0 -0.080115532930150224 0.20481308740185819 0 -0.085681182829230054 0.2048333086320458 0 -0.085681182829230054 0.2048333086320458 0 -0.083118795814214885 0.20906756187004569 0 -0.089515057965146097 0.2077455565358009 0 -0.087153713919559755 0.2007704464246434 0 -0.085681182829230054 0.2048333086320458 0 -0.089972257694095781 0.20422617276977981 0 -0.085681182829230054 0.2048333086320458 0 -0.089515057965146097 0.2077455565358009 0 -0.089972257694095781 0.20422617276977981 0 -0.095671365317517909 0.2067559273788058 0 -0.089972257694095781 0.20422617276977981 0 -0.092412689700083442 0.20743998062449201 0 -0.089515057965146097 0.2077455565358009 0 -0.089972257694095781 0.20422617276977981 0 -0.092412689700083442 0.20743998062449201 0 -0.094492077823573994 0.21103226581358159 0 -0.089515057965146097 0.2077455565358009 0 -0.092412689700083442 0.20743998062449201 0 -0.095972727873671296 0.2206718285035463 0 -0.094492077823573994 0.21103226581358159 0 -0.089515057965146097 0.2077455565358009 0 -0.089515057965146097 0.2077455565358009 0 -0.092954540558931431 0.23680026945980279 0 -0.083047482382757401 0.21764525228648979 0 -0.089515057965146097 0.2077455565358009 0 -0.092954540558931431 0.23680026945980279 0 -0.083047482382757401 0.21764525228648979 0 -0.0797727672322429 0.22418734256211131 0 -0.092954540558931431 0.23680026945980279 0 -0.095972727873671296 0.2206718285035463 0 -0.089515057965146097 0.2077455565358009 0 -0.092954540558931431 0.23680026945980279 0 -0.079730636553076412 0.23284911369301839 0 -0.0797727672322429 0.22418734256211131 0 -0.092954540558931431 0.23680026945980279 0 -0.07284744998003001 0.21716695237991929 0 -0.083047482382757401 0.21764525228648979 0 -0.0797727672322429 0.22418734256211131 0 -0.07284744998003001 0.21716695237991929 0 -0.0797727672322429 0.22418734256211131 0 -0.062786295782553694 0.22944144014430801 0 -0.079730636553076412 0.23284911369301839 0 -0.0797727672322429 0.22418734256211131 0 -0.062786295782553694 0.22944144014430801 0 -0.063180472889600353 0.21393061275763159 0 -0.07284744998003001 0.21716695237991929 0 -0.062786295782553694 0.22944144014430801 0 -0.062786295782553694 0.22944144014430801 0 -0.077333197375133444 0.24097624531684669 0 -0.052881971493888867 0.24751266973014979 0 -0.077333197375133444 0.24097624531684669 0 -0.052881971493888867 0.24751266973014979 0 -0.079730636553076412 0.23284911369301839 0 -0.062786295782553694 0.22944144014430801 0 -0.077333197375133444 0.24097624531684669 0 -0.064254688249800379 0.25667098740342192 0 -0.077333197375133444 0.24097624531684669 0 -0.052881971493888867 0.24751266973014979 0 -0.062786295782553694 0.22944144014430801 0 -0.077333197375133444 0.24097624531684669 0 -0.095118341533690268 0.25507877921583277 0 -0.077333197375133444 0.24097624531684669 0 -0.092954540558931431 0.23680026945980279 0 -0.095118341533690268 0.25507877921583277 0 -0.077333197375133444 0.24097624531684669 0 -0.077333197375133444 0.24097624531684669 0 -0.092954540558931431 0.23680026945980279 0 -0.079730636553076412 0.23284911369301839 0 -0.077333197375133444 0.24097624531684669 0 -0.092954540558931431 0.23680026945980279 0 -0.036418311207255548 0.2349273439165635 0 -0.052881971493888867 0.24751266973014979 0 -0.050020540649615662 0.23419464800685491 0 -0.028430745612644661 0.25404909414345389 0 -0.036418311207255548 0.2349273439165635 0 -0.052881971493888867 0.24751266973014979 0 -0.062786295782553694 0.22944144014430801 0 -0.052881971493888867 0.24751266973014979 0 -0.050020540649615662 0.23419464800685491 0 -0.062786295782553694 0.22944144014430801 0 -0.050020540649615662 0.23419464800685491 0 -0.048239394189975048 0.2179066349717679 0 -0.063180472889600353 0.21393061275763159 0 -0.062786295782553694 0.22944144014430801 0 -0.048239394189975048 0.2179066349717679 0 -0.062786295782553694 0.22944144014430801 0 -0.048239394189975048 0.2179066349717679 0 -0.036418311207255548 0.2349273439165635 0 -0.050020540649615662 0.23419464800685491 0 -0.048239394189975048 0.2179066349717679 0 -0.036418311207255548 0.2349273439165635 0 -0.031863592739214318 0.21448514191410681 0 -0.048239394189975048 0.2179066349717679 0 -0.031863592739214318 0.21448514191410681 0 -0.048239394189975048 0.2179066349717679 0 -0.035740149174309531 0.20047863842295471 0 -0.048239394189975048 0.2179066349717679 0 -0.050362314297388508 0.2017462128731429 0 -0.035740149174309531 0.20047863842295471 0 -0.048239394189975048 0.2179066349717679 0 -0.055852277364947897 0.20931107064302731 0 -0.050362314297388508 0.2017462128731429 0 -0.063180472889600353 0.21393061275763159 0 -0.048239394189975048 0.2179066349717679 0 -0.055852277364947897 0.20931107064302731 0 -0.063180472889600353 0.21393061275763159 0 -0.055852277364947897 0.20931107064302731 0 -0.061626928082827687 0.2036608219695667 0 -0.055852277364947897 0.20931107064302731 0 -0.061626928082827687 0.2036608219695667 0 -0.050362314297388508 0.2017462128731429 0 -0.064686429839550003 0.19900745585684829 0 -0.061626928082827687 0.2036608219695667 0 -0.059604596824736213 0.1938486228690294 0 -0.061626928082827687 0.2036608219695667 0 -0.050362314297388508 0.2017462128731429 0 -0.059604596824736213 0.1938486228690294 0 -0.065634821334183885 0.19085383763484401 0 -0.059604596824736213 0.1938486228690294 0 -0.055549509222324697 0.18023608485537079 0 -0.059604596824736213 0.1938486228690294 0 -0.046147172203450153 0.18942895734676929 0 -0.055549509222324697 0.18023608485537079 0 -0.050362314297388508 0.2017462128731429 0 -0.059604596824736213 0.1938486228690294 0 -0.046147172203450153 0.18942895734676929 0 -0.050362314297388508 0.2017462128731429 0 -0.046147172203450153 0.18942895734676929 0 -0.035740149174309531 0.20047863842295471 0 -0.046147172203450153 0.18942895734676929 0 -0.035740149174309531 0.20047863842295471 0 -0.033929580519229598 0.18529784726130391 0 -0.035740149174309531 0.20047863842295471 0 -0.019134616442041591 0.18944378515470639 0 -0.033929580519229598 0.18529784726130391 0 -0.035740149174309531 0.20047863842295471 0 -0.019134616442041591 0.18944378515470639 0 -0.021121261792717311 0.20535170820237031 0 -0.019134616442041591 0.18944378515470639 0 -0.0016568719922026871 0.2009702443398711 0 -0.021121261792717311 0.20535170820237031 0 -0.019134616442041591 0.18944378515470639 0 -0.0016568719922026871 0.2009702443398711 0 -0.0054011812225076708 0.18534100671761389 0 -0.0016568719922026871 0.2009702443398711 0 -0.017211078615818429 0.22138073118021209 0 -0.00022409353603266441 0.22794192581451611 0 -0.0016568719922026871 0.2009702443398711 0 -0.021121261792717311 0.20535170820237031 0 -0.017211078615818429 0.22138073118021209 0 -0.031863592739214318 0.21448514191410681 0 -0.021121261792717311 0.20535170820237031 0 -0.017211078615818429 0.22138073118021209 0 -0.031863592739214318 0.21448514191410681 0 -0.035740149174309531 0.20047863842295471 0 -0.021121261792717311 0.20535170820237031 0 -0.036418311207255548 0.2349273439165635 0 -0.017211078615818429 0.22138073118021209 0 -0.016072689309413999 0.24082991343790081 0 -0.036418311207255548 0.2349273439165635 0 -0.031863592739214318 0.21448514191410681 0 -0.017211078615818429 0.22138073118021209 0 -0.017211078615818429 0.22138073118021209 0 -0.00022409353603266441 0.22794192581451611 0 -0.016072689309413999 0.24082991343790081 0 -0.01353007234780859 0.26055202432608088 0 -0.00045679976148860701 0.24809875771850209 0 -0.016072689309413999 0.24082991343790081 0 -0.00022409353603266441 0.22794192581451611 0 -0.00045679976148860701 0.24809875771850209 0 -0.016072689309413999 0.24082991343790081 0 -0.028430745612644661 0.25404909414345389 0 -0.036418311207255548 0.2349273439165635 0 -0.016072689309413999 0.24082991343790081 0 -0.033194960055921777 0.14425051463511271 0 -0.039170336409938673 0.15813068917439599 0 -0.022462081040142631 0.1561272175492214 0 -0.04462587568541463 0.14471993992151441 0 -0.033194960055921777 0.14425051463511271 0 -0.041965596820044908 0.13462807908492619 0 -0.04462587568541463 0.14471993992151441 0 -0.054221750566417537 0.15267247508177889 0 -0.039170336409938673 0.15813068917439599 0 -0.04462587568541463 0.14471993992151441 0 -0.033194960055921777 0.14425051463511271 0 -0.039170336409938673 0.15813068917439599 0 -0.033194960055921777 0.14425051463511271 0 -0.034184970048351353 0.13309497835154491 0 -0.041965596820044908 0.13462807908492619 0 -0.033194960055921777 0.14425051463511271 0 -0.034184970048351353 0.13309497835154491 0 -0.028194241421983238 0.13742380327457709 0 -0.033797996019737417 0.12593711880714331 0 -0.029387318715036571 0.12693889827351201 0 -0.034184970048351353 0.13309497835154491 0 -0.033797996019737417 0.12593711880714331 0 -0.029387318715036571 0.12693889827351201 0 -0.034184970048351353 0.13309497835154491 0 -0.038874500414573653 0.1294911787899683 0 -0.041965596820044908 0.13462807908492619 0 -0.034184970048351353 0.13309497835154491 0 -0.033797996019737417 0.12593711880714331 0 -0.038874500414573653 0.1294911787899683 0 -0.038874500414573653 0.1294911787899683 0 -0.041965596820044908 0.13462807908492619 0 -0.045549438770160947 0.1243045389162587 0 -0.033797996019737417 0.12593711880714331 0 -0.038874500414573653 0.1294911787899683 0 -0.045549438770160947 0.1243045389162587 0 -0.054576734574750249 0.1339179416313582 0 -0.045549438770160947 0.1243045389162587 0 -0.057694624707726128 0.11809935769594319 0 -0.04462587568541463 0.14471993992151441 0 -0.041965596820044908 0.13462807908492619 0 -0.054576734574750249 0.1339179416313582 0 -0.041965596820044908 0.13462807908492619 0 -0.054576734574750249 0.1339179416313582 0 -0.045549438770160947 0.1243045389162587 0 -0.04462587568541463 0.14471993992151441 0 -0.054576734574750249 0.1339179416313582 0 -0.054221750566417537 0.15267247508177889 0 -0.068890656545361612 0.1452484369998952 0 -0.054576734574750249 0.1339179416313582 0 -0.054221750566417537 0.15267247508177889 0 -0.067262738939772748 0.16805113731736959 0 -0.051490979634525952 0.1666910151059586 0 -0.055549509222324697 0.18023608485537079 0 -0.067262738939772748 0.16805113731736959 0 -0.054221750566417537 0.15267247508177889 0 -0.051490979634525952 0.1666910151059586 0 -0.054221750566417537 0.15267247508177889 0 -0.051490979634525952 0.1666910151059586 0 -0.039170336409938673 0.15813068917439599 0 -0.051490979634525952 0.1666910151059586 0 -0.055549509222324697 0.18023608485537079 0 -0.041250563034176103 0.1743646891008776 0 -0.046147172203450153 0.18942895734676929 0 -0.055549509222324697 0.18023608485537079 0 -0.041250563034176103 0.1743646891008776 0 -0.046147172203450153 0.18942895734676929 0 -0.041250563034176103 0.1743646891008776 0 -0.033929580519229598 0.18529784726130391 0 -0.041250563034176103 0.1743646891008776 0 -0.033929580519229598 0.18529784726130391 0 -0.026482761445098139 0.1715698688853376 0 -0.041250563034176103 0.1743646891008776 0 -0.039170336409938673 0.15813068917439599 0 -0.026482761445098139 0.1715698688853376 0 -0.051490979634525952 0.1666910151059586 0 -0.041250563034176103 0.1743646891008776 0 -0.039170336409938673 0.15813068917439599 0 -0.026482761445098139 0.1715698688853376 0 -0.0095485104545254846 0.17119758740342761 0 -0.022462081040142631 0.1561272175492214 0 -0.039170336409938673 0.15813068917439599 0 -0.026482761445098139 0.1715698688853376 0 -0.022462081040142631 0.1561272175492214 0 -0.019134616442041591 0.18944378515470639 0 -0.033929580519229598 0.18529784726130391 0 -0.026482761445098139 0.1715698688853376 0 -0.019134616442041591 0.18944378515470639 0 -0.026482761445098139 0.1715698688853376 0 -0.0095485104545254846 0.17119758740342761 0 -0.019134616442041591 0.18944378515470639 0 -0.0054011812225076708 0.18534100671761389 0 -0.0095485104545254846 0.17119758740342761 0 -0.0054011812225076708 0.18534100671761389 0 -0.0095485104545254846 0.17119758740342761 0 0.0087352739987390793 0.17975240997245071 0 -0.0095485104545254846 0.17119758740342761 0 -0.0061056759341989036 0.1508760704608294 0 0.003769649654854173 0.1639063082871591 0 -0.0095485104545254846 0.17119758740342761 0 -0.0061056759341989036 0.1508760704608294 0 -0.022462081040142631 0.1561272175492214 0 -0.0061056759341989036 0.1508760704608294 0 -0.0034187467457100699 0.1403675532242544 0 0.0041527042863420023 0.14544045411878639 0 -0.0061056759341989036 0.1508760704608294 0 -0.01774649732461784 0.13890748436717079 0 -0.0034187467457100699 0.1403675532242544 0 -0.0061056759341989036 0.1508760704608294 0 -0.01774649732461784 0.13890748436717079 0 -0.0061056759341989036 0.1508760704608294 0 -0.022462081040142631 0.1561272175492214 0 -0.02406274046335612 0.1458578720667093 0 -0.0061056759341989036 0.1508760704608294 0 -0.02406274046335612 0.1458578720667093 0 -0.01774649732461784 0.13890748436717079 0 -0.02406274046335612 0.1458578720667093 0 -0.028194241421983238 0.13742380327457709 0 -0.01774649732461784 0.13890748436717079 0 -0.033194960055921777 0.14425051463511271 0 -0.02406274046335612 0.1458578720667093 0 -0.028194241421983238 0.13742380327457709 0 -0.033194960055921777 0.14425051463511271 0 -0.022462081040142631 0.1561272175492214 0 -0.02406274046335612 0.1458578720667093 0 -0.029387318715036571 0.12693889827351201 0 -0.01672900714769622 0.13171599915262119 0 -0.012902105114553889 0.1306831187963011 0 -0.029387318715036571 0.12693889827351201 0 -0.012902105114553889 0.1306831187963011 0 -0.02372579505221185 0.1189320102862463 0 -0.029387318715036571 0.12693889827351201 0 -0.012902105114553889 0.1306831187963011 0 -0.034184970048351353 0.13309497835154491 0 -0.029387318715036571 0.12693889827351201 0 -0.028194241421983238 0.13742380327457709 0 -0.029387318715036571 0.12693889827351201 0 -0.028194241421983238 0.13742380327457709 0 -0.01774649732461784 0.13890748436717079 0 -0.029387318715036571 0.12693889827351201 0 -0.01774649732461784 0.13890748436717079 0 -0.01774649732461784 0.13890748436717079 0 -0.01672900714769622 0.13171599915262119 0 -0.012902105114553889 0.1306831187963011 0 -0.029387318715036571 0.12693889827351201 0 -0.01774649732461784 0.13890748436717079 0 -0.01672900714769622 0.13171599915262119 0 -0.012902105114553889 0.1306831187963011 0 -0.0017697058181939749 0.12767848568776111 0 0.01059393583606 0.1326036928341485 0 -0.012902105114553889 0.1306831187963011 0 -0.0034187467457100699 0.1403675532242544 0 0.01482452591839916 0.1369805574256879 0 -0.012902105114553889 0.1306831187963011 0 -0.0017697058181939749 0.12767848568776111 0 -0.02372579505221185 0.1189320102862463 0 -0.01672900714769622 0.13171599915262119 0 -0.012902105114553889 0.1306831187963011 0 -0.01774649732461784 0.13890748436717079 0 -0.012902105114553889 0.1306831187963011 0 -0.0034187467457100699 0.1403675532242544 0 -0.012902105114553889 0.1306831187963011 0 -0.0017697058181939749 0.12767848568776111 0 -0.0041589317298227797 0.11498810019226161 0 -0.01053778417586399 0.1043570195209408 0 -0.02372579505221185 0.1189320102862463 0 -0.0017697058181939749 0.12767848568776111 0 -0.0041589317298227797 0.11498810019226161 0 -0.02372579505221185 0.1189320102862463 0 -0.0017697058181939749 0.12767848568776111 0 -0.02372579505221185 0.1189320102862463 0 -0.0041589317298227797 0.11498810019226161 0 -0.01053778417586399 0.1043570195209408 0 0.002021913286525874 0.1035490079229269 0 -0.0045414923040372722 0.096101033527476509 0 -0.01053778417586399 0.1043570195209408 0 0.002021913286525874 0.1035490079229269 0 -0.0045414923040372722 0.096101033527476509 0 -0.01053778417586399 0.1043570195209408 0 -0.01273102791978523 0.093541370776597563 0 -0.01053778417586399 0.1043570195209408 0 -0.023174902723317931 0.096860049871388493 0 -0.01273102791978523 0.093541370776597563 0 -0.023174902723317931 0.096860049871388493 0 -0.02372579505221185 0.1189320102862463 0 -0.03320555458859422 0.1045982463749713 0 -0.01053778417586399 0.1043570195209408 0 -0.023174902723317931 0.096860049871388493 0 -0.02372579505221185 0.1189320102862463 0 -0.0063264523735629009 0.066298950401494985 0 -0.012070208140856759 0.073369200276280952 0 -0.012050031881561689 0.060452773404427028 0 -0.012070208140856759 0.073369200276280952 0 -0.02150736912529326 0.067217420750426665 0 -0.012050031881561689 0.060452773404427028 0 -0.0063264523735629009 0.066298950401494985 0 -0.012070208140856759 0.073369200276280952 0 0.00034612155240797409 0.070760528259967037 0 -0.0063264523735629009 0.066298950401494985 0 -0.00080083599168530534 0.059620852853258813 0 0.00034612155240797409 0.070760528259967037 0 -0.012070208140856759 0.073369200276280952 0 -0.00074415235142066155 0.079413076318190806 0 0.00034612155240797409 0.070760528259967037 0 -0.012070208140856759 0.073369200276280952 0 -0.0069279830034974458 0.085862666166759208 0 -0.018472977392209509 0.084526084796422735 0 -0.00074415235142066155 0.079413076318190806 0 -0.0069279830034974458 0.085862666166759208 0 0.0043271437301636087 0.090155458803287167 0 -0.012070208140856759 0.073369200276280952 0 -0.00074415235142066155 0.079413076318190806 0 -0.0069279830034974458 0.085862666166759208 0 -0.0045414923040372722 0.096101033527476509 0 -0.0069279830034974458 0.085862666166759208 0 0.0043271437301636087 0.090155458803287167 0 -0.0069279830034974458 0.085862666166759208 0 -0.01273102791978523 0.093541370776597563 0 -0.018472977392209509 0.084526084796422735 0 -0.0045414923040372722 0.096101033527476509 0 -0.0069279830034974458 0.085862666166759208 0 -0.01273102791978523 0.093541370776597563 0 -0.023174902723317931 0.096860049871388493 0 -0.01273102791978523 0.093541370776597563 0 -0.018472977392209509 0.084526084796422735 0 -0.023174902723317931 0.096860049871388493 0 -0.030835443501861341 0.083461416753116663 0 -0.018472977392209509 0.084526084796422735 0 -0.030835443501861341 0.083461416753116663 0 -0.018472977392209509 0.084526084796422735 0 -0.023031560147032028 0.075839448312886318 0 -0.012070208140856759 0.073369200276280952 0 -0.018472977392209509 0.084526084796422735 0 -0.023031560147032028 0.075839448312886318 0 -0.012070208140856759 0.073369200276280952 0 -0.023031560147032028 0.075839448312886318 0 -0.02150736912529326 0.067217420750426665 0 -0.030835443501861341 0.083461416753116663 0 -0.023031560147032028 0.075839448312886318 0 -0.033964873777420433 0.071401704985943004 0 -0.023031560147032028 0.075839448312886318 0 -0.02150736912529326 0.067217420750426665 0 -0.033964873777420433 0.071401704985943004 0 -0.030401614705188859 0.063047084766585298 0 -0.02150736912529326 0.067217420750426665 0 -0.023369440754571289 0.059621919296414992 0 -0.030401614705188859 0.063047084766585298 0 -0.02150736912529326 0.067217420750426665 0 -0.033964873777420433 0.071401704985943004 0 -0.043934574461468763 0.07000385685666681 0 -0.053404505586731821 0.066234889961895443 0 -0.039984691506067101 0.061046364652690172 0 -0.043934574461468763 0.07000385685666681 0 -0.033964873777420433 0.071401704985943004 0 -0.039984691506067101 0.061046364652690172 0 -0.030401614705188859 0.063047084766585298 0 -0.033964873777420433 0.071401704985943004 0 -0.039984691506067101 0.061046364652690172 0 -0.043934574461468763 0.07000385685666681 0 -0.033964873777420433 0.071401704985943004 0 -0.046128710678570661 0.079725822094540835 0 -0.023174902723317931 0.096860049871388493 0 -0.030835443501861341 0.083461416753116663 0 -0.040239636292617453 0.092415390457518676 0 -0.030835443501861341 0.083461416753116663 0 -0.046128710678570661 0.079725822094540835 0 -0.040239636292617453 0.092415390457518676 0 -0.030835443501861341 0.083461416753116663 0 -0.033964873777420433 0.071401704985943004 0 -0.046128710678570661 0.079725822094540835 0 -0.058517707755227598 0.077288710600330879 0 -0.059556267489222763 0.095920497711485669 0 -0.066764760796653264 0.07679237469592308 0 -0.046128710678570661 0.079725822094540835 0 -0.058517707755227598 0.077288710600330879 0 -0.059556267489222763 0.095920497711485669 0 -0.046128710678570661 0.079725822094540835 0 -0.040239636292617453 0.092415390457518676 0 -0.059556267489222763 0.095920497711485669 0 -0.043934574461468763 0.07000385685666681 0 -0.046128710678570661 0.079725822094540835 0 -0.053404505586731821 0.066234889961895443 0 -0.046128710678570661 0.079725822094540835 0 -0.058517707755227598 0.077288710600330879 0 -0.053404505586731821 0.066234889961895443 0 -0.058517707755227598 0.077288710600330879 0 -0.053404505586731821 0.066234889961895443 0 -0.064649539992338759 0.066605596752747243 0 -0.02372579505221185 0.1189320102862463 0 -0.045681884286229553 0.1101855348847313 0 -0.033797996019737417 0.12593711880714331 0 -0.029387318715036571 0.12693889827351201 0 -0.045681884286229553 0.1101855348847313 0 -0.029387318715036571 0.12693889827351201 0 -0.045681884286229553 0.1101855348847313 0 -0.029387318715036571 0.12693889827351201 0 -0.02372579505221185 0.1189320102862463 0 -0.045681884286229553 0.1101855348847313 0 -0.033797996019737417 0.12593711880714331 0 -0.045681884286229553 0.1101855348847313 0 -0.045549438770160947 0.1243045389162587 0 -0.02372579505221185 0.1189320102862463 0 -0.045681884286229553 0.1101855348847313 0 -0.03320555458859422 0.1045982463749713 0 -0.023174902723317931 0.096860049871388493 0 -0.040239636292617453 0.092415390457518676 0 -0.03320555458859422 0.1045982463749713 0 -0.040239636292617453 0.092415390457518676 0 -0.045681884286229553 0.1101855348847313 0 -0.03320555458859422 0.1045982463749713 0 -0.040239636292617453 0.092415390457518676 0 -0.045681884286229553 0.1101855348847313 0 -0.059556267489222763 0.095920497711485669 0 -0.045681884286229553 0.1101855348847313 0 -0.057694624707726128 0.11809935769594319 0 -0.072146491756540754 0.099643036364946702 0 -0.045681884286229553 0.1101855348847313 0 -0.072146491756540754 0.099643036364946702 0 -0.045681884286229553 0.1101855348847313 0 -0.059556267489222763 0.095920497711485669 0 -0.045681884286229553 0.1101855348847313 0 -0.059556267489222763 0.095920497711485669 0 -0.072146491756540754 0.099643036364946702 0 -0.054576734574750249 0.1339179416313582 0 -0.057694624707726128 0.11809935769594319 0 -0.070518574150950461 0.12244573668242099 0 -0.045681884286229553 0.1101855348847313 0 -0.045549438770160947 0.1243045389162587 0 -0.057694624707726128 0.11809935769594319 0 -0.070518574150950461 0.12244573668242099 0 -0.072146491756540754 0.099643036364946702 0 -0.057694624707726128 0.11809935769594319 0 -0.070518574150950461 0.12244573668242099 0 -0.072146491756540754 0.099643036364946702 0 -0.070518574150950461 0.12244573668242099 0 -0.08247282225653077 0.107473260847208 0 -0.072146491756540754 0.099643036364946702 0 -0.081413616827771013 0.1284346449919557 0 -0.070518574150950461 0.12244573668242099 0 -0.08247282225653077 0.107473260847208 0 -0.081413616827771013 0.1284346449919557 0 -0.093673927622337574 0.11804829874094711 0 -0.08247282225653077 0.107473260847208 0 -0.093673927622337574 0.11804829874094711 0 -0.08247282225653077 0.107473260847208 0 -0.09508959462053479 0.1034165534599467 0 -0.0897668348610966 0.097844977304272815 0 -0.088366164597947883 0.091318080665791765 0 -0.098319103815266012 0.092329579514289689 0 -0.0897668348610966 0.097844977304272815 0 -0.084586489015203589 0.094687412034127894 0 -0.088366164597947883 0.091318080665791765 0 -0.0897668348610966 0.097844977304272815 0 -0.08247282225653077 0.107473260847208 0 -0.09508959462053479 0.1034165534599467 0 -0.08247282225653077 0.107473260847208 0 -0.084586489015203589 0.094687412034127894 0 -0.072146491756540754 0.099643036364946702 0 -0.084586489015203589 0.094687412034127894 0 -0.072146491756540754 0.099643036364946702 0 -0.082198619523032881 0.090119064207125912 0 -0.084586489015203589 0.094687412034127894 0 -0.072146491756540754 0.099643036364946702 0 -0.0897668348610966 0.097844977304272815 0 -0.08247282225653077 0.107473260847208 0 -0.084586489015203589 0.094687412034127894 0 -0.059556267489222763 0.095920497711485669 0 -0.072146491756540754 0.099643036364946702 0 -0.073430650692214841 0.081655460538238966 0 -0.059556267489222763 0.095920497711485669 0 -0.073430650692214841 0.081655460538238966 0 -0.059556267489222763 0.095920497711485669 0 -0.073430650692214841 0.081655460538238966 0 -0.066764760796653264 0.07679237469592308 0 -0.072146491756540754 0.099643036364946702 0 -0.073430650692214841 0.081655460538238966 0 -0.078782670630030763 0.085454828596712787 0 -0.072146491756540754 0.099643036364946702 0 -0.073430650692214841 0.081655460538238966 0 -0.073430650692214841 0.081655460538238966 0 -0.078233032228911009 0.076242758025551832 0 -0.078943083366912054 0.08071649856841101 0 -0.073430650692214841 0.081655460538238966 0 -0.078782670630030763 0.085454828596712787 0 -0.078943083366912054 0.08071649856841101 0 -0.072146491756540754 0.099643036364946702 0 -0.082198619523032881 0.090119064207125912 0 -0.078782670630030763 0.085454828596712787 0 -0.058517707755227598 0.077288710600330879 0 -0.064649539992338759 0.066605596752747243 0 -0.066764760796653264 0.07679237469592308 0 -0.064649539992338759 0.066605596752747243 0 -0.066764760796653264 0.07679237469592308 0 -0.074053891015249146 0.072925557831135912 0 -0.073430650692214841 0.081655460538238966 0 -0.066764760796653264 0.07679237469592308 0 -0.074053891015249146 0.072925557831135912 0 -0.073430650692214841 0.081655460538238966 0 -0.074053891015249146 0.072925557831135912 0 -0.078233032228911009 0.076242758025551832 0 -0.073430650692214841 0.081655460538238966 0 -0.074053891015249146 0.072925557831135912 0 -0.074053891015249146 0.072925557831135912 0 -0.080840117961280683 0.06885136722325666 0 -0.078233032228911009 0.076242758025551832 0 -0.064649539992338759 0.066605596752747243 0 -0.074053891015249146 0.072925557831135912 0 -0.073361296565677622 0.063810835899955398 0 -0.074053891015249146 0.072925557831135912 0 -0.073361296565677622 0.063810835899955398 0 -0.080840117961280683 0.06885136722325666 0 -0.073361296565677622 0.063810835899955398 0 -0.080840117961280683 0.06885136722325666 0 -0.080497900310670251 0.055162339773894571 0 -0.080840117961280683 0.06885136722325666 0 -0.0952126043837907 0.065491696933578522 0 -0.080497900310670251 0.055162339773894571 0 -0.080840117961280683 0.06885136722325666 0 -0.078233032228911009 0.076242758025551832 0 -0.08368198326338544 0.079475014875423799 0 -0.080840117961280683 0.06885136722325666 0 -0.08368198326338544 0.079475014875423799 0 -0.0952126043837907 0.065491696933578522 0 -0.088366164597947883 0.091318080665791765 0 -0.0952126043837907 0.065491696933578522 0 -0.08368198326338544 0.079475014875423799 0 -0.088366164597947883 0.091318080665791765 0 -0.0952126043837907 0.065491696933578522 0 -0.082198619523032881 0.090119064207125912 0 -0.08368198326338544 0.079475014875423799 0 -0.088366164597947883 0.091318080665791765 0 -0.084586489015203589 0.094687412034127894 0 -0.082198619523032881 0.090119064207125912 0 -0.088366164597947883 0.091318080665791765 0 -0.082198619523032881 0.090119064207125912 0 -0.078782670630030763 0.085454828596712787 0 -0.08368198326338544 0.079475014875423799 0 -0.078782670630030763 0.085454828596712787 0 -0.078943083366912054 0.08071649856841101 0 -0.08368198326338544 0.079475014875423799 0 -0.078233032228911009 0.076242758025551832 0 -0.078943083366912054 0.08071649856841101 0 -0.08368198326338544 0.079475014875423799 0 -0.098319103815266012 0.092329579514289689 0 -0.10804391098957419 0.085520619680795829 0 -0.0952126043837907 0.065491696933578522 0 -0.088366164597947883 0.091318080665791765 0 -0.098319103815266012 0.092329579514289689 0 -0.0952126043837907 0.065491696933578522 0 -0.098319103815266012 0.092329579514289689 0 -0.10804391098957419 0.085520619680795829 0 -0.1054551992192774 0.098081408397785674 0 -0.10804391098957419 0.085520619680795829 0 -0.0952126043837907 0.065491696933578522 0 -0.1169359397810521 0.07040862267569957 0 -0.12938678549899241 0.07191028446504151 0 -0.1169359397810521 0.07040862267569957 0 -0.12171505972308121 0.099774495224226684 0 -0.1169359397810521 0.07040862267569957 0 -0.12171505972308121 0.099774495224226684 0 -0.10804391098957419 0.085520619680795829 0 -0.1169359397810521 0.07040862267569957 0 -0.12171505972308121 0.099774495224226684 0 -0.10804391098957419 0.085520619680795829 0 -0.12171505972308121 0.099774495224226684 0 -0.1054551992192774 0.098081408397785674 0 -0.12171505972308121 0.099774495224226684 0 -0.1054551992192774 0.098081408397785674 0 -0.1041083269479305 0.1093657941096695 0 -0.1075713076840287 0.12540789134565311 0 -0.12171505972308121 0.099774495224226684 0 -0.1041083269479305 0.1093657941096695 0 -0.1264941796651104 0.12914036777275359 0 -0.1075713076840287 0.12540789134565311 0 -0.12171505972308121 0.099774495224226684 0 -0.1264941796651104 0.12914036777275359 0 -0.12171505972308121 0.099774495224226684 0 -0.1075713076840287 0.12540789134565311 0 -0.093673927622337574 0.11804829874094711 0 -0.1041083269479305 0.1093657941096695 0 -0.093673927622337574 0.11804829874094711 0 -0.09508959462053479 0.1034165534599467 0 -0.1041083269479305 0.1093657941096695 0 -0.09508959462053479 0.1034165534599467 0 -0.1054551992192774 0.098081408397785674 0 -0.1041083269479305 0.1093657941096695 0 -0.0897668348610966 0.097844977304272815 0 -0.098319103815266012 0.092329579514289689 0 -0.09508959462053479 0.1034165534599467 0 -0.098319103815266012 0.092329579514289689 0 -0.09508959462053479 0.1034165534599467 0 -0.1054551992192774 0.098081408397785674 0 -0.1081768659009219 0.016587448416186191 0 -0.095408124884719309 0.025341257639437859 0 -0.1020590441696352 0.039665313201365598 0 -0.1081768659009219 0.016587448416186191 0 -0.1020590441696352 0.039665313201365598 0 -0.1081768659009219 0.016587448416186191 0 -0.095408124884719309 0.025341257639437859 0 -0.097525534210196829 0.013430051964502169 0 -0.097525534210196829 0.013430051964502169 0 -0.097171755980116931 0.0054446210143261967 0 -0.1069972213370404 0.0093389816826255773 0 -0.097525534210196829 0.013430051964502169 0 -0.097171755980116931 0.0054446210143261967 0 -0.09031233222172122 0.0050713261246467774 0 -0.09385193615150994 -0.0060618757144698344 0 -0.097171755980116931 0.0054446210143261967 0 -0.09031233222172122 0.0050713261246467774 0 -0.09385193615150994 -0.0060618757144698344 0 -0.1069972213370404 0.0093389816826255773 0 -0.09385193615150994 -0.0060618757144698344 0 -0.097171755980116931 0.0054446210143261967 0 -0.1069972213370404 0.0093389816826255773 0 -0.10564944294261031 0.00105739657185959 0 -0.1069972213370404 0.0093389816826255773 0 -0.09385193615150994 -0.0060618757144698344 0 -0.10564944294261031 0.00105739657185959 0 -0.1069972213370404 0.0093389816826255773 0 -0.113185123950466 -0.0023048807743676759 0 -0.10564944294261031 0.00105739657185959 0 -0.1069972213370404 0.0093389816826255773 0 -0.1081768659009219 0.016587448416186191 0 -0.097525534210196829 0.013430051964502169 0 -0.1069972213370404 0.0093389816826255773 0 -0.1069972213370404 0.0093389816826255773 0 -0.1093634797443277 0.012111261460579991 0 -0.1081768659009219 0.016587448416186191 0 -0.1093634797443277 0.012111261460579991 0 -0.1081768659009219 0.016587448416186191 0 -0.1069972213370404 0.0093389816826255773 0 -0.1093634797443277 0.012111261460579991 0 -0.1081768659009219 0.016587448416186191 0 -0.1069972213370404 0.0093389816826255773 0 -0.1093634797443277 0.012111261460579991 0 -0.11769508649168769 0.01291883167957931 0 -0.1207190499848096 0.02072849764611303 0 -0.1093634797443277 0.012111261460579991 0 -0.1150803219389772 0.0092126368710666803 0 -0.11769508649168769 0.01291883167957931 0 -0.1093634797443277 0.012111261460579991 0 -0.1150803219389772 0.0092126368710666803 0 -0.1154564166567095 0.0047049407595056193 0 -0.113185123950466 -0.0023048807743676759 0 -0.1069972213370404 0.0093389816826255773 0 -0.1093634797443277 0.012111261460579991 0 -0.113185123950466 -0.0023048807743676759 0 -0.12152508443855629 -4.6565042202755903e-05 0 -0.1154564166567095 0.0047049407595056193 0 -0.113185123950466 -0.0023048807743676759 0 -0.1093634797443277 0.012111261460579991 0 -0.1154564166567095 0.0047049407595056193 0 -0.113185123950466 -0.0023048807743676759 0 -0.1093634797443277 0.012111261460579991 0 -0.1150803219389772 0.0092126368710666803 0 -0.1154564166567095 0.0047049407595056193 0 -0.12021087944097431 0.008263864461434664 0 -0.12152508443855629 -4.6565042202755903e-05 0 -0.1154564166567095 0.0047049407595056193 0 -0.12021087944097431 0.008263864461434664 0 -0.12152508443855629 -4.6565042202755903e-05 0 -0.1305622280860454 0.0096379025991953846 0 -0.12021087944097431 0.008263864461434664 0 -0.1305622280860454 0.0096379025991953846 0 -0.12021087944097431 0.008263864461434664 0 -0.12356325337797559 0.01429926066788118 0 -0.11769508649168769 0.01291883167957931 0 -0.12021087944097431 0.008263864461434664 0 -0.12356325337797559 0.01429926066788118 0 -0.1150803219389772 0.0092126368710666803 0 -0.11769508649168769 0.01291883167957931 0 -0.12021087944097431 0.008263864461434664 0 -0.12787977143513179 0.018424739451976979 0 -0.12356325337797559 0.01429926066788118 0 -0.1207190499848096 0.02072849764611303 0 -0.1287110431512061 0.034778633130733289 0 -0.1093634797443277 0.012111261460579991 0 -0.1165962237406514 0.02776875602806541 0 -0.1287110431512061 0.034778633130733289 0 -0.1093634797443277 0.012111261460579991 0 -0.1287110431512061 0.034778633130733289 0 -0.1093634797443277 0.012111261460579991 0 -0.1207190499848096 0.02072849764611303 0 -0.1081768659009219 0.016587448416186191 0 -0.1165962237406514 0.02776875602806541 0 -0.1121568198390258 0.041042750127172067 0 -0.1081768659009219 0.016587448416186191 0 -0.1121568198390258 0.041042750127172067 0 -0.1081768659009219 0.016587448416186191 0 -0.1093634797443277 0.012111261460579991 0 -0.1165962237406514 0.02776875602806541 0 -0.11769508649168769 0.01291883167957931 0 -0.12356325337797559 0.01429926066788118 0 -0.1207190499848096 0.02072849764611303 0 -0.1287110431512061 0.034778633130733289 0 -0.1165962237406514 0.02776875602806541 0 -0.1229295450058164 0.037868452923291163 0 -0.12860304826879579 0.043286179083318721 0 -0.1121568198390258 0.041042750127172067 0 -0.12860304826879579 0.043286179083318721 0 -0.1229295450058164 0.037868452923291163 0 -0.1121568198390258 0.041042750127172067 0 -0.1165962237406514 0.02776875602806541 0 -0.1229295450058164 0.037868452923291163 0 -0.1121568198390258 0.041042750127172067 0 -0.1169359397810521 0.07040862267569957 0 -0.1121568198390258 0.041042750127172067 0 -0.12938678549899241 0.07191028446504151 0 -0.12860304826879579 0.043286179083318721 0 -0.1169359397810521 0.07040862267569957 0 -0.12860304826879579 0.043286179083318721 0 -0.1169359397810521 0.07040862267569957 0 -0.1121568198390258 0.041042750127172067 0 -0.0952126043837907 0.065491696933578522 0 -0.1020590441696352 0.039665313201365598 0 -0.0952126043837907 0.065491696933578522 0 -0.1020590441696352 0.039665313201365598 0 -0.089162703649149799 0.048139809416304948 0 -0.0952126043837907 0.065491696933578522 0 -0.1169359397810521 0.07040862267569957 0 -0.1121568198390258 0.041042750127172067 0 -0.0952126043837907 0.065491696933578522 0 -0.1121568198390258 0.041042750127172067 0 -0.1020590441696352 0.039665313201365598 0 -0.1081768659009219 0.016587448416186191 0 -0.1121568198390258 0.041042750127172067 0 -0.1020590441696352 0.039665313201365598 0 -0.1121568198390258 0.041042750127172067 0 -0.1020590441696352 0.039665313201365598 0 -0.095408124884719309 0.025341257639437859 0 -0.1020590441696352 0.039665313201365598 0 -0.078620068730424181 0.036468004078042487 0 -0.078620068730424181 0.036468004078042487 0 -0.089162703649149799 0.048139809416304948 0 -0.080497900310670251 0.055162339773894571 0 -0.1020590441696352 0.039665313201365598 0 -0.078620068730424181 0.036468004078042487 0 -0.089162703649149799 0.048139809416304948 0 -0.1020590441696352 0.039665313201365598 0 -0.078620068730424181 0.036468004078042487 0 -0.0952126043837907 0.065491696933578522 0 -0.089162703649149799 0.048139809416304948 0 -0.080497900310670251 0.055162339773894571 0 -0.073361296565677622 0.063810835899955398 0 -0.080497900310670251 0.055162339773894571 0 -0.064286826154205404 0.053491937300194477 0 -0.078620068730424181 0.036468004078042487 0 -0.080497900310670251 0.055162339773894571 0 -0.064286826154205404 0.053491937300194477 0 -0.064649539992338759 0.066605596752747243 0 -0.073361296565677622 0.063810835899955398 0 -0.064286826154205404 0.053491937300194477 0 -0.078620068730424181 0.036468004078042487 0 -0.055181093291213228 0.033270694954719182 0 -0.078620068730424181 0.036468004078042487 0 -0.064286826154205404 0.053491937300194477 0 -0.055181093291213228 0.033270694954719182 0 -0.078620068730424181 0.036468004078042487 0 -0.069808218535932415 0.020692827861588058 0 -0.055181093291213228 0.033270694954719182 0 -0.078620068730424181 0.036468004078042487 0 -0.069808218535932415 0.020692827861588058 0 -0.085036056626104681 0.014773309485708191 0 -0.069808218535932415 0.020692827861588058 0 -0.063756631081569176 0.0087498687259285526 0 -0.055233528470989217 0.017860211932935379 0 -0.095408124884719309 0.025341257639437859 0 -0.078620068730424181 0.036468004078042487 0 -0.085036056626104681 0.014773309485708191 0 -0.095408124884719309 0.025341257639437859 0 -0.097525534210196829 0.013430051964502169 0 -0.085036056626104681 0.014773309485708191 0 -0.097525534210196829 0.013430051964502169 0 -0.09031233222172122 0.0050713261246467774 0 -0.085036056626104681 0.014773309485708191 0 -0.09031233222172122 0.0050713261246467774 0 -0.085036056626104681 0.014773309485708191 0 -0.075425995574936927 0.0068699248734238926 0 -0.078600163196295716 -0.0056513456052398056 0 -0.09031233222172122 0.0050713261246467774 0 -0.075425995574936927 0.0068699248734238926 0 -0.069808218535932415 0.020692827861588058 0 -0.085036056626104681 0.014773309485708191 0 -0.075425995574936927 0.0068699248734238926 0 -0.069808218535932415 0.020692827861588058 0 -0.075425995574936927 0.0068699248734238926 0 -0.063756631081569176 0.0087498687259285526 0 -0.065042571787998396 -0.0024164373520884279 0 -0.075425995574936927 0.0068699248734238926 0 -0.063756631081569176 0.0087498687259285526 0 -0.053532001743839631 -0.0090646478392168665 0 -0.055448025631663143 0.0046361647304281181 0 -0.041902249435711407 0.011753440906031041 0 -0.065042571787998396 -0.0024164373520884279 0 -0.063756631081569176 0.0087498687259285526 0 -0.055448025631663143 0.0046361647304281181 0 -0.053532001743839631 -0.0090646478392168665 0 -0.04565717587050426 0.0013713559571671839 0 -0.041902249435711407 0.011753440906031041 0 -0.053532001743839631 -0.0090646478392168665 0 -0.041902249435711407 0.011753440906031041 0 -0.055448025631663143 0.0046361647304281181 0 -0.055233528470989217 0.017860211932935379 0 -0.041902249435711407 0.011753440906031041 0 -0.063756631081569176 0.0087498687259285526 0 -0.055448025631663143 0.0046361647304281181 0 -0.055233528470989217 0.017860211932935379 0 -0.055233528470989217 0.017860211932935379 0 -0.044837850734605847 0.02764883150305391 0 -0.041902249435711407 0.011753440906031041 0 -0.069808218535932415 0.020692827861588058 0 -0.055233528470989217 0.017860211932935379 0 -0.055181093291213228 0.033270694954719182 0 -0.055233528470989217 0.017860211932935379 0 -0.044837850734605847 0.02764883150305391 0 -0.055181093291213228 0.033270694954719182 0 -0.041902249435711407 0.011753440906031041 0 -0.030272497127583179 0.032571529651278963 0 -0.041902249435711407 0.011753440906031041 0 -0.030272497127583179 0.032571529651278963 0 -0.02504502092149305 0.015993819921371281 0 -0.044837850734605847 0.02764883150305391 0 -0.041902249435711407 0.011753440906031041 0 -0.030272497127583179 0.032571529651278963 0 -0.033051866494802067 0.003827832867512487 0 -0.041902249435711407 0.011753440906031041 0 -0.02504502092149305 0.015993819921371281 0 -0.033051866494802067 0.003827832867512487 0 -0.04565717587050426 0.0013713559571671839 0 -0.041902249435711407 0.011753440906031041 0 -0.053404505586731821 0.066234889961895443 0 -0.064286826154205404 0.053491937300194477 0 -0.045432352363923699 0.046125250982555911 0 -0.053404505586731821 0.066234889961895443 0 -0.064649539992338759 0.066605596752747243 0 -0.064286826154205404 0.053491937300194477 0 -0.044837850734605847 0.02764883150305391 0 -0.055181093291213228 0.033270694954719182 0 -0.045432352363923699 0.046125250982555911 0 -0.064286826154205404 0.053491937300194477 0 -0.055181093291213228 0.033270694954719182 0 -0.045432352363923699 0.046125250982555911 0 -0.044837850734605847 0.02764883150305391 0 -0.045432352363923699 0.046125250982555911 0 -0.030272497127583179 0.032571529651278963 0 -0.045432352363923699 0.046125250982555911 0 -0.031427398611973613 0.049810600845057271 0 -0.030272497127583179 0.032571529651278963 0 -0.053404505586731821 0.066234889961895443 0 -0.045432352363923699 0.046125250982555911 0 -0.039984691506067101 0.061046364652690172 0 -0.045432352363923699 0.046125250982555911 0 -0.031427398611973613 0.049810600845057271 0 -0.039984691506067101 0.061046364652690172 0 -0.030401614705188859 0.063047084766585298 0 -0.031427398611973613 0.049810600845057271 0 -0.039984691506067101 0.061046364652690172 0 -0.023369440754571289 0.059621919296414992 0 -0.018642744819454951 0.053389618396526867 0 -0.012050031881561689 0.060452773404427028 0 -0.02150736912529326 0.067217420750426665 0 -0.023369440754571289 0.059621919296414992 0 -0.012050031881561689 0.060452773404427028 0 -0.030401614705188859 0.063047084766585298 0 -0.031427398611973613 0.049810600845057271 0 -0.023369440754571289 0.059621919296414992 0 -0.031427398611973613 0.049810600845057271 0 -0.023369440754571289 0.059621919296414992 0 -0.018642744819454951 0.053389618396526867 0 -0.018642744819454951 0.053389618396526867 0 -0.030272497127583179 0.032571529651278963 0 -0.031427398611973613 0.049810600845057271 0 -0.018642744819454951 0.053389618396526867 0 -0.030272497127583179 0.032571529651278963 0 -0.018642744819454951 0.053389618396526867 0 -0.030272497127583179 0.032571529651278963 0 -0.0055437092567477298 0.032573799606927432 0 -0.0055437092567477298 0.032573799606927432 0 -0.012050031881561689 0.060452773404427028 0 -0.0055437092567477298 0.032573799606927432 0 -0.00080083599168530534 0.059620852853258813 0 -0.012050031881561689 0.060452773404427028 0 -0.018642744819454951 0.053389618396526867 0 -0.0055437092567477298 0.032573799606927432 0 -0.012050031881561689 0.060452773404427028 0 -0.0063264523735629009 0.066298950401494985 0 -0.00080083599168530534 0.059620852853258813 0 -0.012050031881561689 0.060452773404427028 0 -0.0210886489830319 -0.001087742540378641 0 -0.02504502092149305 0.015993819921371281 0 -0.01197270849472701 0.009528451721344474 0 -0.0210886489830319 -0.001087742540378641 0 -0.033051866494802067 0.003827832867512487 0 -0.02504502092149305 0.015993819921371281 0 -0.030272497127583179 0.032571529651278963 0 -0.0055437092567477298 0.032573799606927432 0 -0.02504502092149305 0.015993819921371281 0 -0.0055437092567477298 0.032573799606927432 0 0.0009626133680662478 0.004694825809427778 0 -0.0055437092567477298 0.032573799606927432 0 -0.02504502092149305 0.015993819921371281 0 -0.01197270849472701 0.009528451721344474 0 -0.0055437092567477298 0.032573799606927432 0 -0.01197270849472701 0.009528451721344474 0 0.0009626133680662478 0.004694825809427778 0 -0.0210886489830319 -0.001087742540378641 0 -0.0091487766804286413 -0.0045324441906254851 0 -0.01197270849472701 0.009528451721344474 0 -0.0091487766804286413 -0.0045324441906254851 0 -0.01197270849472701 0.009528451721344474 0 0.0009626133680662478 0.004694825809427778 0 0.0009626133680662478 0.004694825809427778 0 0.020086082938962909 0.0074320309104848412 0 0.01439257658453344 -0.0038299249426867062 0 0.0009626133680662478 0.004694825809427778 0 0.013831591660066381 0.022525265786382611 0 0.020086082938962909 0.0074320309104848412 0 -0.0055437092567477298 0.032573799606927432 0 0.0009626133680662478 0.004694825809427778 0 0.013831591660066381 0.022525265786382611 0 0.013831591660066381 0.022525265786382611 0 0.020086082938962909 0.0074320309104848412 0 0.034876898438642862 0.024866226185940019 0 0.013831591660066381 0.022525265786382611 0 0.01877607281140763 0.043059446419132993 0 0.034876898438642862 0.024866226185940019 0 0.020086082938962909 0.0074320309104848412 0 0.034154709133544653 0.0073558485479120169 0 0.034876898438642862 0.024866226185940019 0 0.020086082938962909 0.0074320309104848412 0 0.034154709133544653 0.0073558485479120169 0 0.02922333002937957 -0.0082555710176626471 0 -0.0055437092567477298 0.032573799606927432 0 -0.00080083599168530534 0.059620852853258813 0 0.0094079415879301017 0.05351195612673007 0 0.0094079415879301017 0.05351195612673007 0 0.0056454913240516326 0.06441850267048474 0 0.01279726835615559 0.063859752649670184 0 0.0094079415879301017 0.05351195612673007 0 0.02290734969728812 0.05713125032784061 0 0.01279726835615559 0.063859752649670184 0 -0.00080083599168530534 0.059620852853258813 0 0.0094079415879301017 0.05351195612673007 0 0.0056454913240516326 0.06441850267048474 0 -0.0055437092567477298 0.032573799606927432 0 0.013831591660066381 0.022525265786382611 0 0.01877607281140763 0.043059446419132993 0 -0.0055437092567477298 0.032573799606927432 0 0.0094079415879301017 0.05351195612673007 0 0.01877607281140763 0.043059446419132993 0 0.01877607281140763 0.043059446419132993 0 0.034876898438642862 0.024866226185940019 0 0.01877607281140763 0.043059446419132993 0 0.02290734969728812 0.05713125032784061 0 0.041331584852818883 0.044557872627579279 0 0.0094079415879301017 0.05351195612673007 0 0.01877607281140763 0.043059446419132993 0 0.02290734969728812 0.05713125032784061 0 0.02290734969728812 0.05713125032784061 0 0.041331584852818883 0.044557872627579279 0 0.037392817009368591 0.064273339576823491 0 0.041331584852818883 0.044557872627579279 0 0.057939947110843881 0.056013907512773242 0 0.037392817009368591 0.064273339576823491 0 0.041331584852818883 0.044557872627579279 0 0.034876898438642862 0.024866226185940019 0 0.050805068997542849 0.024374498382918171 0 0.01877607281140763 0.043059446419132993 0 0.041331584852818883 0.044557872627579279 0 0.034876898438642862 0.024866226185940019 0 0.050805068997542849 0.024374498382918171 0 0.066259465414325536 0.02826166251356774 0 0.064596582621070833 0.042886294136181988 0 0.041331584852818883 0.044557872627579279 0 0.050805068997542849 0.024374498382918171 0 0.064596582621070833 0.042886294136181988 0 0.041331584852818883 0.044557872627579279 0 0.057939947110843881 0.056013907512773242 0 0.064596582621070833 0.042886294136181988 0 0.057939947110843881 0.056013907512773242 0 0.037392817009368591 0.064273339576823491 0 0.034154709133544653 0.0073558485479120169 0 0.034876898438642862 0.024866226185940019 0 0.051995645116997273 0.0055228002246816019 0 0.034876898438642862 0.024866226185940019 0 0.051995645116997273 0.0055228002246816019 0 0.034154709133544653 0.0073558485479120169 0 0.051995645116997273 0.0055228002246816019 0 0.02922333002937957 -0.0082555710176626471 0 0.034876898438642862 0.024866226185940019 0 0.050805068997542849 0.024374498382918171 0 0.051995645116997273 0.0055228002246816019 0 0.054031853616332753 0.0087688495784121034 0 0.066259465414325536 0.02826166251356774 0 0.050805068997542849 0.024374498382918171 0 0.054031853616332753 0.0087688495784121034 0 0.066259465414325536 0.02826166251356774 0 0.054031853616332753 0.0087688495784121034 0 0.051995645116997273 0.0055228002246816019 0 0.070494389351615672 0.0059909234811812706 0 0.050805068997542849 0.024374498382918171 0 0.054031853616332753 0.0087688495784121034 0 0.051995645116997273 0.0055228002246816019 0 0.054031853616332753 0.0087688495784121034 0 0.051995645116997273 0.0055228002246816019 0 0.070494389351615672 0.0059909234811812706 0 0.074511499250843799 0.022822652486853879 0 0.051995645116997273 0.0055228002246816019 0 0.070494389351615672 0.0059909234811812706 0 0.066477279452386295 -0.01084080552449102 0 0.054031853616332753 0.0087688495784121034 0 0.070494389351615672 0.0059909234811812706 0 0.074511499250843799 0.022822652486853879 0 0.070494389351615672 0.0059909234811812706 0 0.083795351221403136 0.0099553092528977694 0 0.074511499250843799 0.022822652486853879 0 0.070494389351615672 0.0059909234811812706 0 0.083795351221403136 0.0099553092528977694 0 0.076223698019018987 -0.0042716822877690861 0 0.083795351221403136 0.0099553092528977694 0 0.087962381713208915 -0.0048627492070227631 0 0.076223698019018987 -0.0042716822877690861 0 0.083795351221403136 0.0099553092528977694 0 0.097562349300996831 0.0046908460472591717 0 0.096120668668269821 0.016869694277425799 0 0.083795351221403136 0.0099553092528977694 0 0.097562349300996831 0.0046908460472591717 0 0.087962381713208915 -0.0048627492070227631 0 0.083795351221403136 0.0099553092528977694 0 0.090663126299268093 0.02308512311075062 0 0.074511499250843799 0.022822652486853879 0 0.074511499250843799 0.022822652486853879 0 0.098890949978592976 0.039552629248095612 0 0.090663126299268093 0.02308512311075062 0 0.074511499250843799 0.022822652486853879 0 0.098890949978592976 0.039552629248095612 0 0.083795351221403136 0.0099553092528977694 0 0.090663126299268093 0.02308512311075062 0 0.096120668668269821 0.016869694277425799 0 0.054031853616332753 0.0087688495784121034 0 0.066259465414325536 0.02826166251356774 0 0.074511499250843799 0.022822652486853879 0 0.054031853616332753 0.0087688495784121034 0 0.074511499250843799 0.022822652486853879 0 0.066259465414325536 0.02826166251356774 0 0.064596582621070833 0.042886294136181988 0 0.078487077212319151 0.0477544754487228 0 0.074511499250843799 0.022822652486853879 0 0.080288937183491615 0.047030172835790821 0 0.066259465414325536 0.02826166251356774 0 0.078487077212319151 0.0477544754487228 0 0.066259465414325536 0.02826166251356774 0 0.074511499250843799 0.022822652486853879 0 0.080288937183491615 0.047030172835790821 0 0.066259465414325536 0.02826166251356774 0 0.078487077212319151 0.0477544754487228 0 0.080288937183491615 0.047030172835790821 0 0.057939947110843881 0.056013907512773242 0 0.078487077212319151 0.0477544754487228 0 0.057939947110843881 0.056013907512773242 0 0.064596582621070833 0.042886294136181988 0 0.078487077212319151 0.0477544754487228 0 0.057939947110843881 0.056013907512773242 0 0.071102290591906939 0.05897372877843933 0 0.078487077212319151 0.0477544754487228 0 0.057939947110843881 0.056013907512773242 0 0.071102290591906939 0.05897372877843933 0 0.064752399404367916 0.06944268927858846 0 0.071102290591906939 0.05897372877843933 0 0.078144061965535846 0.056909331060185211 0 0.078487077212319151 0.0477544754487228 0 0.071102290591906939 0.05897372877843933 0 0.078144061965535846 0.056909331060185211 0 0.07610786061619873 0.065132645269676617 0 0.083348560479883843 0.059850023792375133 0 0.078144061965535846 0.056909331060185211 0 0.07610786061619873 0.065132645269676617 0 0.083348560479883843 0.059850023792375133 0 0.081674520927370764 0.05283578201171206 0 0.091253342768393905 0.068105990566818916 0 0.083348560479883843 0.059850023792375133 0 0.078144061965535846 0.056909331060185211 0 0.081674520927370764 0.05283578201171206 0 0.083348560479883843 0.059850023792375133 0 0.081674520927370764 0.05283578201171206 0 0.081674520927370764 0.05283578201171206 0 0.080288937183491615 0.047030172835790821 0 0.094067899227498378 0.051112735700636222 0 0.078144061965535846 0.056909331060185211 0 0.081674520927370764 0.05283578201171206 0 0.078487077212319151 0.0477544754487228 0 0.081674520927370764 0.05283578201171206 0 0.078487077212319151 0.0477544754487228 0 0.080288937183491615 0.047030172835790821 0 0.081674520927370764 0.05283578201171206 0 0.080288937183491615 0.047030172835790821 0 0.081674520927370764 0.05283578201171206 0 0.078487077212319151 0.0477544754487228 0 0.078487077212319151 0.0477544754487228 0 0.080288937183491615 0.047030172835790821 0 0.081674520927370764 0.05283578201171206 0 0.093694535075226015 0.058090215445345338 0 0.094067899227498378 0.051112735700636222 0 0.081674520927370764 0.05283578201171206 0 0.091253342768393905 0.068105990566818916 0 0.081674520927370764 0.05283578201171206 0 0.093694535075226015 0.058090215445345338 0 0.091253342768393905 0.068105990566818916 0 0.080288937183491615 0.047030172835790821 0 0.098890949978592976 0.039552629248095612 0 0.094067899227498378 0.051112735700636222 0 0.080288937183491615 0.047030172835790821 0 0.098890949978592976 0.039552629248095612 0 0.074511499250843799 0.022822652486853879 0 0.080288937183491615 0.047030172835790821 0 0.098890949978592976 0.039552629248095612 0 0.098890949978592976 0.039552629248095612 0 0.104421605214936 0.031750561343949747 0 0.099997162377229526 0.026225330288480651 0 0.098890949978592976 0.039552629248095612 0 0.1178651115546696 0.052573319737666623 0 0.098890949978592976 0.039552629248095612 0 0.1178651115546696 0.052573319737666623 0 0.1103555289719426 0.040168221000956718 0 0.098890949978592976 0.039552629248095612 0 0.1032134510603863 0.037815091993232228 0 0.098890949978592976 0.039552629248095612 0 0.1032134510603863 0.037815091993232228 0 0.1103555289719426 0.040168221000956718 0 0.1071983466260798 0.035659111028307711 0 0.1032134510603863 0.037815091993232228 0 0.1103555289719426 0.040168221000956718 0 0.1071983466260798 0.035659111028307711 0 0.104421605214936 0.031750561343949747 0 0.1108028012570542 0.032902569775092157 0 0.1071983466260798 0.035659111028307711 0 0.104421605214936 0.031750561343949747 0 0.1032134510603863 0.037815091993232228 0 0.098890949978592976 0.039552629248095612 0 0.104421605214936 0.031750561343949747 0 0.1032134510603863 0.037815091993232228 0 0.098890949978592976 0.039552629248095612 0 0.1052157281839373 0.05171626743718441 0 0.1178651115546696 0.052573319737666623 0 0.093694535075226015 0.058090215445345338 0 0.1033265977975325 0.058227819525599897 0 0.1020541336235844 0.06729563110500944 0 0.093694535075226015 0.058090215445345338 0 0.094067899227498378 0.051112735700636222 0 0.1033265977975325 0.058227819525599897 0 0.098890949978592976 0.039552629248095612 0 0.094067899227498378 0.051112735700636222 0 0.1052157281839373 0.05171626743718441 0 0.094067899227498378 0.051112735700636222 0 0.1052157281839373 0.05171626743718441 0 0.1033265977975325 0.058227819525599897 0 0.1033265977975325 0.058227819525599897 0 0.111928082361393 0.057114832973922947 0 0.1104173619967095 0.064099761855261117 0 0.1052157281839373 0.05171626743718441 0 0.1033265977975325 0.058227819525599897 0 0.111928082361393 0.057114832973922947 0 0.1178651115546696 0.052573319737666623 0 0.1187772725441008 0.060376865824300442 0 0.1368392731307452 0.065594010227238722 0 0.111928082361393 0.057114832973922947 0 0.1187772725441008 0.060376865824300442 0 0.1104173619967095 0.064099761855261117 0 0.111928082361393 0.057114832973922947 0 0.1178651115546696 0.052573319737666623 0 0.1187772725441008 0.060376865824300442 0 0.1052157281839373 0.05171626743718441 0 0.111928082361393 0.057114832973922947 0 0.1178651115546696 0.052573319737666623 0 0.1249336348272455 0.049712884967204288 0 0.1178651115546696 0.052573319737666623 0 0.12983247874270121 0.055145662020453901 0 0.1249336348272455 0.049712884967204288 0 0.1178651115546696 0.052573319737666623 0 0.1199836596841395 0.043662078150655308 0 0.1159222067999727 0.036865131504598331 0 0.1108028012570542 0.032902569775092157 0 0.11758222700326811 0.029309149166297659 0 0.1159222067999727 0.036865131504598331 0 0.1108028012570542 0.032902569775092157 0 0.1103555289719426 0.040168221000956718 0 0.1071983466260798 0.035659111028307711 0 0.1108028012570542 0.032902569775092157 0 0.1103555289719426 0.040168221000956718 0 0.1178651115546696 0.052573319737666623 0 0.1103555289719426 0.040168221000956718 0 0.1199836596841395 0.043662078150655308 0 0.1159222067999727 0.036865131504598331 0 0.1103555289719426 0.040168221000956718 0 0.1199836596841395 0.043662078150655308 0 0.1159222067999727 0.036865131504598331 0 0.1199836596841395 0.043662078150655308 0 0.1232511026531718 0.037397597548952312 0 0.1249336348272455 0.049712884967204288 0 0.1199836596841395 0.043662078150655308 0 0.12749811000021771 0.044891151010640867 0 0.1199836596841395 0.043662078150655308 0 0.1232511026531718 0.037397597548952312 0 0.12749811000021771 0.044891151010640867 0 0.1232511026531718 0.037397597548952312 0 0.11758222700326811 0.029309149166297659 0 0.1252687186775906 0.030178848056689331 0 0.1159222067999727 0.036865131504598331 0 0.1232511026531718 0.037397597548952312 0 0.11758222700326811 0.029309149166297659 0 0.11758222700326811 0.029309149166297659 0 0.1211411023831821 0.019790141388387712 0 0.1252687186775906 0.030178848056689331 0 0.11758222700326811 0.029309149166297659 0 0.1103878944876959 0.025334044021030871 0 0.1211411023831821 0.019790141388387712 0 0.1108028012570542 0.032902569775092157 0 0.11758222700326811 0.029309149166297659 0 0.1103878944876959 0.025334044021030871 0 0.1103878944876959 0.025334044021030871 0 0.1129003350383067 0.0171478145756222 0 0.1211411023831821 0.019790141388387712 0 0.1211411023831821 0.019790141388387712 0 0.1163702940501759 0.0090495192000805344 0 0.12886194335753109 0.011760229185582571 0 0.1163702940501759 0.0090495192000805344 0 0.11633231768299999 -0.0032458042684647909 0 0.12774018681310881 -0.00055002405430379581 0 0.1163702940501759 0.0090495192000805344 0 0.12886194335753109 0.011760229185582571 0 0.12774018681310881 -0.00055002405430379581 0 0.1163702940501759 0.0090495192000805344 0 0.10794563736626241 0.0033798730949545562 0 0.11633231768299999 -0.0032458042684647909 0 0.1129003350383067 0.0171478145756222 0 0.1163702940501759 0.0090495192000805344 0 0.1062180237753647 0.01285346454743401 0 0.1163702940501759 0.0090495192000805344 0 0.1062180237753647 0.01285346454743401 0 0.10794563736626241 0.0033798730949545562 0 0.1129003350383067 0.0171478145756222 0 0.1211411023831821 0.019790141388387712 0 0.1163702940501759 0.0090495192000805344 0 0.10794563736626241 0.0033798730949545562 0 0.097562349300996831 0.0046908460472591717 0 0.1032452020217742 -0.0064486600515361444 0 0.1062180237753647 0.01285346454743401 0 0.10794563736626241 0.0033798730949545562 0 0.097562349300996831 0.0046908460472591717 0 0.1062180237753647 0.01285346454743401 0 0.097562349300996831 0.0046908460472591717 0 0.096120668668269821 0.016869694277425799 0 0.090663126299268093 0.02308512311075062 0 0.096120668668269821 0.016869694277425799 0 0.099997162377229526 0.026225330288480651 0 0.096120668668269821 0.016869694277425799 0 0.099997162377229526 0.026225330288480651 0 0.104520983233354 0.02043417622616139 0 0.090663126299268093 0.02308512311075062 0 0.098890949978592976 0.039552629248095612 0 0.099997162377229526 0.026225330288480651 0 0.1103878944876959 0.025334044021030871 0 0.099997162377229526 0.026225330288480651 0 0.104520983233354 0.02043417622616139 0 0.104421605214936 0.031750561343949747 0 0.1103878944876959 0.025334044021030871 0 0.099997162377229526 0.026225330288480651 0 0.104421605214936 0.031750561343949747 0 0.1108028012570542 0.032902569775092157 0 0.1103878944876959 0.025334044021030871 0 0.1129003350383067 0.0171478145756222 0 0.1062180237753647 0.01285346454743401 0 0.104520983233354 0.02043417622616139 0 0.1103878944876959 0.025334044021030871 0 0.1129003350383067 0.0171478145756222 0 0.104520983233354 0.02043417622616139 0 0.1062180237753647 0.01285346454743401 0 0.096120668668269821 0.016869694277425799 0 0.104520983233354 0.02043417622616139 0 0.1088848750480591 0.1078206233403337 0 0.095271618902415367 0.1014870448860037 0 0.1097428353041781 0.09758126547906007 0 0.095271618902415367 0.1014870448860037 0 0.1097428353041781 0.09758126547906007 0 0.095271618902415367 0.1014870448860037 0 0.098806715234831644 0.092689698106066892 0 0.093311414211961208 0.090019020899341912 0 0.095271618902415367 0.1014870448860037 0 0.1097428353041781 0.09758126547906007 0 0.098806715234831644 0.092689698106066892 0 0.095271618902415367 0.1014870448860037 0 0.1111259908926811 0.1192393239755556 0 0.095271618902415367 0.1014870448860037 0 0.1001109663316266 0.1175143366698319 0 0.089905184585409748 0.1221616073525835 0 0.095271618902415367 0.1014870448860037 0 0.1001109663316266 0.1175143366698319 0 0.1111259908926811 0.1192393239755556 0 0.1088848750480591 0.1078206233403337 0 0.095271618902415367 0.1014870448860037 0 0.1111259908926811 0.1192393239755556 0 0.1001109663316266 0.1175143366698319 0 0.089905184585409748 0.1221616073525835 0 0.1041410709460001 0.12716937046518489 0 0.1001109663316266 0.1175143366698319 0 0.1111259908926811 0.1192393239755556 0 0.1041410709460001 0.12716937046518489 0 0.1088848750480591 0.1078206233403337 0 0.1111259908926811 0.1192393239755556 0 0.11939905509296191 0.11297485902071561 0 0.1111259908926811 0.1192393239755556 0 0.1216401709375836 0.12439355965593769 0 0.11939905509296191 0.11297485902071561 0 0.1216401709375836 0.12439355965593769 0 0.11939905509296191 0.11297485902071561 0 0.12905527488174429 0.12836845256237209 0 0.11939905509296191 0.11297485902071561 0 0.12905527488174429 0.12836845256237209 0 0.11939905509296191 0.11297485902071561 0 0.1214707721692264 0.1026479329041762 0 0.12729066611458559 0.1091688786199347 0 0.11939905509296191 0.11297485902071561 0 0.1214707721692264 0.1026479329041762 0 0.1097428353041781 0.09758126547906007 0 0.11939905509296191 0.11297485902071561 0 0.1097428353041781 0.09758126547906007 0 0.1088848750480591 0.1078206233403337 0 0.11939905509296191 0.11297485902071561 0 0.1097428353041781 0.09758126547906007 0 0.1214707721692264 0.1026479329041762 0 0.1097428353041781 0.09758126547906007 0 0.1174954373401422 0.095488839207375345 0 0.1097428353041781 0.09758126547906007 0 0.1174954373401422 0.095488839207375345 0 0.11192896193966 0.090272824834310428 0 0.1097428353041781 0.09758126547906007 0 0.1174954373401422 0.095488839207375345 0 0.1174954373401422 0.095488839207375345 0 0.12607469971850391 0.089622711649675113 0 0.12559798341448161 0.097258343255633206 0 0.1214707721692264 0.1026479329041762 0 0.1174954373401422 0.095488839207375345 0 0.12559798341448161 0.097258343255633206 0 0.11683149720093459 0.084428374275348328 0 0.11192896193966 0.090272824834310428 0 0.10083216460941841 0.083376199121925038 0 0.1174954373401422 0.095488839207375345 0 0.11683149720093459 0.084428374275348328 0 0.12607469971850391 0.089622711649675113 0 0.12471564955468201 0.081195509797041612 0 0.11683149720093459 0.084428374275348328 0 0.12607469971850391 0.089622711649675113 0 0.12471564955468201 0.081195509797041612 0 0.11683149720093459 0.084428374275348328 0 0.11814348795895351 0.075948389892801629 0 0.1174954373401422 0.095488839207375345 0 0.11683149720093459 0.084428374275348328 0 0.11192896193966 0.090272824834310428 0 0.1187772725441008 0.060376865824300442 0 0.1227522073855048 0.072534643688884251 0 0.11633949967059511 0.069066224377138302 0 0.1187772725441008 0.060376865824300442 0 0.1227522073855048 0.072534643688884251 0 0.1292113830156463 0.072164121783763885 0 0.12471564955468201 0.081195509797041612 0 0.1227522073855048 0.072534643688884251 0 0.11814348795895351 0.075948389892801629 0 0.12471564955468201 0.081195509797041612 0 0.1227522073855048 0.072534643688884251 0 0.12736964571532741 0.076354341111398549 0 0.1227522073855048 0.072534643688884251 0 0.11814348795895351 0.075948389892801629 0 0.11633949967059511 0.069066224377138302 0 0.11683149720093459 0.084428374275348328 0 0.11814348795895351 0.075948389892801629 0 0.11007858598305111 0.072517197325595667 0 0.11814348795895351 0.075948389892801629 0 0.11007858598305111 0.072517197325595667 0 0.11633949967059511 0.069066224377138302 0 0.1187772725441008 0.060376865824300442 0 0.1104173619967095 0.064099761855261117 0 0.11633949967059511 0.069066224377138302 0 0.11007858598305111 0.072517197325595667 0 0.1104173619967095 0.064099761855261117 0 0.11633949967059511 0.069066224377138302 0 0.1020541336235844 0.06729563110500944 0 0.10083216460941841 0.083376199121925038 0 0.091253342768393905 0.068105990566818916 0 0.11007858598305111 0.072517197325595667 0 0.1020541336235844 0.06729563110500944 0 0.10083216460941841 0.083376199121925038 0 0.11007858598305111 0.072517197325595667 0 0.1104173619967095 0.064099761855261117 0 0.1020541336235844 0.06729563110500944 0 0.1033265977975325 0.058227819525599897 0 0.1104173619967095 0.064099761855261117 0 0.1020541336235844 0.06729563110500944 0 0.10083216460941841 0.083376199121925038 0 0.091253342768393905 0.068105990566818916 0 0.093694535075226015 0.058090215445345338 0 0.1020541336235844 0.06729563110500944 0 0.091253342768393905 0.068105990566818916 0 0.11683149720093459 0.084428374275348328 0 0.10083216460941841 0.083376199121925038 0 0.11683149720093459 0.084428374275348328 0 0.11007858598305111 0.072517197325595667 0 0.10083216460941841 0.083376199121925038 0 0.1097428353041781 0.09758126547906007 0 0.10083216460941841 0.083376199121925038 0 0.1097428353041781 0.09758126547906007 0 0.11192896193966 0.090272824834310428 0 0.10083216460941841 0.083376199121925038 0 0.1097428353041781 0.09758126547906007 0 0.10083216460941841 0.083376199121925038 0 0.098806715234831644 0.092689698106066892 0 0.10083216460941841 0.083376199121925038 0 0.098806715234831644 0.092689698106066892 0 0.093311414211961208 0.090019020899341912 0 0.095271618902415367 0.1014870448860037 0 0.078376176952103915 0.081899410504432252 0 0.095271618902415367 0.1014870448860037 0 0.078376176952103915 0.081899410504432252 0 0.0755496871488813 0.093805718140906158 0 0.10083216460941841 0.083376199121925038 0 0.093311414211961208 0.090019020899341912 0 0.078376176952103915 0.081899410504432252 0 0.10083216460941841 0.083376199121925038 0 0.078376176952103915 0.081899410504432252 0 0.10083216460941841 0.083376199121925038 0 0.078376176952103915 0.081899410504432252 0 0.08351203592868614 0.076605331542631105 0 0.095271618902415367 0.1014870448860037 0 0.093311414211961208 0.090019020899341912 0 0.078376176952103915 0.081899410504432252 0 0.078376176952103915 0.081899410504432252 0 0.08351203592868614 0.076605331542631105 0 0.073652642405267171 0.081588773441411327 0 0.10083216460941841 0.083376199121925038 0 0.08351203592868614 0.076605331542631105 0 0.085929792253091747 0.071341141216387696 0 0.091253342768393905 0.068105990566818916 0 0.085929792253091747 0.071341141216387696 0 0.083268093957030928 0.06713691255470905 0 0.083348560479883843 0.059850023792375133 0 0.091253342768393905 0.068105990566818916 0 0.083268093957030928 0.06713691255470905 0 0.10083216460941841 0.083376199121925038 0 0.091253342768393905 0.068105990566818916 0 0.085929792253091747 0.071341141216387696 0 0.08351203592868614 0.076605331542631105 0 0.077444666708066989 0.075465782005144533 0 0.073652642405267171 0.081588773441411327 0 0.08351203592868614 0.076605331542631105 0 0.079700913667586429 0.071254761928286919 0 0.077444666708066989 0.075465782005144533 0 0.08351203592868614 0.076605331542631105 0 0.079700913667586429 0.071254761928286919 0 0.085929792253091747 0.071341141216387696 0 0.079700913667586429 0.071254761928286919 0 0.085929792253091747 0.071341141216387696 0 0.083268093957030928 0.06713691255470905 0 0.079700913667586429 0.071254761928286919 0 0.083268093957030928 0.06713691255470905 0 0.07610786061619873 0.065132645269676617 0 0.083348560479883843 0.059850023792375133 0 0.083268093957030928 0.06713691255470905 0 0.07610786061619873 0.065132645269676617 0 0.07610786061619873 0.065132645269676617 0 0.073676881815571846 0.072881275313532112 0 0.064752399404367916 0.06944268927858846 0 0.071102290591906939 0.05897372877843933 0 0.07610786061619873 0.065132645269676617 0 0.064752399404367916 0.06944268927858846 0 0.079700913667586429 0.071254761928286919 0 0.07610786061619873 0.065132645269676617 0 0.073676881815571846 0.072881275313532112 0 0.073676881815571846 0.072881275313532112 0 0.077444666708066989 0.075465782005144533 0 0.073652642405267171 0.081588773441411327 0 0.073676881815571846 0.072881275313532112 0 0.064752399404367916 0.06944268927858846 0 0.073652642405267171 0.081588773441411327 0 0.079700913667586429 0.071254761928286919 0 0.073676881815571846 0.072881275313532112 0 0.077444666708066989 0.075465782005144533 0 0.073652642405267171 0.081588773441411327 0 0.0755496871488813 0.093805718140906158 0 0.059477728613281551 0.09539472580730092 0 0.078376176952103915 0.081899410504432252 0 0.073652642405267171 0.081588773441411327 0 0.0755496871488813 0.093805718140906158 0 0.078376176952103915 0.081899410504432252 0 0.073652642405267171 0.081588773441411327 0 0.07101128772226295 0.1080349050864428 0 0.0755496871488813 0.093805718140906158 0 0.059477728613281551 0.09539472580730092 0 0.095271618902415367 0.1014870448860037 0 0.07101128772226295 0.1080349050864428 0 0.0755496871488813 0.093805718140906158 0 0.095271618902415367 0.1014870448860037 0 0.07101128772226295 0.1080349050864428 0 0.095271618902415367 0.1014870448860037 0 0.07101128772226295 0.1080349050864428 0 0.089905184585409748 0.1221616073525835 0 0.07101128772226295 0.1080349050864428 0 0.089905184585409748 0.1221616073525835 0 0.069548650080668059 0.1299857614399112 0 0.07101128772226295 0.1080349050864428 0 0.046750956542110589 0.1145827652868822 0 0.07101128772226295 0.1080349050864428 0 0.046750956542110589 0.1145827652868822 0 0.069548650080668059 0.1299857614399112 0 0.07101128772226295 0.1080349050864428 0 0.059477728613281551 0.09539472580730092 0 0.046750956542110589 0.1145827652868822 0 0.059477728613281551 0.09539472580730092 0 0.046452349622281737 0.096138726220766788 0 0.046750956542110589 0.1145827652868822 0 0.033107593132618678 0.094776066027985689 0 0.046750956542110589 0.1145827652868822 0 0.02537901533854595 0.10692275220455701 0 0.046452349622281737 0.096138726220766788 0 0.033107593132618678 0.094776066027985689 0 0.046750956542110589 0.1145827652868822 0 0.046750956542110589 0.1145827652868822 0 0.02249062536195829 0.1211306254873217 0 0.033142827097578598 0.1293853955372119 0 0.046750956542110589 0.1145827652868822 0 0.02249062536195829 0.1211306254873217 0 0.02537901533854595 0.10692275220455701 0 0.046750956542110589 0.1145827652868822 0 0.02249062536195829 0.1211306254873217 0 0.064752399404367916 0.06944268927858846 0 0.051657925599651343 0.067643169016757959 0 0.046473120201116172 0.079801347760898353 0 0.064752399404367916 0.06944268927858846 0 0.073652642405267171 0.081588773441411327 0 0.046473120201116172 0.079801347760898353 0 0.057939947110843881 0.056013907512773242 0 0.051657925599651343 0.067643169016757959 0 0.037392817009368591 0.064273339576823491 0 0.057939947110843881 0.056013907512773242 0 0.064752399404367916 0.06944268927858846 0 0.051657925599651343 0.067643169016757959 0 0.073652642405267171 0.081588773441411327 0 0.059477728613281551 0.09539472580730092 0 0.046473120201116172 0.079801347760898353 0 0.073652642405267171 0.081588773441411327 0 0.046473120201116172 0.079801347760898353 0 0.059477728613281551 0.09539472580730092 0 0.046452349622281737 0.096138726220766788 0 0.046473120201116172 0.079801347760898353 0 0.033107593132618678 0.094776066027985689 0 0.046473120201116172 0.079801347760898353 0 0.02525671987695954 0.086780250188721667 0 0.046452349622281737 0.096138726220766788 0 0.033107593132618678 0.094776066027985689 0 0.046473120201116172 0.079801347760898353 0 0.046473120201116172 0.079801347760898353 0 0.019293597996965062 0.078013922080385378 0 0.046473120201116172 0.079801347760898353 0 0.037392817009368591 0.064273339576823491 0 0.019293597996965062 0.078013922080385378 0 0.051657925599651343 0.067643169016757959 0 0.046473120201116172 0.079801347760898353 0 0.037392817009368591 0.064273339576823491 0 0.037392817009368591 0.064273339576823491 0 0.016845686907893349 0.072532771640873739 0 0.037392817009368591 0.064273339576823491 0 0.016845686907893349 0.072532771640873739 0 0.019293597996965062 0.078013922080385378 0 0.02290734969728812 0.05713125032784061 0 0.037392817009368591 0.064273339576823491 0 0.016845686907893349 0.072532771640873739 0 0.02290734969728812 0.05713125032784061 0 0.016845686907893349 0.072532771640873739 0 0.01279726835615559 0.063859752649670184 0 0.016845686907893349 0.072532771640873739 0 0.019293597996965062 0.078013922080385378 0 0.013594647392820109 0.077219203875750514 0 0.046473120201116172 0.079801347760898353 0 0.019293597996965062 0.078013922080385378 0 0.02525671987695954 0.086780250188721667 0 0.019293597996965062 0.078013922080385378 0 0.015769285846694479 0.082888274550818181 0 0.02525671987695954 0.086780250188721667 0 0.019293597996965062 0.078013922080385378 0 0.015769285846694479 0.082888274550818181 0 0.013594647392820109 0.077219203875750514 0 0.033107593132618678 0.094776066027985689 0 0.02525671987695954 0.086780250188721667 0 0.022298183900466399 0.095579429832714252 0 0.02525671987695954 0.086780250188721667 0 0.01474283185100999 0.089277872826573457 0 0.022298183900466399 0.095579429832714252 0 0.015769285846694479 0.082888274550818181 0 0.02525671987695954 0.086780250188721667 0 0.01474283185100999 0.089277872826573457 0 0.01474283185100999 0.089277872826573457 0 0.0043271437301636087 0.090155458803287167 0 0.01300475930319784 0.1001402079157335 0 0.01474283185100999 0.089277872826573457 0 0.0043271437301636087 0.090155458803287167 0 0.0081534915697565307 0.080137202913275404 0 -0.00074415235142066155 0.079413076318190806 0 0.0043271437301636087 0.090155458803287167 0 0.0081534915697565307 0.080137202913275404 0 0.015769285846694479 0.082888274550818181 0 0.01474283185100999 0.089277872826573457 0 0.0081534915697565307 0.080137202913275404 0 0.015769285846694479 0.082888274550818181 0 0.0081534915697565307 0.080137202913275404 0 0.013594647392820109 0.077219203875750514 0 0.0081534915697565307 0.080137202913275404 0 0.013594647392820109 0.077219203875750514 0 0.0091798722636147433 0.07170428248242175 0 0.016845686907893349 0.072532771640873739 0 0.013594647392820109 0.077219203875750514 0 0.0091798722636147433 0.07170428248242175 0 -0.00074415235142066155 0.079413076318190806 0 0.0081534915697565307 0.080137202913275404 0 0.00034612155240797409 0.070760528259967037 0 0.0081534915697565307 0.080137202913275404 0 0.0091798722636147433 0.07170428248242175 0 0.00034612155240797409 0.070760528259967037 0 -0.00080083599168530534 0.059620852853258813 0 0.00034612155240797409 0.070760528259967037 0 0.0056454913240516326 0.06441850267048474 0 0.0091798722636147433 0.07170428248242175 0 0.00034612155240797409 0.070760528259967037 0 0.0056454913240516326 0.06441850267048474 0 0.0091798722636147433 0.07170428248242175 0 0.0056454913240516326 0.06441850267048474 0 0.01279726835615559 0.063859752649670184 0 0.016845686907893349 0.072532771640873739 0 0.0091798722636147433 0.07170428248242175 0 0.01279726835615559 0.063859752649670184 0 0.02249062536195829 0.1211306254873217 0 0.02537901533854595 0.10692275220455701 0 0.0079273285984345077 0.1153896153985875 0 0.033107593132618678 0.094776066027985689 0 0.02537901533854595 0.10692275220455701 0 0.022298183900466399 0.095579429832714252 0 0.02537901533854595 0.10692275220455701 0 0.022298183900466399 0.095579429832714252 0 0.01300475930319784 0.1001402079157335 0 0.01474283185100999 0.089277872826573457 0 0.022298183900466399 0.095579429832714252 0 0.01300475930319784 0.1001402079157335 0 0.02537901533854595 0.10692275220455701 0 0.01300475930319784 0.1001402079157335 0 0.0079273285984345077 0.1153896153985875 0 0.0043271437301636087 0.090155458803287167 0 0.01300475930319784 0.1001402079157335 0 0.002021913286525874 0.1035490079229269 0 -0.0045414923040372722 0.096101033527476509 0 0.0043271437301636087 0.090155458803287167 0 0.002021913286525874 0.1035490079229269 0 0.01300475930319784 0.1001402079157335 0 0.002021913286525874 0.1035490079229269 0 0.0079273285984345077 0.1153896153985875 0 -0.0017697058181939749 0.12767848568776111 0 0.02249062536195829 0.1211306254873217 0 0.0079273285984345077 0.1153896153985875 0 -0.0017697058181939749 0.12767848568776111 0 0.02249062536195829 0.1211306254873217 0 -0.0041589317298227797 0.11498810019226161 0 0.002021913286525874 0.1035490079229269 0 0.0079273285984345077 0.1153896153985875 0 -0.0017697058181939749 0.12767848568776111 0 -0.0041589317298227797 0.11498810019226161 0 0.0079273285984345077 0.1153896153985875 0 -0.0017697058181939749 0.12767848568776111 0 0.01059393583606 0.1326036928341485 0 -0.0017697058181939749 0.12767848568776111 0 0.02249062536195829 0.1211306254873217 0 0.0059556153534708438 0.12780500038479281 0 -0.0017697058181939749 0.12767848568776111 0 0.0059556153534708438 0.12780500038479281 0 0.01059393583606 0.1326036928341485 0 -0.012902105114553889 0.1306831187963011 0 0.01482452591839916 0.1369805574256879 0 0.01059393583606 0.1326036928341485 0 -0.012902105114553889 0.1306831187963011 0 0.01482452591839916 0.1369805574256879 0 0.01482452591839916 0.1369805574256879 0 0.01059393583606 0.1326036928341485 0 0.0059556153534708438 0.12780500038479281 0 0.01059393583606 0.1326036928341485 0 0.018761729494022172 0.12929455326016931 0 0.0059556153534708438 0.12780500038479281 0 0.01059393583606 0.1326036928341485 0 0.01482452591839916 0.1369805574256879 0 0.022176209975297439 0.1372176327199208 0 0.037512515609930172 0.14213358963276679 0 0.01482452591839916 0.1369805574256879 0 0.037512515609930172 0.14213358963276679 0 0.02249062536195829 0.1211306254873217 0 0.0059556153534708438 0.12780500038479281 0 0.018761729494022172 0.12929455326016931 0 0.01482452591839916 0.1369805574256879 0 0.01059393583606 0.1326036928341485 0 0.022176209975297439 0.1372176327199208 0 0.01059393583606 0.1326036928341485 0 0.018761729494022172 0.12929455326016931 0 0.022176209975297439 0.1372176327199208 0 0.01059393583606 0.1326036928341485 0 0.022176209975297439 0.1372176327199208 0 0.022176209975297439 0.1372176327199208 0 0.033142827097578598 0.1293853955372119 0 0.037512515609930172 0.14213358963276679 0 0.02249062536195829 0.1211306254873217 0 0.018761729494022172 0.12929455326016931 0 0.033142827097578598 0.1293853955372119 0 0.018761729494022172 0.12929455326016931 0 0.022176209975297439 0.1372176327199208 0 0.033142827097578598 0.1293853955372119 0 0.01482452591839916 0.1369805574256879 0 0.029544969375660968 0.15220996667731471 0 0.01131071390687767 0.15353763536437401 0 0.01482452591839916 0.1369805574256879 0 0.029544969375660968 0.15220996667731471 0 0.037512515609930172 0.14213358963276679 0 0.01482452591839916 0.1369805574256879 0 0.029544969375660968 0.15220996667731471 0 -0.0061056759341989036 0.1508760704608294 0 0.01131071390687767 0.15353763536437401 0 0.0041527042863420023 0.14544045411878639 0 0.01482452591839916 0.1369805574256879 0 0.01131071390687767 0.15353763536437401 0 0.0041527042863420023 0.14544045411878639 0 -0.0034187467457100699 0.1403675532242544 0 0.01482452591839916 0.1369805574256879 0 0.0041527042863420023 0.14544045411878639 0 -0.0061056759341989036 0.1508760704608294 0 0.01131071390687767 0.15353763536437401 0 0.003769649654854173 0.1639063082871591 0 0.01131071390687767 0.15353763536437401 0 0.003769649654854173 0.1639063082871591 0 0.020797784187683108 0.16705173656896449 0 -0.0095485104545254846 0.17119758740342761 0 0.003769649654854173 0.1639063082871591 0 0.0087352739987390793 0.17975240997245071 0 0.003769649654854173 0.1639063082871591 0 0.0087352739987390793 0.17975240997245071 0 0.020797784187683108 0.16705173656896449 0 0.0087352739987390793 0.17975240997245071 0 0.029327990546941889 0.18381470456662291 0 0.020797784187683108 0.16705173656896449 0 0.0087352739987390793 0.17975240997245071 0 0.029327990546941889 0.18381470456662291 0 0.01791102231314461 0.19737738856290471 0 0.029544969375660968 0.15220996667731471 0 0.01131071390687767 0.15353763536437401 0 0.020797784187683108 0.16705173656896449 0 0.029544969375660968 0.15220996667731471 0 0.044265412832922638 0.1674393759289417 0 0.029544969375660968 0.15220996667731471 0 0.044265412832922638 0.1674393759289417 0 0.046505540028049831 0.15456171134326629 0 0.029544969375660968 0.15220996667731471 0 0.020797784187683108 0.16705173656896449 0 0.044265412832922638 0.1674393759289417 0 0.029327990546941889 0.18381470456662291 0 0.020797784187683108 0.16705173656896449 0 0.044265412832922638 0.1674393759289417 0 0.029327990546941889 0.18381470456662291 0 0.044265412832922638 0.1674393759289417 0 0.046624266848346793 0.1858829101895049 0 0.044265412832922638 0.1674393759289417 0 0.046624266848346793 0.1858829101895049 0 0.05898585629018431 0.18266878518056859 0 0.044265412832922638 0.1674393759289417 0 0.05898585629018431 0.18266878518056859 0 0.044265412832922638 0.1674393759289417 0 0.05898585629018431 0.18266878518056859 0 0.061004297020274108 0.1637390026374628 0 0.044265412832922638 0.1674393759289417 0 0.061004297020274108 0.1637390026374628 0 0.046505540028049831 0.15456171134326629 0 0.060200505301461232 0.14728662183984539 0 0.046505540028049831 0.15456171134326629 0 0.037512515609930172 0.14213358963276679 0 0.060200505301461232 0.14728662183984539 0 0.04943109092634973 0.1326748267473235 0 0.037512515609930172 0.14213358963276679 0 0.060200505301461232 0.14728662183984539 0 0.037512515609930172 0.14213358963276679 0 0.061004297020274108 0.1637390026374628 0 0.060200505301461232 0.14728662183984539 0 0.046505540028049831 0.15456171134326629 0 0.060200505301461232 0.14728662183984539 0 0.04943109092634973 0.1326748267473235 0 0.069548650080668059 0.1299857614399112 0 0.046750956542110589 0.1145827652868822 0 0.04943109092634973 0.1326748267473235 0 0.069548650080668059 0.1299857614399112 0 0.046750956542110589 0.1145827652868822 0 0.04943109092634973 0.1326748267473235 0 0.033142827097578598 0.1293853955372119 0 0.04943109092634973 0.1326748267473235 0 0.033142827097578598 0.1293853955372119 0 0.037512515609930172 0.14213358963276679 0 0.029544969375660968 0.15220996667731471 0 0.046505540028049831 0.15456171134326629 0 0.037512515609930172 0.14213358963276679 0 0.0168823415007953 0.24231856612335889 0 0.034419932012919131 0.23287576080008879 0 0.029720614319208541 0.25580432796631258 0 -0.00022409353603266441 0.22794192581451611 0 -0.00045679976148860701 0.24809875771850209 0 0.0168823415007953 0.24231856612335889 0 -0.00022409353603266441 0.22794192581451611 0 0.0168823415007953 0.24231856612335889 0 0.013549127747612759 0.21602952418420579 0 0.0168823415007953 0.24231856612335889 0 0.013549127747612759 0.21602952418420579 0 0.034419932012919131 0.23287576080008879 0 0.013549127747612759 0.21602952418420579 0 0.039599591264631993 0.20632005975137321 0 0.034419932012919131 0.23287576080008879 0 0.013549127747612759 0.21602952418420579 0 0.01791102231314461 0.19737738856290471 0 0.039599591264631993 0.20632005975137321 0 0.013549127747612759 0.21602952418420579 0 0.039599591264631993 0.20632005975137321 0 -0.0016568719922026871 0.2009702443398711 0 0.013549127747612759 0.21602952418420579 0 0.01791102231314461 0.19737738856290471 0 -0.0016568719922026871 0.2009702443398711 0 -0.00022409353603266441 0.22794192581451611 0 0.013549127747612759 0.21602952418420579 0 -0.0016568719922026871 0.2009702443398711 0 0.0087352739987390793 0.17975240997245071 0 0.01791102231314461 0.19737738856290471 0 -0.0016568719922026871 0.2009702443398711 0 -0.0054011812225076708 0.18534100671761389 0 0.0087352739987390793 0.17975240997245071 0 0.029327990546941889 0.18381470456662291 0 0.01791102231314461 0.19737738856290471 0 0.039599591264631993 0.20632005975137321 0 0.029327990546941889 0.18381470456662291 0 0.046624266848346793 0.1858829101895049 0 0.039599591264631993 0.20632005975137321 0 0.046624266848346793 0.1858829101895049 0 0.05898585629018431 0.18266878518056859 0 0.065650054781651215 0.1966105953185405 0 0.039599591264631993 0.20632005975137321 0 0.065650054781651215 0.1966105953185405 0 0.046624266848346793 0.1858829101895049 0 0.039599591264631993 0.20632005975137321 0 0.065650054781651215 0.1966105953185405 0 0.039599591264631993 0.20632005975137321 0 0.065296136296669097 0.21518382948803569 0 0.065650054781651215 0.1966105953185405 0 0.039599591264631993 0.20632005975137321 0 0.05168788161907182 0.2270023089895857 0 0.065296136296669097 0.21518382948803569 0 0.039599591264631993 0.20632005975137321 0 0.034419932012919131 0.23287576080008879 0 0.05168788161907182 0.2270023089895857 0 0.05168788161907182 0.2270023089895857 0 0.068770506654405289 0.23379551070657811 0 0.065296136296669097 0.21518382948803569 0 0.05168788161907182 0.2270023089895857 0 0.052834710101556888 0.24979866557787231 0 0.068770506654405289 0.23379551070657811 0 0.034419932012919131 0.23287576080008879 0 0.05168788161907182 0.2270023089895857 0 0.052834710101556888 0.24979866557787231 0 0.034419932012919131 0.23287576080008879 0 0.052834710101556888 0.24979866557787231 0 0.029720614319208541 0.25580432796631258 0 0.0881919609430801 0.23853131264943281 0 0.073282428511230874 0.24964968076252789 0 0.088802191617374862 0.25605340422718847 0 0.052834710101556888 0.24979866557787231 0 0.073282428511230874 0.24964968076252789 0 0.068770506654405289 0.23379551070657811 0 0.0881919609430801 0.23853131264943281 0 0.073282428511230874 0.24964968076252789 0 0.068770506654405289 0.23379551070657811 0 0.068770506654405289 0.23379551070657811 0 0.081329922454823012 0.22260726677201459 0 0.065296136296669097 0.21518382948803569 0 0.0881919609430801 0.23853131264943281 0 0.081329922454823012 0.22260726677201459 0 0.10120080731870661 0.2228861683554047 0 0.0881919609430801 0.23853131264943281 0 0.068770506654405289 0.23379551070657811 0 0.081329922454823012 0.22260726677201459 0 0.081329922454823012 0.22260726677201459 0 0.083484877816895564 0.2048098978147489 0 0.10120080731870661 0.2228861683554047 0 0.083484877816895564 0.2048098978147489 0 0.065296136296669097 0.21518382948803569 0 0.065650054781651215 0.1966105953185405 0 0.081329922454823012 0.22260726677201459 0 0.083484877816895564 0.2048098978147489 0 0.065296136296669097 0.21518382948803569 0 0.065650054781651215 0.1966105953185405 0 0.073228281100056802 0.18488802035624891 0 0.091700518298670416 0.18690113088570781 0 0.05898585629018431 0.18266878518056859 0 0.065650054781651215 0.1966105953185405 0 0.073228281100056802 0.18488802035624891 0 0.065650054781651215 0.1966105953185405 0 0.091700518298670416 0.18690113088570781 0 0.083484877816895564 0.2048098978147489 0 0.1025347692543684 0.2023141448528713 0 0.091700518298670416 0.18690113088570781 0 0.083484877816895564 0.2048098978147489 0 0.065650054781651215 0.1966105953185405 0 0.091700518298670416 0.18690113088570781 0 0.1025347692543684 0.2023141448528713 0 0.091700518298670416 0.18690113088570781 0 0.1177509818156896 0.17719166645287521 0 0.1200220371616058 0.19573652800271529 0 0.1177509818156896 0.17719166645287521 0 0.1364155055957354 0.19266673635397941 0 0.1025347692543684 0.2023141448528713 0 0.1200220371616058 0.19573652800271529 0 0.1177509818156896 0.17719166645287521 0 0.1025347692543684 0.2023141448528713 0 0.1200220371616058 0.19573652800271529 0 0.12387454219424469 0.21480458646465231 0 0.1025347692543684 0.2023141448528713 0 0.12387454219424469 0.21480458646465231 0 0.083484877816895564 0.2048098978147489 0 0.1025347692543684 0.2023141448528713 0 0.10120080731870661 0.2228861683554047 0 0.1025347692543684 0.2023141448528713 0 0.12387454219424469 0.21480458646465231 0 0.10120080731870661 0.2228861683554047 0 0.10120080731870661 0.2228861683554047 0 0.1220688525743734 0.2327695730971403 0 0.1061789030124069 0.2432622937135818 0 0.12387454219424469 0.21480458646465231 0 0.10120080731870661 0.2228861683554047 0 0.1220688525743734 0.2327695730971403 0 0.1220688525743734 0.2327695730971403 0 0.1061789030124069 0.2432622937135818 0 0.13031494490476789 0.25030009388335078 0 0.0881919609430801 0.23853131264943281 0 0.10120080731870661 0.2228861683554047 0 0.1061789030124069 0.2432622937135818 0 0.0881919609430801 0.23853131264943281 0 0.1061789030124069 0.2432622937135818 0 0.088802191617374862 0.25605340422718847 0 0.082888494992992334 0.152439654046924 0 0.085084784417796572 0.13502074802294051 0 0.09799680801211616 0.13549596925234311 0 0.089905184585409748 0.1221616073525835 0 0.085084784417796572 0.13502074802294051 0 0.069548650080668059 0.1299857614399112 0 0.082888494992992334 0.152439654046924 0 0.085084784417796572 0.13502074802294051 0 0.069548650080668059 0.1299857614399112 0 0.089905184585409748 0.1221616073525835 0 0.085084784417796572 0.13502074802294051 0 0.09799680801211616 0.13549596925234311 0 0.060200505301461232 0.14728662183984539 0 0.082888494992992334 0.152439654046924 0 0.069548650080668059 0.1299857614399112 0 0.060200505301461232 0.14728662183984539 0 0.082888494992992334 0.152439654046924 0 0.061004297020274108 0.1637390026374628 0 0.060200505301461232 0.14728662183984539 0 0.082888494992992334 0.152439654046924 0 0.061004297020274108 0.1637390026374628 0 0.082888494992992334 0.152439654046924 0 0.076576695029721281 0.17337157004017861 0 0.05898585629018431 0.18266878518056859 0 0.076576695029721281 0.17337157004017861 0 0.073228281100056802 0.18488802035624891 0 0.05898585629018431 0.18266878518056859 0 0.061004297020274108 0.1637390026374628 0 0.076576695029721281 0.17337157004017861 0 0.076576695029721281 0.17337157004017861 0 0.073228281100056802 0.18488802035624891 0 0.091700518298670416 0.18690113088570781 0 0.076576695029721281 0.17337157004017861 0 0.091700518298670416 0.18690113088570781 0 0.088468087130287587 0.1703990119093319 0 0.082888494992992334 0.152439654046924 0 0.088468087130287587 0.1703990119093319 0 0.1027066401997663 0.16888369266451739 0 0.082888494992992334 0.152439654046924 0 0.076576695029721281 0.17337157004017861 0 0.088468087130287587 0.1703990119093319 0 0.1027066401997663 0.16888369266451739 0 0.10557648468452351 0.15759268625400261 0 0.1148435015413569 0.15293764786481259 0 0.1027066401997663 0.16888369266451739 0 0.1148435015413569 0.15293764786481259 0 0.082888494992992334 0.152439654046924 0 0.1027066401997663 0.16888369266451739 0 0.10557648468452351 0.15759268625400261 0 0.091700518298670416 0.18690113088570781 0 0.1177509818156896 0.17719166645287521 0 0.091700518298670416 0.18690113088570781 0 0.088468087130287587 0.1703990119093319 0 0.1027066401997663 0.16888369266451739 0 0.091700518298670416 0.18690113088570781 0 0.1027066401997663 0.16888369266451739 0 0.1177509818156896 0.17719166645287521 0 0.1177509818156896 0.17719166645287521 0 0.11501201501288651 0.16496048097220789 0 0.1282231585752876 0.15861068819309701 0 0.1027066401997663 0.16888369266451739 0 0.11501201501288651 0.16496048097220789 0 0.1148435015413569 0.15293764786481259 0 0.1027066401997663 0.16888369266451739 0 0.1177509818156896 0.17719166645287521 0 0.11501201501288651 0.16496048097220789 0 0.11501201501288651 0.16496048097220789 0 0.1148435015413569 0.15293764786481259 0 0.1282231585752876 0.15861068819309701 0 0.1148435015413569 0.15293764786481259 0 0.12502037983405781 0.1480261647290971 0 0.1282231585752876 0.15861068819309701 0 0.1164901235946051 0.14156181430883 0 0.1148435015413569 0.15293764786481259 0 0.12698036288294701 0.1369916030651073 0 0.1148435015413569 0.15293764786481259 0 0.12698036288294701 0.1369916030651073 0 0.12502037983405781 0.1480261647290971 0 0.1148435015413569 0.15293764786481259 0 0.12698036288294701 0.1369916030651073 0 0.1164901235946051 0.14156181430883 0 0.1148435015413569 0.15293764786481259 0 0.1046266060455936 0.14573568547394111 0 0.082888494992992334 0.152439654046924 0 0.10557648468452351 0.15759268625400261 0 0.10557648468452351 0.15759268625400261 0 0.1148435015413569 0.15293764786481259 0 0.1046266060455936 0.14573568547394111 0 0.082888494992992334 0.152439654046924 0 0.10557648468452351 0.15759268625400261 0 0.1046266060455936 0.14573568547394111 0 0.082888494992992334 0.152439654046924 0 0.1046266060455936 0.14573568547394111 0 0.09799680801211616 0.13549596925234311 0 0.089905184585409748 0.1221616073525835 0 0.09799680801211616 0.13549596925234311 0 0.1041410709460001 0.12716937046518489 0 0.1046266060455936 0.14573568547394111 0 0.09799680801211616 0.13549596925234311 0 0.10996422344796759 0.13438634111673439 0 0.09799680801211616 0.13549596925234311 0 0.1041410709460001 0.12716937046518489 0 0.10996422344796759 0.13438634111673439 0 0.1111259908926811 0.1192393239755556 0 0.1041410709460001 0.12716937046518489 0 0.10996422344796759 0.13438634111673439 0 0.1111259908926811 0.1192393239755556 0 0.1216401709375836 0.12439355965593769 0 0.12698036288294701 0.1369916030651073 0 0.1111259908926811 0.1192393239755556 0 0.11614017520455019 0.1330447706165569 0 0.10996422344796759 0.13438634111673439 0 0.1111259908926811 0.1192393239755556 0 0.12698036288294701 0.1369916030651073 0 0.1111259908926811 0.1192393239755556 0 0.11614017520455019 0.1330447706165569 0 0.12698036288294701 0.1369916030651073 0 0.1164901235946051 0.14156181430883 0 0.1046266060455936 0.14573568547394111 0 0.10996422344796759 0.13438634111673439 0 0.1164901235946051 0.14156181430883 0 0.11614017520455019 0.1330447706165569 0 0.10996422344796759 0.13438634111673439 0 0.1164901235946051 0.14156181430883 0 0.11614017520455019 0.1330447706165569 0 0.12698036288294701 0.1369916030651073 0 0.1216401709375836 0.12439355965593769 0 0.12905527488174429 0.12836845256237209 0 0.12698036288294701 0.1369916030651073 0 0.12905527488174429 0.12836845256237209 0 0.12698036288294701 0.1369916030651073 0 0.13872775740638019 0.12155726019191861 0 0.12698036288294701 0.1369916030651073 0 0.13353245044721901 0.1374763363790131 0 0.1368909929055255 0.13234702384679239 0 0.12698036288294701 0.1369916030651073 0 0.13116011559993851 0.1416717087673644 0 0.12698036288294701 0.1369916030651073 0 0.13353245044721901 0.1374763363790131 0 0.13116011559993851 0.1416717087673644 0 0.13353245044721901 0.1374763363790131 0 0.1405414004014108 0.1410139536082296 0 0.13116011559993851 0.1416717087673644 0 0.13353245044721901 0.1374763363790131 0 0.1368909929055255 0.13234702384679239 0 0.1405414004014108 0.1410139536082296 0 0.12698036288294701 0.1369916030651073 0 0.13872775740638019 0.12155726019191861 0 0.12698036288294701 0.1369916030651073 0 0.1368909929055255 0.13234702384679239 0 0.13872775740638019 0.12155726019191861 0 0.1368909929055255 0.13234702384679239 0 0.1496879439767958 0.13013929788962339 0 0.13872775740638019 0.12155726019191861 0 0.1496879439767958 0.13013929788962339 0 0.14781075651651099 0.146980326714863 0 0.1405414004014108 0.1410139536082296 0 0.1496879439767958 0.13013929788962339 0 0.14781075651651099 0.146980326714863 0 0.16739835445773441 0.13534996523662901 0 0.1368909929055255 0.13234702384679239 0 0.1496879439767958 0.13013929788962339 0 0.1405414004014108 0.1410139536082296 0 0.12502037983405781 0.1480261647290971 0 0.13116011559993851 0.1416717087673644 0 0.1282231585752876 0.15861068819309701 0 0.14781075651651099 0.146980326714863 0 0.1282231585752876 0.15861068819309701 0 0.1405414004014108 0.1410139536082296 0 0.13116011559993851 0.1416717087673644 0 0.1282231585752876 0.15861068819309701 0 0.14781075651651099 0.146980326714863 0 0.1405414004014108 0.1410139536082296 0 0.1282231585752876 0.15861068819309701 0 0.12698036288294701 0.1369916030651073 0 0.12502037983405781 0.1480261647290971 0 0.13116011559993851 0.1416717087673644 0 0.14781075651651099 0.146980326714863 0 0.1282231585752876 0.15861068819309701 0 0.14380144533270889 0.16748220202004249 0 0.1177509818156896 0.17719166645287521 0 0.1282231585752876 0.15861068819309701 0 0.14380144533270889 0.16748220202004249 0 0.1177509818156896 0.17719166645287521 0 0.14380144533270889 0.16748220202004249 0 0.1364155055957354 0.19266673635397941 0 0.1177509818156896 0.17719166645287521 0 0.14380144533270889 0.16748220202004249 0 0.14380144533270889 0.16748220202004249 0 0.1651995128374302 0.1782699985134828 0 0.15445212082840989 0.19187786861435019 0 0.14380144533270889 0.16748220202004249 0 0.1364155055957354 0.19266673635397941 0 0.15445212082840989 0.19187786861435019 0 0.14781075651651099 0.146980326714863 0 0.14380144533270889 0.16748220202004249 0 0.16985190884972809 0.1577727375872098 0 0.14380144533270889 0.16748220202004249 0 0.16985190884972809 0.1577727375872098 0 0.1651995128374302 0.1782699985134828 0 0.14380144533270889 0.16748220202004249 0 0.16985190884972809 0.1577727375872098 0 0.1651995128374302 0.1782699985134828 0 0.1850721076939828 0.1766764296230772 0 0.17281998148232119 0.1975407547227345 0 0.16985190884972809 0.1577727375872098 0 0.1850721076939828 0.1766764296230772 0 0.1880998796917947 0.16151451338078149 0 0.16985190884972809 0.1577727375872098 0 0.1651995128374302 0.1782699985134828 0 0.1850721076939828 0.1766764296230772 0 0.16985190884972809 0.1577727375872098 0 0.19590237236674729 0.1480632731543772 0 0.16985190884972809 0.1577727375872098 0 0.19590237236674729 0.1480632731543772 0 0.1880998796917947 0.16151451338078149 0 0.16985190884972809 0.1577727375872098 0 0.18003464701829189 0.14122639493415279 0 0.19590237236674729 0.1480632731543772 0 0.16985190884972809 0.1577727375872098 0 0.18003464701829189 0.14122639493415279 0 0.16739835445773441 0.13534996523662901 0 0.16739835445773441 0.13534996523662901 0 0.1869859523989576 0.1237196037583949 0 0.18003464701829189 0.14122639493415279 0 0.16739835445773441 0.13534996523662901 0 0.1869859523989576 0.1237196037583949 0 0.16739835445773441 0.13534996523662901 0 0.17628586543944791 0.12089648966018229 0 0.1869859523989576 0.1237196037583949 0 0.1496879439767958 0.13013929788962339 0 0.16739835445773441 0.13534996523662901 0 0.1664666864147436 0.1157930048278925 0 0.14781075651651099 0.146980326714863 0 0.16739835445773441 0.13534996523662901 0 0.14781075651651099 0.146980326714863 0 0.16985190884972809 0.1577727375872098 0 0.16739835445773441 0.13534996523662901 0 0.14521431513412089 0.22729502807643329 0 0.1489771954588234 0.25126435036168582 0 0.13031494490476789 0.25030009388335078 0 0.14521431513412089 0.22729502807643329 0 0.16655408807399719 0.23978546968821421 0 0.1489771954588234 0.25126435036168582 0 0.1220688525743734 0.2327695730971403 0 0.14521431513412089 0.22729502807643329 0 0.13031494490476789 0.25030009388335078 0 0.12387454219424469 0.21480458646465231 0 0.1220688525743734 0.2327695730971403 0 0.14521431513412089 0.22729502807643329 0 0.12387454219424469 0.21480458646465231 0 0.14521431513412089 0.22729502807643329 0 0.14521431513412089 0.22729502807643329 0 0.16655408807399719 0.23978546968821421 0 0.12387454219424469 0.21480458646465231 0 0.14521431513412089 0.22729502807643329 0 0.1527907392017582 0.20765701698626329 0 0.12387454219424469 0.21480458646465231 0 0.1527907392017582 0.20765701698626329 0 0.1364155055957354 0.19266673635397941 0 0.1200220371616058 0.19573652800271529 0 0.12387454219424469 0.21480458646465231 0 0.1364155055957354 0.19266673635397941 0 0.1527907392017582 0.20765701698626329 0 0.1364155055957354 0.19266673635397941 0 0.15445212082840989 0.19187786861435019 0 0.1651995128374302 0.1782699985134828 0 0.15445212082840989 0.19187786861435019 0 0.17281998148232119 0.1975407547227345 0 0.1527907392017582 0.20765701698626329 0 0.15445212082840989 0.19187786861435019 0 0.17281998148232119 0.1975407547227345 0 0.1850721076939828 0.1766764296230772 0 0.17281998148232119 0.1975407547227345 0 0.1975995415010259 0.19357062919756801 0 0.17281998148232119 0.1975407547227345 0 0.17120038256269521 0.21878649800035099 0 0.19614720701294219 0.21509984345315369 0 0.14521431513412089 0.22729502807643329 0 0.1527907392017582 0.20765701698626329 0 0.17120038256269521 0.21878649800035099 0 0.1527907392017582 0.20765701698626329 0 0.17281998148232119 0.1975407547227345 0 0.17120038256269521 0.21878649800035099 0 0.14521431513412089 0.22729502807643329 0 0.17120038256269521 0.21878649800035099 0 0.16655408807399719 0.23978546968821421 0 0.17120038256269521 0.21878649800035099 0 0.18535214175287029 0.22964045367288091 0 0.19614720701294219 0.21509984345315369 0 0.17120038256269521 0.21878649800035099 0 0.18535214175287029 0.22964045367288091 0 0.16655408807399719 0.23978546968821421 0 0.16655408807399719 0.23978546968821421 0 0.18789386101387501 0.25227591129999283 0 0.18535214175287029 0.22964045367288091 0 0.16655408807399719 0.23978546968821421 0 0.1896584537775701 0.24050421126634861 0 0.16655408807399719 0.23978546968821421 0 0.1896584537775701 0.24050421126634861 0 0.18789386101387501 0.25227591129999283 0 0.21333945866335119 0.23972475408501909 0 0.20306155191186681 0.24492252111671359 0 0.21908793363626539 0.25099558894759982 0 0.21333945866335119 0.23972475408501909 0 0.20306155191186681 0.24492252111671359 0 0.20008194780478231 0.23268059113881551 0 0.20306155191186681 0.24492252111671359 0 0.18789386101387501 0.25227591129999283 0 0.20306155191186681 0.24492252111671359 0 0.1896584537775701 0.24050421126634861 0 0.18789386101387501 0.25227591129999283 0 0.20306155191186681 0.24492252111671359 0 0.1896584537775701 0.24050421126634861 0 0.20008194780478231 0.23268059113881551 0 0.18535214175287029 0.22964045367288091 0 0.20008194780478231 0.23268059113881551 0 0.19614720701294219 0.21509984345315369 0 0.20008194780478231 0.23268059113881551 0 0.21137842487152761 0.22710094096167949 0 0.19614720701294219 0.21509984345315369 0 0.18535214175287029 0.22964045367288091 0 0.1896584537775701 0.24050421126634861 0 0.20008194780478231 0.23268059113881551 0 0.21137842487152761 0.22710094096167949 0 0.21648177800647031 0.2152993786927814 0 0.19614720701294219 0.21509984345315369 0 0.21333945866335119 0.23972475408501909 0 0.20008194780478231 0.23268059113881551 0 0.21137842487152761 0.22710094096167949 0 0.21648177800647031 0.2152993786927814 0 0.19614720701294219 0.21509984345315369 0 0.21187130924575531 0.20274913017925841 0 0.19614720701294219 0.21509984345315369 0 0.1975995415010259 0.19357062919756801 0 0.21187130924575531 0.20274913017925841 0 0.17281998148232119 0.1975407547227345 0 0.19614720701294219 0.21509984345315369 0 0.1975995415010259 0.19357062919756801 0 0.1975995415010259 0.19357062919756801 0 0.21187130924575531 0.20274913017925841 0 0.2135677911027295 0.18879453277570871 0 0.21187130924575531 0.20274913017925841 0 0.2135677911027295 0.18879453277570871 0 0.22585544112562991 0.19509769648058309 0 0.21187130924575531 0.20274913017925841 0 0.22585544112562991 0.19509769648058309 0 0.22861204580531341 0.21103584866064229 0 0.22585544112562991 0.19509769648058309 0 0.23829354872295239 0.19747545425212359 0 0.22861204580531341 0.21103584866064229 0 0.2135677911027295 0.18879453277570871 0 0.22585544112562991 0.19509769648058309 0 0.22631403747709011 0.18192960454196869 0 0.22585544112562991 0.19509769648058309 0 0.22631403747709011 0.18192960454196869 0 0.23592116792149451 0.18646134224702671 0 0.22585544112562991 0.19509769648058309 0 0.23829354872295239 0.19747545425212359 0 0.23592116792149451 0.18646134224702671 0 0.2479267836454804 0.18853790808704729 0 0.24446556628995289 0.20951871422480439 0 0.2546123745411078 0.20102907767462311 0 0.2479267836454804 0.18853790808704729 0 0.23829354872295239 0.19747545425212359 0 0.24446556628995289 0.20951871422480439 0 0.2479267836454804 0.18853790808704729 0 0.24446556628995289 0.20951871422480439 0 0.2479267836454804 0.18853790808704729 0 0.23829354872295239 0.19747545425212359 0 0.23592116792149451 0.18646134224702671 0 0.23829354872295239 0.19747545425212359 0 0.24379451425300089 0.21789940802104771 0 0.23829354872295239 0.19747545425212359 0 0.24379451425300089 0.21789940802104771 0 0.22861204580531341 0.21103584866064229 0 0.23829354872295239 0.19747545425212359 0 0.24446556628995289 0.20951871422480439 0 0.24379451425300089 0.21789940802104771 0 0.24446556628995289 0.20951871422480439 0 0.2509697907780245 0.2154724319508407 0 0.25382484201740502 0.20971433286650901 0 0.24446556628995289 0.20951871422480439 0 0.24379451425300089 0.21789940802104771 0 0.2509697907780245 0.2154724319508407 0 0.24379451425300089 0.21789940802104771 0 0.22861204580531341 0.21103584866064229 0 0.22962867875802381 0.22582500169057099 0 0.21648177800647031 0.2152993786927814 0 0.21187130924575531 0.20274913017925841 0 0.22861204580531341 0.21103584866064229 0 0.21648177800647031 0.2152993786927814 0 0.22861204580531341 0.21103584866064229 0 0.22962867875802381 0.22582500169057099 0 0.22962867875802381 0.22582500169057099 0 0.23895152697159699 0.23124297494046939 0 0.23308743509231389 0.24292412826028709 0 0.21137842487152761 0.22710094096167949 0 0.21648177800647031 0.2152993786927814 0 0.22962867875802381 0.22582500169057099 0 0.21137842487152761 0.22710094096167949 0 0.22962867875802381 0.22582500169057099 0 0.23308743509231389 0.24292412826028709 0 0.24379451425300089 0.21789940802104771 0 0.24929547978304939 0.2383233617899719 0 0.25417444182490823 0.22520000528801451 0 0.24379451425300089 0.21789940802104771 0 0.23895152697159699 0.23124297494046939 0 0.24929547978304939 0.2383233617899719 0 0.24379451425300089 0.21789940802104771 0 0.24929547978304939 0.2383233617899719 0 0.24379451425300089 0.21789940802104771 0 0.22962867875802381 0.22582500169057099 0 0.23895152697159699 0.23124297494046939 0 0.24379451425300089 0.21789940802104771 0 0.25417444182490823 0.22520000528801451 0 0.2509697907780245 0.2154724319508407 0 0.23895152697159699 0.23124297494046939 0 0.24929547978304939 0.2383233617899719 0 0.23308743509231389 0.24292412826028709 0 0.24929547978304939 0.2383233617899719 0 0.23308743509231389 0.24292412826028709 0 0.25479644531309942 0.25874731555889569 0 0.21333945866335119 0.23972475408501909 0 0.21137842487152761 0.22710094096167949 0 0.23308743509231389 0.24292412826028709 0 0.21137842487152761 0.22710094096167949 0 0.23308743509231389 0.24292412826028709 0 0.21333945866335119 0.23972475408501909 0 0.23308743509231389 0.24292412826028709 0 0.21908793363626539 0.25099558894759982 0 0.20712103688461389 0.14388188021874121 0 0.20452236423473599 0.15294622757781839 0 0.21349291783086211 0.15629414377969331 0 0.20712103688461389 0.14388188021874121 0 0.21349291783086211 0.15629414377969331 0 0.22177695637273631 0.1445272735051259 0 0.213748375161457 0.1319407166572705 0 0.20206279758515169 0.13177972623036999 0 0.20551205288289581 0.1127195185995697 0 0.20712103688461389 0.14388188021874121 0 0.213748375161457 0.1319407166572705 0 0.22177695637273631 0.1445272735051259 0 0.20712103688461389 0.14388188021874121 0 0.213748375161457 0.1319407166572705 0 0.20206279758515169 0.13177972623036999 0 0.20206279758515169 0.13177972623036999 0 0.19590237236674729 0.1480632731543772 0 0.1869859523989576 0.1237196037583949 0 0.19590237236674729 0.1480632731543772 0 0.1869859523989576 0.1237196037583949 0 0.18003464701829189 0.14122639493415279 0 0.19590237236674729 0.1480632731543772 0 0.1869859523989576 0.1237196037583949 0 0.20712103688461389 0.14388188021874121 0 0.20206279758515169 0.13177972623036999 0 0.19590237236674729 0.1480632731543772 0 0.20712103688461389 0.14388188021874121 0 0.20452236423473599 0.15294622757781839 0 0.19590237236674729 0.1480632731543772 0 0.20712103688461389 0.14388188021874121 0 0.19590237236674729 0.1480632731543772 0 0.19590237236674729 0.1480632731543772 0 0.2015731298567208 0.16354561315846189 0 0.20452236423473599 0.15294622757781839 0 0.19590237236674729 0.1480632731543772 0 0.2015731298567208 0.16354561315846189 0 0.1850721076939828 0.1766764296230772 0 0.1880998796917947 0.16151451338078149 0 0.2015731298567208 0.16354561315846189 0 0.19590237236674729 0.1480632731543772 0 0.1880998796917947 0.16151451338078149 0 0.2015731298567208 0.16354561315846189 0 0.1850721076939828 0.1766764296230772 0 0.1975995415010259 0.19357062919756801 0 0.20724388734669069 0.17902795316254791 0 0.1850721076939828 0.1766764296230772 0 0.2015731298567208 0.16354561315846189 0 0.20724388734669069 0.17902795316254791 0 0.2135677911027295 0.18879453277570871 0 0.20724388734669069 0.17902795316254791 0 0.21900273081899699 0.17154982698330359 0 0.1975995415010259 0.19357062919756801 0 0.2135677911027295 0.18879453277570871 0 0.20724388734669069 0.17902795316254791 0 0.2015731298567208 0.16354561315846189 0 0.20724388734669069 0.17902795316254791 0 0.21900273081899699 0.17154982698330359 0 0.2015731298567208 0.16354561315846189 0 0.21349291783086211 0.15629414377969331 0 0.21900273081899699 0.17154982698330359 0 0.20452236423473599 0.15294622757781839 0 0.2015731298567208 0.16354561315846189 0 0.21349291783086211 0.15629414377969331 0 0.2015731298567208 0.16354561315846189 0 0.20724388734669069 0.17902795316254791 0 0.21349291783086211 0.15629414377969331 0 0.2265200856968794 0.1583149967680812 0 0.21900273081899699 0.17154982698330359 0 0.2265200856968794 0.1583149967680812 0 0.21900273081899699 0.17154982698330359 0 0.2348812429127492 0.17239961992041941 0 0.2265200856968794 0.1583149967680812 0 0.2348812429127492 0.17239961992041941 0 0.2370958938282951 0.1524465588662183 0 0.2135677911027295 0.18879453277570871 0 0.21900273081899699 0.17154982698330359 0 0.22631403747709011 0.18192960454196869 0 0.21900273081899699 0.17154982698330359 0 0.22631403747709011 0.18192960454196869 0 0.2348812429127492 0.17239961992041941 0 0.22631403747709011 0.18192960454196869 0 0.23592116792149451 0.18646134224702671 0 0.2348812429127492 0.17239961992041941 0 0.2479267836454804 0.18853790808704729 0 0.25138800100100789 0.1675571019492901 0 0.2479267836454804 0.18853790808704729 0 0.23592116792149451 0.18646134224702671 0 0.2348812429127492 0.17239961992041941 0 0.2479267836454804 0.18853790808704729 0 0.2348812429127492 0.17239961992041941 0 0.25138800100100789 0.1675571019492901 0 0.2348812429127492 0.17239961992041941 0 0.2370958938282951 0.1524465588662183 0 0.25138800100100789 0.1675571019492901 0 0.2370958938282951 0.1524465588662183 0 0.25484921835653429 0.14657629581153281 0 0.25138800100100789 0.1675571019492901 0 0.2370958938282951 0.1524465588662183 0 0.23018063561971441 0.12964790720555219 0 0.25484921835653429 0.14657629581153281 0 0.2265200856968794 0.1583149967680812 0 0.2370958938282951 0.1524465588662183 0 0.22177695637273631 0.1445272735051259 0 0.2370958938282951 0.1524465588662183 0 0.22177695637273631 0.1445272735051259 0 0.23018063561971441 0.12964790720555219 0 0.21349291783086211 0.15629414377969331 0 0.2265200856968794 0.1583149967680812 0 0.22177695637273631 0.1445272735051259 0 0.213748375161457 0.1319407166572705 0 0.22177695637273631 0.1445272735051259 0 0.23018063561971441 0.12964790720555219 0 0.23018063561971441 0.12964790720555219 0 0.24498662208429181 0.13092789129870561 0 0.23713901404643389 0.1186621138914548 0 0.24498662208429181 0.13092789129870561 0 0.23713901404643389 0.1186621138914548 0 0.25777762031448642 0.12882524828628061 0 0.23018063561971441 0.12964790720555219 0 0.24498662208429181 0.13092789129870561 0 0.25484921835653429 0.14657629581153281 0 0.23018063561971441 0.12964790720555219 0 0.25484921835653429 0.14657629581153281 0 0.24964033317715059 0.1130154559540677 0 0.23713901404643389 0.1186621138914548 0 0.25777762031448642 0.12882524828628061 0 0.24964033317715059 0.1130154559540677 0 0.23713901404643389 0.1186621138914548 0 0.24611891882383971 0.1006270183858942 0 0.23713901404643389 0.1186621138914548 0 0.25777762031448642 0.12882524828628061 0 0.23713901404643389 0.1186621138914548 0 0.24611891882383971 0.1006270183858942 0 0.23046866470915869 0.095389661386913641 0 0.24611891882383971 0.1006270183858942 0 0.23046866470915869 0.095389661386913641 0 0.245688018213612 0.086793125358372858 0 0.23713901404643389 0.1186621138914548 0 0.23046866470915869 0.095389661386913641 0 0.21650040777838109 0.1084989794966295 0 0.23046866470915869 0.095389661386913641 0 0.21650040777838109 0.1084989794966295 0 0.2137478828602177 0.095578024946511575 0 0.23713901404643389 0.1186621138914548 0 0.21650040777838109 0.1084989794966295 0 0.23018063561971441 0.12964790720555219 0 0.22224534712845609 0.1170311206441457 0 0.20551205288289581 0.1127195185995697 0 0.23713901404643389 0.1186621138914548 0 0.22224534712845609 0.1170311206441457 0 0.21650040777838109 0.1084989794966295 0 0.23018063561971441 0.12964790720555219 0 0.23713901404643389 0.1186621138914548 0 0.22224534712845609 0.1170311206441457 0 0.213748375161457 0.1319407166572705 0 0.23018063561971441 0.12964790720555219 0 0.20551205288289581 0.1127195185995697 0 0.22224534712845609 0.1170311206441457 0 0.20551205288289581 0.1127195185995697 0 0.21118388594740151 0.1093518025078702 0 0.23018063561971441 0.12964790720555219 0 0.20551205288289581 0.1127195185995697 0 0.20551205288289581 0.1127195185995697 0 0.21118388594740151 0.1093518025078702 0 0.22224534712845609 0.1170311206441457 0 0.21650040777838109 0.1084989794966295 0 0.21118388594740151 0.1093518025078702 0 0.21650040777838109 0.1084989794966295 0 0.2137478828602177 0.095578024946511575 0 0.1958618015103282 0.098335845101804847 0 0.21650040777838109 0.1084989794966295 0 0.1958618015103282 0.098335845101804847 0 0.2137478828602177 0.095578024946511575 0 0.1958618015103282 0.098335845101804847 0 0.2054123054841249 0.088598685448378511 0 0.21650040777838109 0.1084989794966295 0 0.21118388594740151 0.1093518025078702 0 0.1958618015103282 0.098335845101804847 0 0.20551205288289581 0.1127195185995697 0 0.21118388594740151 0.1093518025078702 0 0.1958618015103282 0.098335845101804847 0 0.20551205288289581 0.1127195185995697 0 0.1958618015103282 0.098335845101804847 0 0.19131175995307481 0.1029748129713821 0 0.20551205288289581 0.1127195185995697 0 0.19131175995307481 0.1029748129713821 0 0.182628221274903 0.11182806330225931 0 0.20551205288289581 0.1127195185995697 0 0.19131175995307481 0.1029748129713821 0 0.1958618015103282 0.098335845101804847 0 0.19328483401984431 0.09706686082075866 0 0.2054123054841249 0.088598685448378511 0 0.1958618015103282 0.098335845101804847 0 0.19131175995307481 0.1029748129713821 0 0.1958618015103282 0.098335845101804847 0 0.19328483401984431 0.09706686082075866 0 0.19131175995307481 0.1029748129713821 0 0.1958618015103282 0.098335845101804847 0 0.19328483401984431 0.09706686082075866 0 0.19328483401984431 0.09706686082075866 0 0.18803964952670299 0.10072938373654571 0 0.19328483401984431 0.09706686082075866 0 0.18803964952670299 0.10072938373654571 0 0.19131175995307481 0.1029748129713821 0 0.18803964952670299 0.10072938373654571 0 0.19131175995307481 0.1029748129713821 0 0.20551205288289581 0.1127195185995697 0 0.182628221274903 0.11182806330225931 0 0.1869859523989576 0.1237196037583949 0 0.20206279758515169 0.13177972623036999 0 0.20551205288289581 0.1127195185995697 0 0.1869859523989576 0.1237196037583949 0 0.20551205288289581 0.1127195185995697 0 0.1869859523989576 0.1237196037583949 0 0.1983447976511086 0.077030807134474508 0 0.19635251568706061 0.065898424142551149 0 0.20650280679796679 0.068109608673056363 0 0.19635251568706061 0.065898424142551149 0 0.20650280679796679 0.068109608673056363 0 0.2030130137595352 0.060285639163796492 0 0.19635251568706061 0.065898424142551149 0 0.1858741983741303 0.061894615702290552 0 0.18647402101605079 0.07279598704852859 0 0.1983447976511086 0.077030807134474508 0 0.19635251568706061 0.065898424142551149 0 0.18647402101605079 0.07279598704852859 0 0.19328483401984431 0.09706686082075866 0 0.18840064917572899 0.085053792795005079 0 0.2054123054841249 0.088598685448378511 0 0.1983447976511086 0.077030807134474508 0 0.18840064917572899 0.085053792795005079 0 0.2054123054841249 0.088598685448378511 0 0.1983447976511086 0.077030807134474508 0 0.18840064917572899 0.085053792795005079 0 0.18647402101605079 0.07279598704852859 0 0.19328483401984431 0.09706686082075866 0 0.2054123054841249 0.088598685448378511 0 0.1958618015103282 0.098335845101804847 0 0.2054123054841249 0.088598685448378511 0 0.1983447976511086 0.077030807134474508 0 0.2054123054841249 0.088598685448378511 0 0.20945953196571979 0.074853419710979738 0 0.2054123054841249 0.088598685448378511 0 0.22244317632261429 0.071234962146838138 0 0.2054123054841249 0.088598685448378511 0 0.20945953196571979 0.074853419710979738 0 0.22244317632261429 0.071234962146838138 0 0.2054123054841249 0.088598685448378511 0 0.22713021576988829 0.073433852979943176 0 0.2054123054841249 0.088598685448378511 0 0.22713021576988829 0.073433852979943176 0 0.22049623481909569 0.08706695329883142 0 0.2137478828602177 0.095578024946511575 0 0.2054123054841249 0.088598685448378511 0 0.22049623481909569 0.08706695329883142 0 0.2054123054841249 0.088598685448378511 0 0.22244317632261429 0.071234962146838138 0 0.22713021576988829 0.073433852979943176 0 0.20945953196571979 0.074853419710979738 0 0.21459457357278461 0.069293035152151267 0 0.22244317632261429 0.071234962146838138 0 0.20945953196571979 0.074853419710979738 0 0.20650280679796679 0.068109608673056363 0 0.21459457357278461 0.069293035152151267 0 0.1983447976511086 0.077030807134474508 0 0.20945953196571979 0.074853419710979738 0 0.20650280679796679 0.068109608673056363 0 0.20650280679796679 0.068109608673056363 0 0.2095542920518528 0.058754048578273647 0 0.21591186866622619 0.062498316448832081 0 0.20650280679796679 0.068109608673056363 0 0.21459457357278461 0.069293035152151267 0 0.21591186866622619 0.062498316448832081 0 0.21459457357278461 0.069293035152151267 0 0.2188376408916432 0.066376259759123826 0 0.22244317632261429 0.071234962146838138 0 0.21459457357278461 0.069293035152151267 0 0.2188376408916432 0.066376259759123826 0 0.21591186866622619 0.062498316448832081 0 0.22244317632261429 0.071234962146838138 0 0.22240094500494759 0.062478725288673848 0 0.22836164230408609 0.057259090095424563 0 0.22244317632261429 0.071234962146838138 0 0.2394740471611039 0.053871238845297917 0 0.22244317632261429 0.071234962146838138 0 0.22713021576988829 0.073433852979943176 0 0.2394740471611039 0.053871238845297917 0 0.2188376408916432 0.066376259759123826 0 0.22240094500494759 0.062478725288673848 0 0.21591186866622619 0.062498316448832081 0 0.2188376408916432 0.066376259759123826 0 0.22244317632261429 0.071234962146838138 0 0.22240094500494759 0.062478725288673848 0 0.22713021576988829 0.073433852979943176 0 0.23271294946509419 0.077617518384936648 0 0.239428424907323 0.072424612357718979 0 0.22713021576988829 0.073433852979943176 0 0.23271294946509419 0.077617518384936648 0 0.22840880933807611 0.08270382320129388 0 0.23046866470915869 0.095389661386913641 0 0.2137478828602177 0.095578024946511575 0 0.22049623481909569 0.08706695329883142 0 0.23046866470915869 0.095389661386913641 0 0.22049623481909569 0.08706695329883142 0 0.22840880933807611 0.08270382320129388 0 0.22713021576988829 0.073433852979943176 0 0.22049623481909569 0.08706695329883142 0 0.22840880933807611 0.08270382320129388 0 0.23271294946509419 0.077617518384936648 0 0.22840880933807611 0.08270382320129388 0 0.23588434784508949 0.081907785000790587 0 0.23046866470915869 0.095389661386913641 0 0.22840880933807611 0.08270382320129388 0 0.23588434784508949 0.081907785000790587 0 0.23046866470915869 0.095389661386913641 0 0.23588434784508949 0.081907785000790587 0 0.245688018213612 0.086793125358372858 0 0.245688018213612 0.086793125358372858 0 0.24510103268691749 0.076001689946383469 0 0.25716355122997991 0.087651813314684204 0 0.23588434784508949 0.081907785000790587 0 0.245688018213612 0.086793125358372858 0 0.24510103268691749 0.076001689946383469 0 0.24611891882383971 0.1006270183858942 0 0.245688018213612 0.086793125358372858 0 0.25716355122997991 0.087651813314684204 0 0.22713021576988829 0.073433852979943176 0 0.239428424907323 0.072424612357718979 0 0.24884812605565171 0.05826902051150757 0 0.22713021576988829 0.073433852979943176 0 0.24884812605565171 0.05826902051150757 0 0.23588434784508949 0.081907785000790587 0 0.239428424907323 0.072424612357718979 0 0.24510103268691749 0.076001689946383469 0 0.23271294946509419 0.077617518384936648 0 0.23588434784508949 0.081907785000790587 0 0.239428424907323 0.072424612357718979 0 0.239428424907323 0.072424612357718979 0 0.24510103268691749 0.076001689946383469 0 0.24800882400270011 0.067846839465396949 0 0.239428424907323 0.072424612357718979 0 0.24800882400270011 0.067846839465396949 0 0.24884812605565171 0.05826902051150757 0 0.22713021576988829 0.073433852979943176 0 0.24884812605565171 0.05826902051150757 0 0.2394740471611039 0.053871238845297917 0 0.24884812605565171 0.05826902051150757 0 0.2394740471611039 0.053871238845297917 0 0.25571699748515131 0.049496503273623808 0 0.2394740471611039 0.053871238845297917 0 0.23858613083145649 0.033828835169312357 0 0.25650491799959352 0.036507515543757703 0 0.2394740471611039 0.053871238845297917 0 0.23858613083145649 0.033828835169312357 0 0.22832001327310161 0.04577342165456328 0 0.2394740471611039 0.053871238845297917 0 0.25650491799959352 0.036507515543757703 0 0.23858613083145649 0.033828835169312357 0 0.2488208660698156 0.024893742846385462 0 0.25650491799959352 0.036507515543757703 0 0.22832001327310161 0.04577342165456328 0 0.2202372500959969 0.026900740978776871 0 0.21726204871869739 0.050306833801823637 0 0.23858613083145649 0.033828835169312357 0 0.22832001327310161 0.04577342165456328 0 0.2202372500959969 0.026900740978776871 0 0.22244317632261429 0.071234962146838138 0 0.2394740471611039 0.053871238845297917 0 0.22836164230408609 0.057259090095424563 0 0.22832001327310161 0.04577342165456328 0 0.22279676396246251 0.056055171789660463 0 0.21726204871869739 0.050306833801823637 0 0.22832001327310161 0.04577342165456328 0 0.22279676396246251 0.056055171789660463 0 0.22836164230408609 0.057259090095424563 0 0.22240094500494759 0.062478725288673848 0 0.22279676396246251 0.056055171789660463 0 0.21591186866622619 0.062498316448832081 0 0.22240094500494759 0.062478725288673848 0 0.22279676396246251 0.056055171789660463 0 0.22836164230408609 0.057259090095424563 0 0.2394740471611039 0.053871238845297917 0 0.22832001327310161 0.04577342165456328 0 0.22836164230408609 0.057259090095424563 0 0.23539277787515489 0.001231637153694301 0 0.24619606834605909 0.0052377862522218566 0 0.24052622350298081 0.017649298995576369 0 0.23539277787515489 0.001231637153694301 0 0.24619606834605909 0.0052377862522218566 0 0.24772306794153229 -0.0049010006205228709 0 0.24619606834605909 0.0052377862522218566 0 0.25539330519756809 0.0004604523674139167 0 0.24772306794153229 -0.0049010006205228709 0 0.24619606834605909 0.0052377862522218566 0 0.24052622350298081 0.017649298995576369 0 0.25392424779940193 0.013803051573067391 0 0.23858613083145649 0.033828835169312357 0 0.24052622350298081 0.017649298995576369 0 0.2488208660698156 0.024893742846385462 0 0.24052622350298081 0.017649298995576369 0 0.2488208660698156 0.024893742846385462 0 0.25392424779940193 0.013803051573067391 0 0.23858613083145649 0.033828835169312357 0 0.24052622350298081 0.017649298995576369 0 0.2202372500959969 0.026900740978776871 0 0.23539277787515489 0.001231637153694301 0 0.2202372500959969 0.026900740978776871 0 0.23539277787515489 0.001231637153694301 0 0.2202372500959969 0.026900740978776871 0 0.21545221830689651 -0.0031844272832586029 0 0.23539277787515489 0.001231637153694301 0 0.24052622350298081 0.017649298995576369 0 0.2202372500959969 0.026900740978776871 0 0.2202372500959969 0.026900740978776871 0 0.19712068339584549 0.017427854422274 0 0.21545221830689651 -0.0031844272832586029 0 0.2202372500959969 0.026900740978776871 0 0.19712068339584549 0.017427854422274 0 0.1971372193597031 0.038555584395646131 0 0.19712068339584549 0.017427854422274 0 0.1971372193597031 0.038555584395646131 0 0.17965795960961761 0.035069856495963711 0 0.19712068339584549 0.017427854422274 0 0.17844363024109161 0.009640382599961363 0 0.19317581678127099 -0.00216777134334645 0 0.19712068339584549 0.017427854422274 0 0.21545221830689651 -0.0031844272832586029 0 0.19317581678127099 -0.00216777134334645 0 0.2050817223168386 0.052569844803859678 0 0.2095542920518528 0.058754048578273647 0 0.21726204871869739 0.050306833801823637 0 0.2050817223168386 0.052569844803859678 0 0.2095542920518528 0.058754048578273647 0 0.2030130137595352 0.060285639163796492 0 0.20650280679796679 0.068109608673056363 0 0.2095542920518528 0.058754048578273647 0 0.2030130137595352 0.060285639163796492 0 0.2095542920518528 0.058754048578273647 0 0.21591186866622619 0.062498316448832081 0 0.21726204871869739 0.050306833801823637 0 0.22279676396246251 0.056055171789660463 0 0.21591186866622619 0.062498316448832081 0 0.21726204871869739 0.050306833801823637 0 0.2202372500959969 0.026900740978776871 0 0.2050817223168386 0.052569844803859678 0 0.1971372193597031 0.038555584395646131 0 0.2202372500959969 0.026900740978776871 0 0.2050817223168386 0.052569844803859678 0 0.2202372500959969 0.026900740978776871 0 0.2050817223168386 0.052569844803859678 0 0.21726204871869739 0.050306833801823637 0 0.1972375985669205 0.05531456908388406 0 0.17965795960961761 0.035069856495963711 0 0.1971372193597031 0.038555584395646131 0 0.1972375985669205 0.05531456908388406 0 0.17965795960961761 0.035069856495963711 0 0.2050817223168386 0.052569844803859678 0 0.1971372193597031 0.038555584395646131 0 0.1972375985669205 0.05531456908388406 0 0.2050817223168386 0.052569844803859678 0 0.1972375985669205 0.05531456908388406 0 0.2030130137595352 0.060285639163796492 0 0.19635251568706061 0.065898424142551149 0 0.1972375985669205 0.05531456908388406 0 0.2030130137595352 0.060285639163796492 0 0.19635251568706061 0.065898424142551149 0 0.1972375985669205 0.05531456908388406 0 0.1858741983741303 0.061894615702290552 0 0.1972375985669205 0.05531456908388406 0 0.1766716913351343 0.053118347966779382 0 0.17965795960961761 0.035069856495963711 0 0.1972375985669205 0.05531456908388406 0 0.1858741983741303 0.061894615702290552 0 0.1766716913351343 0.053118347966779382 0 0.1858741983741303 0.061894615702290552 0 0.1766716913351343 0.053118347966779382 0 0.16973691186386031 0.06715359219985291 0 0.1766716913351343 0.053118347966779382 0 0.17965795960961761 0.035069856495963711 0 0.16670964012300271 0.043499824226836209 0 0.17965795960961761 0.035069856495963711 0 0.16670964012300271 0.043499824226836209 0 0.1588856381250002 0.03032928241865045 0 0.16670964012300271 0.043499824226836209 0 0.1588856381250002 0.03032928241865045 0 0.15206508672997629 0.041003724997575493 0 0.16670964012300271 0.043499824226836209 0 0.1579899935638317 0.055107731263230778 0 0.15206508672997629 0.041003724997575493 0 0.1766716913351343 0.053118347966779382 0 0.1579899935638317 0.055107731263230778 0 0.16973691186386031 0.06715359219985291 0 0.1579899935638317 0.055107731263230778 0 0.14933678298690881 0.063106902897618014 0 0.16973691186386031 0.06715359219985291 0 0.1766716913351343 0.053118347966779382 0 0.16670964012300271 0.043499824226836209 0 0.1579899935638317 0.055107731263230778 0 0.17844363024109161 0.009640382599961363 0 0.1758171007110983 -0.0072782848513643569 0 0.1628119002964023 -3.4503031802248997e-05 0 0.17844363024109161 0.009640382599961363 0 0.1758171007110983 -0.0072782848513643569 0 0.19317581678127099 -0.00216777134334645 0 0.19712068339584549 0.017427854422274 0 0.17965795960961761 0.035069856495963711 0 0.17844363024109161 0.009640382599961363 0 0.17965795960961761 0.035069856495963711 0 0.17844363024109161 0.009640382599961363 0 0.16207832065231481 0.01482514390804352 0 0.17965795960961761 0.035069856495963711 0 0.16207832065231481 0.01482514390804352 0 0.17965795960961761 0.035069856495963711 0 0.1588856381250002 0.03032928241865045 0 0.16207832065231481 0.01482514390804352 0 0.16207832065231481 0.01482514390804352 0 0.1444986816950119 -0.0054195686798767691 0 0.1628119002964023 -3.4503031802248997e-05 0 0.17844363024109161 0.009640382599961363 0 0.16207832065231481 0.01482514390804352 0 0.1628119002964023 -3.4503031802248997e-05 0 0.16207832065231481 0.01482514390804352 0 0.1444986816950119 -0.0054195686798767691 0 0.16207832065231481 0.01482514390804352 0 0.14720220649664481 0.01511066470983327 0 0.1444986816950119 -0.0054195686798767691 0 0.14720220649664481 0.01511066470983327 0 0.1371043771030877 0.004741772287450402 0 0.1444986816950119 -0.0054195686798767691 0 0.14720220649664481 0.01511066470983327 0 0.13779473402229281 0.016742723563806901 0 0.1371043771030877 0.004741772287450402 0 0.1588856381250002 0.03032928241865045 0 0.14720220649664481 0.01511066470983327 0 0.14285148738216119 0.029444634760925129 0 0.14720220649664481 0.01511066470983327 0 0.14285148738216119 0.029444634760925129 0 0.13779473402229281 0.016742723563806901 0 0.1588856381250002 0.03032928241865045 0 0.16207832065231481 0.01482514390804352 0 0.14720220649664481 0.01511066470983327 0 0.14285148738216119 0.029444634760925129 0 0.1313952767383893 0.023930866887826849 0 0.13245367460757801 0.035668624371569493 0 0.1211411023831821 0.019790141388387712 0 0.1313952767383893 0.023930866887826849 0 0.1252687186775906 0.030178848056689331 0 0.1313952767383893 0.023930866887826849 0 0.1252687186775906 0.030178848056689331 0 0.13245367460757801 0.035668624371569493 0 0.1313952767383893 0.023930866887826849 0 0.13779473402229281 0.016742723563806901 0 0.12886194335753109 0.011760229185582571 0 0.1211411023831821 0.019790141388387712 0 0.1313952767383893 0.023930866887826849 0 0.12886194335753109 0.011760229185582571 0 0.14285148738216119 0.029444634760925129 0 0.1313952767383893 0.023930866887826849 0 0.13779473402229281 0.016742723563806901 0 0.13779473402229281 0.016742723563806901 0 0.12886194335753109 0.011760229185582571 0 0.1371043771030877 0.004741772287450402 0 0.12886194335753109 0.011760229185582571 0 0.1371043771030877 0.004741772287450402 0 0.12774018681310881 -0.00055002405430379581 0 0.13773539783806871 0.054919486887478393 0 0.1368392731307452 0.065594010227238722 0 0.14933678298690881 0.063106902897618014 0 0.14571739751084761 0.050050581491749707 0 0.13773539783806871 0.054919486887478393 0 0.14933678298690881 0.063106902897618014 0 0.1579899935638317 0.055107731263230778 0 0.14571739751084761 0.050050581491749707 0 0.14933678298690881 0.063106902897618014 0 0.1579899935638317 0.055107731263230778 0 0.14571739751084761 0.050050581491749707 0 0.15206508672997629 0.041003724997575493 0 0.1588856381250002 0.03032928241865045 0 0.14285148738216119 0.029444634760925129 0 0.15206508672997629 0.041003724997575493 0 0.14285148738216119 0.029444634760925129 0 0.15206508672997629 0.041003724997575493 0 0.14131252684869389 0.039834040395887269 0 0.14571739751084761 0.050050581491749707 0 0.14131252684869389 0.039834040395887269 0 0.13586459709760609 0.046331602508708353 0 0.14571739751084761 0.050050581491749707 0 0.15206508672997629 0.041003724997575493 0 0.14131252684869389 0.039834040395887269 0 0.14131252684869389 0.039834040395887269 0 0.13586459709760609 0.046331602508708353 0 0.13245367460757801 0.035668624371569493 0 0.14285148738216119 0.029444634760925129 0 0.14131252684869389 0.039834040395887269 0 0.13245367460757801 0.035668624371569493 0 0.1232511026531718 0.037397597548952312 0 0.1252687186775906 0.030178848056689331 0 0.13245367460757801 0.035668624371569493 0 0.1232511026531718 0.037397597548952312 0 0.13245367460757801 0.035668624371569493 0 0.12749811000021771 0.044891151010640867 0 0.13586459709760609 0.046331602508708353 0 0.13245367460757801 0.035668624371569493 0 0.12749811000021771 0.044891151010640867 0 0.1178651115546696 0.052573319737666623 0 0.1368392731307452 0.065594010227238722 0 0.1178651115546696 0.052573319737666623 0 0.12983247874270121 0.055145662020453901 0 0.1368392731307452 0.065594010227238722 0 0.1249336348272455 0.049712884967204288 0 0.12749811000021771 0.044891151010640867 0 0.1311728437011678 0.05020015747889716 0 0.13586459709760609 0.046331602508708353 0 0.12749811000021771 0.044891151010640867 0 0.1311728437011678 0.05020015747889716 0 0.1249336348272455 0.049712884967204288 0 0.1311728437011678 0.05020015747889716 0 0.12983247874270121 0.055145662020453901 0 0.14571739751084761 0.050050581491749707 0 0.13586459709760609 0.046331602508708353 0 0.13773539783806871 0.054919486887478393 0 0.13586459709760609 0.046331602508708353 0 0.1311728437011678 0.05020015747889716 0 0.13773539783806871 0.054919486887478393 0 0.1311728437011678 0.05020015747889716 0 0.13773539783806871 0.054919486887478393 0 0.12983247874270121 0.055145662020453901 0 0.13773539783806871 0.054919486887478393 0 0.12983247874270121 0.055145662020453901 0 0.1368392731307452 0.065594010227238722 0 0.1187772725441008 0.060376865824300442 0 0.137295353625461 0.0694957832705555 0 0.1187772725441008 0.060376865824300442 0 0.1292113830156463 0.072164121783763885 0 0.137295353625461 0.0694957832705555 0 0.1187772725441008 0.060376865824300442 0 0.137295353625461 0.0694957832705555 0 0.1368392731307452 0.065594010227238722 0 0.1227522073855048 0.072534643688884251 0 0.12736964571532741 0.076354341111398549 0 0.1292113830156463 0.072164121783763885 0 0.1292113830156463 0.072164121783763885 0 0.13583300542364679 0.074849504171219619 0 0.13279934290547621 0.079523089175904491 0 0.12736964571532741 0.076354341111398549 0 0.1292113830156463 0.072164121783763885 0 0.13279934290547621 0.079523089175904491 0 0.13583300542364679 0.074849504171219619 0 0.14424961222167659 0.078735637355741295 0 0.13279934290547621 0.079523089175904491 0 0.1292113830156463 0.072164121783763885 0 0.13583300542364679 0.074849504171219619 0 0.137295353625461 0.0694957832705555 0 0.13583300542364679 0.074849504171219619 0 0.137295353625461 0.0694957832705555 0 0.14424961222167659 0.078735637355741295 0 0.1368392731307452 0.065594010227238722 0 0.1558134347068211 0.078614700716810718 0 0.137295353625461 0.0694957832705555 0 0.1558134347068211 0.078614700716810718 0 0.1368392731307452 0.065594010227238722 0 0.14933678298690881 0.063106902897618014 0 0.1558134347068211 0.078614700716810718 0 0.137295353625461 0.0694957832705555 0 0.1558134347068211 0.078614700716810718 0 0.14424961222167659 0.078735637355741295 0 0.137295353625461 0.0694957832705555 0 0.1368392731307452 0.065594010227238722 0 0.1558134347068211 0.078614700716810718 0 0.1519042238715527 0.09174881124031771 0 0.13593479038082859 0.088701784030852632 0 0.14051226614354009 0.098818012409359127 0 0.1519042238715527 0.09174881124031771 0 0.14424961222167659 0.078735637355741295 0 0.13593479038082859 0.088701784030852632 0 0.1519042238715527 0.09174881124031771 0 0.1558134347068211 0.078614700716810718 0 0.14424961222167659 0.078735637355741295 0 0.13593479038082859 0.088701784030852632 0 0.1298811206398727 0.084760773663368455 0 0.13279934290547621 0.079523089175904491 0 0.14424961222167659 0.078735637355741295 0 0.13593479038082859 0.088701784030852632 0 0.13279934290547621 0.079523089175904491 0 0.12471564955468201 0.081195509797041612 0 0.12736964571532741 0.076354341111398549 0 0.13279934290547621 0.079523089175904491 0 0.12471564955468201 0.081195509797041612 0 0.1298811206398727 0.084760773663368455 0 0.13279934290547621 0.079523089175904491 0 0.12471564955468201 0.081195509797041612 0 0.1298811206398727 0.084760773663368455 0 0.12607469971850391 0.089622711649675113 0 0.13593479038082859 0.088701784030852632 0 0.1298811206398727 0.084760773663368455 0 0.12607469971850391 0.089622711649675113 0 0.13593479038082859 0.088701784030852632 0 0.12607469971850391 0.089622711649675113 0 0.13241779042919721 0.095615906451828075 0 0.1214707721692264 0.1026479329041762 0 0.12559798341448161 0.097258343255633206 0 0.1305312174153381 0.1029163260651112 0 0.12607469971850391 0.089622711649675113 0 0.12559798341448161 0.097258343255633206 0 0.13241779042919721 0.095615906451828075 0 0.12559798341448161 0.097258343255633206 0 0.13241779042919721 0.095615906451828075 0 0.1305312174153381 0.1029163260651112 0 0.12729066611458559 0.1091688786199347 0 0.1305312174153381 0.1029163260651112 0 0.13622660303017009 0.1093129175564735 0 0.1214707721692264 0.1026479329041762 0 0.12729066611458559 0.1091688786199347 0 0.1305312174153381 0.1029163260651112 0 0.1305312174153381 0.1029163260651112 0 0.13622660303017009 0.1093129175564735 0 0.14051226614354009 0.098818012409359127 0 0.13241779042919721 0.095615906451828075 0 0.1305312174153381 0.1029163260651112 0 0.14051226614354009 0.098818012409359127 0 0.13593479038082859 0.088701784030852632 0 0.13241779042919721 0.095615906451828075 0 0.14051226614354009 0.098818012409359127 0 0.11939905509296191 0.11297485902071561 0 0.12905527488174429 0.12836845256237209 0 0.13016442658528379 0.1167730631691601 0 0.12905527488174429 0.12836845256237209 0 0.13016442658528379 0.1167730631691601 0 0.13872775740638019 0.12155726019191861 0 0.12729066611458559 0.1091688786199347 0 0.13622660303017009 0.1093129175564735 0 0.13016442658528379 0.1167730631691601 0 0.11939905509296191 0.11297485902071561 0 0.12729066611458559 0.1091688786199347 0 0.13016442658528379 0.1167730631691601 0 0.13622660303017009 0.1093129175564735 0 0.13016442658528379 0.1167730631691601 0 0.13872775740638019 0.12155726019191861 0 0.1496879439767958 0.13013929788962339 0 0.14997965973526489 0.11793355080103909 0 0.1664666864147436 0.1157930048278925 0 0.14997965973526489 0.11793355080103909 0 0.15047515192981281 0.1061229173187295 0 0.1664666864147436 0.1157930048278925 0 0.1496879439767958 0.13013929788962339 0 0.13872775740638019 0.12155726019191861 0 0.14997965973526489 0.11793355080103909 0 0.13622660303017009 0.1093129175564735 0 0.13872775740638019 0.12155726019191861 0 0.15047515192981281 0.1061229173187295 0 0.13872775740638019 0.12155726019191861 0 0.15047515192981281 0.1061229173187295 0 0.13872775740638019 0.12155726019191861 0 0.14997965973526489 0.11793355080103909 0 0.15047515192981281 0.1061229173187295 0 0.1519042238715527 0.09174881124031771 0 0.14051226614354009 0.098818012409359127 0 0.15047515192981281 0.1061229173187295 0 0.13622660303017009 0.1093129175564735 0 0.14051226614354009 0.098818012409359127 0 0.15047515192981281 0.1061229173187295 0 0.1519042238715527 0.09174881124031771 0 0.15047515192981281 0.1061229173187295 0 0.16336539078436091 0.10085251634723991 0 0.1519042238715527 0.09174881124031771 0 0.16336539078436091 0.10085251634723991 0 0.17192654211676189 0.089672042226678295 0 0.15047515192981281 0.1061229173187295 0 0.16336539078436091 0.10085251634723991 0 0.1664666864147436 0.1157930048278925 0 0.16336539078436091 0.10085251634723991 0 0.1664666864147436 0.1157930048278925 0 0.17244956721064231 0.10176173678458909 0 0.16336539078436091 0.10085251634723991 0 0.17244956721064231 0.10176173678458909 0 0.17192654211676189 0.089672042226678295 0 0.16739835445773441 0.13534996523662901 0 0.1664666864147436 0.1157930048278925 0 0.17628586543944791 0.12089648966018229 0 0.1664666864147436 0.1157930048278925 0 0.17628586543944791 0.12089648966018229 0 0.182628221274903 0.11182806330225931 0 0.1664666864147436 0.1157930048278925 0 0.182628221274903 0.11182806330225931 0 0.18091534144246749 0.10714558114728311 0 0.182628221274903 0.11182806330225931 0 0.18091534144246749 0.10714558114728311 0 0.182628221274903 0.11182806330225931 0 0.1869859523989576 0.1237196037583949 0 0.17628586543944791 0.12089648966018229 0 0.182628221274903 0.11182806330225931 0 0.1869859523989576 0.1237196037583949 0 0.18803964952670299 0.10072938373654571 0 0.1664666864147436 0.1157930048278925 0 0.17244956721064231 0.10176173678458909 0 0.18803964952670299 0.10072938373654571 0 0.1664666864147436 0.1157930048278925 0 0.18091534144246749 0.10714558114728311 0 0.18803964952670299 0.10072938373654571 0 0.1664666864147436 0.1157930048278925 0 0.18803964952670299 0.10072938373654571 0 0.17192654211676189 0.089672042226678295 0 0.18803964952670299 0.10072938373654571 0 0.17244956721064231 0.10176173678458909 0 0.17192654211676189 0.089672042226678295 0 0.19328483401984431 0.09706686082075866 0 0.18803964952670299 0.10072938373654571 0 0.17454913436333311 0.087840780768783877 0 0.19131175995307481 0.1029748129713821 0 0.182628221274903 0.11182806330225931 0 0.18091534144246749 0.10714558114728311 0 0.19131175995307481 0.1029748129713821 0 0.182628221274903 0.11182806330225931 0 0.18803964952670299 0.10072938373654571 0 0.19131175995307481 0.1029748129713821 0 0.18091534144246749 0.10714558114728311 0 0.19328483401984431 0.09706686082075866 0 0.18840064917572899 0.085053792795005079 0 0.17454913436333311 0.087840780768783877 0 0.18803964952670299 0.10072938373654571 0 0.17454913436333311 0.087840780768783877 0 0.17192654211676189 0.089672042226678295 0 0.19328483401984431 0.09706686082075866 0 0.17454913436333311 0.087840780768783877 0 0.18840064917572899 0.085053792795005079 0 0.17454913436333311 0.087840780768783877 0 0.18647402101605079 0.07279598704852859 0 0.1858741983741303 0.061894615702290552 0 0.18647402101605079 0.07279598704852859 0 0.16973691186386031 0.06715359219985291 0 0.17454913436333311 0.087840780768783877 0 0.18647402101605079 0.07279598704852859 0 0.16973691186386031 0.06715359219985291 0 0.1558134347068211 0.078614700716810718 0 0.17454913436333311 0.087840780768783877 0 0.16973691186386031 0.06715359219985291 0 0.14933678298690881 0.063106902897618014 0 0.1558134347068211 0.078614700716810718 0 0.16973691186386031 0.06715359219985291 0 0.1558134347068211 0.078614700716810718 0 0.17192654211676189 0.089672042226678295 0 0.1558134347068211 0.078614700716810718 0 0.17454913436333311 0.087840780768783877 0 0.17192654211676189 0.089672042226678295 0 0.1519042238715527 0.09174881124031771 0 0.1558134347068211 0.078614700716810718 0 0.17192654211676189 0.089672042226678295 0 0.1558134347068211 0.078614700716810718 0 0.17454913436333311 0.087840780768783877 0 0.1000204990790293 0.47297903442103528 0 0.10787715624526049 0.48614886891161091 0 0.087890585650676756 0.48494735923216359 0 0.1000204990790293 0.47297903442103528 0 0.10787715624526049 0.48614886891161091 0 0.1137987313515208 0.47165275192106171 0 0.1000204990790293 0.47297903442103528 0 0.1137987313515208 0.47165275192106171 0 0.1059620722627324 0.46661102765075801 0 0.094544067908578722 0.5 0 0.10787715624526049 0.48614886891161091 0 0.087890585650676756 0.48494735923216359 0 0.094544067908578722 0.5 0 0.10787715624526049 0.48614886891161091 0 0.12425562568194699 0.5 0 0.10787715624526049 0.48614886891161091 0 0.12425562568194699 0.5 0 0.1247454383765309 0.48038151532629431 0 0.10787715624526049 0.48614886891161091 0 0.1247454383765309 0.48038151532629431 0 0.1137987313515208 0.47165275192106171 0 0.1247454383765309 0.48038151532629431 0 0.1137987313515208 0.47165275192106171 0 0.1244793495774149 0.46790780246490787 0 0.1137987313515208 0.47165275192106171 0 0.1244793495774149 0.46790780246490787 0 0.1169581240949371 0.46504027529536179 0 0.1244793495774149 0.46790780246490787 0 0.1188393315310767 0.45788284987688449 0 0.1169581240949371 0.46504027529536179 0 0.1188393315310767 0.45788284987688449 0 0.1107150839197359 0.46271769691859338 0 0.1040598748420066 0.45724135513795139 0 0.11734260389519061 0.45316918705236492 0 0.1188393315310767 0.45788284987688449 0 0.11311755974765381 0.45077880204627419 0 0.1137987313515208 0.47165275192106171 0 0.1107150839197359 0.46271769691859338 0 0.1059620722627324 0.46661102765075801 0 0.1188393315310767 0.45788284987688449 0 0.1169581240949371 0.46504027529536179 0 0.1107150839197359 0.46271769691859338 0 0.1137987313515208 0.47165275192106171 0 0.1169581240949371 0.46504027529536179 0 0.1107150839197359 0.46271769691859338 0 0.1215896831021416 0.44003275686815041 0 0.115003558443311 0.4398066694311874 0 0.1169355762349719 0.43458167676297699 0 0.1215896831021416 0.44003275686815041 0 0.1182610614657169 0.44725371706141898 0 0.124398542981994 0.44624595502973408 0 0.1215896831021416 0.44003275686815041 0 0.1182610614657169 0.44725371706141898 0 0.115003558443311 0.4398066694311874 0 0.11734260389519061 0.45316918705236492 0 0.1229810651405317 0.44933989502595689 0 0.13192205221922509 0.45069072096030999 0 0.1182610614657169 0.44725371706141898 0 0.124398542981994 0.44624595502973408 0 0.1229810651405317 0.44933989502595689 0 0.11734260389519061 0.45316918705236492 0 0.1182610614657169 0.44725371706141898 0 0.1229810651405317 0.44933989502595689 0 0.1188393315310767 0.45788284987688449 0 0.11311755974765381 0.45077880204627419 0 0.1054623284405021 0.4502934327460052 0 0.11734260389519061 0.45316918705236492 0 0.11311755974765381 0.45077880204627419 0 0.11540165871743591 0.44920167512317621 0 0.11734260389519061 0.45316918705236492 0 0.1182610614657169 0.44725371706141898 0 0.11540165871743591 0.44920167512317621 0 0.1128854097611819 0.44560499433264622 0 0.1094351401394197 0.44780220736788617 0 0.106275262608341 0.44453160034661943 0 0.11311755974765381 0.45077880204627419 0 0.1128854097611819 0.44560499433264622 0 0.1094351401394197 0.44780220736788617 0 0.11311755974765381 0.45077880204627419 0 0.1128854097611819 0.44560499433264622 0 0.11540165871743591 0.44920167512317621 0 0.1182610614657169 0.44725371706141898 0 0.1128854097611819 0.44560499433264622 0 0.11540165871743591 0.44920167512317621 0 0.1182610614657169 0.44725371706141898 0 0.1128854097611819 0.44560499433264622 0 0.115003558443311 0.4398066694311874 0 0.1128854097611819 0.44560499433264622 0 0.115003558443311 0.4398066694311874 0 0.10797019063001689 0.43833009145068891 0 0.1188393315310767 0.45788284987688449 0 0.093427310834596738 0.44815585024809618 0 0.1188393315310767 0.45788284987688449 0 0.095225383150010223 0.44964972956440608 0 0.093427310834596738 0.44815585024809618 0 0.1188393315310767 0.45788284987688449 0 0.1054623284405021 0.4502934327460052 0 0.093427310834596738 0.44815585024809618 0 0.1023919810617348 0.44110790114161391 0 0.10797019063001689 0.43833009145068891 0 0.1019772645452907 0.43670697337268699 0 0.1023919810617348 0.44110790114161391 0 0.10797019063001689 0.43833009145068891 0 0.106275262608341 0.44453160034661943 0 0.1128854097611819 0.44560499433264622 0 0.10797019063001689 0.43833009145068891 0 0.106275262608341 0.44453160034661943 0 0.1023919810617348 0.44110790114161391 0 0.106275262608341 0.44453160034661943 0 0.10069753704367621 0.44473378765057281 0 0.1054623284405021 0.4502934327460052 0 0.098954643838429612 0.44693099401029712 0 0.10069753704367621 0.44473378765057281 0 0.106275262608341 0.44453160034661943 0 0.1054623284405021 0.4502934327460052 0 0.10069753704367621 0.44473378765057281 0 0.1094351401394197 0.44780220736788617 0 0.106275262608341 0.44453160034661943 0 0.1054623284405021 0.4502934327460052 0 0.11311755974765381 0.45077880204627419 0 0.1094351401394197 0.44780220736788617 0 0.1054623284405021 0.4502934327460052 0 0.1054623284405021 0.4502934327460052 0 0.098954643838429612 0.44693099401029712 0 0.093427310834596738 0.44815585024809618 0 0.095225383150010223 0.44964972956440608 0 0.097453640245557027 0.45418311814720019 0 0.093412634319160984 0.45423987961036599 0 0.095225383150010223 0.44964972956440608 0 0.093412634319160984 0.45423987961036599 0 0.093427310834596738 0.44815585024809618 0 0.098954643838429612 0.44693099401029712 0 0.096231399034943696 0.44454090539651342 0 0.093427310834596738 0.44815585024809618 0 0.095225383150010223 0.44964972956440608 0 0.093427310834596738 0.44815585024809618 0 0.098954643838429612 0.44693099401029712 0 0.10069753704367621 0.44473378765057281 0 0.096231399034943696 0.44454090539651342 0 0.1023919810617348 0.44110790114161391 0 0.10069753704367621 0.44473378765057281 0 0.097532901074088463 0.44006822578532079 0 0.10069753704367621 0.44473378765057281 0 0.096231399034943696 0.44454090539651342 0 0.097532901074088463 0.44006822578532079 0 0.096231399034943696 0.44454090539651342 0 0.097532901074088463 0.44006822578532079 0 0.09232751801454453 0.44168656349252328 0 0.096231399034943696 0.44454090539651342 0 0.09232751801454453 0.44168656349252328 0 0.093427310834596738 0.44815585024809618 0 0.097532901074088463 0.44006822578532079 0 0.093784346383674277 0.43799504840259912 0 0.09232751801454453 0.44168656349252328 0 0.1023919810617348 0.44110790114161391 0 0.097532901074088463 0.44006822578532079 0 0.1019772645452907 0.43670697337268699 0 0.1188393315310767 0.45788284987688449 0 0.095225383150010223 0.44964972956440608 0 0.1040598748420066 0.45724135513795139 0 0.1000204990790293 0.47297903442103528 0 0.1059620722627324 0.46661102765075801 0 0.1002371865032279 0.46430184604713071 0 0.1059620722627324 0.46661102765075801 0 0.1037792572664622 0.46086723176109268 0 0.1002371865032279 0.46430184604713071 0 0.1107150839197359 0.46271769691859338 0 0.1059620722627324 0.46661102765075801 0 0.1037792572664622 0.46086723176109268 0 0.1107150839197359 0.46271769691859338 0 0.1037792572664622 0.46086723176109268 0 0.1040598748420066 0.45724135513795139 0 0.1037792572664622 0.46086723176109268 0 0.1040598748420066 0.45724135513795139 0 0.098346552939197723 0.45814750455953179 0 0.095225383150010223 0.44964972956440608 0 0.1040598748420066 0.45724135513795139 0 0.097453640245557027 0.45418311814720019 0 0.098346552939197723 0.45814750455953179 0 0.092447749371874902 0.46263614325079749 0 0.093412634319160984 0.45423987961036599 0 0.1040598748420066 0.45724135513795139 0 0.098346552939197723 0.45814750455953179 0 0.097453640245557027 0.45418311814720019 0 0.098346552939197723 0.45814750455953179 0 0.097453640245557027 0.45418311814720019 0 0.093412634319160984 0.45423987961036599 0 0.1000204990790293 0.47297903442103528 0 0.1002371865032279 0.46430184604713071 0 0.092447749371874902 0.46263614325079749 0 0.098346552939197723 0.45814750455953179 0 0.1002371865032279 0.46430184604713071 0 0.092447749371874902 0.46263614325079749 0 0.1037792572664622 0.46086723176109268 0 0.098346552939197723 0.45814750455953179 0 0.1002371865032279 0.46430184604713071 0 0.092447749371874902 0.46263614325079749 0 0.079585651239777178 0.46136273043044529 0 0.086000973410962578 0.4728003299553718 0 0.079585651239777178 0.46136273043044529 0 0.085102995354537581 0.44496953875592787 0 0.092447749371874902 0.46263614325079749 0 0.093412634319160984 0.45423987961036599 0 0.088535306045144938 0.45693332046401858 0 0.092447749371874902 0.46263614325079749 0 0.088535306045144938 0.45693332046401858 0 0.079585651239777178 0.46136273043044529 0 0.093412634319160984 0.45423987961036599 0 0.088535306045144938 0.45693332046401858 0 0.088124377225142908 0.45137272920285071 0 0.088535306045144938 0.45693332046401858 0 0.079585651239777178 0.46136273043044529 0 0.088124377225142908 0.45137272920285071 0 0.079585651239777178 0.46136273043044529 0 0.088124377225142908 0.45137272920285071 0 0.085102995354537581 0.44496953875592787 0 0.079585651239777178 0.46136273043044529 0 0.085102995354537581 0.44496953875592787 0 0.081438590948279765 0.44356690884604771 0 0.086083975397657025 0.44205484038995951 0 0.093427310834596738 0.44815585024809618 0 0.085102995354537581 0.44496953875592787 0 0.09232751801454453 0.44168656349252328 0 0.086083975397657025 0.44205484038995951 0 0.087908632645246315 0.43663339931651918 0 0.084262078305937127 0.44054116690840261 0 0.087908632645246315 0.43663339931651918 0 0.086083975397657025 0.44205484038995951 0 0.084262078305937127 0.44054116690840261 0 0.087908632645246315 0.43663339931651918 0 0.086083975397657025 0.44205484038995951 0 0.087908632645246315 0.43663339931651918 0 0.093784346383674277 0.43799504840259912 0 0.09232751801454453 0.44168656349252328 0 0.087908632645246315 0.43663339931651918 0 0.09232751801454453 0.44168656349252328 0 0.086083975397657025 0.44205484038995951 0 0.093427310834596738 0.44815585024809618 0 0.086083975397657025 0.44205484038995951 0 0.093427310834596738 0.44815585024809618 0 0.093427310834596738 0.44815585024809618 0 0.085102995354537581 0.44496953875592787 0 0.093427310834596738 0.44815585024809618 0 0.088124377225142908 0.45137272920285071 0 0.085102995354537581 0.44496953875592787 0 0.093412634319160984 0.45423987961036599 0 0.093427310834596738 0.44815585024809618 0 0.088124377225142908 0.45137272920285071 0 0.086083975397657025 0.44205484038995951 0 0.085102995354537581 0.44496953875592787 0 0.086083975397657025 0.44205484038995951 0 0.083827299417038162 0.44291775647533821 0 0.084262078305937127 0.44054116690840261 0 0.086083975397657025 0.44205484038995951 0 0.085102995354537581 0.44496953875592787 0 0.083827299417038162 0.44291775647533821 0 0.083827299417038162 0.44291775647533821 0 0.081438590948279765 0.44356690884604771 0 0.084262078305937127 0.44054116690840261 0 0.081438590948279765 0.44356690884604771 0 0.084262078305937127 0.44054116690840261 0 0.085102995354537581 0.44496953875592787 0 0.081438590948279765 0.44356690884604771 0 0.085102995354537581 0.44496953875592787 0 0.083827299417038162 0.44291775647533821 0 0.081438590948279765 0.44356690884604771 0 0.086083975397657025 0.44205484038995951 0 0.084262078305937127 0.44054116690840261 0 0.081438590948279765 0.44356690884604771 0 0.070158486495084216 0.44681540620014842 0 0.064560852256419804 0.46165364886069132 0 0.081438590948279765 0.44356690884604771 0 0.064560852256419804 0.46165364886069132 0 0.081438590948279765 0.44356690884604771 0 0.084262078305937127 0.44054116690840261 0 0.066481746186583479 0.43784185355892452 0 0.081438590948279765 0.44356690884604771 0 0.070158486495084216 0.44681540620014842 0 0.066481746186583479 0.43784185355892452 0 0.081438590948279765 0.44356690884604771 0 0.066481746186583479 0.43784185355892452 0 0.06429823923863183 0.44815569540604322 0 0.070158486495084216 0.44681540620014842 0 0.064560852256419804 0.46165364886069132 0 0.06429823923863183 0.44815569540604322 0 0.070158486495084216 0.44681540620014842 0 0.066481746186583479 0.43784185355892452 0 0.079585651239777178 0.46136273043044529 0 0.064560852256419804 0.46165364886069132 0 0.074068307125019009 0.47775592210496343 0 0.079585651239777178 0.46136273043044529 0 0.081438590948279765 0.44356690884604771 0 0.064560852256419804 0.46165364886069132 0 0.079585651239777178 0.46136273043044529 0 0.074068307125019009 0.47775592210496343 0 0.079585651239777178 0.46136273043044529 0 0.074068307125019009 0.47775592210496343 0 0.086000973410962578 0.4728003299553718 0 0.074068307125019009 0.47775592210496343 0 0.086000973410962578 0.4728003299553718 0 0.087890585650676756 0.48494735923216359 0 0.1000204990790293 0.47297903442103528 0 0.086000973410962578 0.4728003299553718 0 0.087890585650676756 0.48494735923216359 0 0.1000204990790293 0.47297903442103528 0 0.092447749371874902 0.46263614325079749 0 0.086000973410962578 0.4728003299553718 0 0.094544067908578722 0.5 0 0.087890585650676756 0.48494735923216359 0 0.064832510135210464 0.5 0 0.074068307125019009 0.47775592210496343 0 0.087890585650676756 0.48494735923216359 0 0.064832510135210464 0.5 0 0.074068307125019009 0.47775592210496343 0 0.064832510135210464 0.5 0 0.047683113564559627 0.47974038887533482 0 0.064832510135210464 0.5 0 0.047683113564559627 0.47974038887533482 0 0.03512095236184215 0.5 0 0.064560852256419804 0.46165364886069132 0 0.047683113564559627 0.47974038887533482 0 0.064560852256419804 0.46165364886069132 0 0.047683113564559627 0.47974038887533482 0 0.039971214405510463 0.46504189993134037 0 0.064560852256419804 0.46165364886069132 0 0.074068307125019009 0.47775592210496343 0 0.047683113564559627 0.47974038887533482 0 0.047683113564559627 0.47974038887533482 0 0.028444472149987191 0.48269433793135608 0 0.039971214405510463 0.46504189993134037 0 0.047683113564559627 0.47974038887533482 0 0.03512095236184215 0.5 0 0.028444472149987191 0.48269433793135608 0 0.03512095236184215 0.5 0 0.028444472149987191 0.48269433793135608 0 0.0054093945884738934 0.5 0 0.028444472149987191 0.48269433793135608 0 0.0139150333246201 0.47033054934536722 0 0.039971214405510463 0.46504189993134037 0 0.028444472149987191 0.48269433793135608 0 0.0139150333246201 0.47033054934536722 0 0.0054093945884738934 0.5 0 -0.0099657085561305949 0.47544558769919709 0 0.0139150333246201 0.47033054934536722 0 0.0054093945884738934 0.5 0 -0.002103054149575386 0.44647914075093459 0 0.013058592833606931 0.44835758938062092 0 0.008530064187811371 0.43273079107797152 0 -0.002103054149575386 0.44647914075093459 0 0.013058592833606931 0.44835758938062092 0 0.00019032937963638021 0.4599463752571149 0 0.0139150333246201 0.47033054934536722 0 0.013058592833606931 0.44835758938062092 0 0.00019032937963638021 0.4599463752571149 0 -0.0099657085561305949 0.47544558769919709 0 0.0139150333246201 0.47033054934536722 0 0.00019032937963638021 0.4599463752571149 0 0.0139150333246201 0.47033054934536722 0 0.031579690212584922 0.44786837464906992 0 0.039971214405510463 0.46504189993134037 0 0.0139150333246201 0.47033054934536722 0 0.013058592833606931 0.44835758938062092 0 0.031579690212584922 0.44786837464906992 0 0.013058592833606931 0.44835758938062092 0 0.031579690212584922 0.44786837464906992 0 0.02726874137235917 0.42853022904652027 0 0.031579690212584922 0.44786837464906992 0 0.053582798672426303 0.44878467417385359 0 0.048019563742130858 0.43271106079965188 0 0.031579690212584922 0.44786837464906992 0 0.039971214405510463 0.46504189993134037 0 0.053582798672426303 0.44878467417385359 0 0.064560852256419804 0.46165364886069132 0 0.039971214405510463 0.46504189993134037 0 0.053582798672426303 0.44878467417385359 0 0.066481746186583479 0.43784185355892452 0 0.053582798672426303 0.44878467417385359 0 0.048019563742130858 0.43271106079965188 0 0.06429823923863183 0.44815569540604322 0 0.064560852256419804 0.46165364886069132 0 0.053582798672426303 0.44878467417385359 0 0.06429823923863183 0.44815569540604322 0 0.066481746186583479 0.43784185355892452 0 0.053582798672426303 0.44878467417385359 0 0.066481746186583479 0.43784185355892452 0 0.048019563742130858 0.43271106079965188 0 0.064811971236826124 0.42438157621702149 0 0.048019563742130858 0.43271106079965188 0 0.045361864167713893 0.40822198552564221 0 0.064811971236826124 0.42438157621702149 0 0.045361864167713893 0.40822198552564221 0 0.064811971236826124 0.42438157621702149 0 0.045361864167713893 0.40822198552564221 0 0.062454856307568217 0.4050720662659924 0 0.064811971236826124 0.42438157621702149 0 0.045361864167713893 0.40822198552564221 0 0.02726874137235917 0.42853022904652027 0 0.02671696600870346 0.41087834905296372 0 0.048019563742130858 0.43271106079965188 0 0.045361864167713893 0.40822198552564221 0 0.02726874137235917 0.42853022904652027 0 0.031579690212584922 0.44786837464906992 0 0.048019563742130858 0.43271106079965188 0 0.02726874137235917 0.42853022904652027 0 0.013058592833606931 0.44835758938062092 0 0.02726874137235917 0.42853022904652027 0 0.008530064187811371 0.43273079107797152 0 0.02726874137235917 0.42853022904652027 0 0.014463340680122181 0.41716446838589172 0 0.008530064187811371 0.43273079107797152 0 0.02726874137235917 0.42853022904652027 0 0.02671696600870346 0.41087834905296372 0 0.014463340680122181 0.41716446838589172 0 0.02671696600870346 0.41087834905296372 0 0.014463340680122181 0.41716446838589172 0 0.016845262980488201 0.40443160667458722 0 0.014463340680122181 0.41716446838589172 0 0.0065146757135608191 0.40661753301827669 0 0.016845262980488201 0.40443160667458722 0 -0.0072800668744587137 0.40727001201776891 0 0.0065146757135608191 0.40661753301827669 0 0.00090433381781004777 0.41979830144503072 0 0.014463340680122181 0.41716446838589172 0 0.0065146757135608191 0.40661753301827669 0 0.00090433381781004777 0.41979830144503072 0 -0.0047535049403858321 0.43159789699643453 0 0.00090433381781004777 0.41979830144503072 0 0.008530064187811371 0.43273079107797152 0 -0.0047535049403858321 0.43159789699643453 0 -0.002103054149575386 0.44647914075093459 0 0.008530064187811371 0.43273079107797152 0 0.014463340680122181 0.41716446838589172 0 0.00090433381781004777 0.41979830144503072 0 0.008530064187811371 0.43273079107797152 0 0.0064616500294893166 0.37590280414288318 0 0.009416086504661688 0.39310551342206812 0 0.018101325451428559 0.3855733108362755 0 -0.0014178203071608399 0.38460551199721982 0 0.0064616500294893166 0.37590280414288318 0 0.009416086504661688 0.39310551342206812 0 0.0064616500294893166 0.37590280414288318 0 0.018101325451428559 0.3855733108362755 0 -0.0022908109905751309 0.39614741140520843 0 -0.0014178203071608399 0.38460551199721982 0 0.009416086504661688 0.39310551342206812 0 -0.0022908109905751309 0.39614741140520843 0 0.0065146757135608191 0.40661753301827669 0 0.009416086504661688 0.39310551342206812 0 0.0065146757135608191 0.40661753301827669 0 0.009416086504661688 0.39310551342206812 0 0.016845262980488201 0.40443160667458722 0 0.009416086504661688 0.39310551342206812 0 0.016845262980488201 0.40443160667458722 0 0.025911757098601589 0.39206239483426258 0 0.02671696600870346 0.41087834905296372 0 0.016845262980488201 0.40443160667458722 0 0.025911757098601589 0.39206239483426258 0 0.025911757098601589 0.39206239483426258 0 0.018101325451428559 0.3855733108362755 0 0.032598551153264058 0.37877463054307131 0 0.0064616500294893166 0.37590280414288318 0 0.018101325451428559 0.3855733108362755 0 0.023934459521394329 0.36557679042293201 0 0.009416086504661688 0.39310551342206812 0 0.025911757098601589 0.39206239483426258 0 0.018101325451428559 0.3855733108362755 0 0.018101325451428559 0.3855733108362755 0 0.032598551153264058 0.37877463054307131 0 0.023934459521394329 0.36557679042293201 0 0.018101325451428559 0.3855733108362755 0 0.023934459521394329 0.36557679042293201 0 0.025911757098601589 0.39206239483426258 0 0.018101325451428559 0.3855733108362755 0 0.032598551153264058 0.37877463054307131 0 0.041704415506315783 0.38983149911183168 0 0.048786604973723932 0.37880506360891208 0 0.025911757098601589 0.39206239483426258 0 0.032598551153264058 0.37877463054307131 0 0.041704415506315783 0.38983149911183168 0 0.045361864167713893 0.40822198552564221 0 0.025911757098601589 0.39206239483426258 0 0.041704415506315783 0.38983149911183168 0 0.045361864167713893 0.40822198552564221 0 0.025911757098601589 0.39206239483426258 0 0.045361864167713893 0.40822198552564221 0 0.02671696600870346 0.41087834905296372 0 0.025911757098601589 0.39206239483426258 0 0.045361864167713893 0.40822198552564221 0 0.055863300138275403 0.39129342104727038 0 0.062454856307568217 0.4050720662659924 0 0.045361864167713893 0.40822198552564221 0 0.041704415506315783 0.38983149911183168 0 0.055863300138275403 0.39129342104727038 0 0.055863300138275403 0.39129342104727038 0 0.062454856307568217 0.4050720662659924 0 0.068709734799570168 0.39216837434323382 0 0.055863300138275403 0.39129342104727038 0 0.048786604973723932 0.37880506360891208 0 0.068997367234018114 0.37225415551510083 0 0.041704415506315783 0.38983149911183168 0 0.055863300138275403 0.39129342104727038 0 0.048786604973723932 0.37880506360891208 0 0.055863300138275403 0.39129342104727038 0 0.068709734799570168 0.39216837434323382 0 0.068997367234018114 0.37225415551510083 0 0.079967047691263046 0.39044283095954768 0 0.068709734799570168 0.39216837434323382 0 0.068997367234018114 0.37225415551510083 0 0.091510873130949313 0.38438235332487752 0 0.068997367234018114 0.37225415551510083 0 0.079967047691263046 0.39044283095954768 0 0.091510873130949313 0.38438235332487752 0 0.068997367234018114 0.37225415551510083 0 0.079967047691263046 0.39044283095954768 0 0.091510873130949313 0.38438235332487752 0 0.088616954159254205 0.39874808472555201 0 0.079967047691263046 0.39044283095954768 0 0.088616954159254205 0.39874808472555201 0 0.07626610262672609 0.4017793979282579 0 0.088616954159254205 0.39874808472555201 0 0.07626610262672609 0.4017793979282579 0 0.083530985061082544 0.41107194197249708 0 0.079967047691263046 0.39044283095954768 0 0.07626610262672609 0.4017793979282579 0 0.068709734799570168 0.39216837434323382 0 0.062454856307568217 0.4050720662659924 0 0.07626610262672609 0.4017793979282579 0 0.068709734799570168 0.39216837434323382 0 0.062454856307568217 0.4050720662659924 0 0.073239059789534489 0.41322303629158302 0 0.064811971236826124 0.42438157621702149 0 0.073239059789534489 0.41322303629158302 0 0.064811971236826124 0.42438157621702149 0 0.080071489278373723 0.42375045261801708 0 0.062454856307568217 0.4050720662659924 0 0.07626610262672609 0.4017793979282579 0 0.073239059789534489 0.41322303629158302 0 0.07626610262672609 0.4017793979282579 0 0.073239059789534489 0.41322303629158302 0 0.083530985061082544 0.41107194197249708 0 0.084262078305937127 0.44054116690840261 0 0.066481746186583479 0.43784185355892452 0 0.064811971236826124 0.42438157621702149 0 0.084262078305937127 0.44054116690840261 0 0.064811971236826124 0.42438157621702149 0 0.084262078305937127 0.44054116690840261 0 0.064811971236826124 0.42438157621702149 0 0.080071489278373723 0.42375045261801708 0 0.087908632645246315 0.43663339931651918 0 0.095553939721924608 0.41391758139548862 0 0.084262078305937127 0.44054116690840261 0 0.080071489278373723 0.42375045261801708 0 0.087908632645246315 0.43663339931651918 0 0.087908632645246315 0.43663339931651918 0 0.086766261676657061 0.4213433438256306 0 0.095553939721924608 0.41391758139548862 0 0.080071489278373723 0.42375045261801708 0 0.087908632645246315 0.43663339931651918 0 0.086766261676657061 0.4213433438256306 0 0.093784346383674277 0.43799504840259912 0 0.087908632645246315 0.43663339931651918 0 0.097874900289356415 0.43402173025087798 0 0.073239059789534489 0.41322303629158302 0 0.080071489278373723 0.42375045261801708 0 0.083530985061082544 0.41107194197249708 0 0.080071489278373723 0.42375045261801708 0 0.083530985061082544 0.41107194197249708 0 0.086766261676657061 0.4213433438256306 0 0.083530985061082544 0.41107194197249708 0 0.086766261676657061 0.4213433438256306 0 0.095553939721924608 0.41391758139548862 0 0.088616954159254205 0.39874808472555201 0 0.083530985061082544 0.41107194197249708 0 0.095553939721924608 0.41391758139548862 0 0.1015786315635645 0.42198417876925798 0 0.1152486304818834 0.4073349582219975 0 0.105920965518771 0.4061898065991712 0 0.095553939721924608 0.41391758139548862 0 0.1015786315635645 0.42198417876925798 0 0.105920965518771 0.4061898065991712 0 0.1015786315635645 0.42198417876925798 0 0.1086019063631971 0.42349779712542579 0 0.1123749112806159 0.41761344748619478 0 0.1015786315635645 0.42198417876925798 0 0.1152486304818834 0.4073349582219975 0 0.087908632645246315 0.43663339931651918 0 0.095553939721924608 0.41391758139548862 0 0.1015786315635645 0.42198417876925798 0 0.087908632645246315 0.43663339931651918 0 0.097874900289356415 0.43402173025087798 0 0.1015786315635645 0.42198417876925798 0 0.097532901074088463 0.44006822578532079 0 0.097874900289356415 0.43402173025087798 0 0.1019772645452907 0.43670697337268699 0 0.097874900289356415 0.43402173025087798 0 0.10456006653822469 0.43093614470729208 0 0.1019772645452907 0.43670697337268699 0 0.097532901074088463 0.44006822578532079 0 0.093784346383674277 0.43799504840259912 0 0.097874900289356415 0.43402173025087798 0 0.097874900289356415 0.43402173025087798 0 0.1015786315635645 0.42198417876925798 0 0.10456006653822469 0.43093614470729208 0 0.087908632645246315 0.43663339931651918 0 0.1015786315635645 0.42198417876925798 0 0.1015786315635645 0.42198417876925798 0 0.1086019063631971 0.42349779712542579 0 0.10456006653822469 0.43093614470729208 0 0.1086019063631971 0.42349779712542579 0 0.10456006653822469 0.43093614470729208 0 0.1101504198181376 0.42805501466225582 0 0.10456006653822469 0.43093614470729208 0 0.1116899195036259 0.43331839687224433 0 0.1101504198181376 0.42805501466225582 0 0.10797019063001689 0.43833009145068891 0 0.10456006653822469 0.43093614470729208 0 0.1116899195036259 0.43331839687224433 0 0.10797019063001689 0.43833009145068891 0 0.10456006653822469 0.43093614470729208 0 0.1019772645452907 0.43670697337268699 0 0.115003558443311 0.4398066694311874 0 0.1169355762349719 0.43458167676297699 0 0.1116899195036259 0.43331839687224433 0 0.115003558443311 0.4398066694311874 0 0.10797019063001689 0.43833009145068891 0 0.1116899195036259 0.43331839687224433 0 0.1116899195036259 0.43331839687224433 0 0.11599818491245741 0.42900734342814112 0 0.1101504198181376 0.42805501466225582 0 0.1169355762349719 0.43458167676297699 0 0.1116899195036259 0.43331839687224433 0 0.11599818491245741 0.42900734342814112 0 0.11599818491245741 0.42900734342814112 0 0.1101504198181376 0.42805501466225582 0 0.1156791772924021 0.42170365692465772 0 0.1086019063631971 0.42349779712542579 0 0.1101504198181376 0.42805501466225582 0 0.1156791772924021 0.42170365692465772 0 0.120476845042085 0.42613263477910163 0 0.1156791772924021 0.42170365692465772 0 0.122428674592785 0.42158317279996321 0 0.11599818491245741 0.42900734342814112 0 0.120476845042085 0.42613263477910163 0 0.1156791772924021 0.42170365692465772 0 0.120476845042085 0.42613263477910163 0 0.122428674592785 0.42158317279996321 0 0.1266918100331631 0.42645261309544819 0 0.120476845042085 0.42613263477910163 0 0.1222055225163956 0.43218842266939311 0 0.1266918100331631 0.42645261309544819 0 0.11599818491245741 0.42900734342814112 0 0.120476845042085 0.42613263477910163 0 0.1222055225163956 0.43218842266939311 0 0.1215896831021416 0.44003275686815041 0 0.1169355762349719 0.43458167676297699 0 0.1222055225163956 0.43218842266939311 0 0.1215896831021416 0.44003275686815041 0 0.1222055225163956 0.43218842266939311 0 0.1265006224580838 0.43739947353239522 0 0.1169355762349719 0.43458167676297699 0 0.11599818491245741 0.42900734342814112 0 0.1222055225163956 0.43218842266939311 0 0.1152486304818834 0.4073349582219975 0 0.1123749112806159 0.41761344748619478 0 0.12143304804051221 0.41494837485089942 0 0.1123749112806159 0.41761344748619478 0 0.1156791772924021 0.42170365692465772 0 0.12143304804051221 0.41494837485089942 0 0.1015786315635645 0.42198417876925798 0 0.1152486304818834 0.4073349582219975 0 0.1123749112806159 0.41761344748619478 0 0.1086019063631971 0.42349779712542579 0 0.1123749112806159 0.41761344748619478 0 0.1156791772924021 0.42170365692465772 0 0.1156791772924021 0.42170365692465772 0 0.122428674592785 0.42158317279996321 0 0.12143304804051221 0.41494837485089942 0 0.122428674592785 0.42158317279996321 0 0.12143304804051221 0.41494837485089942 0 0.1278624925557624 0.41867858434970912 0 0.1152486304818834 0.4073349582219975 0 0.12143304804051221 0.41494837485089942 0 0.1236369375486677 0.4079151890727345 0 0.1236369375486677 0.4079151890727345 0 0.1140243790278805 0.39651055113465411 0 0.13653788492481239 0.40863874894442942 0 0.1152486304818834 0.4073349582219975 0 0.1236369375486677 0.4079151890727345 0 0.1140243790278805 0.39651055113465411 0 0.1152486304818834 0.4073349582219975 0 0.1140243790278805 0.39651055113465411 0 0.105920965518771 0.4061898065991712 0 0.1140243790278805 0.39651055113465411 0 0.1209310315900711 0.38458545827012591 0 0.12709763175005681 0.39493561234101499 0 0.1209310315900711 0.38458545827012591 0 0.11502312824710879 0.37335875512530398 0 0.1280933265969546 0.37722008131990997 0 0.1209310315900711 0.38458545827012591 0 0.10909371857712249 0.38264989872962868 0 0.11502312824710879 0.37335875512530398 0 0.1140243790278805 0.39651055113465411 0 0.1209310315900711 0.38458545827012591 0 0.10909371857712249 0.38264989872962868 0 0.1140243790278805 0.39651055113465411 0 0.10909371857712249 0.38264989872962868 0 0.1034175321477535 0.39079656159925591 0 0.091510873130949313 0.38438235332487752 0 0.10909371857712249 0.38264989872962868 0 0.1031055473827984 0.37277146833957819 0 0.091510873130949313 0.38438235332487752 0 0.10909371857712249 0.38264989872962868 0 0.1034175321477535 0.39079656159925591 0 0.10909371857712249 0.38264989872962868 0 0.1031055473827984 0.37277146833957819 0 0.11502312824710879 0.37335875512530398 0 0.091510873130949313 0.38438235332487752 0 0.1034175321477535 0.39079656159925591 0 0.095553939721924608 0.41391758139548862 0 0.1034175321477535 0.39079656159925591 0 0.091510873130949313 0.38438235332487752 0 0.088616954159254205 0.39874808472555201 0 0.1034175321477535 0.39079656159925591 0 0.095553939721924608 0.41391758139548862 0 0.105920965518771 0.4061898065991712 0 0.1034175321477535 0.39079656159925591 0 0.088616954159254205 0.39874808472555201 0 0.095553939721924608 0.41391758139548862 0 0.1034175321477535 0.39079656159925591 0 0.1140243790278805 0.39651055113465411 0 0.1034175321477535 0.39079656159925591 0 0.1140243790278805 0.39651055113465411 0 0.105920965518771 0.4061898065991712 0 0.1034175321477535 0.39079656159925591 0 0.096550057874425388 0.34482763204872879 0 0.1091128770352254 0.35886864215131009 0 0.11278450319566689 0.34544454307384598 0 0.096550057874425388 0.34482763204872879 0 0.1091128770352254 0.35886864215131009 0 0.090787139923586058 0.36459769236677092 0 0.091510873130949313 0.38438235332487752 0 0.1031055473827984 0.37277146833957819 0 0.090787139923586058 0.36459769236677092 0 0.1091128770352254 0.35886864215131009 0 0.1031055473827984 0.37277146833957819 0 0.090787139923586058 0.36459769236677092 0 0.1091128770352254 0.35886864215131009 0 0.1031055473827984 0.37277146833957819 0 0.11502312824710879 0.37335875512530398 0 0.1091128770352254 0.35886864215131009 0 0.11502312824710879 0.37335875512530398 0 0.1221494098826114 0.36370532908648351 0 0.11502312824710879 0.37335875512530398 0 0.1221494098826114 0.36370532908648351 0 0.1280933265969546 0.37722008131990997 0 0.1221494098826114 0.36370532908648351 0 0.12202554001096221 0.3509503601320586 0 0.13047885529711159 0.35794416735142143 0 0.1091128770352254 0.35886864215131009 0 0.1221494098826114 0.36370532908648351 0 0.12202554001096221 0.3509503601320586 0 0.1091128770352254 0.35886864215131009 0 0.11278450319566689 0.34544454307384598 0 0.12202554001096221 0.3509503601320586 0 0.11278450319566689 0.34544454307384598 0 0.12202554001096221 0.3509503601320586 0 0.12419329639043721 0.33895164794482818 0 0.12419329639043721 0.33895164794482818 0 0.1107417037070402 0.3320167183369529 0 0.1249936154236231 0.32450184210535732 0 0.11278450319566689 0.34544454307384598 0 0.12419329639043721 0.33895164794482818 0 0.1107417037070402 0.3320167183369529 0 0.1107417037070402 0.3320167183369529 0 0.1098375471986701 0.31254788369871528 0 0.1249936154236231 0.32450184210535732 0 0.1098375471986701 0.31254788369871528 0 0.1249936154236231 0.32450184210535732 0 0.13089451695427751 0.30404172687962461 0 0.1107417037070402 0.3320167183369529 0 0.1098375471986701 0.31254788369871528 0 0.09513483455280472 0.32362414748181417 0 0.1098375471986701 0.31254788369871528 0 0.09513483455280472 0.32362414748181417 0 0.08587836988617531 0.30173365117916873 0 0.096550057874425388 0.34482763204872879 0 0.11278450319566689 0.34544454307384598 0 0.1107417037070402 0.3320167183369529 0 0.096550057874425388 0.34482763204872879 0 0.1107417037070402 0.3320167183369529 0 0.09513483455280472 0.32362414748181417 0 0.096550057874425388 0.34482763204872879 0 0.09513483455280472 0.32362414748181417 0 0.075650824226443786 0.33004493851020161 0 0.096550057874425388 0.34482763204872879 0 0.075650824226443786 0.33004493851020161 0 0.073744703319393062 0.35391297297196289 0 0.09513483455280472 0.32362414748181417 0 0.075650824226443786 0.33004493851020161 0 0.08587836988617531 0.30173365117916873 0 0.075650824226443786 0.33004493851020161 0 0.060374497104250517 0.31409808614896312 0 0.08587836988617531 0.30173365117916873 0 0.075650824226443786 0.33004493851020161 0 0.054344622554268779 0.33066160970360559 0 0.060374497104250517 0.31409808614896312 0 0.075650824226443786 0.33004493851020161 0 0.073744703319393062 0.35391297297196289 0 0.059002048507610448 0.3437525455712262 0 0.075650824226443786 0.33004493851020161 0 0.059002048507610448 0.3437525455712262 0 0.054344622554268779 0.33066160970360559 0 0.096550057874425388 0.34482763204872879 0 0.073744703319393062 0.35391297297196289 0 0.090787139923586058 0.36459769236677092 0 0.091510873130949313 0.38438235332487752 0 0.090787139923586058 0.36459769236677092 0 0.068997367234018114 0.37225415551510083 0 0.073744703319393062 0.35391297297196289 0 0.068997367234018114 0.37225415551510083 0 0.045963905001443761 0.35846336123960898 0 0.073744703319393062 0.35391297297196289 0 0.090787139923586058 0.36459769236677092 0 0.068997367234018114 0.37225415551510083 0 0.048786604973723932 0.37880506360891208 0 0.068997367234018114 0.37225415551510083 0 0.045963905001443761 0.35846336123960898 0 0.059002048507610448 0.3437525455712262 0 0.045963905001443761 0.35846336123960898 0 0.04389056850413367 0.34046565824882891 0 0.073744703319393062 0.35391297297196289 0 0.059002048507610448 0.3437525455712262 0 0.045963905001443761 0.35846336123960898 0 0.045963905001443761 0.35846336123960898 0 0.023934459521394329 0.36557679042293201 0 0.029402541921860471 0.34601965577084509 0 0.045963905001443761 0.35846336123960898 0 0.029402541921860471 0.34601965577084509 0 0.04389056850413367 0.34046565824882891 0 0.032598551153264058 0.37877463054307131 0 0.048786604973723932 0.37880506360891208 0 0.045963905001443761 0.35846336123960898 0 0.032598551153264058 0.37877463054307131 0 0.045963905001443761 0.35846336123960898 0 0.023934459521394329 0.36557679042293201 0 0.023934459521394329 0.36557679042293201 0 0.029402541921860471 0.34601965577084509 0 0.023934459521394329 0.36557679042293201 0 0.029402541921860471 0.34601965577084509 0 0.0053995666687935966 0.3573960307483004 0 0.029402541921860471 0.34601965577084509 0 0.0053995666687935966 0.3573960307483004 0 0.0086928153310342343 0.33915368452331762 0 0.0064616500294893166 0.37590280414288318 0 0.023934459521394329 0.36557679042293201 0 0.0053995666687935966 0.3573960307483004 0 -0.002697893735798772 0.33006307357789327 0 -0.002441496602033208 0.31402100451125609 0 0.01420487408540054 0.31717949461160921 0 -0.002697893735798772 0.33006307357789327 0 0.01420487408540054 0.31717949461160921 0 0.0086928153310342343 0.33915368452331762 0 0.0086928153310342343 0.33915368452331762 0 0.034870624322326113 0.32646252111875812 0 0.029402541921860471 0.34601965577084509 0 0.0086928153310342343 0.33915368452331762 0 0.034870624322326113 0.32646252111875812 0 0.01420487408540054 0.31717949461160921 0 0.0086928153310342343 0.33915368452331762 0 0.034870624322326113 0.32646252111875812 0 0.01420487408540054 0.31717949461160921 0 0.02905651135978848 0.31393874969499252 0 0.034870624322326113 0.32646252111875812 0 0.02905651135978848 0.31393874969499252 0 0.034870624322326113 0.32646252111875812 0 0.039350693255746083 0.31043911383176359 0 0.034870624322326113 0.32646252111875812 0 0.060374497104250517 0.31409808614896312 0 0.039350693255746083 0.31043911383176359 0 0.034870624322326113 0.32646252111875812 0 0.039350693255746083 0.31043911383176359 0 0.029402541921860471 0.34601965577084509 0 0.034870624322326113 0.32646252111875812 0 0.04389056850413367 0.34046565824882891 0 0.029402541921860471 0.34601965577084509 0 0.034870624322326113 0.32646252111875812 0 0.034870624322326113 0.32646252111875812 0 0.04389056850413367 0.34046565824882891 0 0.054344622554268779 0.33066160970360559 0 0.059002048507610448 0.3437525455712262 0 0.04389056850413367 0.34046565824882891 0 0.054344622554268779 0.33066160970360559 0 0.034870624322326113 0.32646252111875812 0 0.060374497104250517 0.31409808614896312 0 0.034870624322326113 0.32646252111875812 0 0.054344622554268779 0.33066160970360559 0 0.060374497104250517 0.31409808614896312 0 0.060374497104250517 0.31409808614896312 0 0.056792896132332918 0.30031456178266791 0 0.039350693255746083 0.31043911383176359 0 0.056792896132332918 0.30031456178266791 0 0.062245349119504689 0.28373486266308129 0 0.04383076218916554 0.29441570654476912 0 0.062245349119504689 0.28373486266308129 0 0.04383076218916554 0.29441570654476912 0 0.044612329929548389 0.27876894852262091 0 0.04383076218916554 0.29441570654476912 0 0.028748081013381489 0.27776554701528078 0 0.044612329929548389 0.27876894852262091 0 0.04383076218916554 0.29441570654476912 0 0.027799853775681199 0.3016738692178389 0 0.028748081013381489 0.27776554701528078 0 0.056792896132332918 0.30031456178266791 0 0.04383076218916554 0.29441570654476912 0 0.039350693255746083 0.31043911383176359 0 0.04383076218916554 0.29441570654476912 0 0.039350693255746083 0.31043911383176359 0 0.04383076218916554 0.29441570654476912 0 0.039350693255746083 0.31043911383176359 0 0.027799853775681199 0.3016738692178389 0 0.02905651135978848 0.31393874969499252 0 0.039350693255746083 0.31043911383176359 0 0.027799853775681199 0.3016738692178389 0 0.01420487408540054 0.31717949461160921 0 0.027799853775681199 0.3016738692178389 0 0.013379111527513751 0.29453957565889632 0 0.01420487408540054 0.31717949461160921 0 0.02905651135978848 0.31393874969499252 0 0.027799853775681199 0.3016738692178389 0 0.027799853775681199 0.3016738692178389 0 0.013379111527513751 0.29453957565889632 0 0.028748081013381489 0.27776554701528078 0 -0.003227979543891877 0.2930284770625457 0 0.013379111527513751 0.29453957565889632 0 0.0076965934919400961 0.26915301454252388 0 -0.002441496602033208 0.31402100451125609 0 0.01420487408540054 0.31717949461160921 0 0.013379111527513751 0.29453957565889632 0 -0.003227979543891877 0.2930284770625457 0 -0.002441496602033208 0.31402100451125609 0 0.013379111527513751 0.29453957565889632 0 -0.00045679976148860701 0.24809875771850209 0 0.0168823415007953 0.24231856612335889 0 0.0076965934919400961 0.26915301454252388 0 0.013379111527513751 0.29453957565889632 0 0.0076965934919400961 0.26915301454252388 0 0.028748081013381489 0.27776554701528078 0 0.0076965934919400961 0.26915301454252388 0 0.028748081013381489 0.27776554701528078 0 0.029720614319208541 0.25580432796631258 0 0.0168823415007953 0.24231856612335889 0 0.0076965934919400961 0.26915301454252388 0 0.029720614319208541 0.25580432796631258 0 0.052834710101556888 0.24979866557787231 0 0.029720614319208541 0.25580432796631258 0 0.041193973929258679 0.26584907141815167 0 0.028748081013381489 0.27776554701528078 0 0.041193973929258679 0.26584907141815167 0 0.044612329929548389 0.27876894852262091 0 0.028748081013381489 0.27776554701528078 0 0.029720614319208541 0.25580432796631258 0 0.041193973929258679 0.26584907141815167 0 0.041193973929258679 0.26584907141815167 0 0.044612329929548389 0.27876894852262091 0 0.054077676206758907 0.2692518388338514 0 0.062245349119504689 0.28373486266308129 0 0.054077676206758907 0.2692518388338514 0 0.069108922271933104 0.26465014815908833 0 0.062245349119504689 0.28373486266308129 0 0.044612329929548389 0.27876894852262091 0 0.054077676206758907 0.2692518388338514 0 0.052834710101556888 0.24979866557787231 0 0.041193973929258679 0.26584907141815167 0 0.054077676206758907 0.2692518388338514 0 0.052834710101556888 0.24979866557787231 0 0.054077676206758907 0.2692518388338514 0 0.069108922271933104 0.26465014815908833 0 0.052834710101556888 0.24979866557787231 0 0.073282428511230874 0.24964968076252789 0 0.069108922271933104 0.26465014815908833 0 0.073282428511230874 0.24964968076252789 0 0.069108922271933104 0.26465014815908833 0 0.088802191617374862 0.25605340422718847 0 0.088802191617374862 0.25605340422718847 0 0.082707311160089628 0.2763270218013717 0 0.1094901199821999 0.26534434195910972 0 0.069108922271933104 0.26465014815908833 0 0.088802191617374862 0.25605340422718847 0 0.082707311160089628 0.2763270218013717 0 0.062245349119504689 0.28373486266308129 0 0.069108922271933104 0.26465014815908833 0 0.082707311160089628 0.2763270218013717 0 0.062245349119504689 0.28373486266308129 0 0.082707311160089628 0.2763270218013717 0 0.08587836988617531 0.30173365117916873 0 0.056792896132332918 0.30031456178266791 0 0.062245349119504689 0.28373486266308129 0 0.08587836988617531 0.30173365117916873 0 0.060374497104250517 0.31409808614896312 0 0.08587836988617531 0.30173365117916873 0 0.060374497104250517 0.31409808614896312 0 0.056792896132332918 0.30031456178266791 0 0.08587836988617531 0.30173365117916873 0 0.082707311160089628 0.2763270218013717 0 0.08587836988617531 0.30173365117916873 0 0.1113822426681001 0.28936921620937428 0 0.08587836988617531 0.30173365117916873 0 0.1113822426681001 0.28936921620937428 0 0.1098375471986701 0.31254788369871528 0 0.08587836988617531 0.30173365117916873 0 0.1113822426681001 0.28936921620937428 0 0.1098375471986701 0.31254788369871528 0 0.1113822426681001 0.28936921620937428 0 0.13089451695427751 0.30404172687962461 0 0.1113822426681001 0.28936921620937428 0 0.1368861154500248 0.27700478123958 0 0.1113822426681001 0.28936921620937428 0 0.1094901199821999 0.26534434195910972 0 0.1368861154500248 0.27700478123958 0 0.1061789030124069 0.2432622937135818 0 0.1094901199821999 0.26534434195910972 0 0.13031494490476789 0.25030009388335078 0 0.1061789030124069 0.2432622937135818 0 0.088802191617374862 0.25605340422718847 0 0.1094901199821999 0.26534434195910972 0 0.082707311160089628 0.2763270218013717 0 0.1113822426681001 0.28936921620937428 0 0.1094901199821999 0.26534434195910972 0 0.1368861154500248 0.27700478123958 0 0.16238998823194961 0.26464034626978572 0 0.1368861154500248 0.27700478123958 0 0.15423525617038369 0.29141640373471189 0 0.16238998823194961 0.26464034626978572 0 0.1489771954588234 0.25126435036168582 0 0.1368861154500248 0.27700478123958 0 0.16238998823194961 0.26464034626978572 0 0.1094901199821999 0.26534434195910972 0 0.13031494490476789 0.25030009388335078 0 0.1368861154500248 0.27700478123958 0 0.1489771954588234 0.25126435036168582 0 0.13031494490476789 0.25030009388335078 0 0.1368861154500248 0.27700478123958 0 0.1113822426681001 0.28936921620937428 0 0.1368861154500248 0.27700478123958 0 0.13089451695427751 0.30404172687962461 0 0.13089451695427751 0.30404172687962461 0 0.14778134417134839 0.31116619490335151 0 0.13828648820894079 0.31945424266526812 0 0.14778134417134839 0.31116619490335151 0 0.15423525617038369 0.29141640373471189 0 0.1606635043934358 0.30464607271163441 0 0.13089451695427751 0.30404172687962461 0 0.14778134417134839 0.31116619490335151 0 0.15423525617038369 0.29141640373471189 0 0.14778134417134839 0.31116619490335151 0 0.1606635043934358 0.30464607271163441 0 0.1598072774113807 0.31940683412036408 0 0.1368861154500248 0.27700478123958 0 0.13089451695427751 0.30404172687962461 0 0.15423525617038369 0.29141640373471189 0 0.15423525617038369 0.29141640373471189 0 0.16923664816215339 0.28132333949684801 0 0.17291218494556909 0.29805157482320599 0 0.1606635043934358 0.30464607271163441 0 0.17291218494556909 0.29805157482320599 0 0.17061569204869151 0.31382940343438009 0 0.15423525617038369 0.29141640373471189 0 0.1606635043934358 0.30464607271163441 0 0.17291218494556909 0.29805157482320599 0 0.17291218494556909 0.29805157482320599 0 0.18814063438389769 0.28971675935849339 0 0.1889890768870495 0.30372456739975101 0 0.18112853981807661 0.31171655222312677 0 0.1889890768870495 0.30372456739975101 0 0.18880350820939429 0.32110831253803662 0 0.17291218494556909 0.29805157482320599 0 0.18112853981807661 0.31171655222312677 0 0.17061569204869151 0.31382940343438009 0 0.17291218494556909 0.29805157482320599 0 0.18112853981807661 0.31171655222312677 0 0.1889890768870495 0.30372456739975101 0 0.16923664816215339 0.28132333949684801 0 0.1843827466001271 0.27642007155035248 0 0.18814063438389769 0.28971675935849339 0 0.16923664816215339 0.28132333949684801 0 0.17291218494556909 0.29805157482320599 0 0.18814063438389769 0.28971675935849339 0 0.16923664816215339 0.28132333949684801 0 0.1843827466001271 0.27642007155035248 0 0.16238998823194961 0.26464034626978572 0 0.1843827466001271 0.27642007155035248 0 0.16238998823194961 0.26464034626978572 0 0.1886073565649721 0.26470704830008263 0 0.15423525617038369 0.29141640373471189 0 0.16923664816215339 0.28132333949684801 0 0.16238998823194961 0.26464034626978572 0 0.16655408807399719 0.23978546968821421 0 0.1489771954588234 0.25126435036168582 0 0.16238998823194961 0.26464034626978572 0 0.16238998823194961 0.26464034626978572 0 0.18789386101387501 0.25227591129999283 0 0.16238998823194961 0.26464034626978572 0 0.18789386101387501 0.25227591129999283 0 0.1886073565649721 0.26470704830008263 0 0.16655408807399719 0.23978546968821421 0 0.16238998823194961 0.26464034626978572 0 0.18789386101387501 0.25227591129999283 0 0.18789386101387501 0.25227591129999283 0 0.19979562194139741 0.25924216395701499 0 0.18789386101387501 0.25227591129999283 0 0.1886073565649721 0.26470704830008263 0 0.19979562194139741 0.25924216395701499 0 0.1886073565649721 0.26470704830008263 0 0.19979562194139741 0.25924216395701499 0 0.198525898957185 0.26965058312202739 0 0.20306155191186681 0.24492252111671359 0 0.18789386101387501 0.25227591129999283 0 0.19979562194139741 0.25924216395701499 0 0.1843827466001271 0.27642007155035248 0 0.198525898957185 0.26965058312202739 0 0.1963115899601327 0.28055267195544747 0 0.1843827466001271 0.27642007155035248 0 0.1886073565649721 0.26470704830008263 0 0.198525898957185 0.26965058312202739 0 0.198525898957185 0.26965058312202739 0 0.1963115899601327 0.28055267195544747 0 0.21019953393799701 0.27611949604650671 0 0.198525898957185 0.26965058312202739 0 0.21019953393799701 0.27611949604650671 0 0.21185854473848389 0.26086204692276033 0 0.21019953393799701 0.27611949604650671 0 0.21185854473848389 0.26086204692276033 0 0.22254991240933009 0.2666786425385802 0 0.20306155191186681 0.24492252111671359 0 0.21185854473848389 0.26086204692276033 0 0.21908793363626539 0.25099558894759982 0 0.21185854473848389 0.26086204692276033 0 0.21908793363626539 0.25099558894759982 0 0.22254991240933009 0.2666786425385802 0 0.20306155191186681 0.24492252111671359 0 0.19979562194139741 0.25924216395701499 0 0.21185854473848389 0.26086204692276033 0 0.19979562194139741 0.25924216395701499 0 0.198525898957185 0.26965058312202739 0 0.21185854473848389 0.26086204692276033 0 0.21908793363626539 0.25099558894759982 0 0.2341430801136217 0.25828334698256661 0 0.22254991240933009 0.2666786425385802 0 0.23308743509231389 0.24292412826028709 0 0.21908793363626539 0.25099558894759982 0 0.2341430801136217 0.25828334698256661 0 0.22924314569783269 0.27846314639525072 0 0.22254991240933009 0.2666786425385802 0 0.2411936741170993 0.27207105960747108 0 0.22254991240933009 0.2666786425385802 0 0.2411936741170993 0.27207105960747108 0 0.21019953393799701 0.27611949604650671 0 0.22924314569783269 0.27846314639525072 0 0.22254991240933009 0.2666786425385802 0 0.2341430801136217 0.25828334698256661 0 0.22254991240933009 0.2666786425385802 0 0.2411936741170993 0.27207105960747108 0 0.2411936741170993 0.27207105960747108 0 0.2481335889168135 0.28330884691242919 0 0.25983743582486862 0.2774634766763614 0 0.22924314569783269 0.27846314639525072 0 0.2411936741170993 0.27207105960747108 0 0.2379662003668091 0.29112416314556988 0 0.23308743509231389 0.24292412826028709 0 0.2341430801136217 0.25828334698256661 0 0.25479644531309942 0.25874731555889569 0 0.2341430801136217 0.25828334698256661 0 0.2411936741170993 0.27207105960747108 0 0.25479644531309942 0.25874731555889569 0 0.23308743509231389 0.24292412826028709 0 0.25479644531309942 0.25874731555889569 0 0.2379662003668091 0.29112416314556988 0 0.23294917026242101 0.3140299076450862 0 0.25212780815855879 0.30427278307296041 0 0.23294917026242101 0.3140299076450862 0 0.25212780815855879 0.30427278307296041 0 0.23294917026242101 0.3140299076450862 0 0.2464750028821345 0.31629322417332928 0 0.25212780815855879 0.30427278307296041 0 0.2379662003668091 0.29112416314556988 0 0.25147580858485691 0.29246213415946992 0 0.25212780815855879 0.30427278307296041 0 0.2411936741170993 0.27207105960747108 0 0.2481335889168135 0.28330884691242919 0 0.2379662003668091 0.29112416314556988 0 0.2481335889168135 0.28330884691242919 0 0.2379662003668091 0.29112416314556988 0 0.25147580858485691 0.29246213415946992 0 0.21019953393799701 0.27611949604650671 0 0.22924314569783269 0.27846314639525072 0 0.2199460149830226 0.28942530653044551 0 0.22924314569783269 0.27846314639525072 0 0.2379662003668091 0.29112416314556988 0 0.2199460149830226 0.28942530653044551 0 0.2379662003668091 0.29112416314556988 0 0.2199460149830226 0.28942530653044551 0 0.22613488692581971 0.30001488359325479 0 0.2199460149830226 0.28942530653044551 0 0.22613488692581971 0.30001488359325479 0 0.21367816209102591 0.30548015705191728 0 0.22613488692581971 0.30001488359325479 0 0.21367816209102591 0.30548015705191728 0 0.23294917026242101 0.3140299076450862 0 0.2379662003668091 0.29112416314556988 0 0.22613488692581971 0.30001488359325479 0 0.23294917026242101 0.3140299076450862 0 0.21367816209102591 0.30548015705191728 0 0.20184061962830599 0.29151510069582848 0 0.20027896560870059 0.3131932211153472 0 0.21019953393799701 0.27611949604650671 0 0.2199460149830226 0.28942530653044551 0 0.20184061962830599 0.29151510069582848 0 0.2199460149830226 0.28942530653044551 0 0.21367816209102591 0.30548015705191728 0 0.20184061962830599 0.29151510069582848 0 0.1963115899601327 0.28055267195544747 0 0.21019953393799701 0.27611949604650671 0 0.20184061962830599 0.29151510069582848 0 0.1963115899601327 0.28055267195544747 0 0.20184061962830599 0.29151510069582848 0 0.18814063438389769 0.28971675935849339 0 0.20184061962830599 0.29151510069582848 0 0.18814063438389769 0.28971675935849339 0 0.1889890768870495 0.30372456739975101 0 0.1843827466001271 0.27642007155035248 0 0.1963115899601327 0.28055267195544747 0 0.18814063438389769 0.28971675935849339 0 0.20184061962830599 0.29151510069582848 0 0.1889890768870495 0.30372456739975101 0 0.20027896560870059 0.3131932211153472 0 0.1889890768870495 0.30372456739975101 0 0.20027896560870059 0.3131932211153472 0 0.18880350820939429 0.32110831253803662 0 0.20027896560870059 0.3131932211153472 0 0.1945918944701453 0.33354415678933791 0 0.2137705323662831 0.32378703221721211 0 0.20027896560870059 0.3131932211153472 0 0.18880350820939429 0.32110831253803662 0 0.1945918944701453 0.33354415678933791 0 0.18880350820939429 0.32110831253803662 0 0.1945918944701453 0.33354415678933791 0 0.1945918944701453 0.33354415678933791 0 0.21283460345908689 0.33728957249247599 0 0.2014253527416828 0.34822524732728372 0 0.1945918944701453 0.33354415678933791 0 0.2014253527416828 0.34822524732728372 0 0.18616991142443001 0.34721002188974881 0 0.18880350820939429 0.32110831253803662 0 0.1945918944701453 0.33354415678933791 0 0.17927928769207149 0.33140969182254371 0 0.1945918944701453 0.33354415678933791 0 0.2014253527416828 0.34822524732728372 0 0.1945918944701453 0.33354415678933791 0 0.2137705323662831 0.32378703221721211 0 0.1945918944701453 0.33354415678933791 0 0.21283460345908689 0.33728957249247599 0 0.2137705323662831 0.32378703221721211 0 0.21367816209102591 0.30548015705191728 0 0.20027896560870059 0.3131932211153472 0 0.2137705323662831 0.32378703221721211 0 0.2137705323662831 0.32378703221721211 0 0.23294917026242101 0.3140299076450862 0 0.23159345204349041 0.33124427655857558 0 0.21367816209102591 0.30548015705191728 0 0.2137705323662831 0.32378703221721211 0 0.23294917026242101 0.3140299076450862 0 0.2137705323662831 0.32378703221721211 0 0.23294917026242101 0.3140299076450862 0 0.21283460345908689 0.33728957249247599 0 0.23159345204349041 0.33124427655857558 0 0.22279178567383309 0.34964714956997089 0 0.21283460345908689 0.33728957249247599 0 0.2137705323662831 0.32378703221721211 0 0.23159345204349041 0.33124427655857558 0 0.23159345204349041 0.33124427655857558 0 0.2441582186059838 0.35106905181265002 0 0.25328760085072821 0.3276627351342245 0 0.2441582186059838 0.35106905181265002 0 0.25328760085072821 0.3276627351342245 0 0.23159345204349041 0.33124427655857558 0 0.2464750028821345 0.31629322417332928 0 0.25328760085072821 0.3276627351342245 0 0.23294917026242101 0.3140299076450862 0 0.23159345204349041 0.33124427655857558 0 0.2464750028821345 0.31629322417332928 0 0.2392505884644375 0.36365145247833353 0 0.24653888438195401 0.37346358914553518 0 0.2303515494192592 0.37588407423554782 0 0.2392505884644375 0.36365145247833353 0 0.24653888438195401 0.37346358914553518 0 0.25402406978961162 0.36261616317530643 0 0.2392505884644375 0.36365145247833353 0 0.2441582186059838 0.35106905181265002 0 0.22279178567383309 0.34964714956997089 0 0.2392505884644375 0.36365145247833353 0 0.2441582186059838 0.35106905181265002 0 0.25402406978961162 0.36261616317530643 0 0.2392505884644375 0.36365145247833353 0 0.2441582186059838 0.35106905181265002 0 0.23159345204349041 0.33124427655857558 0 0.2441582186059838 0.35106905181265002 0 0.22279178567383309 0.34964714956997089 0 0.2441582186059838 0.35106905181265002 0 0.22279178567383309 0.34964714956997089 0 0.2392505884644375 0.36365145247833353 0 0.22279178567383309 0.34964714956997089 0 0.22328746142748709 0.36362113023156178 0 0.22279178567383309 0.34964714956997089 0 0.22328746142748709 0.36362113023156178 0 0.21499351919275039 0.35836152858866532 0 0.22328746142748709 0.36362113023156178 0 0.21246947692799881 0.3719525872258449 0 0.2303515494192592 0.37588407423554782 0 0.2392505884644375 0.36365145247833353 0 0.22328746142748709 0.36362113023156178 0 0.2303515494192592 0.37588407423554782 0 0.21246947692799881 0.3719525872258449 0 0.2014253527416828 0.34822524732728372 0 0.21246947692799881 0.3719525872258449 0 0.2044151986632963 0.36613840859117369 0 0.2014253527416828 0.34822524732728372 0 0.21246947692799881 0.3719525872258449 0 0.21499351919275039 0.35836152858866532 0 0.2014253527416828 0.34822524732728372 0 0.22328746142748709 0.36362113023156178 0 0.21246947692799881 0.3719525872258449 0 0.21499351919275039 0.35836152858866532 0 0.21246947692799881 0.3719525872258449 0 0.2044151986632963 0.36613840859117369 0 0.20151166552585659 0.3786464349504986 0 0.22279178567383309 0.34964714956997089 0 0.2014253527416828 0.34822524732728372 0 0.22279178567383309 0.34964714956997089 0 0.21499351919275039 0.35836152858866532 0 0.2014253527416828 0.34822524732728372 0 0.21283460345908689 0.33728957249247599 0 0.22279178567383309 0.34964714956997089 0 0.2014253527416828 0.34822524732728372 0 0.2044151986632963 0.36613840859117369 0 0.2014253527416828 0.34822524732728372 0 0.19497080649345999 0.3561291970457372 0 0.19497080649345999 0.3561291970457372 0 0.18787276314443091 0.36294311037474258 0 0.18616991142443001 0.34721002188974881 0 0.2014253527416828 0.34822524732728372 0 0.18616991142443001 0.34721002188974881 0 0.2014253527416828 0.34822524732728372 0 0.19497080649345999 0.3561291970457372 0 0.18616991142443001 0.34721002188974881 0 0.2044151986632963 0.36613840859117369 0 0.19497080649345999 0.3561291970457372 0 0.18787276314443091 0.36294311037474258 0 0.2044151986632963 0.36613840859117369 0 0.1817894274171345 0.38030518870892482 0 0.2044151986632963 0.36613840859117369 0 0.18787276314443091 0.36294311037474258 0 0.1817894274171345 0.38030518870892482 0 0.1725677247618734 0.36460344294948582 0 0.16297802869493691 0.37517451845219979 0 0.1817894274171345 0.38030518870892482 0 0.18787276314443091 0.36294311037474258 0 0.1725677247618734 0.36460344294948582 0 0.1817894274171345 0.38030518870892482 0 0.18787276314443091 0.36294311037474258 0 0.1725677247618734 0.36460344294948582 0 0.17526209577058011 0.35420651217712851 0 0.1725677247618734 0.36460344294948582 0 0.16027658710314879 0.36270058839374802 0 0.16297802869493691 0.37517451845219979 0 0.1725677247618734 0.36460344294948582 0 0.16027658710314879 0.36270058839374802 0 0.16629171631393649 0.3552598055303926 0 0.16027658710314879 0.36270058839374802 0 0.15092874919807919 0.36937232765597949 0 0.16297802869493691 0.37517451845219979 0 0.16210892424159151 0.34765392183131022 0 0.15733489102512019 0.35292074458697592 0 0.15528228816062489 0.34508264971005792 0 0.16210892424159151 0.34765392183131022 0 0.16657160028533399 0.34365819463525071 0 0.16126458977297109 0.34041202423669609 0 0.16210892424159151 0.34765392183131022 0 0.16126458977297109 0.34041202423669609 0 0.15528228816062489 0.34508264971005792 0 0.16027658710314879 0.36270058839374802 0 0.15733489102512019 0.35292074458697592 0 0.16629171631393649 0.3552598055303926 0 0.16210892424159151 0.34765392183131022 0 0.15733489102512019 0.35292074458697592 0 0.16629171631393649 0.3552598055303926 0 0.16629171631393649 0.3552598055303926 0 0.1682297613437238 0.34939464612525878 0 0.17526209577058011 0.35420651217712851 0 0.1725677247618734 0.36460344294948582 0 0.16629171631393649 0.3552598055303926 0 0.17526209577058011 0.35420651217712851 0 0.1682297613437238 0.34939464612525878 0 0.1709144701071772 0.34619479645221152 0 0.17526209577058011 0.35420651217712851 0 0.16210892424159151 0.34765392183131022 0 0.16629171631393649 0.3552598055303926 0 0.1682297613437238 0.34939464612525878 0 0.16210892424159151 0.34765392183131022 0 0.1682297613437238 0.34939464612525878 0 0.16657160028533399 0.34365819463525071 0 0.1709144701071772 0.34619479645221152 0 0.16657160028533399 0.34365819463525071 0 0.1697926615558539 0.34188779447889328 0 0.1709144701071772 0.34619479645221152 0 0.17358467586848969 0.3442315710843597 0 0.1697926615558539 0.34188779447889328 0 0.1682297613437238 0.34939464612525878 0 0.1709144701071772 0.34619479645221152 0 0.16657160028533399 0.34365819463525071 0 0.1709144701071772 0.34619479645221152 0 0.17358467586848969 0.3442315710843597 0 0.18616991142443001 0.34721002188974881 0 0.1709144701071772 0.34619479645221152 0 0.18616991142443001 0.34721002188974881 0 0.1709144701071772 0.34619479645221152 0 0.17526209577058011 0.35420651217712851 0 0.18616991142443001 0.34721002188974881 0 0.18787276314443091 0.36294311037474258 0 0.17526209577058011 0.35420651217712851 0 0.18616991142443001 0.34721002188974881 0 0.1945918944701453 0.33354415678933791 0 0.17358467586848969 0.3442315710843597 0 0.1945918944701453 0.33354415678933791 0 0.17358467586848969 0.3442315710843597 0 0.18616991142443001 0.34721002188974881 0 0.1945918944701453 0.33354415678933791 0 0.17358467586848969 0.3442315710843597 0 0.17927928769207149 0.33140969182254371 0 0.17927928769207149 0.33140969182254371 0 0.17415225561280501 0.33680813123232589 0 0.17042007967188499 0.32812973638156112 0 0.17358467586848969 0.3442315710843597 0 0.17927928769207149 0.33140969182254371 0 0.17415225561280501 0.33680813123232589 0 0.17358467586848969 0.3442315710843597 0 0.17415225561280501 0.33680813123232589 0 0.17129042773158279 0.34012184389653588 0 0.18112853981807661 0.31171655222312677 0 0.18880350820939429 0.32110831253803662 0 0.17819006757572911 0.3212528685095335 0 0.18880350820939429 0.32110831253803662 0 0.17927928769207149 0.33140969182254371 0 0.17819006757572911 0.3212528685095335 0 0.17927928769207149 0.33140969182254371 0 0.17819006757572911 0.3212528685095335 0 0.17042007967188499 0.32812973638156112 0 0.17819006757572911 0.3212528685095335 0 0.17061569204869151 0.31382940343438009 0 0.17042007967188499 0.32812973638156112 0 0.18112853981807661 0.31171655222312677 0 0.17819006757572911 0.3212528685095335 0 0.17061569204869151 0.31382940343438009 0 0.17061569204869151 0.31382940343438009 0 0.1598072774113807 0.31940683412036408 0 0.17042007967188499 0.32812973638156112 0 0.1598072774113807 0.31940683412036408 0 0.17042007967188499 0.32812973638156112 0 0.16083304880919869 0.33072599197032593 0 0.1598072774113807 0.31940683412036408 0 0.16083304880919869 0.33072599197032593 0 0.14852999537372469 0.32794360532093192 0 0.1606635043934358 0.30464607271163441 0 0.17061569204869151 0.31382940343438009 0 0.1598072774113807 0.31940683412036408 0 0.1676321178891827 0.33755987879056482 0 0.16657160028533399 0.34365819463525071 0 0.16126458977297109 0.34041202423669609 0 0.1676321178891827 0.33755987879056482 0 0.16657160028533399 0.34365819463525071 0 0.1697926615558539 0.34188779447889328 0 0.17358467586848969 0.3442315710843597 0 0.1697926615558539 0.34188779447889328 0 0.17129042773158279 0.34012184389653588 0 0.1676321178891827 0.33755987879056482 0 0.1697926615558539 0.34188779447889328 0 0.17129042773158279 0.34012184389653588 0 0.17415225561280501 0.33680813123232589 0 0.1676321178891827 0.33755987879056482 0 0.17129042773158279 0.34012184389653588 0 0.1676321178891827 0.33755987879056482 0 0.17042007967188499 0.32812973638156112 0 0.16083304880919869 0.33072599197032593 0 0.17415225561280501 0.33680813123232589 0 0.1676321178891827 0.33755987879056482 0 0.17042007967188499 0.32812973638156112 0 0.1676321178891827 0.33755987879056482 0 0.16083304880919869 0.33072599197032593 0 0.16126458977297109 0.34041202423669609 0 0.16083304880919869 0.33072599197032593 0 0.16126458977297109 0.34041202423669609 0 0.15515955925189531 0.33779150848266742 0 0.16126458977297109 0.34041202423669609 0 0.15515955925189531 0.33779150848266742 0 0.15528228816062489 0.34508264971005792 0 0.15515955925189531 0.33779150848266742 0 0.14725668152953761 0.34193999621756771 0 0.15528228816062489 0.34508264971005792 0 0.16083304880919869 0.33072599197032593 0 0.15515955925189531 0.33779150848266742 0 0.14852999537372469 0.32794360532093192 0 0.15515955925189531 0.33779150848266742 0 0.14725668152953761 0.34193999621756771 0 0.14852999537372469 0.32794360532093192 0 0.14725668152953761 0.34193999621756771 0 0.14852999537372469 0.32794360532093192 0 0.13981214092421321 0.33516124858619328 0 0.14725668152953761 0.34193999621756771 0 0.13981214092421321 0.33516124858619328 0 0.14172063133757409 0.34725169649045412 0 0.14852999537372469 0.32794360532093192 0 0.13828648820894079 0.31945424266526812 0 0.13981214092421321 0.33516124858619328 0 0.14778134417134839 0.31116619490335151 0 0.1598072774113807 0.31940683412036408 0 0.14852999537372469 0.32794360532093192 0 0.14778134417134839 0.31116619490335151 0 0.14852999537372469 0.32794360532093192 0 0.13828648820894079 0.31945424266526812 0 0.1249936154236231 0.32450184210535732 0 0.13089451695427751 0.30404172687962461 0 0.13828648820894079 0.31945424266526812 0 0.1249936154236231 0.32450184210535732 0 0.13828648820894079 0.31945424266526812 0 0.13981214092421321 0.33516124858619328 0 0.13981214092421321 0.33516124858619328 0 0.13415275460099541 0.34483131805688622 0 0.14172063133757409 0.34725169649045412 0 0.12419329639043721 0.33895164794482818 0 0.1249936154236231 0.32450184210535732 0 0.13981214092421321 0.33516124858619328 0 0.12419329639043721 0.33895164794482818 0 0.13981214092421321 0.33516124858619328 0 0.13415275460099541 0.34483131805688622 0 0.12202554001096221 0.3509503601320586 0 0.13415275460099541 0.34483131805688622 0 0.13047885529711159 0.35794416735142143 0 0.12202554001096221 0.3509503601320586 0 0.12419329639043721 0.33895164794482818 0 0.13415275460099541 0.34483131805688622 0 0.13415275460099541 0.34483131805688622 0 0.13969674867633741 0.35523808521530598 0 0.14172063133757409 0.34725169649045412 0 0.13969674867633741 0.35523808521530598 0 0.13047885529711159 0.35794416735142143 0 0.14042211738054369 0.364175404209792 0 0.13415275460099541 0.34483131805688622 0 0.13969674867633741 0.35523808521530598 0 0.13047885529711159 0.35794416735142143 0 0.1221494098826114 0.36370532908648351 0 0.13047885529711159 0.35794416735142143 0 0.13193098829325259 0.36737524407095318 0 0.1221494098826114 0.36370532908648351 0 0.13193098829325259 0.36737524407095318 0 0.1280933265969546 0.37722008131990997 0 0.13193098829325259 0.36737524407095318 0 0.13998677584502781 0.37590525450197121 0 0.1280933265969546 0.37722008131990997 0 0.13193098829325259 0.36737524407095318 0 0.14042211738054369 0.364175404209792 0 0.13998677584502781 0.37590525450197121 0 0.13047885529711159 0.35794416735142143 0 0.13193098829325259 0.36737524407095318 0 0.14042211738054369 0.364175404209792 0 0.13969674867633741 0.35523808521530598 0 0.14042211738054369 0.364175404209792 0 0.1495105869734539 0.35921734646312081 0 0.14042211738054369 0.364175404209792 0 0.15092874919807919 0.36937232765597949 0 0.1495105869734539 0.35921734646312081 0 0.14042211738054369 0.364175404209792 0 0.15092874919807919 0.36937232765597949 0 0.13998677584502781 0.37590525450197121 0 0.15092874919807919 0.36937232765597949 0 0.1509803638890907 0.38004468421766019 0 0.16297802869493691 0.37517451845219979 0 0.16027658710314879 0.36270058839374802 0 0.15092874919807919 0.36937232765597949 0 0.1495105869734539 0.35921734646312081 0 0.16027658710314879 0.36270058839374802 0 0.15733489102512019 0.35292074458697592 0 0.1495105869734539 0.35921734646312081 0 0.15733489102512019 0.35292074458697592 0 0.1495105869734539 0.35921734646312081 0 0.1486082338690384 0.3505648467494914 0 0.15733489102512019 0.35292074458697592 0 0.1486082338690384 0.3505648467494914 0 0.15528228816062489 0.34508264971005792 0 0.14725668152953761 0.34193999621756771 0 0.1486082338690384 0.3505648467494914 0 0.15528228816062489 0.34508264971005792 0 0.13969674867633741 0.35523808521530598 0 0.1486082338690384 0.3505648467494914 0 0.14172063133757409 0.34725169649045412 0 0.14725668152953761 0.34193999621756771 0 0.1486082338690384 0.3505648467494914 0 0.14172063133757409 0.34725169649045412 0 0.13969674867633741 0.35523808521530598 0 0.1495105869734539 0.35921734646312081 0 0.1486082338690384 0.3505648467494914 0 0.13653788492481239 0.40863874894442942 0 0.15916365617097261 0.39447196882667579 0 0.14447992086370831 0.39617177325595948 0 0.13653788492481239 0.40863874894442942 0 0.15916365617097261 0.39447196882667579 0 0.13653788492481239 0.40863874894442942 0 0.15782940942045301 0.40752068434063371 0 0.15916365617097261 0.39447196882667579 0 0.14447992086370831 0.39617177325595948 0 0.14394762980682779 0.38774821003699322 0 0.13439648136334151 0.39463305603476029 0 0.14447992086370831 0.39617177325595948 0 0.14394762980682779 0.38774821003699322 0 0.15916365617097261 0.39447196882667579 0 0.1509803638890907 0.38004468421766019 0 0.14394762980682779 0.38774821003699322 0 0.15916365617097261 0.39447196882667579 0 0.1509803638890907 0.38004468421766019 0 0.14394762980682779 0.38774821003699322 0 0.13998677584502781 0.37590525450197121 0 0.15092874919807919 0.36937232765597949 0 0.1509803638890907 0.38004468421766019 0 0.13998677584502781 0.37590525450197121 0 0.14394762980682779 0.38774821003699322 0 0.13467858070882621 0.38526252338493261 0 0.13998677584502781 0.37590525450197121 0 0.14394762980682779 0.38774821003699322 0 0.13467858070882621 0.38526252338493261 0 0.13439648136334151 0.39463305603476029 0 0.13467858070882621 0.38526252338493261 0 0.13998677584502781 0.37590525450197121 0 0.1280933265969546 0.37722008131990997 0 0.13467858070882621 0.38526252338493261 0 0.1280933265969546 0.37722008131990997 0 0.12903941040184999 0.38732734627014881 0 0.13467858070882621 0.38526252338493261 0 0.12903941040184999 0.38732734627014881 0 0.13439648136334151 0.39463305603476029 0 0.1209310315900711 0.38458545827012591 0 0.1280933265969546 0.37722008131990997 0 0.12903941040184999 0.38732734627014881 0 0.1209310315900711 0.38458545827012591 0 0.12903941040184999 0.38732734627014881 0 0.12709763175005681 0.39493561234101499 0 0.1140243790278805 0.39651055113465411 0 0.13653788492481239 0.40863874894442942 0 0.1140243790278805 0.39651055113465411 0 0.12709763175005681 0.39493561234101499 0 0.13653788492481239 0.40863874894442942 0 0.12903941040184999 0.38732734627014881 0 0.12709763175005681 0.39493561234101499 0 0.13439648136334151 0.39463305603476029 0 0.14447992086370831 0.39617177325595948 0 0.13439648136334151 0.39463305603476029 0 0.13653788492481239 0.40863874894442942 0 0.12709763175005681 0.39493561234101499 0 0.13439648136334151 0.39463305603476029 0 0.13653788492481239 0.40863874894442942 0 0.1236369375486677 0.4079151890727345 0 0.13094074526824981 0.41214331221169209 0 0.13653788492481239 0.40863874894442942 0 0.12143304804051221 0.41494837485089942 0 0.1236369375486677 0.4079151890727345 0 0.13094074526824981 0.41214331221169209 0 0.13094074526824981 0.41214331221169209 0 0.1278624925557624 0.41867858434970912 0 0.1375465322792436 0.41948751884352842 0 0.12143304804051221 0.41494837485089942 0 0.13094074526824981 0.41214331221169209 0 0.1278624925557624 0.41867858434970912 0 0.1278624925557624 0.41867858434970912 0 0.1375465322792436 0.41948751884352842 0 0.13260381304029811 0.42407550281396322 0 0.13094074526824981 0.41214331221169209 0 0.1375465322792436 0.41948751884352842 0 0.13653788492481239 0.40863874894442942 0 0.13094074526824981 0.41214331221169209 0 0.13653788492481239 0.40863874894442942 0 0.1265006224580838 0.43739947353239522 0 0.12772441538723031 0.4325190194286152 0 0.13417835961310121 0.43612158399094342 0 0.1222055225163956 0.43218842266939311 0 0.1265006224580838 0.43739947353239522 0 0.12772441538723031 0.4325190194286152 0 0.1222055225163956 0.43218842266939311 0 0.12772441538723031 0.4325190194286152 0 0.1266918100331631 0.42645261309544819 0 0.12772441538723031 0.4325190194286152 0 0.13209632182347239 0.4298701830378866 0 0.13417835961310121 0.43612158399094342 0 0.13209632182347239 0.4298701830378866 0 0.1266918100331631 0.42645261309544819 0 0.13260381304029811 0.42407550281396322 0 0.12772441538723031 0.4325190194286152 0 0.13209632182347239 0.4298701830378866 0 0.1266918100331631 0.42645261309544819 0 0.122428674592785 0.42158317279996321 0 0.1278624925557624 0.41867858434970912 0 0.1266918100331631 0.42645261309544819 0 0.1278624925557624 0.41867858434970912 0 0.1266918100331631 0.42645261309544819 0 0.13260381304029811 0.42407550281396322 0 0.1375465322792436 0.41948751884352842 0 0.13260381304029811 0.42407550281396322 0 0.1375884035666175 0.428564167226135 0 0.1375465322792436 0.41948751884352842 0 0.1375884035666175 0.428564167226135 0 0.14548142709292031 0.42585787480288312 0 0.13209632182347239 0.4298701830378866 0 0.13260381304029811 0.42407550281396322 0 0.1375884035666175 0.428564167226135 0 0.1375884035666175 0.428564167226135 0 0.13417835961310121 0.43612158399094342 0 0.14362396755066931 0.43597233986760509 0 0.13209632182347239 0.4298701830378866 0 0.1375884035666175 0.428564167226135 0 0.13417835961310121 0.43612158399094342 0 0.1375884035666175 0.428564167226135 0 0.14362396755066931 0.43597233986760509 0 0.14548142709292031 0.42585787480288312 0 0.14362396755066931 0.43597233986760509 0 0.14548142709292031 0.42585787480288312 0 0.1547172427024173 0.43036622199957458 0 0.14548142709292031 0.42585787480288312 0 0.1547172427024173 0.43036622199957458 0 0.15253978103920041 0.41725909276361611 0 0.14362396755066931 0.43597233986760509 0 0.1547172427024173 0.43036622199957458 0 0.15354416173244001 0.4401667780195771 0 0.13653788492481239 0.40863874894442942 0 0.15253978103920041 0.41725909276361611 0 0.13653788492481239 0.40863874894442942 0 0.15253978103920041 0.41725909276361611 0 0.15782940942045301 0.40752068434063371 0 0.1375465322792436 0.41948751884352842 0 0.13653788492481239 0.40863874894442942 0 0.15253978103920041 0.41725909276361611 0 0.1375465322792436 0.41948751884352842 0 0.14548142709292031 0.42585787480288312 0 0.15253978103920041 0.41725909276361611 0 0.15253978103920041 0.41725909276361611 0 0.1685416771535892 0.42587943658280147 0 0.15253978103920041 0.41725909276361611 0 0.15782940942045301 0.40752068434063371 0 0.16766030031479251 0.41315302793974518 0 0.15253978103920041 0.41725909276361611 0 0.16766030031479251 0.41315302793974518 0 0.1685416771535892 0.42587943658280147 0 0.15782940942045301 0.40752068434063371 0 0.1703163661589791 0.40775096658552318 0 0.16766030031479251 0.41315302793974518 0 0.16766030031479251 0.41315302793974518 0 0.1685416771535892 0.42587943658280147 0 0.17938427666869611 0.43117651305316063 0 0.1547172427024173 0.43036622199957458 0 0.15253978103920041 0.41725909276361611 0 0.1685416771535892 0.42587943658280147 0 0.1547172427024173 0.43036622199957458 0 0.1685416771535892 0.42587943658280147 0 0.1648188973144297 0.43629446815308343 0 0.1547172427024173 0.43036622199957458 0 0.1648188973144297 0.43629446815308343 0 0.15354416173244001 0.4401667780195771 0 0.1685416771535892 0.42587943658280147 0 0.1648188973144297 0.43629446815308343 0 0.17346573137780069 0.43761776000400932 0 0.16766030031479251 0.41315302793974518 0 0.17938427666869611 0.43117651305316063 0 0.1685416771535892 0.42587943658280147 0 0.17938427666869611 0.43117651305316063 0 0.17346573137780069 0.43761776000400932 0 0.17938427666869611 0.43117651305316063 0 0.17991121041467201 0.41582251771580891 0 0.1880903968092148 0.42454037049544441 0 0.17938427666869611 0.43117651305316063 0 0.1880903968092148 0.42454037049544441 0 0.1896860583983967 0.43370916860306391 0 0.1703163661589791 0.40775096658552318 0 0.17991121041467201 0.41582251771580891 0 0.1917301525395273 0.41163640006467223 0 0.16766030031479251 0.41315302793974518 0 0.17938427666869611 0.43117651305316063 0 0.17991121041467201 0.41582251771580891 0 0.1703163661589791 0.40775096658552318 0 0.1917301525395273 0.41163640006467223 0 0.1703163661589791 0.40775096658552318 0 0.16766030031479251 0.41315302793974518 0 0.17991121041467201 0.41582251771580891 0 0.17991121041467201 0.41582251771580891 0 0.1917301525395273 0.41163640006467223 0 0.1880903968092148 0.42454037049544441 0 0.18090222485771959 0.39713031353827788 0 0.15916365617097261 0.39447196882667579 0 0.1817894274171345 0.38030518870892482 0 0.1703163661589791 0.40775096658552318 0 0.18090222485771959 0.39713031353827788 0 0.1917301525395273 0.41163640006467223 0 0.1703163661589791 0.40775096658552318 0 0.18090222485771959 0.39713031353827788 0 0.15916365617097261 0.39447196882667579 0 0.15782940942045301 0.40752068434063371 0 0.1703163661589791 0.40775096658552318 0 0.15916365617097261 0.39447196882667579 0 0.1509803638890907 0.38004468421766019 0 0.15916365617097261 0.39447196882667579 0 0.16297802869493691 0.37517451845219979 0 0.15916365617097261 0.39447196882667579 0 0.16297802869493691 0.37517451845219979 0 0.1817894274171345 0.38030518870892482 0 0.15916365617097261 0.39447196882667579 0 0.1817894274171345 0.38030518870892482 0 0.2044151986632963 0.36613840859117369 0 0.1817894274171345 0.38030518870892482 0 0.20151166552585659 0.3786464349504986 0 0.18090222485771959 0.39713031353827788 0 0.1817894274171345 0.38030518870892482 0 0.20151152200198449 0.39148704350559338 0 0.1817894274171345 0.38030518870892482 0 0.20151166552585659 0.3786464349504986 0 0.20151152200198449 0.39148704350559338 0 0.20151152200198449 0.39148704350559338 0 0.21314393892007549 0.41552183354382111 0 0.1917301525395273 0.41163640006467223 0 0.18090222485771959 0.39713031353827788 0 0.20151152200198449 0.39148704350559338 0 0.1917301525395273 0.41163640006467223 0 0.20151152200198449 0.39148704350559338 0 0.2235136011143104 0.39567992712440819 0 0.21314393892007549 0.41552183354382111 0 0.21246947692799881 0.3719525872258449 0 0.2235136011143104 0.39567992712440819 0 0.21246947692799881 0.3719525872258449 0 0.20151152200198449 0.39148704350559338 0 0.2235136011143104 0.39567992712440819 0 0.21246947692799881 0.3719525872258449 0 0.20151166552585659 0.3786464349504986 0 0.20151152200198449 0.39148704350559338 0 0.21246947692799881 0.3719525872258449 0 0.2303515494192592 0.37588407423554782 0 0.2235136011143104 0.39567992712440819 0 0.2303515494192592 0.37588407423554782 0 0.2235136011143104 0.39567992712440819 0 0.24170880391933269 0.38623454309854049 0 0.2235136011143104 0.39567992712440819 0 0.237782570355107 0.40114960963928781 0 0.24170880391933269 0.38623454309854049 0 0.2235136011143104 0.39567992712440819 0 0.237782570355107 0.40114960963928781 0 0.2345577253006236 0.41940726702297088 0 0.237782570355107 0.40114960963928781 0 0.24170880391933269 0.38623454309854049 0 0.25135015108616149 0.40327670131123172 0 0.24170880391933269 0.38623454309854049 0 0.2556952063680451 0.38386696904535539 0 0.25135015108616149 0.40327670131123172 0 0.24653888438195401 0.37346358914553518 0 0.2303515494192592 0.37588407423554782 0 0.24170880391933269 0.38623454309854049 0 0.24653888438195401 0.37346358914553518 0 0.24170880391933269 0.38623454309854049 0 0.2556952063680451 0.38386696904535539 0 0.2345577253006236 0.41940726702297088 0 0.2433069435062806 0.43820420109490621 0 0.25518678493650132 0.42315031542777748 0 0.2345577253006236 0.41940726702297088 0 0.23183948213517469 0.43310157209770889 0 0.2433069435062806 0.43820420109490621 0 0.2345577253006236 0.41940726702297088 0 0.2433069435062806 0.43820420109490621 0 0.237782570355107 0.40114960963928781 0 0.2345577253006236 0.41940726702297088 0 0.25135015108616149 0.40327670131123172 0 0.2345577253006236 0.41940726702297088 0 0.25518678493650132 0.42315031542777748 0 0.25135015108616149 0.40327670131123172 0 0.2345577253006236 0.41940726702297088 0 0.25518678493650132 0.42315031542777748 0 0.2235136011143104 0.39567992712440819 0 0.2345577253006236 0.41940726702297088 0 0.2235136011143104 0.39567992712440819 0 0.2345577253006236 0.41940726702297088 0 0.21314393892007549 0.41552183354382111 0 0.2345577253006236 0.41940726702297088 0 0.21314393892007549 0.41552183354382111 0 0.2345577253006236 0.41940726702297088 0 0.21876273856249501 0.43341095621122461 0 0.21314393892007549 0.41552183354382111 0 0.2345577253006236 0.41940726702297088 0 0.23183948213517469 0.43310157209770889 0 0.21876273856249501 0.43341095621122461 0 0.23183948213517469 0.43310157209770889 0 0.21876273856249501 0.43341095621122461 0 0.2330568259314845 0.44554646961275679 0 0.21876273856249501 0.43341095621122461 0 0.21314393892007549 0.41552183354382111 0 0.2001613070930762 0.42991979269707442 0 0.21876273856249501 0.43341095621122461 0 0.2001613070930762 0.42991979269707442 0 0.20686131526354801 0.44251816667734778 0 0.21314393892007549 0.41552183354382111 0 0.1917301525395273 0.41163640006467223 0 0.21314393892007549 0.41552183354382111 0 0.1917301525395273 0.41163640006467223 0 0.2001613070930762 0.42991979269707442 0 0.1917301525395273 0.41163640006467223 0 0.2001613070930762 0.42991979269707442 0 0.1880903968092148 0.42454037049544441 0 0.2001613070930762 0.42991979269707442 0 0.1880903968092148 0.42454037049544441 0 0.1896860583983967 0.43370916860306391 0 0.19110825302259979 0.44919999816657602 0 0.2054263885261525 0.45445814062951118 0 0.20686131526354801 0.44251816667734778 0 0.2001613070930762 0.42991979269707442 0 0.19110825302259979 0.44919999816657602 0 0.20686131526354801 0.44251816667734778 0 0.2001613070930762 0.42991979269707442 0 0.1896860583983967 0.43370916860306391 0 0.19110825302259979 0.44919999816657602 0 0.19110825302259979 0.44919999816657602 0 0.202832229376504 0.46722348327999103 0 0.17433568754939971 0.46253871787078149 0 0.202832229376504 0.46722348327999103 0 0.18712274534143911 0.47567908493576272 0 0.17433568754939971 0.46253871787078149 0 0.19110825302259979 0.44919999816657602 0 0.202832229376504 0.46722348327999103 0 0.202832229376504 0.46722348327999103 0 0.17433568754939971 0.46253871787078149 0 0.19110825302259979 0.44919999816657602 0 0.202832229376504 0.46722348327999103 0 0.2054263885261525 0.45445814062951118 0 0.202832229376504 0.46722348327999103 0 0.21708059299894489 0.46956588122572041 0 0.202832229376504 0.46722348327999103 0 0.21182185444297999 0.46103986999147539 0 0.21708059299894489 0.46956588122572041 0 0.202832229376504 0.46722348327999103 0 0.2054263885261525 0.45445814062951118 0 0.21182185444297999 0.46103986999147539 0 0.2054263885261525 0.45445814062951118 0 0.21182185444297999 0.46103986999147539 0 0.21556897121155219 0.44984959125037349 0 0.21182185444297999 0.46103986999147539 0 0.21556897121155219 0.44984959125037349 0 0.22032245147458859 0.45918306600819558 0 0.21182185444297999 0.46103986999147539 0 0.22032245147458859 0.45918306600819558 0 0.21708059299894489 0.46956588122572041 0 0.21876273856249501 0.43341095621122461 0 0.20686131526354801 0.44251816667734778 0 0.21556897121155219 0.44984959125037349 0 0.2054263885261525 0.45445814062951118 0 0.20686131526354801 0.44251816667734778 0 0.21556897121155219 0.44984959125037349 0 0.21876273856249501 0.43341095621122461 0 0.21556897121155219 0.44984959125037349 0 0.2330568259314845 0.44554646961275679 0 0.21556897121155219 0.44984959125037349 0 0.2330568259314845 0.44554646961275679 0 0.22032245147458859 0.45918306600819558 0 0.2330568259314845 0.44554646961275679 0 0.22514469347440269 0.46745392417885911 0 0.2330568259314845 0.44554646961275679 0 0.22032245147458859 0.45918306600819558 0 0.22514469347440269 0.46745392417885911 0 0.2330568259314845 0.44554646961275679 0 0.22514469347440269 0.46745392417885911 0 0.2401234601966469 0.46031849031141853 0 0.22032245147458859 0.45918306600819558 0 0.22514469347440269 0.46745392417885911 0 0.21708059299894489 0.46956588122572041 0 0.2401234601966469 0.46031849031141853 0 0.24934609946196951 0.44939437401392812 0 0.25548302501487369 0.46602845938910809 0 0.22514469347440269 0.46745392417885911 0 0.2401234601966469 0.46031849031141853 0 0.24016389067191399 0.47333711593539551 0 0.2401234601966469 0.46031849031141853 0 0.24016389067191399 0.47333711593539551 0 0.25548302501487369 0.46602845938910809 0 0.2330568259314845 0.44554646961275679 0 0.24934609946196951 0.44939437401392812 0 0.2433069435062806 0.43820420109490621 0 0.2330568259314845 0.44554646961275679 0 0.2401234601966469 0.46031849031141853 0 0.24934609946196951 0.44939437401392812 0 0.24934609946196951 0.44939437401392812 0 0.2433069435062806 0.43820420109490621 0 0.25657020209691261 0.4363073245030949 0 0.23183948213517469 0.43310157209770889 0 0.2330568259314845 0.44554646961275679 0 0.2433069435062806 0.43820420109490621 0 0.24868927653467349 0.5 0 0.2317546194840461 0.49100622959802881 0 0.2241528066439176 0.499999999999998 0 0.24868927653467349 0.5 0 0.23885091342229189 0.4846947694858364 0 0.2317546194840461 0.49100622959802881 0 0.24868927653467349 0.5 0 0.23885091342229189 0.4846947694858364 0 0.25400721293082079 0.48339841047847848 0 0.24016389067191399 0.47333711593539551 0 0.25400721293082079 0.48339841047847848 0 0.25548302501487369 0.46602845938910809 0 0.23885091342229189 0.4846947694858364 0 0.24016389067191399 0.47333711593539551 0 0.25400721293082079 0.48339841047847848 0 0.23885091342229189 0.4846947694858364 0 0.24016389067191399 0.47333711593539551 0 0.22984753980202649 0.48097499975934588 0 0.22514469347440269 0.46745392417885911 0 0.21723256101732061 0.48936137874496127 0 0.21708059299894489 0.46956588122572041 0 0.22514469347440269 0.46745392417885911 0 0.21723256101732061 0.48936137874496127 0 0.22514469347440269 0.46745392417885911 0 0.22984753980202649 0.48097499975934588 0 0.21723256101732061 0.48936137874496127 0 0.22514469347440269 0.46745392417885911 0 0.24016389067191399 0.47333711593539551 0 0.22984753980202649 0.48097499975934588 0 0.22984753980202649 0.48097499975934588 0 0.2317546194840461 0.49100622959802881 0 0.21723256101732061 0.48936137874496127 0 0.23885091342229189 0.4846947694858364 0 0.22984753980202649 0.48097499975934588 0 0.2317546194840461 0.49100622959802881 0 0.2241528066439176 0.499999999999998 0 0.21723256101732061 0.48936137874496127 0 0.2317546194840461 0.49100622959802881 0 0.2241528066439176 0.499999999999998 0 0.21723256101732061 0.48936137874496127 0 0.2241528066439176 0.499999999999998 0 0.21339029900205189 0.49999999999999861 0 0.21723256101732061 0.48936137874496127 0 0.21339029900205189 0.49999999999999861 0 0.21723256101732061 0.48936137874496127 0 0.19884097375665441 0.48873219220183389 0 0.21339029900205189 0.49999999999999861 0 0.21723256101732061 0.48936137874496127 0 0.21723256101732061 0.48936137874496127 0 0.2015071273729796 0.48024903479063719 0 0.19884097375665441 0.48873219220183389 0 0.202832229376504 0.46722348327999103 0 0.21723256101732061 0.48936137874496127 0 0.21708059299894489 0.46956588122572041 0 0.202832229376504 0.46722348327999103 0 0.21723256101732061 0.48936137874496127 0 0.2015071273729796 0.48024903479063719 0 0.202832229376504 0.46722348327999103 0 0.21723256101732061 0.48936137874496127 0 0.202832229376504 0.46722348327999103 0 0.2015071273729796 0.48024903479063719 0 0.18712274534143911 0.47567908493576272 0 0.19884097375665441 0.48873219220183389 0 0.179959686038486 0.48663466737278799 0 0.18712274534143911 0.47567908493576272 0 0.2015071273729796 0.48024903479063719 0 0.19884097375665441 0.48873219220183389 0 0.18712274534143911 0.47567908493576272 0 0.21339029900205189 0.49999999999999861 0 0.19884097375665441 0.48873219220183389 0 0.18367874122868361 0.5 0 0.19884097375665441 0.48873219220183389 0 0.18367874122868361 0.5 0 0.179959686038486 0.48663466737278799 0 0.18367874122868361 0.5 0 0.179959686038486 0.48663466737278799 0 0.15396718345531529 0.5 0 0.16966337292403769 0.47733684913445928 0 0.15396718345531529 0.5 0 0.15202304578310599 0.48217947956811258 0 0.179959686038486 0.48663466737278799 0 0.16966337292403769 0.47733684913445928 0 0.15396718345531529 0.5 0 0.16966337292403769 0.47733684913445928 0 0.14425135222755719 0.46760984950567192 0 0.16966337292403769 0.47733684913445928 0 0.15852238960582241 0.46633484224312149 0 0.14425135222755719 0.46760984950567192 0 0.179959686038486 0.48663466737278799 0 0.16966337292403769 0.47733684913445928 0 0.18712274534143911 0.47567908493576272 0 0.16966337292403769 0.47733684913445928 0 0.18712274534143911 0.47567908493576272 0 0.17433568754939971 0.46253871787078149 0 0.17938427666869611 0.43117651305316063 0 0.1896860583983967 0.43370916860306391 0 0.19110825302259979 0.44919999816657602 0 0.17938427666869611 0.43117651305316063 0 0.19110825302259979 0.44919999816657602 0 0.19110825302259979 0.44919999816657602 0 0.17224834025836511 0.44758187456296478 0 0.17346573137780069 0.43761776000400932 0 0.17938427666869611 0.43117651305316063 0 0.19110825302259979 0.44919999816657602 0 0.17346573137780069 0.43761776000400932 0 0.19110825302259979 0.44919999816657602 0 0.17433568754939971 0.46253871787078149 0 0.17224834025836511 0.44758187456296478 0 0.1648188973144297 0.43629446815308343 0 0.17224834025836511 0.44758187456296478 0 0.16163837731418429 0.44560935898097559 0 0.1648188973144297 0.43629446815308343 0 0.17224834025836511 0.44758187456296478 0 0.17346573137780069 0.43761776000400932 0 0.17224834025836511 0.44758187456296478 0 0.1670679236550755 0.45246282178606961 0 0.16163837731418429 0.44560935898097559 0 0.1670679236550755 0.45246282178606961 0 0.16163837731418429 0.44560935898097559 0 0.1600492894983529 0.45412133572955632 0 0.16163837731418429 0.44560935898097559 0 0.1600492894983529 0.45412133572955632 0 0.1503101419341086 0.4503737051320878 0 0.1648188973144297 0.43629446815308343 0 0.16163837731418429 0.44560935898097559 0 0.15354416173244001 0.4401667780195771 0 0.17433568754939971 0.46253871787078149 0 0.14583914572229509 0.45785395246157318 0 0.17433568754939971 0.46253871787078149 0 0.1600492894983529 0.45412133572955632 0 0.14583914572229509 0.45785395246157318 0 0.16966337292403769 0.47733684913445928 0 0.17433568754939971 0.46253871787078149 0 0.15852238960582241 0.46633484224312149 0 0.17433568754939971 0.46253871787078149 0 0.15852238960582241 0.46633484224312149 0 0.14583914572229509 0.45785395246157318 0 0.17433568754939971 0.46253871787078149 0 0.17224834025836511 0.44758187456296478 0 0.1670679236550755 0.45246282178606961 0 0.17433568754939971 0.46253871787078149 0 0.1670679236550755 0.45246282178606961 0 0.1600492894983529 0.45412133572955632 0 0.15852238960582241 0.46633484224312149 0 0.14583914572229509 0.45785395246157318 0 0.14425135222755719 0.46760984950567192 0 0.1600492894983529 0.45412133572955632 0 0.14583914572229509 0.45785395246157318 0 0.1503101419341086 0.4503737051320878 0 0.15354416173244001 0.4401667780195771 0 0.1503101419341086 0.4503737051320878 0 0.14410616956296191 0.44488154650171108 0 0.16163837731418429 0.44560935898097559 0 0.15354416173244001 0.4401667780195771 0 0.1503101419341086 0.4503737051320878 0 0.14583914572229509 0.45785395246157318 0 0.1503101419341086 0.4503737051320878 0 0.14183644989740571 0.44948160151429661 0 0.1503101419341086 0.4503737051320878 0 0.14183644989740571 0.44948160151429661 0 0.14410616956296191 0.44488154650171108 0 0.14183644989740571 0.44948160151429661 0 0.14410616956296191 0.44488154650171108 0 0.13700474004843749 0.44360808251580081 0 0.14362396755066931 0.43597233986760509 0 0.15354416173244001 0.4401667780195771 0 0.14410616956296191 0.44488154650171108 0 0.14362396755066931 0.43597233986760509 0 0.14410616956296191 0.44488154650171108 0 0.13700474004843749 0.44360808251580081 0 0.13417835961310121 0.43612158399094342 0 0.13700474004843749 0.44360808251580081 0 0.12907535236810691 0.44263310498920122 0 0.13417835961310121 0.43612158399094342 0 0.14362396755066931 0.43597233986760509 0 0.13700474004843749 0.44360808251580081 0 0.14183644989740571 0.44948160151429661 0 0.13700474004843749 0.44360808251580081 0 0.13192205221922509 0.45069072096030999 0 0.14583914572229509 0.45785395246157318 0 0.14183644989740571 0.44948160151429661 0 0.13192205221922509 0.45069072096030999 0 0.13700474004843749 0.44360808251580081 0 0.13192205221922509 0.45069072096030999 0 0.12907535236810691 0.44263310498920122 0 0.124398542981994 0.44624595502973408 0 0.13192205221922509 0.45069072096030999 0 0.12907535236810691 0.44263310498920122 0 0.124398542981994 0.44624595502973408 0 0.1229810651405317 0.44933989502595689 0 0.13192205221922509 0.45069072096030999 0 0.1215896831021416 0.44003275686815041 0 0.124398542981994 0.44624595502973408 0 0.12907535236810691 0.44263310498920122 0 0.1215896831021416 0.44003275686815041 0 0.1265006224580838 0.43739947353239522 0 0.12907535236810691 0.44263310498920122 0 0.1265006224580838 0.43739947353239522 0 0.13417835961310121 0.43612158399094342 0 0.12907535236810691 0.44263310498920122 0 0.1188393315310767 0.45788284987688449 0 0.14583914572229509 0.45785395246157318 0 0.14425135222755719 0.46760984950567192 0 0.1244793495774149 0.46790780246490787 0 0.1188393315310767 0.45788284987688449 0 0.14425135222755719 0.46760984950567192 0 0.11734260389519061 0.45316918705236492 0 0.14583914572229509 0.45785395246157318 0 0.1188393315310767 0.45788284987688449 0 0.14425135222755719 0.46760984950567192 0 0.11734260389519061 0.45316918705236492 0 0.1188393315310767 0.45788284987688449 0 0.14583914572229509 0.45785395246157318 0 0.11734260389519061 0.45316918705236492 0 0.14583914572229509 0.45785395246157318 0 0.13192205221922509 0.45069072096030999 0 0.1247454383765309 0.48038151532629431 0 0.1244793495774149 0.46790780246490787 0 0.13342160367675421 0.47491759673229839 0 0.1244793495774149 0.46790780246490787 0 0.14425135222755719 0.46760984950567192 0 0.13342160367675421 0.47491759673229839 0 0.14425135222755719 0.46760984950567192 0 0.13342160367675421 0.47491759673229839 0 0.1402102745255136 0.4837712196323195 0 0.1247454383765309 0.48038151532629431 0 0.13342160367675421 0.47491759673229839 0 0.1402102745255136 0.4837712196323195 0 0.12425562568194699 0.5 0 0.1402102745255136 0.4837712196323195 0 0.15396718345531529 0.5 0 0.12425562568194699 0.5 0 0.1247454383765309 0.48038151532629431 0 0.1402102745255136 0.4837712196323195 0 0.1402102745255136 0.4837712196323195 0 0.15396718345531529 0.5 0 0.15202304578310599 0.48217947956811258 0 0.16966337292403769 0.47733684913445928 0 0.14425135222755719 0.46760984950567192 0 0.15202304578310599 0.48217947956811258 0 0.14425135222755719 0.46760984950567192 0 0.1402102745255136 0.4837712196323195 0 0.15202304578310599 0.48217947956811258 0 0.36060514261377552 0.46811496206060221 0 0.33691760844310559 0.46563777681798008 0 0.34145191441035849 0.48405748103030127 0 0.36476383865284812 0.48692827439718361 0 0.36060514261377552 0.46811496206060221 0 0.34145191441035849 0.48405748103030127 0 0.36060514261377552 0.46811496206060221 0 0.34145191441035849 0.48405748103030127 0 0.35060878783754418 0.5 0 0.36476383865284812 0.48692827439718361 0 0.34145191441035849 0.48405748103030127 0 0.35060878783754418 0.5 0 0.36476383865284812 0.48692827439718361 0 0.37891888946814728 0.50000000000000244 0 0.36476383865284812 0.48692827439718361 0 0.37998895414337919 0.4751771938420204 0 0.37891888946814728 0.50000000000000244 0 0.36476383865284812 0.48692827439718361 0 0.36060514261377552 0.46811496206060221 0 0.37998895414337919 0.4751771938420204 0 0.36060514261377552 0.46811496206060221 0 0.37975837081719249 0.4521724430909031 0 0.37998895414337919 0.4751771938420204 0 0.36060514261377552 0.46811496206060221 0 0.3636144052830419 0.44679468724494759 0 0.37975837081719249 0.4521724430909031 0 0.36060514261377552 0.46811496206060221 0 0.37975837081719249 0.4521724430909031 0 0.3636144052830419 0.44679468724494759 0 0.36991230095174382 0.4310731343881733 0 0.37960902688801779 0.43901969975997629 0 0.3636144052830419 0.44679468724494759 0 0.37975837081719249 0.4521724430909031 0 0.37960902688801779 0.43901969975997629 0 0.3636144052830419 0.44679468724494759 0 0.34399967504104367 0.44791411548447119 0 0.35503569972110333 0.432766096774168 0 0.36060514261377552 0.46811496206060221 0 0.34399967504104367 0.44791411548447119 0 0.33691760844310559 0.46563777681798008 0 0.36060514261377552 0.46811496206060221 0 0.3636144052830419 0.44679468724494759 0 0.34399967504104367 0.44791411548447119 0 0.34399967504104367 0.44791411548447119 0 0.33691760844310559 0.46563777681798008 0 0.32605903037676381 0.45519395633645549 0 0.34399967504104367 0.44791411548447119 0 0.32166320228326972 0.44040223680186991 0 0.32605903037676381 0.45519395633645549 0 0.34399967504104367 0.44791411548447119 0 0.32166320228326972 0.44040223680186991 0 0.33664454005216121 0.42998054301358152 0 0.32166320228326972 0.44040223680186991 0 0.32605903037676381 0.45519395633645549 0 0.30917180746584683 0.45433236563959811 0 0.33691760844310559 0.46563777681798008 0 0.32605903037676381 0.45519395633645549 0 0.31854285865055298 0.46768328693835798 0 0.32605903037676381 0.45519395633645549 0 0.31854285865055298 0.46768328693835798 0 0.30917180746584683 0.45433236563959811 0 0.33691760844310559 0.46563777681798008 0 0.31854285865055298 0.46768328693835798 0 0.32490368375302492 0.48024595693141359 0 0.31854285865055298 0.46768328693835798 0 0.32490368375302492 0.48024595693141359 0 0.30547422382052591 0.47723745293052711 0 0.33691760844310559 0.46563777681798008 0 0.32490368375302492 0.48024595693141359 0 0.34145191441035849 0.48405748103030127 0 0.35060878783754418 0.5 0 0.34145191441035849 0.48405748103030127 0 0.32229868620694119 0.50000000000000033 0 0.32490368375302492 0.48024595693141359 0 0.34145191441035849 0.48405748103030127 0 0.32229868620694119 0.50000000000000033 0 0.34145191441035849 0.48405748103030127 0 0.32229868620694119 0.50000000000000033 0 0.32490368375302492 0.48024595693141359 0 0.32229868620694119 0.50000000000000033 0 0.30547422382052591 0.47723745293052711 0 0.32229868620694119 0.50000000000000033 0 0.29776221631618532 0.5 0 0.30547422382052591 0.47723745293052711 0 0.30547422382052591 0.47723745293052711 0 0.27661634943003321 0.47767716520874659 0 0.29013799441471411 0.45889723348643052 0 0.29776221631618532 0.5 0 0.30547422382052591 0.47723745293052711 0 0.27661634943003321 0.47767716520874659 0 0.29776221631618532 0.5 0 0.27322574642542929 0.5 0 0.27661634943003321 0.47767716520874659 0 0.27322574642542929 0.5 0 0.27661634943003321 0.47767716520874659 0 0.25400721293082079 0.48339841047847848 0 0.27661634943003321 0.47767716520874659 0 0.25400721293082079 0.48339841047847848 0 0.25548302501487369 0.46602845938910809 0 0.24868927653467349 0.5 0 0.27322574642542929 0.5 0 0.25400721293082079 0.48339841047847848 0 0.24934609946196951 0.44939437401392812 0 0.26523267375125592 0.44735792041654598 0 0.25657020209691261 0.4363073245030949 0 0.24934609946196951 0.44939437401392812 0 0.26523267375125592 0.44735792041654598 0 0.25548302501487369 0.46602845938910809 0 0.26523267375125592 0.44735792041654598 0 0.25548302501487369 0.46602845938910809 0 0.27145633656003409 0.46079586638597569 0 0.27661634943003321 0.47767716520874659 0 0.27145633656003409 0.46079586638597569 0 0.29013799441471411 0.45889723348643052 0 0.27661634943003321 0.47767716520874659 0 0.25548302501487369 0.46602845938910809 0 0.27145633656003409 0.46079586638597569 0 0.26523267375125592 0.44735792041654598 0 0.27145633656003409 0.46079586638597569 0 0.28216863094666988 0.44387509110376722 0 0.26523267375125592 0.44735792041654598 0 0.28216863094666988 0.44387509110376722 0 0.27581584457237879 0.42689336383258492 0 0.28216863094666988 0.44387509110376722 0 0.29013799441471411 0.45889723348643052 0 0.29968730643125291 0.4351463793250277 0 0.27145633656003409 0.46079586638597569 0 0.28216863094666988 0.44387509110376722 0 0.29013799441471411 0.45889723348643052 0 0.30547422382052591 0.47723745293052711 0 0.29013799441471411 0.45889723348643052 0 0.30917180746584683 0.45433236563959811 0 0.31854285865055298 0.46768328693835798 0 0.30547422382052591 0.47723745293052711 0 0.30917180746584683 0.45433236563959811 0 0.32166320228326972 0.44040223680186991 0 0.30917180746584683 0.45433236563959811 0 0.29968730643125291 0.4351463793250277 0 0.29013799441471411 0.45889723348643052 0 0.30917180746584683 0.45433236563959811 0 0.29968730643125291 0.4351463793250277 0 0.29968730643125291 0.4351463793250277 0 0.30864669118090948 0.41383401410955978 0 0.31887799247608639 0.42529410181579907 0 0.29968730643125291 0.4351463793250277 0 0.30864669118090948 0.41383401410955978 0 0.29226504118239433 0.41846191722748077 0 0.30864669118090948 0.41383401410955978 0 0.29226504118239433 0.41846191722748077 0 0.29901954636349382 0.40119026007031372 0 0.29226504118239433 0.41846191722748077 0 0.27581584457237879 0.42689336383258492 0 0.28192463512690258 0.40508036333332098 0 0.29226504118239433 0.41846191722748077 0 0.28192463512690258 0.40508036333332098 0 0.29901954636349382 0.40119026007031372 0 0.29968730643125291 0.4351463793250277 0 0.29226504118239433 0.41846191722748077 0 0.27581584457237879 0.42689336383258492 0 0.28216863094666988 0.44387509110376722 0 0.29968730643125291 0.4351463793250277 0 0.27581584457237879 0.42689336383258492 0 0.26523267375125592 0.44735792041654598 0 0.27581584457237879 0.42689336383258492 0 0.25657020209691261 0.4363073245030949 0 0.27581584457237879 0.42689336383258492 0 0.26638774403779841 0.41041151085089761 0 0.25518678493650132 0.42315031542777748 0 0.27581584457237879 0.42689336383258492 0 0.26638774403779841 0.41041151085089761 0 0.28192463512690258 0.40508036333332098 0 0.26638774403779841 0.41041151085089761 0 0.25518678493650132 0.42315031542777748 0 0.25135015108616149 0.40327670131123172 0 0.27581584457237879 0.42689336383258492 0 0.25518678493650132 0.42315031542777748 0 0.27581584457237879 0.42689336383258492 0 0.25518678493650132 0.42315031542777748 0 0.25657020209691261 0.4363073245030949 0 0.2433069435062806 0.43820420109490621 0 0.25518678493650132 0.42315031542777748 0 0.25657020209691261 0.4363073245030949 0 0.2556952063680451 0.38386696904535539 0 0.26766130446704789 0.39365681034957301 0 0.26822994145482593 0.37598957834156832 0 0.2556952063680451 0.38386696904535539 0 0.26822994145482593 0.37598957834156832 0 0.25868215289894841 0.37058059202568427 0 0.24653888438195401 0.37346358914553518 0 0.2556952063680451 0.38386696904535539 0 0.25868215289894841 0.37058059202568427 0 0.26638774403779841 0.41041151085089761 0 0.25135015108616149 0.40327670131123172 0 0.26766130446704789 0.39365681034957301 0 0.2556952063680451 0.38386696904535539 0 0.25135015108616149 0.40327670131123172 0 0.26766130446704789 0.39365681034957301 0 0.26638774403779841 0.41041151085089761 0 0.26766130446704789 0.39365681034957301 0 0.28192463512690258 0.40508036333332098 0 0.26766130446704789 0.39365681034957301 0 0.28225520493925021 0.38585317945115127 0 0.28192463512690258 0.40508036333332098 0 0.26766130446704789 0.39365681034957301 0 0.26822994145482593 0.37598957834156832 0 0.28225520493925021 0.38585317945115127 0 0.26822994145482593 0.37598957834156832 0 0.28225520493925021 0.38585317945115127 0 0.27887930539968853 0.36711064423996409 0 0.28225520493925021 0.38585317945115127 0 0.29889531817865722 0.38579792108570859 0 0.2967707753374314 0.37004279375307197 0 0.28225520493925021 0.38585317945115127 0 0.29901954636349382 0.40119026007031372 0 0.29889531817865722 0.38579792108570859 0 0.28225520493925021 0.38585317945115127 0 0.28192463512690258 0.40508036333332098 0 0.29901954636349382 0.40119026007031372 0 0.30864669118090948 0.41383401410955978 0 0.29901954636349382 0.40119026007031372 0 0.31982947416377322 0.40365885011308728 0 0.29901954636349382 0.40119026007031372 0 0.3138174906644759 0.39048837051818641 0 0.31982947416377322 0.40365885011308728 0 0.29901954636349382 0.40119026007031372 0 0.29889531817865722 0.38579792108570859 0 0.3138174906644759 0.39048837051818641 0 0.29889531817865722 0.38579792108570859 0 0.30894502245977529 0.37860389421856461 0 0.2967707753374314 0.37004279375307197 0 0.29889531817865722 0.38579792108570859 0 0.30894502245977529 0.37860389421856461 0 0.3138174906644759 0.39048837051818641 0 0.30894502245977529 0.37860389421856461 0 0.3138174906644759 0.39048837051818641 0 0.324767393942194 0.37905302083012948 0 0.3138174906644759 0.39048837051818641 0 0.324767393942194 0.37905302083012948 0 0.33131024611220827 0.3950845197087105 0 0.324767393942194 0.37905302083012948 0 0.34062010001180748 0.38313439718543152 0 0.33131024611220827 0.3950845197087105 0 0.324767393942194 0.37905302083012948 0 0.34062010001180748 0.38313439718543152 0 0.33713871532412309 0.37153539477519482 0 0.34062010001180748 0.38313439718543152 0 0.33131024611220827 0.3950845197087105 0 0.3453626099945129 0.39263595471542317 0 0.34062010001180748 0.38313439718543152 0 0.34951130027900251 0.37577069412301051 0 0.33713871532412309 0.37153539477519482 0 0.33131024611220827 0.3950845197087105 0 0.32962684517861018 0.41431797763616152 0 0.34592728946356349 0.40424909108063423 0 0.33131024611220827 0.3950845197087105 0 0.3453626099945129 0.39263595471542317 0 0.34592728946356349 0.40424909108063423 0 0.3138174906644759 0.39048837051818641 0 0.33131024611220827 0.3950845197087105 0 0.31982947416377322 0.40365885011308728 0 0.33131024611220827 0.3950845197087105 0 0.31982947416377322 0.40365885011308728 0 0.32962684517861018 0.41431797763616152 0 0.30864669118090948 0.41383401410955978 0 0.31982947416377322 0.40365885011308728 0 0.32962684517861018 0.41431797763616152 0 0.30864669118090948 0.41383401410955978 0 0.31887799247608639 0.42529410181579907 0 0.32962684517861018 0.41431797763616152 0 0.32166320228326972 0.44040223680186991 0 0.31887799247608639 0.42529410181579907 0 0.33664454005216121 0.42998054301358152 0 0.32166320228326972 0.44040223680186991 0 0.29968730643125291 0.4351463793250277 0 0.31887799247608639 0.42529410181579907 0 0.31887799247608639 0.42529410181579907 0 0.33664454005216121 0.42998054301358152 0 0.32962684517861018 0.41431797763616152 0 0.33664454005216121 0.42998054301358152 0 0.32962684517861018 0.41431797763616152 0 0.34916530638956911 0.41801768456679228 0 0.32962684517861018 0.41431797763616152 0 0.34916530638956911 0.41801768456679228 0 0.34592728946356349 0.40424909108063423 0 0.34916530638956911 0.41801768456679228 0 0.3631759860134241 0.40694551203187862 0 0.34592728946356349 0.40424909108063423 0 0.34916530638956911 0.41801768456679228 0 0.3631759860134241 0.40694551203187862 0 0.36328152447317708 0.42000590794169779 0 0.34399967504104367 0.44791411548447119 0 0.33664454005216121 0.42998054301358152 0 0.35503569972110333 0.432766096774168 0 0.33664454005216121 0.42998054301358152 0 0.34916530638956911 0.41801768456679228 0 0.35503569972110333 0.432766096774168 0 0.34916530638956911 0.41801768456679228 0 0.35503569972110333 0.432766096774168 0 0.36328152447317708 0.42000590794169779 0 0.36991230095174382 0.4310731343881733 0 0.36328152447317708 0.42000590794169779 0 0.38607477727830308 0.41478578845014358 0 0.3636144052830419 0.44679468724494759 0 0.35503569972110333 0.432766096774168 0 0.36991230095174382 0.4310731343881733 0 0.35503569972110333 0.432766096774168 0 0.36991230095174382 0.4310731343881733 0 0.36328152447317708 0.42000590794169779 0 0.3631759860134241 0.40694551203187862 0 0.37379874889456249 0.40161552675933948 0 0.38607477727830308 0.41478578845014358 0 0.3631759860134241 0.40694551203187862 0 0.36328152447317708 0.42000590794169779 0 0.38607477727830308 0.41478578845014358 0 0.3631759860134241 0.40694551203187862 0 0.37379874889456249 0.40161552675933948 0 0.36612114056116157 0.39374635160519089 0 0.3631759860134241 0.40694551203187862 0 0.36612114056116157 0.39374635160519089 0 0.35558806234955659 0.3974444311664006 0 0.37379874889456249 0.40161552675933948 0 0.36612114056116157 0.39374635160519089 0 0.37982309172536127 0.39098445495014511 0 0.36612114056116157 0.39374635160519089 0 0.3629644650463052 0.37762479443786312 0 0.37982309172536127 0.39098445495014511 0 0.36612114056116157 0.39374635160519089 0 0.3629644650463052 0.37762479443786312 0 0.35468392422812173 0.3875483130819995 0 0.3629644650463052 0.37762479443786312 0 0.37357140617241957 0.36718312145014648 0 0.37982309172536127 0.39098445495014511 0 0.3629644650463052 0.37762479443786312 0 0.35468392422812173 0.3875483130819995 0 0.34951130027900251 0.37577069412301051 0 0.34062010001180748 0.38313439718543152 0 0.35468392422812173 0.3875483130819995 0 0.34951130027900251 0.37577069412301051 0 0.34062010001180748 0.38313439718543152 0 0.35468392422812173 0.3875483130819995 0 0.3453626099945129 0.39263595471542317 0 0.3453626099945129 0.39263595471542317 0 0.34592728946356349 0.40424909108063423 0 0.35558806234955659 0.3974444311664006 0 0.3631759860134241 0.40694551203187862 0 0.34592728946356349 0.40424909108063423 0 0.35558806234955659 0.3974444311664006 0 0.36612114056116157 0.39374635160519089 0 0.35468392422812173 0.3875483130819995 0 0.35558806234955659 0.3974444311664006 0 0.35468392422812173 0.3875483130819995 0 0.3453626099945129 0.39263595471542317 0 0.35558806234955659 0.3974444311664006 0 0.34831003664583837 0.34995845970604422 0 0.35955762982039141 0.34338171621056279 0 0.33203009783282922 0.34347859898742861 0 0.35678580581456348 0.35124815094646239 0 0.35098653296369131 0.35725388825957949 0 0.36141834976596482 0.36061132039512911 0 0.35678580581456348 0.35124815094646239 0 0.34831003664583837 0.34995845970604422 0 0.35098653296369131 0.35725388825957949 0 0.35678580581456348 0.35124815094646239 0 0.34831003664583837 0.34995845970604422 0 0.35955762982039141 0.34338171621056279 0 0.35678580581456348 0.35124815094646239 0 0.35955762982039141 0.34338171621056279 0 0.35098653296369131 0.35725388825957949 0 0.34462725474717981 0.36433603712797608 0 0.34219011679771638 0.35442994412618678 0 0.34831003664583837 0.34995845970604422 0 0.35098653296369131 0.35725388825957949 0 0.34219011679771638 0.35442994412618678 0 0.35098653296369131 0.35725388825957949 0 0.34462725474717981 0.36433603712797608 0 0.35290098033724637 0.36591841038506739 0 0.3629644650463052 0.37762479443786312 0 0.35290098033724637 0.36591841038506739 0 0.36141834976596482 0.36061132039512911 0 0.34951130027900251 0.37577069412301051 0 0.34462725474717981 0.36433603712797608 0 0.33713871532412309 0.37153539477519482 0 0.34951130027900251 0.37577069412301051 0 0.34462725474717981 0.36433603712797608 0 0.35290098033724637 0.36591841038506739 0 0.3629644650463052 0.37762479443786312 0 0.34951130027900251 0.37577069412301051 0 0.35290098033724637 0.36591841038506739 0 0.35098653296369131 0.35725388825957949 0 0.35290098033724637 0.36591841038506739 0 0.36141834976596482 0.36061132039512911 0 0.3629644650463052 0.37762479443786312 0 0.37357140617241957 0.36718312145014648 0 0.36141834976596482 0.36061132039512911 0 0.35678580581456348 0.35124815094646239 0 0.36141834976596482 0.36061132039512911 0 0.36742536691436151 0.34335402581617369 0 0.37357140617241957 0.36718312145014648 0 0.36742536691436151 0.34335402581617369 0 0.37357140617241957 0.36718312145014648 0 0.36141834976596482 0.36061132039512911 0 0.36742536691436151 0.34335402581617369 0 0.37357140617241957 0.36718312145014648 0 0.36742536691436151 0.34335402581617369 0 0.37705885677686402 0.34802478277143373 0 0.35678580581456348 0.35124815094646239 0 0.36742536691436151 0.34335402581617369 0 0.35955762982039141 0.34338171621056279 0 0.36742536691436151 0.34335402581617369 0 0.37024984897477742 0.3346375532621817 0 0.36400470723331729 0.33076091338875169 0 0.36742536691436151 0.34335402581617369 0 0.37024984897477742 0.3346375532621817 0 0.37562048186836272 0.33698045384266889 0 0.36742536691436151 0.34335402581617369 0 0.37562048186836272 0.33698045384266889 0 0.37705885677686402 0.34802478277143373 0 0.37024984897477742 0.3346375532621817 0 0.36400470723331729 0.33076091338875169 0 0.37406167390447881 0.3274544228833185 0 0.37024984897477742 0.3346375532621817 0 0.37406167390447881 0.3274544228833185 0 0.37562048186836272 0.33698045384266889 0 0.36742536691436151 0.34335402581617369 0 0.36400470723331729 0.33076091338875169 0 0.36400470723331729 0.33076091338875169 0 0.35955762982039141 0.34338171621056279 0 0.35500850325027677 0.33468489238247812 0 0.36400470723331729 0.33076091338875169 0 0.35955762982039141 0.34338171621056279 0 0.36742536691436151 0.34335402581617369 0 0.36400470723331729 0.33076091338875169 0 0.35955762982039141 0.34338171621056279 0 0.36742536691436151 0.34335402581617369 0 0.35955762982039141 0.34338171621056279 0 0.36400470723331729 0.33076091338875169 0 0.36987104182985742 0.31411225959773248 0 0.36400470723331729 0.33076091338875169 0 0.36987104182985742 0.31411225959773248 0 0.37171991395950832 0.32150651330000279 0 0.36987104182985742 0.31411225959773248 0 0.36159323701479512 0.32157999627283113 0 0.34910571625683001 0.30439499195562197 0 0.36400470723331729 0.33076091338875169 0 0.36987104182985742 0.31411225959773248 0 0.36159323701479512 0.32157999627283113 0 0.36987104182985742 0.31411225959773248 0 0.37236793078022012 0.31528069483935561 0 0.37888721078459908 0.3130509633099946 0 0.36987104182985742 0.31411225959773248 0 0.37236793078022012 0.31528069483935561 0 0.37236793078022012 0.31528069483935561 0 0.37171991395950832 0.32150651330000279 0 0.37829421604966718 0.31992427579085542 0 0.36987104182985742 0.31411225959773248 0 0.37236793078022012 0.31528069483935561 0 0.37171991395950832 0.32150651330000279 0 0.36400470723331729 0.33076091338875169 0 0.37171991395950832 0.32150651330000279 0 0.37406167390447881 0.3274544228833185 0 0.37171991395950832 0.32150651330000279 0 0.37406167390447881 0.3274544228833185 0 0.37829421604966718 0.31992427579085542 0 0.36400470723331729 0.33076091338875169 0 0.36159323701479512 0.32157999627283113 0 0.36400470723331729 0.33076091338875169 0 0.36159323701479512 0.32157999627283113 0 0.35341971752540902 0.32567984263489902 0 0.36159323701479512 0.32157999627283113 0 0.34840910771359901 0.31803072828422252 0 0.34910571625683001 0.30439499195562197 0 0.36159323701479512 0.32157999627283113 0 0.35341971752540902 0.32567984263489902 0 0.34840910771359901 0.31803072828422252 0 0.34840910771359901 0.31803072828422252 0 0.34550696215680909 0.33051027313453912 0 0.3378249513962453 0.32053250245062598 0 0.35341971752540902 0.32567984263489902 0 0.34840910771359901 0.31803072828422252 0 0.34550696215680909 0.33051027313453912 0 0.35955762982039141 0.34338171621056279 0 0.34639928239541562 0.33766513067375969 0 0.33203009783282922 0.34347859898742861 0 0.35955762982039141 0.34338171621056279 0 0.33203009783282922 0.34347859898742861 0 0.35955762982039141 0.34338171621056279 0 0.35500850325027677 0.33468489238247812 0 0.34639928239541562 0.33766513067375969 0 0.36400470723331729 0.33076091338875169 0 0.35341971752540902 0.32567984263489902 0 0.35500850325027677 0.33468489238247812 0 0.35341971752540902 0.32567984263489902 0 0.35500850325027677 0.33468489238247812 0 0.34550696215680909 0.33051027313453912 0 0.35500850325027677 0.33468489238247812 0 0.34550696215680909 0.33051027313453912 0 0.34639928239541562 0.33766513067375969 0 0.34550696215680909 0.33051027313453912 0 0.34639928239541562 0.33766513067375969 0 0.3398932189167716 0.33627017265378928 0 0.34639928239541562 0.33766513067375969 0 0.3398932189167716 0.33627017265378928 0 0.33203009783282922 0.34347859898742861 0 0.34550696215680909 0.33051027313453912 0 0.3398932189167716 0.33627017265378928 0 0.33395851707038199 0.33150259155817391 0 0.3398932189167716 0.33627017265378928 0 0.33395851707038199 0.33150259155817391 0 0.33203009783282922 0.34347859898742861 0 0.33395851707038199 0.33150259155817391 0 0.33203009783282922 0.34347859898742861 0 0.32317642099488458 0.33767718378869771 0 0.34840910771359901 0.31803072828422252 0 0.3378249513962453 0.32053250245062598 0 0.33788771437796378 0.31076268021101738 0 0.34550696215680909 0.33051027313453912 0 0.33395851707038199 0.33150259155817391 0 0.3378249513962453 0.32053250245062598 0 0.33395851707038199 0.33150259155817391 0 0.3378249513962453 0.32053250245062598 0 0.32575840583934318 0.31617745405110459 0 0.3378249513962453 0.32053250245062598 0 0.32575840583934318 0.31617745405110459 0 0.33788771437796378 0.31076268021101738 0 0.32575840583934318 0.31617745405110459 0 0.31603159915659829 0.32534643897363069 0 0.32317642099488458 0.33767718378869771 0 0.32575840583934318 0.31617745405110459 0 0.32317642099488458 0.33767718378869771 0 0.32575840583934318 0.31617745405110459 0 0.31384960707452397 0.31611391219425072 0 0.31749720813885429 0.30553275195131518 0 0.32575840583934318 0.31617745405110459 0 0.31603159915659829 0.32534643897363069 0 0.31384960707452397 0.31611391219425072 0 0.33203009783282922 0.34347859898742861 0 0.30450256584526691 0.34357548176429392 0 0.33395851707038199 0.33150259155817391 0 0.32575840583934318 0.31617745405110459 0 0.32317642099488458 0.33767718378869771 0 0.32317642099488458 0.33767718378869771 0 0.30450256584526691 0.34357548176429392 0 0.30997642359054661 0.3325779308477167 0 0.33203009783282922 0.34347859898742861 0 0.32317642099488458 0.33767718378869771 0 0.30450256584526691 0.34357548176429392 0 0.31603159915659829 0.32534643897363069 0 0.32317642099488458 0.33767718378869771 0 0.30997642359054661 0.3325779308477167 0 0.31472721786719338 0.35520199827663212 0 0.32175414839601069 0.35074333070048408 0 0.30450256584526691 0.34357548176429392 0 0.33203009783282922 0.34347859898742861 0 0.32175414839601069 0.35074333070048408 0 0.30450256584526691 0.34357548176429392 0 0.32540611497981847 0.35815274486230508 0 0.32175414839601069 0.35074333070048408 0 0.33210474545494512 0.35330782961176083 0 0.31472721786719338 0.35520199827663212 0 0.32540611497981847 0.35815274486230508 0 0.32175414839601069 0.35074333070048408 0 0.33203009783282922 0.34347859898742861 0 0.32175414839601069 0.35074333070048408 0 0.33210474545494512 0.35330782961176083 0 0.33203009783282922 0.34347859898742861 0 0.33210474545494512 0.35330782961176083 0 0.34219011679771638 0.35442994412618678 0 0.34831003664583837 0.34995845970604422 0 0.33203009783282922 0.34347859898742861 0 0.34219011679771638 0.35442994412618678 0 0.32540611497981847 0.35815274486230508 0 0.33210474545494512 0.35330782961176083 0 0.33503588278129948 0.36110789109881819 0 0.33210474545494512 0.35330782961176083 0 0.34219011679771638 0.35442994412618678 0 0.33503588278129948 0.36110789109881819 0 0.34462725474717981 0.36433603712797608 0 0.34219011679771638 0.35442994412618678 0 0.33503588278129948 0.36110789109881819 0 0.34462725474717981 0.36433603712797608 0 0.33713871532412309 0.37153539477519482 0 0.33503588278129948 0.36110789109881819 0 0.32540611497981847 0.35815274486230508 0 0.33503588278129948 0.36110789109881819 0 0.32740530394157041 0.36781978912901198 0 0.33713871532412309 0.37153539477519482 0 0.33503588278129948 0.36110789109881819 0 0.32740530394157041 0.36781978912901198 0 0.324767393942194 0.37905302083012948 0 0.33713871532412309 0.37153539477519482 0 0.32740530394157041 0.36781978912901198 0 0.30894502245977529 0.37860389421856461 0 0.324767393942194 0.37905302083012948 0 0.31467640852982021 0.36628219278398277 0 0.324767393942194 0.37905302083012948 0 0.32740530394157041 0.36781978912901198 0 0.31467640852982021 0.36628219278398277 0 0.32540611497981847 0.35815274486230508 0 0.32740530394157041 0.36781978912901198 0 0.31467640852982021 0.36628219278398277 0 0.31472721786719338 0.35520199827663212 0 0.32540611497981847 0.35815274486230508 0 0.31467640852982021 0.36628219278398277 0 0.30318948509799998 0.35862960298851398 0 0.29105379003614501 0.35418987775493138 0 0.2967707753374314 0.37004279375307197 0 0.31467640852982021 0.36628219278398277 0 0.30318948509799998 0.35862960298851398 0 0.2967707753374314 0.37004279375307197 0 0.30894502245977529 0.37860389421856461 0 0.31467640852982021 0.36628219278398277 0 0.2967707753374314 0.37004279375307197 0 0.31472721786719338 0.35520199827663212 0 0.31467640852982021 0.36628219278398277 0 0.30318948509799998 0.35862960298851398 0 0.31472721786719338 0.35520199827663212 0 0.30318948509799998 0.35862960298851398 0 0.30450256584526691 0.34357548176429392 0 0.30318948509799998 0.35862960298851398 0 0.29105379003614501 0.35418987775493138 0 0.30450256584526691 0.34357548176429392 0 0.29105379003614501 0.35418987775493138 0 0.27697503385770461 0.34367236454115913 0 0.30450256584526691 0.34357548176429392 0 0.28225520493925021 0.38585317945115127 0 0.2967707753374314 0.37004279375307197 0 0.27887930539968853 0.36711064423996409 0 0.29105379003614501 0.35418987775493138 0 0.2967707753374314 0.37004279375307197 0 0.27887930539968853 0.36711064423996409 0 0.26822994145482593 0.37598957834156832 0 0.27887930539968853 0.36711064423996409 0 0.26548429477282781 0.36578528851326342 0 0.27887930539968853 0.36711064423996409 0 0.26760600432106418 0.35262946478379359 0 0.26548429477282781 0.36578528851326342 0 0.26760600432106418 0.35262946478379359 0 0.27697503385770461 0.34367236454115913 0 0.26875640844520099 0.33572066531583472 0 0.29105379003614501 0.35418987775493138 0 0.27887930539968853 0.36711064423996409 0 0.26760600432106418 0.35262946478379359 0 0.29105379003614501 0.35418987775493138 0 0.26760600432106418 0.35262946478379359 0 0.29105379003614501 0.35418987775493138 0 0.26760600432106418 0.35262946478379359 0 0.27697503385770461 0.34367236454115913 0 0.2441582186059838 0.35106905181265002 0 0.26760600432106418 0.35262946478379359 0 0.2441582186059838 0.35106905181265002 0 0.26760600432106418 0.35262946478379359 0 0.25402406978961162 0.36261616317530643 0 0.2441582186059838 0.35106905181265002 0 0.26760600432106418 0.35262946478379359 0 0.25806788935899488 0.34167717255064062 0 0.24653888438195401 0.37346358914553518 0 0.25402406978961162 0.36261616317530643 0 0.25868215289894841 0.37058059202568427 0 0.26822994145482593 0.37598957834156832 0 0.25868215289894841 0.37058059202568427 0 0.26548429477282781 0.36578528851326342 0 0.25402406978961162 0.36261616317530643 0 0.25868215289894841 0.37058059202568427 0 0.26548429477282781 0.36578528851326342 0 0.26760600432106418 0.35262946478379359 0 0.25402406978961162 0.36261616317530643 0 0.26548429477282781 0.36578528851326342 0 0.25328760085072821 0.3276627351342245 0 0.26241698309547418 0.30425641845579982 0 0.2464750028821345 0.31629322417332928 0 0.25328760085072821 0.3276627351342245 0 0.26241698309547418 0.30425641845579982 0 0.26536093914457259 0.32117653907809091 0 0.25328760085072821 0.3276627351342245 0 0.26241698309547418 0.30425641845579982 0 0.26760600432106418 0.35262946478379359 0 0.25806788935899488 0.34167717255064062 0 0.26875640844520099 0.33572066531583472 0 0.2441582186059838 0.35106905181265002 0 0.25328760085072821 0.3276627351342245 0 0.25806788935899488 0.34167717255064062 0 0.25328760085072821 0.3276627351342245 0 0.25806788935899488 0.34167717255064062 0 0.26875640844520099 0.33572066531583472 0 0.26536093914457259 0.32117653907809091 0 0.25328760085072821 0.3276627351342245 0 0.26875640844520099 0.33572066531583472 0 0.27697503385770461 0.34367236454115913 0 0.26875640844520099 0.33572066531583472 0 0.28513191142155092 0.3345674953787719 0 0.26875640844520099 0.33572066531583472 0 0.27667346592581038 0.32739618990488212 0 0.28513191142155092 0.3345674953787719 0 0.26536093914457259 0.32117653907809091 0 0.27667346592581038 0.32739618990488212 0 0.28051811446584363 0.31909783990881352 0 0.26536093914457259 0.32117653907809091 0 0.26875640844520099 0.33572066531583472 0 0.27667346592581038 0.32739618990488212 0 0.26536093914457259 0.32117653907809091 0 0.27527439138472048 0.31171294031659841 0 0.26903431474627382 0.31020293444152569 0 0.28051811446584363 0.31909783990881352 0 0.28398027848970081 0.30752530001003608 0 0.27527439138472048 0.31171294031659841 0 0.26536093914457259 0.32117653907809091 0 0.28051811446584363 0.31909783990881352 0 0.27527439138472048 0.31171294031659841 0 0.28051811446584363 0.31909783990881352 0 0.28752132068597569 0.3249814651302747 0 0.28926242015486853 0.31673765098512963 0 0.28051811446584363 0.31909783990881352 0 0.28926242015486853 0.31673765098512963 0 0.28398027848970081 0.30752530001003608 0 0.27667346592581038 0.32739618990488212 0 0.28051811446584363 0.31909783990881352 0 0.28752132068597569 0.3249814651302747 0 0.28752132068597569 0.3249814651302747 0 0.29660263439535839 0.32057828470514921 0 0.29693937775242257 0.33151132989890247 0 0.28752132068597569 0.3249814651302747 0 0.29660263439535839 0.32057828470514921 0 0.28926242015486853 0.31673765098512963 0 0.29660263439535839 0.32057828470514921 0 0.28926242015486853 0.31673765098512963 0 0.29530548730488448 0.30975824861210077 0 0.27697503385770461 0.34367236454115913 0 0.28513191142155092 0.3345674953787719 0 0.30450256584526691 0.34357548176429392 0 0.27697503385770461 0.34367236454115913 0 0.30450256584526691 0.34357548176429392 0 0.28513191142155092 0.3345674953787719 0 0.30450256584526691 0.34357548176429392 0 0.29693937775242257 0.33151132989890247 0 0.27667346592581038 0.32739618990488212 0 0.28752132068597569 0.3249814651302747 0 0.28513191142155092 0.3345674953787719 0 0.28752132068597569 0.3249814651302747 0 0.28513191142155092 0.3345674953787719 0 0.29693937775242257 0.33151132989890247 0 0.30450256584526691 0.34357548176429392 0 0.29693937775242257 0.33151132989890247 0 0.30997642359054661 0.3325779308477167 0 0.29693937775242257 0.33151132989890247 0 0.30997642359054661 0.3325779308477167 0 0.30739713828369292 0.32418571398638379 0 0.29660263439535839 0.32057828470514921 0 0.30376676617338222 0.31574782390081901 0 0.30739713828369292 0.32418571398638379 0 0.29660263439535839 0.32057828470514921 0 0.30376676617338222 0.31574782390081901 0 0.29530548730488448 0.30975824861210077 0 0.29660263439535839 0.32057828470514921 0 0.29693937775242257 0.33151132989890247 0 0.30739713828369292 0.32418571398638379 0 0.31603159915659829 0.32534643897363069 0 0.31384960707452397 0.31611391219425072 0 0.30739713828369292 0.32418571398638379 0 0.31603159915659829 0.32534643897363069 0 0.30997642359054661 0.3325779308477167 0 0.30739713828369292 0.32418571398638379 0 0.31384960707452397 0.31611391219425072 0 0.30376676617338222 0.31574782390081901 0 0.30739713828369292 0.32418571398638379 0 0.31384960707452397 0.31611391219425072 0 0.30376676617338222 0.31574782390081901 0 0.30495218048185518 0.30578385863691371 0 0.31384960707452397 0.31611391219425072 0 0.30495218048185518 0.30578385863691371 0 0.31749720813885429 0.30553275195131518 0 0.30495218048185518 0.30578385863691371 0 0.30768099375433888 0.29845776127813478 0 0.31749720813885429 0.30553275195131518 0 0.30495218048185518 0.30578385863691371 0 0.30768099375433888 0.29845776127813478 0 0.29941513536675601 0.29701308748916472 0 0.30495218048185518 0.30578385863691371 0 0.29941513536675601 0.29701308748916472 0 0.29230677080670209 0.30007880571255469 0 0.30376676617338222 0.31574782390081901 0 0.30495218048185518 0.30578385863691371 0 0.29530548730488448 0.30975824861210077 0 0.30495218048185518 0.30578385863691371 0 0.29530548730488448 0.30975824861210077 0 0.29230677080670209 0.30007880571255469 0 0.29577434489380477 0.28785766669573748 0 0.32000232444739107 0.29486523161409062 0 0.3122365113016205 0.2871418103938092 0 0.29613263191943839 0.27960589647410689 0 0.30768099375433888 0.29845776127813478 0 0.29577434489380477 0.28785766669573748 0 0.32000232444739107 0.29486523161409062 0 0.3122365113016205 0.2871418103938092 0 0.29577434489380477 0.28785766669573748 0 0.32000232444739107 0.29486523161409062 0 0.3122365113016205 0.2871418103938092 0 0.29577434489380477 0.28785766669573748 0 0.29613263191943839 0.27960589647410689 0 0.30768099375433888 0.29845776127813478 0 0.29941513536675601 0.29701308748916472 0 0.29577434489380477 0.28785766669573748 0 0.29577434489380477 0.28785766669573748 0 0.27154636534022109 0.28085010177737518 0 0.28305005426612001 0.27934070704835068 0 0.29577434489380477 0.28785766669573748 0 0.2814252557470921 0.29066263468177173 0 0.27154636534022109 0.28085010177737518 0 0.29577434489380477 0.28785766669573748 0 0.27154636534022109 0.28085010177737518 0 0.29577434489380477 0.28785766669573748 0 0.28305005426612001 0.27934070704835068 0 0.29613263191943839 0.27960589647410689 0 0.29941513536675601 0.29701308748916472 0 0.29577434489380477 0.28785766669573748 0 0.29388589403382359 0.29458863076001879 0 0.29577434489380477 0.28785766669573748 0 0.29388589403382359 0.29458863076001879 0 0.28804732506803138 0.29340496314261849 0 0.29388589403382359 0.29458863076001879 0 0.28804732506803138 0.29340496314261849 0 0.29230677080670209 0.30007880571255469 0 0.28804732506803138 0.29340496314261849 0 0.2814252557470921 0.29066263468177173 0 0.28014456917465791 0.29747557708967132 0 0.29577434489380477 0.28785766669573748 0 0.28804732506803138 0.29340496314261849 0 0.2814252557470921 0.29066263468177173 0 0.29530548730488448 0.30975824861210077 0 0.29230677080670209 0.30007880571255469 0 0.28398027848970081 0.30752530001003608 0 0.28926242015486853 0.31673765098512963 0 0.29530548730488448 0.30975824861210077 0 0.28398027848970081 0.30752530001003608 0 0.29941513536675601 0.29701308748916472 0 0.29388589403382359 0.29458863076001879 0 0.29230677080670209 0.30007880571255469 0 0.28804732506803138 0.29340496314261849 0 0.29230677080670209 0.30007880571255469 0 0.28014456917465791 0.29747557708967132 0 0.29230677080670209 0.30007880571255469 0 0.28398027848970081 0.30752530001003608 0 0.28014456917465791 0.29747557708967132 0 0.28398027848970081 0.30752530001003608 0 0.27527439138472048 0.31171294031659841 0 0.27308494536032812 0.3036658399156138 0 0.26903431474627382 0.31020293444152569 0 0.27308494536032812 0.3036658399156138 0 0.26241698309547418 0.30425641845579982 0 0.27527439138472048 0.31171294031659841 0 0.26903431474627382 0.31020293444152569 0 0.27308494536032812 0.3036658399156138 0 0.27308494536032812 0.3036658399156138 0 0.27372362374355452 0.29538211438404632 0 0.26241698309547418 0.30425641845579982 0 0.28398027848970081 0.30752530001003608 0 0.27308494536032812 0.3036658399156138 0 0.28014456917465791 0.29747557708967132 0 0.27308494536032812 0.3036658399156138 0 0.28014456917465791 0.29747557708967132 0 0.27372362374355452 0.29538211438404632 0 0.26241698309547418 0.30425641845579982 0 0.27154636534022109 0.28085010177737518 0 0.27372362374355452 0.29538211438404632 0 0.26241698309547418 0.30425641845579982 0 0.27154636534022109 0.28085010177737518 0 0.2814252557470921 0.29066263468177173 0 0.28014456917465791 0.29747557708967132 0 0.27372362374355452 0.29538211438404632 0 0.2814252557470921 0.29066263468177173 0 0.27372362374355452 0.29538211438404632 0 0.27154636534022109 0.28085010177737518 0 0.26288552605676219 0.2819343521612887 0 0.26276159014077821 0.28701387251179961 0 0.27154636534022109 0.28085010177737518 0 0.26276159014077821 0.28701387251179961 0 0.26241698309547418 0.30425641845579982 0 0.27154636534022109 0.28085010177737518 0 0.26276159014077821 0.28701387251179961 0 0.25742819329288802 0.29216085456581198 0 0.26241698309547418 0.30425641845579982 0 0.26288552605676219 0.2819343521612887 0 0.26276159014077821 0.28701387251179961 0 0.25983665547550933 0.28462290590006289 0 0.26276159014077821 0.28701387251179961 0 0.25983665547550933 0.28462290590006289 0 0.25742819329288802 0.29216085456581198 0 0.25983665547550933 0.28462290590006289 0 0.25593439748886748 0.2845032295061336 0 0.26044558350243507 0.27972140394084422 0 0.26288552605676219 0.2819343521612887 0 0.25983665547550933 0.28462290590006289 0 0.26044558350243507 0.27972140394084422 0 0.2481335889168135 0.28330884691242919 0 0.25593439748886748 0.2845032295061336 0 0.25147580858485691 0.29246213415946992 0 0.2481335889168135 0.28330884691242919 0 0.25593439748886748 0.2845032295061336 0 0.25983743582486862 0.2774634766763614 0 0.25983665547550933 0.28462290590006289 0 0.25593439748886748 0.2845032295061336 0 0.25742819329288802 0.29216085456581198 0 0.25593439748886748 0.2845032295061336 0 0.25742819329288802 0.29216085456581198 0 0.25147580858485691 0.29246213415946992 0 0.25742819329288802 0.29216085456581198 0 0.25147580858485691 0.29246213415946992 0 0.25586219828294438 0.29828804756351063 0 0.26536093914457259 0.32117653907809091 0 0.26903431474627382 0.31020293444152569 0 0.26241698309547418 0.30425641845579982 0 0.25212780815855879 0.30427278307296041 0 0.25586219828294438 0.29828804756351063 0 0.26241698309547418 0.30425641845579982 0 0.2464750028821345 0.31629322417332928 0 0.25212780815855879 0.30427278307296041 0 0.26241698309547418 0.30425641845579982 0 0.25147580858485691 0.29246213415946992 0 0.25212780815855879 0.30427278307296041 0 0.25586219828294438 0.29828804756351063 0 0.25742819329288802 0.29216085456581198 0 0.25586219828294438 0.29828804756351063 0 0.26241698309547418 0.30425641845579982 0 0.25479644531309942 0.25874731555889569 0 0.27018169502340272 0.25675489516824068 0 0.26447930193717117 0.24706052181301319 0 0.2411936741170993 0.27207105960747108 0 0.25479644531309942 0.25874731555889569 0 0.25983743582486862 0.2774634766763614 0 0.25479644531309942 0.25874731555889569 0 0.2745512245865207 0.27314610985245719 0 0.25479644531309942 0.25874731555889569 0 0.25983743582486862 0.2774634766763614 0 0.2745512245865207 0.27314610985245719 0 0.25479644531309942 0.25874731555889569 0 0.25983743582486862 0.2774634766763614 0 0.2411936741170993 0.27207105960747108 0 0.25983743582486862 0.2774634766763614 0 0.26288552605676219 0.2819343521612887 0 0.25983743582486862 0.2774634766763614 0 0.27154636534022109 0.28085010177737518 0 0.25593439748886748 0.2845032295061336 0 0.26044558350243507 0.27972140394084422 0 0.25983743582486862 0.2774634766763614 0 0.26288552605676219 0.2819343521612887 0 0.26044558350243507 0.27972140394084422 0 0.25983743582486862 0.2774634766763614 0 0.26044558350243507 0.27972140394084422 0 0.25983743582486862 0.2774634766763614 0 0.25983743582486862 0.2774634766763614 0 0.27154636534022109 0.28085010177737518 0 0.25983743582486862 0.2774634766763614 0 0.27154636534022109 0.28085010177737518 0 0.2745512245865207 0.27314610985245719 0 0.27154636534022109 0.28085010177737518 0 0.2745512245865207 0.27314610985245719 0 0.2745512245865207 0.27314610985245719 0 0.28305005426612001 0.27934070704835068 0 0.27154636534022109 0.28085010177737518 0 0.2745512245865207 0.27314610985245719 0 0.28305005426612001 0.27934070704835068 0 0.25479644531309942 0.25874731555889569 0 0.2745512245865207 0.27314610985245719 0 0.27018169502340272 0.25675489516824068 0 0.2745512245865207 0.27314610985245719 0 0.27018169502340272 0.25675489516824068 0 0.28464777945004982 0.24726011295131869 0 0.2745512245865207 0.27314610985245719 0 0.28464777945004982 0.24726011295131869 0 0.27018169502340272 0.25675489516824068 0 0.26447930193717117 0.24706052181301319 0 0.28464777945004982 0.24726011295131869 0 0.28991305252898231 0.2636024250513902 0 0.30764032109628908 0.26142441456623822 0 0.28464777945004982 0.24726011295131869 0 0.30764032109628908 0.26142441456623822 0 0.28464777945004982 0.24726011295131869 0 0.2745512245865207 0.27314610985245719 0 0.28991305252898231 0.2636024250513902 0 0.28464777945004982 0.24726011295131869 0 0.2745512245865207 0.27314610985245719 0 0.28305005426612001 0.27934070704835068 0 0.28852654441001041 0.27314568327404309 0 0.2745512245865207 0.27314610985245719 0 0.28991305252898231 0.2636024250513902 0 0.28852654441001041 0.27314568327404309 0 0.28991305252898231 0.2636024250513902 0 0.28852654441001041 0.27314568327404309 0 0.29898575874899042 0.27003327794391058 0 0.28305005426612001 0.27934070704835068 0 0.28852654441001041 0.27314568327404309 0 0.29613263191943839 0.27960589647410689 0 0.28852654441001041 0.27314568327404309 0 0.29613263191943839 0.27960589647410689 0 0.29898575874899042 0.27003327794391058 0 0.3122365113016205 0.2871418103938092 0 0.29613263191943839 0.27960589647410689 0 0.31149501162204252 0.27624007220551938 0 0.29613263191943839 0.27960589647410689 0 0.29898575874899042 0.27003327794391058 0 0.31149501162204252 0.27624007220551938 0 0.29898575874899042 0.27003327794391058 0 0.31149501162204252 0.27624007220551938 0 0.30764032109628908 0.26142441456623822 0 0.28991305252898231 0.2636024250513902 0 0.29898575874899042 0.27003327794391058 0 0.30764032109628908 0.26142441456623822 0 0.30764032109628908 0.26142441456623822 0 0.30317071187591821 0.2415907003000354 0 0.28464777945004982 0.24726011295131869 0 0.30764032109628908 0.26142441456623822 0 0.3334012240429397 0.25253706275929022 0 0.3306328627425239 0.27558871618116498 0 0.30764032109628908 0.26142441456623822 0 0.3334012240429397 0.25253706275929022 0 0.31898891744699359 0.24255199555300319 0 0.3334012240429397 0.25253706275929022 0 0.3306328627425239 0.27558871618116498 0 0.3334012240429397 0.25253706275929022 0 0.3306328627425239 0.27558871618116498 0 0.34768202669497139 0.27261557912995499 0 0.31149501162204252 0.27624007220551938 0 0.30764032109628908 0.26142441456623822 0 0.3306328627425239 0.27558871618116498 0 0.31149501162204252 0.27624007220551938 0 0.3306328627425239 0.27558871618116498 0 0.32236745349243329 0.28403661121588708 0 0.30764032109628908 0.26142441456623822 0 0.3306328627425239 0.27558871618116498 0 0.3122365113016205 0.2871418103938092 0 0.31149501162204252 0.27624007220551938 0 0.32236745349243329 0.28403661121588708 0 0.3306328627425239 0.27558871618116498 0 0.32236745349243329 0.28403661121588708 0 0.3283403906838025 0.29467772431351169 0 0.3122365113016205 0.2871418103938092 0 0.3283403906838025 0.29467772431351169 0 0.3122365113016205 0.2871418103938092 0 0.32000232444739107 0.29486523161409062 0 0.3283403906838025 0.29467772431351169 0 0.3122365113016205 0.2871418103938092 0 0.32236745349243329 0.28403661121588708 0 0.3283403906838025 0.29467772431351169 0 0.32575840583934318 0.31617745405110459 0 0.31749720813885429 0.30553275195131518 0 0.3283403906838025 0.29467772431351169 0 0.32575840583934318 0.31617745405110459 0 0.3283403906838025 0.29467772431351169 0 0.30768099375433888 0.29845776127813478 0 0.32000232444739107 0.29486523161409062 0 0.31749720813885429 0.30553275195131518 0 0.32000232444739107 0.29486523161409062 0 0.31749720813885429 0.30553275195131518 0 0.3283403906838025 0.29467772431351169 0 0.33788771437796378 0.31076268021101738 0 0.3283403906838025 0.29467772431351169 0 0.34910571625683001 0.30439499195562197 0 0.3283403906838025 0.29467772431351169 0 0.34910571625683001 0.30439499195562197 0 0.32575840583934318 0.31617745405110459 0 0.33788771437796378 0.31076268021101738 0 0.3283403906838025 0.29467772431351169 0 0.3306328627425239 0.27558871618116498 0 0.3283403906838025 0.29467772431351169 0 0.3283403906838025 0.29467772431351169 0 0.35347179975325682 0.28965839135503901 0 0.34910571625683001 0.30439499195562197 0 0.3306328627425239 0.27558871618116498 0 0.3283403906838025 0.29467772431351169 0 0.35347179975325682 0.28965839135503901 0 0.3306328627425239 0.27558871618116498 0 0.35347179975325682 0.28965839135503901 0 0.34840910771359901 0.31803072828422252 0 0.33788771437796378 0.31076268021101738 0 0.34910571625683001 0.30439499195562197 0 0.35347179975325682 0.28965839135503901 0 0.34910571625683001 0.30439499195562197 0 0.36331469068602229 0.29826837814668261 0 0.36987104182985742 0.31411225959773248 0 0.37784494341043229 0.29148233206906088 0 0.36987104182985742 0.31411225959773248 0 0.34910571625683001 0.30439499195562197 0 0.36331469068602229 0.29826837814668261 0 0.36987104182985742 0.31411225959773248 0 0.36331469068602229 0.29826837814668261 0 0.37784494341043229 0.29148233206906088 0 0.36987104182985742 0.31411225959773248 0 0.34910571625683001 0.30439499195562197 0 0.35347179975325682 0.28965839135503901 0 0.36331469068602229 0.29826837814668261 0 0.36531863586591728 0.28026688887500628 0 0.36331469068602229 0.29826837814668261 0 0.36531863586591728 0.28026688887500628 0 0.37784494341043229 0.29148233206906088 0 0.36531863586591728 0.28026688887500628 0 0.36055835291572802 0.26308739056951458 0 0.38581884499100683 0.26885240454038911 0 0.37296084668648471 0.25017597579261153 0 0.36055835291572802 0.26308739056951458 0 0.38581884499100683 0.26885240454038911 0 0.37296084668648471 0.25017597579261153 0 0.36055835291572802 0.26308739056951458 0 0.35124264266190919 0.24984344898164279 0 0.3334012240429397 0.25253706275929022 0 0.34768202669497139 0.27261557912995499 0 0.35124264266190919 0.24984344898164279 0 0.36055835291572802 0.26308739056951458 0 0.34768202669497139 0.27261557912995499 0 0.35124264266190919 0.24984344898164279 0 0.35347179975325682 0.28965839135503901 0 0.36531863586591728 0.28026688887500628 0 0.34768202669497139 0.27261557912995499 0 0.3306328627425239 0.27558871618116498 0 0.35347179975325682 0.28965839135503901 0 0.34768202669497139 0.27261557912995499 0 0.36531863586591728 0.28026688887500628 0 0.36055835291572802 0.26308739056951458 0 0.34768202669497139 0.27261557912995499 0 0.40188080654803232 0.2776023554826279 0 0.38581884499100683 0.26885240454038911 0 0.39311437846497288 0.29017295073602339 0 0.40188080654803232 0.2776023554826279 0 0.39831624924643538 0.26229927609847459 0 0.41754972192440581 0.26539065949369828 0 0.40188080654803232 0.2776023554826279 0 0.39831624924643538 0.26229927609847459 0 0.38581884499100683 0.26885240454038911 0 0.40188080654803232 0.2776023554826279 0 0.39831624924643538 0.26229927609847459 0 0.41754972192440581 0.26539065949369828 0 0.39475169194483772 0.2469961967143216 0 0.39831624924643538 0.26229927609847459 0 0.38581884499100683 0.26885240454038911 0 0.39475169194483772 0.2469961967143216 0 0.41754972192440581 0.26539065949369828 0 0.40324908199546572 0.24572053366433869 0 0.39475169194483772 0.2469961967143216 0 0.39831624924643538 0.26229927609847459 0 0.41754972192440581 0.26539065949369828 0 0.39475169194483772 0.2469961967143216 0 0.38581884499100683 0.26885240454038911 0 0.39426155780227179 0.24489199104221671 0 0.39475169194483772 0.2469961967143216 0 0.39831624924643538 0.26229927609847459 0 0.39475169194483772 0.2469961967143216 0 0.38581884499100683 0.26885240454038911 0 0.39426155780227179 0.24489199104221671 0 0.37296084668648471 0.25017597579261153 0 0.38581884499100683 0.26885240454038911 0 0.39426155780227179 0.24489199104221671 0 0.36531863586591728 0.28026688887500628 0 0.38581884499100683 0.26885240454038911 0 0.37784494341043229 0.29148233206906088 0 0.38581884499100683 0.26885240454038911 0 0.37784494341043229 0.29148233206906088 0 0.38581884499100683 0.26885240454038911 0 0.37784494341043229 0.29148233206906088 0 0.39311437846497288 0.29017295073602339 0 0.37784494341043229 0.29148233206906088 0 0.38180067092855391 0.30492214058087558 0 0.39311437846497288 0.29017295073602339 0 0.36987104182985742 0.31411225959773248 0 0.37784494341043229 0.29148233206906088 0 0.38180067092855391 0.30492214058087558 0 0.38180067092855391 0.30492214058087558 0 0.39855946809656317 0.30877905059785038 0 0.3868353930143052 0.31762316280845643 0 0.38180067092855391 0.30492214058087558 0 0.3868353930143052 0.31762316280845643 0 0.37888721078459908 0.3130509633099946 0 0.36987104182985742 0.31411225959773248 0 0.38180067092855391 0.30492214058087558 0 0.37888721078459908 0.3130509633099946 0 0.39855946809656317 0.30877905059785038 0 0.39311437846497288 0.29017295073602339 0 0.40832250331611047 0.29415632449360463 0 0.38180067092855391 0.30492214058087558 0 0.39855946809656317 0.30877905059785038 0 0.39311437846497288 0.29017295073602339 0 0.40188080654803232 0.2776023554826279 0 0.39311437846497288 0.29017295073602339 0 0.40832250331611047 0.29415632449360463 0 0.40832250331611047 0.29415632449360463 0 0.42505229860940652 0.29547975150156353 0 0.41849409781561669 0.28108204439235268 0 0.40188080654803232 0.2776023554826279 0 0.40832250331611047 0.29415632449360463 0 0.41849409781561669 0.28108204439235268 0 0.40832250331611047 0.29415632449360463 0 0.42505229860940652 0.29547975150156353 0 0.42036855643704801 0.31409791267988008 0 0.39855946809656317 0.30877905059785038 0 0.40832250331611047 0.29415632449360463 0 0.42036855643704801 0.31409791267988008 0 0.42505229860940652 0.29547975150156353 0 0.43960330169865253 0.30082321362748321 0 0.42036855643704801 0.31409791267988008 0 0.43960330169865253 0.30082321362748321 0 0.44680995060428208 0.31727471296522652 0 0.42036855643704801 0.31409791267988008 0 0.4371036032212805 0.28477317109891348 0 0.42505229860940652 0.29547975150156353 0 0.43960330169865253 0.30082321362748321 0 0.4371036032212805 0.28477317109891348 0 0.42505229860940652 0.29547975150156353 0 0.41849409781561669 0.28108204439235268 0 0.43355368764224789 0.2675609508203588 0 0.41849409781561669 0.28108204439235268 0 0.41754972192440581 0.26539065949369828 0 0.4371036032212805 0.28477317109891348 0 0.43355368764224789 0.2675609508203588 0 0.41849409781561669 0.28108204439235268 0 0.40188080654803232 0.2776023554826279 0 0.41849409781561669 0.28108204439235268 0 0.41754972192440581 0.26539065949369828 0 0.41754972192440581 0.26539065949369828 0 0.42743082246516367 0.24234920195874701 0 0.41425832284588698 0.24473024553476841 0 0.41754972192440581 0.26539065949369828 0 0.40324908199546572 0.24572053366433869 0 0.41425832284588698 0.24473024553476841 0 0.43355368764224789 0.2675609508203588 0 0.41754972192440581 0.26539065949369828 0 0.42743082246516367 0.24234920195874701 0 0.43355368764224789 0.2675609508203588 0 0.44839491761012079 0.25987937558512281 0 0.42743082246516367 0.24234920195874701 0 0.44839491761012079 0.25987937558512281 0 0.42743082246516367 0.24234920195874701 0 0.4371036032212805 0.28477317109891348 0 0.43355368764224789 0.2675609508203588 0 0.45078234659161698 0.27215137207639162 0 0.43355368764224789 0.2675609508203588 0 0.44839491761012079 0.25987937558512281 0 0.45078234659161698 0.27215137207639162 0 0.46265063576831178 0.26523275908078181 0 0.45473029318629732 0.29125373602300431 0 0.45078234659161698 0.27215137207639162 0 0.46265063576831178 0.26523275908078181 0 0.45473029318629732 0.29125373602300431 0 0.46845980818267341 0.27813802698931589 0 0.46265063576831178 0.26523275908078181 0 0.45473029318629732 0.29125373602300431 0 0.45078234659161698 0.27215137207639162 0 0.46265063576831178 0.26523275908078181 0 0.44839491761012079 0.25987937558512281 0 0.45078234659161698 0.27215137207639162 0 0.46265063576831178 0.26523275908078181 0 0.44839491761012079 0.25987937558512281 0 0.45898644360448321 0.25161141212264609 0 0.45465161684046379 0.24106262467519779 0 0.46265063576831178 0.26523275908078181 0 0.47024860419903641 0.24027088914948219 0 0.45898644360448321 0.25161141212264609 0 0.46265063576831178 0.26523275908078181 0 0.47024860419903641 0.24027088914948219 0 0.44839491761012079 0.25987937558512281 0 0.45898644360448321 0.25161141212264609 0 0.46265063576831178 0.26523275908078181 0 0.46265063576831178 0.26523275908078181 0 0.48132531788415628 0.25434636286545259 0 0.47764709756720358 0.26976716611761992 0 0.46265063576831178 0.26523275908078181 0 0.48132531788415628 0.25434636286545259 0 0.46265063576831178 0.26523275908078181 0 0.48132531788415628 0.25434636286545259 0 0.47024860419903641 0.24027088914948219 0 0.46845980818267341 0.27813802698931589 0 0.47764709756720358 0.26976716611761992 0 0.47881120620888068 0.2862984467358578 0 0.46845980818267341 0.27813802698931589 0 0.46265063576831178 0.26523275908078181 0 0.47764709756720358 0.26976716611761992 0 0.47764709756720358 0.26976716611761992 0 0.5 0.27064244229947132 0 0.47881120620888068 0.2862984467358578 0 0.48132531788415628 0.25434636286545259 0 0.47764709756720358 0.26976716611761992 0 0.5 0.27064244229947132 0 0.48132531788415628 0.25434636286545259 0 0.5 0.27064244229947132 0 0.50000000000000111 0.24345996665012401 0 0.5 0.29782491794881849 0 0.47881120620888068 0.2862984467358578 0 0.47594508542081748 0.31354785149017611 0 0.5 0.29782491794881849 0 0.47594508542081748 0.31354785149017611 0 0.5 0.32500739359816577 0 0.5 0.27064244229947132 0 0.5 0.29782491794881849 0 0.47881120620888068 0.2862984467358578 0 0.47881120620888068 0.2862984467358578 0 0.45473029318629732 0.29125373602300431 0 0.47594508542081748 0.31354785149017611 0 0.45473029318629732 0.29125373602300431 0 0.44680995060428208 0.31727471296522652 0 0.47594508542081748 0.31354785149017611 0 0.46845980818267341 0.27813802698931589 0 0.47881120620888068 0.2862984467358578 0 0.45473029318629732 0.29125373602300431 0 0.4371036032212805 0.28477317109891348 0 0.45078234659161698 0.27215137207639162 0 0.45473029318629732 0.29125373602300431 0 0.4371036032212805 0.28477317109891348 0 0.45473029318629732 0.29125373602300431 0 0.43960330169865253 0.30082321362748321 0 0.45473029318629732 0.29125373602300431 0 0.44680995060428208 0.31727471296522652 0 0.45473029318629732 0.29125373602300431 0 0.43960330169865253 0.30082321362748321 0 0.44680995060428208 0.31727471296522652 0 0.46125341493808408 0.33755337199932051 0 0.44175527617149812 0.35415248570721403 0 0.43296777524656521 0.33397721177079082 0 0.44680995060428208 0.31727471296522652 0 0.46125341493808408 0.33755337199932051 0 0.43296777524656521 0.33397721177079082 0 0.44680995060428208 0.31727471296522652 0 0.46125341493808408 0.33755337199932051 0 0.47594508542081748 0.31354785149017611 0 0.46125341493808408 0.33755337199932051 0 0.47594508542081748 0.31354785149017611 0 0.48320632505638339 0.3387538366075773 0 0.48320632505638339 0.3387538366075773 0 0.5 0.32500739359816577 0 0.5 0.35218986924751311 0 0.47594508542081748 0.31354785149017611 0 0.48320632505638339 0.3387538366075773 0 0.5 0.32500739359816577 0 0.5 0.35218986924751311 0 0.47414461551512038 0.36578110707218681 0 0.5 0.37937234489686039 0 0.48320632505638339 0.3387538366075773 0 0.5 0.35218986924751311 0 0.47414461551512038 0.36578110707218681 0 0.46125341493808408 0.33755337199932051 0 0.48320632505638339 0.3387538366075773 0 0.47414461551512038 0.36578110707218681 0 0.47414461551512038 0.36578110707218681 0 0.44175527617149812 0.35415248570721403 0 0.45091655078911469 0.37597315894969929 0 0.46125341493808408 0.33755337199932051 0 0.47414461551512038 0.36578110707218681 0 0.44175527617149812 0.35415248570721403 0 0.44175527617149812 0.35415248570721403 0 0.42707096617957402 0.37265563066282792 0 0.45091655078911469 0.37597315894969929 0 0.44175527617149812 0.35415248570721403 0 0.42707096617957402 0.37265563066282792 0 0.42136945645042723 0.35201395161697069 0 0.42707096617957402 0.37265563066282792 0 0.40759431339172131 0.36447724332388542 0 0.42136945645042723 0.35201395161697069 0 0.42707096617957402 0.37265563066282792 0 0.40759431339172131 0.36447724332388542 0 0.40628010701252443 0.37878471013220932 0 0.40684612149614469 0.3505267668385329 0 0.42136945645042723 0.35201395161697069 0 0.41233944710200499 0.33676313920228412 0 0.40759431339172131 0.36447724332388542 0 0.40684612149614469 0.3505267668385329 0 0.42136945645042723 0.35201395161697069 0 0.44175527617149812 0.35415248570721403 0 0.42136945645042723 0.35201395161697069 0 0.43296777524656521 0.33397721177079082 0 0.43296777524656521 0.33397721177079082 0 0.42036855643704801 0.31409791267988008 0 0.41233944710200499 0.33676313920228412 0 0.42136945645042723 0.35201395161697069 0 0.43296777524656521 0.33397721177079082 0 0.41233944710200499 0.33676313920228412 0 0.44680995060428208 0.31727471296522652 0 0.43296777524656521 0.33397721177079082 0 0.42036855643704801 0.31409791267988008 0 0.42036855643704801 0.31409791267988008 0 0.41233944710200499 0.33676313920228412 0 0.39951802099987621 0.32501274997842322 0 0.41233944710200499 0.33676313920228412 0 0.39459766156106818 0.34058743953724491 0 0.39951802099987621 0.32501274997842322 0 0.40684612149614469 0.3505267668385329 0 0.41233944710200499 0.33676313920228412 0 0.39459766156106818 0.34058743953724491 0 0.39459766156106818 0.34058743953724491 0 0.39951802099987621 0.32501274997842322 0 0.38967434075116247 0.32636097048647378 0 0.39855946809656317 0.30877905059785038 0 0.39951802099987621 0.32501274997842322 0 0.3868353930143052 0.31762316280845643 0 0.39855946809656317 0.30877905059785038 0 0.42036855643704801 0.31409791267988008 0 0.39951802099987621 0.32501274997842322 0 0.39951802099987621 0.32501274997842322 0 0.3868353930143052 0.31762316280845643 0 0.38967434075116247 0.32636097048647378 0 0.3868353930143052 0.31762316280845643 0 0.38967434075116247 0.32636097048647378 0 0.38163101397351079 0.32695055050311772 0 0.3868353930143052 0.31762316280845643 0 0.38163101397351079 0.32695055050311772 0 0.37829421604966718 0.31992427579085542 0 0.37406167390447881 0.3274544228833185 0 0.38163101397351079 0.32695055050311772 0 0.37829421604966718 0.31992427579085542 0 0.3868353930143052 0.31762316280845643 0 0.37829421604966718 0.31992427579085542 0 0.37888721078459908 0.3130509633099946 0 0.37236793078022012 0.31528069483935561 0 0.37829421604966718 0.31992427579085542 0 0.37888721078459908 0.3130509633099946 0 0.39459766156106818 0.34058743953724491 0 0.38359168902238638 0.34194311149900791 0 0.38526290708758582 0.33424804473584102 0 0.39459766156106818 0.34058743953724491 0 0.38967434075116247 0.32636097048647378 0 0.38526290708758582 0.33424804473584102 0 0.38967434075116247 0.32636097048647378 0 0.38163101397351079 0.32695055050311772 0 0.38526290708758582 0.33424804473584102 0 0.38163101397351079 0.32695055050311772 0 0.38526290708758582 0.33424804473584102 0 0.37562048186836272 0.33698045384266889 0 0.37406167390447881 0.3274544228833185 0 0.38163101397351079 0.32695055050311772 0 0.37562048186836272 0.33698045384266889 0 0.38359168902238638 0.34194311149900791 0 0.38526290708758582 0.33424804473584102 0 0.37562048186836272 0.33698045384266889 0 0.38359168902238638 0.34194311149900791 0 0.37562048186836272 0.33698045384266889 0 0.37705885677686402 0.34802478277143373 0 0.37357140617241957 0.36718312145014648 0 0.37705885677686402 0.34802478277143373 0 0.3849778100383508 0.35145077165486449 0 0.38359168902238638 0.34194311149900791 0 0.37705885677686402 0.34802478277143373 0 0.3849778100383508 0.35145077165486449 0 0.39459766156106818 0.34058743953724491 0 0.38359168902238638 0.34194311149900791 0 0.3849778100383508 0.35145077165486449 0 0.37357140617241957 0.36718312145014648 0 0.3849778100383508 0.35145077165486449 0 0.39431352093568123 0.3600699569549457 0 0.37357140617241957 0.36718312145014648 0 0.39027664229035391 0.37211775608999809 0 0.38381963064928681 0.37994275227746371 0 0.37357140617241957 0.36718312145014648 0 0.39027664229035391 0.37211775608999809 0 0.39431352093568123 0.3600699569549457 0 0.40759431339172131 0.36447724332388542 0 0.39027664229035391 0.37211775608999809 0 0.39431352093568123 0.3600699569549457 0 0.40759431339172131 0.36447724332388542 0 0.39027664229035391 0.37211775608999809 0 0.40628010701252443 0.37878471013220932 0 0.40684612149614469 0.3505267668385329 0 0.39459766156106818 0.34058743953724491 0 0.39431352093568123 0.3600699569549457 0 0.39459766156106818 0.34058743953724491 0 0.3849778100383508 0.35145077165486449 0 0.39431352093568123 0.3600699569549457 0 0.40759431339172131 0.36447724332388542 0 0.40684612149614469 0.3505267668385329 0 0.39431352093568123 0.3600699569549457 0 0.39160738240901238 0.38948567661956518 0 0.40559927181894001 0.40644602604503638 0 0.41728680866128359 0.39114672023299257 0 0.39209739589830089 0.40229247889624448 0 0.39160738240901238 0.38948567661956518 0 0.40559927181894001 0.40644602604503638 0 0.39160738240901238 0.38948567661956518 0 0.41728680866128359 0.39114672023299257 0 0.40628010701252443 0.37878471013220932 0 0.39160738240901238 0.38948567661956518 0 0.41728680866128359 0.39114672023299257 0 0.39027664229035391 0.37211775608999809 0 0.39160738240901238 0.38948567661956518 0 0.40628010701252443 0.37878471013220932 0 0.39160738240901238 0.38948567661956518 0 0.38381963064928681 0.37994275227746371 0 0.37982309172536127 0.39098445495014511 0 0.39027664229035391 0.37211775608999809 0 0.39160738240901238 0.38948567661956518 0 0.38381963064928681 0.37994275227746371 0 0.37357140617241957 0.36718312145014648 0 0.38381963064928681 0.37994275227746371 0 0.37982309172536127 0.39098445495014511 0 0.37357140617241957 0.36718312145014648 0 0.37982309172536127 0.39098445495014511 0 0.37982309172536127 0.39098445495014511 0 0.38607477727830308 0.41478578845014358 0 0.39209739589830089 0.40229247889624448 0 0.37982309172536127 0.39098445495014511 0 0.38607477727830308 0.41478578845014358 0 0.37379874889456249 0.40161552675933948 0 0.37982309172536127 0.39098445495014511 0 0.38607477727830308 0.41478578845014358 0 0.39209739589830089 0.40229247889624448 0 0.39160738240901238 0.38948567661956518 0 0.37982309172536127 0.39098445495014511 0 0.38607477727830308 0.41478578845014358 0 0.39232646283124478 0.43858712195014232 0 0.37960902688801779 0.43901969975997629 0 0.38607477727830308 0.41478578845014358 0 0.39232646283124478 0.43858712195014232 0 0.36991230095174382 0.4310731343881733 0 0.38607477727830308 0.41478578845014358 0 0.37960902688801779 0.43901969975997629 0 0.38607477727830308 0.41478578845014358 0 0.39676254958729901 0.43396547058526941 0 0.39232646283124478 0.43858712195014232 0 0.39676254958729901 0.43396547058526941 0 0.40209533532913372 0.43436445271029372 0 0.40559927181894001 0.40644602604503638 0 0.39676254958729901 0.43396547058526941 0 0.40209533532913372 0.43436445271029372 0 0.39232646283124478 0.43858712195014232 0 0.39676254958729901 0.43396547058526941 0 0.40209533532913372 0.43436445271029372 0 0.40209533532913372 0.43436445271029372 0 0.40559927181894001 0.40644602604503638 0 0.38607477727830308 0.41478578845014358 0 0.39676254958729901 0.43396547058526941 0 0.40559927181894001 0.40644602604503638 0 0.39209739589830089 0.40229247889624448 0 0.38607477727830308 0.41478578845014358 0 0.40559927181894001 0.40644602604503638 0 0.40559927181894001 0.40644602604503638 0 0.41598796006165822 0.42215848993843669 0 0.42882645614608073 0.41207601578050329 0 0.40209533532913372 0.43436445271029372 0 0.40559927181894001 0.40644602604503638 0 0.41598796006165822 0.42215848993843669 0 0.40209533532913372 0.43436445271029372 0 0.41598796006165822 0.42215848993843669 0 0.43029663994641398 0.4364743849276026 0 0.40209533532913372 0.43436445271029372 0 0.43029663994641398 0.4364743849276026 0 0.41598796006165822 0.42215848993843669 0 0.43029663994641398 0.4364743849276026 0 0.42882645614608073 0.41207601578050329 0 0.43029663994641398 0.4364743849276026 0 0.42882645614608073 0.41207601578050329 0 0.45141365150290202 0.4161634763341393 0 0.42882645614608073 0.41207601578050329 0 0.41728680866128359 0.39114672023299257 0 0.44296623491355491 0.39280776384642002 0 0.41728680866128359 0.39114672023299257 0 0.44296623491355491 0.39280776384642002 0 0.40559927181894001 0.40644602604503638 0 0.42882645614608073 0.41207601578050329 0 0.41728680866128359 0.39114672023299257 0 0.42707096617957402 0.37265563066282792 0 0.41728680866128359 0.39114672023299257 0 0.40628010701252443 0.37878471013220932 0 0.42707096617957402 0.37265563066282792 0 0.41728680866128359 0.39114672023299257 0 0.44296623491355491 0.39280776384642002 0 0.42707096617957402 0.37265563066282792 0 0.45091655078911469 0.37597315894969929 0 0.44296623491355491 0.39280776384642002 0 0.44296623491355491 0.39280776384642002 0 0.46864566116582629 0.39446880745984753 0 0.45141365150290202 0.4161634763341393 0 0.44296623491355491 0.39280776384642002 0 0.46864566116582629 0.39446880745984753 0 0.47414461551512038 0.36578110707218681 0 0.45091655078911469 0.37597315894969929 0 0.46864566116582629 0.39446880745984753 0 0.45091655078911469 0.37597315894969929 0 0.44296623491355491 0.39280776384642002 0 0.46864566116582629 0.39446880745984753 0 0.47414461551512038 0.36578110707218681 0 0.46864566116582629 0.39446880745984753 0 0.48229920589397568 0.38271764361018301 0 0.46864566116582629 0.39446880745984753 0 0.48229920589397568 0.38271764361018301 0 0.49432508741809772 0.39612985107327492 0 0.46864566116582629 0.39446880745984753 0 0.49432508741809772 0.39612985107327492 0 0.48512157582406262 0.40650393581778282 0 0.46864566116582629 0.39446880745984753 0 0.49432508741809772 0.39612985107327492 0 0.49432508741809772 0.39612985107327492 0 0.5 0.37937234489686039 0 0.49999999999999539 0.40655482054620801 0 0.49432508741809772 0.39612985107327492 0 0.49999999999999539 0.40655482054620801 0 0.48512157582406262 0.40650393581778282 0 0.47414461551512038 0.36578110707218681 0 0.48229920589397568 0.38271764361018301 0 0.5 0.37937234489686039 0 0.48229920589397568 0.38271764361018301 0 0.49432508741809772 0.39612985107327492 0 0.5 0.37937234489686039 0 0.48962448614092208 0.43212946911127531 0 0.5 0.42412209496160053 0 0.49999999999999578 0.44168936937699299 0 0.48962448614092208 0.43212946911127531 0 0.5 0.42412209496160053 0 0.47924897228184332 0.42256956884555602 0 0.5 0.42412209496160053 0 0.49999999999999539 0.40655482054620801 0 0.47924897228184332 0.42256956884555602 0 0.49999999999999539 0.40655482054620801 0 0.48512157582406262 0.40650393581778282 0 0.47924897228184332 0.42256956884555602 0 0.49999999999999539 0.40655482054620801 0 0.47924897228184332 0.42256956884555602 0 0.46864566116582629 0.39446880745984753 0 0.48512157582406262 0.40650393581778282 0 0.47924897228184332 0.42256956884555602 0 0.47924897228184332 0.42256956884555602 0 0.45849794456369453 0.43858431714490831 0 0.48962448614092208 0.43212946911127531 0 0.47924897228184332 0.42256956884555602 0 0.47924897228184521 0.44013684326095182 0 0.47924897228184332 0.42256956884555602 0 0.45849794456369453 0.43858431714490831 0 0.47924897228184521 0.44013684326095182 0 0.47924897228184332 0.42256956884555602 0 0.45141365150290202 0.4161634763341393 0 0.45849794456369453 0.43858431714490831 0 0.46864566116582629 0.39446880745984753 0 0.47924897228184332 0.42256956884555602 0 0.45141365150290202 0.4161634763341393 0 0.42882645614608073 0.41207601578050329 0 0.44296623491355491 0.39280776384642002 0 0.45141365150290202 0.4161634763341393 0 0.43029663994641398 0.4364743849276026 0 0.45141365150290202 0.4161634763341393 0 0.45849794456369453 0.43858431714490831 0 0.43029663994641398 0.4364743849276026 0 0.44015819837462111 0.45273814234726267 0 0.45849794456369453 0.43858431714490831 0 0.43029663994641398 0.4364743849276026 0 0.45849794456369453 0.43858431714490831 0 0.44015819837462111 0.45273814234726267 0 0.45849794456369453 0.43858431714490831 0 0.44015819837462111 0.45273814234726267 0 0.46913047330295871 0.46426103403096142 0 0.4430514933199674 0.47403299272245891 0 0.44015819837462111 0.45273814234726267 0 0.45849794456369453 0.43858431714490831 0 0.46913047330295871 0.46426103403096142 0 0.46913047330295871 0.46426103403096142 0 0.49999999999999578 0.44168936937699299 0 0.5 0.5 0 0.47924897228184521 0.44013684326095182 0 0.46913047330295871 0.46426103403096142 0 0.49999999999999578 0.44168936937699299 0 0.45849794456369453 0.43858431714490831 0 0.47924897228184521 0.44013684326095182 0 0.45849794456369453 0.43858431714490831 0 0.47924897228184521 0.44013684326095182 0 0.46913047330295871 0.46426103403096142 0 0.47924897228184521 0.44013684326095182 0 0.49999999999999578 0.44168936937699299 0 0.48962448614092208 0.43212946911127531 0 0.47924897228184521 0.44013684326095182 0 0.49999999999999578 0.44168936937699299 0 0.46913047330295871 0.46426103403096142 0 0.5 0.5 0 0.46200534196736781 0.5 0 0.46200534196736781 0.5 0 0.4430514933199674 0.47403299272245891 0 0.42776224665573293 0.48439415060481072 0 0.46913047330295871 0.46426103403096142 0 0.46200534196736781 0.5 0 0.4430514933199674 0.47403299272245891 0 0.46200534196736781 0.5 0 0.42776224665573293 0.48439415060481072 0 0.40845723980930249 0.49999999999999828 0 0.42776224665573293 0.48439415060481072 0 0.40845723980930249 0.49999999999999828 0 0.40347870599648222 0.48104579275198162 0 0.42181845218554931 0.46689196754961898 0 0.39857814838418498 0.46238845545014118 0 0.40347870599648222 0.48104579275198162 0 0.42776224665573293 0.48439415060481072 0 0.42181845218554931 0.46689196754961898 0 0.40347870599648222 0.48104579275198162 0 0.42181845218554931 0.46689196754961898 0 0.40347870599648222 0.48104579275198162 0 0.4430514933199674 0.47403299272245891 0 0.42776224665573293 0.48439415060481072 0 0.42181845218554931 0.46689196754961898 0 0.44015819837462111 0.45273814234726267 0 0.4430514933199674 0.47403299272245891 0 0.42181845218554931 0.46689196754961898 0 0.44015819837462111 0.45273814234726267 0 0.41520548757617298 0.44865841945199231 0 0.42181845218554931 0.46689196754961898 0 0.44015819837462111 0.45273814234726267 0 0.42181845218554931 0.46689196754961898 0 0.43029663994641398 0.4364743849276026 0 0.44015819837462111 0.45273814234726267 0 0.41520548757617298 0.44865841945199231 0 0.40209533532913372 0.43436445271029372 0 0.43029663994641398 0.4364743849276026 0 0.41520548757617298 0.44865841945199231 0 0.41520548757617298 0.44865841945199231 0 0.42181845218554931 0.46689196754961898 0 0.39857814838418498 0.46238845545014118 0 0.40209533532913372 0.43436445271029372 0 0.39857814838418498 0.46238845545014118 0 0.39857814838418498 0.46238845545014118 0 0.39232646283124478 0.43858712195014232 0 0.40209533532913372 0.43436445271029372 0 0.41520548757617298 0.44865841945199231 0 0.39857814838418498 0.46238845545014118 0 0.40209533532913372 0.43436445271029372 0 0.39857814838418498 0.46238845545014118 0 0.39232646283124478 0.43858712195014232 0 0.39857814838418498 0.46238845545014118 0 0.39232646283124478 0.43858712195014232 0 0.37975837081719249 0.4521724430909031 0 0.39232646283124478 0.43858712195014232 0 0.37975837081719249 0.4521724430909031 0 0.37960902688801779 0.43901969975997629 0 0.39857814838418498 0.46238845545014118 0 0.37975837081719249 0.4521724430909031 0 0.37998895414337919 0.4751771938420204 0 0.37891888946814728 0.50000000000000244 0 0.39545982513490302 0.48723441918459831 0 0.37998895414337919 0.4751771938420204 0 0.37891888946814728 0.50000000000000244 0 0.39545982513490302 0.48723441918459831 0 0.37891888946814728 0.50000000000000244 0 0.39545982513490302 0.48723441918459831 0 0.39385766520773491 0.500000000000004 0 0.40845723980930249 0.49999999999999828 0 0.40347870599648222 0.48104579275198162 0 0.40845723980930249 0.49999999999999828 0 0.40031335903710419 0.49207005298414308 0 0.40347870599648222 0.48104579275198162 0 0.39545982513490302 0.48723441918459831 0 0.39385766520773491 0.500000000000004 0 0.39545982513490302 0.48723441918459831 0 0.39385766520773491 0.500000000000004 0 0.40031335903710419 0.49207005298414308 0 0.40845723980930249 0.49999999999999828 0 0.39385766520773491 0.500000000000004 0 0.40031335903710419 0.49207005298414308 0 0.39545982513490302 0.48723441918459831 0 0.40031335903710419 0.49207005298414308 0 0.40347870599648222 0.48104579275198162 0 0.39857814838418498 0.46238845545014118 0 0.39545982513490302 0.48723441918459831 0 0.40347870599648222 0.48104579275198162 0 0.39545982513490302 0.48723441918459831 0 0.40347870599648222 0.48104579275198162 0 0.39857814838418498 0.46238845545014118 0 0.37998895414337919 0.4751771938420204 0 0.39545982513490302 0.48723441918459831 0 0.39857814838418498 0.46238845545014118 0 0.40347870599648222 0.48104579275198162 0 0.39857814838418498 0.46238845545014118 0 0.39545982513490302 0.48723441918459831 0 0.3251701127539588 0.07670865926215692 0 0.32223566914419932 0.089710260142596254 0 0.34419921751893567 0.09040503999502586 0 0.32223566914419932 0.089710260142596254 0 0.34419921751893567 0.09040503999502586 0 0.33310627217157551 0.064632767628747159 0 0.34419921751893567 0.09040503999502586 0 0.33310627217157551 0.064632767628747159 0 0.3251701127539588 0.07670865926215692 0 0.34419921751893567 0.09040503999502586 0 0.33310627217157551 0.064632767628747159 0 0.34419921751893567 0.09040503999502586 0 0.34632257687819468 0.073824676714281889 0 0.34345748295944378 0.063209885041838887 0 0.33310627217157551 0.064632767628747159 0 0.34632257687819468 0.073824676714281889 0 0.3251701127539588 0.07670865926215692 0 0.31856057207364979 0.063660162402345177 0 0.30774883286143401 0.07513506614207012 0 0.33310627217157551 0.064632767628747159 0 0.3251701127539588 0.07670865926215692 0 0.31856057207364979 0.063660162402345177 0 0.3251701127539588 0.07670865926215692 0 0.32223566914419932 0.089710260142596254 0 0.30774883286143401 0.07513506614207012 0 0.32223566914419932 0.089710260142596254 0 0.31591613234123589 0.10296532836048319 0 0.30027212076946302 0.089015480290167481 0 0.31591613234123589 0.10296532836048319 0 0.3235055528938629 0.11568337333176019 0 0.32935229489477291 0.1022830433641653 0 0.32223566914419932 0.089710260142596254 0 0.31591613234123589 0.10296532836048319 0 0.32935229489477291 0.1022830433641653 0 0.31591613234123589 0.10296532836048319 0 0.3235055528938629 0.11568337333176019 0 0.3036301023352681 0.11022442911188859 0 0.3235055528938629 0.11568337333176019 0 0.33808454579379787 0.1208319537353893 0 0.32716002178730552 0.1319335824544717 0 0.3235055528938629 0.11568337333176019 0 0.33808454579379787 0.1208319537353893 0 0.33816415064235372 0.10917868755689419 0 0.33808454579379787 0.1208319537353893 0 0.33816415064235372 0.10917868755689419 0 0.35033179458985719 0.11155920541702399 0 0.32223566914419932 0.089710260142596254 0 0.32935229489477291 0.1022830433641653 0 0.34419921751893567 0.09040503999502586 0 0.32935229489477291 0.1022830433641653 0 0.33816415064235372 0.10917868755689419 0 0.34419921751893567 0.09040503999502586 0 0.3235055528938629 0.11568337333176019 0 0.32935229489477291 0.1022830433641653 0 0.33816415064235372 0.10917868755689419 0 0.35339629107495402 0.11177262788410081 0 0.34419921751893567 0.09040503999502586 0 0.35033179458985719 0.11155920541702399 0 0.35339629107495402 0.11177262788410081 0 0.34419921751893567 0.09040503999502586 0 0.35339629107495402 0.11177262788410081 0 0.36676581101795308 0.1057346461690969 0 0.34419921751893567 0.09040503999502586 0 0.33816415064235372 0.10917868755689419 0 0.35033179458985719 0.11155920541702399 0 0.34419921751893567 0.09040503999502586 0 0.35033179458985719 0.11155920541702399 0 0.34778801014286009 0.13274084722197321 0 0.33808454579379787 0.1208319537353893 0 0.35033179458985719 0.11155920541702399 0 0.34778801014286009 0.13274084722197321 0 0.35033179458985719 0.11155920541702399 0 0.35598689978338838 0.120327213078831 0 0.34778801014286009 0.13274084722197321 0 0.35339629107495402 0.11177262788410081 0 0.35598689978338838 0.120327213078831 0 0.36338728626206701 0.11600757243024561 0 0.35033179458985719 0.11155920541702399 0 0.35339629107495402 0.11177262788410081 0 0.35598689978338838 0.120327213078831 0 0.35598689978338838 0.120327213078831 0 0.36338728626206701 0.11600757243024561 0 0.36503111684720357 0.1295558124408113 0 0.35339629107495402 0.11177262788410081 0 0.36338728626206701 0.11600757243024561 0 0.36676581101795308 0.1057346461690969 0 0.36338728626206701 0.11600757243024561 0 0.36676581101795308 0.1057346461690969 0 0.37857746106597362 0.11443442834108709 0 0.36338728626206701 0.11600757243024561 0 0.36503111684720357 0.1295558124408113 0 0.37857746106597362 0.11443442834108709 0 0.36676581101795308 0.1057346461690969 0 0.36856668309973922 0.091175863718561775 0 0.38869302306912329 0.099781084704444634 0 0.36676581101795308 0.1057346461690969 0 0.36856668309973922 0.091175863718561775 0 0.34419921751893567 0.09040503999502586 0 0.36856668309973922 0.091175863718561775 0 0.3585020428049116 0.078128773291039719 0 0.37219205993716498 0.075271695478946812 0 0.36856668309973922 0.091175863718561775 0 0.34419921751893567 0.09040503999502586 0 0.3585020428049116 0.078128773291039719 0 0.36856668309973922 0.091175863718561775 0 0.34419921751893567 0.09040503999502586 0 0.34419921751893567 0.09040503999502586 0 0.3585020428049116 0.078128773291039719 0 0.34632257687819468 0.073824676714281889 0 0.34345748295944378 0.063209885041838887 0 0.34632257687819468 0.073824676714281889 0 0.35338926161307532 0.063070195316053554 0 0.3585020428049116 0.078128773291039719 0 0.34632257687819468 0.073824676714281889 0 0.35338926161307532 0.063070195316053554 0 0.3585020428049116 0.078128773291039719 0 0.35338926161307532 0.063070195316053554 0 0.36648624704833799 0.063930408331226873 0 0.3585020428049116 0.078128773291039719 0 0.36648624704833799 0.063930408331226873 0 0.37219205993716498 0.075271695478946812 0 0.36648624704833799 0.063930408331226873 0 0.37219205993716498 0.075271695478946812 0 0.37943166366568348 0.064165601201817898 0 0.37023196750437543 0.053157849020564363 0 0.36758585316530151 0.04307837352455287 0 0.38629219858503311 0.054385830409766772 0 0.36648624704833799 0.063930408331226873 0 0.37023196750437543 0.053157849020564363 0 0.37943166366568348 0.064165601201817898 0 0.36648624704833799 0.063930408331226873 0 0.36018106914550929 0.055415846390789253 0 0.37023196750437543 0.053157849020564363 0 0.35338926161307532 0.063070195316053554 0 0.36648624704833799 0.063930408331226873 0 0.36018106914550929 0.055415846390789253 0 0.36018106914550929 0.055415846390789253 0 0.36417112801091722 0.049361897593354541 0 0.37023196750437543 0.053157849020564363 0 0.36018106914550929 0.055415846390789253 0 0.36417112801091722 0.049361897593354541 0 0.35826866359657861 0.045324084269206193 0 0.36417112801091722 0.049361897593354541 0 0.37023196750437543 0.053157849020564363 0 0.36758585316530151 0.04307837352455287 0 0.37023196750437543 0.053157849020564363 0 0.36758585316530151 0.04307837352455287 0 0.36758585316530151 0.04307837352455287 0 0.35242691957667532 0.033452211770763407 0 0.36079764876796439 0.01722101019201094 0 0.36417112801091722 0.049361897593354541 0 0.36758585316530151 0.04307837352455287 0 0.35826866359657861 0.045324084269206193 0 0.36758585316530151 0.04307837352455287 0 0.35826866359657861 0.045324084269206193 0 0.35242691957667532 0.033452211770763407 0 0.36758585316530151 0.04307837352455287 0 0.35826866359657861 0.045324084269206193 0 0.35826866359657861 0.045324084269206193 0 0.35242691957667532 0.033452211770763407 0 0.34877818116498011 0.044382577184581218 0 0.35242691957667532 0.033452211770763407 0 0.3406285056852581 0.030232861520943611 0 0.34153509313355113 0.038971217231398188 0 0.35242691957667532 0.033452211770763407 0 0.34877818116498011 0.044382577184581218 0 0.34153509313355113 0.038971217231398188 0 0.34877818116498011 0.044382577184581218 0 0.34105063041119582 0.045922334801940648 0 0.34153509313355113 0.038971217231398188 0 0.34877818116498011 0.044382577184581218 0 0.34552969098706132 0.052991952606200862 0 0.34105063041119582 0.045922334801940648 0 0.34877818116498011 0.044382577184581218 0 0.34552969098706132 0.052991952606200862 0 0.35322937330144089 0.052236931153366209 0 0.35338926161307532 0.063070195316053554 0 0.34552969098706132 0.052991952606200862 0 0.35322937330144089 0.052236931153366209 0 0.34345748295944378 0.063209885041838887 0 0.35338926161307532 0.063070195316053554 0 0.34552969098706132 0.052991952606200862 0 0.35338926161307532 0.063070195316053554 0 0.36018106914550929 0.055415846390789253 0 0.35322937330144089 0.052236931153366209 0 0.35826866359657861 0.045324084269206193 0 0.34877818116498011 0.044382577184581218 0 0.35322937330144089 0.052236931153366209 0 0.36018106914550929 0.055415846390789253 0 0.35826866359657861 0.045324084269206193 0 0.35322937330144089 0.052236931153366209 0 0.36079764876796439 0.01722101019201094 0 0.38508021846864099 0.01048925277870697 0 0.37483061222028102 -0.0032252882618771998 0 0.36079764876796439 0.01722101019201094 0 0.37483061222028102 -0.0032252882618771998 0 0.35400944437062698 -0.0086363531405309717 0 0.36758585316530151 0.04307837352455287 0 0.36079764876796439 0.01722101019201094 0 0.3777272165743325 0.026584446307561332 0 0.36079764876796439 0.01722101019201094 0 0.38508021846864099 0.01048925277870697 0 0.3777272165743325 0.026584446307561332 0 0.36758585316530151 0.04307837352455287 0 0.36079764876796439 0.01722101019201094 0 0.36079764876796439 0.01722101019201094 0 0.34695908807460801 0.023394978431357221 0 0.34329327054355702 0.0132778534706247 0 0.35242691957667532 0.033452211770763407 0 0.36079764876796439 0.01722101019201094 0 0.34695908807460801 0.023394978431357221 0 0.35242691957667532 0.033452211770763407 0 0.34695908807460801 0.023394978431357221 0 0.3406285056852581 0.030232861520943611 0 0.36079764876796439 0.01722101019201094 0 0.35400944437062698 -0.0086363531405309717 0 0.36079764876796439 0.01722101019201094 0 0.34487597080080412 0.0013759612954862509 0 0.35400944437062698 -0.0086363531405309717 0 0.36079764876796439 0.01722101019201094 0 0.34487597080080412 0.0013759612954862509 0 0.34329327054355702 0.0132778534706247 0 0.34487597080080412 0.0013759612954862509 0 0.3334474114775503 0.0062169574195121658 0 0.34329327054355702 0.0132778534706247 0 0.34487597080080412 0.0013759612954862509 0 0.3334474114775503 0.0062169574195121658 0 0.33453715787545402 -0.0061599611328663102 0 0.3334474114775503 0.0062169574195121658 0 0.34329327054355702 0.0132778534706247 0 0.33349322538625059 0.01566595647101697 0 0.3334474114775503 0.0062169574195121658 0 0.33349322538625059 0.01566595647101697 0 0.326625617697829 0.013734644523270469 0 0.33349322538625059 0.01566595647101697 0 0.32680109079736253 0.022143259403650362 0 0.326625617697829 0.013734644523270469 0 0.33349322538625059 0.01566595647101697 0 0.33764909579958541 0.022790955202443459 0 0.32680109079736253 0.022143259403650362 0 0.34695908807460801 0.023394978431357221 0 0.34329327054355702 0.0132778534706247 0 0.33764909579958541 0.022790955202443459 0 0.34329327054355702 0.0132778534706247 0 0.33349322538625059 0.01566595647101697 0 0.33764909579958541 0.022790955202443459 0 0.33764909579958541 0.022790955202443459 0 0.3406285056852581 0.030232861520943611 0 0.33194431932647439 0.028710276432398599 0 0.34695908807460801 0.023394978431357221 0 0.33764909579958541 0.022790955202443459 0 0.3406285056852581 0.030232861520943611 0 0.33764909579958541 0.022790955202443459 0 0.33194431932647439 0.028710276432398599 0 0.32680109079736253 0.022143259403650362 0 0.33194431932647439 0.028710276432398599 0 0.32680109079736253 0.022143259403650362 0 0.32370440315086479 0.031734162287212188 0 0.3159903966876012 0.025452142787676039 0 0.32680109079736253 0.022143259403650362 0 0.32370440315086479 0.031734162287212188 0 0.3159903966876012 0.025452142787676039 0 0.32370440315086479 0.031734162287212188 0 0.30992827284934149 0.034978144597183687 0 0.3159903966876012 0.025452142787676039 0 0.31920057890309772 0.016035965492662781 0 0.3077134461258062 0.016757883405179148 0 0.31920057890309772 0.016035965492662781 0 0.32680109079736253 0.022143259403650362 0 0.326625617697829 0.013734644523270469 0 0.3159903966876012 0.025452142787676039 0 0.31920057890309772 0.016035965492662781 0 0.32680109079736253 0.022143259403650362 0 0.3334474114775503 0.0062169574195121658 0 0.326625617697829 0.013734644523270469 0 0.32324091575886382 0.0071625842632203523 0 0.31920057890309772 0.016035965492662781 0 0.326625617697829 0.013734644523270469 0 0.32324091575886382 0.0071625842632203523 0 0.31920057890309772 0.016035965492662781 0 0.3147943296310447 0.0086731194911488906 0 0.3077134461258062 0.016757883405179148 0 0.31920057890309772 0.016035965492662781 0 0.3147943296310447 0.0086731194911488906 0 0.32324091575886382 0.0071625842632203523 0 0.3147943296310447 0.0086731194911488906 0 0.32041722914701948 -0.0018902658603662571 0 0.3110389812754043 -0.003034109782157705 0 0.3147943296310447 0.0086731194911488906 0 0.32324091575886382 0.0071625842632203523 0 0.32041722914701948 -0.0018902658603662571 0 0.32324091575886382 0.0071625842632203523 0 0.32041722914701948 -0.0018902658603662571 0 0.32742983789552321 -0.00076994107897217277 0 0.3334474114775503 0.0062169574195121658 0 0.32324091575886382 0.0071625842632203523 0 0.32742983789552321 -0.00076994107897217277 0 0.33310627217157551 0.064632767628747159 0 0.33498690214366261 0.050984346416019413 0 0.32201332682421568 0.038860495262468361 0 0.34345748295944378 0.063209885041838887 0 0.34552969098706132 0.052991952606200862 0 0.33498690214366261 0.050984346416019413 0 0.34345748295944378 0.063209885041838887 0 0.33310627217157551 0.064632767628747159 0 0.33498690214366261 0.050984346416019413 0 0.34552969098706132 0.052991952606200862 0 0.33498690214366261 0.050984346416019413 0 0.34105063041119582 0.045922334801940648 0 0.33498690214366261 0.050984346416019413 0 0.34105063041119582 0.045922334801940648 0 0.33442328462672383 0.042281580571503552 0 0.34105063041119582 0.045922334801940648 0 0.34153509313355113 0.038971217231398188 0 0.33442328462672383 0.042281580571503552 0 0.3406285056852581 0.030232861520943611 0 0.34153509313355113 0.038971217231398188 0 0.33214257948690601 0.035589758274878161 0 0.34153509313355113 0.038971217231398188 0 0.33214257948690601 0.035589758274878161 0 0.33442328462672383 0.042281580571503552 0 0.33214257948690601 0.035589758274878161 0 0.33442328462672383 0.042281580571503552 0 0.32201332682421568 0.038860495262468361 0 0.3406285056852581 0.030232861520943611 0 0.33194431932647439 0.028710276432398599 0 0.33214257948690601 0.035589758274878161 0 0.33194431932647439 0.028710276432398599 0 0.33214257948690601 0.035589758274878161 0 0.32370440315086479 0.031734162287212188 0 0.33498690214366261 0.050984346416019413 0 0.33442328462672383 0.042281580571503552 0 0.32201332682421568 0.038860495262468361 0 0.32370440315086479 0.031734162287212188 0 0.3071459827836196 0.052374464936521647 0 0.30992827284934149 0.034978144597183687 0 0.32370440315086479 0.031734162287212188 0 0.32201332682421568 0.038860495262468361 0 0.3071459827836196 0.052374464936521647 0 0.32370440315086479 0.031734162287212188 0 0.3071459827836196 0.052374464936521647 0 0.33214257948690601 0.035589758274878161 0 0.32370440315086479 0.031734162287212188 0 0.32201332682421568 0.038860495262468361 0 0.33310627217157551 0.064632767628747159 0 0.32201332682421568 0.038860495262468361 0 0.32201332682421568 0.038860495262468361 0 0.32020653846326519 0.054881972557520593 0 0.3071459827836196 0.052374464936521647 0 0.33310627217157551 0.064632767628747159 0 0.32201332682421568 0.038860495262468361 0 0.32020653846326519 0.054881972557520593 0 0.33310627217157551 0.064632767628747159 0 0.31856057207364979 0.063660162402345177 0 0.32020653846326519 0.054881972557520593 0 0.31856057207364979 0.063660162402345177 0 0.32020653846326519 0.054881972557520593 0 0.3071459827836196 0.052374464936521647 0 0.31856057207364979 0.063660162402345177 0 0.3071459827836196 0.052374464936521647 0 0.31856057207364979 0.063660162402345177 0 0.3071459827836196 0.052374464936521647 0 0.30654566632696911 0.065379319042016548 0 0.3071459827836196 0.052374464936521647 0 0.29272727758917289 0.07034758268712929 0 0.3071459827836196 0.052374464936521647 0 0.30992827284934149 0.034978144597183687 0 0.2906413280851281 0.036056178314707921 0 0.3071459827836196 0.052374464936521647 0 0.2906413280851281 0.036056178314707921 0 0.30992827284934149 0.034978144597183687 0 0.2906413280851281 0.036056178314707921 0 0.30434598039540872 0.027277682181096712 0 0.3071459827836196 0.052374464936521647 0 0.2906413280851281 0.036056178314707921 0 0.28167681474417522 0.057020669878974937 0 0.3071459827836196 0.052374464936521647 0 0.28167681474417522 0.057020669878974937 0 0.29272727758917289 0.07034758268712929 0 0.30691493272438269 0.0052758208176783084 0 0.29917648593500762 0.0091830457688004876 0 0.2974061074109331 -0.0033338883359669579 0 0.3147943296310447 0.0086731194911488906 0 0.30691493272438269 0.0052758208176783084 0 0.3110389812754043 -0.003034109782157705 0 0.3147943296310447 0.0086731194911488906 0 0.30691493272438269 0.0052758208176783084 0 0.3077134461258062 0.016757883405179148 0 0.29917648593500762 0.0091830457688004876 0 0.3077134461258062 0.016757883405179148 0 0.29361989631601648 0.019822638578126401 0 0.30691493272438269 0.0052758208176783084 0 0.29917648593500762 0.0091830457688004876 0 0.3077134461258062 0.016757883405179148 0 0.3077134461258062 0.016757883405179148 0 0.30434598039540872 0.027277682181096712 0 0.29361989631601648 0.019822638578126401 0 0.3159903966876012 0.025452142787676039 0 0.3077134461258062 0.016757883405179148 0 0.30434598039540872 0.027277682181096712 0 0.3159903966876012 0.025452142787676039 0 0.30992827284934149 0.034978144597183687 0 0.30434598039540872 0.027277682181096712 0 0.2906413280851281 0.036056178314707921 0 0.27432563148699762 0.018338512856476249 0 0.27945097921065187 0.020364273618274101 0 0.2906413280851281 0.036056178314707921 0 0.30434598039540872 0.027277682181096712 0 0.29361989631601648 0.019822638578126401 0 0.2906413280851281 0.036056178314707921 0 0.27432563148699762 0.018338512856476249 0 0.2906413280851281 0.036056178314707921 0 0.29361989631601648 0.019822638578126401 0 0.27945097921065187 0.020364273618274101 0 0.29361989631601648 0.019822638578126401 0 0.28326447811533417 0.01157192552768857 0 0.27945097921065187 0.020364273618274101 0 0.28326447811533417 0.01157192552768857 0 0.29022804709789918 0.0073927743789855491 0 0.27757565750313329 -0.0057304083282169217 0 0.29917648593500762 0.0091830457688004876 0 0.29361989631601648 0.019822638578126401 0 0.29022804709789918 0.0073927743789855491 0 0.29361989631601648 0.019822638578126401 0 0.28326447811533417 0.01157192552768857 0 0.29022804709789918 0.0073927743789855491 0 0.29917648593500762 0.0091830457688004876 0 0.29022804709789918 0.0073927743789855491 0 0.2974061074109331 -0.0033338883359669579 0 0.26673170150550152 0.00064825062450301653 0 0.27498653882609769 0.013443989989233591 0 0.27757565750313329 -0.0057304083282169217 0 0.27498653882609769 0.013443989989233591 0 0.27757565750313329 -0.0057304083282169217 0 0.28326447811533417 0.01157192552768857 0 0.27498653882609769 0.013443989989233591 0 0.27757565750313329 -0.0057304083282169217 0 0.26673170150550152 0.00064825062450301653 0 0.27498653882609769 0.013443989989233591 0 0.2635740996266393 0.0092945889259785676 0 0.26673170150550152 0.00064825062450301653 0 0.27498653882609769 0.013443989989233591 0 0.28326447811533417 0.01157192552768857 0 0.27498653882609769 0.013443989989233591 0 0.27945097921065187 0.020364273618274101 0 0.27432563148699762 0.018338512856476249 0 0.2635740996266393 0.0092945889259785676 0 0.27498653882609769 0.013443989989233591 0 0.27432563148699762 0.018338512856476249 0 0.2635740996266393 0.0092945889259785676 0 0.27432563148699762 0.018338512856476249 0 0.26461712110510449 0.016815878076237009 0 0.2635740996266393 0.0092945889259785676 0 0.27432563148699762 0.018338512856476249 0 0.26878046530194988 0.029691927586818091 0 0.25650491799959352 0.036507515543757703 0 0.27432563148699762 0.018338512856476249 0 0.26878046530194988 0.029691927586818091 0 0.27094448098348528 0.043378510868404052 0 0.27432563148699762 0.018338512856476249 0 0.27094448098348528 0.043378510868404052 0 0.27432563148699762 0.018338512856476249 0 0.25998509299434769 0.022886916478296972 0 0.26461712110510449 0.016815878076237009 0 0.27498653882609769 0.013443989989233591 0 0.27432563148699762 0.018338512856476249 0 0.27945097921065187 0.020364273618274101 0 0.27498653882609769 0.013443989989233591 0 0.27945097921065187 0.020364273618274101 0 0.27498653882609769 0.013443989989233591 0 0.27432563148699762 0.018338512856476249 0 0.27432563148699762 0.018338512856476249 0 0.25650491799959352 0.036507515543757703 0 0.27432563148699762 0.018338512856476249 0 0.25998509299434769 0.022886916478296972 0 0.25650491799959352 0.036507515543757703 0 0.2488208660698156 0.024893742846385462 0 0.25998509299434769 0.022886916478296972 0 0.25650491799959352 0.036507515543757703 0 0.2488208660698156 0.024893742846385462 0 0.25998509299434769 0.022886916478296972 0 0.25392424779940193 0.013803051573067391 0 0.25998509299434769 0.022886916478296972 0 0.26461712110510449 0.016815878076237009 0 0.25392424779940193 0.013803051573067391 0 0.26461712110510449 0.016815878076237009 0 0.2635740996266393 0.0092945889259785676 0 0.25392424779940193 0.013803051573067391 0 0.2635740996266393 0.0092945889259785676 0 0.25392424779940193 0.013803051573067391 0 0.25539330519756809 0.0004604523674139167 0 0.24619606834605909 0.0052377862522218566 0 0.25392424779940193 0.013803051573067391 0 0.25539330519756809 0.0004604523674139167 0 0.26673170150550152 0.00064825062450301653 0 0.2635740996266393 0.0092945889259785676 0 0.25539330519756809 0.0004604523674139167 0 0.28167681474417522 0.057020669878974937 0 0.262813415225922 0.055456230599151772 0 0.26953178610404671 0.066647803057972174 0 0.28167681474417522 0.057020669878974937 0 0.27094448098348528 0.043378510868404052 0 0.262813415225922 0.055456230599151772 0 0.2906413280851281 0.036056178314707921 0 0.27432563148699762 0.018338512856476249 0 0.27094448098348528 0.043378510868404052 0 0.2906413280851281 0.036056178314707921 0 0.28167681474417522 0.057020669878974937 0 0.27094448098348528 0.043378510868404052 0 0.2394740471611039 0.053871238845297917 0 0.25650491799959352 0.036507515543757703 0 0.25571699748515131 0.049496503273623808 0 0.27094448098348528 0.043378510868404052 0 0.25650491799959352 0.036507515543757703 0 0.25571699748515131 0.049496503273623808 0 0.26878046530194988 0.029691927586818091 0 0.27094448098348528 0.043378510868404052 0 0.25650491799959352 0.036507515543757703 0 0.24884812605565171 0.05826902051150757 0 0.25571699748515131 0.049496503273623808 0 0.262813415225922 0.055456230599151772 0 0.27094448098348528 0.043378510868404052 0 0.25571699748515131 0.049496503273623808 0 0.262813415225922 0.055456230599151772 0 0.24884812605565171 0.05826902051150757 0 0.262813415225922 0.055456230599151772 0 0.25692606960439601 0.069333301825933891 0 0.24800882400270011 0.067846839465396949 0 0.24884812605565171 0.05826902051150757 0 0.25692606960439601 0.069333301825933891 0 0.24510103268691749 0.076001689946383469 0 0.25692606960439601 0.069333301825933891 0 0.25716355122997991 0.087651813314684204 0 0.24510103268691749 0.076001689946383469 0 0.24800882400270011 0.067846839465396949 0 0.25692606960439601 0.069333301825933891 0 0.25692606960439601 0.069333301825933891 0 0.26953178610404671 0.066647803057972174 0 0.26805392904367398 0.077548810946722196 0 0.262813415225922 0.055456230599151772 0 0.25692606960439601 0.069333301825933891 0 0.26953178610404671 0.066647803057972174 0 0.25692606960439601 0.069333301825933891 0 0.25716355122997991 0.087651813314684204 0 0.26805392904367398 0.077548810946722196 0 0.25716355122997991 0.087651813314684204 0 0.27830857239472678 0.088320700437737293 0 0.25716355122997991 0.087651813314684204 0 0.27830857239472678 0.088320700437737293 0 0.26805392904367398 0.077548810946722196 0 0.25716355122997991 0.087651813314684204 0 0.27830857239472678 0.088320700437737293 0 0.26727326196086809 0.1020763692836902 0 0.27830857239472678 0.088320700437737293 0 0.26805392904367398 0.077548810946722196 0 0.27813967309231968 0.073066634171871814 0 0.28167681474417522 0.057020669878974937 0 0.26953178610404671 0.066647803057972174 0 0.27813967309231968 0.073066634171871814 0 0.26953178610404671 0.066647803057972174 0 0.26805392904367398 0.077548810946722196 0 0.27813967309231968 0.073066634171871814 0 0.27830857239472678 0.088320700437737293 0 0.27813967309231968 0.073066634171871814 0 0.29272727758917289 0.07034758268712929 0 0.28167681474417522 0.057020669878974937 0 0.27813967309231968 0.073066634171871814 0 0.29272727758917289 0.07034758268712929 0 0.27830857239472678 0.088320700437737293 0 0.30027212076946302 0.089015480290167481 0 0.27830857239472678 0.088320700437737293 0 0.30027212076946302 0.089015480290167481 0 0.28888197014263789 0.1013956877255834 0 0.27830857239472678 0.088320700437737293 0 0.29272727758917289 0.07034758268712929 0 0.30027212076946302 0.089015480290167481 0 0.27830857239472678 0.088320700437737293 0 0.29272727758917289 0.07034758268712929 0 0.32223566914419932 0.089710260142596254 0 0.30027212076946302 0.089015480290167481 0 0.32223566914419932 0.089710260142596254 0 0.30027212076946302 0.089015480290167481 0 0.30774883286143401 0.07513506614207012 0 0.29272727758917289 0.07034758268712929 0 0.30027212076946302 0.089015480290167481 0 0.30774883286143401 0.07513506614207012 0 0.3071459827836196 0.052374464936521647 0 0.29272727758917289 0.07034758268712929 0 0.30654566632696911 0.065379319042016548 0 0.31856057207364979 0.063660162402345177 0 0.30774883286143401 0.07513506614207012 0 0.30654566632696911 0.065379319042016548 0 0.29272727758917289 0.07034758268712929 0 0.30774883286143401 0.07513506614207012 0 0.30654566632696911 0.065379319042016548 0 0.3036301023352681 0.11022442911188859 0 0.29594959839325519 0.1220025925311113 0 0.30646171384198639 0.12816887978164249 0 0.3235055528938629 0.11568337333176019 0 0.3036301023352681 0.11022442911188859 0 0.30646171384198639 0.12816887978164249 0 0.30027212076946302 0.089015480290167481 0 0.3036301023352681 0.11022442911188859 0 0.28888197014263789 0.1013956877255834 0 0.31591613234123589 0.10296532836048319 0 0.30027212076946302 0.089015480290167481 0 0.3036301023352681 0.11022442911188859 0 0.3036301023352681 0.11022442911188859 0 0.28888197014263789 0.1013956877255834 0 0.28984643880382888 0.11391212465973589 0 0.27830857239472678 0.088320700437737293 0 0.28888197014263789 0.1013956877255834 0 0.27759447922305269 0.102300292138243 0 0.28888197014263789 0.1013956877255834 0 0.28221875368247551 0.10834926947088031 0 0.27759447922305269 0.102300292138243 0 0.28888197014263789 0.1013956877255834 0 0.28221875368247551 0.10834926947088031 0 0.28984643880382888 0.11391212465973589 0 0.28221875368247551 0.10834926947088031 0 0.28984643880382888 0.11391212465973589 0 0.28001656231402239 0.1180285928905638 0 0.3036301023352681 0.11022442911188859 0 0.28984643880382888 0.11391212465973589 0 0.29594959839325519 0.1220025925311113 0 0.28984643880382888 0.11391212465973589 0 0.29594959839325519 0.1220025925311113 0 0.28705416155151181 0.1235799167985355 0 0.28705416155151181 0.1235799167985355 0 0.28001656231402239 0.1180285928905638 0 0.27869408403231938 0.12912450756314961 0 0.28984643880382888 0.11391212465973589 0 0.28705416155151181 0.1235799167985355 0 0.28001656231402239 0.1180285928905638 0 0.28001656231402239 0.1180285928905638 0 0.27179274644952989 0.12159424188978581 0 0.27869408403231938 0.12912450756314961 0 0.28221875368247551 0.10834926947088031 0 0.28001656231402239 0.1180285928905638 0 0.27128983793455541 0.1113594337733238 0 0.28001656231402239 0.1180285928905638 0 0.27128983793455541 0.1113594337733238 0 0.27179274644952989 0.12159424188978581 0 0.27128983793455541 0.1113594337733238 0 0.26518573681769569 0.1190276846564338 0 0.26073669164644431 0.1108882927048976 0 0.27128983793455541 0.1113594337733238 0 0.27179274644952989 0.12159424188978581 0 0.26518573681769569 0.1190276846564338 0 0.27179274644952989 0.12159424188978581 0 0.26518573681769569 0.1190276846564338 0 0.26437425350213761 0.1257716527260245 0 0.27830857239472678 0.088320700437737293 0 0.27759447922305269 0.102300292138243 0 0.26727326196086809 0.1020763692836902 0 0.28221875368247551 0.10834926947088031 0 0.27128983793455541 0.1113594337733238 0 0.27759447922305269 0.102300292138243 0 0.27128983793455541 0.1113594337733238 0 0.26727326196086809 0.1020763692836902 0 0.26073669164644431 0.1108882927048976 0 0.27128983793455541 0.1113594337733238 0 0.27759447922305269 0.102300292138243 0 0.26727326196086809 0.1020763692836902 0 0.27830857239472678 0.088320700437737293 0 0.26727326196086809 0.1020763692836902 0 0.25716355122997991 0.087651813314684204 0 0.26727326196086809 0.1020763692836902 0 0.25647320428212161 0.1026232910582171 0 0.26727326196086809 0.1020763692836902 0 0.25647320428212161 0.1026232910582171 0 0.26073669164644431 0.1108882927048976 0 0.24964033317715059 0.1130154559540677 0 0.25647320428212161 0.1026232910582171 0 0.26073669164644431 0.1108882927048976 0 0.24964033317715059 0.1130154559540677 0 0.24611891882383971 0.1006270183858942 0 0.25647320428212161 0.1026232910582171 0 0.24611891882383971 0.1006270183858942 0 0.25716355122997991 0.087651813314684204 0 0.25647320428212161 0.1026232910582171 0 0.26073669164644431 0.1108882927048976 0 0.25777762031448642 0.12882524828628061 0 0.26518573681769569 0.1190276846564338 0 0.26073669164644431 0.1108882927048976 0 0.25777762031448642 0.12882524828628061 0 0.24964033317715059 0.1130154559540677 0 0.26073669164644431 0.1108882927048976 0 0.25777762031448642 0.12882524828628061 0 0.26518573681769569 0.1190276846564338 0 0.25777762031448642 0.12882524828628061 0 0.26437425350213761 0.1257716527260245 0 0.25777762031448642 0.12882524828628061 0 0.25484921835653429 0.14657629581153281 0 0.24498662208429181 0.13092789129870561 0 0.25777762031448642 0.12882524828628061 0 0.25484921835653429 0.14657629581153281 0 0.25777762031448642 0.12882524828628061 0 0.26877114673166569 0.13194669517140159 0 0.25484921835653429 0.14657629581153281 0 0.25777762031448642 0.12882524828628061 0 0.26437425350213761 0.1257716527260245 0 0.26877114673166569 0.13194669517140159 0 0.27179274644952989 0.12159424188978581 0 0.26437425350213761 0.1257716527260245 0 0.26877114673166569 0.13194669517140159 0 0.26877114673166569 0.13194669517140159 0 0.27579764954618519 0.14275312355239861 0 0.25484921835653429 0.14657629581153281 0 0.27179274644952989 0.12159424188978581 0 0.26877114673166569 0.13194669517140159 0 0.27869408403231938 0.12912450756314961 0 0.26877114673166569 0.13194669517140159 0 0.27869408403231938 0.12912450756314961 0 0.27579764954618519 0.14275312355239861 0 0.27579764954618519 0.14275312355239861 0 0.27787831773205662 0.16237961729270001 0 0.28800453427130879 0.14945279939107009 0 0.27579764954618519 0.14275312355239861 0 0.25484921835653429 0.14657629581153281 0 0.27787831773205662 0.16237961729270001 0 0.25484921835653429 0.14657629581153281 0 0.27787831773205662 0.16237961729270001 0 0.25484921835653429 0.14657629581153281 0 0.25138800100100789 0.1675571019492901 0 0.25484921835653429 0.14657629581153281 0 0.25138800100100789 0.1675571019492901 0 0.27787831773205662 0.16237961729270001 0 0.25138800100100789 0.1675571019492901 0 0.26324340392666229 0.17647444589560851 0 0.27787831773205662 0.16237961729270001 0 0.2479267836454804 0.18853790808704729 0 0.25138800100100789 0.1675571019492901 0 0.26324340392666229 0.17647444589560851 0 0.2479267836454804 0.18853790808704729 0 0.26324340392666229 0.17647444589560851 0 0.25862611253905499 0.19132824549361821 0 0.26324340392666229 0.17647444589560851 0 0.25862611253905499 0.19132824549361821 0 0.26706841629520051 0.1902644509568166 0 0.26324340392666229 0.17647444589560851 0 0.27787831773205662 0.16237961729270001 0 0.28473151016634213 0.17771335493440421 0 0.26324340392666229 0.17647444589560851 0 0.27594466163120268 0.18598773850140279 0 0.28473151016634213 0.17771335493440421 0 0.26324340392666229 0.17647444589560851 0 0.27594466163120268 0.18598773850140279 0 0.26706841629520051 0.1902644509568166 0 0.27787831773205662 0.16237961729270001 0 0.29958915086103288 0.17956973525730341 0 0.30159101918436992 0.1618642382924399 0 0.27787831773205662 0.16237961729270001 0 0.30159101918436992 0.1618642382924399 0 0.28800453427130879 0.14945279939107009 0 0.27787831773205662 0.16237961729270001 0 0.29958915086103288 0.17956973525730341 0 0.27787831773205662 0.16237961729270001 0 0.28473151016634213 0.17771335493440421 0 0.29958915086103288 0.17956973525730341 0 0.28354507237646481 0.18555627614686021 0 0.28473151016634213 0.17771335493440421 0 0.29006625775371941 0.18675299395591849 0 0.27594466163120268 0.18598773850140279 0 0.28354507237646481 0.18555627614686021 0 0.28473151016634213 0.17771335493440421 0 0.29321510954106661 0.18285561533329811 0 0.29006625775371941 0.18675299395591849 0 0.29847351938317201 0.18738637718556639 0 0.28473151016634213 0.17771335493440421 0 0.29321510954106661 0.18285561533329811 0 0.29006625775371941 0.18675299395591849 0 0.28473151016634213 0.17771335493440421 0 0.29321510954106661 0.18285561533329811 0 0.29958915086103288 0.17956973525730341 0 0.29847351938317201 0.18738637718556639 0 0.29958915086103288 0.17956973525730341 0 0.31153220091520201 0.17833263618893491 0 0.29321510954106661 0.18285561533329811 0 0.29847351938317201 0.18738637718556639 0 0.29958915086103288 0.17956973525730341 0 0.29958915086103288 0.17956973525730341 0 0.31153220091520201 0.17833263618893491 0 0.30676384039041787 0.17019614001661959 0 0.29958915086103288 0.17956973525730341 0 0.31153220091520201 0.17833263618893491 0 0.30159101918436992 0.1618642382924399 0 0.31134165033730521 0.15069704763502051 0 0.31792382955787502 0.16194549409206729 0 0.31153220091520201 0.17833263618893491 0 0.30676384039041787 0.17019614001661959 0 0.31792382955787502 0.16194549409206729 0 0.29958915086103288 0.17956973525730341 0 0.30159101918436992 0.1618642382924399 0 0.30676384039041787 0.17019614001661959 0 0.30159101918436992 0.1618642382924399 0 0.30676384039041787 0.17019614001661959 0 0.31792382955787502 0.16194549409206729 0 0.30159101918436992 0.1618642382924399 0 0.31134165033730521 0.15069704763502051 0 0.30017496241644648 0.1449312257473902 0 0.31134165033730521 0.15069704763502051 0 0.30017496241644648 0.1449312257473902 0 0.31389076131671823 0.1402578175227448 0 0.30017496241644648 0.1449312257473902 0 0.30646171384198639 0.12816887978164249 0 0.31389076131671823 0.1402578175227448 0 0.30017496241644648 0.1449312257473902 0 0.30646171384198639 0.12816887978164249 0 0.29010060662607462 0.13434309344404821 0 0.29594959839325519 0.1220025925311113 0 0.30646171384198639 0.12816887978164249 0 0.29010060662607462 0.13434309344404821 0 0.29594959839325519 0.1220025925311113 0 0.28705416155151181 0.1235799167985355 0 0.29010060662607462 0.13434309344404821 0 0.28705416155151181 0.1235799167985355 0 0.27869408403231938 0.12912450756314961 0 0.29010060662607462 0.13434309344404821 0 0.27869408403231938 0.12912450756314961 0 0.27579764954618519 0.14275312355239861 0 0.29010060662607462 0.13434309344404821 0 0.27579764954618519 0.14275312355239861 0 0.29010060662607462 0.13434309344404821 0 0.28800453427130879 0.14945279939107009 0 0.30159101918436992 0.1618642382924399 0 0.30017496241644648 0.1449312257473902 0 0.28800453427130879 0.14945279939107009 0 0.30017496241644648 0.1449312257473902 0 0.29010060662607462 0.13434309344404821 0 0.28800453427130879 0.14945279939107009 0 0.26347511011625557 0.23421692359664059 0 0.28344559839917172 0.22989717206790211 0 0.28464777945004982 0.24726011295131869 0 0.26447930193717117 0.24706052181301319 0 0.26347511011625557 0.23421692359664059 0 0.28464777945004982 0.24726011295131869 0 0.26347511011625557 0.23421692359664059 0 0.28464777945004982 0.24726011295131869 0 0.24929547978304939 0.2383233617899719 0 0.25479644531309942 0.25874731555889569 0 0.26447930193717117 0.24706052181301319 0 0.24929547978304939 0.2383233617899719 0 0.25479644531309942 0.25874731555889569 0 0.24929547978304939 0.2383233617899719 0 0.26447930193717117 0.24706052181301319 0 0.26347511011625557 0.23421692359664059 0 0.26347511011625557 0.23421692359664059 0 0.25417444182490823 0.22520000528801451 0 0.26506743464690768 0.2233814107598199 0 0.24929547978304939 0.2383233617899719 0 0.26347511011625557 0.23421692359664059 0 0.25417444182490823 0.22520000528801451 0 0.25417444182490823 0.22520000528801451 0 0.26506743464690768 0.2233814107598199 0 0.25858958950485539 0.2150296993538279 0 0.26347511011625557 0.23421692359664059 0 0.27443969487511077 0.22461498409190789 0 0.28344559839917172 0.22989717206790211 0 0.26506743464690768 0.2233814107598199 0 0.27443969487511077 0.22461498409190789 0 0.2772495411151058 0.215634818799331 0 0.26347511011625557 0.23421692359664059 0 0.26506743464690768 0.2233814107598199 0 0.27443969487511077 0.22461498409190789 0 0.27443969487511077 0.22461498409190789 0 0.28314569051796568 0.221738829657777 0 0.28344559839917172 0.22989717206790211 0 0.27443969487511077 0.22461498409190789 0 0.2772495411151058 0.215634818799331 0 0.28314569051796568 0.221738829657777 0 0.2772495411151058 0.215634818799331 0 0.26917356077725829 0.2088428177729536 0 0.28426398013317938 0.20368646114373279 0 0.26917356077725829 0.2088428177729536 0 0.27422942029243741 0.19698159227608511 0 0.28426398013317938 0.20368646114373279 0 0.26506743464690768 0.2233814107598199 0 0.2772495411151058 0.215634818799331 0 0.26917356077725829 0.2088428177729536 0 0.26506743464690768 0.2233814107598199 0 0.26917356077725829 0.2088428177729536 0 0.25858958950485539 0.2150296993538279 0 0.25417444182490823 0.22520000528801451 0 0.25858958950485539 0.2150296993538279 0 0.2509697907780245 0.2154724319508407 0 0.25858958950485539 0.2150296993538279 0 0.2509697907780245 0.2154724319508407 0 0.25382484201740502 0.20971433286650901 0 0.25382484201740502 0.20971433286650901 0 0.26007545235268409 0.2068640893892211 0 0.2546123745411078 0.20102907767462311 0 0.25858958950485539 0.2150296993538279 0 0.25382484201740502 0.20971433286650901 0 0.26007545235268409 0.2068640893892211 0 0.24446556628995289 0.20951871422480439 0 0.25382484201740502 0.20971433286650901 0 0.2546123745411078 0.20102907767462311 0 0.26917356077725829 0.2088428177729536 0 0.25858958950485539 0.2150296993538279 0 0.26007545235268409 0.2068640893892211 0 0.26917356077725829 0.2088428177729536 0 0.26007545235268409 0.2068640893892211 0 0.26417689492279378 0.19970451927819161 0 0.26417689492279378 0.19970451927819161 0 0.2546123745411078 0.20102907767462311 0 0.25862611253905499 0.19132824549361821 0 0.26007545235268409 0.2068640893892211 0 0.26417689492279378 0.19970451927819161 0 0.2546123745411078 0.20102907767462311 0 0.2479267836454804 0.18853790808704729 0 0.2546123745411078 0.20102907767462311 0 0.25862611253905499 0.19132824549361821 0 0.26417689492279378 0.19970451927819161 0 0.25862611253905499 0.19132824549361821 0 0.26706841629520051 0.1902644509568166 0 0.27594466163120268 0.18598773850140279 0 0.26706841629520051 0.1902644509568166 0 0.27422942029243741 0.19698159227608511 0 0.26917356077725829 0.2088428177729536 0 0.26417689492279378 0.19970451927819161 0 0.27422942029243741 0.19698159227608511 0 0.26417689492279378 0.19970451927819161 0 0.26706841629520051 0.1902644509568166 0 0.27422942029243741 0.19698159227608511 0 0.27422942029243741 0.19698159227608511 0 0.28407642329006327 0.192560709041768 0 0.28426398013317938 0.20368646114373279 0 0.27594466163120268 0.18598773850140279 0 0.28354507237646481 0.18555627614686021 0 0.28407642329006327 0.192560709041768 0 0.27594466163120268 0.18598773850140279 0 0.27422942029243741 0.19698159227608511 0 0.28407642329006327 0.192560709041768 0 0.29177893526288762 0.19453188074557071 0 0.30224405266238558 0.20214600422779819 0 0.28426398013317938 0.20368646114373279 0 0.29006625775371941 0.18675299395591849 0 0.28407642329006327 0.192560709041768 0 0.29177893526288762 0.19453188074557071 0 0.28354507237646481 0.18555627614686021 0 0.29006625775371941 0.18675299395591849 0 0.28407642329006327 0.192560709041768 0 0.28407642329006327 0.192560709041768 0 0.29177893526288762 0.19453188074557071 0 0.28426398013317938 0.20368646114373279 0 0.29006625775371941 0.18675299395591849 0 0.29847351938317201 0.18738637718556639 0 0.29177893526288762 0.19453188074557071 0 0.29847351938317201 0.18738637718556639 0 0.29177893526288762 0.19453188074557071 0 0.30224405266238558 0.20214600422779819 0 0.29847351938317201 0.18738637718556639 0 0.31153220091520201 0.17833263618893491 0 0.30224405266238558 0.20214600422779819 0 0.31153220091520201 0.17833263618893491 0 0.30224405266238558 0.20214600422779819 0 0.31153220091520201 0.17833263618893491 0 0.30224405266238558 0.20214600422779819 0 0.32116928687732749 0.1953375323335626 0 0.30224405266238558 0.20214600422779819 0 0.29295590440956731 0.2259593722666608 0 0.30224405266238558 0.20214600422779819 0 0.29295590440956731 0.2259593722666608 0 0.31456274487646341 0.22772239080203641 0 0.30224405266238558 0.20214600422779819 0 0.28426398013317938 0.20368646114373279 0 0.28849557239822338 0.21538659477075911 0 0.30224405266238558 0.20214600422779819 0 0.28849557239822338 0.21538659477075911 0 0.29295590440956731 0.2259593722666608 0 0.2772495411151058 0.215634818799331 0 0.28849557239822338 0.21538659477075911 0 0.28314569051796568 0.221738829657777 0 0.2772495411151058 0.215634818799331 0 0.28426398013317938 0.20368646114373279 0 0.28849557239822338 0.21538659477075911 0 0.28344559839917172 0.22989717206790211 0 0.29295590440956731 0.2259593722666608 0 0.28464777945004982 0.24726011295131869 0 0.28849557239822338 0.21538659477075911 0 0.28314569051796568 0.221738829657777 0 0.29295590440956731 0.2259593722666608 0 0.28314569051796568 0.221738829657777 0 0.28344559839917172 0.22989717206790211 0 0.29295590440956731 0.2259593722666608 0 0.29295590440956731 0.2259593722666608 0 0.30317071187591821 0.2415907003000354 0 0.31456274487646341 0.22772239080203641 0 0.29295590440956731 0.2259593722666608 0 0.31456274487646341 0.22772239080203641 0 0.30764032109628908 0.26142441456623822 0 0.30317071187591821 0.2415907003000354 0 0.31898891744699359 0.24255199555300319 0 0.30317071187591821 0.2415907003000354 0 0.31898891744699359 0.24255199555300319 0 0.31456274487646341 0.22772239080203641 0 0.29295590440956731 0.2259593722666608 0 0.30317071187591821 0.2415907003000354 0 0.28464777945004982 0.24726011295131869 0 0.29295590440956731 0.2259593722666608 0 0.28464777945004982 0.24726011295131869 0 0.3334012240429397 0.25253706275929022 0 0.31898891744699359 0.24255199555300319 0 0.33616958534335922 0.22948540933741579 0 0.3334012240429397 0.25253706275929022 0 0.33616958534335922 0.22948540933741579 0 0.35124264266190919 0.24984344898164279 0 0.3334012240429397 0.25253706275929022 0 0.33616958534335922 0.22948540933741579 0 0.31898891744699359 0.24255199555300319 0 0.31456274487646341 0.22772239080203641 0 0.33616958534335922 0.22948540933741579 0 0.31456274487646341 0.22772239080203641 0 0.33616958534335922 0.22948540933741579 0 0.31456274487646341 0.22772239080203641 0 0.33616958534335922 0.22948540933741579 0 0.32271613661112908 0.2113972213570913 0 0.33616958534335922 0.22948540933741579 0 0.32271613661112908 0.2113972213570913 0 0.3394350132961117 0.20229477008464361 0 0.33616958534335922 0.22948540933741579 0 0.3394350132961117 0.20229477008464361 0 0.33616958534335922 0.22948540933741579 0 0.3394350132961117 0.20229477008464361 0 0.35470152768993518 0.2146819460376235 0 0.30224405266238558 0.20214600422779819 0 0.31456274487646341 0.22772239080203641 0 0.32271613661112908 0.2113972213570913 0 0.30224405266238558 0.20214600422779819 0 0.32271613661112908 0.2113972213570913 0 0.32116928687732749 0.1953375323335626 0 0.32271613661112908 0.2113972213570913 0 0.32116928687732749 0.1953375323335626 0 0.3394350132961117 0.20229477008464361 0 0.32116928687732749 0.1953375323335626 0 0.3394350132961117 0.20229477008464361 0 0.32711632108203442 0.1767183835104025 0 0.3394350132961117 0.20229477008464361 0 0.34270044124886712 0.17510413083187201 0 0.35375823954206331 0.19588126528346289 0 0.36930572258313232 0.19374500101723621 0 0.35310881299101499 0.180201147328477 0 0.3394350132961117 0.20229477008464361 0 0.35375823954206331 0.19588126528346289 0 0.34270044124886712 0.17510413083187201 0 0.36930572258313232 0.19374500101723621 0 0.36777371559861199 0.20707940532438501 0 0.38550263217524988 0.2072888547059952 0 0.35375823954206331 0.19588126528346289 0 0.36930572258313232 0.19374500101723621 0 0.36777371559861199 0.20707940532438501 0 0.36777371559861199 0.20707940532438501 0 0.35470152768993518 0.2146819460376235 0 0.37503515917165547 0.2178429626468166 0 0.35375823954206331 0.19588126528346289 0 0.36777371559861199 0.20707940532438501 0 0.35470152768993518 0.2146819460376235 0 0.3394350132961117 0.20229477008464361 0 0.35375823954206331 0.19588126528346289 0 0.35470152768993518 0.2146819460376235 0 0.33616958534335922 0.22948540933741579 0 0.35470152768993518 0.2146819460376235 0 0.35668382028797407 0.23115927630107011 0 0.33616958534335922 0.22948540933741579 0 0.35668382028797407 0.23115927630107011 0 0.35470152768993518 0.2146819460376235 0 0.35668382028797407 0.23115927630107011 0 0.37719805523258892 0.23283314326472521 0 0.35668382028797407 0.23115927630107011 0 0.37719805523258892 0.23283314326472521 0 0.35470152768993518 0.2146819460376235 0 0.37719805523258892 0.23283314326472521 0 0.37503515917165547 0.2178429626468166 0 0.35470152768993518 0.2146819460376235 0 0.37719805523258892 0.23283314326472521 0 0.37296084668648471 0.25017597579261153 0 0.35668382028797407 0.23115927630107011 0 0.35124264266190919 0.24984344898164279 0 0.37296084668648471 0.25017597579261153 0 0.35668382028797407 0.23115927630107011 0 0.37719805523258892 0.23283314326472521 0 0.33616958534335922 0.22948540933741579 0 0.35668382028797407 0.23115927630107011 0 0.35124264266190919 0.24984344898164279 0 0.33680370405100007 0.14232727060978889 0 0.34524422569586299 0.1539224890269226 0 0.34778801014286009 0.13274084722197321 0 0.33680370405100007 0.14232727060978889 0 0.3243154582005473 0.1455583519951992 0 0.33300090825723011 0.16114246567361171 0 0.33680370405100007 0.14232727060978889 0 0.33300090825723011 0.16114246567361171 0 0.34524422569586299 0.1539224890269226 0 0.33680370405100007 0.14232727060978889 0 0.32716002178730552 0.1319335824544717 0 0.34778801014286009 0.13274084722197321 0 0.33808454579379787 0.1208319537353893 0 0.32716002178730552 0.1319335824544717 0 0.34778801014286009 0.13274084722197321 0 0.33680370405100007 0.14232727060978889 0 0.32716002178730552 0.1319335824544717 0 0.3243154582005473 0.1455583519951992 0 0.3235055528938629 0.11568337333176019 0 0.30646171384198639 0.12816887978164249 0 0.32716002178730552 0.1319335824544717 0 0.30646171384198639 0.12816887978164249 0 0.32716002178730552 0.1319335824544717 0 0.31389076131671823 0.1402578175227448 0 0.32716002178730552 0.1319335824544717 0 0.31389076131671823 0.1402578175227448 0 0.3243154582005473 0.1455583519951992 0 0.3243154582005473 0.1455583519951992 0 0.31792382955787502 0.16194549409206729 0 0.3243154582005473 0.1455583519951992 0 0.31792382955787502 0.16194549409206729 0 0.33300090825723011 0.16114246567361171 0 0.31134165033730521 0.15069704763502051 0 0.3243154582005473 0.1455583519951992 0 0.31792382955787502 0.16194549409206729 0 0.31134165033730521 0.15069704763502051 0 0.31389076131671823 0.1402578175227448 0 0.3243154582005473 0.1455583519951992 0 0.31153220091520201 0.17833263618893491 0 0.31792382955787502 0.16194549409206729 0 0.31792382955787502 0.16194549409206729 0 0.32711632108203442 0.1767183835104025 0 0.33300090825723011 0.16114246567361171 0 0.31153220091520201 0.17833263618893491 0 0.31792382955787502 0.16194549409206729 0 0.32711632108203442 0.1767183835104025 0 0.31153220091520201 0.17833263618893491 0 0.32116928687732749 0.1953375323335626 0 0.32711632108203442 0.1767183835104025 0 0.31153220091520201 0.17833263618893491 0 0.32711632108203442 0.1767183835104025 0 0.3394350132961117 0.20229477008464361 0 0.32711632108203442 0.1767183835104025 0 0.34270044124886712 0.17510413083187201 0 0.32711632108203442 0.1767183835104025 0 0.34270044124886712 0.17510413083187201 0 0.34270044124886712 0.17510413083187201 0 0.33300090825723011 0.16114246567361171 0 0.34524422569586299 0.1539224890269226 0 0.32711632108203442 0.1767183835104025 0 0.34270044124886712 0.17510413083187201 0 0.33300090825723011 0.16114246567361171 0 0.34270044124886712 0.17510413083187201 0 0.35352383699142781 0.16450452237243859 0 0.36454203098319382 0.17284170957519879 0 0.35352383699142781 0.16450452237243859 0 0.36457796316227448 0.15206783779406299 0 0.34524422569586299 0.1539224890269226 0 0.34270044124886712 0.17510413083187201 0 0.35352383699142781 0.16450452237243859 0 0.34524422569586299 0.1539224890269226 0 0.34270044124886712 0.17510413083187201 0 0.34524422569586299 0.1539224890269226 0 0.35375823954206331 0.19588126528346289 0 0.34270044124886712 0.17510413083187201 0 0.35310881299101499 0.180201147328477 0 0.34270044124886712 0.17510413083187201 0 0.36454203098319382 0.17284170957519879 0 0.34270044124886712 0.17510413083187201 0 0.35310881299101499 0.180201147328477 0 0.36454203098319382 0.17284170957519879 0 0.35310881299101499 0.180201147328477 0 0.36454203098319382 0.17284170957519879 0 0.37413170705986171 0.18202247175139341 0 0.36930572258313232 0.19374500101723621 0 0.35310881299101499 0.180201147328477 0 0.37413170705986171 0.18202247175139341 0 0.36930572258313232 0.19374500101723621 0 0.35310881299101499 0.180201147328477 0 0.35352383699142781 0.16450452237243859 0 0.36454203098319382 0.17284170957519879 0 0.36457796316227448 0.15206783779406299 0 0.36454203098319382 0.17284170957519879 0 0.36457796316227448 0.15206783779406299 0 0.38295141871969979 0.15521936366627781 0 0.34524422569586299 0.1539224890269226 0 0.34778801014286009 0.13274084722197321 0 0.36457796316227448 0.15206783779406299 0 0.34524422569586299 0.1539224890269226 0 0.34778801014286009 0.13274084722197321 0 0.35598689978338838 0.120327213078831 0 0.34778801014286009 0.13274084722197321 0 0.36503111684720357 0.1295558124408113 0 0.36457796316227448 0.15206783779406299 0 0.34778801014286009 0.13274084722197321 0 0.36503111684720357 0.1295558124408113 0 0.36503111684720357 0.1295558124408113 0 0.38038504458532868 0.13969129167781161 0 0.37857746106597362 0.11443442834108709 0 0.36457796316227448 0.15206783779406299 0 0.36503111684720357 0.1295558124408113 0 0.38038504458532868 0.13969129167781161 0 0.38038504458532868 0.13969129167781161 0 0.3964629856877116 0.1308017081484576 0 0.37857746106597362 0.11443442834108709 0 0.38038504458532868 0.13969129167781161 0 0.3964629856877116 0.1308017081484576 0 0.4001336861471142 0.15072961123787651 0 0.3964629856877116 0.1308017081484576 0 0.4001336861471142 0.15072961123787651 0 0.4160787729281078 0.1341438121161917 0 0.4001336861471142 0.15072961123787651 0 0.38295141871969979 0.15521936366627781 0 0.39442348400904542 0.16121128257113279 0 0.38038504458532868 0.13969129167781161 0 0.4001336861471142 0.15072961123787651 0 0.36457796316227448 0.15206783779406299 0 0.38038504458532868 0.13969129167781161 0 0.38295141871969979 0.15521936366627781 0 0.38038504458532868 0.13969129167781161 0 0.4001336861471142 0.15072961123787651 0 0.38295141871969979 0.15521936366627781 0 0.36454203098319382 0.17284170957519879 0 0.38638362071752053 0.17057928831852531 0 0.36454203098319382 0.17284170957519879 0 0.38295141871969979 0.15521936366627781 0 0.38638362071752053 0.17057928831852531 0 0.38295141871969979 0.15521936366627781 0 0.38638362071752053 0.17057928831852531 0 0.39442348400904542 0.16121128257113279 0 0.36454203098319382 0.17284170957519879 0 0.37413170705986171 0.18202247175139341 0 0.38638362071752053 0.17057928831852531 0 0.37413170705986171 0.18202247175139341 0 0.38884908659171069 0.18362539253437271 0 0.38158605135790108 0.19047449542062339 0 0.37413170705986171 0.18202247175139341 0 0.38638362071752053 0.17057928831852531 0 0.38884908659171069 0.18362539253437271 0 0.38884908659171069 0.18362539253437271 0 0.39757988484374779 0.17632506805428899 0 0.40000673758698202 0.1862573670962836 0 0.38638362071752053 0.17057928831852531 0 0.38884908659171069 0.18362539253437271 0 0.39757988484374779 0.17632506805428899 0 0.39757988484374779 0.17632506805428899 0 0.40822521045184712 0.16831686706185181 0 0.40658018587911682 0.17286599220275481 0 0.39757988484374779 0.17632506805428899 0 0.40000673758698202 0.1862573670962836 0 0.40658018587911682 0.17286599220275481 0 0.38638362071752053 0.17057928831852531 0 0.39442348400904542 0.16121128257113279 0 0.40822521045184712 0.16831686706185181 0 0.4001336861471142 0.15072961123787651 0 0.39442348400904542 0.16121128257113279 0 0.40822521045184712 0.16831686706185181 0 0.38638362071752053 0.17057928831852531 0 0.39757988484374779 0.17632506805428899 0 0.40822521045184712 0.16831686706185181 0 0.38638362071752053 0.17057928831852531 0 0.40822521045184712 0.16831686706185181 0 0.4001336861471142 0.15072961123787651 0 0.40822521045184712 0.16831686706185181 0 0.41988232770889922 0.16176793079794261 0 0.41988232770889922 0.16176793079794261 0 0.40658018587911682 0.17286599220275481 0 0.4169120479738545 0.17790707684821511 0 0.41988232770889922 0.16176793079794261 0 0.40658018587911682 0.17286599220275481 0 0.40822521045184712 0.16831686706185181 0 0.41988232770889922 0.16176793079794261 0 0.40658018587911682 0.17286599220275481 0 0.40000673758698202 0.1862573670962836 0 0.4169120479738545 0.17790707684821511 0 0.40000673758698202 0.1862573670962836 0 0.4169120479738545 0.17790707684821511 0 0.41217586008042062 0.18928538751745311 0 0.40000673758698202 0.1862573670962836 0 0.40658018587911682 0.17286599220275481 0 0.4169120479738545 0.17790707684821511 0 0.4169120479738545 0.17790707684821511 0 0.42179337414104978 0.1873299527900941 0 0.41217586008042062 0.18928538751745311 0 0.42179337414104978 0.1873299527900941 0 0.43381735836072671 0.16955678660014589 0 0.43285592964768838 0.18955491479054981 0 0.4169120479738545 0.17790707684821511 0 0.42179337414104978 0.1873299527900941 0 0.43381735836072671 0.16955678660014589 0 0.4169120479738545 0.17790707684821511 0 0.43381735836072671 0.16955678660014589 0 0.43381735836072671 0.16955678660014589 0 0.43285592964768838 0.18955491479054981 0 0.44262737155310561 0.18422838270644329 0 0.41988232770889922 0.16176793079794261 0 0.4169120479738545 0.17790707684821511 0 0.43381735836072671 0.16955678660014589 0 0.41988232770889922 0.16176793079794261 0 0.43381735836072671 0.16955678660014589 0 0.43836793621871151 0.1578824591974016 0 0.41988232770889922 0.16176793079794261 0 0.43381735836072671 0.16955678660014589 0 0.41988232770889922 0.16176793079794261 0 0.43921635595959668 0.14563742824622661 0 0.4160787729281078 0.1341438121161917 0 0.41882778568592949 0.1480696955995594 0 0.43921635595959668 0.14563742824622661 0 0.41988232770889922 0.16176793079794261 0 0.43921635595959668 0.14563742824622661 0 0.43836793621871151 0.1578824591974016 0 0.41988232770889922 0.16176793079794261 0 0.41882778568592949 0.1480696955995594 0 0.43921635595959668 0.14563742824622661 0 0.4160787729281078 0.1341438121161917 0 0.43921635595959668 0.14563742824622661 0 0.43266561040999202 0.1239020186607535 0 0.4160787729281078 0.1341438121161917 0 0.43266561040999202 0.1239020186607535 0 0.41997509748501582 0.1203905887435416 0 0.3964629856877116 0.1308017081484576 0 0.4160787729281078 0.1341438121161917 0 0.40713996371203381 0.115009397369321 0 0.4001336861471142 0.15072961123787651 0 0.41988232770889922 0.16176793079794261 0 0.4001336861471142 0.15072961123787651 0 0.41988232770889922 0.16176793079794261 0 0.41882778568592949 0.1480696955995594 0 0.4001336861471142 0.15072961123787651 0 0.4160787729281078 0.1341438121161917 0 0.41882778568592949 0.1480696955995594 0 0.39599280232076117 0.2399787202183967 0 0.39426155780227179 0.24489199104221671 0 0.38988209498876158 0.2260904228741058 0 0.39426155780227179 0.24489199104221671 0 0.39005234077762319 0.23388199368363119 0 0.38988209498876158 0.2260904228741058 0 0.39426155780227179 0.24489199104221671 0 0.38988209498876158 0.2260904228741058 0 0.40324908199546572 0.24572053366433869 0 0.39599280232076117 0.2399787202183967 0 0.39706378351583399 0.24439686040981831 0 0.40324908199546572 0.24572053366433869 0 0.40340776937371292 0.23729279559464411 0 0.39599280232076117 0.2399787202183967 0 0.40340776937371292 0.23729279559464411 0 0.39599280232076117 0.2399787202183967 0 0.3989373485008606 0.23204524175487939 0 0.40324908199546572 0.24572053366433869 0 0.39706378351583399 0.24439686040981831 0 0.39475169194483772 0.2469961967143216 0 0.39426155780227179 0.24489199104221671 0 0.39475169194483772 0.2469961967143216 0 0.39599280232076117 0.2399787202183967 0 0.39426155780227179 0.24489199104221671 0 0.39599280232076117 0.2399787202183967 0 0.39426155780227179 0.24489199104221671 0 0.39706378351583399 0.24439686040981831 0 0.39426155780227179 0.24489199104221671 0 0.39706378351583399 0.24439686040981831 0 0.39475169194483772 0.2469961967143216 0 0.39426155780227179 0.24489199104221671 0 0.37719805523258892 0.23283314326472521 0 0.37296084668648471 0.25017597579261153 0 0.39426155780227179 0.24489199104221671 0 0.37719805523258892 0.23283314326472521 0 0.39426155780227179 0.24489199104221671 0 0.39005234077762319 0.23388199368363119 0 0.37719805523258892 0.23283314326472521 0 0.39005234077762319 0.23388199368363119 0 0.37719805523258892 0.23283314326472521 0 0.38988209498876158 0.2260904228741058 0 0.39005234077762319 0.23388199368363119 0 0.37719805523258892 0.23283314326472521 0 0.37719805523258892 0.23283314326472521 0 0.38988209498876158 0.2260904228741058 0 0.37503515917165547 0.2178429626468166 0 0.38988209498876158 0.2260904228741058 0 0.3989373485008606 0.23204524175487939 0 0.40646672732020672 0.22481902833237119 0 0.38988209498876158 0.2260904228741058 0 0.38550263217524988 0.2072888547059952 0 0.40646672732020672 0.22481902833237119 0 0.39599280232076117 0.2399787202183967 0 0.38988209498876158 0.2260904228741058 0 0.3989373485008606 0.23204524175487939 0 0.40340776937371292 0.23729279559464411 0 0.3989373485008606 0.23204524175487939 0 0.40646672732020672 0.22481902833237119 0 0.4030572530758596 0.2076630844450694 0 0.38550263217524988 0.2072888547059952 0 0.39340651798425152 0.1960936645651217 0 0.38550263217524988 0.2072888547059952 0 0.40646672732020672 0.22481902833237119 0 0.4030572530758596 0.2076630844450694 0 0.38550263217524988 0.2072888547059952 0 0.40646672732020672 0.22481902833237119 0 0.36777371559861199 0.20707940532438501 0 0.38550263217524988 0.2072888547059952 0 0.37503515917165547 0.2178429626468166 0 0.38988209498876158 0.2260904228741058 0 0.38550263217524988 0.2072888547059952 0 0.38988209498876158 0.2260904228741058 0 0.38550263217524988 0.2072888547059952 0 0.37503515917165547 0.2178429626468166 0 0.36930572258313232 0.19374500101723621 0 0.38550263217524988 0.2072888547059952 0 0.38550263217524988 0.2072888547059952 0 0.38158605135790108 0.19047449542062339 0 0.39340651798425152 0.1960936645651217 0 0.38550263217524988 0.2072888547059952 0 0.38158605135790108 0.19047449542062339 0 0.36930572258313232 0.19374500101723621 0 0.38550263217524988 0.2072888547059952 0 0.38158605135790108 0.19047449542062339 0 0.36930572258313232 0.19374500101723621 0 0.37413170705986171 0.18202247175139341 0 0.38158605135790108 0.19047449542062339 0 0.38884908659171069 0.18362539253437271 0 0.38158605135790108 0.19047449542062339 0 0.39340651798425152 0.1960936645651217 0 0.38884908659171069 0.18362539253437271 0 0.40000673758698202 0.1862573670962836 0 0.39340651798425152 0.1960936645651217 0 0.4030572530758596 0.2076630844450694 0 0.39340651798425152 0.1960936645651217 0 0.40528134283174622 0.19548043504178469 0 0.40000673758698202 0.1862573670962836 0 0.39340651798425152 0.1960936645651217 0 0.40528134283174622 0.19548043504178469 0 0.40000673758698202 0.1862573670962836 0 0.40528134283174622 0.19548043504178469 0 0.41217586008042062 0.18928538751745311 0 0.40528134283174622 0.19548043504178469 0 0.41217586008042062 0.18928538751745311 0 0.41776034543121732 0.19810267158499559 0 0.4030572530758596 0.2076630844450694 0 0.40528134283174622 0.19548043504178469 0 0.41776034543121732 0.19810267158499559 0 0.42179337414104978 0.1873299527900941 0 0.41217586008042062 0.18928538751745311 0 0.41776034543121732 0.19810267158499559 0 0.42179337414104978 0.1873299527900941 0 0.41776034543121732 0.19810267158499559 0 0.43285592964768838 0.18955491479054981 0 0.43285592964768838 0.18955491479054981 0 0.43271846109677609 0.20478541913373419 0 0.44669461910893082 0.19520818654536179 0 0.41776034543121732 0.19810267158499559 0 0.43285592964768838 0.18955491479054981 0 0.43271846109677609 0.20478541913373419 0 0.43271846109677609 0.20478541913373419 0 0.41867971790270042 0.21169832073403941 0 0.43257164579279272 0.22279988155402081 0 0.41776034543121732 0.19810267158499559 0 0.43271846109677609 0.20478541913373419 0 0.41867971790270042 0.21169832073403941 0 0.4030572530758596 0.2076630844450694 0 0.41867971790270042 0.21169832073403941 0 0.40646672732020672 0.22481902833237119 0 0.4030572530758596 0.2076630844450694 0 0.41776034543121732 0.19810267158499559 0 0.41867971790270042 0.21169832073403941 0 0.41867971790270042 0.21169832073403941 0 0.40646672732020672 0.22481902833237119 0 0.43257164579279272 0.22279988155402081 0 0.40646672732020672 0.22481902833237119 0 0.42743082246516367 0.24234920195874701 0 0.40646672732020672 0.22481902833237119 0 0.43257164579279272 0.22279988155402081 0 0.42743082246516367 0.24234920195874701 0 0.43257164579279272 0.22279988155402081 0 0.42743082246516367 0.24234920195874701 0 0.4423395933030797 0.23862107087322351 0 0.40646672732020672 0.22481902833237119 0 0.42743082246516367 0.24234920195874701 0 0.41425832284588698 0.24473024553476841 0 0.40340776937371292 0.23729279559464411 0 0.40646672732020672 0.22481902833237119 0 0.41425832284588698 0.24473024553476841 0 0.40324908199546572 0.24572053366433869 0 0.40340776937371292 0.23729279559464411 0 0.41425832284588698 0.24473024553476841 0 0.45898644360448321 0.25161141212264609 0 0.45465161684046379 0.24106262467519779 0 0.47024860419903641 0.24027088914948219 0 0.44839491761012079 0.25987937558512281 0 0.42743082246516367 0.24234920195874701 0 0.4423395933030797 0.23862107087322351 0 0.44839491761012079 0.25987937558512281 0 0.45465161684046379 0.24106262467519779 0 0.4423395933030797 0.23862107087322351 0 0.45465161684046379 0.24106262467519779 0 0.4423395933030797 0.23862107087322351 0 0.44864896380685743 0.22701427059302909 0 0.43257164579279272 0.22279988155402081 0 0.44864896380685743 0.22701427059302909 0 0.44811078867642229 0.21185617906075219 0 0.43257164579279272 0.22279988155402081 0 0.4423395933030797 0.23862107087322351 0 0.44864896380685743 0.22701427059302909 0 0.44864896380685743 0.22701427059302909 0 0.46198278798820952 0.22038062787836721 0 0.44811078867642229 0.21185617906075219 0 0.45465161684046379 0.24106262467519779 0 0.44864896380685743 0.22701427059302909 0 0.46198278798820952 0.22038062787836721 0 0.45465161684046379 0.24106262467519779 0 0.46198278798820952 0.22038062787836721 0 0.47024860419903641 0.24027088914948219 0 0.46198278798820952 0.22038062787836721 0 0.44811078867642229 0.21185617906075219 0 0.46162192037968008 0.20253418223439271 0 0.46198278798820952 0.22038062787836721 0 0.46162192037968008 0.20253418223439271 0 0.47112834997204822 0.20736462443897921 0 0.43271846109677609 0.20478541913373419 0 0.43257164579279272 0.22279988155402081 0 0.44811078867642229 0.21185617906075219 0 0.44811078867642229 0.21185617906075219 0 0.44669461910893082 0.19520818654536179 0 0.46162192037968008 0.20253418223439271 0 0.43271846109677609 0.20478541913373419 0 0.44811078867642229 0.21185617906075219 0 0.44669461910893082 0.19520818654536179 0 0.43285592964768838 0.18955491479054981 0 0.44669461910893082 0.19520818654536179 0 0.44262737155310561 0.18422838270644329 0 0.46162192037968008 0.20253418223439271 0 0.48046579982942622 0.1956304991792871 0 0.45714157909507652 0.1825936428897163 0 0.44669461910893082 0.19520818654536179 0 0.46162192037968008 0.20253418223439271 0 0.45714157909507652 0.1825936428897163 0 0.48046579982942622 0.1956304991792871 0 0.45714157909507652 0.1825936428897163 0 0.48046579982942622 0.1956304991792871 0 0.48544454106048412 0.19034714928688259 0 0.47784657262976021 0.21530901921818241 0 0.46162192037968008 0.20253418223439271 0 0.48046579982942622 0.1956304991792871 0 0.47112834997204822 0.20736462443897921 0 0.48544454106048412 0.19034714928688259 0 0.47784657262976021 0.21530901921818241 0 0.48046579982942622 0.1956304991792871 0 0.4805430104620354 0.18825996031838271 0 0.4729343483683624 0.18354574719714239 0 0.48046579982942622 0.1956304991792871 0 0.4805430104620354 0.18825996031838271 0 0.48544454106048412 0.19034714928688259 0 0.48824233671931327 0.20483603178877449 0 0.5 0.21375302292256909 0 0.5 0.18404607919501439 0 0.48544454106048412 0.19034714928688259 0 0.48824233671931327 0.20483603178877449 0 0.5 0.18404607919501439 0 0.48824233671931327 0.20483603178877449 0 0.5 0.21375302292256909 0 0.47784657262976021 0.21530901921818241 0 0.48544454106048412 0.19034714928688259 0 0.48824233671931327 0.20483603178877449 0 0.47784657262976021 0.21530901921818241 0 0.48046579982942622 0.1956304991792871 0 0.47112834997204822 0.20736462443897921 0 0.47784657262976021 0.21530901921818241 0 0.46198278798820952 0.22038062787836721 0 0.47112834997204822 0.20736462443897921 0 0.47784657262976021 0.21530901921818241 0 0.47784657262976021 0.21530901921818241 0 0.48623541117035041 0.2314997200304551 0 0.47024860419903641 0.24027088914948219 0 0.46198278798820952 0.22038062787836721 0 0.47784657262976021 0.21530901921818241 0 0.47024860419903641 0.24027088914948219 0 0.47784657262976021 0.21530901921818241 0 0.47024860419903641 0.24027088914948219 0 0.5 0.21375302292256909 0 0.47784657262976021 0.21530901921818241 0 0.48623541117035041 0.2314997200304551 0 0.5 0.21375302292256909 0 0.48623541117035041 0.2314997200304551 0 0.50000000000000111 0.24345996665012401 0 0.48132531788415628 0.25434636286545259 0 0.50000000000000111 0.24345996665012401 0 0.48132531788415628 0.25434636286545259 0 0.48623541117035041 0.2314997200304551 0 0.50000000000000111 0.24345996665012401 0 0.48132531788415628 0.25434636286545259 0 0.48623541117035041 0.2314997200304551 0 0.47024860419903641 0.24027088914948219 0 0.46275241100747111 0.1552644676533651 0 0.45855038421029398 0.12950692569451 0 0.46937106519737859 0.1395994724032725 0 0.46275241100747111 0.1552644676533651 0 0.45855038421029398 0.12950692569451 0 0.46275241100747111 0.1552644676533651 0 0.45855038421029398 0.12950692569451 0 0.4506387543802346 0.15003952321593539 0 0.46275241100747111 0.1552644676533651 0 0.4692946612570188 0.15203295712744291 0 0.46937106519737859 0.1395994724032725 0 0.46275241100747111 0.1552644676533651 0 0.4506387543802346 0.15003952321593539 0 0.44828488468409983 0.1624106271267573 0 0.46275241100747111 0.1552644676533651 0 0.47129846091184052 0.16121871765102991 0 0.4692946612570188 0.15203295712744291 0 0.46275241100747111 0.1552644676533651 0 0.4692946612570188 0.15203295712744291 0 0.46052565031494203 0.12785894863933051 0 0.46937106519737859 0.1395994724032725 0 0.46052565031494203 0.12785894863933051 0 0.45855038421029398 0.12950692569451 0 0.46937106519737859 0.1395994724032725 0 0.46052565031494203 0.12785894863933051 0 0.47295450229811747 0.12736825850859149 0 0.46937106519737859 0.1395994724032725 0 0.45855038421029398 0.12950692569451 0 0.44646826871520501 0.12868054826244071 0 0.45766131432832408 0.124057113997791 0 0.45855038421029398 0.12950692569451 0 0.45766131432832408 0.124057113997791 0 0.46052565031494203 0.12785894863933051 0 0.45855038421029398 0.12950692569451 0 0.45766131432832408 0.124057113997791 0 0.46052565031494203 0.12785894863933051 0 0.45766131432832408 0.124057113997791 0 0.46052565031494203 0.12785894863933051 0 0.45855038421029398 0.12950692569451 0 0.45855038421029398 0.12950692569451 0 0.44646826871520501 0.12868054826244071 0 0.43921635595959668 0.14563742824622661 0 0.44646826871520501 0.12868054826244071 0 0.43921635595959668 0.14563742824622661 0 0.43266561040999202 0.1239020186607535 0 0.45855038421029398 0.12950692569451 0 0.43921635595959668 0.14563742824622661 0 0.45855038421029398 0.12950692569451 0 0.43921635595959668 0.14563742824622661 0 0.4506387543802346 0.15003952321593539 0 0.43921635595959668 0.14563742824622661 0 0.4506387543802346 0.15003952321593539 0 0.43836793621871151 0.1578824591974016 0 0.43381735836072671 0.16955678660014589 0 0.44828488468409983 0.1624106271267573 0 0.45385790775550089 0.17000587057635899 0 0.43381735836072671 0.16955678660014589 0 0.43836793621871151 0.1578824591974016 0 0.44828488468409983 0.1624106271267573 0 0.43381735836072671 0.16955678660014589 0 0.44828488468409983 0.1624106271267573 0 0.4506387543802346 0.15003952321593539 0 0.43836793621871151 0.1578824591974016 0 0.44828488468409983 0.1624106271267573 0 0.43381735836072671 0.16955678660014589 0 0.45714157909507652 0.1825936428897163 0 0.43381735836072671 0.16955678660014589 0 0.45714157909507652 0.1825936428897163 0 0.45385790775550089 0.17000587057635899 0 0.43381735836072671 0.16955678660014589 0 0.44262737155310561 0.18422838270644329 0 0.45714157909507652 0.1825936428897163 0 0.44669461910893082 0.19520818654536179 0 0.44262737155310561 0.18422838270644329 0 0.45714157909507652 0.1825936428897163 0 0.45714157909507652 0.1825936428897163 0 0.46539543485981988 0.1714656489073503 0 0.4729343483683624 0.18354574719714239 0 0.45714157909507652 0.1825936428897163 0 0.45385790775550089 0.17000587057635899 0 0.46539543485981988 0.1714656489073503 0 0.46275241100747111 0.1552644676533651 0 0.46539543485981988 0.1714656489073503 0 0.46275241100747111 0.1552644676533651 0 0.45385790775550089 0.17000587057635899 0 0.46539543485981988 0.1714656489073503 0 0.46275241100747111 0.1552644676533651 0 0.46539543485981988 0.1714656489073503 0 0.47129846091184052 0.16121871765102991 0 0.46275241100747111 0.1552644676533651 0 0.44828488468409983 0.1624106271267573 0 0.46275241100747111 0.1552644676533651 0 0.44828488468409983 0.1624106271267573 0 0.45385790775550089 0.17000587057635899 0 0.46539543485981988 0.1714656489073503 0 0.47129846091184052 0.16121871765102991 0 0.47693045578692311 0.17255307605818021 0 0.47129846091184052 0.16121871765102991 0 0.47973318408864601 0.1622840570616926 0 0.47693045578692311 0.17255307605818021 0 0.47973318408864601 0.1622840570616926 0 0.47693045578692311 0.17255307605818021 0 0.4844700244477852 0.16683367115523939 0 0.47129846091184052 0.16121871765102991 0 0.47973318408864601 0.1622840570616926 0 0.47899597766638169 0.1535249845197488 0 0.47973318408864601 0.1622840570616926 0 0.48779127767811248 0.15741622293761731 0 0.47899597766638169 0.1535249845197488 0 0.47973318408864601 0.1622840570616926 0 0.48779127767811248 0.15741622293761731 0 0.4844700244477852 0.16683367115523939 0 0.48046579982942622 0.1956304991792871 0 0.45714157909507652 0.1825936428897163 0 0.4729343483683624 0.18354574719714239 0 0.46539543485981988 0.1714656489073503 0 0.4729343483683624 0.18354574719714239 0 0.47693045578692311 0.17255307605818021 0 0.47693045578692311 0.17255307605818021 0 0.48014101017436828 0.18224713064474241 0 0.48485269519403679 0.17652972036312431 0 0.4729343483683624 0.18354574719714239 0 0.47693045578692311 0.17255307605818021 0 0.48014101017436828 0.18224713064474241 0 0.47693045578692311 0.17255307605818021 0 0.48485269519403679 0.17652972036312431 0 0.4844700244477852 0.16683367115523939 0 0.4805430104620354 0.18825996031838271 0 0.48544454106048412 0.19034714928688259 0 0.48014101017436828 0.18224713064474241 0 0.48544454106048412 0.19034714928688259 0 0.48014101017436828 0.18224713064474241 0 0.48485269519403679 0.17652972036312431 0 0.4805430104620354 0.18825996031838271 0 0.4729343483683624 0.18354574719714239 0 0.48014101017436828 0.18224713064474241 0 0.48544454106048412 0.19034714928688259 0 0.49304250949120793 0.1653852793555827 0 0.48544454106048412 0.19034714928688259 0 0.48485269519403679 0.17652972036312431 0 0.49304250949120793 0.1653852793555827 0 0.48544454106048412 0.19034714928688259 0 0.5 0.18404607919501439 0 0.49304250949120793 0.1653852793555827 0 0.5 0.18404607919501439 0 0.49304250949120793 0.1653852793555827 0 0.5 0.1543391354674595 0 0.48779127767811248 0.15741622293761731 0 0.4844700244477852 0.16683367115523939 0 0.49304250949120793 0.1653852793555827 0 0.48485269519403679 0.17652972036312431 0 0.4844700244477852 0.16683367115523939 0 0.49304250949120793 0.1653852793555827 0 0.48779127767811248 0.15741622293761731 0 0.49304250949120793 0.1653852793555827 0 0.5 0.1543391354674595 0 0.5 0.1543391354674595 0 0.48612032565125862 0.145128408423775 0 0.5 0.12463219173990479 0 0.48779127767811248 0.15741622293761731 0 0.5 0.1543391354674595 0 0.48612032565125862 0.145128408423775 0 0.48779127767811248 0.15741622293761731 0 0.48612032565125862 0.145128408423775 0 0.47899597766638169 0.1535249845197488 0 0.48612032565125862 0.145128408423775 0 0.47899597766638169 0.1535249845197488 0 0.47708809965894378 0.14418166742803259 0 0.47708809965894378 0.14418166742803259 0 0.4692946612570188 0.15203295712744291 0 0.46937106519737859 0.1395994724032725 0 0.47129846091184052 0.16121871765102991 0 0.47899597766638169 0.1535249845197488 0 0.4692946612570188 0.15203295712744291 0 0.47899597766638169 0.1535249845197488 0 0.47708809965894378 0.14418166742803259 0 0.4692946612570188 0.15203295712744291 0 0.47295450229811747 0.12736825850859149 0 0.46937106519737859 0.1395994724032725 0 0.48165846852268129 0.13062251466592381 0 0.47708809965894378 0.14418166742803259 0 0.46937106519737859 0.1395994724032725 0 0.48165846852268129 0.13062251466592381 0 0.48612032565125862 0.145128408423775 0 0.47708809965894378 0.14418166742803259 0 0.48165846852268129 0.13062251466592381 0 0.48612032565125862 0.145128408423775 0 0.48165846852268129 0.13062251466592381 0 0.5 0.12463219173990479 0 0.48165846852268129 0.13062251466592381 0 0.5 0.12463219173990479 0 0.48026282515746821 0.11139209832583929 0 0.5 0.12463219173990479 0 0.499999999999996 0.094925248012350028 0 0.48026282515746821 0.11139209832583929 0 0.499999999999996 0.094925248012350028 0 0.48026282515746821 0.11139209832583929 0 0.499999999999996 0.094925248012350028 0 0.48026282515746821 0.11139209832583929 0 0.48815983807484931 0.088578673168666106 0 0.48026282515746821 0.11139209832583929 0 0.48815983807484931 0.088578673168666106 0 0.47355511878882067 0.087109343402924366 0 0.48026282515746821 0.11139209832583929 0 0.47355511878882067 0.087109343402924366 0 0.46536994713531549 0.1113142392015396 0 0.46052565031494203 0.12785894863933051 0 0.48026282515746821 0.11139209832583929 0 0.47295450229811747 0.12736825850859149 0 0.48165846852268129 0.13062251466592381 0 0.48026282515746821 0.11139209832583929 0 0.46052565031494203 0.12785894863933051 0 0.47295450229811747 0.12736825850859149 0 0.48026282515746821 0.11139209832583929 0 0.48698124642795731 0.072187916668607605 0 0.47335531734086439 0.058282008977394259 0 0.49999999999999972 0.059632270854868448 0 0.5 0.077278759433609179 0 0.48698124642795731 0.072187916668607605 0 0.49999999999999972 0.059632270854868448 0 0.499999999999996 0.094925248012350028 0 0.5 0.077278759433609179 0 0.48815983807484931 0.088578673168666106 0 0.5 0.077278759433609179 0 0.48698124642795731 0.072187916668607605 0 0.48815983807484931 0.088578673168666106 0 0.48698124642795731 0.072187916668607605 0 0.48815983807484931 0.088578673168666106 0 0.47355511878882067 0.087109343402924366 0 0.48698124642795731 0.072187916668607605 0 0.47355511878882067 0.087109343402924366 0 0.47335531734086439 0.058282008977394259 0 0.47355511878882067 0.087109343402924366 0 0.45036086123059482 0.079306869399208363 0 0.47335531734086439 0.058282008977394259 0 0.45036086123059482 0.079306869399208363 0 0.44671063468172922 0.056931747099917253 0 0.47335531734086439 0.058282008977394259 0 0.47355511878882067 0.087109343402924366 0 0.45036086123059482 0.079306869399208363 0 0.4540110877794597 0.1016819916984996 0 0.45036086123059482 0.079306869399208363 0 0.4540110877794597 0.1016819916984996 0 0.45036086123059482 0.079306869399208363 0 0.44123096843970161 0.10224910737300159 0 0.42480062255107931 0.080441100748211647 0 0.45036086123059482 0.079306869399208363 0 0.44671063468172922 0.056931747099917253 0 0.45036086123059482 0.079306869399208363 0 0.43169930796130868 0.062521054991320768 0 0.44671063468172922 0.056931747099917253 0 0.46536994713531549 0.1113142392015396 0 0.45766131432832408 0.124057113997791 0 0.4540110877794597 0.1016819916984996 0 0.46052565031494203 0.12785894863933051 0 0.48026282515746821 0.11139209832583929 0 0.46536994713531549 0.1113142392015396 0 0.46052565031494203 0.12785894863933051 0 0.46536994713531549 0.1113142392015396 0 0.45766131432832408 0.124057113997791 0 0.45766131432832408 0.124057113997791 0 0.4540110877794597 0.1016819916984996 0 0.47355511878882067 0.087109343402924366 0 0.46536994713531549 0.1113142392015396 0 0.4540110877794597 0.1016819916984996 0 0.45036086123059482 0.079306869399208363 0 0.4540110877794597 0.1016819916984996 0 0.44123096843970161 0.10224910737300159 0 0.45766131432832408 0.124057113997791 0 0.4540110877794597 0.1016819916984996 0 0.44123096843970161 0.10224910737300159 0 0.44646826871520501 0.12868054826244071 0 0.45766131432832408 0.124057113997791 0 0.44123096843970161 0.10224910737300159 0 0.45766131432832408 0.124057113997791 0 0.44123096843970161 0.10224910737300159 0 0.44646826871520501 0.12868054826244071 0 0.44123096843970161 0.10224910737300159 0 0.43266561040999202 0.1239020186607535 0 0.44123096843970161 0.10224910737300159 0 0.43266561040999202 0.1239020186607535 0 0.42401604288992989 0.1085071268279002 0 0.43266561040999202 0.1239020186607535 0 0.41997509748501582 0.1203905887435416 0 0.42401604288992989 0.1085071268279002 0 0.4160787729281078 0.1341438121161917 0 0.40713996371203381 0.115009397369321 0 0.41997509748501582 0.1203905887435416 0 0.40713996371203381 0.115009397369321 0 0.41997509748501582 0.1203905887435416 0 0.42401604288992989 0.1085071268279002 0 0.42401604288992989 0.1085071268279002 0 0.42480062255107931 0.080441100748211647 0 0.40821995683740958 0.093554286132913611 0 0.40713996371203381 0.115009397369321 0 0.42401604288992989 0.1085071268279002 0 0.40821995683740958 0.093554286132913611 0 0.44123096843970161 0.10224910737300159 0 0.42401604288992989 0.1085071268279002 0 0.42480062255107931 0.080441100748211647 0 0.44123096843970161 0.10224910737300159 0 0.42480062255107931 0.080441100748211647 0 0.45036086123059482 0.079306869399208363 0 0.42480062255107931 0.080441100748211647 0 0.43169930796130868 0.062521054991320768 0 0.42480062255107931 0.080441100748211647 0 0.40525483380169419 0.075292157762171213 0 0.40837027666245712 0.058633094123421672 0 0.42480062255107931 0.080441100748211647 0 0.40837027666245712 0.058633094123421672 0 0.42480062255107931 0.080441100748211647 0 0.43169930796130868 0.062521054991320768 0 0.40837027666245712 0.058633094123421672 0 0.42480062255107931 0.080441100748211647 0 0.40821995683740958 0.093554286132913611 0 0.40525483380169419 0.075292157762171213 0 0.40821995683740958 0.093554286132913611 0 0.38906263648307299 0.080108820612626502 0 0.38869302306912329 0.099781084704444634 0 0.40821995683740958 0.093554286132913611 0 0.40525483380169419 0.075292157762171213 0 0.38906263648307299 0.080108820612626502 0 0.40525483380169419 0.075292157762171213 0 0.39582067647445213 0.063723487193682621 0 0.40837027666245712 0.058633094123421672 0 0.40525483380169419 0.075292157762171213 0 0.39582067647445213 0.063723487193682621 0 0.38906263648307299 0.080108820612626502 0 0.37219205993716498 0.075271695478946812 0 0.37943166366568348 0.064165601201817898 0 0.38906263648307299 0.080108820612626502 0 0.39582067647445213 0.063723487193682621 0 0.37943166366568348 0.064165601201817898 0 0.38906263648307299 0.080108820612626502 0 0.36856668309973922 0.091175863718561775 0 0.38906263648307299 0.080108820612626502 0 0.38869302306912329 0.099781084704444634 0 0.36856668309973922 0.091175863718561775 0 0.37219205993716498 0.075271695478946812 0 0.38906263648307299 0.080108820612626502 0 0.36676581101795308 0.1057346461690969 0 0.38869302306912329 0.099781084704444634 0 0.37857746106597362 0.11443442834108709 0 0.40713996371203381 0.115009397369321 0 0.38869302306912329 0.099781084704444634 0 0.37857746106597362 0.11443442834108709 0 0.3964629856877116 0.1308017081484576 0 0.40713996371203381 0.115009397369321 0 0.37857746106597362 0.11443442834108709 0 0.40713996371203381 0.115009397369321 0 0.40821995683740958 0.093554286132913611 0 0.38869302306912329 0.099781084704444634 0 0.3962468425673602 0.020387808022567271 0 0.39223809636181761 0.037136473661093218 0 0.4073902842130529 0.02273491125974408 0 0.39223809636181761 0.037136473661093218 0 0.4168903395583336 0.03119457379763356 0 0.4073902842130529 0.02273491125974408 0 0.40520721882240163 0.0014214866639597949 0 0.38508021846864099 0.01048925277870697 0 0.38918258590183552 -0.0026976306611802081 0 0.3962468425673602 0.020387808022567271 0 0.40520721882240163 0.0014214866639597949 0 0.38508021846864099 0.01048925277870697 0 0.3962468425673602 0.020387808022567271 0 0.40520721882240163 0.0014214866639597949 0 0.4073902842130529 0.02273491125974408 0 0.38508021846864099 0.01048925277870697 0 0.38918258590183552 -0.0026976306611802081 0 0.37483061222028102 -0.0032252882618771998 0 0.3962468425673602 0.020387808022567271 0 0.3777272165743325 0.026584446307561332 0 0.39223809636181761 0.037136473661093218 0 0.3962468425673602 0.020387808022567271 0 0.38508021846864099 0.01048925277870697 0 0.3777272165743325 0.026584446307561332 0 0.36758585316530151 0.04307837352455287 0 0.38629219858503311 0.054385830409766772 0 0.39223809636181761 0.037136473661093218 0 0.36758585316530151 0.04307837352455287 0 0.3777272165743325 0.026584446307561332 0 0.39223809636181761 0.037136473661093218 0 0.36758585316530151 0.04307837352455287 0 0.39223809636181761 0.037136473661093218 0 0.39582067647445213 0.063723487193682621 0 0.37943166366568348 0.064165601201817898 0 0.38629219858503311 0.054385830409766772 0 0.37023196750437543 0.053157849020564363 0 0.37943166366568348 0.064165601201817898 0 0.38629219858503311 0.054385830409766772 0 0.38629219858503311 0.054385830409766772 0 0.40507639736687873 0.046926887985732017 0 0.39582067647445213 0.063723487193682621 0 0.40507639736687873 0.046926887985732017 0 0.40837027666245712 0.058633094123421672 0 0.39582067647445213 0.063723487193682621 0 0.38629219858503311 0.054385830409766772 0 0.40507639736687873 0.046926887985732017 0 0.39223809636181761 0.037136473661093218 0 0.4168903395583336 0.03119457379763356 0 0.40507639736687873 0.046926887985732017 0 0.39223809636181761 0.037136473661093218 0 0.4168903395583336 0.03119457379763356 0 0.38629219858503311 0.054385830409766772 0 0.40507639736687873 0.046926887985732017 0 0.39223809636181761 0.037136473661093218 0 0.40507639736687873 0.046926887985732017 0 0.41677948643846269 0.049411784382238831 0 0.4238605961487244 0.039467945561697262 0 0.40507639736687873 0.046926887985732017 0 0.4238605961487244 0.039467945561697262 0 0.40507639736687873 0.046926887985732017 0 0.4238605961487244 0.039467945561697262 0 0.4168903395583336 0.03119457379763356 0 0.43169930796130868 0.062521054991320768 0 0.40837027666245712 0.058633094123421672 0 0.42201787839567267 0.054877534002771587 0 0.40507639736687873 0.046926887985732017 0 0.40837027666245712 0.058633094123421672 0 0.41677948643846269 0.049411784382238831 0 0.41677948643846269 0.049411784382238831 0 0.42201787839567267 0.054877534002771587 0 0.42541547726044893 0.048010295067569757 0 0.40837027666245712 0.058633094123421672 0 0.41677948643846269 0.049411784382238831 0 0.42201787839567267 0.054877534002771587 0 0.43169930796130868 0.062521054991320768 0 0.42201787839567267 0.054877534002771587 0 0.43066536400394689 0.052620793676523281 0 0.42201787839567267 0.054877534002771587 0 0.42541547726044893 0.048010295067569757 0 0.43066536400394689 0.052620793676523281 0 0.43066536400394689 0.052620793676523281 0 0.43544044859917408 0.045387087374614117 0 0.43834213496236352 0.05650766000204506 0 0.42541547726044893 0.048010295067569757 0 0.43066536400394689 0.052620793676523281 0 0.43544044859917408 0.045387087374614117 0 0.43169930796130868 0.062521054991320768 0 0.43066536400394689 0.052620793676523281 0 0.43834213496236352 0.05650766000204506 0 0.4238605961487244 0.039467945561697262 0 0.44264479493056991 0.032009003137661932 0 0.4238605961487244 0.039467945561697262 0 0.43544044859917408 0.045387087374614117 0 0.44264479493056991 0.032009003137661932 0 0.4238605961487244 0.039467945561697262 0 0.4415425827548497 0.02525267393417437 0 0.44264479493056991 0.032009003137661932 0 0.4238605961487244 0.039467945561697262 0 0.4168903395583336 0.03119457379763356 0 0.4415425827548497 0.02525267393417437 0 0.41677948643846269 0.049411784382238831 0 0.42541547726044893 0.048010295067569757 0 0.4238605961487244 0.039467945561697262 0 0.42541547726044893 0.048010295067569757 0 0.4238605961487244 0.039467945561697262 0 0.43544044859917408 0.045387087374614117 0 0.4168903395583336 0.03119457379763356 0 0.4415425827548497 0.02525267393417437 0 0.4168903395583336 0.03119457379763356 0 0.41988132856337268 0.021231976550549109 0 0.4415425827548497 0.02525267393417437 0 0.43011253625763962 0.015959042215875852 0 0.41988132856337268 0.021231976550549109 0 0.4415425827548497 0.02525267393417437 0 0.43011253625763962 0.015959042215875852 0 0.44074541859956101 0.020366225044380529 0 0.4415425827548497 0.02525267393417437 0 0.4168903395583336 0.03119457379763356 0 0.41988132856337268 0.021231976550549109 0 0.4073902842130529 0.02273491125974408 0 0.40520721882240163 0.0014214866639597949 0 0.41988132856337268 0.021231976550549109 0 0.4073902842130529 0.02273491125974408 0 0.40520721882240163 0.0014214866639597949 0 0.41988132856337268 0.021231976550549109 0 0.42086793596656102 0.0064170593988270566 0 0.40520721882240163 0.0014214866639597949 0 0.42086793596656102 0.0064170593988270566 0 0.42047429866427738 -0.0068315321490049642 0 0.40520721882240163 0.0014214866639597949 0 0.41988132856337268 0.021231976550549109 0 0.42086793596656102 0.0064170593988270566 0 0.43015353095520131 0.003109299378886275 0 0.42047429866427738 -0.0068315321490049642 0 0.43011253625763962 0.015959042215875852 0 0.41988132856337268 0.021231976550549109 0 0.42086793596656102 0.0064170593988270566 0 0.43011253625763962 0.015959042215875852 0 0.42086793596656102 0.0064170593988270566 0 0.43015353095520131 0.003109299378886275 0 0.43011253625763962 0.015959042215875852 0 0.43015353095520131 0.003109299378886275 0 0.43888057010584752 0.0098352325992379294 0 0.43011253625763962 0.015959042215875852 0 0.43888057010584752 0.0098352325992379294 0 0.44074541859956101 0.020366225044380529 0 0.43015353095520131 0.003109299378886275 0 0.43888057010584752 0.0098352325992379294 0 0.44171072718576571 -0.0022804043020929221 0 0.43888057010584752 0.0098352325992379294 0 0.45370628908512189 0.0021863991578644289 0 0.44171072718576571 -0.0022804043020929221 0 0.44912923038456098 0.015169648994456849 0 0.43888057010584752 0.0098352325992379294 0 0.45370628908512189 0.0021863991578644289 0 0.44912923038456098 0.015169648994456849 0 0.43888057010584752 0.0098352325992379294 0 0.44074541859956101 0.020366225044380529 0 0.4415425827548497 0.02525267393417437 0 0.46748153754238692 0.02214668027291742 0 0.44264479493056991 0.032009003137661932 0 0.44912923038456098 0.015169648994456849 0 0.44074541859956101 0.020366225044380529 0 0.4415425827548497 0.02525267393417437 0 0.44074541859956101 0.020366225044380529 0 0.4415425827548497 0.02525267393417437 0 0.4415425827548497 0.02525267393417437 0 0.44264479493056991 0.032009003137661932 0 0.46748153754238692 0.02214668027291742 0 0.44264479493056991 0.032009003137661932 0 0.4415425827548497 0.02525267393417437 0 0.46748153754238692 0.02214668027291742 0 0.47077129137742463 0.018207714236626999 0 0.4415425827548497 0.02525267393417437 0 0.47077129137742463 0.018207714236626999 0 0.44912923038456098 0.015169648994456849 0 0.4415425827548497 0.02525267393417437 0 0.47077129137742463 0.018207714236626999 0 0.44912923038456098 0.015169648994456849 0 0.45370628908512189 0.0021863991578644289 0 0.47077129137742463 0.018207714236626999 0 0.45370628908512189 0.0021863991578644289 0 0.47077129137742463 0.018207714236626999 0 0.46863363181920192 -0.01289288257594918 0 0.44671063468172922 0.056931747099917253 0 0.43834213496236352 0.05650766000204506 0 0.43169930796130868 0.062521054991320768 0 0.44671063468172922 0.056931747099917253 0 0.43834213496236352 0.05650766000204506 0 0.43544044859917408 0.045387087374614117 0 0.44671063468172922 0.056931747099917253 0 0.43834213496236352 0.05650766000204506 0 0.43544044859917408 0.045387087374614117 0 0.44671063468172922 0.056931747099917253 0 0.44264479493056991 0.032009003137661932 0 0.44671063468172922 0.056931747099917253 0 0.44264479493056991 0.032009003137661932 0 0.44671063468172922 0.056931747099917253 0 0.44264479493056991 0.032009003137661932 0 0.46089423732682799 0.041762497015041887 0 0.46748153754238692 0.02214668027291742 0 0.44264479493056991 0.032009003137661932 0 0.46089423732682799 0.041762497015041887 0 0.46748153754238692 0.02214668027291742 0 0.46089423732682799 0.041762497015041887 0 0.47131444651218818 0.033269203495752367 0 0.44671063468172922 0.056931747099917253 0 0.46089423732682799 0.041762497015041887 0 0.47335531734086439 0.058282008977394259 0 0.44671063468172922 0.056931747099917253 0 0.47335531734086439 0.058282008977394259 0 0.46089423732682799 0.041762497015041887 0 0.47335531734086439 0.058282008977394259 0 0.48005051766351953 0.04255529551149409 0 0.46089423732682799 0.041762497015041887 0 0.48005051766351953 0.04255529551149409 0 0.47131444651218818 0.033269203495752367 0 0.48005051766351953 0.04255529551149409 0 0.47131444651218818 0.033269203495752367 0 0.47926591800576412 0.026872980099500721 0 0.48005051766351953 0.04255529551149409 0 0.5 0.035397512696974331 0 0.49999999999999972 0.059632270854868448 0 0.48005051766351953 0.04255529551149409 0 0.5 0.035397512696974331 0 0.47926591800576412 0.026872980099500721 0 0.47335531734086439 0.058282008977394259 0 0.48005051766351953 0.04255529551149409 0 0.49999999999999972 0.059632270854868448 0 0.47335531734086439 0.058282008977394259 0 0.49999999999999972 0.059632270854868448 0 0.47077129137742463 0.018207714236626999 0 0.48595192379982532 -0.0027195376031737772 0 0.46863363181920192 -0.01289288257594918 0 0.46748153754238692 0.02214668027291742 0 0.47077129137742463 0.018207714236626999 0 0.47926591800576412 0.026872980099500721 0 0.47077129137742463 0.018207714236626999 0 0.47926591800576412 0.026872980099500721 0 0.4999999999999995 0.01116275453908021 0 0.46748153754238692 0.02214668027291742 0 0.47131444651218818 0.033269203495752367 0 0.47926591800576412 0.026872980099500721 0 0.5 0.035397512696974331 0 0.47926591800576412 0.026872980099500721 0 0.4999999999999995 0.01116275453908021 0 0.47077129137742463 0.018207714236626999 0 0.4999999999999995 0.01116275453908021 0 0.47077129137742463 0.018207714236626999 0 0.4999999999999995 0.01116275453908021 0 0.48595192379982532 -0.0027195376031737772 0 0.4999999999999995 0.01116275453908021 0 0.5 -0.01415219599085343 0 0.48595192379982532 -0.0027195376031737772 0 0.5 -0.01415219599085343 0 0.48595192379982532 -0.0027195376031737772 0 0.48517229582843258 -0.026603481394717621 0 0.48595192379982532 -0.0027195376031737772 0 0.48517229582843258 -0.026603481394717621 0 0.46863363181920192 -0.01289288257594918 0 0.48517229582843258 -0.026603481394717621 0 0.46816532604007788 -0.040632185147867629 0 0.46863363181920192 -0.01289288257594918 0 0.5 -0.01415219599085343 0 0.48517229582843258 -0.026603481394717621 0 0.5 -0.039467146520787089 0 0.48517229582843258 -0.026603481394717621 0 0.5 -0.039467146520787089 0 0.4849462994629698 -0.050486901740315497 0 0.5 -0.039467146520787089 0 0.4849462994629698 -0.050486901740315497 0 0.5 -0.064782097050720688 0 0.4849462994629698 -0.050486901740315497 0 0.5 -0.064782097050720688 0 0.47392878669949312 -0.066462489930159047 0 0.4849462994629698 -0.050486901740315497 0 0.46816532604007788 -0.040632185147867629 0 0.47392878669949312 -0.066462489930159047 0 0.48517229582843258 -0.026603481394717621 0 0.4849462994629698 -0.050486901740315497 0 0.46816532604007788 -0.040632185147867629 0 0.46816532604007788 -0.040632185147867629 0 0.43978163573772278 -0.04811781819454565 0 0.45286331313166273 -0.026382326622079011 0 0.46816532604007788 -0.040632185147867629 0 0.43978163573772278 -0.04811781819454565 0 0.46816532604007788 -0.040632185147867629 0 0.47392878669949312 -0.066462489930159047 0 0.44907396312286751 -0.069385630297683062 0 0.46816532604007788 -0.040632185147867629 0 0.43978163573772278 -0.04811781819454565 0 0.44907396312286751 -0.069385630297683062 0 0.43978163573772278 -0.04811781819454565 0 0.44907396312286751 -0.069385630297683062 0 0.42542554438817642 -0.065901334411233858 0 0.43978163573772278 -0.04811781819454565 0 0.45286331313166273 -0.026382326622079011 0 0.4322930450935133 -0.031222142996883601 0 0.45286331313166273 -0.026382326622079011 0 0.43558858432518283 -0.01403933179583068 0 0.4322930450935133 -0.031222142996883601 0 0.45286331313166273 -0.026382326622079011 0 0.45029646686457381 -0.012021965388574181 0 0.43558858432518283 -0.01403933179583068 0 0.44171072718576571 -0.0022804043020929221 0 0.45029646686457381 -0.012021965388574181 0 0.43558858432518283 -0.01403933179583068 0 0.45370628908512189 0.0021863991578644289 0 0.44171072718576571 -0.0022804043020929221 0 0.45029646686457381 -0.012021965388574181 0 0.45370628908512189 0.0021863991578644289 0 0.45029646686457381 -0.012021965388574181 0 0.46863363181920192 -0.01289288257594918 0 0.46816532604007788 -0.040632185147867629 0 0.45286331313166273 -0.026382326622079011 0 0.46863363181920192 -0.01289288257594918 0 0.45286331313166273 -0.026382326622079011 0 0.45029646686457381 -0.012021965388574181 0 0.46863363181920192 -0.01289288257594918 0 0.47771759986457918 -0.1015007943958381 0 0.45543519972915869 -0.112904541211022 0 0.47603611405951729 -0.12930964176090359 0 0.5 -0.1180197418599844 0 0.47771759986457918 -0.1015007943958381 0 0.47603611405951729 -0.12930964176090359 0 0.5 -0.1180197418599844 0 0.47771759986457918 -0.1015007943958381 0 0.49999999999999972 -0.090097047580654274 0 0.47771759986457918 -0.1015007943958381 0 0.49999999999999972 -0.090097047580654274 0 0.48281754435643998 -0.083245920807577894 0 0.47392878669949312 -0.066462489930159047 0 0.46236129704258999 -0.089637202388040099 0 0.47771759986457918 -0.1015007943958381 0 0.48281754435643998 -0.083245920807577894 0 0.46236129704258999 -0.089637202388040099 0 0.47771759986457918 -0.1015007943958381 0 0.48281754435643998 -0.083245920807577894 0 0.49999999999999972 -0.090097047580654274 0 0.48281754435643998 -0.083245920807577894 0 0.49999999999999972 -0.090097047580654274 0 0.5 -0.064782097050720688 0 0.48281754435643998 -0.083245920807577894 0 0.5 -0.064782097050720688 0 0.47392878669949312 -0.066462489930159047 0 0.47392878669949312 -0.066462489930159047 0 0.44907396312286751 -0.069385630297683062 0 0.46236129704258999 -0.089637202388040099 0 0.44907396312286751 -0.069385630297683062 0 0.44322919271445549 -0.092657207644501985 0 0.46236129704258999 -0.089637202388040099 0 0.44907396312286751 -0.069385630297683062 0 0.44322919271445549 -0.092657207644501985 0 0.43062595923755692 -0.082291174367433106 0 0.47771759986457918 -0.1015007943958381 0 0.46236129704258999 -0.089637202388040099 0 0.45543519972915869 -0.112904541211022 0 0.47771759986457918 -0.1015007943958381 0 0.45543519972915869 -0.112904541211022 0 0.44322919271445549 -0.092657207644501985 0 0.46236129704258999 -0.089637202388040099 0 0.45543519972915869 -0.112904541211022 0 0.44322919271445549 -0.092657207644501985 0 0.43855837306642798 -0.1080324901882849 0 0.45543519972915869 -0.112904541211022 0 0.45543519972915869 -0.112904541211022 0 0.43315279959373831 -0.124308288026206 0 0.45427359165162989 -0.13221938313771769 0 0.43855837306642798 -0.1080324901882849 0 0.45543519972915869 -0.112904541211022 0 0.43315279959373831 -0.124308288026206 0 0.45543519972915869 -0.112904541211022 0 0.43315279959373831 -0.124308288026206 0 0.45543519972915869 -0.112904541211022 0 0.45427359165162989 -0.13221938313771769 0 0.47603611405951729 -0.12930964176090359 0 0.41847776586514829 -0.1205027145127768 0 0.4225029403855407 -0.1084893480013609 0 0.40491864636271441 -0.1158684379440905 0 0.41847776586514829 -0.1205027145127768 0 0.40491864636271441 -0.1158684379440905 0 0.41333667711859989 -0.13334478407944969 0 0.41847776586514829 -0.1205027145127768 0 0.43315279959373831 -0.124308288026206 0 0.4225029403855407 -0.1084893480013609 0 0.43855837306642798 -0.1080324901882849 0 0.43315279959373831 -0.124308288026206 0 0.4225029403855407 -0.1084893480013609 0 0.43855837306642798 -0.1080324901882849 0 0.4225029403855407 -0.1084893480013609 0 0.42837744724006599 -0.095714502405651478 0 0.4225029403855407 -0.1084893480013609 0 0.42837744724006599 -0.095714502405651478 0 0.41517209537544542 -0.090884886177662286 0 0.44322919271445549 -0.092657207644501985 0 0.43855837306642798 -0.1080324901882849 0 0.42837744724006599 -0.095714502405651478 0 0.41517209537544542 -0.090884886177662286 0 0.40491864636271441 -0.1158684379440905 0 0.41664341334505473 -0.082559060690858554 0 0.40404621684257758 -0.10503461437565299 0 0.4225029403855407 -0.1084893480013609 0 0.41517209537544542 -0.090884886177662286 0 0.40491864636271441 -0.1158684379440905 0 0.41517209537544542 -0.090884886177662286 0 0.40404621684257758 -0.10503461437565299 0 0.40491864636271441 -0.1158684379440905 0 0.41664341334505473 -0.082559060690858554 0 0.41517209537544542 -0.090884886177662286 0 0.42542554438817642 -0.065901334411233858 0 0.41664341334505473 -0.082559060690858554 0 0.40309867632766888 -0.08961091289720495 0 0.40404621684257758 -0.10503461437565299 0 0.41517209537544542 -0.090884886177662286 0 0.42542554438817642 -0.065901334411233858 0 0.41664341334505473 -0.082559060690858554 0 0.41517209537544542 -0.090884886177662286 0 0.40404621684257758 -0.10503461437565299 0 0.40628705698729589 -0.079786108910246636 0 0.41664341334505473 -0.082559060690858554 0 0.40309867632766888 -0.08961091289720495 0 0.42837744724006599 -0.095714502405651478 0 0.41517209537544542 -0.090884886177662286 0 0.43062595923755692 -0.082291174367433106 0 0.41517209537544542 -0.090884886177662286 0 0.43062595923755692 -0.082291174367433106 0 0.42542554438817642 -0.065901334411233858 0 0.44322919271445549 -0.092657207644501985 0 0.42837744724006599 -0.095714502405651478 0 0.43062595923755692 -0.082291174367433106 0 0.44907396312286751 -0.069385630297683062 0 0.43062595923755692 -0.082291174367433106 0 0.42542554438817642 -0.065901334411233858 0 0.41664341334505473 -0.082559060690858554 0 0.42542554438817642 -0.065901334411233858 0 0.41323063795445453 -0.071010797732605685 0 0.42542554438817642 -0.065901334411233858 0 0.41323063795445453 -0.071010797732605685 0 0.41139794543536801 -0.055603451241223588 0 0.40628705698729589 -0.079786108910246636 0 0.41664341334505473 -0.082559060690858554 0 0.41323063795445453 -0.071010797732605685 0 0.40628705698729589 -0.079786108910246636 0 0.41323063795445453 -0.071010797732605685 0 0.40201900451642558 -0.070684468761756963 0 0.41323063795445453 -0.071010797732605685 0 0.40201900451642558 -0.070684468761756963 0 0.41139794543536801 -0.055603451241223588 0 0.40201900451642558 -0.070684468761756963 0 0.38301425513301302 -0.063089084287901581 0 0.39369658880114078 -0.082540716480953208 0 0.40201900451642558 -0.070684468761756963 0 0.38301425513301302 -0.063089084287901581 0 0.41139794543536801 -0.055603451241223588 0 0.40628705698729589 -0.079786108910246636 0 0.40201900451642558 -0.070684468761756963 0 0.39369658880114078 -0.082540716480953208 0 0.38301425513301302 -0.063089084287901581 0 0.38010515746826001 -0.077531488326077355 0 0.39369658880114078 -0.082540716480953208 0 0.38301425513301302 -0.063089084287901581 0 0.38010515746826001 -0.077531488326077355 0 0.37326295489687872 -0.065148887466720387 0 0.38010515746826001 -0.077531488326077355 0 0.3820981654951936 -0.097154980192335316 0 0.366769228386706 -0.083792389152377009 0 0.38010515746826001 -0.077531488326077355 0 0.39369658880114078 -0.082540716480953208 0 0.3820981654951936 -0.097154980192335316 0 0.39369658880114078 -0.082540716480953208 0 0.39457007330597033 -0.097211567552756922 0 0.3820981654951936 -0.097154980192335316 0 0.39369658880114078 -0.082540716480953208 0 0.40309867632766888 -0.08961091289720495 0 0.39457007330597033 -0.097211567552756922 0 0.40628705698729589 -0.079786108910246636 0 0.39369658880114078 -0.082540716480953208 0 0.40309867632766888 -0.08961091289720495 0 0.40309867632766888 -0.08961091289720495 0 0.40404621684257758 -0.10503461437565299 0 0.39457007330597033 -0.097211567552756922 0 0.40404621684257758 -0.10503461437565299 0 0.39457007330597033 -0.097211567552756922 0 0.38991071906327079 -0.1117166138176381 0 0.3820981654951936 -0.097154980192335316 0 0.38023966326167252 -0.11330538131350559 0 0.37067898754218148 -0.10985541132720381 0 0.3820981654951936 -0.097154980192335316 0 0.38991071906327079 -0.1117166138176381 0 0.38023966326167252 -0.11330538131350559 0 0.39457007330597033 -0.097211567552756922 0 0.3820981654951936 -0.097154980192335316 0 0.38991071906327079 -0.1117166138176381 0 0.38991071906327079 -0.1117166138176381 0 0.38023966326167252 -0.11330538131350559 0 0.37987158441525398 -0.1234628086985507 0 0.37987158441525398 -0.1234628086985507 0 0.37067898754218148 -0.10985541132720381 0 0.37458874669765702 -0.13591843350203059 0 0.38991071906327079 -0.1117166138176381 0 0.37987158441525398 -0.1234628086985507 0 0.39144902034010037 -0.12751016806044749 0 0.38023966326167252 -0.11330538131350559 0 0.37987158441525398 -0.1234628086985507 0 0.37067898754218148 -0.10985541132720381 0 0.40404621684257758 -0.10503461437565299 0 0.38991071906327079 -0.1117166138176381 0 0.39144902034010037 -0.12751016806044749 0 0.40404621684257758 -0.10503461437565299 0 0.39144902034010037 -0.12751016806044749 0 0.40404621684257758 -0.10503461437565299 0 0.40491864636271441 -0.1158684379440905 0 0.39144902034010037 -0.12751016806044749 0 0.40690400901487722 -0.01777226967841904 0 0.41498006976050239 -0.031066529940111592 0 0.42414089415393391 -0.0206187591883213 0 0.40690400901487722 -0.01777226967841904 0 0.41498006976050239 -0.031066529940111592 0 0.39761718052554867 -0.03865785775830019 0 0.40520721882240163 0.0014214866639597949 0 0.40690400901487722 -0.01777226967841904 0 0.42047429866427738 -0.0068315321490049642 0 0.40690400901487722 -0.01777226967841904 0 0.42047429866427738 -0.0068315321490049642 0 0.42414089415393391 -0.0206187591883213 0 0.42047429866427738 -0.0068315321490049642 0 0.43558858432518283 -0.01403933179583068 0 0.42414089415393391 -0.0206187591883213 0 0.43015353095520131 0.003109299378886275 0 0.44171072718576571 -0.0022804043020929221 0 0.43558858432518283 -0.01403933179583068 0 0.43015353095520131 0.003109299378886275 0 0.42047429866427738 -0.0068315321490049642 0 0.43558858432518283 -0.01403933179583068 0 0.43558858432518283 -0.01403933179583068 0 0.4322930450935133 -0.031222142996883601 0 0.42414089415393391 -0.0206187591883213 0 0.41498006976050239 -0.031066529940111592 0 0.4322930450935133 -0.031222142996883601 0 0.42414089415393391 -0.0206187591883213 0 0.41498006976050239 -0.031066529940111592 0 0.4322930450935133 -0.031222142996883601 0 0.42154454644630168 -0.041809454280721733 0 0.43978163573772278 -0.04811781819454565 0 0.4322930450935133 -0.031222142996883601 0 0.42154454644630168 -0.041809454280721733 0 0.43978163573772278 -0.04811781819454565 0 0.41139794543536801 -0.055603451241223588 0 0.42154454644630168 -0.041809454280721733 0 0.43978163573772278 -0.04811781819454565 0 0.41139794543536801 -0.055603451241223588 0 0.43978163573772278 -0.04811781819454565 0 0.42542554438817642 -0.065901334411233858 0 0.41139794543536801 -0.055603451241223588 0 0.41139794543536801 -0.055603451241223588 0 0.41138493554193017 -0.041784323305089272 0 0.39761718052554867 -0.03865785775830019 0 0.41498006976050239 -0.031066529940111592 0 0.41138493554193017 -0.041784323305089272 0 0.39761718052554867 -0.03865785775830019 0 0.41498006976050239 -0.031066529940111592 0 0.42154454644630168 -0.041809454280721733 0 0.41138493554193017 -0.041784323305089272 0 0.41139794543536801 -0.055603451241223588 0 0.42154454644630168 -0.041809454280721733 0 0.41138493554193017 -0.041784323305089272 0 0.41139794543536801 -0.055603451241223588 0 0.39761718052554867 -0.03865785775830019 0 0.38738572183543662 -0.047646499193282649 0 0.38301425513301302 -0.063089084287901581 0 0.41139794543536801 -0.055603451241223588 0 0.38738572183543662 -0.047646499193282649 0 0.38301425513301302 -0.063089084287901581 0 0.41139794543536801 -0.055603451241223588 0 0.38301425513301302 -0.063089084287901581 0 0.38738572183543662 -0.047646499193282649 0 0.37731002260151908 -0.052937122138599517 0 0.37731002260151908 -0.052937122138599517 0 0.37585899934045952 -0.038199493109218823 0 0.37232286151752197 -0.053503717423022283 0 0.38301425513301302 -0.063089084287901581 0 0.37731002260151908 -0.052937122138599517 0 0.37326295489687872 -0.065148887466720387 0 0.39761718052554867 -0.03865785775830019 0 0.37585899934045952 -0.038199493109218823 0 0.39053310908143057 -0.01838900322262952 0 0.39761718052554867 -0.03865785775830019 0 0.38738572183543662 -0.047646499193282649 0 0.37585899934045952 -0.038199493109218823 0 0.38738572183543662 -0.047646499193282649 0 0.37731002260151908 -0.052937122138599517 0 0.37585899934045952 -0.038199493109218823 0 0.37585899934045952 -0.038199493109218823 0 0.39053310908143057 -0.01838900322262952 0 0.37585899934045952 -0.038199493109218823 0 0.39053310908143057 -0.01838900322262952 0 0.37617515567774917 -0.023259398468530919 0 0.40690400901487722 -0.01777226967841904 0 0.39761718052554867 -0.03865785775830019 0 0.39053310908143057 -0.01838900322262952 0 0.40520721882240163 0.0014214866639597949 0 0.39053310908143057 -0.01838900322262952 0 0.40520721882240163 0.0014214866639597949 0 0.40690400901487722 -0.01777226967841904 0 0.39053310908143057 -0.01838900322262952 0 0.40520721882240163 0.0014214866639597949 0 0.39053310908143057 -0.01838900322262952 0 0.38918258590183552 -0.0026976306611802081 0 0.39053310908143057 -0.01838900322262952 0 0.37617515567774917 -0.023259398468530919 0 0.37483061222028102 -0.0032252882618771998 0 0.39053310908143057 -0.01838900322262952 0 0.38918258590183552 -0.0026976306611802081 0 0.37483061222028102 -0.0032252882618771998 0 0.37483061222028102 -0.0032252882618771998 0 0.36336407338611038 -0.022266929594022499 0 0.37483061222028102 -0.0032252882618771998 0 0.36336407338611038 -0.022266929594022499 0 0.35400944437062698 -0.0086363531405309717 0 0.37617515567774917 -0.023259398468530919 0 0.37483061222028102 -0.0032252882618771998 0 0.36336407338611038 -0.022266929594022499 0 0.3700187038017963 -0.03036708906154803 0 0.36336407338611038 -0.022266929594022499 0 0.36452906287258319 -0.03844913382838698 0 0.37585899934045952 -0.038199493109218823 0 0.37617515567774917 -0.023259398468530919 0 0.3700187038017963 -0.03036708906154803 0 0.37617515567774917 -0.023259398468530919 0 0.3700187038017963 -0.03036708906154803 0 0.36336407338611038 -0.022266929594022499 0 0.35400944437062698 -0.0086363531405309717 0 0.34324703014063818 -0.019630668665571459 0 0.34722123997328969 -0.034493716473073047 0 0.35400944437062698 -0.0086363531405309717 0 0.34722123997328969 -0.034493716473073047 0 0.36336407338611038 -0.022266929594022499 0 0.35400944437062698 -0.0086363531405309717 0 0.34722123997328969 -0.034493716473073047 0 0.35400944437062698 -0.0086363531405309717 0 0.34390461745197859 -0.0095095256375640428 0 0.34324703014063818 -0.019630668665571459 0 0.34487597080080412 0.0013759612954862509 0 0.35400944437062698 -0.0086363531405309717 0 0.34390461745197859 -0.0095095256375640428 0 0.34487597080080412 0.0013759612954862509 0 0.34390461745197859 -0.0095095256375640428 0 0.33453715787545402 -0.0061599611328663102 0 0.3334474114775503 0.0062169574195121658 0 0.33453715787545402 -0.0061599611328663102 0 0.32742983789552321 -0.00076994107897217277 0 0.33453715787545402 -0.0061599611328663102 0 0.32742983789552321 -0.00076994107897217277 0 0.32550647521872811 -0.0091790200843608147 0 0.33453715787545402 -0.0061599611328663102 0 0.33343959521438399 -0.01901292580588388 0 0.32550647521872811 -0.0091790200843608147 0 0.34390461745197859 -0.0095095256375640428 0 0.33453715787545402 -0.0061599611328663102 0 0.33343959521438399 -0.01901292580588388 0 0.34390461745197859 -0.0095095256375640428 0 0.34324703014063818 -0.019630668665571459 0 0.33343959521438399 -0.01901292580588388 0 0.34324703014063818 -0.019630668665571459 0 0.33898512867120267 -0.02791590998965409 0 0.33343959521438399 -0.01901292580588388 0 0.34324703014063818 -0.019630668665571459 0 0.33898512867120267 -0.02791590998965409 0 0.34722123997328969 -0.034493716473073047 0 0.33898512867120267 -0.02791590998965409 0 0.33237598323868328 -0.029656202547745331 0 0.3365424914994638 -0.0348333421678804 0 0.33237598323868328 -0.029656202547745331 0 0.33343959521438399 -0.01901292580588388 0 0.32413432036969059 -0.02640615727672764 0 0.33898512867120267 -0.02791590998965409 0 0.33237598323868328 -0.029656202547745331 0 0.33343959521438399 -0.01901292580588388 0 0.33237598323868328 -0.029656202547745331 0 0.32413432036969059 -0.02640615727672764 0 0.3279626833204195 -0.036689686876387358 0 0.32284491842308699 -0.017657241252241621 0 0.32413432036969059 -0.02640615727672764 0 0.31570621787336423 -0.021358293688819051 0 0.33343959521438399 -0.01901292580588388 0 0.32284491842308699 -0.017657241252241621 0 0.32413432036969059 -0.02640615727672764 0 0.32413432036969059 -0.02640615727672764 0 0.31570621787336423 -0.021358293688819051 0 0.3154175968614466 -0.032930595456165883 0 0.31570621787336423 -0.021358293688819051 0 0.3154175968614466 -0.032930595456165883 0 0.30641997361471562 -0.026000366072471141 0 0.32284491842308699 -0.017657241252241621 0 0.31570621787336423 -0.021358293688819051 0 0.31717699121542409 -0.01110362957231944 0 0.31570621787336423 -0.021358293688819051 0 0.31717699121542409 -0.01110362957231944 0 0.3077140193076891 -0.012129388207655601 0 0.31717699121542409 -0.01110362957231944 0 0.32041722914701948 -0.0018902658603662571 0 0.3110389812754043 -0.003034109782157705 0 0.31717699121542409 -0.01110362957231944 0 0.32041722914701948 -0.0018902658603662571 0 0.32550647521872811 -0.0091790200843608147 0 0.32041722914701948 -0.0018902658603662571 0 0.32742983789552321 -0.00076994107897217277 0 0.32550647521872811 -0.0091790200843608147 0 0.33343959521438399 -0.01901292580588388 0 0.32284491842308699 -0.017657241252241621 0 0.32550647521872811 -0.0091790200843608147 0 0.32284491842308699 -0.017657241252241621 0 0.31717699121542409 -0.01110362957231944 0 0.32550647521872811 -0.0091790200843608147 0 0.32801712843521541 -0.059272496990669971 0 0.31611933006519122 -0.069588702858381979 0 0.30982757691804391 -0.054719679112938298 0 0.32103898236995437 -0.048947934569146423 0 0.32801712843521541 -0.059272496990669971 0 0.30982757691804391 -0.054719679112938298 0 0.32103898236995437 -0.048947934569146423 0 0.3154175968614466 -0.032930595456165883 0 0.3279626833204195 -0.036689686876387358 0 0.32103898236995437 -0.048947934569146423 0 0.3154175968614466 -0.032930595456165883 0 0.30164796996605692 -0.037541704693316108 0 0.32413432036969059 -0.02640615727672764 0 0.3154175968614466 -0.032930595456165883 0 0.3279626833204195 -0.036689686876387358 0 0.33616742229372382 -0.045411194952542158 0 0.34043197327237018 -0.060350800924363492 0 0.34722123997328969 -0.034493716473073047 0 0.32103898236995437 -0.048947934569146423 0 0.3279626833204195 -0.036689686876387358 0 0.33616742229372382 -0.045411194952542158 0 0.33237598323868328 -0.029656202547745331 0 0.3279626833204195 -0.036689686876387358 0 0.3365424914994638 -0.0348333421678804 0 0.3279626833204195 -0.036689686876387358 0 0.3365424914994638 -0.0348333421678804 0 0.33616742229372382 -0.045411194952542158 0 0.33898512867120267 -0.02791590998965409 0 0.3365424914994638 -0.0348333421678804 0 0.34722123997328969 -0.034493716473073047 0 0.3365424914994638 -0.0348333421678804 0 0.33616742229372382 -0.045411194952542158 0 0.34722123997328969 -0.034493716473073047 0 0.32103898236995437 -0.048947934569146423 0 0.32801712843521541 -0.059272496990669971 0 0.34043197327237018 -0.060350800924363492 0 0.32103898236995437 -0.048947934569146423 0 0.34043197327237018 -0.060350800924363492 0 0.32103898236995437 -0.048947934569146423 0 0.33616742229372382 -0.045411194952542158 0 0.34043197327237018 -0.060350800924363492 0 0.32801712843521541 -0.059272496990669971 0 0.34043197327237018 -0.060350800924363492 0 0.33224559926391661 -0.064420848120152918 0 0.34043197327237018 -0.060350800924363492 0 0.34722123997328969 -0.034493716473073047 0 0.35042265031705522 -0.052574122786785651 0 0.36452906287258319 -0.03844913382838698 0 0.3533623285774985 -0.063391141289755856 0 0.36452906287258319 -0.03844913382838698 0 0.3533623285774985 -0.063391141289755856 0 0.34654764770369739 -0.060197579357586947 0 0.35042265031705522 -0.052574122786785651 0 0.3533623285774985 -0.063391141289755856 0 0.34043197327237018 -0.060350800924363492 0 0.35189753455193967 -0.041308570926167791 0 0.34043197327237018 -0.060350800924363492 0 0.35042265031705522 -0.052574122786785651 0 0.35189753455193967 -0.041308570926167791 0 0.34043197327237018 -0.060350800924363492 0 0.34654764770369739 -0.060197579357586947 0 0.34591721731977121 -0.063506051721314655 0 0.34043197327237018 -0.060350800924363492 0 0.34654764770369739 -0.060197579357586947 0 0.35042265031705522 -0.052574122786785651 0 0.34654764770369739 -0.060197579357586947 0 0.34591721731977121 -0.063506051721314655 0 0.3533623285774985 -0.063391141289755856 0 0.36285946923123052 -0.057729366977550392 0 0.36118488959948852 -0.058009982995808083 0 0.3533623285774985 -0.063391141289755856 0 0.36336407338611038 -0.022266929594022499 0 0.35189753455193967 -0.041308570926167791 0 0.34043197327237018 -0.060350800924363492 0 0.34722123997328969 -0.034493716473073047 0 0.35189753455193967 -0.041308570926167791 0 0.36336407338611038 -0.022266929594022499 0 0.34722123997328969 -0.034493716473073047 0 0.35189753455193967 -0.041308570926167791 0 0.35042265031705522 -0.052574122786785651 0 0.35189753455193967 -0.041308570926167791 0 0.36452906287258319 -0.03844913382838698 0 0.37585899934045952 -0.038199493109218823 0 0.36452906287258319 -0.03844913382838698 0 0.36118488959948852 -0.058009982995808083 0 0.36336407338611038 -0.022266929594022499 0 0.35189753455193967 -0.041308570926167791 0 0.36452906287258319 -0.03844913382838698 0 0.37585899934045952 -0.038199493109218823 0 0.3700187038017963 -0.03036708906154803 0 0.36452906287258319 -0.03844913382838698 0 0.36452906287258319 -0.03844913382838698 0 0.36118488959948852 -0.058009982995808083 0 0.3533623285774985 -0.063391141289755856 0 0.37585899934045952 -0.038199493109218823 0 0.36285946923123052 -0.057729366977550392 0 0.37232286151752197 -0.053503717423022283 0 0.37585899934045952 -0.038199493109218823 0 0.36118488959948852 -0.058009982995808083 0 0.37585899934045952 -0.038199493109218823 0 0.36285946923123052 -0.057729366977550392 0 0.36118488959948852 -0.058009982995808083 0 0.37731002260151908 -0.052937122138599517 0 0.37232286151752197 -0.053503717423022283 0 0.37326295489687872 -0.065148887466720387 0 0.36285946923123052 -0.057729366977550392 0 0.37232286151752197 -0.053503717423022283 0 0.37326295489687872 -0.065148887466720387 0 0.36285946923123052 -0.057729366977550392 0 0.366769228386706 -0.083792389152377009 0 0.3533623285774985 -0.063391141289755856 0 0.38010515746826001 -0.077531488326077355 0 0.37326295489687872 -0.065148887466720387 0 0.366769228386706 -0.083792389152377009 0 0.36285946923123052 -0.057729366977550392 0 0.366769228386706 -0.083792389152377009 0 0.36285946923123052 -0.057729366977550392 0 0.37326295489687872 -0.065148887466720387 0 0.366769228386706 -0.083792389152377009 0 0.35472628492517028 -0.082813913775014417 0 0.3533623285774985 -0.063391141289755856 0 0.34219559428241392 -0.08833314875112451 0 0.366769228386706 -0.083792389152377009 0 0.35472628492517028 -0.082813913775014417 0 0.35657798845406269 -0.095738975906800333 0 0.35472628492517028 -0.082813913775014417 0 0.35657798845406269 -0.095738975906800333 0 0.34219559428241392 -0.08833314875112451 0 0.3533623285774985 -0.063391141289755856 0 0.34288986304649871 -0.06982307142136121 0 0.34219559428241392 -0.08833314875112451 0 0.3533623285774985 -0.063391141289755856 0 0.34219559428241392 -0.08833314875112451 0 0.366769228386706 -0.083792389152377009 0 0.35472628492517028 -0.082813913775014417 0 0.3533623285774985 -0.063391141289755856 0 0.34591721731977121 -0.063506051721314655 0 0.3533623285774985 -0.063391141289755856 0 0.34288986304649871 -0.06982307142136121 0 0.3627578547229815 -0.12184069637690161 0 0.37067898754218148 -0.10985541132720381 0 0.37458874669765702 -0.13591843350203059 0 0.37067898754218148 -0.10985541132720381 0 0.37458874669765702 -0.13591843350203059 0 0.3627578547229815 -0.12184069637690161 0 0.37067898754218148 -0.10985541132720381 0 0.35671918285896342 -0.11034005430409539 0 0.366769228386706 -0.083792389152377009 0 0.37067898754218148 -0.10985541132720381 0 0.35657798845406269 -0.095738975906800333 0 0.3820981654951936 -0.097154980192335316 0 0.366769228386706 -0.083792389152377009 0 0.37067898754218148 -0.10985541132720381 0 0.366769228386706 -0.083792389152377009 0 0.37067898754218148 -0.10985541132720381 0 0.37067898754218148 -0.10985541132720381 0 0.35657798845406269 -0.095738975906800333 0 0.35671918285896342 -0.11034005430409539 0 0.34856973263139202 -0.10263892539360191 0 0.34235915177399029 -0.10674230277101129 0 0.34219559428241392 -0.08833314875112451 0 0.35657798845406269 -0.095738975906800333 0 0.34856973263139202 -0.10263892539360191 0 0.34219559428241392 -0.08833314875112451 0 0.34856973263139202 -0.10263892539360191 0 0.35671918285896342 -0.11034005430409539 0 0.34827501298156149 -0.1117623219786721 0 0.34856973263139202 -0.10263892539360191 0 0.34827501298156149 -0.1117623219786721 0 0.34235915177399029 -0.10674230277101129 0 0.35657798845406269 -0.095738975906800333 0 0.34856973263139202 -0.10263892539360191 0 0.35671918285896342 -0.11034005430409539 0 0.35671918285896342 -0.11034005430409539 0 0.34827501298156149 -0.1117623219786721 0 0.35162532653232098 -0.1205092895820129 0 0.34827501298156149 -0.1117623219786721 0 0.35162532653232098 -0.1205092895820129 0 0.34135144686336899 -0.1168228851956904 0 0.34827501298156149 -0.1117623219786721 0 0.34135144686336899 -0.1168228851956904 0 0.34235915177399029 -0.10674230277101129 0 0.35162532653232098 -0.1205092895820129 0 0.34135144686336899 -0.1168228851956904 0 0.33890931312075429 -0.12769283774235499 0 0.3627578547229815 -0.12184069637690161 0 0.35671918285896342 -0.11034005430409539 0 0.35162532653232098 -0.1205092895820129 0 0.3627578547229815 -0.12184069637690161 0 0.35162532653232098 -0.1205092895820129 0 0.36017702998378442 -0.132580293169165 0 0.33391982760488931 -0.1206495985463488 0 0.32357630724885272 -0.12556578424159451 0 0.33890931312075429 -0.12769283774235499 0 0.33391982760488931 -0.1206495985463488 0 0.33102885998732923 -0.11327515621249321 0 0.32357630724885272 -0.12556578424159451 0 0.33391982760488931 -0.1206495985463488 0 0.34135144686336899 -0.1168228851956904 0 0.33890931312075429 -0.12769283774235499 0 0.34135144686336899 -0.1168228851956904 0 0.33102885998732923 -0.11327515621249321 0 0.34235915177399029 -0.10674230277101129 0 0.33391982760488931 -0.1206495985463488 0 0.34135144686336899 -0.1168228851956904 0 0.33102885998732923 -0.11327515621249321 0 0.33102885998732923 -0.11327515621249321 0 0.34235915177399029 -0.10674230277101129 0 0.34219559428241392 -0.08833314875112451 0 0.33102885998732923 -0.11327515621249321 0 0.32986057319370132 -0.099234122638936884 0 0.34219559428241392 -0.08833314875112451 0 0.33102885998732923 -0.11327515621249321 0 0.34219559428241392 -0.08833314875112451 0 0.33102885998732923 -0.11327515621249321 0 0.32986057319370132 -0.099234122638936884 0 0.32669819662808358 -0.1059795171565176 0 0.31606482024947358 -0.10080795022647859 0 0.32669819662808358 -0.1059795171565176 0 0.31072624066612847 -0.108271811970148 0 0.32986057319370132 -0.099234122638936884 0 0.32263504817964289 -0.095775470757274342 0 0.33066239602409658 -0.092097134243642353 0 0.32263504817964289 -0.095775470757274342 0 0.31606482024947358 -0.10080795022647859 0 0.32669819662808358 -0.1059795171565176 0 0.32986057319370132 -0.099234122638936884 0 0.32263504817964289 -0.095775470757274342 0 0.32669819662808358 -0.1059795171565176 0 0.32263504817964289 -0.095775470757274342 0 0.31606482024947358 -0.10080795022647859 0 0.31371822176395731 -0.093826472470611849 0 0.33102885998732923 -0.11327515621249321 0 0.32669819662808358 -0.1059795171565176 0 0.32357630724885272 -0.12556578424159451 0 0.32669819662808358 -0.1059795171565176 0 0.30768385391032421 -0.12198561337150859 0 0.32357630724885272 -0.12556578424159451 0 0.32669819662808358 -0.1059795171565176 0 0.30768385391032421 -0.12198561337150859 0 0.31072624066612847 -0.108271811970148 0 0.32669819662808358 -0.1059795171565176 0 0.30768385391032421 -0.12198561337150859 0 0.34043197327237018 -0.060350800924363492 0 0.33477514488702298 -0.069742469547517366 0 0.33513957277737011 -0.080514731761045899 0 0.34043197327237018 -0.060350800924363492 0 0.34288986304649871 -0.06982307142136121 0 0.33513957277737011 -0.080514731761045899 0 0.34043197327237018 -0.060350800924363492 0 0.33513957277737011 -0.080514731761045899 0 0.33477514488702298 -0.069742469547517366 0 0.33513957277737011 -0.080514731761045899 0 0.32504359350271972 -0.076672055352358326 0 0.33477514488702298 -0.069742469547517366 0 0.32504359350271972 -0.076672055352358326 0 0.32575815046105788 -0.068317625018060893 0 0.32801712843521541 -0.059272496990669971 0 0.33224559926391661 -0.064420848120152918 0 0.32575815046105788 -0.068317625018060893 0 0.34043197327237018 -0.060350800924363492 0 0.33224559926391661 -0.064420848120152918 0 0.33477514488702298 -0.069742469547517366 0 0.33224559926391661 -0.064420848120152918 0 0.33477514488702298 -0.069742469547517366 0 0.32575815046105788 -0.068317625018060893 0 0.34043197327237018 -0.060350800924363492 0 0.34591721731977121 -0.063506051721314655 0 0.34288986304649871 -0.06982307142136121 0 0.34043197327237018 -0.060350800924363492 0 0.33477514488702298 -0.069742469547517366 0 0.34288986304649871 -0.06982307142136121 0 0.34219559428241392 -0.08833314875112451 0 0.33513957277737011 -0.080514731761045899 0 0.34219559428241392 -0.08833314875112451 0 0.33358152733925539 -0.086814851592564732 0 0.33513957277737011 -0.080514731761045899 0 0.32986057319370132 -0.099234122638936884 0 0.34219559428241392 -0.08833314875112451 0 0.33066239602409658 -0.092097134243642353 0 0.34219559428241392 -0.08833314875112451 0 0.33358152733925539 -0.086814851592564732 0 0.33066239602409658 -0.092097134243642353 0 0.33358152733925539 -0.086814851592564732 0 0.33066239602409658 -0.092097134243642353 0 0.32632854627314112 -0.086314391614446137 0 0.33513957277737011 -0.080514731761045899 0 0.32632854627314112 -0.086314391614446137 0 0.32504359350271972 -0.076672055352358326 0 0.33358152733925539 -0.086814851592564732 0 0.33513957277737011 -0.080514731761045899 0 0.32632854627314112 -0.086314391614446137 0 0.32632854627314112 -0.086314391614446137 0 0.31829944138502919 -0.081255762723034225 0 0.32504359350271972 -0.076672055352358326 0 0.32632854627314112 -0.086314391614446137 0 0.31824221605892522 -0.089044908469904024 0 0.31829944138502919 -0.081255762723034225 0 0.32263504817964289 -0.095775470757274342 0 0.33066239602409658 -0.092097134243642353 0 0.32632854627314112 -0.086314391614446137 0 0.32263504817964289 -0.095775470757274342 0 0.32632854627314112 -0.086314391614446137 0 0.31824221605892522 -0.089044908469904024 0 0.32263504817964289 -0.095775470757274342 0 0.31371822176395731 -0.093826472470611849 0 0.31824221605892522 -0.089044908469904024 0 0.31371822176395731 -0.093826472470611849 0 0.31824221605892522 -0.089044908469904024 0 0.31283508787689213 -0.086082111836929889 0 0.31824221605892522 -0.089044908469904024 0 0.31283508787689213 -0.086082111836929889 0 0.31829944138502919 -0.081255762723034225 0 0.31283508787689213 -0.086082111836929889 0 0.31829944138502919 -0.081255762723034225 0 0.31122787453330658 -0.07983240620618498 0 0.31829944138502919 -0.081255762723034225 0 0.31611933006519122 -0.069588702858381979 0 0.31122787453330658 -0.07983240620618498 0 0.31829944138502919 -0.081255762723034225 0 0.32504359350271972 -0.076672055352358326 0 0.31611933006519122 -0.069588702858381979 0 0.32504359350271972 -0.076672055352358326 0 0.32575815046105788 -0.068317625018060893 0 0.31611933006519122 -0.069588702858381979 0 0.32801712843521541 -0.059272496990669971 0 0.32575815046105788 -0.068317625018060893 0 0.31611933006519122 -0.069588702858381979 0 0.31611933006519122 -0.069588702858381979 0 0.30636969812315101 -0.06511315702933905 0 0.30982757691804391 -0.054719679112938298 0 0.31611933006519122 -0.069588702858381979 0 0.30636969812315101 -0.06511315702933905 0 0.30831478517377781 -0.072905151701277746 0 0.30636969812315101 -0.06511315702933905 0 0.30309908992900819 -0.071794626567706327 0 0.30831478517377781 -0.072905151701277746 0 0.30636969812315101 -0.06511315702933905 0 0.29851962414946709 -0.066781623072556417 0 0.30309908992900819 -0.071794626567706327 0 0.30636969812315101 -0.06511315702933905 0 0.29851962414946709 -0.066781623072556417 0 0.30023319195687193 -0.05613514242887839 0 0.29851962414946709 -0.066781623072556417 0 0.30309908992900819 -0.071794626567706327 0 0.29667122818225478 -0.076155670860092589 0 0.30309908992900819 -0.071794626567706327 0 0.30475793321823169 -0.078196865844776337 0 0.29667122818225478 -0.076155670860092589 0 0.31611933006519122 -0.069588702858381979 0 0.30831478517377781 -0.072905151701277746 0 0.31122787453330658 -0.07983240620618498 0 0.30831478517377781 -0.072905151701277746 0 0.31122787453330658 -0.07983240620618498 0 0.30475793321823169 -0.078196865844776337 0 0.30309908992900819 -0.071794626567706327 0 0.30831478517377781 -0.072905151701277746 0 0.30475793321823169 -0.078196865844776337 0 0.31283508787689213 -0.086082111836929889 0 0.31122787453330658 -0.07983240620618498 0 0.30625885878452702 -0.084304566213983911 0 0.31122787453330658 -0.07983240620618498 0 0.30625885878452702 -0.084304566213983911 0 0.30475793321823169 -0.078196865844776337 0 0.30793889355477438 -0.090126744098998957 0 0.30078861001286389 -0.090524596628801038 0 0.30580840449333058 -0.099034546291636383 0 0.31371822176395731 -0.093826472470611849 0 0.31283508787689213 -0.086082111836929889 0 0.30793889355477438 -0.090126744098998957 0 0.31283508787689213 -0.086082111836929889 0 0.30625885878452702 -0.084304566213983911 0 0.30793889355477438 -0.090126744098998957 0 0.30625885878452702 -0.084304566213983911 0 0.30793889355477438 -0.090126744098998957 0 0.30078861001286389 -0.090524596628801038 0 0.30625885878452702 -0.084304566213983911 0 0.30078861001286389 -0.090524596628801038 0 0.30027525327402182 -0.083089001566617471 0 0.30078861001286389 -0.090524596628801038 0 0.30027525327402182 -0.083089001566617471 0 0.29344014151757852 -0.088490853873786121 0 0.30475793321823169 -0.078196865844776337 0 0.30027525327402182 -0.083089001566617471 0 0.29667122818225478 -0.076155670860092589 0 0.30625885878452702 -0.084304566213983911 0 0.30475793321823169 -0.078196865844776337 0 0.30027525327402182 -0.083089001566617471 0 0.30027525327402182 -0.083089001566617471 0 0.29488058876543682 -0.083288237989582778 0 0.29667122818225478 -0.076155670860092589 0 0.29488058876543682 -0.083288237989582778 0 0.29035658370986478 -0.080342821453746563 0 0.29344014151757852 -0.088490853873786121 0 0.29488058876543682 -0.083288237989582778 0 0.29035658370986478 -0.080342821453746563 0 0.29667122818225478 -0.076155670860092589 0 0.29035658370986478 -0.080342821453746563 0 0.29344014151757852 -0.088490853873786121 0 0.28566055225847098 -0.084771031995013665 0 0.30027525327402182 -0.083089001566617471 0 0.29488058876543682 -0.083288237989582778 0 0.29344014151757852 -0.088490853873786121 0 0.30078861001286389 -0.090524596628801038 0 0.29344014151757852 -0.088490853873786121 0 0.29467037244859812 -0.097371978400965245 0 0.29344014151757852 -0.088490853873786121 0 0.2854580176461865 -0.092621106130597652 0 0.29467037244859812 -0.097371978400965245 0 0.2854580176461865 -0.092621106130597652 0 0.28566055225847098 -0.084771031995013665 0 0.27986543477431391 -0.086261617532237281 0 0.29344014151757852 -0.088490853873786121 0 0.2854580176461865 -0.092621106130597652 0 0.28566055225847098 -0.084771031995013665 0 0.29035658370986478 -0.080342821453746563 0 0.28566055225847098 -0.084771031995013665 0 0.28505297151300307 -0.078652677919730116 0 0.28566055225847098 -0.084771031995013665 0 0.28039163010127433 -0.080981702875132053 0 0.27986543477431391 -0.086261617532237281 0 0.28566055225847098 -0.084771031995013665 0 0.28505297151300307 -0.078652677919730116 0 0.28039163010127433 -0.080981702875132053 0 0.28505297151300307 -0.078652677919730116 0 0.27877882114896618 -0.075993334503977703 0 0.28039163010127433 -0.080981702875132053 0 0.28505297151300307 -0.078652677919730116 0 0.28424013029957462 -0.073331796736299457 0 0.27877882114896618 -0.075993334503977703 0 0.29035658370986478 -0.080342821453746563 0 0.28505297151300307 -0.078652677919730116 0 0.28924837058261238 -0.075254223686453375 0 0.28505297151300307 -0.078652677919730116 0 0.28424013029957462 -0.073331796736299457 0 0.28924837058261238 -0.075254223686453375 0 0.28424013029957462 -0.073331796736299457 0 0.29157759131041883 -0.070123689808902281 0 0.28924837058261238 -0.075254223686453375 0 0.28424013029957462 -0.073331796736299457 0 0.28530778385359101 -0.06727309973086093 0 0.28011134195846182 -0.070882212784966703 0 0.28530778385359101 -0.06727309973086093 0 0.27945641469191501 -0.066429826971628053 0 0.28011134195846182 -0.070882212784966703 0 0.28530778385359101 -0.06727309973086093 0 0.29316694539509808 -0.061367451740419923 0 0.28419966021282772 -0.06065224108950934 0 0.28530778385359101 -0.06727309973086093 0 0.27945641469191501 -0.066429826971628053 0 0.28419966021282772 -0.06065224108950934 0 0.28424013029957462 -0.073331796736299457 0 0.28530778385359101 -0.06727309973086093 0 0.29157759131041883 -0.070123689808902281 0 0.29851962414946709 -0.066781623072556417 0 0.29157759131041883 -0.070123689808902281 0 0.29316694539509808 -0.061367451740419923 0 0.28530778385359101 -0.06727309973086093 0 0.29157759131041883 -0.070123689808902281 0 0.29316694539509808 -0.061367451740419923 0 0.29851962414946709 -0.066781623072556417 0 0.29157759131041883 -0.070123689808902281 0 0.29667122818225478 -0.076155670860092589 0 0.29035658370986478 -0.080342821453746563 0 0.29667122818225478 -0.076155670860092589 0 0.28924837058261238 -0.075254223686453375 0 0.29157759131041883 -0.070123689808902281 0 0.29667122818225478 -0.076155670860092589 0 0.28924837058261238 -0.075254223686453375 0 0.30768385391032421 -0.12198561337150859 0 0.29833469148203029 -0.1088484420501465 0 0.28671149698374149 -0.11936311413411541 0 0.30768385391032421 -0.12198561337150859 0 0.29833469148203029 -0.1088484420501465 0 0.31072624066612847 -0.108271811970148 0 0.29833469148203029 -0.1088484420501465 0 0.30580840449333058 -0.099034546291636383 0 0.29467037244859812 -0.097371978400965245 0 0.31606482024947358 -0.10080795022647859 0 0.31072624066612847 -0.108271811970148 0 0.30580840449333058 -0.099034546291636383 0 0.29833469148203029 -0.1088484420501465 0 0.31072624066612847 -0.108271811970148 0 0.30580840449333058 -0.099034546291636383 0 0.31371822176395731 -0.093826472470611849 0 0.30793889355477438 -0.090126744098998957 0 0.30580840449333058 -0.099034546291636383 0 0.31606482024947358 -0.10080795022647859 0 0.31371822176395731 -0.093826472470611849 0 0.30580840449333058 -0.099034546291636383 0 0.30078861001286389 -0.090524596628801038 0 0.30580840449333058 -0.099034546291636383 0 0.29467037244859812 -0.097371978400965245 0 0.2854580176461865 -0.092621106130597652 0 0.29467037244859812 -0.097371978400965245 0 0.28488716210635878 -0.104712092755279 0 0.29833469148203029 -0.1088484420501465 0 0.29467037244859812 -0.097371978400965245 0 0.28488716210635878 -0.104712092755279 0 0.29833469148203029 -0.1088484420501465 0 0.28488716210635878 -0.104712092755279 0 0.28671149698374149 -0.11936311413411541 0 0.28488716210635878 -0.104712092755279 0 0.28671149698374149 -0.11936311413411541 0 0.27265955686690602 -0.1117355404009364 0 0.27265955686690602 -0.1117355404009364 0 0.25927729542194961 -0.1196636360353731 0 0.27244737573272332 -0.12569327867375521 0 0.28671149698374149 -0.11936311413411541 0 0.27265955686690602 -0.1117355404009364 0 0.27244737573272332 -0.12569327867375521 0 0.27265955686690602 -0.1117355404009364 0 0.27331580736206679 -0.096063077292059609 0 0.26035100727627342 -0.1056805779295667 0 0.28488716210635878 -0.104712092755279 0 0.27265955686690602 -0.1117355404009364 0 0.27331580736206679 -0.096063077292059609 0 0.2854580176461865 -0.092621106130597652 0 0.28488716210635878 -0.104712092755279 0 0.27331580736206679 -0.096063077292059609 0 0.25015999641617842 -0.096977429205485174 0 0.26035100727627342 -0.1056805779295667 0 0.24582995645715619 -0.1154111646723136 0 0.27331580736206679 -0.096063077292059609 0 0.26154251339132067 -0.095093519977036994 0 0.26035100727627342 -0.1056805779295667 0 0.26154251339132067 -0.095093519977036994 0 0.25015999641617842 -0.096977429205485174 0 0.26035100727627342 -0.1056805779295667 0 0.25927729542194961 -0.1196636360353731 0 0.24582995645715619 -0.1154111646723136 0 0.24822779734363501 -0.13312164547455721 0 0.27265955686690602 -0.1117355404009364 0 0.26035100727627342 -0.1056805779295667 0 0.25927729542194961 -0.1196636360353731 0 0.26035100727627342 -0.1056805779295667 0 0.25927729542194961 -0.1196636360353731 0 0.24582995645715619 -0.1154111646723136 0 0.27172044066295442 -0.071121783121632559 0 0.27293135031692167 -0.07559843121764899 0 0.26676126199925421 -0.073488696192584066 0 0.27172044066295442 -0.071121783121632559 0 0.27293135031692167 -0.07559843121764899 0 0.27551240893106382 -0.071802357545089887 0 0.27293135031692167 -0.07559843121764899 0 0.26676126199925421 -0.073488696192584066 0 0.26971257295111212 -0.080770393439847071 0 0.27172044066295442 -0.071121783121632559 0 0.26676126199925421 -0.073488696192584066 0 0.26936293126928978 -0.069213777103823343 0 0.26670662997032968 -0.068064292578290331 0 0.27096088325293222 -0.065118938200359563 0 0.27011685860573059 -0.066917927255602097 0 0.26676126199925421 -0.073488696192584066 0 0.26670662997032968 -0.068064292578290331 0 0.26936293126928978 -0.069213777103823343 0 0.26670662997032968 -0.068064292578290331 0 0.26936293126928978 -0.069213777103823343 0 0.27011685860573059 -0.066917927255602097 0 0.26670662997032968 -0.068064292578290331 0 0.27096088325293222 -0.065118938200359563 0 0.27134651686205902 -0.062290768346227848 0 0.27096088325293222 -0.065118938200359563 0 0.27325801066304323 -0.064542181428648454 0 0.27370390695334351 -0.066699558161670072 0 0.27096088325293222 -0.065118938200359563 0 0.27325801066304323 -0.064542181428648454 0 0.27134651686205902 -0.062290768346227848 0 0.27325801066304323 -0.064542181428648454 0 0.27468306573658852 -0.062566766115793759 0 0.27134651686205902 -0.062290768346227848 0 0.27172044066295442 -0.071121783121632559 0 0.26936293126928978 -0.069213777103823343 0 0.2717607143400918 -0.068018508995995819 0 0.26936293126928978 -0.069213777103823343 0 0.27011685860573059 -0.066917927255602097 0 0.2717607143400918 -0.068018508995995819 0 0.27096088325293222 -0.065118938200359563 0 0.27011685860573059 -0.066917927255602097 0 0.2717607143400918 -0.068018508995995819 0 0.2717607143400918 -0.068018508995995819 0 0.27381837047385971 -0.069108248278064735 0 0.27370390695334351 -0.066699558161670072 0 0.27096088325293222 -0.065118938200359563 0 0.2717607143400918 -0.068018508995995819 0 0.27370390695334351 -0.066699558161670072 0 0.27172044066295442 -0.071121783121632559 0 0.2717607143400918 -0.068018508995995819 0 0.27381837047385971 -0.069108248278064735 0 0.27381837047385971 -0.069108248278064735 0 0.27641796277912639 -0.068322663308829676 0 0.27551240893106382 -0.071802357545089887 0 0.27381837047385971 -0.069108248278064735 0 0.27370390695334351 -0.066699558161670072 0 0.27641796277912639 -0.068322663308829676 0 0.27370390695334351 -0.066699558161670072 0 0.27641796277912639 -0.068322663308829676 0 0.27590533366611469 -0.065013776111558647 0 0.27641796277912639 -0.068322663308829676 0 0.27590533366611469 -0.065013776111558647 0 0.27945641469191501 -0.066429826971628053 0 0.27325801066304323 -0.064542181428648454 0 0.27468306573658852 -0.062566766115793759 0 0.27590533366611469 -0.065013776111558647 0 0.27325801066304323 -0.064542181428648454 0 0.27370390695334351 -0.066699558161670072 0 0.27590533366611469 -0.065013776111558647 0 0.27468306573658852 -0.062566766115793759 0 0.27590533366611469 -0.065013776111558647 0 0.27793622246995359 -0.061945290425676258 0 0.27945641469191501 -0.066429826971628053 0 0.27793622246995359 -0.061945290425676258 0 0.28419966021282772 -0.06065224108950934 0 0.27590533366611469 -0.065013776111558647 0 0.27945641469191501 -0.066429826971628053 0 0.27793622246995359 -0.061945290425676258 0 0.27641796277912639 -0.068322663308829676 0 0.27945641469191501 -0.066429826971628053 0 0.28011134195846182 -0.070882212784966703 0 0.27641796277912639 -0.068322663308829676 0 0.28011134195846182 -0.070882212784966703 0 0.27551240893106382 -0.071802357545089887 0 0.28424013029957462 -0.073331796736299457 0 0.28011134195846182 -0.070882212784966703 0 0.27877882114896618 -0.075993334503977703 0 0.28011134195846182 -0.070882212784966703 0 0.27551240893106382 -0.071802357545089887 0 0.27877882114896618 -0.075993334503977703 0 0.27172044066295442 -0.071121783121632559 0 0.27381837047385971 -0.069108248278064735 0 0.27551240893106382 -0.071802357545089887 0 0.27293135031692167 -0.07559843121764899 0 0.27551240893106382 -0.071802357545089887 0 0.27877882114896618 -0.075993334503977703 0 0.27293135031692167 -0.07559843121764899 0 0.27877882114896618 -0.075993334503977703 0 0.2757793416480791 -0.081003264538342182 0 0.27877882114896618 -0.075993334503977703 0 0.28039163010127433 -0.080981702875132053 0 0.2757793416480791 -0.081003264538342182 0 0.28039163010127433 -0.080981702875132053 0 0.2757793416480791 -0.081003264538342182 0 0.27986543477431391 -0.086261617532237281 0 0.2757793416480791 -0.081003264538342182 0 0.27986543477431391 -0.086261617532237281 0 0.2729962405958864 -0.086414107661209938 0 0.2854580176461865 -0.092621106130597652 0 0.27331580736206679 -0.096063077292059609 0 0.27986543477431391 -0.086261617532237281 0 0.27331580736206679 -0.096063077292059609 0 0.27986543477431391 -0.086261617532237281 0 0.2729962405958864 -0.086414107661209938 0 0.27331580736206679 -0.096063077292059609 0 0.26697828601309148 -0.088881807853664105 0 0.2729962405958864 -0.086414107661209938 0 0.27331580736206679 -0.096063077292059609 0 0.26154251339132067 -0.095093519977036994 0 0.26697828601309148 -0.088881807853664105 0 0.26697828601309148 -0.088881807853664105 0 0.26971257295111212 -0.080770393439847071 0 0.26229844403200342 -0.081328722889057195 0 0.26697828601309148 -0.088881807853664105 0 0.2729962405958864 -0.086414107661209938 0 0.26971257295111212 -0.080770393439847071 0 0.26676126199925421 -0.073488696192584066 0 0.26971257295111212 -0.080770393439847071 0 0.26229844403200342 -0.081328722889057195 0 0.27293135031692167 -0.07559843121764899 0 0.2757793416480791 -0.081003264538342182 0 0.26971257295111212 -0.080770393439847071 0 0.2757793416480791 -0.081003264538342182 0 0.2729962405958864 -0.086414107661209938 0 0.26971257295111212 -0.080770393439847071 0 0.26229844403200342 -0.081328722889057195 0 0.2569074698889931 -0.08786470760440937 0 0.25446499988308319 -0.081012334980481548 0 0.26229844403200342 -0.081328722889057195 0 0.25446499988308319 -0.081012334980481548 0 0.25896607345648692 -0.07595439726335701 0 0.26697828601309148 -0.088881807853664105 0 0.26229844403200342 -0.081328722889057195 0 0.2569074698889931 -0.08786470760440937 0 0.26154251339132067 -0.095093519977036994 0 0.26697828601309148 -0.088881807853664105 0 0.2569074698889931 -0.08786470760440937 0 0.25015999641617842 -0.096977429205485174 0 0.2569074698889931 -0.08786470760440937 0 0.24463848379058739 -0.088536849521758776 0 0.26154251339132067 -0.095093519977036994 0 0.25015999641617842 -0.096977429205485174 0 0.2569074698889931 -0.08786470760440937 0 0.2569074698889931 -0.08786470760440937 0 0.25446499988308319 -0.081012334980481548 0 0.24463848379058739 -0.088536849521758776 0 0.25796362690946112 -0.057686533446679122 0 0.27134651686205902 -0.062290768346227848 0 0.24847867700442311 -0.068190649201586517 0 0.27134651686205902 -0.062290768346227848 0 0.24677311034462801 -0.075651298964641206 0 0.24847867700442311 -0.068190649201586517 0 0.26670662997032968 -0.068064292578290331 0 0.2598017689426747 -0.073289671249718136 0 0.24677311034462801 -0.075651298964641206 0 0.27134651686205902 -0.062290768346227848 0 0.24677311034462801 -0.075651298964641206 0 0.26670662997032968 -0.068064292578290331 0 0.27134651686205902 -0.062290768346227848 0 0.24677311034462801 -0.075651298964641206 0 0.25446499988308319 -0.081012334980481548 0 0.25896607345648692 -0.07595439726335701 0 0.24677311034462801 -0.075651298964641206 0 0.25896607345648692 -0.07595439726335701 0 0.2598017689426747 -0.073289671249718136 0 0.24677311034462801 -0.075651298964641206 0 0.26676126199925421 -0.073488696192584066 0 0.26229844403200342 -0.081328722889057195 0 0.25896607345648692 -0.07595439726335701 0 0.26676126199925421 -0.073488696192584066 0 0.26670662997032968 -0.068064292578290331 0 0.2598017689426747 -0.073289671249718136 0 0.26676126199925421 -0.073488696192584066 0 0.25896607345648692 -0.07595439726335701 0 0.2598017689426747 -0.073289671249718136 0 0.25090223679437568 -0.057488120824325008 0 0.25796362690946112 -0.057686533446679122 0 0.24847867700442311 -0.068190649201586517 0 0.25796362690946112 -0.057686533446679122 0 0.27134651686205902 -0.062290768346227848 0 0.26220768466941918 -0.044185100329275737 0 0.25090223679437568 -0.057488120824325008 0 0.25271720777739931 -0.049505738923643537 0 0.25796362690946112 -0.057686533446679122 0 0.25271720777739931 -0.049505738923643537 0 0.25796362690946112 -0.057686533446679122 0 0.26220768466941918 -0.044185100329275737 0 0.27134651686205902 -0.062290768346227848 0 0.26220768466941918 -0.044185100329275737 0 0.27583638042541542 -0.054659490359181287 0 0.27359637886637173 -0.038942651192385783 0 0.28340947956647461 -0.048934309697336358 0 0.27134651686205902 -0.062290768346227848 0 0.27583638042541542 -0.054659490359181287 0 0.26220768466941918 -0.044185100329275737 0 0.27583638042541542 -0.054659490359181287 0 0.27793622246995359 -0.061945290425676258 0 0.28419966021282772 -0.06065224108950934 0 0.27583638042541542 -0.054659490359181287 0 0.28419966021282772 -0.06065224108950934 0 0.28340947956647461 -0.048934309697336358 0 0.27134651686205902 -0.062290768346227848 0 0.27583638042541542 -0.054659490359181287 0 0.2752591367359295 -0.060231463225204708 0 0.27468306573658852 -0.062566766115793759 0 0.27134651686205902 -0.062290768346227848 0 0.2752591367359295 -0.060231463225204708 0 0.27583638042541542 -0.054659490359181287 0 0.27793622246995359 -0.061945290425676258 0 0.2752591367359295 -0.060231463225204708 0 0.27468306573658852 -0.062566766115793759 0 0.27793622246995359 -0.061945290425676258 0 0.2752591367359295 -0.060231463225204708 0 0.27359637886637173 -0.038942651192385783 0 0.28033505144223458 -0.026165824816597211 0 0.28340947956647461 -0.048934309697336358 0 0.27583638042541542 -0.054659490359181287 0 0.27359637886637173 -0.038942651192385783 0 0.26220768466941918 -0.044185100329275737 0 0.26220768466941918 -0.044185100329275737 0 0.25183449102707761 -0.026615894658384251 0 0.24858064332193749 -0.040711471060813291 0 0.27359637886637173 -0.038942651192385783 0 0.26220768466941918 -0.044185100329275737 0 0.25183449102707761 -0.026615894658384251 0 0.26220768466941918 -0.044185100329275737 0 0.25183449102707761 -0.026615894658384251 0 0.25271720777739931 -0.049505738923643537 0 0.26220768466941918 -0.044185100329275737 0 0.24858064332193749 -0.040711471060813291 0 0.25183449102707761 -0.026615894658384251 0 0.25847686418490468 -0.012147488740227121 0 0.28033505144223458 -0.026165824816597211 0 0.25183449102707761 -0.026615894658384251 0 0.2491152472639678 -0.02665883590558818 0 0.25183449102707761 -0.026615894658384251 0 0.25054830565431291 -0.02443746667138855 0 0.25183449102707761 -0.026615894658384251 0 0.25054830565431291 -0.02443746667138855 0 0.2491152472639678 -0.02665883590558818 0 0.25183449102707761 -0.026615894658384251 0 0.25054830565431291 -0.02443746667138855 0 0.25847686418490468 -0.012147488740227121 0 0.25054830565431291 -0.02443746667138855 0 0.25847686418490468 -0.012147488740227121 0 0.25054830565431291 -0.02443746667138855 0 0.2546313662703803 -0.0098854803269232232 0 0.24772306794153229 -0.0049010006205228709 0 0.25539330519756809 0.0004604523674139167 0 0.2546313662703803 -0.0098854803269232232 0 0.25847686418490468 -0.012147488740227121 0 0.25539330519756809 0.0004604523674139167 0 0.2546313662703803 -0.0098854803269232232 0 0.24772306794153229 -0.0049010006205228709 0 0.25054830565431291 -0.02443746667138855 0 0.2546313662703803 -0.0098854803269232232 0 0.25847686418490468 -0.012147488740227121 0 0.2546313662703803 -0.0098854803269232232 0 0.25847686418490468 -0.012147488740227121 0 0.26673170150550152 0.00064825062450301653 0 0.25539330519756809 0.0004604523674139167 0 0.25847686418490468 -0.012147488740227121 0 0.26673170150550152 0.00064825062450301653 0 0.25847686418490468 -0.012147488740227121 0 0.26673170150550152 0.00064825062450301653 0 0.25847686418490468 -0.012147488740227121 0 0.27073724984342729 -0.01053361327240207 0 0.27073724984342729 -0.01053361327240207 0 0.27757565750313329 -0.0057304083282169217 0 0.28033505144223458 -0.026165824816597211 0 0.26673170150550152 0.00064825062450301653 0 0.27073724984342729 -0.01053361327240207 0 0.27757565750313329 -0.0057304083282169217 0 0.27359637886637173 -0.038942651192385783 0 0.25183449102707761 -0.026615894658384251 0 0.28033505144223458 -0.026165824816597211 0 0.27757565750313329 -0.0057304083282169217 0 0.28033505144223458 -0.026165824816597211 0 0.25847686418490468 -0.012147488740227121 0 0.27073724984342729 -0.01053361327240207 0 0.28033505144223458 -0.026165824816597211 0 0.25183449102707761 -0.026615894658384251 0 0.28033505144223458 -0.026165824816597211 0 0.25847686418490468 -0.012147488740227121 0 0.28033505144223458 -0.026165824816597211 0 0.28033505144223458 -0.026165824816597211 0 0.28225695756215952 -0.0261354748174853 0 0.28853131854626618 -0.036959236899362528 0 0.28033505144223458 -0.026165824816597211 0 0.28225695756215952 -0.0261354748174853 0 0.28909480904710277 -0.021344077497555399 0 0.28225695756215952 -0.0261354748174853 0 0.29704185569596081 -0.025901997416795539 0 0.30164796996605692 -0.037541704693316108 0 0.28033505144223458 -0.026165824816597211 0 0.28225695756215952 -0.0261354748174853 0 0.28033505144223458 -0.026165824816597211 0 0.28909480904710277 -0.021344077497555399 0 0.28793198141442639 -0.014093997571583019 0 0.28909480904710277 -0.021344077497555399 0 0.28793198141442639 -0.014093997571583019 0 0.29773774821542148 -0.016719712093930882 0 0.28909480904710277 -0.021344077497555399 0 0.29704185569596081 -0.025901997416795539 0 0.29773774821542148 -0.016719712093930882 0 0.28225695756215952 -0.0261354748174853 0 0.28909480904710277 -0.021344077497555399 0 0.29704185569596081 -0.025901997416795539 0 0.28225695756215952 -0.0261354748174853 0 0.29704185569596081 -0.025901997416795539 0 0.29022804709789918 0.0073927743789855491 0 0.27757565750313329 -0.0057304083282169217 0 0.2974061074109331 -0.0033338883359669579 0 0.27757565750313329 -0.0057304083282169217 0 0.28793198141442639 -0.014093997571583019 0 0.2974061074109331 -0.0033338883359669579 0 0.27757565750313329 -0.0057304083282169217 0 0.28033505144223458 -0.026165824816597211 0 0.28793198141442639 -0.014093997571583019 0 0.28793198141442639 -0.014093997571583019 0 0.2974061074109331 -0.0033338883359669579 0 0.29773774821542148 -0.016719712093930882 0 0.2974061074109331 -0.0033338883359669579 0 0.3077140193076891 -0.012129388207655601 0 0.29773774821542148 -0.016719712093930882 0 0.31717699121542409 -0.01110362957231944 0 0.3077140193076891 -0.012129388207655601 0 0.3110389812754043 -0.003034109782157705 0 0.2974061074109331 -0.0033338883359669579 0 0.3077140193076891 -0.012129388207655601 0 0.3110389812754043 -0.003034109782157705 0 0.30691493272438269 0.0052758208176783084 0 0.2974061074109331 -0.0033338883359669579 0 0.3110389812754043 -0.003034109782157705 0 0.29704185569596081 -0.025901997416795539 0 0.30641997361471562 -0.026000366072471141 0 0.30164796996605692 -0.037541704693316108 0 0.29704185569596081 -0.025901997416795539 0 0.29773774821542148 -0.016719712093930882 0 0.30641997361471562 -0.026000366072471141 0 0.3077140193076891 -0.012129388207655601 0 0.29773774821542148 -0.016719712093930882 0 0.30641997361471562 -0.026000366072471141 0 0.31570621787336423 -0.021358293688819051 0 0.3077140193076891 -0.012129388207655601 0 0.30641997361471562 -0.026000366072471141 0 0.32103898236995437 -0.048947934569146423 0 0.30164796996605692 -0.037541704693316108 0 0.30164796996605692 -0.037541704693316108 0 0.30982757691804391 -0.054719679112938298 0 0.29536673750986708 -0.046438615220836192 0 0.3154175968614466 -0.032930595456165883 0 0.30641997361471562 -0.026000366072471141 0 0.30164796996605692 -0.037541704693316108 0 0.32103898236995437 -0.048947934569146423 0 0.30164796996605692 -0.037541704693316108 0 0.30982757691804391 -0.054719679112938298 0 0.30636969812315101 -0.06511315702933905 0 0.30982757691804391 -0.054719679112938298 0 0.30023319195687193 -0.05613514242887839 0 0.29851962414946709 -0.066781623072556417 0 0.30023319195687193 -0.05613514242887839 0 0.29316694539509808 -0.061367451740419923 0 0.30982757691804391 -0.054719679112938298 0 0.30023319195687193 -0.05613514242887839 0 0.29536673750986708 -0.046438615220836192 0 0.29127520292822789 -0.054705552035396038 0 0.28340947956647461 -0.048934309697336358 0 0.29536673750986708 -0.046438615220836192 0 0.30023319195687193 -0.05613514242887839 0 0.29127520292822789 -0.054705552035396038 0 0.29536673750986708 -0.046438615220836192 0 0.30023319195687193 -0.05613514242887839 0 0.29127520292822789 -0.054705552035396038 0 0.29316694539509808 -0.061367451740419923 0 0.29127520292822789 -0.054705552035396038 0 0.29316694539509808 -0.061367451740419923 0 0.28419966021282772 -0.06065224108950934 0 0.29127520292822789 -0.054705552035396038 0 0.28419966021282772 -0.06065224108950934 0 0.28340947956647461 -0.048934309697336358 0 0.28033505144223458 -0.026165824816597211 0 0.28340947956647461 -0.048934309697336358 0 0.28225695756215952 -0.0261354748174853 0 0.30164796996605692 -0.037541704693316108 0 0.28033505144223458 -0.026165824816597211 0 0.28340947956647461 -0.048934309697336358 0 0.28853131854626618 -0.036959236899362528 0 0.28225695756215952 -0.0261354748174853 0 0.30164796996605692 -0.037541704693316108 0 0.28853131854626618 -0.036959236899362528 0 0.28340947956647461 -0.048934309697336358 0 0.28853131854626618 -0.036959236899362528 0 0.29536673750986708 -0.046438615220836192 0 0.30164796996605692 -0.037541704693316108 0 0.28853131854626618 -0.036959236899362528 0 0.29536673750986708 -0.046438615220836192 0 0.28766553738945588 -0.20015353613689191 0 0.29481517507126448 -0.2254929831664543 0 0.27900346477422677 -0.21697689629932501 0 0.28766553738945588 -0.20015353613689191 0 0.30294258932563062 -0.2031039212668013 0 0.29481517507126448 -0.2254929831664543 0 0.28766553738945588 -0.20015353613689191 0 0.29870361677606111 -0.18757055861618241 0 0.2828857095446965 -0.1772429575850521 0 0.28766553738945588 -0.20015353613689191 0 0.30294258932563062 -0.2031039212668013 0 0.29870361677606111 -0.18757055861618241 0 0.30294258932563062 -0.2031039212668013 0 0.29870361677606111 -0.18757055861618241 0 0.31455690740735331 -0.1921709664007836 0 0.30294258932563062 -0.2031039212668013 0 0.29481517507126448 -0.2254929831664543 0 0.32322664815369628 -0.21667955276404699 0 0.29481517507126448 -0.2254929831664543 0 0.32322664815369628 -0.21667955276404699 0 0.29481517507126448 -0.2254929831664543 0 0.32322664815369628 -0.21667955276404699 0 0.31732183485810961 -0.23453356571267439 0 0.30849589603726119 -0.24755155563553849 0 0.29481517507126448 -0.2254929831664543 0 0.31732183485810961 -0.23453356571267439 0 0.30849589603726119 -0.24755155563553849 0 0.29053066305545472 -0.24930972454324049 0 0.29481517507126448 -0.2254929831664543 0 0.29053066305545472 -0.24930972454324049 0 0.29481517507126448 -0.2254929831664543 0 0.26640370198883279 -0.23430641356886209 0 0.26640370198883279 -0.23430641356886209 0 0.2639100076133416 -0.21155465306461549 0 0.27900346477422677 -0.21697689629932501 0 0.29481517507126448 -0.2254929831664543 0 0.26640370198883279 -0.23430641356886209 0 0.29481517507126448 -0.2254929831664543 0 0.26640370198883279 -0.23430641356886209 0 0.27900346477422677 -0.21697689629932501 0 0.29053066305545472 -0.24930972454324049 0 0.26640370198883279 -0.23430641356886209 0 0.2749983627915108 -0.25641595150652408 0 0.26640370198883279 -0.23430641356886209 0 0.2749983627915108 -0.25641595150652408 0 0.25655956082222359 -0.25080388744885951 0 0.26640370198883279 -0.23430641356886209 0 0.25655956082222359 -0.25080388744885951 0 0.23799222890640129 -0.2431198439712699 0 0.26640370198883279 -0.23430641356886209 0 0.23799222890640129 -0.2431198439712699 0 0.26640370198883279 -0.23430641356886209 0 0.2639100076133416 -0.21155465306461549 0 0.24100276054523589 -0.2185255786401053 0 0.2639100076133416 -0.21155465306461549 0 0.2493615313569888 -0.20579470911091521 0 0.24100276054523589 -0.2185255786401053 0 0.2639100076133416 -0.21155465306461549 0 0.26093768072361978 -0.196698135079723 0 0.2493615313569888 -0.20579470911091521 0 0.28766553738945588 -0.20015353613689191 0 0.2639100076133416 -0.21155465306461549 0 0.27900346477422677 -0.21697689629932501 0 0.28766553738945588 -0.20015353613689191 0 0.2669555297610533 -0.18328914678454791 0 0.28766553738945588 -0.20015353613689191 0 0.26093768072361978 -0.196698135079723 0 0.2669555297610533 -0.18328914678454791 0 0.28766553738945588 -0.20015353613689191 0 0.2639100076133416 -0.21155465306461549 0 0.26093768072361978 -0.196698135079723 0 0.26093768072361978 -0.196698135079723 0 0.2669555297610533 -0.18328914678454791 0 0.2455533254540628 -0.19141220492223349 0 0.26093768072361978 -0.196698135079723 0 0.2455533254540628 -0.19141220492223349 0 0.2493615313569888 -0.20579470911091521 0 0.25064082575704588 -0.1700039020164818 0 0.27040560359017629 -0.16939104763708951 0 0.2669555297610533 -0.18328914678454791 0 0.25064082575704588 -0.1700039020164818 0 0.2669555297610533 -0.18328914678454791 0 0.25064082575704588 -0.1700039020164818 0 0.2669555297610533 -0.18328914678454791 0 0.24793574579121491 -0.1722810130817983 0 0.2669555297610533 -0.18328914678454791 0 0.2455533254540628 -0.19141220492223349 0 0.2669555297610533 -0.18328914678454791 0 0.24793574579121491 -0.1722810130817983 0 0.2455533254540628 -0.19141220492223349 0 0.25064082575704588 -0.1700039020164818 0 0.2517969940147583 -0.15104916485636141 0 0.26965516847480531 -0.15399780580149061 0 0.25064082575704588 -0.1700039020164818 0 0.26965516847480531 -0.15399780580149061 0 0.25064082575704588 -0.1700039020164818 0 0.27040560359017629 -0.16939104763708951 0 0.26965516847480531 -0.15399780580149061 0 0.27040560359017629 -0.16939104763708951 0 0.26965516847480531 -0.15399780580149061 0 0.28270314847870992 -0.16199338504702351 0 0.27040560359017629 -0.16939104763708951 0 0.2828857095446965 -0.1772429575850521 0 0.28270314847870992 -0.16199338504702351 0 0.28766553738945588 -0.20015353613689191 0 0.2669555297610533 -0.18328914678454791 0 0.2828857095446965 -0.1772429575850521 0 0.2669555297610533 -0.18328914678454791 0 0.2828857095446965 -0.1772429575850521 0 0.27040560359017629 -0.16939104763708951 0 0.2669555297610533 -0.18328914678454791 0 0.2828857095446965 -0.1772429575850521 0 0.25927729542194961 -0.1196636360353731 0 0.26314499682701697 -0.13865141133039829 0 0.24822779734363501 -0.13312164547455721 0 0.25927729542194961 -0.1196636360353731 0 0.26314499682701697 -0.13865141133039829 0 0.27244737573272332 -0.12569327867375521 0 0.26314499682701697 -0.13865141133039829 0 0.2517969940147583 -0.15104916485636141 0 0.26965516847480531 -0.15399780580149061 0 0.26314499682701697 -0.13865141133039829 0 0.2517969940147583 -0.15104916485636141 0 0.24822779734363501 -0.13312164547455721 0 0.26314499682701697 -0.13865141133039829 0 0.26965516847480531 -0.15399780580149061 0 0.28866951119256479 -0.13799170958649959 0 0.26965516847480531 -0.15399780580149061 0 0.28866951119256479 -0.13799170958649959 0 0.28270314847870992 -0.16199338504702351 0 0.26965516847480531 -0.15399780580149061 0 0.28866951119256479 -0.13799170958649959 0 0.26314499682701697 -0.13865141133039829 0 0.27244737573272332 -0.12569327867375521 0 0.28866951119256479 -0.13799170958649959 0 0.28671149698374149 -0.11936311413411541 0 0.27244737573272332 -0.12569327867375521 0 0.28866951119256479 -0.13799170958649959 0 0.30768385391032421 -0.12198561337150859 0 0.28671149698374149 -0.11936311413411541 0 0.28866951119256479 -0.13799170958649959 0 0.28866951119256479 -0.13799170958649959 0 0.28270314847870992 -0.16199338504702351 0 0.29659109088426377 -0.1570762318922263 0 0.28866951119256479 -0.13799170958649959 0 0.30288831525015147 -0.1448126379357374 0 0.29659109088426377 -0.1570762318922263 0 0.30288831525015147 -0.1448126379357374 0 0.31264092306926361 -0.16303715666124241 0 0.31767388602127328 -0.1429317878760962 0 0.30288831525015147 -0.1448126379357374 0 0.29659109088426377 -0.1570762318922263 0 0.31264092306926361 -0.16303715666124241 0 0.30768385391032421 -0.12198561337150859 0 0.30288831525015147 -0.1448126379357374 0 0.31767388602127328 -0.1429317878760962 0 0.30768385391032421 -0.12198561337150859 0 0.28866951119256479 -0.13799170958649959 0 0.30288831525015147 -0.1448126379357374 0 0.30768385391032421 -0.12198561337150859 0 0.28866951119256479 -0.13799170958649959 0 0.29870361677606111 -0.18757055861618241 0 0.2828857095446965 -0.1772429575850521 0 0.29651238476640779 -0.17178153727007009 0 0.2828857095446965 -0.1772429575850521 0 0.28270314847870992 -0.16199338504702351 0 0.29651238476640779 -0.17178153727007009 0 0.28270314847870992 -0.16199338504702351 0 0.29659109088426377 -0.1570762318922263 0 0.29651238476640779 -0.17178153727007009 0 0.29651238476640779 -0.17178153727007009 0 0.30858456387420907 -0.1792772474443903 0 0.31264092306926361 -0.16303715666124241 0 0.29659109088426377 -0.1570762318922263 0 0.29651238476640779 -0.17178153727007009 0 0.31264092306926361 -0.16303715666124241 0 0.29870361677606111 -0.18757055861618241 0 0.30858456387420907 -0.1792772474443903 0 0.31455690740735331 -0.1921709664007836 0 0.29870361677606111 -0.18757055861618241 0 0.29651238476640779 -0.17178153727007009 0 0.30858456387420907 -0.1792772474443903 0 0.30858456387420907 -0.1792772474443903 0 0.32319483902014101 -0.18096481884214211 0 0.31455690740735331 -0.1921709664007836 0 0.30858456387420907 -0.1792772474443903 0 0.32319483902014101 -0.18096481884214211 0 0.31264092306926361 -0.16303715666124241 0 0.31264092306926361 -0.16303715666124241 0 0.33092153400707158 -0.16866276240017239 0 0.32630363425332859 -0.15510673046328671 0 0.32319483902014101 -0.18096481884214211 0 0.31264092306926361 -0.16303715666124241 0 0.33092153400707158 -0.16866276240017239 0 0.33092153400707158 -0.16866276240017239 0 0.33991907205137528 -0.15537024450773651 0 0.34402000459098431 -0.171831399514177 0 0.33092153400707158 -0.16866276240017239 0 0.32630363425332859 -0.15510673046328671 0 0.33991907205137528 -0.15537024450773651 0 0.33092153400707158 -0.16866276240017239 0 0.33803999750577518 -0.18191706001685889 0 0.34402000459098431 -0.171831399514177 0 0.32319483902014101 -0.18096481884214211 0 0.33803999750577518 -0.18191706001685889 0 0.33082005276654303 -0.19316909157463211 0 0.32319483902014101 -0.18096481884214211 0 0.33092153400707158 -0.16866276240017239 0 0.33803999750577518 -0.18191706001685889 0 0.30768385391032421 -0.12198561337150859 0 0.32357630724885272 -0.12556578424159451 0 0.31767388602127328 -0.1429317878760962 0 0.32357630724885272 -0.12556578424159451 0 0.31767388602127328 -0.1429317878760962 0 0.33159649986036288 -0.14155107372576031 0 0.31264092306926361 -0.16303715666124241 0 0.31767388602127328 -0.1429317878760962 0 0.32630363425332859 -0.15510673046328671 0 0.31767388602127328 -0.1429317878760962 0 0.32630363425332859 -0.15510673046328671 0 0.33159649986036288 -0.14155107372576031 0 0.32630363425332859 -0.15510673046328671 0 0.33991907205137528 -0.15537024450773651 0 0.33159649986036288 -0.14155107372576031 0 0.33991907205137528 -0.15537024450773651 0 0.33159649986036288 -0.14155107372576031 0 0.34381365833794542 -0.14064874395078 0 0.32357630724885272 -0.12556578424159451 0 0.33159649986036288 -0.14155107372576031 0 0.33890931312075429 -0.12769283774235499 0 0.33159649986036288 -0.14155107372576031 0 0.33890931312075429 -0.12769283774235499 0 0.34381365833794542 -0.14064874395078 0 0.35162532653232098 -0.1205092895820129 0 0.34920746889686499 -0.13186441312647229 0 0.36017702998378442 -0.132580293169165 0 0.35162532653232098 -0.1205092895820129 0 0.33890931312075429 -0.12769283774235499 0 0.34920746889686499 -0.13186441312647229 0 0.33890931312075429 -0.12769283774235499 0 0.34920746889686499 -0.13186441312647229 0 0.34381365833794542 -0.14064874395078 0 0.34920746889686499 -0.13186441312647229 0 0.35363185247803469 -0.13988767514750611 0 0.34381365833794542 -0.14064874395078 0 0.34920746889686499 -0.13186441312647229 0 0.35363185247803469 -0.13988767514750611 0 0.36017702998378442 -0.132580293169165 0 0.35363185247803469 -0.13988767514750611 0 0.36233083744191202 -0.1445411365620177 0 0.36017702998378442 -0.132580293169165 0 0.35363185247803469 -0.13988767514750611 0 0.35207277552900451 -0.1495707094469835 0 0.36233083744191202 -0.1445411365620177 0 0.35363185247803469 -0.13988767514750611 0 0.34381365833794542 -0.14064874395078 0 0.35207277552900451 -0.1495707094469835 0 0.33991907205137528 -0.15537024450773651 0 0.34381365833794542 -0.14064874395078 0 0.35207277552900451 -0.1495707094469835 0 0.33991907205137528 -0.15537024450773651 0 0.35207277552900451 -0.1495707094469835 0 0.35239810287229989 -0.1609206815889512 0 0.35207277552900451 -0.1495707094469835 0 0.35239810287229989 -0.1609206815889512 0 0.36262882442801692 -0.1569117647905518 0 0.35207277552900451 -0.1495707094469835 0 0.36233083744191202 -0.1445411365620177 0 0.36262882442801692 -0.1569117647905518 0 0.37043680543011809 -0.14927700185649001 0 0.36233083744191202 -0.1445411365620177 0 0.36262882442801692 -0.1569117647905518 0 0.37043680543011809 -0.14927700185649001 0 0.36262882442801692 -0.1569117647905518 0 0.3737837947453817 -0.1590279526826078 0 0.37043680543011809 -0.14927700185649001 0 0.3737837947453817 -0.1590279526826078 0 0.37885182383762289 -0.14998572174524191 0 0.37043680543011809 -0.14927700185649001 0 0.37458874669765702 -0.13591843350203059 0 0.37885182383762289 -0.14998572174524191 0 0.37043680543011809 -0.14927700185649001 0 0.36233083744191202 -0.1445411365620177 0 0.37458874669765702 -0.13591843350203059 0 0.36233083744191202 -0.1445411365620177 0 0.37458874669765702 -0.13591843350203059 0 0.36017702998378442 -0.132580293169165 0 0.3627578547229815 -0.12184069637690161 0 0.37458874669765702 -0.13591843350203059 0 0.36017702998378442 -0.132580293169165 0 0.35284329183959218 -0.18238535131356379 0 0.34402000459098431 -0.171831399514177 0 0.36321200138055171 -0.16996400753563939 0 0.35284329183959218 -0.18238535131356379 0 0.36328106309107511 -0.18062420306474911 0 0.36035915179860267 -0.19226899107336681 0 0.33803999750577518 -0.18191706001685889 0 0.35284329183959218 -0.18238535131356379 0 0.34644026281031898 -0.19448893645646581 0 0.33803999750577518 -0.18191706001685889 0 0.35284329183959218 -0.18238535131356379 0 0.34402000459098431 -0.171831399514177 0 0.34402000459098431 -0.171831399514177 0 0.35239810287229989 -0.1609206815889512 0 0.36321200138055171 -0.16996400753563939 0 0.33991907205137528 -0.15537024450773651 0 0.34402000459098431 -0.171831399514177 0 0.35239810287229989 -0.1609206815889512 0 0.36321200138055171 -0.16996400753563939 0 0.3737837947453817 -0.1590279526826078 0 0.37788993817046679 -0.1750033685051201 0 0.36321200138055171 -0.16996400753563939 0 0.36262882442801692 -0.1569117647905518 0 0.3737837947453817 -0.1590279526826078 0 0.35239810287229989 -0.1609206815889512 0 0.36321200138055171 -0.16996400753563939 0 0.36262882442801692 -0.1569117647905518 0 0.36961455139086391 -0.18697939447705861 0 0.37692805250331091 -0.20002101526499841 0 0.37788993817046679 -0.1750033685051201 0 0.36321200138055171 -0.16996400753563939 0 0.36328106309107511 -0.18062420306474911 0 0.37788993817046679 -0.1750033685051201 0 0.35284329183959218 -0.18238535131356379 0 0.36321200138055171 -0.16996400753563939 0 0.36328106309107511 -0.18062420306474911 0 0.36328106309107511 -0.18062420306474911 0 0.36961455139086391 -0.18697939447705861 0 0.36035915179860267 -0.19226899107336681 0 0.36328106309107511 -0.18062420306474911 0 0.36961455139086391 -0.18697939447705861 0 0.37788993817046679 -0.1750033685051201 0 0.36035915179860267 -0.19226899107336681 0 0.35007735032850351 -0.2083502840145223 0 0.37692805250331091 -0.20002101526499841 0 0.36961455139086391 -0.18697939447705861 0 0.36035915179860267 -0.19226899107336681 0 0.37692805250331091 -0.20002101526499841 0 0.35827546511972669 -0.2168867099708755 0 0.37668786612765898 -0.20626801333123981 0 0.35827546511972669 -0.2168867099708755 0 0.35007735032850351 -0.2083502840145223 0 0.37668786612765898 -0.20626801333123981 0 0.35007735032850351 -0.2083502840145223 0 0.37668786612765898 -0.20626801333123981 0 0.37692805250331091 -0.20002101526499841 0 0.35827546511972669 -0.2168867099708755 0 0.37601325401398228 -0.2238139734553066 0 0.37668786612765898 -0.20626801333123981 0 0.35007735032850351 -0.2083502840145223 0 0.37692805250331091 -0.20002101526499841 0 0.35827546511972669 -0.2168867099708755 0 0.35007735032850351 -0.2083502840145223 0 0.34417142100768722 -0.21919827846122639 0 0.36035915179860267 -0.19226899107336681 0 0.35007735032850351 -0.2083502840145223 0 0.34644026281031898 -0.19448893645646581 0 0.35284329183959218 -0.18238535131356379 0 0.36035915179860267 -0.19226899107336681 0 0.34644026281031898 -0.19448893645646581 0 0.33803999750577518 -0.18191706001685889 0 0.34644026281031898 -0.19448893645646581 0 0.33082005276654303 -0.19316909157463211 0 0.33082005276654303 -0.19316909157463211 0 0.33463925694974161 -0.2032387719828839 0 0.32123709092059288 -0.20167246079782961 0 0.34644026281031898 -0.19448893645646581 0 0.33082005276654303 -0.19316909157463211 0 0.33463925694974161 -0.2032387719828839 0 0.35007735032850351 -0.2083502840145223 0 0.34644026281031898 -0.19448893645646581 0 0.33463925694974161 -0.2032387719828839 0 0.35007735032850351 -0.2083502840145223 0 0.32322664815369628 -0.21667955276404699 0 0.34417142100768722 -0.21919827846122639 0 0.35007735032850351 -0.2083502840145223 0 0.33463925694974161 -0.2032387719828839 0 0.32322664815369628 -0.21667955276404699 0 0.35007735032850351 -0.2083502840145223 0 0.32322664815369628 -0.21667955276404699 0 0.30294258932563062 -0.2031039212668013 0 0.32322664815369628 -0.21667955276404699 0 0.32123709092059288 -0.20167246079782961 0 0.30294258932563062 -0.2031039212668013 0 0.32322664815369628 -0.21667955276404699 0 0.33463925694974161 -0.2032387719828839 0 0.32322664815369628 -0.21667955276404699 0 0.32123709092059288 -0.20167246079782961 0 0.30294258932563062 -0.2031039212668013 0 0.31455690740735331 -0.1921709664007836 0 0.32123709092059288 -0.20167246079782961 0 0.33082005276654303 -0.19316909157463211 0 0.31455690740735331 -0.1921709664007836 0 0.32123709092059288 -0.20167246079782961 0 0.32319483902014101 -0.18096481884214211 0 0.33082005276654303 -0.19316909157463211 0 0.31455690740735331 -0.1921709664007836 0 0.30849589603726119 -0.24755155563553849 0 0.32702570909927398 -0.2441270670227802 0 0.32523143608720129 -0.25563514975155688 0 0.30849589603726119 -0.24755155563553849 0 0.32702570909927398 -0.2441270670227802 0 0.31732183485810961 -0.23453356571267439 0 0.32702570909927398 -0.2441270670227802 0 0.31732183485810961 -0.23453356571267439 0 0.33151645751221542 -0.23471615159927939 0 0.32322664815369628 -0.21667955276404699 0 0.31732183485810961 -0.23453356571267439 0 0.33151645751221542 -0.23471615159927939 0 0.32322664815369628 -0.21667955276404699 0 0.33812795589104422 -0.22665263874176081 0 0.33151645751221542 -0.23471615159927939 0 0.32322664815369628 -0.21667955276404699 0 0.33812795589104422 -0.22665263874176081 0 0.34417142100768722 -0.21919827846122639 0 0.32322664815369628 -0.21667955276404699 0 0.33812795589104422 -0.22665263874176081 0 0.33812795589104422 -0.22665263874176081 0 0.34159611899635162 -0.23764083900489891 0 0.33151645751221542 -0.23471615159927939 0 0.34159611899635162 -0.23764083900489891 0 0.33151645751221542 -0.23471615159927939 0 0.33809750963604218 -0.2442276064058434 0 0.32702570909927398 -0.2441270670227802 0 0.33151645751221542 -0.23471615159927939 0 0.33809750963604218 -0.2442276064058434 0 0.32702570909927398 -0.2441270670227802 0 0.33809750963604218 -0.2442276064058434 0 0.33506298212903679 -0.25362145841571748 0 0.34159611899635162 -0.23764083900489891 0 0.33809750963604218 -0.2442276064058434 0 0.34720940831406399 -0.24598207355813639 0 0.33809750963604218 -0.2442276064058434 0 0.34720940831406399 -0.24598207355813639 0 0.34242086953849799 -0.25095729318476512 0 0.33809750963604218 -0.2442276064058434 0 0.33506298212903679 -0.25362145841571748 0 0.34242086953849799 -0.25095729318476512 0 0.34159611899635162 -0.23764083900489891 0 0.34720940831406399 -0.24598207355813639 0 0.35302926362839232 -0.2366257247194741 0 0.34720940831406399 -0.24598207355813639 0 0.35302926362839232 -0.2366257247194741 0 0.35617777833386288 -0.25204270139510482 0 0.35302926362839232 -0.2366257247194741 0 0.35617777833386288 -0.25204270139510482 0 0.35302926362839232 -0.2366257247194741 0 0.36621585238029158 -0.2454511906244452 0 0.35617777833386288 -0.25204270139510482 0 0.35827546511972669 -0.2168867099708755 0 0.34417142100768722 -0.21919827846122639 0 0.35114968554546477 -0.22742220681492631 0 0.33812795589104422 -0.22665263874176081 0 0.34417142100768722 -0.21919827846122639 0 0.35114968554546477 -0.22742220681492631 0 0.33812795589104422 -0.22665263874176081 0 0.34159611899635162 -0.23764083900489891 0 0.35302926362839232 -0.2366257247194741 0 0.33812795589104422 -0.22665263874176081 0 0.35302926362839232 -0.2366257247194741 0 0.35114968554546477 -0.22742220681492631 0 0.33812795589104422 -0.22665263874176081 0 0.35302926362839232 -0.2366257247194741 0 0.35302926362839232 -0.2366257247194741 0 0.35114968554546477 -0.22742220681492631 0 0.36210629525703691 -0.22871618779379249 0 0.35302926362839232 -0.2366257247194741 0 0.35114968554546477 -0.22742220681492631 0 0.35827546511972669 -0.2168867099708755 0 0.35114968554546477 -0.22742220681492631 0 0.36210629525703691 -0.22871618779379249 0 0.35827546511972669 -0.2168867099708755 0 0.36210629525703691 -0.22871618779379249 0 0.37601325401398228 -0.2238139734553066 0 0.36694884181548909 -0.23575080535912821 0 0.37533864190030852 -0.24135993357937349 0 0.37601325401398228 -0.2238139734553066 0 0.35302926362839232 -0.2366257247194741 0 0.36210629525703691 -0.22871618779379249 0 0.36694884181548909 -0.23575080535912821 0 0.36210629525703691 -0.22871618779379249 0 0.36694884181548909 -0.23575080535912821 0 0.37601325401398228 -0.2238139734553066 0 0.35302926362839232 -0.2366257247194741 0 0.36621585238029158 -0.2454511906244452 0 0.35302926362839232 -0.2366257247194741 0 0.36621585238029158 -0.2454511906244452 0 0.36694884181548909 -0.23575080535912821 0 0.36621585238029158 -0.2454511906244452 0 0.36694884181548909 -0.23575080535912821 0 0.37533864190030852 -0.24135993357937349 0 0.36621585238029158 -0.2454511906244452 0 0.37533864190030852 -0.24135993357937349 0 0.37532225099759159 -0.25128252167239618 0 0.37533864190030852 -0.24135993357937349 0 0.38450509607361122 -0.24667750058321619 0 0.37532225099759159 -0.25128252167239618 0 0.37533864190030852 -0.24135993357937349 0 0.38450509607361122 -0.24667750058321619 0 0.39135363995489508 -0.23082662085505051 0 0.38450509607361122 -0.24667750058321619 0 0.39930936754277507 -0.24529154068188619 0 0.39135363995489508 -0.23082662085505051 0 0.39135363995489508 -0.23082662085505051 0 0.399735009167412 -0.2164021648293947 0 0.4174171551130651 -0.22595619523639879 0 0.39930936754277507 -0.24529154068188619 0 0.39135363995489508 -0.23082662085505051 0 0.4174171551130651 -0.22595619523639879 0 0.39135363995489508 -0.23082662085505051 0 0.38884856452536332 -0.21626288660255091 0 0.399735009167412 -0.2164021648293947 0 0.39135363995489508 -0.23082662085505051 0 0.37601325401398228 -0.2238139734553066 0 0.38884856452536332 -0.21626288660255091 0 0.37533864190030852 -0.24135993357937349 0 0.37601325401398228 -0.2238139734553066 0 0.37533864190030852 -0.24135993357937349 0 0.39135363995489508 -0.23082662085505051 0 0.37601325401398228 -0.2238139734553066 0 0.37601325401398228 -0.2238139734553066 0 0.37668786612765898 -0.20626801333123981 0 0.37668786612765898 -0.20626801333123981 0 0.38884856452536332 -0.21626288660255091 0 0.39798789569667808 -0.2063493339566721 0 0.37601325401398228 -0.2238139734553066 0 0.37668786612765898 -0.20626801333123981 0 0.38884856452536332 -0.21626288660255091 0 0.37668786612765898 -0.20626801333123981 0 0.37692805250331091 -0.20002101526499841 0 0.37692805250331091 -0.20002101526499841 0 0.39984851675226479 -0.19291093280419369 0 0.38717162491775869 -0.18660953137953271 0 0.37668786612765898 -0.20626801333123981 0 0.39984851675226479 -0.19291093280419369 0 0.37668786612765898 -0.20626801333123981 0 0.37692805250331091 -0.20002101526499841 0 0.39984851675226479 -0.19291093280419369 0 0.37692805250331091 -0.20002101526499841 0 0.37788993817046679 -0.1750033685051201 0 0.37692805250331091 -0.20002101526499841 0 0.39984851675226479 -0.19291093280419369 0 0.37668786612765898 -0.20626801333123981 0 0.39984851675226479 -0.19291093280419369 0 0.39798789569667808 -0.2063493339566721 0 0.39984851675226479 -0.19291093280419369 0 0.38717162491775869 -0.18660953137953271 0 0.39620902522723073 -0.18366976921895131 0 0.39984851675226479 -0.19291093280419369 0 0.39798789569667808 -0.2063493339566721 0 0.40947640825701848 -0.1983640838013217 0 0.38884856452536332 -0.21626288660255091 0 0.39798789569667808 -0.2063493339566721 0 0.399735009167412 -0.2164021648293947 0 0.39798789569667808 -0.2063493339566721 0 0.399735009167412 -0.2164021648293947 0 0.41333100935035022 -0.20788792237132969 0 0.399735009167412 -0.2164021648293947 0 0.41333100935035022 -0.20788792237132969 0 0.4174171551130651 -0.22595619523639879 0 0.39798789569667808 -0.2063493339566721 0 0.41333100935035022 -0.20788792237132969 0 0.40947640825701848 -0.1983640838013217 0 0.39984851675226479 -0.19291093280419369 0 0.41385963515340718 -0.18856458946148469 0 0.41946346317382188 -0.18159871091833329 0 0.39984851675226479 -0.19291093280419369 0 0.41385963515340718 -0.18856458946148469 0 0.40947640825701848 -0.1983640838013217 0 0.39984851675226479 -0.19291093280419369 0 0.41385963515340718 -0.18856458946148469 0 0.41333100935035022 -0.20788792237132969 0 0.40947640825701848 -0.1983640838013217 0 0.41988982666620278 -0.19845331382783801 0 0.41385963515340718 -0.18856458946148469 0 0.42809378019246658 -0.19269899503368421 0 0.41946346317382188 -0.18159871091833329 0 0.41385963515340718 -0.18856458946148469 0 0.40947640825701848 -0.1983640838013217 0 0.41988982666620278 -0.19845331382783801 0 0.41385963515340718 -0.18856458946148469 0 0.41988982666620278 -0.19845331382783801 0 0.42809378019246658 -0.19269899503368421 0 0.41988982666620278 -0.19845331382783801 0 0.42809378019246658 -0.19269899503368421 0 0.43552494268335512 -0.2066208497909113 0 0.41333100935035022 -0.20788792237132969 0 0.43552494268335512 -0.2066208497909113 0 0.4174171551130651 -0.22595619523639879 0 0.41333100935035022 -0.20788792237132969 0 0.41988982666620278 -0.19845331382783801 0 0.43552494268335512 -0.2066208497909113 0 0.43552494268335512 -0.2066208497909113 0 0.4174171551130651 -0.22595619523639879 0 0.43552494268335512 -0.2066208497909113 0 0.43512081217072079 -0.22552657789835959 0 0.4174171551130651 -0.22595619523639879 0 0.43512081217072079 -0.22552657789835959 0 0.42919860290924639 -0.2397098199703217 0 0.44528474899110582 -0.23600237500128901 0 0.43512081217072079 -0.22552657789835959 0 0.42919860290924639 -0.2397098199703217 0 0.4174171551130651 -0.22595619523639879 0 0.42919860290924639 -0.2397098199703217 0 0.43547328551251452 -0.24962400388586431 0 0.44528474899110582 -0.23600237500128901 0 0.42919860290924639 -0.2397098199703217 0 0.43547328551251452 -0.24962400388586431 0 0.42708268127850191 -0.25697277062419649 0 0.42919860290924639 -0.2397098199703217 0 0.41616732995836248 -0.24587856466949179 0 0.42708268127850191 -0.25697277062419649 0 0.39930936754277507 -0.24529154068188619 0 0.4174171551130651 -0.22595619523639879 0 0.42919860290924639 -0.2397098199703217 0 0.41616732995836248 -0.24587856466949179 0 0.4174171551130651 -0.22595619523639879 0 0.39930936754277507 -0.24529154068188619 0 0.41616732995836248 -0.24587856466949179 0 0.4174171551130651 -0.22595619523639879 0 0.40491864636271441 -0.1158684379440905 0 0.39466519734998329 -0.1408519897105189 0 0.41333667711859989 -0.13334478407944969 0 0.39144902034010037 -0.12751016806044749 0 0.3892293410819499 -0.14318928311340581 0 0.39466519734998329 -0.1408519897105189 0 0.40491864636271441 -0.1158684379440905 0 0.39144902034010037 -0.12751016806044749 0 0.39466519734998329 -0.1408519897105189 0 0.40491864636271441 -0.1158684379440905 0 0.39466519734998329 -0.1408519897105189 0 0.37987158441525398 -0.1234628086985507 0 0.39144902034010037 -0.12751016806044749 0 0.37885182383762289 -0.14998572174524191 0 0.37987158441525398 -0.1234628086985507 0 0.37885182383762289 -0.14998572174524191 0 0.39144902034010037 -0.12751016806044749 0 0.37885182383762289 -0.14998572174524191 0 0.37987158441525398 -0.1234628086985507 0 0.37458874669765702 -0.13591843350203059 0 0.37885182383762289 -0.14998572174524191 0 0.39144902034010037 -0.12751016806044749 0 0.3892293410819499 -0.14318928311340581 0 0.37885182383762289 -0.14998572174524191 0 0.3737837947453817 -0.1590279526826078 0 0.37885182383762289 -0.14998572174524191 0 0.3892293410819499 -0.14318928311340581 0 0.37885182383762289 -0.14998572174524191 0 0.39195132280009293 -0.15440925293741489 0 0.37885182383762289 -0.14998572174524191 0 0.39195132280009293 -0.15440925293741489 0 0.38840564137393252 -0.16419707472637421 0 0.39466519734998329 -0.1408519897105189 0 0.40733608293561152 -0.15086006875927241 0 0.41333667711859989 -0.13334478407944969 0 0.39195132280009293 -0.15440925293741489 0 0.39466519734998329 -0.1408519897105189 0 0.40733608293561152 -0.15086006875927241 0 0.3892293410819499 -0.14318928311340581 0 0.39195132280009293 -0.15440925293741489 0 0.39466519734998329 -0.1408519897105189 0 0.39195132280009293 -0.15440925293741489 0 0.40163222821406053 -0.16616559543773171 0 0.40733608293561152 -0.15086006875927241 0 0.40163222821406053 -0.16616559543773171 0 0.38840564137393252 -0.16419707472637421 0 0.3917028938474193 -0.17542143500636251 0 0.39195132280009293 -0.15440925293741489 0 0.40163222821406053 -0.16616559543773171 0 0.38840564137393252 -0.16419707472637421 0 0.37885182383762289 -0.14998572174524191 0 0.37788993817046679 -0.1750033685051201 0 0.37885182383762289 -0.14998572174524191 0 0.38840564137393252 -0.16419707472637421 0 0.37788993817046679 -0.1750033685051201 0 0.3737837947453817 -0.1590279526826078 0 0.37885182383762289 -0.14998572174524191 0 0.37788993817046679 -0.1750033685051201 0 0.38840564137393252 -0.16419707472637421 0 0.37788993817046679 -0.1750033685051201 0 0.3917028938474193 -0.17542143500636251 0 0.37788993817046679 -0.1750033685051201 0 0.38717162491775869 -0.18660953137953271 0 0.3917028938474193 -0.17542143500636251 0 0.37692805250331091 -0.20002101526499841 0 0.37788993817046679 -0.1750033685051201 0 0.38717162491775869 -0.18660953137953271 0 0.38717162491775869 -0.18660953137953271 0 0.39620902522723073 -0.18366976921895131 0 0.3917028938474193 -0.17542143500636251 0 0.39620902522723073 -0.18366976921895131 0 0.3917028938474193 -0.17542143500636251 0 0.40497399785605392 -0.17913643227773421 0 0.40163222821406053 -0.16616559543773171 0 0.3917028938474193 -0.17542143500636251 0 0.40497399785605392 -0.17913643227773421 0 0.40163222821406053 -0.16616559543773171 0 0.40497399785605392 -0.17913643227773421 0 0.41185197991651917 -0.17292733495480031 0 0.39984851675226479 -0.19291093280419369 0 0.39620902522723073 -0.18366976921895131 0 0.40497399785605392 -0.17913643227773421 0 0.39984851675226479 -0.19291093280419369 0 0.41946346317382188 -0.18159871091833329 0 0.41185197991651917 -0.17292733495480031 0 0.41946346317382188 -0.18159871091833329 0 0.41886814669077438 -0.16398654280462999 0 0.39984851675226479 -0.19291093280419369 0 0.40497399785605392 -0.17913643227773421 0 0.41946346317382188 -0.18159871091833329 0 0.40497399785605392 -0.17913643227773421 0 0.41185197991651917 -0.17292733495480031 0 0.41946346317382188 -0.18159871091833329 0 0.41946346317382188 -0.18159871091833329 0 0.43907840959537853 -0.17028648903247229 0 0.41946346317382188 -0.18159871091833329 0 0.41886814669077438 -0.16398654280462999 0 0.43907840959537853 -0.17028648903247229 0 0.42809378019246658 -0.19269899503368421 0 0.41946346317382188 -0.18159871091833329 0 0.43907840959537853 -0.17028648903247229 0 0.43103074161382249 -0.1572943018564516 0 0.41886814669077438 -0.16398654280462999 0 0.43907840959537853 -0.17028648903247229 0 0.40163222821406053 -0.16616559543773171 0 0.41185197991651917 -0.17292733495480031 0 0.41886814669077438 -0.16398654280462999 0 0.40163222821406053 -0.16616559543773171 0 0.41886814669077438 -0.16398654280462999 0 0.40733608293561152 -0.15086006875927241 0 0.41886814669077438 -0.16398654280462999 0 0.40733608293561152 -0.15086006875927241 0 0.42356292544015789 -0.14640224758588941 0 0.40733608293561152 -0.15086006875927241 0 0.42356292544015789 -0.14640224758588941 0 0.41333667711859989 -0.13334478407944969 0 0.43103074161382249 -0.1572943018564516 0 0.41886814669077438 -0.16398654280462999 0 0.42356292544015789 -0.14640224758588941 0 0.43103074161382249 -0.1572943018564516 0 0.42356292544015789 -0.14640224758588941 0 0.44262787137945298 -0.14828068601755409 0 0.43315279959373831 -0.124308288026206 0 0.42356292544015789 -0.14640224758588941 0 0.44262787137945298 -0.14828068601755409 0 0.43315279959373831 -0.124308288026206 0 0.42356292544015789 -0.14640224758588941 0 0.41333667711859989 -0.13334478407944969 0 0.41847776586514829 -0.1205027145127768 0 0.43315279959373831 -0.124308288026206 0 0.41333667711859989 -0.13334478407944969 0 0.45427359165162989 -0.13221938313771769 0 0.46411597349628259 -0.14629375867290259 0 0.47603611405951729 -0.12930964176090359 0 0.43315279959373831 -0.124308288026206 0 0.45427359165162989 -0.13221938313771769 0 0.44262787137945298 -0.14828068601755409 0 0.46411597349628259 -0.14629375867290259 0 0.45604423269131877 -0.16322291755755189 0 0.47995493810739909 -0.15761725220145309 0 0.44262787137945298 -0.14828068601755409 0 0.46411597349628259 -0.14629375867290259 0 0.45604423269131877 -0.16322291755755189 0 0.45427359165162989 -0.13221938313771769 0 0.44262787137945298 -0.14828068601755409 0 0.46411597349628259 -0.14629375867290259 0 0.45604423269131877 -0.16322291755755189 0 0.46877415295813479 -0.17680113935894581 0 0.47995493810739909 -0.15761725220145309 0 0.44262787137945298 -0.14828068601755409 0 0.45604423269131877 -0.16322291755755189 0 0.43907840959537853 -0.17028648903247229 0 0.43103074161382249 -0.1572943018564516 0 0.44262787137945298 -0.14828068601755409 0 0.43907840959537853 -0.17028648903247229 0 0.42809378019246658 -0.19269899503368421 0 0.43907840959537853 -0.17028648903247229 0 0.44924203265644908 -0.19032266237949591 0 0.45604423269131877 -0.16322291755755189 0 0.43907840959537853 -0.17028648903247229 0 0.44924203265644908 -0.19032266237949591 0 0.45604423269131877 -0.16322291755755189 0 0.46877415295813479 -0.17680113935894581 0 0.44924203265644908 -0.19032266237949591 0 0.46877415295813479 -0.17680113935894581 0 0.5 -0.1738651304186444 0 0.48307538123153621 -0.19093370686397579 0 0.5 -0.1738651304186444 0 0.47995493810739909 -0.15761725220145309 0 0.5 -0.14594243613931451 0 0.46877415295813479 -0.17680113935894581 0 0.5 -0.1738651304186444 0 0.47995493810739909 -0.15761725220145309 0 0.46411597349628259 -0.14629375867290259 0 0.47995493810739909 -0.15761725220145309 0 0.47603611405951729 -0.12930964176090359 0 0.47995493810739909 -0.15761725220145309 0 0.5 -0.14594243613931451 0 0.47603611405951729 -0.12930964176090359 0 0.5 -0.1180197418599844 0 0.5 -0.14594243613931451 0 0.47603611405951729 -0.12930964176090359 0 0.4607844789887463 -0.22788977033970431 0 0.46073709981851979 -0.2431110998228605 0 0.4785857312653492 -0.2338805474587452 0 0.46073709981851979 -0.2431110998228605 0 0.47373465420013222 -0.25025663156921529 0 0.46446663866289689 -0.2527212442855033 0 0.46073709981851979 -0.2431110998228605 0 0.45562018308822588 -0.2529973946209309 0 0.44641350419548131 -0.25179615193678079 0 0.46073709981851979 -0.2431110998228605 0 0.46446663866289689 -0.2527212442855033 0 0.45562018308822588 -0.2529973946209309 0 0.4607844789887463 -0.22788977033970431 0 0.46073709981851979 -0.2431110998228605 0 0.44528474899110582 -0.23600237500128901 0 0.46073709981851979 -0.2431110998228605 0 0.44528474899110582 -0.23600237500128901 0 0.44641350419548131 -0.25179615193678079 0 0.43547328551251452 -0.24962400388586431 0 0.44528474899110582 -0.23600237500128901 0 0.44641350419548131 -0.25179615193678079 0 0.43512081217072079 -0.22552657789835959 0 0.44528474899110582 -0.23600237500128901 0 0.4495155365337169 -0.21557890255541831 0 0.4607844789887463 -0.22788977033970431 0 0.44528474899110582 -0.23600237500128901 0 0.4495155365337169 -0.21557890255541831 0 0.43552494268335512 -0.2066208497909113 0 0.43512081217072079 -0.22552657789835959 0 0.4495155365337169 -0.21557890255541831 0 0.43552494268335512 -0.2066208497909113 0 0.4495155365337169 -0.21557890255541831 0 0.44924203265644908 -0.19032266237949591 0 0.42809378019246658 -0.19269899503368421 0 0.43552494268335512 -0.2066208497909113 0 0.44924203265644908 -0.19032266237949591 0 0.46877415295813479 -0.17680113935894581 0 0.44924203265644908 -0.19032266237949591 0 0.47113620371192427 -0.20711117992274949 0 0.4607844789887463 -0.22788977033970431 0 0.4495155365337169 -0.21557890255541831 0 0.47113620371192427 -0.20711117992274949 0 0.4495155365337169 -0.21557890255541831 0 0.44924203265644908 -0.19032266237949591 0 0.47113620371192427 -0.20711117992274949 0 0.47113620371192427 -0.20711117992274949 0 0.48307538123153621 -0.19093370686397579 0 0.48646370349822821 -0.2172669901851503 0 0.46877415295813479 -0.17680113935894581 0 0.47113620371192427 -0.20711117992274949 0 0.48307538123153621 -0.19093370686397579 0 0.5 -0.1738651304186444 0 0.48307538123153621 -0.19093370686397579 0 0.5 -0.20178782469797429 0 0.48307538123153621 -0.19093370686397579 0 0.5 -0.20178782469797429 0 0.48646370349822821 -0.2172669901851503 0 0.5 -0.20178782469797429 0 0.48646370349822821 -0.2172669901851503 0 0.5 -0.2297105189773043 0 0.48646370349822821 -0.2172669901851503 0 0.5 -0.2297105189773043 0 0.4785857312653492 -0.2338805474587452 0 0.4607844789887463 -0.22788977033970431 0 0.47113620371192427 -0.20711117992274949 0 0.4785857312653492 -0.2338805474587452 0 0.47113620371192427 -0.20711117992274949 0 0.4785857312653492 -0.2338805474587452 0 0.47113620371192427 -0.20711117992274949 0 0.48646370349822821 -0.2172669901851503 0 0.4785857312653492 -0.2338805474587452 0 0.46073709981851979 -0.2431110998228605 0 0.4785857312653492 -0.2338805474587452 0 0.47373465420013222 -0.25025663156921529 0 0.4785857312653492 -0.2338805474587452 0 0.48603525881877419 -0.26064991499474088 0 0.47373465420013222 -0.25025663156921529 0 0.4785857312653492 -0.2338805474587452 0 0.48603525881877419 -0.26064991499474088 0 0.5 -0.2297105189773043 0 0.4785857312653492 -0.2338805474587452 0 0.49058470356909473 -0.2453017632613779 0 0.5 -0.2297105189773043 0 0.49058470356909473 -0.2453017632613779 0 0.49999999999999839 -0.25763321325663419 0 0.4785857312653492 -0.2338805474587452 0 0.49058470356909473 -0.2453017632613779 0 0.48603525881877419 -0.26064991499474088 0 0.49058470356909473 -0.2453017632613779 0 0.49999999999999839 -0.25763321325663419 0 0.48603525881877419 -0.26064991499474088 0 0.49999999999999839 -0.25763321325663419 0 0.48603525881877419 -0.26064991499474088 0 0.5 -0.27680493549477542 0 0.49999999999999839 -0.25763321325663419 0 0.48603525881877419 -0.26064991499474088 0 0.48603525881877419 -0.26064991499474088 0 0.47769121299183798 -0.28543800814256748 0 0.49323799806346258 -0.28653246562956058 0 0.48603525881877419 -0.26064991499474088 0 0.49323799806346258 -0.28653246562956058 0 0.48603525881877419 -0.26064991499474088 0 0.5 -0.27680493549477542 0 0.49323799806346258 -0.28653246562956058 0 0.48603525881877419 -0.26064991499474088 0 0.46519938460305982 -0.26515093775956178 0 0.47769121299183798 -0.28543800814256748 0 0.46519938460305982 -0.26515093775956178 0 0.47769121299183798 -0.28543800814256748 0 0.48603525881877419 -0.26064991499474088 0 0.47373465420013222 -0.25025663156921529 0 0.47032412425986603 -0.25742062558653389 0 0.48603525881877419 -0.26064991499474088 0 0.46519938460305982 -0.26515093775956178 0 0.48603525881877419 -0.26064991499474088 0 0.47032412425986603 -0.25742062558653389 0 0.46519938460305982 -0.26515093775956178 0 0.47373465420013222 -0.25025663156921529 0 0.47032412425986603 -0.25742062558653389 0 0.46446663866289689 -0.2527212442855033 0 0.47032412425986603 -0.25742062558653389 0 0.46446663866289689 -0.2527212442855033 0 0.46191713194774059 -0.25982046982797591 0 0.46191713194774059 -0.25982046982797591 0 0.46519938460305982 -0.26515093775956178 0 0.44621421501908698 -0.26925216622767029 0 0.45562018308822588 -0.2529973946209309 0 0.46191713194774059 -0.25982046982797591 0 0.44621421501908698 -0.26925216622767029 0 0.46446663866289689 -0.2527212442855033 0 0.45562018308822588 -0.2529973946209309 0 0.46191713194774059 -0.25982046982797591 0 0.47032412425986603 -0.25742062558653389 0 0.46191713194774059 -0.25982046982797591 0 0.46519938460305982 -0.26515093775956178 0 0.46191713194774059 -0.25982046982797591 0 0.46519938460305982 -0.26515093775956178 0 0.46519938460305982 -0.26515093775956178 0 0.44621421501908698 -0.26925216622767029 0 0.46519938460305982 -0.26515093775956178 0 0.44621421501908698 -0.26925216622767029 0 0.45529075222613241 -0.28496006599745782 0 0.46519938460305982 -0.26515093775956178 0 0.45529075222613241 -0.28496006599745782 0 0.47769121299183798 -0.28543800814256748 0 0.44621421501908698 -0.26925216622767029 0 0.43893507104377832 -0.27952136470577738 0 0.45529075222613241 -0.28496006599745782 0 0.45562018308822588 -0.2529973946209309 0 0.44621421501908698 -0.26925216622767029 0 0.44641350419548131 -0.25179615193678079 0 0.44621421501908698 -0.26925216622767029 0 0.44641350419548131 -0.25179615193678079 0 0.43662162787367198 -0.26315425492870731 0 0.43547328551251452 -0.24962400388586431 0 0.44641350419548131 -0.25179615193678079 0 0.43662162787367198 -0.26315425492870731 0 0.44986225909353172 -0.30175297462016859 0 0.46110099171429458 -0.31486445669900581 0 0.43739122693625032 -0.31866905699064041 0 0.44986225909353172 -0.30175297462016859 0 0.43739122693625032 -0.31866905699064041 0 0.43330641794773628 -0.3005817412271341 0 0.44986225909353172 -0.30175297462016859 0 0.44103439948217188 -0.29035898174239338 0 0.43330641794773628 -0.3005817412271341 0 0.44986225909353172 -0.30175297462016859 0 0.44103439948217188 -0.29035898174239338 0 0.45529075222613241 -0.28496006599745782 0 0.43893507104377832 -0.27952136470577738 0 0.44103439948217188 -0.29035898174239338 0 0.45529075222613241 -0.28496006599745782 0 0.44986225909353172 -0.30175297462016859 0 0.45529075222613241 -0.28496006599745782 0 0.4710497662546051 -0.30108354506438018 0 0.45529075222613241 -0.28496006599745782 0 0.4710497662546051 -0.30108354506438018 0 0.47769121299183798 -0.28543800814256748 0 0.44986225909353172 -0.30175297462016859 0 0.4710497662546051 -0.30108354506438018 0 0.46110099171429458 -0.31486445669900581 0 0.4710497662546051 -0.30108354506438018 0 0.47769121299183798 -0.28543800814256748 0 0.4901830413806163 -0.30572507852557318 0 0.4710497662546051 -0.30108354506438018 0 0.4901830413806163 -0.30572507852557318 0 0.48481075649233779 -0.31105985640736461 0 0.4710497662546051 -0.30108354506438018 0 0.48481075649233779 -0.31105985640736461 0 0.46110099171429458 -0.31486445669900581 0 0.47769121299183798 -0.28543800814256748 0 0.4901830413806163 -0.30572507852557318 0 0.49323799806346258 -0.28653246562956058 0 0.49999999999998818 -0.29597665773291648 0 0.4901830413806163 -0.30572507852557318 0 0.5 -0.27680493549477542 0 0.49323799806346258 -0.28653246562956058 0 0.49999999999998818 -0.29597665773291648 0 0.47769121299183798 -0.28543800814256748 0 0.49323799806346258 -0.28653246562956058 0 0.4901830413806163 -0.30572507852557318 0 0.48481075649233779 -0.31105985640736461 0 0.49268947410349978 -0.309795593703725 0 0.4901830413806163 -0.30572507852557318 0 0.48481075649233779 -0.31105985640736461 0 0.49268947410349978 -0.309795593703725 0 0.4901830413806163 -0.30572507852557318 0 0.49268947410349978 -0.309795593703725 0 0.4901830413806163 -0.30572507852557318 0 0.48481075649233779 -0.31105985640736461 0 0.49999999999998818 -0.29597665773291648 0 0.4901830413806163 -0.30572507852557318 0 0.49999999999998818 -0.29597665773291648 0 0.4901830413806163 -0.30572507852557318 0 0.5 -0.3086225061923884 0 0.4901830413806163 -0.30572507852557318 0 0.49268947410349978 -0.309795593703725 0 0.5 -0.3086225061923884 0 0.49268947410349978 -0.309795593703725 0 0.5 -0.3086225061923884 0 0.49268947410349978 -0.309795593703725 0 0.5 -0.3086225061923884 0 0.50000000000000044 -0.32166808736785019 0 0.49268947410349978 -0.309795593703725 0 0.50000000000000044 -0.32166808736785019 0 0.48481075649233779 -0.31105985640736461 0 0.49268947410349978 -0.309795593703725 0 0.50000000000000044 -0.32166808736785019 0 0.50000000000000044 -0.32166808736785019 0 0.5 -0.3867312674581207 0 0.49559254170536882 -0.37969125291588768 0 0.48481075649233779 -0.31105985640736461 0 0.50000000000000044 -0.32166808736785019 0 0.48282181580224293 -0.33008605846113831 0 0.50000000000000044 -0.32166808736785019 0 0.48282181580224293 -0.33008605846113831 0 0.48744568617963202 -0.35064790876004592 0 0.48282181580224293 -0.33008605846113831 0 0.48744568617963202 -0.35064790876004592 0 0.46378214627925002 -0.33194165381430868 0 0.48481075649233779 -0.31105985640736461 0 0.46110099171429458 -0.31486445669900581 0 0.48481075649233779 -0.31105985640736461 0 0.46378214627925002 -0.33194165381430868 0 0.48481075649233779 -0.31105985640736461 0 0.46110099171429458 -0.31486445669900581 0 0.46378214627925002 -0.33194165381430868 0 0.48481075649233779 -0.31105985640736461 0 0.48282181580224293 -0.33008605846113831 0 0.46378214627925002 -0.33194165381430868 0 0.50000000000000044 -0.32166808736785019 0 0.48744568617963202 -0.35064790876004592 0 0.49559254170536882 -0.37969125291588768 0 0.48744568617963202 -0.35064790876004592 0 0.48311764063966628 -0.37023201212075368 0 0.49559254170536882 -0.37969125291588768 0 0.48744568617963202 -0.35064790876004592 0 0.46767295289646549 -0.35514871758635719 0 0.46378214627925002 -0.33194165381430868 0 0.48744568617963202 -0.35064790876004592 0 0.47440685583236658 -0.36479240340857128 0 0.46767295289646549 -0.35514871758635719 0 0.48744568617963202 -0.35064790876004592 0 0.47440685583236658 -0.36479240340857128 0 0.48311764063966628 -0.37023201212075368 0 0.47440685583236658 -0.36479240340857128 0 0.45998875945344009 -0.37037944019214991 0 0.47380923999262908 -0.37755393838354973 0 0.47440685583236658 -0.36479240340857128 0 0.48311764063966628 -0.37023201212075368 0 0.47380923999262908 -0.37755393838354973 0 0.47440685583236658 -0.36479240340857128 0 0.45998875945344009 -0.37037944019214991 0 0.46767295289646549 -0.35514871758635719 0 0.45998875945344009 -0.37037944019214991 0 0.45580612142797827 -0.35483409381445979 0 0.46767295289646549 -0.35514871758635719 0 0.45998875945344009 -0.37037944019214991 0 0.45580612142797827 -0.35483409381445979 0 0.44483321244457008 -0.36387720625822612 0 0.45580612142797827 -0.35483409381445979 0 0.44275353606616569 -0.35282345122125691 0 0.46378214627925002 -0.33194165381430868 0 0.45580612142797827 -0.35483409381445979 0 0.46767295289646549 -0.35514871758635719 0 0.46378214627925002 -0.33194165381430868 0 0.45580612142797827 -0.35483409381445979 0 0.44275353606616569 -0.35282345122125691 0 0.44483321244457008 -0.36387720625822612 0 0.45998875945344009 -0.37037944019214991 0 0.44483321244457008 -0.36387720625822612 0 0.44917586664231618 -0.38491815547357322 0 0.44483321244457008 -0.36387720625822612 0 0.44917586664231618 -0.38491815547357322 0 0.46110099171429458 -0.31486445669900581 0 0.46378214627925002 -0.33194165381430868 0 0.45011986469050058 -0.32537864738979699 0 0.44275353606616569 -0.35282345122125691 0 0.46378214627925002 -0.33194165381430868 0 0.44275353606616569 -0.35282345122125691 0 0.46378214627925002 -0.33194165381430868 0 0.43820509383220768 -0.33603942205523352 0 0.46378214627925002 -0.33194165381430868 0 0.43820509383220768 -0.33603942205523352 0 0.45011986469050058 -0.32537864738979699 0 0.46110099171429458 -0.31486445669900581 0 0.45011986469050058 -0.32537864738979699 0 0.43739122693625032 -0.31866905699064041 0 0.43820509383220768 -0.33603942205523352 0 0.45011986469050058 -0.32537864738979699 0 0.43739122693625032 -0.31866905699064041 0 0.46110099171429458 -0.31486445669900581 0 0.43739122693625032 -0.31866905699064041 0 0.43739122693625032 -0.31866905699064041 0 0.413681462158206 -0.32247365728227462 0 0.42569512876219379 -0.30890019183423489 0 0.43739122693625032 -0.31866905699064041 0 0.413681462158206 -0.32247365728227462 0 0.43739122693625032 -0.31866905699064041 0 0.42157550466888799 -0.33095525781115392 0 0.413681462158206 -0.32247365728227462 0 0.43820509383220768 -0.33603942205523352 0 0.42157550466888799 -0.33095525781115392 0 0.42080747017244913 -0.3417439963041019 0 0.43820509383220768 -0.33603942205523352 0 0.42080747017244913 -0.3417439963041019 0 0.42572475593124559 -0.35247487046390957 0 0.43820509383220768 -0.33603942205523352 0 0.43739122693625032 -0.31866905699064041 0 0.42157550466888799 -0.33095525781115392 0 0.40969076540651411 -0.34062491433969272 0 0.41299118618344649 -0.32561330367437608 0 0.40526679723497139 -0.32382392106265018 0 0.42157550466888799 -0.33095525781115392 0 0.40969076540651411 -0.34062491433969272 0 0.41299118618344649 -0.32561330367437608 0 0.42157550466888799 -0.33095525781115392 0 0.41299118618344649 -0.32561330367437608 0 0.42157550466888799 -0.33095525781115392 0 0.42080747017244913 -0.3417439963041019 0 0.40969076540651411 -0.34062491433969272 0 0.40969076540651411 -0.34062491433969272 0 0.41299118618344649 -0.32561330367437608 0 0.413681462158206 -0.32247365728227462 0 0.40598484327284901 -0.32125331137464719 0 0.41308358160480507 -0.29583977997665811 0 0.41299118618344649 -0.32561330367437608 0 0.40912168627425671 -0.32320534419778002 0 0.413681462158206 -0.32247365728227462 0 0.40912168627425671 -0.32320534419778002 0 0.41299118618344649 -0.32561330367437608 0 0.413681462158206 -0.32247365728227462 0 0.40912168627425671 -0.32320534419778002 0 0.41299118618344649 -0.32561330367437608 0 0.413681462158206 -0.32247365728227462 0 0.41299118618344649 -0.32561330367437608 0 0.40912168627425671 -0.32320534419778002 0 0.40526679723497139 -0.32382392106265018 0 0.413681462158206 -0.32247365728227462 0 0.40912168627425671 -0.32320534419778002 0 0.40598484327284901 -0.32125331137464719 0 0.40912168627425671 -0.32320534419778002 0 0.40526679723497139 -0.32382392106265018 0 0.40912168627425671 -0.32320534419778002 0 0.40598484327284901 -0.32125331137464719 0 0.40526679723497139 -0.32382392106265018 0 0.40912168627425671 -0.32320534419778002 0 0.40598484327284901 -0.32125331137464719 0 0.42157550466888799 -0.33095525781115392 0 0.41299118618344649 -0.32561330367437608 0 0.413681462158206 -0.32247365728227462 0 0.44275353606616569 -0.35282345122125691 0 0.44483321244457008 -0.36387720625822612 0 0.42172492585308152 -0.37370524862820509 0 0.44275353606616569 -0.35282345122125691 0 0.42572475593124559 -0.35247487046390957 0 0.42172492585308152 -0.37370524862820509 0 0.44275353606616569 -0.35282345122125691 0 0.42172492585308152 -0.37370524862820509 0 0.44483321244457008 -0.36387720625822612 0 0.42172492585308152 -0.37370524862820509 0 0.43649100581628442 -0.37935722965630408 0 0.44275353606616569 -0.35282345122125691 0 0.43820509383220768 -0.33603942205523352 0 0.42572475593124559 -0.35247487046390957 0 0.42080747017244913 -0.3417439963041019 0 0.42572475593124559 -0.35247487046390957 0 0.41592263617749409 -0.35031706364098109 0 0.42080747017244913 -0.3417439963041019 0 0.40969076540651411 -0.34062491433969272 0 0.41592263617749409 -0.35031706364098109 0 0.40969076540651411 -0.34062491433969272 0 0.41592263617749409 -0.35031706364098109 0 0.40639034462958168 -0.3556365250050092 0 0.40969076540651411 -0.34062491433969272 0 0.40639034462958168 -0.3556365250050092 0 0.41592263617749409 -0.35031706364098109 0 0.40639034462958168 -0.3556365250050092 0 0.41542676787307448 -0.3600796117944548 0 0.42572475593124559 -0.35247487046390957 0 0.41592263617749409 -0.35031706364098109 0 0.41542676787307448 -0.3600796117944548 0 0.42572475593124559 -0.35247487046390957 0 0.41542676787307448 -0.3600796117944548 0 0.42172492585308152 -0.37370524862820509 0 0.40737117677397022 -0.36826435123416912 0 0.42172492585308152 -0.37370524862820509 0 0.40166542959538232 -0.37975212819942761 0 0.40639034462958168 -0.3556365250050092 0 0.41542676787307448 -0.3600796117944548 0 0.40737117677397022 -0.36826435123416912 0 0.41542676787307448 -0.3600796117944548 0 0.40737117677397022 -0.36826435123416912 0 0.42172492585308152 -0.37370524862820509 0 0.40737117677397022 -0.36826435123416912 0 0.39246725133093951 -0.36964638225237439 0 0.40166542959538232 -0.37975212819942761 0 0.40639034462958168 -0.3556365250050092 0 0.40737117677397022 -0.36826435123416912 0 0.39246725133093951 -0.36964638225237439 0 0.40639034462958168 -0.3556365250050092 0 0.39246725133093951 -0.36964638225237439 0 0.39886702428295601 -0.34673515165751251 0 0.39246725133093951 -0.36964638225237439 0 0.39886702428295601 -0.34673515165751251 0 0.39246725133093951 -0.36964638225237439 0 0.39886702428295601 -0.34673515165751251 0 0.38065264769778451 -0.35600786877680118 0 0.40969076540651411 -0.34062491433969272 0 0.40639034462958168 -0.3556365250050092 0 0.39886702428295601 -0.34673515165751251 0 0.38065264769778451 -0.35600786877680118 0 0.38757546050882419 -0.33974128654602359 0 0.37489513448604722 -0.34369386717379802 0 0.39886702428295601 -0.34673515165751251 0 0.38065264769778451 -0.35600786877680118 0 0.38757546050882419 -0.33974128654602359 0 0.39246725133093951 -0.36964638225237439 0 0.38065264769778451 -0.35600786877680118 0 0.36962124500067473 -0.37726096341001919 0 0.40598484327284901 -0.32125331137464719 0 0.40526679723497139 -0.32382392106265018 0 0.3885982503714665 -0.32649864849464377 0 0.40526679723497139 -0.32382392106265018 0 0.3885982503714665 -0.32649864849464377 0 0.40598484327284901 -0.32125331137464719 0 0.38555176309506117 -0.30853796566980568 0 0.40598484327284901 -0.32125331137464719 0 0.3885982503714665 -0.32649864849464377 0 0.38555176309506117 -0.30853796566980568 0 0.40598484327284901 -0.32125331137464719 0 0.40526679723497139 -0.32382392106265018 0 0.40969076540651411 -0.34062491433969272 0 0.39886702428295601 -0.34673515165751251 0 0.40526679723497139 -0.32382392106265018 0 0.40526679723497139 -0.32382392106265018 0 0.38757546050882419 -0.33974128654602359 0 0.3885982503714665 -0.32649864849464377 0 0.39886702428295601 -0.34673515165751251 0 0.40526679723497139 -0.32382392106265018 0 0.39886702428295601 -0.34673515165751251 0 0.40526679723497139 -0.32382392106265018 0 0.38757546050882419 -0.33974128654602359 0 0.38757546050882419 -0.33974128654602359 0 0.3885982503714665 -0.32649864849464377 0 0.37192970350796201 -0.32917337592663881 0 0.38757546050882419 -0.33974128654602359 0 0.37192970350796201 -0.32917337592663881 0 0.37489513448604722 -0.34369386717379802 0 0.3885982503714665 -0.32649864849464377 0 0.37192970350796201 -0.32917337592663881 0 0.3885982503714665 -0.32649864849464377 0 0.3786509775467769 -0.31917699700922242 0 0.38555176309506117 -0.30853796566980568 0 0.3885982503714665 -0.32649864849464377 0 0.3786509775467769 -0.31917699700922242 0 0.37192970350796201 -0.32917337592663881 0 0.3786509775467769 -0.31917699700922242 0 0.38555176309506117 -0.30853796566980568 0 0.36852419321261798 -0.31249799794580152 0 0.38555176309506117 -0.30853796566980568 0 0.37985785184458382 -0.2875958442705161 0 0.36511868291727351 -0.2958226199649644 0 0.38555176309506117 -0.30853796566980568 0 0.36511868291727351 -0.2958226199649644 0 0.38555176309506117 -0.30853796566980568 0 0.40380181855410258 -0.30694532136856589 0 0.39650799293572048 -0.29444395013236158 0 0.40598484327284901 -0.32125331137464719 0 0.38555176309506117 -0.30853796566980568 0 0.40380181855410258 -0.30694532136856589 0 0.40474393056083813 -0.29726206293151219 0 0.40380181855410258 -0.30694532136856589 0 0.39650799293572048 -0.29444395013236158 0 0.40376867845597508 -0.28266050657842212 0 0.39650799293572048 -0.29444395013236158 0 0.39176720250351421 -0.27574394847657768 0 0.40376867845597508 -0.28266050657842212 0 0.40558232914872427 -0.29181920024846347 0 0.39650799293572048 -0.29444395013236158 0 0.40474393056083813 -0.29726206293151219 0 0.40558232914872427 -0.29181920024846347 0 0.39650799293572048 -0.29444395013236158 0 0.39650799293572048 -0.29444395013236158 0 0.37985785184458382 -0.2875958442705161 0 0.39176720250351421 -0.27574394847657768 0 0.38555176309506117 -0.30853796566980568 0 0.39650799293572048 -0.29444395013236158 0 0.37985785184458382 -0.2875958442705161 0 0.37985785184458382 -0.2875958442705161 0 0.37862455607166101 -0.26737861088393527 0 0.39176720250351421 -0.27574394847657768 0 0.37862455607166101 -0.26737861088393527 0 0.38120157997248572 -0.26462688612737401 0 0.38450509607361122 -0.24667750058321619 0 0.37532225099759159 -0.25128252167239618 0 0.38120157997248572 -0.26462688612737401 0 0.37862455607166101 -0.26737861088393527 0 0.38120157997248572 -0.26462688612737401 0 0.40699111879957889 -0.26128720889088253 0 0.38450509607361122 -0.24667750058321619 0 0.39930936754277507 -0.24529154068188619 0 0.38120157997248572 -0.26462688612737401 0 0.39930936754277507 -0.24529154068188619 0 0.38120157997248572 -0.26462688612737401 0 0.38120157997248572 -0.26462688612737401 0 0.40699111879957889 -0.26128720889088253 0 0.39930936754277507 -0.24529154068188619 0 0.38120157997248572 -0.26462688612737401 0 0.40699111879957889 -0.26128720889088253 0 0.37862455607166101 -0.26737861088393527 0 0.40699111879957889 -0.26128720889088253 0 0.37862455607166101 -0.26737861088393527 0 0.39176720250351421 -0.27574394847657768 0 0.40699111879957889 -0.26128720889088253 0 0.39176720250351421 -0.27574394847657768 0 0.4051543152007584 -0.27239345678447718 0 0.40699111879957889 -0.26128720889088253 0 0.40376867845597508 -0.28266050657842212 0 0.39176720250351421 -0.27574394847657768 0 0.4051543152007584 -0.27239345678447718 0 0.41097421234147768 -0.27556516144908227 0 0.42018231993676269 -0.27042624857866948 0 0.4106067054949013 -0.28338295756307352 0 0.40376867845597508 -0.28266050657842212 0 0.4051543152007584 -0.27239345678447718 0 0.41097421234147768 -0.27556516144908227 0 0.40376867845597508 -0.28266050657842212 0 0.41097421234147768 -0.27556516144908227 0 0.4106067054949013 -0.28338295756307352 0 0.4051543152007584 -0.27239345678447718 0 0.41346108381967772 -0.26737298941853499 0 0.40699111879957889 -0.26128720889088253 0 0.4051543152007584 -0.27239345678447718 0 0.41097421234147768 -0.27556516144908227 0 0.41346108381967772 -0.26737298941853499 0 0.41097421234147768 -0.27556516144908227 0 0.41346108381967772 -0.26737298941853499 0 0.42018231993676269 -0.27042624857866948 0 0.41346108381967772 -0.26737298941853499 0 0.42018231993676269 -0.27042624857866948 0 0.42026352424475411 -0.26438540871958788 0 0.39930936754277507 -0.24529154068188619 0 0.41616732995836248 -0.24587856466949179 0 0.40699111879957889 -0.26128720889088253 0 0.41616732995836248 -0.24587856466949179 0 0.41393154640861152 -0.25979682970832829 0 0.40699111879957889 -0.26128720889088253 0 0.41393154640861152 -0.25979682970832829 0 0.40699111879957889 -0.26128720889088253 0 0.41346108381967772 -0.26737298941853499 0 0.41393154640861152 -0.25979682970832829 0 0.40699111879957889 -0.26128720889088253 0 0.41393154640861152 -0.25979682970832829 0 0.42708268127850191 -0.25697277062419649 0 0.41393154640861152 -0.25979682970832829 0 0.42026352424475411 -0.26438540871958788 0 0.42708268127850191 -0.25697277062419649 0 0.41346108381967772 -0.26737298941853499 0 0.41393154640861152 -0.25979682970832829 0 0.42026352424475411 -0.26438540871958788 0 0.41616732995836248 -0.24587856466949179 0 0.41393154640861152 -0.25979682970832829 0 0.42708268127850191 -0.25697277062419649 0 0.42026352424475411 -0.26438540871958788 0 0.42708268127850191 -0.25697277062419649 0 0.42589593069778642 -0.26691745442429621 0 0.42708268127850191 -0.25697277062419649 0 0.43662162787367198 -0.26315425492870731 0 0.42589593069778642 -0.26691745442429621 0 0.43547328551251452 -0.24962400388586431 0 0.42708268127850191 -0.25697277062419649 0 0.43662162787367198 -0.26315425492870731 0 0.42722904543511447 -0.27335339469577979 0 0.42589593069778642 -0.26691745442429621 0 0.41978869642799621 -0.29469555585328538 0 0.44621421501908698 -0.26925216622767029 0 0.43662162787367198 -0.26315425492870731 0 0.42722904543511447 -0.27335339469577979 0 0.44621421501908698 -0.26925216622767029 0 0.43893507104377832 -0.27952136470577738 0 0.42722904543511447 -0.27335339469577979 0 0.44621421501908698 -0.26925216622767029 0 0.42722904543511447 -0.27335339469577979 0 0.42589593069778642 -0.26691745442429621 0 0.41978869642799621 -0.29469555585328538 0 0.42018231993676269 -0.27042624857866948 0 0.42589593069778642 -0.26691745442429621 0 0.41978869642799621 -0.29469555585328538 0 0.42018231993676269 -0.27042624857866948 0 0.42026352424475411 -0.26438540871958788 0 0.42589593069778642 -0.26691745442429621 0 0.43662162787367198 -0.26315425492870731 0 0.42722904543511447 -0.27335339469577979 0 0.42589593069778642 -0.26691745442429621 0 0.43893507104377832 -0.27952136470577738 0 0.42722904543511447 -0.27335339469577979 0 0.4320587260673594 -0.28770220764487398 0 0.43893507104377832 -0.27952136470577738 0 0.44103439948217188 -0.29035898174239338 0 0.4320587260673594 -0.28770220764487398 0 0.42722904543511447 -0.27335339469577979 0 0.4320587260673594 -0.28770220764487398 0 0.41978869642799621 -0.29469555585328538 0 0.4320587260673594 -0.28770220764487398 0 0.43330641794773628 -0.3005817412271341 0 0.41978869642799621 -0.29469555585328538 0 0.44103439948217188 -0.29035898174239338 0 0.4320587260673594 -0.28770220764487398 0 0.43330641794773628 -0.3005817412271341 0 0.43739122693625032 -0.31866905699064041 0 0.43330641794773628 -0.3005817412271341 0 0.42569512876219379 -0.30890019183423489 0 0.43330641794773628 -0.3005817412271341 0 0.42569512876219379 -0.30890019183423489 0 0.41978869642799621 -0.29469555585328538 0 0.40598484327284901 -0.32125331137464719 0 0.41308358160480507 -0.29583977997665811 0 0.413681462158206 -0.32247365728227462 0 0.41978869642799621 -0.29469555585328538 0 0.413681462158206 -0.32247365728227462 0 0.42569512876219379 -0.30890019183423489 0 0.41978869642799621 -0.29469555585328538 0 0.40598484327284901 -0.32125331137464719 0 0.40380181855410258 -0.30694532136856589 0 0.41308358160480507 -0.29583977997665811 0 0.413681462158206 -0.32247365728227462 0 0.41308358160480507 -0.29583977997665811 0 0.41978869642799621 -0.29469555585328538 0 0.40474393056083813 -0.29726206293151219 0 0.40380181855410258 -0.30694532136856589 0 0.41308358160480507 -0.29583977997665811 0 0.40558232914872427 -0.29181920024846347 0 0.41308358160480507 -0.29583977997665811 0 0.4106067054949013 -0.28338295756307352 0 0.40474393056083813 -0.29726206293151219 0 0.40558232914872427 -0.29181920024846347 0 0.41308358160480507 -0.29583977997665811 0 0.42018231993676269 -0.27042624857866948 0 0.41308358160480507 -0.29583977997665811 0 0.42018231993676269 -0.27042624857866948 0 0.41308358160480507 -0.29583977997665811 0 0.41978869642799621 -0.29469555585328538 0 0.42018231993676269 -0.27042624857866948 0 0.41308358160480507 -0.29583977997665811 0 0.4106067054949013 -0.28338295756307352 0 0.40376867845597508 -0.28266050657842212 0 0.40558232914872427 -0.29181920024846347 0 0.4106067054949013 -0.28338295756307352 0 0.5 -0.5 0 0.48428200069162908 -0.46556359397141028 0 0.5 -0.43556565057513968 0 0.44007611779616562 -0.5 0 0.44597239202890387 -0.47928100730523071 0 0.46534799312034097 -0.49999999999999761 0 0.44007611779616562 -0.5 0 0.44597239202890387 -0.47928100730523071 0 0.42711746719887861 -0.48454078883079332 0 0.44597239202890387 -0.47928100730523071 0 0.46724920718611779 -0.47248677669401401 0 0.46534799312034097 -0.49999999999999761 0 0.44597239202890387 -0.47928100730523071 0 0.46724920718611779 -0.47248677669401401 0 0.44720446503848421 -0.4602932803908481 0 0.46724920718611779 -0.47248677669401401 0 0.46534799312034097 -0.49999999999999761 0 0.47292767793667378 -0.50000000000000511 0 0.46724920718611779 -0.47248677669401401 0 0.46534799312034097 -0.49999999999999761 0 0.46724920718611779 -0.47248677669401401 0 0.47292767793667378 -0.50000000000000511 0 0.48155794619425718 -0.48328239435971548 0 0.46724920718611779 -0.47248677669401401 0 0.47292767793667378 -0.50000000000000511 0 0.5 -0.5 0 0.48155794619425718 -0.48328239435971548 0 0.48428200069162908 -0.46556359397141028 0 0.47292767793667378 -0.50000000000000511 0 0.5 -0.5 0 0.48155794619425718 -0.48328239435971548 0 0.46724920718611779 -0.47248677669401401 0 0.48155794619425718 -0.48328239435971548 0 0.48428200069162908 -0.46556359397141028 0 0.46724920718611779 -0.47248677669401401 0 0.48428200069162908 -0.46556359397141028 0 0.46905705215255 -0.44632473468131773 0 0.48428200069162908 -0.46556359397141028 0 0.46905705215255 -0.44632473468131773 0 0.5 -0.43556565057513968 0 0.46905705215255 -0.44632473468131773 0 0.46267231173743179 -0.45031088602564961 0 0.45809541628874689 -0.42813499535728489 0 0.46267231173743179 -0.45031088602564961 0 0.45809541628874689 -0.42813499535728489 0 0.46724920718611779 -0.47248677669401401 0 0.46905705215255 -0.44632473468131773 0 0.46267231173743179 -0.45031088602564961 0 0.46724920718611779 -0.47248677669401401 0 0.46267231173743179 -0.45031088602564961 0 0.44720446503848421 -0.4602932803908481 0 0.46724920718611779 -0.47248677669401401 0 0.46905705215255 -0.44632473468131773 0 0.46724920718611779 -0.47248677669401401 0 0.46267231173743179 -0.45031088602564961 0 0.44720446503848421 -0.4602932803908481 0 0.43710868797218239 -0.44378558944122432 0 0.42869003376094289 -0.46483978003538279 0 0.44597239202890387 -0.47928100730523071 0 0.44720446503848421 -0.4602932803908481 0 0.42869003376094289 -0.46483978003538279 0 0.46267231173743179 -0.45031088602564961 0 0.44720446503848421 -0.4602932803908481 0 0.43710868797218239 -0.44378558944122432 0 0.46267231173743179 -0.45031088602564961 0 0.45809541628874689 -0.42813499535728489 0 0.43710868797218239 -0.44378558944122432 0 0.45809541628874689 -0.42813499535728489 0 0.4328214871409799 -0.41888077469257989 0 0.43710868797218239 -0.44378558944122432 0 0.45809541628874689 -0.42813499535728489 0 0.45351852084005528 -0.40595910468892149 0 0.4328214871409799 -0.41888077469257989 0 0.45351852084005528 -0.40595910468892149 0 0.4328214871409799 -0.41888077469257989 0 0.45351852084005528 -0.40595910468892149 0 0.43023001832516983 -0.39492830826521219 0 0.4328214871409799 -0.41888077469257989 0 0.45809541628874689 -0.42813499535728489 0 0.45351852084005528 -0.40595910468892149 0 0.47086489711898111 -0.42016269266862138 0 0.47267274208541382 -0.39400065065592521 0 0.45351852084005528 -0.40595910468892149 0 0.45809541628874689 -0.42813499535728489 0 0.47086489711898111 -0.42016269266862138 0 0.45351852084005528 -0.40595910468892149 0 0.46905705215255 -0.44632473468131773 0 0.45809541628874689 -0.42813499535728489 0 0.47086489711898111 -0.42016269266862138 0 0.5 -0.43556565057513968 0 0.47086489711898111 -0.42016269266862138 0 0.5 -0.3867312674581207 0 0.46905705215255 -0.44632473468131773 0 0.47086489711898111 -0.42016269266862138 0 0.46905705215255 -0.44632473468131773 0 0.5 -0.43556565057513968 0 0.47086489711898111 -0.42016269266862138 0 0.47086489711898111 -0.42016269266862138 0 0.47267274208541382 -0.39400065065592521 0 0.47086489711898111 -0.42016269266862138 0 0.47267274208541382 -0.39400065065592521 0 0.5 -0.3867312674581207 0 0.47267274208541382 -0.39400065065592521 0 0.5 -0.3867312674581207 0 0.49559254170536882 -0.37969125291588768 0 0.48311764063966628 -0.37023201212075368 0 0.49559254170536882 -0.37969125291588768 0 0.48129804110576901 -0.38036946351902912 0 0.47267274208541382 -0.39400065065592521 0 0.48129804110576901 -0.38036946351902912 0 0.47380923999262908 -0.37755393838354973 0 0.47267274208541382 -0.39400065065592521 0 0.47380923999262908 -0.37755393838354973 0 0.48311764063966628 -0.37023201212075368 0 0.48129804110576901 -0.38036946351902912 0 0.47380923999262908 -0.37755393838354973 0 0.47267274208541382 -0.39400065065592521 0 0.49559254170536882 -0.37969125291588768 0 0.48129804110576901 -0.38036946351902912 0 0.47267274208541382 -0.39400065065592521 0 0.49559254170536882 -0.37969125291588768 0 0.47267274208541382 -0.39400065065592521 0 0.47380923999262908 -0.37755393838354973 0 0.4618330258027703 -0.38656225787882348 0 0.45998875945344009 -0.37037944019214991 0 0.4618330258027703 -0.38656225787882348 0 0.44917586664231618 -0.38491815547357322 0 0.45998875945344009 -0.37037944019214991 0 0.47380923999262908 -0.37755393838354973 0 0.4618330258027703 -0.38656225787882348 0 0.47267274208541382 -0.39400065065592521 0 0.4618330258027703 -0.38656225787882348 0 0.45351852084005528 -0.40595910468892149 0 0.4618330258027703 -0.38656225787882348 0 0.45351852084005528 -0.40595910468892149 0 0.44917586664231618 -0.38491815547357322 0 0.47267274208541382 -0.39400065065592521 0 0.45351852084005528 -0.40595910468892149 0 0.45351852084005528 -0.40595910468892149 0 0.44917586664231618 -0.38491815547357322 0 0.45351852084005528 -0.40595910468892149 0 0.44917586664231618 -0.38491815547357322 0 0.43023001832516983 -0.39492830826521219 0 0.44483321244457008 -0.36387720625822612 0 0.44917586664231618 -0.38491815547357322 0 0.43649100581628442 -0.37935722965630408 0 0.44917586664231618 -0.38491815547357322 0 0.43649100581628442 -0.37935722965630408 0 0.43023001832516983 -0.39492830826521219 0 0.42172492585308152 -0.37370524862820509 0 0.43649100581628442 -0.37935722965630408 0 0.43023001832516983 -0.39492830826521219 0 0.43023001832516983 -0.39492830826521219 0 0.40069631563999719 -0.39458704603515338 0 0.41613126438694298 -0.41059673561693572 0 0.42172492585308152 -0.37370524862820509 0 0.40069631563999719 -0.39458704603515338 0 0.42172492585308152 -0.37370524862820509 0 0.43023001832516983 -0.39492830826521219 0 0.40069631563999719 -0.39458704603515338 0 0.42172492585308152 -0.37370524862820509 0 0.40166542959538232 -0.37975212819942761 0 0.40069631563999719 -0.39458704603515338 0 0.39246725133093951 -0.36964638225237439 0 0.40166542959538232 -0.37975212819942761 0 0.38606747837892308 -0.39255761284723623 0 0.40166542959538232 -0.37975212819942761 0 0.38606747837892308 -0.39255761284723623 0 0.40069631563999719 -0.39458704603515338 0 0.39246725133093951 -0.36964638225237439 0 0.38606747837892308 -0.39255761284723623 0 0.39246725133093951 -0.36964638225237439 0 0.38606747837892308 -0.39255761284723623 0 0.36962124500067473 -0.37726096341001919 0 0.38606747837892308 -0.39255761284723623 0 0.3727286980991481 -0.39370209306907888 0 0.36962124500067473 -0.37726096341001919 0 0.38606747837892308 -0.39255761284723623 0 0.40069631563999719 -0.39458704603515338 0 0.37966770542691047 -0.41546884344209911 0 0.40069631563999719 -0.39458704603515338 0 0.37966770542691047 -0.41546884344209911 0 0.38606747837892308 -0.39255761284723623 0 0.37966770542691047 -0.41546884344209911 0 0.38606747837892308 -0.39255761284723623 0 0.37966770542691047 -0.41546884344209911 0 0.3727286980991481 -0.39370209306907888 0 0.40069631563999719 -0.39458704603515338 0 0.40016133824144412 -0.41613736146007491 0 0.41613126438694298 -0.41059673561693572 0 0.40069631563999719 -0.39458704603515338 0 0.40016133824144412 -0.41613736146007491 0 0.37966770542691047 -0.41546884344209911 0 0.40016133824144412 -0.41613736146007491 0 0.37966770542691047 -0.41546884344209911 0 0.39122388790620788 -0.42893012439839823 0 0.39122388790620788 -0.42893012439839823 0 0.39142741974283168 -0.44472411469990081 0 0.37332661014881502 -0.43817000756614283 0 0.37966770542691047 -0.41546884344209911 0 0.39122388790620788 -0.42893012439839823 0 0.37332661014881502 -0.43817000756614283 0 0.37966770542691047 -0.41546884344209911 0 0.37332661014881502 -0.43817000756614283 0 0.39122388790620788 -0.42893012439839823 0 0.41212445344190568 -0.43180244469624041 0 0.39142741974283168 -0.44472411469990081 0 0.40016133824144412 -0.41613736146007491 0 0.39122388790620788 -0.42893012439839823 0 0.41212445344190568 -0.43180244469624041 0 0.40016133824144412 -0.41613736146007491 0 0.41212445344190568 -0.43180244469624041 0 0.41613126438694298 -0.41059673561693572 0 0.41212445344190568 -0.43180244469624041 0 0.41613126438694298 -0.41059673561693572 0 0.4328214871409799 -0.41888077469257989 0 0.43023001832516983 -0.39492830826521219 0 0.41613126438694298 -0.41059673561693572 0 0.4328214871409799 -0.41888077469257989 0 0.41212445344190568 -0.43180244469624041 0 0.4328214871409799 -0.41888077469257989 0 0.43710868797218239 -0.44378558944122432 0 0.41212445344190568 -0.43180244469624041 0 0.4328214871409799 -0.41888077469257989 0 0.43710868797218239 -0.44378558944122432 0 0.42869003376094289 -0.46483978003538279 0 0.40973528548437499 -0.45405062814909197 0 0.42869003376094289 -0.46483978003538279 0 0.40973528548437499 -0.45405062814909197 0 0.40281774460327979 -0.47532862548769772 0 0.41212445344190568 -0.43180244469624041 0 0.43710868797218239 -0.44378558944122432 0 0.40973528548437499 -0.45405062814909197 0 0.41212445344190568 -0.43180244469624041 0 0.39142741974283168 -0.44472411469990081 0 0.41212445344190568 -0.43180244469624041 0 0.40973528548437499 -0.45405062814909197 0 0.39142741974283168 -0.44472411469990081 0 0.39142741974283168 -0.44472411469990081 0 0.37073038604375769 -0.45764578470356121 0 0.39142741974283168 -0.44472411469990081 0 0.37332661014881502 -0.43817000756614283 0 0.37155471214838759 -0.44672208830945631 0 0.39142741974283168 -0.44472411469990081 0 0.37073038604375769 -0.45764578470356121 0 0.37155471214838759 -0.44672208830945631 0 0.39142741974283168 -0.44472411469990081 0 0.389698089137061 -0.46223383965889131 0 0.37073038604375769 -0.45764578470356121 0 0.389698089137061 -0.46223383965889131 0 0.38068904131496689 -0.47624129550377542 0 0.37073038604375769 -0.45764578470356121 0 0.40973528548437499 -0.45405062814909197 0 0.39142741974283168 -0.44472411469990081 0 0.389698089137061 -0.46223383965889131 0 0.40973528548437499 -0.45405062814909197 0 0.389698089137061 -0.46223383965889131 0 0.40281774460327979 -0.47532862548769772 0 0.389698089137061 -0.46223383965889131 0 0.40281774460327979 -0.47532862548769772 0 0.38068904131496689 -0.47624129550377542 0 0.40281774460327979 -0.47532862548769772 0 0.38068904131496689 -0.47624129550377542 0 0.38953236714781492 -0.5 0 0.38953236714781492 -0.5 0 0.36426049182363962 -0.49999999999999989 0 0.3714625125101208 -0.48742396316963998 0 0.38068904131496689 -0.47624129550377542 0 0.38953236714781492 -0.5 0 0.3714625125101208 -0.48742396316963998 0 0.40281774460327979 -0.47532862548769772 0 0.38953236714781492 -0.5 0 0.41480424247199021 -0.5 0 0.40281774460327979 -0.47532862548769772 0 0.41480424247199021 -0.5 0 0.42711746719887861 -0.48454078883079332 0 0.42869003376094289 -0.46483978003538279 0 0.40281774460327979 -0.47532862548769772 0 0.42711746719887861 -0.48454078883079332 0 0.44597239202890387 -0.47928100730523071 0 0.42869003376094289 -0.46483978003538279 0 0.42711746719887861 -0.48454078883079332 0 0.44007611779616562 -0.5 0 0.41480424247199021 -0.5 0 0.42711746719887861 -0.48454078883079332 0 0.32646184875414641 -0.48528372735360792 0 0.3028903451636108 -0.49999999999999661 0 0.31024447981213688 -0.48440738564412522 0 0.32646184875414641 -0.48528372735360792 0 0.3028903451636108 -0.49999999999999661 0 0.32646184875414641 -0.48528372735360792 0 0.32334706071695368 -0.5 0 0.3028903451636108 -0.49999999999999661 0 0.32594672052937879 -0.468814771288253 0 0.31024447981213688 -0.48440738564412522 0 0.32646184875414641 -0.48528372735360792 0 0.32594672052937879 -0.468814771288253 0 0.31024447981213688 -0.48440738564412522 0 0.32594672052937879 -0.468814771288253 0 0.3135542102669488 -0.46210523026215228 0 0.31024447981213688 -0.48440738564412522 0 0.32646184875414641 -0.48528372735360792 0 0.32594672052937879 -0.468814771288253 0 0.35003335234468408 -0.47056745470722239 0 0.32646184875414641 -0.48528372735360792 0 0.35003335234468408 -0.47056745470722239 0 0.32646184875414641 -0.48528372735360792 0 0.34436147486332308 -0.4852837273536097 0 0.35003335234468408 -0.47056745470722239 0 0.32646184875414641 -0.48528372735360792 0 0.32334706071695368 -0.5 0 0.34380377627029668 -0.5 0 0.32646184875414641 -0.48528372735360792 0 0.34380377627029668 -0.5 0 0.34436147486332308 -0.4852837273536097 0 0.34380377627029668 -0.5 0 0.35714692208416571 -0.48528372735360942 0 0.36426049182363962 -0.49999999999999989 0 0.34380377627029668 -0.5 0 0.34436147486332308 -0.4852837273536097 0 0.35714692208416571 -0.48528372735360942 0 0.35714692208416571 -0.48528372735360942 0 0.36426049182363962 -0.49999999999999989 0 0.35714692208416571 -0.48528372735360942 0 0.36426049182363962 -0.49999999999999989 0 0.3714625125101208 -0.48742396316963998 0 0.38068904131496689 -0.47624129550377542 0 0.36568374018001681 -0.47559479299081492 0 0.37073038604375769 -0.45764578470356121 0 0.38068904131496689 -0.47624129550377542 0 0.3714625125101208 -0.48742396316963998 0 0.36568374018001681 -0.47559479299081492 0 0.35714692208416571 -0.48528372735360942 0 0.3714625125101208 -0.48742396316963998 0 0.36568374018001681 -0.47559479299081492 0 0.35714692208416571 -0.48528372735360942 0 0.36568374018001681 -0.47559479299081492 0 0.35003335234468408 -0.47056745470722239 0 0.35714692208416571 -0.48528372735360942 0 0.35003335234468408 -0.47056745470722239 0 0.34436147486332308 -0.4852837273536097 0 0.35714692208416571 -0.48528372735360942 0 0.35003335234468408 -0.47056745470722239 0 0.35003335234468408 -0.47056745470722239 0 0.35549467117477512 -0.45650920238285531 0 0.37073038604375769 -0.45764578470356121 0 0.35003335234468408 -0.47056745470722239 0 0.34164896124661981 -0.45322215693237983 0 0.35003335234468408 -0.47056745470722239 0 0.35549467117477512 -0.45650920238285531 0 0.34164896124661981 -0.45322215693237983 0 0.36568374018001681 -0.47559479299081492 0 0.35003335234468408 -0.47056745470722239 0 0.37073038604375769 -0.45764578470356121 0 0.35003335234468408 -0.47056745470722239 0 0.37073038604375769 -0.45764578470356121 0 0.35549467117477512 -0.45650920238285531 0 0.37073038604375769 -0.45764578470356121 0 0.36365024477868979 -0.44975038402815459 0 0.37332661014881502 -0.43817000756614283 0 0.37155471214838759 -0.44672208830945631 0 0.36451969375563809 -0.4416542139289022 0 0.37073038604375769 -0.45764578470356121 0 0.37155471214838759 -0.44672208830945631 0 0.36365024477868979 -0.44975038402815459 0 0.37155471214838759 -0.44672208830945631 0 0.36365024477868979 -0.44975038402815459 0 0.36451969375563809 -0.4416542139289022 0 0.36365024477868979 -0.44975038402815459 0 0.36451969375563809 -0.4416542139289022 0 0.35595176077089069 -0.44622063081599778 0 0.36451969375563809 -0.4416542139289022 0 0.35497266018722878 -0.43999147838683728 0 0.35595176077089069 -0.44622063081599778 0 0.35497266018722878 -0.43999147838683728 0 0.35595176077089069 -0.44622063081599778 0 0.35549467117477512 -0.45650920238285531 0 0.36365024477868979 -0.44975038402815459 0 0.35595176077089069 -0.44622063081599778 0 0.35549467117477512 -0.45650920238285531 0 0.35595176077089069 -0.44622063081599778 0 0.34164896124661981 -0.45322215693237983 0 0.35497266018722878 -0.43999147838683728 0 0.35595176077089069 -0.44622063081599778 0 0.34164896124661981 -0.45322215693237983 0 0.35497266018722878 -0.43999147838683728 0 0.34164896124661981 -0.45322215693237983 0 0.35497266018722878 -0.43999147838683728 0 0.34414786071998849 -0.44131917703625828 0 0.34164896124661981 -0.45322215693237983 0 0.34414786071998849 -0.44131917703625828 0 0.33852434327097852 -0.44239818722195251 0 0.33709630240376109 -0.43704028661772931 0 0.34414786071998849 -0.44131917703625828 0 0.33852434327097852 -0.44239818722195251 0 0.33902243203916937 -0.44778849685086081 0 0.33852434327097852 -0.44239818722195251 0 0.33383077792099491 -0.44344478838296142 0 0.33902243203916937 -0.44778849685086081 0 0.33852434327097852 -0.44239818722195251 0 0.33383077792099491 -0.44344478838296142 0 0.33709630240376109 -0.43704028661772931 0 0.33383077792099491 -0.44344478838296142 0 0.3312458499045623 -0.43723596055700598 0 0.33709630240376109 -0.43704028661772931 0 0.32727189673104429 -0.44148357190021631 0 0.32690174985874793 -0.43474476347075469 0 0.3312458499045623 -0.43723596055700598 0 0.33383077792099491 -0.44344478838296142 0 0.32727189673104429 -0.44148357190021631 0 0.3312458499045623 -0.43723596055700598 0 0.33383077792099491 -0.44344478838296142 0 0.32988480921539498 -0.451390148784583 0 0.32727189673104429 -0.44148357190021631 0 0.33383077792099491 -0.44344478838296142 0 0.32988480921539498 -0.451390148784583 0 0.33902243203916937 -0.44778849685086081 0 0.32988480921539498 -0.451390148784583 0 0.33902243203916937 -0.44778849685086081 0 0.34164896124661981 -0.45322215693237983 0 0.34414786071998849 -0.44131917703625828 0 0.33902243203916937 -0.44778849685086081 0 0.34164896124661981 -0.45322215693237983 0 0.33902243203916937 -0.44778849685086081 0 0.34164896124661981 -0.45322215693237983 0 0.32594672052937879 -0.468814771288253 0 0.32988480921539498 -0.451390148784583 0 0.34164896124661981 -0.45322215693237983 0 0.32594672052937879 -0.468814771288253 0 0.34164896124661981 -0.45322215693237983 0 0.32594672052937879 -0.468814771288253 0 0.35003335234468408 -0.47056745470722239 0 0.34164896124661981 -0.45322215693237983 0 0.32594672052937879 -0.468814771288253 0 0.32988480921539498 -0.451390148784583 0 0.32078916153452358 -0.45509652717685589 0 0.32594672052937879 -0.468814771288253 0 0.32078916153452358 -0.45509652717685589 0 0.3135542102669488 -0.46210523026215228 0 0.32078916153452358 -0.45509652717685589 0 0.3135542102669488 -0.46210523026215228 0 0.31586499493272979 -0.44939136858103401 0 0.32078916153452358 -0.45509652717685589 0 0.31586499493272979 -0.44939136858103401 0 0.32145573491048601 -0.44611587512908402 0 0.31586499493272979 -0.44939136858103401 0 0.31439098918947073 -0.44277644357293822 0 0.30763227264276938 -0.45123931667007011 0 0.31586499493272979 -0.44939136858103401 0 0.31439098918947073 -0.44277644357293822 0 0.32145573491048601 -0.44611587512908402 0 0.31439098918947073 -0.44277644357293822 0 0.32145573491048601 -0.44611587512908402 0 0.32053255785975232 -0.43655719075887722 0 0.31439098918947073 -0.44277644357293822 0 0.32053255785975232 -0.43655719075887722 0 0.31364818989702681 -0.4365913890962998 0 0.32727189673104429 -0.44148357190021631 0 0.32145573491048601 -0.44611587512908402 0 0.32053255785975232 -0.43655719075887722 0 0.32727189673104429 -0.44148357190021631 0 0.32690174985874793 -0.43474476347075469 0 0.32053255785975232 -0.43655719075887722 0 0.32988480921539498 -0.451390148784583 0 0.32078916153452358 -0.45509652717685589 0 0.32145573491048601 -0.44611587512908402 0 0.32988480921539498 -0.451390148784583 0 0.32727189673104429 -0.44148357190021631 0 0.32145573491048601 -0.44611587512908402 0 0.32334946755655147 -0.4282865828071406 0 0.3266329381714137 -0.42015156329161307 0 0.3311285226082632 -0.42946639241336793 0 0.32334946755655147 -0.4282865828071406 0 0.3182864644440328 -0.42219226416992262 0 0.3266329381714137 -0.42015156329161307 0 0.32334946755655147 -0.4282865828071406 0 0.32690174985874793 -0.43474476347075469 0 0.32053255785975232 -0.43655719075887722 0 0.32334946755655147 -0.4282865828071406 0 0.32690174985874793 -0.43474476347075469 0 0.3311285226082632 -0.42946639241336793 0 0.32334946755655147 -0.4282865828071406 0 0.32053255785975232 -0.43655719075887722 0 0.31609401654931452 -0.42999817722046052 0 0.32053255785975232 -0.43655719075887722 0 0.31364818989702681 -0.4365913890962998 0 0.31609401654931452 -0.42999817722046052 0 0.31609401654931452 -0.42999817722046052 0 0.3182864644440328 -0.42219226416992262 0 0.30976315254788839 -0.42518200491043939 0 0.32334946755655147 -0.4282865828071406 0 0.31609401654931452 -0.42999817722046052 0 0.3182864644440328 -0.42219226416992262 0 0.3182864644440328 -0.42219226416992262 0 0.3123672643397768 -0.41700565728807448 0 0.30976315254788839 -0.42518200491043939 0 0.31981453223589679 -0.41501646518368102 0 0.31419884559632272 -0.41031782900095859 0 0.3123672643397768 -0.41700565728807448 0 0.3182864644440328 -0.42219226416992262 0 0.31981453223589679 -0.41501646518368102 0 0.3123672643397768 -0.41700565728807448 0 0.31981453223589679 -0.41501646518368102 0 0.31419884559632272 -0.41031782900095859 0 0.32112643672232272 -0.40819989958044872 0 0.31419884559632272 -0.41031782900095859 0 0.32112643672232272 -0.40819989958044872 0 0.31613916449108331 -0.40343841783433942 0 0.32112643672232272 -0.40819989958044872 0 0.3262752441415121 -0.41223157777106789 0 0.32739525184060397 -0.40408465151489098 0 0.31981453223589679 -0.41501646518368102 0 0.32112643672232272 -0.40819989958044872 0 0.3262752441415121 -0.41223157777106789 0 0.3182864644440328 -0.42219226416992262 0 0.31981453223589679 -0.41501646518368102 0 0.3266329381714137 -0.42015156329161307 0 0.3262752441415121 -0.41223157777106789 0 0.3266329381714137 -0.42015156329161307 0 0.3312377091044521 -0.41579336490533081 0 0.31981453223589679 -0.41501646518368102 0 0.3262752441415121 -0.41223157777106789 0 0.3266329381714137 -0.42015156329161307 0 0.3266329381714137 -0.42015156329161307 0 0.3312377091044521 -0.41579336490533081 0 0.33662101693535013 -0.42052198512365502 0 0.3312377091044521 -0.41579336490533081 0 0.33207526048154268 -0.40970644087686792 0 0.34130618076947161 -0.41076927611986558 0 0.3262752441415121 -0.41223157777106789 0 0.33207526048154268 -0.40970644087686792 0 0.32739525184060397 -0.40408465151489098 0 0.3262752441415121 -0.41223157777106789 0 0.3312377091044521 -0.41579336490533081 0 0.33207526048154268 -0.40970644087686792 0 0.33207526048154268 -0.40970644087686792 0 0.34130618076947161 -0.41076927611986558 0 0.33540538158223931 -0.4060963285576254 0 0.34130618076947161 -0.41076927611986558 0 0.33762945263145522 -0.40277562313941501 0 0.33540538158223931 -0.4060963285576254 0 0.3312377091044521 -0.41579336490533081 0 0.34130618076947161 -0.41076927611986558 0 0.33662101693535013 -0.42052198512365502 0 0.34130618076947161 -0.41076927611986558 0 0.33662101693535013 -0.42052198512365502 0 0.35131166294948352 -0.41669978576876621 0 0.33662101693535013 -0.42052198512365502 0 0.33739517280893599 -0.42912807192789182 0 0.3447348492883695 -0.42948362355681519 0 0.33662101693535013 -0.42052198512365502 0 0.33739517280893599 -0.42912807192789182 0 0.3311285226082632 -0.42946639241336793 0 0.3266329381714137 -0.42015156329161307 0 0.33662101693535013 -0.42052198512365502 0 0.3311285226082632 -0.42946639241336793 0 0.33739517280893599 -0.42912807192789182 0 0.3311285226082632 -0.42946639241336793 0 0.33709630240376109 -0.43704028661772931 0 0.32690174985874793 -0.43474476347075469 0 0.3311285226082632 -0.42946639241336793 0 0.3312458499045623 -0.43723596055700598 0 0.3311285226082632 -0.42946639241336793 0 0.3312458499045623 -0.43723596055700598 0 0.33709630240376109 -0.43704028661772931 0 0.33739517280893599 -0.42912807192789182 0 0.33709630240376109 -0.43704028661772931 0 0.3447348492883695 -0.42948362355681519 0 0.34414786071998849 -0.44131917703625828 0 0.33709630240376109 -0.43704028661772931 0 0.3447348492883695 -0.42948362355681519 0 0.35497266018722878 -0.43999147838683728 0 0.35131166294948352 -0.41669978576876621 0 0.35497266018722878 -0.43999147838683728 0 0.3447348492883695 -0.42948362355681519 0 0.35131166294948352 -0.41669978576876621 0 0.35497266018722878 -0.43999147838683728 0 0.36732018280706968 -0.42773016091446819 0 0.35131166294948352 -0.41669978576876621 0 0.35497266018722878 -0.43999147838683728 0 0.34414786071998849 -0.44131917703625828 0 0.3447348492883695 -0.42948362355681519 0 0.33662101693535013 -0.42052198512365502 0 0.3447348492883695 -0.42948362355681519 0 0.35131166294948352 -0.41669978576876621 0 0.35497266018722878 -0.43999147838683728 0 0.36732018280706968 -0.42773016091446819 0 0.36451969375563809 -0.4416542139289022 0 0.35497266018722878 -0.43999147838683728 0 0.36732018280706968 -0.42773016091446819 0 0.37966770542691047 -0.41546884344209911 0 0.37332661014881502 -0.43817000756614283 0 0.36732018280706968 -0.42773016091446819 0 0.37332661014881502 -0.43817000756614283 0 0.36451969375563809 -0.4416542139289022 0 0.36732018280706968 -0.42773016091446819 0 0.36703136541036468 -0.41509148728164519 0 0.35990695956358609 -0.40915094864982482 0 0.35131166294948352 -0.41669978576876621 0 0.36732018280706968 -0.42773016091446819 0 0.36703136541036468 -0.41509148728164519 0 0.35131166294948352 -0.41669978576876621 0 0.37966770542691047 -0.41546884344209911 0 0.36703136541036468 -0.41509148728164519 0 0.36546260234961458 -0.40386132005355968 0 0.37966770542691047 -0.41546884344209911 0 0.36732018280706968 -0.42773016091446819 0 0.36703136541036468 -0.41509148728164519 0 0.37966770542691047 -0.41546884344209911 0 0.36732018280706968 -0.42773016091446819 0 0.36703136541036468 -0.41509148728164519 0 0.35990695956358609 -0.40915094864982482 0 0.36546260234961458 -0.40386132005355968 0 0.34130618076947161 -0.41076927611986558 0 0.35131166294948352 -0.41669978576876621 0 0.34765066571173242 -0.39340809315069619 0 0.35990695956358609 -0.40915094864982482 0 0.35131166294948352 -0.41669978576876621 0 0.3558222075448817 -0.40095120149532842 0 0.35131166294948352 -0.41669978576876621 0 0.34765066571173242 -0.39340809315069619 0 0.3558222075448817 -0.40095120149532842 0 0.35131166294948352 -0.41669978576876621 0 0.34765066571173242 -0.39340809315069619 0 0.34765066571173242 -0.39340809315069619 0 0.34284942831530563 -0.39346696442596601 0 0.34098415395948101 -0.39922781391791118 0 0.3543830376188809 -0.39375777763683573 0 0.3558222075448817 -0.40095120149532842 0 0.36041858168581692 -0.39090075018831821 0 0.34765066571173242 -0.39340809315069619 0 0.3543830376188809 -0.39375777763683573 0 0.3558222075448817 -0.40095120149532842 0 0.34765066571173242 -0.39340809315069619 0 0.3543830376188809 -0.39375777763683573 0 0.35364069553309302 -0.38977106571300058 0 0.3543830376188809 -0.39375777763683573 0 0.36041858168581692 -0.39090075018831821 0 0.35364069553309302 -0.38977106571300058 0 0.37966770542691047 -0.41546884344209911 0 0.36546260234961458 -0.40386132005355968 0 0.3727286980991481 -0.39370209306907888 0 0.35990695956358609 -0.40915094864982482 0 0.3558222075448817 -0.40095120149532842 0 0.36546260234961458 -0.40386132005355968 0 0.3558222075448817 -0.40095120149532842 0 0.36546260234961458 -0.40386132005355968 0 0.36041858168581692 -0.39090075018831821 0 0.36546260234961458 -0.40386132005355968 0 0.36041858168581692 -0.39090075018831821 0 0.3727286980991481 -0.39370209306907888 0 0.36041858168581692 -0.39090075018831821 0 0.36962124500067473 -0.37726096341001919 0 0.35290629701171339 -0.38064844620532862 0 0.36041858168581692 -0.39090075018831821 0 0.3727286980991481 -0.39370209306907888 0 0.36962124500067473 -0.37726096341001919 0 0.34765066571173242 -0.39340809315069619 0 0.34101640833301478 -0.38200826414873312 0 0.34398966847398132 -0.37011640053262618 0 0.34765066571173242 -0.39340809315069619 0 0.35290629701171339 -0.38064844620532862 0 0.34398966847398132 -0.37011640053262618 0 0.36962124500067473 -0.37726096341001919 0 0.35290629701171339 -0.38064844620532862 0 0.35424404222816719 -0.36974993331113348 0 0.34765066571173242 -0.39340809315069619 0 0.34398966847398132 -0.37011640053262618 0 0.36041858168581692 -0.39090075018831821 0 0.35290629701171339 -0.38064844620532862 0 0.35364069553309302 -0.38977106571300058 0 0.34765066571173242 -0.39340809315069619 0 0.35290629701171339 -0.38064844620532862 0 0.35364069553309302 -0.38977106571300058 0 0.34765066571173242 -0.39340809315069619 0 0.34101640833301478 -0.38200826414873312 0 0.34284942831530563 -0.39346696442596601 0 0.34101640833301478 -0.38200826414873312 0 0.34398966847398132 -0.37011640053262618 0 0.33500211847243883 -0.37483873349544478 0 0.32958743512424171 -0.38232197747760721 0 0.33500211847243883 -0.37483873349544478 0 0.32625814702158668 -0.37282061125065519 0 0.34101640833301478 -0.38200826414873312 0 0.32958743512424171 -0.38232197747760721 0 0.33500211847243883 -0.37483873349544478 0 0.32958743512424171 -0.38232197747760721 0 0.34284942831530563 -0.39346696442596601 0 0.33548504236944021 -0.3957191127536131 0 0.32958743512424171 -0.38232197747760721 0 0.34284942831530563 -0.39346696442596601 0 0.34101640833301478 -0.38200826414873312 0 0.32958743512424171 -0.38232197747760721 0 0.34284942831530563 -0.39346696442596601 0 0.34130618076947161 -0.41076927611986558 0 0.34765066571173242 -0.39340809315069619 0 0.34098415395948101 -0.39922781391791118 0 0.34284942831530563 -0.39346696442596601 0 0.34098415395948101 -0.39922781391791118 0 0.33548504236944021 -0.3957191127536131 0 0.34130618076947161 -0.41076927611986558 0 0.34098415395948101 -0.39922781391791118 0 0.33762945263145522 -0.40277562313941501 0 0.34098415395948101 -0.39922781391791118 0 0.33762945263145522 -0.40277562313941501 0 0.33548504236944021 -0.3957191127536131 0 0.33273181953784331 -0.40197629415272029 0 0.32893226508516782 -0.39565356174424621 0 0.32739525184060397 -0.40408465151489098 0 0.33207526048154268 -0.40970644087686792 0 0.33540538158223931 -0.4060963285576254 0 0.33273181953784331 -0.40197629415272029 0 0.33762945263145522 -0.40277562313941501 0 0.33540538158223931 -0.4060963285576254 0 0.33273181953784331 -0.40197629415272029 0 0.33762945263145522 -0.40277562313941501 0 0.33273181953784331 -0.40197629415272029 0 0.33548504236944021 -0.3957191127536131 0 0.33207526048154268 -0.40970644087686792 0 0.33273181953784331 -0.40197629415272029 0 0.32739525184060397 -0.40408465151489098 0 0.32958743512424171 -0.38232197747760721 0 0.33548504236944021 -0.3957191127536131 0 0.32893226508516782 -0.39565356174424621 0 0.33273181953784331 -0.40197629415272029 0 0.33548504236944021 -0.3957191127536131 0 0.32893226508516782 -0.39565356174424621 0 0.32893226508516782 -0.39565356174424621 0 0.32258476420045179 -0.39063023497531202 0 0.3228249872799957 -0.3994196448077843 0 0.32258476420045179 -0.39063023497531202 0 0.3228249872799957 -0.3994196448077843 0 0.31752817746889261 -0.39693645090186458 0 0.32893226508516782 -0.39565356174424621 0 0.32739525184060397 -0.40408465151489098 0 0.3228249872799957 -0.3994196448077843 0 0.32112643672232272 -0.40819989958044872 0 0.32739525184060397 -0.40408465151489098 0 0.3228249872799957 -0.3994196448077843 0 0.32112643672232272 -0.40819989958044872 0 0.3228249872799957 -0.3994196448077843 0 0.31613916449108331 -0.40343841783433942 0 0.3228249872799957 -0.3994196448077843 0 0.31613916449108331 -0.40343841783433942 0 0.31752817746889261 -0.39693645090186458 0 0.31613916449108331 -0.40343841783433942 0 0.31752817746889261 -0.39693645090186458 0 0.30976699233597749 -0.39776967741883651 0 0.32258476420045179 -0.39063023497531202 0 0.31752817746889261 -0.39693645090186458 0 0.31463631708940121 -0.38861951528294458 0 0.31752817746889261 -0.39693645090186458 0 0.31463631708940121 -0.38861951528294458 0 0.30976699233597749 -0.39776967741883651 0 0.32258476420045179 -0.39063023497531202 0 0.31463631708940121 -0.38861951528294458 0 0.31917014058327381 -0.38243632622447599 0 0.31463631708940121 -0.38861951528294458 0 0.31917014058327381 -0.38243632622447599 0 0.31271674456909648 -0.37943291285726788 0 0.31917014058327381 -0.38243632622447599 0 0.31271674456909648 -0.37943291285726788 0 0.31632544193317741 -0.37117699052924891 0 0.31271674456909648 -0.37943291285726788 0 0.31632544193317741 -0.37117699052924891 0 0.32958743512424171 -0.38232197747760721 0 0.31632544193317741 -0.37117699052924891 0 0.32625814702158668 -0.37282061125065519 0 0.32958743512424171 -0.38232197747760721 0 0.31917014058327381 -0.38243632622447599 0 0.31632544193317741 -0.37117699052924891 0 0.32958743512424171 -0.38232197747760721 0 0.31632544193317741 -0.37117699052924891 0 0.32958743512424171 -0.38232197747760721 0 0.32893226508516782 -0.39565356174424621 0 0.32258476420045179 -0.39063023497531202 0 0.32958743512424171 -0.38232197747760721 0 0.32258476420045179 -0.39063023497531202 0 0.31917014058327381 -0.38243632622447599 0 0.29809719073194341 -0.387390895677865 0 0.30489262074845119 -0.38244914961548487 0 0.30610043173860119 -0.39084583361080139 0 0.29809719073194341 -0.387390895677865 0 0.2969367092771778 -0.37669290262866761 0 0.30489262074845119 -0.38244914961548487 0 0.2969367092771778 -0.37669290262866761 0 0.30489262074845119 -0.38244914961548487 0 0.30733308420158872 -0.37446473629577071 0 0.31271674456909648 -0.37943291285726788 0 0.31632544193317741 -0.37117699052924891 0 0.30733308420158872 -0.37446473629577071 0 0.31271674456909648 -0.37943291285726788 0 0.30489262074845119 -0.38244914961548487 0 0.30733308420158872 -0.37446473629577071 0 0.31463631708940121 -0.38861951528294458 0 0.31271674456909648 -0.37943291285726788 0 0.30489262074845119 -0.38244914961548487 0 0.31463631708940121 -0.38861951528294458 0 0.30489262074845119 -0.38244914961548487 0 0.30610043173860119 -0.39084583361080139 0 0.31463631708940121 -0.38861951528294458 0 0.30976699233597749 -0.39776967741883651 0 0.30610043173860119 -0.39084583361080139 0 0.30976699233597749 -0.39776967741883651 0 0.30610043173860119 -0.39084583361080139 0 0.30206674258213451 -0.39649848807028398 0 0.30976699233597749 -0.39776967741883651 0 0.30713483165469591 -0.40544065971880577 0 0.30206674258213451 -0.39649848807028398 0 0.31613916449108331 -0.40343841783433942 0 0.30976699233597749 -0.39776967741883651 0 0.30713483165469591 -0.40544065971880577 0 0.30713483165469591 -0.40544065971880577 0 0.2979044383300376 -0.40243009291670861 0 0.30206674258213451 -0.39649848807028398 0 0.29809719073194341 -0.387390895677865 0 0.30206674258213451 -0.39649848807028398 0 0.29230769792511718 -0.39429508349918252 0 0.29809719073194341 -0.387390895677865 0 0.30610043173860119 -0.39084583361080139 0 0.30206674258213451 -0.39649848807028398 0 0.2979044383300376 -0.40243009291670861 0 0.30206674258213451 -0.39649848807028398 0 0.29230769792511718 -0.39429508349918252 0 0.2979044383300376 -0.40243009291670861 0 0.29230769792511718 -0.39429508349918252 0 0.28549556037927343 -0.40515392573316122 0 0.29230769792511718 -0.39429508349918252 0 0.28549556037927343 -0.40515392573316122 0 0.27964016788433649 -0.39324477425625659 0 0.29230769792511718 -0.39429508349918252 0 0.28582524512999757 -0.38322279765131012 0 0.27964016788433649 -0.39324477425625659 0 0.29809719073194341 -0.387390895677865 0 0.29230769792511718 -0.39429508349918252 0 0.28582524512999757 -0.38322279765131012 0 0.29809719073194341 -0.387390895677865 0 0.2969367092771778 -0.37669290262866761 0 0.28582524512999757 -0.38322279765131012 0 0.2969367092771778 -0.37669290262866761 0 0.28582524512999757 -0.38322279765131012 0 0.2814441633282761 -0.37114702858419601 0 0.28582524512999757 -0.38322279765131012 0 0.27547401724199572 -0.37752190107981182 0 0.27686209088179431 -0.38547224932759389 0 0.2538544495678508 -0.38026115102412972 0 0.2814441633282761 -0.37114702858419601 0 0.28582524512999757 -0.38322279765131012 0 0.27547401724199572 -0.37752190107981182 0 0.2814441633282761 -0.37114702858419601 0 0.27547401724199572 -0.37752190107981182 0 0.2538544495678508 -0.38026115102412972 0 0.2814441633282761 -0.37114702858419601 0 0.27686209088179431 -0.38547224932759389 0 0.26650893327084729 -0.38789952432299729 0 0.27964016788433649 -0.39324477425625659 0 0.28582524512999757 -0.38322279765131012 0 0.27686209088179431 -0.38547224932759389 0 0.27964016788433649 -0.39324477425625659 0 0.27547401724199572 -0.37752190107981182 0 0.27686209088179431 -0.38547224932759389 0 0.26650893327084729 -0.38789952432299729 0 0.27547401724199572 -0.37752190107981182 0 0.26650893327084729 -0.38789952432299729 0 0.2538544495678508 -0.38026115102412972 0 0.26650893327084729 -0.38789952432299729 0 0.2538544495678508 -0.38026115102412972 0 0.25446924412686628 -0.3997970634160336 0 0.25446924412686628 -0.3997970634160336 0 0.27103406894715087 -0.40555676327031248 0 0.25731483685301548 -0.4119673206021755 0 0.2538544495678508 -0.38026115102412972 0 0.25446924412686628 -0.3997970634160336 0 0.24382455408408349 -0.39502918037246798 0 0.26650893327084729 -0.38789952432299729 0 0.25446924412686628 -0.3997970634160336 0 0.27103406894715087 -0.40555676327031248 0 0.26650893327084729 -0.38789952432299729 0 0.27103406894715087 -0.40555676327031248 0 0.27964016788433649 -0.39324477425625659 0 0.28549556037927343 -0.40515392573316122 0 0.27103406894715087 -0.40555676327031248 0 0.27964016788433649 -0.39324477425625659 0 0.28549556037927343 -0.40515392573316122 0 0.27103406894715087 -0.40555676327031248 0 0.27639831385418462 -0.41631644347982139 0 0.27103406894715087 -0.40555676327031248 0 0.27639831385418462 -0.41631644347982139 0 0.26475641844318692 -0.42109104252373841 0 0.27103406894715087 -0.40555676327031248 0 0.26475641844318692 -0.42109104252373841 0 0.2544839699978374 -0.41893319760469477 0 0.25731483685301548 -0.4119673206021755 0 0.240709786834191 -0.41068323358564363 0 0.2544839699978374 -0.41893319760469477 0 0.25515483786095622 -0.43199119370722189 0 0.240709786834191 -0.41068323358564363 0 0.27103406894715087 -0.40555676327031248 0 0.26475641844318692 -0.42109104252373841 0 0.25731483685301548 -0.4119673206021755 0 0.25446924412686628 -0.3997970634160336 0 0.25731483685301548 -0.4119673206021755 0 0.240709786834191 -0.41068323358564363 0 0.26475641844318692 -0.42109104252373841 0 0.2544839699978374 -0.41893319760469477 0 0.25731483685301548 -0.4119673206021755 0 0.26475641844318692 -0.42109104252373841 0 0.2544839699978374 -0.41893319760469477 0 0.25515483786095622 -0.43199119370722189 0 0.26475641844318692 -0.42109104252373841 0 0.25847876793922242 -0.43662532177716418 0 0.27259536902875148 -0.42859521077180501 0 0.26475641844318692 -0.42109104252373841 0 0.25847876793922242 -0.43662532177716418 0 0.26475641844318692 -0.42109104252373841 0 0.25515483786095622 -0.43199119370722189 0 0.25847876793922242 -0.43662532177716418 0 0.25847876793922242 -0.43662532177716418 0 0.27259536902875148 -0.42859521077180501 0 0.27349624912761472 -0.44009459423040492 0 0.27639831385418462 -0.41631644347982139 0 0.26475641844318692 -0.42109104252373841 0 0.27259536902875148 -0.42859521077180501 0 0.27259536902875148 -0.42859521077180501 0 0.28149846020537511 -0.43384855654700633 0 0.28287512284925309 -0.42431456974895909 0 0.27639831385418462 -0.41631644347982139 0 0.27259536902875148 -0.42859521077180501 0 0.28287512284925309 -0.42431456974895909 0 0.27259536902875148 -0.42859521077180501 0 0.28149846020537511 -0.43384855654700633 0 0.27349624912761472 -0.44009459423040492 0 0.28149846020537511 -0.43384855654700633 0 0.2900118297052493 -0.4326745413002161 0 0.28287512284925309 -0.42431456974895909 0 0.28149846020537511 -0.43384855654700633 0 0.2900118297052493 -0.4326745413002161 0 0.28851373031600702 -0.44356386668364578 0 0.29681439926764019 -0.43604842050920067 0 0.2900118297052493 -0.4326745413002161 0 0.28851373031600702 -0.44356386668364578 0 0.29681439926764019 -0.43604842050920067 0 0.2900118297052493 -0.4326745413002161 0 0.30054975960107638 -0.42869699476672962 0 0.2900118297052493 -0.4326745413002161 0 0.29353057635279772 -0.42185756098702248 0 0.30054975960107638 -0.42869699476672962 0 0.2900118297052493 -0.4326745413002161 0 0.28287512284925309 -0.42431456974895909 0 0.29353057635279772 -0.42185756098702248 0 0.28287512284925309 -0.42431456974895909 0 0.28695876019746552 -0.41575602761905112 0 0.29353057635279772 -0.42185756098702248 0 0.27639831385418462 -0.41631644347982139 0 0.28287512284925309 -0.42431456974895909 0 0.28695876019746552 -0.41575602761905112 0 0.28549556037927343 -0.40515392573316122 0 0.27639831385418462 -0.41631644347982139 0 0.28695876019746552 -0.41575602761905112 0 0.28549556037927343 -0.40515392573316122 0 0.28695876019746552 -0.41575602761905112 0 0.29741877906570319 -0.41158362404700249 0 0.2979044383300376 -0.40243009291670861 0 0.28549556037927343 -0.40515392573316122 0 0.29741877906570319 -0.41158362404700249 0 0.28695876019746552 -0.41575602761905112 0 0.29353057635279772 -0.42185756098702248 0 0.29741877906570319 -0.41158362404700249 0 0.30370228091039342 -0.41931581448634531 0 0.29741877906570319 -0.41158362404700249 0 0.30696440031337852 -0.41273271690823732 0 0.29353057635279772 -0.42185756098702248 0 0.30370228091039342 -0.41931581448634531 0 0.29741877906570319 -0.41158362404700249 0 0.30713483165469591 -0.40544065971880577 0 0.29741877906570319 -0.41158362404700249 0 0.30696440031337852 -0.41273271690823732 0 0.30713483165469591 -0.40544065971880577 0 0.2979044383300376 -0.40243009291670861 0 0.29741877906570319 -0.41158362404700249 0 0.31419884559632272 -0.41031782900095859 0 0.31613916449108331 -0.40343841783433942 0 0.30713483165469591 -0.40544065971880577 0 0.31419884559632272 -0.41031782900095859 0 0.30696440031337852 -0.41273271690823732 0 0.3123672643397768 -0.41700565728807448 0 0.31419884559632272 -0.41031782900095859 0 0.30713483165469591 -0.40544065971880577 0 0.30696440031337852 -0.41273271690823732 0 0.30370228091039342 -0.41931581448634531 0 0.3123672643397768 -0.41700565728807448 0 0.30976315254788839 -0.42518200491043939 0 0.30370228091039342 -0.41931581448634531 0 0.30696440031337852 -0.41273271690823732 0 0.3123672643397768 -0.41700565728807448 0 0.30976315254788839 -0.42518200491043939 0 0.30735838852633163 -0.43399804825052468 0 0.30054975960107638 -0.42869699476672962 0 0.31609401654931452 -0.42999817722046052 0 0.30976315254788839 -0.42518200491043939 0 0.30735838852633163 -0.43399804825052468 0 0.31364818989702681 -0.4365913890962998 0 0.31609401654931452 -0.42999817722046052 0 0.30735838852633163 -0.43399804825052468 0 0.31364818989702681 -0.4365913890962998 0 0.30735838852633163 -0.43399804825052468 0 0.3080099538589976 -0.44076918675705162 0 0.29681439926764019 -0.43604842050920067 0 0.30735838852633163 -0.43399804825052468 0 0.30125598014651211 -0.44220718441638363 0 0.29681439926764019 -0.43604842050920067 0 0.30735838852633163 -0.43399804825052468 0 0.30054975960107638 -0.42869699476672962 0 0.29353057635279772 -0.42185756098702248 0 0.30370228091039342 -0.41931581448634531 0 0.30054975960107638 -0.42869699476672962 0 0.30370228091039342 -0.41931581448634531 0 0.30976315254788839 -0.42518200491043939 0 0.30054975960107638 -0.42869699476672962 0 0.29880242189556849 -0.4507516346251243 0 0.30125598014651211 -0.44220718441638363 0 0.30763227264276938 -0.45123931667007011 0 0.31439098918947073 -0.44277644357293822 0 0.3080099538589976 -0.44076918675705162 0 0.30763227264276938 -0.45123931667007011 0 0.30735838852633163 -0.43399804825052468 0 0.30125598014651211 -0.44220718441638363 0 0.3080099538589976 -0.44076918675705162 0 0.30125598014651211 -0.44220718441638363 0 0.3080099538589976 -0.44076918675705162 0 0.30763227264276938 -0.45123931667007011 0 0.31439098918947073 -0.44277644357293822 0 0.31364818989702681 -0.4365913890962998 0 0.3080099538589976 -0.44076918675705162 0 0.3135542102669488 -0.46210523026215228 0 0.30763227264276938 -0.45123931667007011 0 0.30084763215015448 -0.46368201221257532 0 0.3135542102669488 -0.46210523026215228 0 0.31586499493272979 -0.44939136858103401 0 0.30763227264276938 -0.45123931667007011 0 0.29880242189556849 -0.4507516346251243 0 0.30763227264276938 -0.45123931667007011 0 0.30084763215015448 -0.46368201221257532 0 0.29880242189556849 -0.4507516346251243 0 0.30084763215015448 -0.46368201221257532 0 0.29137887151565572 -0.45477587377618611 0 0.30084763215015448 -0.46368201221257532 0 0.29137887151565572 -0.45477587377618611 0 0.28726316131630819 -0.46529704539659911 0 0.29137887151565572 -0.45477587377618611 0 0.28726316131630819 -0.46529704539659911 0 0.28090673306797542 -0.45034218190197878 0 0.29137887151565572 -0.45477587377618611 0 0.28851373031600702 -0.44356386668364578 0 0.28090673306797542 -0.45034218190197878 0 0.29880242189556849 -0.4507516346251243 0 0.29137887151565572 -0.45477587377618611 0 0.28851373031600702 -0.44356386668364578 0 0.29880242189556849 -0.4507516346251243 0 0.30125598014651211 -0.44220718441638363 0 0.28851373031600702 -0.44356386668364578 0 0.29681439926764019 -0.43604842050920067 0 0.30125598014651211 -0.44220718441638363 0 0.28851373031600702 -0.44356386668364578 0 0.28851373031600702 -0.44356386668364578 0 0.27349624912761472 -0.44009459423040492 0 0.28090673306797542 -0.45034218190197878 0 0.28149846020537511 -0.43384855654700633 0 0.28851373031600702 -0.44356386668364578 0 0.27349624912761472 -0.44009459423040492 0 0.28090673306797542 -0.45034218190197878 0 0.26444180791092609 -0.44679950427863918 0 0.26431748951711442 -0.45678503472739063 0 0.27349624912761472 -0.44009459423040492 0 0.28090673306797542 -0.45034218190197878 0 0.26444180791092609 -0.44679950427863918 0 0.28851373031600702 -0.44356386668364578 0 0.27349624912761472 -0.44009459423040492 0 0.25847876793922242 -0.43662532177716418 0 0.27349624912761472 -0.44009459423040492 0 0.25847876793922242 -0.43662532177716418 0 0.27349624912761472 -0.44009459423040492 0 0.26444180791092609 -0.44679950427863918 0 0.25847876793922242 -0.43662532177716418 0 0.26444180791092609 -0.44679950427863918 0 0.24772824596625381 -0.46322788755280381 0 0.25847876793922242 -0.43662532177716418 0 0.24772824596625381 -0.46322788755280381 0 0.24584884686607039 -0.45040333128855492 0 0.25847876793922242 -0.43662532177716418 0 0.24772824596625381 -0.46322788755280381 0 0.25332188580423248 -0.46751025079647912 0 0.26431748951711442 -0.45678503472739063 0 0.24772824596625381 -0.46322788755280381 0 0.26444180791092609 -0.44679950427863918 0 0.26431748951711442 -0.45678503472739063 0 0.24772824596625381 -0.46322788755280381 0 0.26431748951711442 -0.45678503472739063 0 0.24772824596625381 -0.46322788755280381 0 0.25332188580423248 -0.46751025079647912 0 0.26431748951711442 -0.45678503472739063 0 0.26348735414398722 -0.46771968339407272 0 0.26431748951711442 -0.45678503472739063 0 0.26348735414398722 -0.46771968339407272 0 0.27435707068256932 -0.464545711716226 0 0.28090673306797542 -0.45034218190197878 0 0.26431748951711442 -0.45678503472739063 0 0.27435707068256932 -0.464545711716226 0 0.28090673306797542 -0.45034218190197878 0 0.26431748951711442 -0.45678503472739063 0 0.28726316131630819 -0.46529704539659911 0 0.28090673306797542 -0.45034218190197878 0 0.27435707068256932 -0.464545711716226 0 0.28726316131630819 -0.46529704539659911 0 0.27435707068256932 -0.464545711716226 0 0.28063276152355299 -0.47553741157266338 0 0.27435707068256932 -0.464545711716226 0 0.28063276152355299 -0.47553741157266338 0 0.26748858755777399 -0.4751490053235552 0 0.28063276152355299 -0.47553741157266338 0 0.27061440499137679 -0.48601374030705619 0 0.28292457675972438 -0.48797185525788339 0 0.28063276152355299 -0.47553741157266338 0 0.26748858755777399 -0.4751490053235552 0 0.27061440499137679 -0.48601374030705619 0 0.26348735414398722 -0.46771968339407272 0 0.27435707068256932 -0.464545711716226 0 0.26748858755777399 -0.4751490053235552 0 0.26348735414398722 -0.46771968339407272 0 0.26748858755777399 -0.4751490053235552 0 0.25795173715824582 -0.47460841440671248 0 0.25332188580423248 -0.46751025079647912 0 0.26348735414398722 -0.46771968339407272 0 0.25795173715824582 -0.47460841440671248 0 0.26748858755777399 -0.4751490053235552 0 0.25745385008039462 -0.48374203741656968 0 0.27061440499137679 -0.48601374030705619 0 0.26748858755777399 -0.4751490053235552 0 0.25795173715824582 -0.47460841440671248 0 0.25745385008039462 -0.48374203741656968 0 0.25795173715824582 -0.47460841440671248 0 0.25117173819890981 -0.47745118506790901 0 0.25745385008039462 -0.48374203741656968 0 0.25117173819890981 -0.47745118506790901 0 0.25745385008039462 -0.48374203741656968 0 0.2446986496159072 -0.48506298424840838 0 0.25332188580423248 -0.46751025079647912 0 0.25795173715824582 -0.47460841440671248 0 0.25117173819890981 -0.47745118506790901 0 0.25342611147226329 -0.5 0 0.26131103789301191 -0.49214387902421991 0 0.27398417528357949 -0.5 0 0.25342611147226329 -0.5 0 0.25107664763744508 -0.49096361739747379 0 0.26131103789301191 -0.49214387902421991 0 0.25745385008039462 -0.48374203741656968 0 0.25107664763744508 -0.49096361739747379 0 0.26131103789301191 -0.49214387902421991 0 0.25745385008039462 -0.48374203741656968 0 0.25107664763744508 -0.49096361739747379 0 0.2446986496159072 -0.48506298424840838 0 0.25745385008039462 -0.48374203741656968 0 0.26131103789301191 -0.49214387902421991 0 0.27061440499137679 -0.48601374030705619 0 0.26131103789301191 -0.49214387902421991 0 0.27061440499137679 -0.48601374030705619 0 0.27398417528357949 -0.5 0 0.27061440499137679 -0.48601374030705619 0 0.27398417528357949 -0.5 0 0.28292457675972438 -0.48797185525788339 0 0.27398417528357949 -0.5 0 0.29454223909489569 -0.49999999999999828 0 0.28292457675972438 -0.48797185525788339 0 0.29454223909489569 -0.49999999999999828 0 0.28292457675972438 -0.48797185525788339 0 0.29484930290521733 -0.47830812440969728 0 0.28063276152355299 -0.47553741157266338 0 0.28292457675972438 -0.48797185525788339 0 0.29484930290521733 -0.47830812440969728 0 0.28726316131630819 -0.46529704539659911 0 0.28063276152355299 -0.47553741157266338 0 0.29484930290521733 -0.47830812440969728 0 0.30084763215015448 -0.46368201221257532 0 0.28726316131630819 -0.46529704539659911 0 0.29484930290521733 -0.47830812440969728 0 0.30084763215015448 -0.46368201221257532 0 0.29484930290521733 -0.47830812440969728 0 0.31024447981213688 -0.48440738564412522 0 0.3135542102669488 -0.46210523026215228 0 0.30084763215015448 -0.46368201221257532 0 0.31024447981213688 -0.48440738564412522 0 0.29454223909489569 -0.49999999999999828 0 0.31024447981213688 -0.48440738564412522 0 0.29454223909489569 -0.49999999999999828 0 0.3028903451636108 -0.49999999999999661 0 0.31024447981213688 -0.48440738564412522 0 0.29454223909489569 -0.49999999999999828 0 0.29484930290521733 -0.47830812440969728 0 0.31024447981213688 -0.48440738564412522 0 0.33758876054940812 -0.29036433843350512 0 0.33460156395450608 -0.27683205593100418 0 0.35682172801062018 -0.29065948993182128 0 0.33758876054940812 -0.29036433843350512 0 0.3286103493722316 -0.29889386119464401 0 0.32739484898624321 -0.28333235486970171 0 0.33758876054940812 -0.29036433843350512 0 0.32739484898624321 -0.28333235486970171 0 0.33460156395450608 -0.27683205593100418 0 0.33758876054940812 -0.29036433843350512 0 0.3417697959262096 -0.29712314203048767 0 0.33606258482003981 -0.3026539850290062 0 0.3286103493722316 -0.29889386119464401 0 0.3301885010145873 -0.31909822891622019 0 0.33606258482003981 -0.3026539850290062 0 0.3286103493722316 -0.29889386119464401 0 0.3301885010145873 -0.31909822891622019 0 0.33606258482003981 -0.3026539850290062 0 0.34350511451260429 -0.30487885942402138 0 0.3301885010145873 -0.31909822891622019 0 0.34578077060599799 -0.30378954261251839 0 0.34551661383212517 -0.31401193153070323 0 0.33882839651918412 -0.31969507712129019 0 0.34578077060599799 -0.30378954261251839 0 0.33882839651918412 -0.31969507712129019 0 0.34350511451260429 -0.30487885942402138 0 0.34578077060599799 -0.30378954261251839 0 0.33882839651918412 -0.31969507712129019 0 0.3417697959262096 -0.29712314203048767 0 0.33606258482003981 -0.3026539850290062 0 0.34350511451260429 -0.30487885942402138 0 0.34350511451260429 -0.30487885942402138 0 0.3301885010145873 -0.31909822891622019 0 0.33758876054940812 -0.29036433843350512 0 0.33606258482003981 -0.3026539850290062 0 0.3286103493722316 -0.29889386119464401 0 0.33606258482003981 -0.3026539850290062 0 0.3286103493722316 -0.29889386119464401 0 0.3286103493722316 -0.29889386119464401 0 0.32351034184133443 -0.29632058502715691 0 0.32351034184133443 -0.29632058502715691 0 0.31712945270501858 -0.31765571291339623 0 0.30664807838180769 -0.30126545295822849 0 0.3286103493722316 -0.29889386119464401 0 0.32475905760065921 -0.30866536559517732 0 0.32351034184133443 -0.29632058502715691 0 0.3286103493722316 -0.29889386119464401 0 0.32475905760065921 -0.30866536559517732 0 0.3301885010145873 -0.31909822891622019 0 0.32351034184133443 -0.29632058502715691 0 0.31712945270501858 -0.31765571291339623 0 0.32475905760065921 -0.30866536559517732 0 0.32351034184133443 -0.29632058502715691 0 0.31712945270501858 -0.31765571291339623 0 0.32701437521673649 -0.27846131983027389 0 0.29972782390996561 -0.28432080145333299 0 0.32739484898624321 -0.28333235486970171 0 0.32701437521673649 -0.27846131983027389 0 0.29972782390996561 -0.28432080145333299 0 0.32351034184133443 -0.29632058502715691 0 0.32739484898624321 -0.28333235486970171 0 0.29972782390996561 -0.28432080145333299 0 0.3286103493722316 -0.29889386119464401 0 0.32351034184133443 -0.29632058502715691 0 0.32739484898624321 -0.28333235486970171 0 0.3286103493722316 -0.29889386119464401 0 0.32739484898624321 -0.28333235486970171 0 0.32351034184133443 -0.29632058502715691 0 0.32739484898624321 -0.28333235486970171 0 0.31426677938739728 -0.27340521883545482 0 0.32701437521673649 -0.27846131983027389 0 0.29972782390996561 -0.28432080145333299 0 0.32649298139278549 -0.27178614853224592 0 0.31293741462306263 -0.26335062553706517 0 0.31426677938739728 -0.27340521883545482 0 0.32649298139278549 -0.27178614853224592 0 0.31293741462306263 -0.26335062553706517 0 0.31426677938739728 -0.27340521883545482 0 0.32649298139278549 -0.27178614853224592 0 0.32701437521673649 -0.27846131983027389 0 0.32649298139278549 -0.27178614853224592 0 0.32701437521673649 -0.27846131983027389 0 0.33016471422681759 -0.27407103910744429 0 0.32649298139278549 -0.27178614853224592 0 0.32701437521673649 -0.27846131983027389 0 0.32739484898624321 -0.28333235486970171 0 0.32701437521673649 -0.27846131983027389 0 0.32897777020272168 -0.278039702722643 0 0.32739484898624321 -0.28333235486970171 0 0.32701437521673649 -0.27846131983027389 0 0.32701437521673649 -0.27846131983027389 0 0.32897777020272168 -0.278039702722643 0 0.30849589603726119 -0.24755155563553849 0 0.31293741462306263 -0.26335062553706517 0 0.32523143608720129 -0.25563514975155688 0 0.32649298139278549 -0.27178614853224592 0 0.32523143608720129 -0.25563514975155688 0 0.33128810686576371 -0.26190370640658811 0 0.32649298139278549 -0.27178614853224592 0 0.32523143608720129 -0.25563514975155688 0 0.32649298139278549 -0.27178614853224592 0 0.31293741462306263 -0.26335062553706517 0 0.32523143608720129 -0.25563514975155688 0 0.32702570909927398 -0.2441270670227802 0 0.32523143608720129 -0.25563514975155688 0 0.33506298212903679 -0.25362145841571748 0 0.32523143608720129 -0.25563514975155688 0 0.33506298212903679 -0.25362145841571748 0 0.33128810686576371 -0.26190370640658811 0 0.33506298212903679 -0.25362145841571748 0 0.33128810686576371 -0.26190370640658811 0 0.33796139781094459 -0.26079537034427552 0 0.33128810686576371 -0.26190370640658811 0 0.3361561917797275 -0.26557454199598751 0 0.33796139781094459 -0.26079537034427552 0 0.33128810686576371 -0.26190370640658811 0 0.3361561917797275 -0.26557454199598751 0 0.33177234930983962 -0.26869575372669252 0 0.3361561917797275 -0.26557454199598751 0 0.34363872351998531 -0.26367046997748239 0 0.33796139781094459 -0.26079537034427552 0 0.34363872351998531 -0.26367046997748239 0 0.34353447791499941 -0.25797381513885642 0 0.33796139781094459 -0.26079537034427552 0 0.33506298212903679 -0.25362145841571748 0 0.34353447791499941 -0.25797381513885642 0 0.34242086953849799 -0.25095729318476512 0 0.33506298212903679 -0.25362145841571748 0 0.34353447791499941 -0.25797381513885642 0 0.33796139781094459 -0.26079537034427552 0 0.33460156395450608 -0.27683205593100418 0 0.33417571128461782 -0.27071661205214098 0 0.36012119810345211 -0.27135200000008708 0 0.33460156395450608 -0.27683205593100418 0 0.33016471422681759 -0.27407103910744429 0 0.33460156395450608 -0.27683205593100418 0 0.33016471422681759 -0.27407103910744429 0 0.33417571128461782 -0.27071661205214098 0 0.33460156395450608 -0.27683205593100418 0 0.32897777020272168 -0.278039702722643 0 0.32739484898624321 -0.28333235486970171 0 0.33460156395450608 -0.27683205593100418 0 0.32897777020272168 -0.278039702722643 0 0.32739484898624321 -0.28333235486970171 0 0.32897777020272168 -0.278039702722643 0 0.32701437521673649 -0.27846131983027389 0 0.32897777020272168 -0.278039702722643 0 0.33016471422681759 -0.27407103910744429 0 0.33460156395450608 -0.27683205593100418 0 0.32897777020272168 -0.278039702722643 0 0.33016471422681759 -0.27407103910744429 0 0.32897777020272168 -0.278039702722643 0 0.33016471422681759 -0.27407103910744429 0 0.32649298139278549 -0.27178614853224592 0 0.33128810686576371 -0.26190370640658811 0 0.33177234930983962 -0.26869575372669252 0 0.32649298139278549 -0.27178614853224592 0 0.33016471422681759 -0.27407103910744429 0 0.33016471422681759 -0.27407103910744429 0 0.33177234930983962 -0.26869575372669252 0 0.32649298139278549 -0.27178614853224592 0 0.33016471422681759 -0.27407103910744429 0 0.33177234930983962 -0.26869575372669252 0 0.3361561917797275 -0.26557454199598751 0 0.33177234930983962 -0.26869575372669252 0 0.33417571128461782 -0.27071661205214098 0 0.33016471422681759 -0.27407103910744429 0 0.33177234930983962 -0.26869575372669252 0 0.33417571128461782 -0.27071661205214098 0 0.3361561917797275 -0.26557454199598751 0 0.34363872351998531 -0.26367046997748239 0 0.33417571128461782 -0.27071661205214098 0 0.33460156395450608 -0.27683205593100418 0 0.36012119810345211 -0.27135200000008708 0 0.35682172801062018 -0.29065948993182128 0 0.33460156395450608 -0.27683205593100418 0 0.36012119810345211 -0.27135200000008708 0 0.33417571128461782 -0.27071661205214098 0 0.35932629303933578 -0.2674596780707349 0 0.34363872351998531 -0.26367046997748239 0 0.33417571128461782 -0.27071661205214098 0 0.35932629303933578 -0.2674596780707349 0 0.33417571128461782 -0.27071661205214098 0 0.35932629303933578 -0.2674596780707349 0 0.36012119810345211 -0.27135200000008708 0 0.34363872351998531 -0.26367046997748239 0 0.35932629303933578 -0.2674596780707349 0 0.3506782692902895 -0.25950280226289879 0 0.34720940831406399 -0.24598207355813639 0 0.34800416067834278 -0.25329173710795228 0 0.35617777833386288 -0.25204270139510482 0 0.34720940831406399 -0.24598207355813639 0 0.34242086953849799 -0.25095729318476512 0 0.34800416067834278 -0.25329173710795228 0 0.34353447791499941 -0.25797381513885642 0 0.34242086953849799 -0.25095729318476512 0 0.34800416067834278 -0.25329173710795228 0 0.34353447791499941 -0.25797381513885642 0 0.34800416067834278 -0.25329173710795228 0 0.3506782692902895 -0.25950280226289879 0 0.34363872351998531 -0.26367046997748239 0 0.34353447791499941 -0.25797381513885642 0 0.3506782692902895 -0.25950280226289879 0 0.35932629303933578 -0.2674596780707349 0 0.35617777833386288 -0.25204270139510482 0 0.35932629303933578 -0.2674596780707349 0 0.3506782692902895 -0.25950280226289879 0 0.35617777833386288 -0.25204270139510482 0 0.34800416067834278 -0.25329173710795228 0 0.3506782692902895 -0.25950280226289879 0 0.35617777833386288 -0.25204270139510482 0 0.38120157997248572 -0.26462688612737401 0 0.35932629303933578 -0.2674596780707349 0 0.36723018814238761 -0.25738703424009551 0 0.36621585238029158 -0.2454511906244452 0 0.35617777833386288 -0.25204270139510482 0 0.36723018814238761 -0.25738703424009551 0 0.35932629303933578 -0.2674596780707349 0 0.35617777833386288 -0.25204270139510482 0 0.36723018814238761 -0.25738703424009551 0 0.36621585238029158 -0.2454511906244452 0 0.37532225099759159 -0.25128252167239618 0 0.36723018814238761 -0.25738703424009551 0 0.37532225099759159 -0.25128252167239618 0 0.38120157997248572 -0.26462688612737401 0 0.36723018814238761 -0.25738703424009551 0 0.37862455607166101 -0.26737861088393527 0 0.36012119810345211 -0.27135200000008708 0 0.37862455607166101 -0.26737861088393527 0 0.38120157997248572 -0.26462688612737401 0 0.35932629303933578 -0.2674596780707349 0 0.37862455607166101 -0.26737861088393527 0 0.36276763346070923 -0.28431050138656389 0 0.38120157997248572 -0.26462688612737401 0 0.35932629303933578 -0.2674596780707349 0 0.37862455607166101 -0.26737861088393527 0 0.35932629303933578 -0.2674596780707349 0 0.36012119810345211 -0.27135200000008708 0 0.37862455607166101 -0.26737861088393527 0 0.36012119810345211 -0.27135200000008708 0 0.36276763346070923 -0.28431050138656389 0 0.37985785184458382 -0.2875958442705161 0 0.37862455607166101 -0.26737861088393527 0 0.36276763346070923 -0.28431050138656389 0 0.36012119810345211 -0.27135200000008708 0 0.36276763346070923 -0.28431050138656389 0 0.35932629303933578 -0.2674596780707349 0 0.36012119810345211 -0.27135200000008708 0 0.36012119810345211 -0.27135200000008708 0 0.36276763346070923 -0.28431050138656389 0 0.35682172801062018 -0.29065948993182128 0 0.37985785184458382 -0.2875958442705161 0 0.36511868291727351 -0.2958226199649644 0 0.36276763346070923 -0.28431050138656389 0 0.36511868291727351 -0.2958226199649644 0 0.36276763346070923 -0.28431050138656389 0 0.36511868291727351 -0.2958226199649644 0 0.36276763346070923 -0.28431050138656389 0 0.35682172801062018 -0.29065948993182128 0 0.36511868291727351 -0.2958226199649644 0 0.35682172801062018 -0.29065948993182128 0 0.35732162111392352 -0.30134895972465231 0 0.36511868291727351 -0.2958226199649644 0 0.35682172801062018 -0.29065948993182128 0 0.36276763346070923 -0.28431050138656389 0 0.35682172801062018 -0.29065948993182128 0 0.33758876054940812 -0.29036433843350512 0 0.3417697959262096 -0.29712314203048767 0 0.35682172801062018 -0.29065948993182128 0 0.33460156395450608 -0.27683205593100418 0 0.35682172801062018 -0.29065948993182128 0 0.34809060902917233 -0.30806099660624542 0 0.34578077060599799 -0.30378954261251839 0 0.34551661383212517 -0.31401193153070323 0 0.34963250376115013 -0.30563580049135541 0 0.34809060902917233 -0.30806099660624542 0 0.34578077060599799 -0.30378954261251839 0 0.34963250376115013 -0.30563580049135541 0 0.35219783428182172 -0.30204810091015039 0 0.35246080112760841 -0.30864456183650729 0 0.34963250376115013 -0.30563580049135541 0 0.34809060902917233 -0.30806099660624542 0 0.35246080112760841 -0.30864456183650729 0 0.34809060902917233 -0.30806099660624542 0 0.35246080112760841 -0.30864456183650729 0 0.34551661383212517 -0.31401193153070323 0 0.34350511451260429 -0.30487885942402138 0 0.35682172801062018 -0.29065948993182128 0 0.34578077060599799 -0.30378954261251839 0 0.3417697959262096 -0.29712314203048767 0 0.34350511451260429 -0.30487885942402138 0 0.35682172801062018 -0.29065948993182128 0 0.34350511451260429 -0.30487885942402138 0 0.35682172801062018 -0.29065948993182128 0 0.34963250376115013 -0.30563580049135541 0 0.34578077060599799 -0.30378954261251839 0 0.35219783428182172 -0.30204810091015039 0 0.35682172801062018 -0.29065948993182128 0 0.35219783428182172 -0.30204810091015039 0 0.35732162111392352 -0.30134895972465231 0 0.35682172801062018 -0.29065948993182128 0 0.34578077060599799 -0.30378954261251839 0 0.35219783428182172 -0.30204810091015039 0 0.35219783428182172 -0.30204810091015039 0 0.35732162111392352 -0.30134895972465231 0 0.35246080112760841 -0.30864456183650729 0 0.35246080112760841 -0.30864456183650729 0 0.36035752927565479 -0.30755943693916821 0 0.3569453797468391 -0.3182408664722236 0 0.35732162111392352 -0.30134895972465231 0 0.35246080112760841 -0.30864456183650729 0 0.36035752927565479 -0.30755943693916821 0 0.36511868291727351 -0.2958226199649644 0 0.36035752927565479 -0.30755943693916821 0 0.36852419321261798 -0.31249799794580152 0 0.38555176309506117 -0.30853796566980568 0 0.36511868291727351 -0.2958226199649644 0 0.36852419321261798 -0.31249799794580152 0 0.36511868291727351 -0.2958226199649644 0 0.36852419321261798 -0.31249799794580152 0 0.36511868291727351 -0.2958226199649644 0 0.35732162111392352 -0.30134895972465231 0 0.36035752927565479 -0.30755943693916821 0 0.3786509775467769 -0.31917699700922242 0 0.36852419321261798 -0.31249799794580152 0 0.37192970350796201 -0.32917337592663881 0 0.36852419321261798 -0.31249799794580152 0 0.37192970350796201 -0.32917337592663881 0 0.3569453797468391 -0.3182408664722236 0 0.37192970350796201 -0.32917337592663881 0 0.35190286297016682 -0.33238699377835212 0 0.3569453797468391 -0.3182408664722236 0 0.36852419321261798 -0.31249799794580152 0 0.37192970350796201 -0.32917337592663881 0 0.36035752927565479 -0.30755943693916821 0 0.36852419321261798 -0.31249799794580152 0 0.3569453797468391 -0.3182408664722236 0 0.37192970350796201 -0.32917337592663881 0 0.35827893973938257 -0.34329176683435819 0 0.35190286297016682 -0.33238699377835212 0 0.37192970350796201 -0.32917337592663881 0 0.35190286297016682 -0.33238699377835212 0 0.37192970350796201 -0.32917337592663881 0 0.37489513448604722 -0.34369386717379802 0 0.35827893973938257 -0.34329176683435819 0 0.37192970350796201 -0.32917337592663881 0 0.37489513448604722 -0.34369386717379802 0 0.35827893973938257 -0.34329176683435819 0 0.35190286297016682 -0.33238699377835212 0 0.34146226549020547 -0.34025145400604562 0 0.34721747017173299 -0.32279067797254829 0 0.34551661383212517 -0.31401193153070323 0 0.3569453797468391 -0.3182408664722236 0 0.34721747017173299 -0.32279067797254829 0 0.34551661383212517 -0.31401193153070323 0 0.33882839651918412 -0.31969507712129019 0 0.35246080112760841 -0.30864456183650729 0 0.34551661383212517 -0.31401193153070323 0 0.3569453797468391 -0.3182408664722236 0 0.35190286297016682 -0.33238699377835212 0 0.34721747017173299 -0.32279067797254829 0 0.3569453797468391 -0.3182408664722236 0 0.38065264769778451 -0.35600786877680118 0 0.36962124500067473 -0.37726096341001919 0 0.36048977057726561 -0.35896956162107979 0 0.36962124500067473 -0.37726096341001919 0 0.36048977057726561 -0.35896956162107979 0 0.35424404222816719 -0.36974993331113348 0 0.38065264769778451 -0.35600786877680118 0 0.37489513448604722 -0.34369386717379802 0 0.36048977057726561 -0.35896956162107979 0 0.37489513448604722 -0.34369386717379802 0 0.35827893973938257 -0.34329176683435819 0 0.36048977057726561 -0.35896956162107979 0 0.36048977057726561 -0.35896956162107979 0 0.34562806742009899 -0.34973524492202962 0 0.34278354038195169 -0.35971411523677799 0 0.35827893973938257 -0.34329176683435819 0 0.36048977057726561 -0.35896956162107979 0 0.34562806742009899 -0.34973524492202962 0 0.35827893973938257 -0.34329176683435819 0 0.34562806742009899 -0.34973524492202962 0 0.34146226549020547 -0.34025145400604562 0 0.36048977057726561 -0.35896956162107979 0 0.35424404222816719 -0.36974993331113348 0 0.34278354038195169 -0.35971411523677799 0 0.34398966847398132 -0.37011640053262618 0 0.35424404222816719 -0.36974993331113348 0 0.34278354038195169 -0.35971411523677799 0 0.35290629701171339 -0.38064844620532862 0 0.34398966847398132 -0.37011640053262618 0 0.35424404222816719 -0.36974993331113348 0 0.33500211847243883 -0.37483873349544478 0 0.33387003697005879 -0.36623128269142369 0 0.32625814702158668 -0.37282061125065519 0 0.34398966847398132 -0.37011640053262618 0 0.33500211847243883 -0.37483873349544478 0 0.33387003697005879 -0.36623128269142369 0 0.34398966847398132 -0.37011640053262618 0 0.34278354038195169 -0.35971411523677799 0 0.33387003697005879 -0.36623128269142369 0 0.34562806742009899 -0.34973524492202962 0 0.34278354038195169 -0.35971411523677799 0 0.33153791219128559 -0.33637413503950531 0 0.33387003697005879 -0.36623128269142369 0 0.33153791219128559 -0.33637413503950531 0 0.33387003697005879 -0.36623128269142369 0 0.32393167706223008 -0.3537755627843765 0 0.33153791219128559 -0.33637413503950531 0 0.34278354038195169 -0.35971411523677799 0 0.33387003697005879 -0.36623128269142369 0 0.33153791219128559 -0.33637413503950531 0 0.32393167706223008 -0.3537755627843765 0 0.33153791219128559 -0.33637413503950531 0 0.32393167706223008 -0.3537755627843765 0 0.33153791219128559 -0.33637413503950531 0 0.32228733781021551 -0.34243415019816881 0 0.31493709525240382 -0.34716888925057759 0 0.32393167706223008 -0.3537755627843765 0 0.32228733781021551 -0.34243415019816881 0 0.31493709525240382 -0.34716888925057759 0 0.31455291482099162 -0.35544410608228261 0 0.32393167706223008 -0.3537755627843765 0 0.33387003697005879 -0.36623128269142369 0 0.32393167706223008 -0.3537755627843765 0 0.32625814702158668 -0.37282061125065519 0 0.31455291482099162 -0.35544410608228261 0 0.32393167706223008 -0.3537755627843765 0 0.31632544193317741 -0.37117699052924891 0 0.31455291482099162 -0.35544410608228261 0 0.31632544193317741 -0.37117699052924891 0 0.30986451065934051 -0.36175851054409991 0 0.32393167706223008 -0.3537755627843765 0 0.31632544193317741 -0.37117699052924891 0 0.32393167706223008 -0.3537755627843765 0 0.31632544193317741 -0.37117699052924891 0 0.32625814702158668 -0.37282061125065519 0 0.3301885010145873 -0.31909822891622019 0 0.33153791219128559 -0.33637413503950531 0 0.34721747017173299 -0.32279067797254829 0 0.33882839651918412 -0.31969507712129019 0 0.33153791219128559 -0.33637413503950531 0 0.3301885010145873 -0.31909822891622019 0 0.33882839651918412 -0.31969507712129019 0 0.33153791219128559 -0.33637413503950531 0 0.33882839651918412 -0.31969507712129019 0 0.33153791219128559 -0.33637413503950531 0 0.34350511451260429 -0.30487885942402138 0 0.3301885010145873 -0.31909822891622019 0 0.33882839651918412 -0.31969507712129019 0 0.35190286297016682 -0.33238699377835212 0 0.34146226549020547 -0.34025145400604562 0 0.33153791219128559 -0.33637413503950531 0 0.35190286297016682 -0.33238699377835212 0 0.34721747017173299 -0.32279067797254829 0 0.33153791219128559 -0.33637413503950531 0 0.35190286297016682 -0.33238699377835212 0 0.33153791219128559 -0.33637413503950531 0 0.34562806742009899 -0.34973524492202962 0 0.34146226549020547 -0.34025145400604562 0 0.33153791219128559 -0.33637413503950531 0 0.33153791219128559 -0.33637413503950531 0 0.32228733781021551 -0.34243415019816881 0 0.31170212601128011 -0.33883782688401581 0 0.3301885010145873 -0.31909822891622019 0 0.31170212601128011 -0.33883782688401581 0 0.31712945270501858 -0.31765571291339623 0 0.31036839405486349 -0.34026197480980858 0 0.3301885010145873 -0.31909822891622019 0 0.33153791219128559 -0.33637413503950531 0 0.31170212601128011 -0.33883782688401581 0 0.33153791219128559 -0.33637413503950531 0 0.31170212601128011 -0.33883782688401581 0 0.31712945270501858 -0.31765571291339623 0 0.31036839405486349 -0.34026197480980858 0 0.31170212601128011 -0.33883782688401581 0 0.31493709525240382 -0.34716888925057759 0 0.32228733781021551 -0.34243415019816881 0 0.31170212601128011 -0.33883782688401581 0 0.3301885010145873 -0.31909822891622019 0 0.31712945270501858 -0.31765571291339623 0 0.31170212601128011 -0.33883782688401581 0 0.32475905760065921 -0.30866536559517732 0 0.3301885010145873 -0.31909822891622019 0 0.31712945270501858 -0.31765571291339623 0 0.31712945270501858 -0.31765571291339623 0 0.30092067844291898 -0.31277791362215529 0 0.29726606891323087 -0.32710487136033822 0 0.31712945270501858 -0.31765571291339623 0 0.29726606891323087 -0.32710487136033822 0 0.31036839405486349 -0.34026197480980858 0 0.29726606891323087 -0.32710487136033822 0 0.31036839405486349 -0.34026197480980858 0 0.28327202723396211 -0.34339987813639627 0 0.31493709525240382 -0.34716888925057759 0 0.31036839405486349 -0.34026197480980858 0 0.31170212601128011 -0.33883782688401581 0 0.31036839405486349 -0.34026197480980858 0 0.31170212601128011 -0.33883782688401581 0 0.29726606891323087 -0.32710487136033822 0 0.28327202723396211 -0.34339987813639627 0 0.28266629596104131 -0.32943553622650451 0 0.31036839405486349 -0.34026197480980858 0 0.28327202723396211 -0.34339987813639627 0 0.28266629596104131 -0.32943553622650451 0 0.2881717082598888 -0.3187537807818599 0 0.27559681460208318 -0.32151143284326078 0 0.30092067844291898 -0.31277791362215529 0 0.29726606891323087 -0.32710487136033822 0 0.2881717082598888 -0.3187537807818599 0 0.29726606891323087 -0.32710487136033822 0 0.28266629596104131 -0.32943553622650451 0 0.2881717082598888 -0.3187537807818599 0 0.2969367092771778 -0.37669290262866761 0 0.30733308420158872 -0.37446473629577071 0 0.30645727397209449 -0.36288407395584937 0 0.31632544193317741 -0.37117699052924891 0 0.30733308420158872 -0.37446473629577071 0 0.30645727397209449 -0.36288407395584937 0 0.31632544193317741 -0.37117699052924891 0 0.30645727397209449 -0.36288407395584937 0 0.31632544193317741 -0.37117699052924891 0 0.30986451065934051 -0.36175851054409991 0 0.30645727397209449 -0.36288407395584937 0 0.30986451065934051 -0.36175851054409991 0 0.30645727397209449 -0.36288407395584937 0 0.30688905738443423 -0.35742135589017171 0 0.30986451065934051 -0.36175851054409991 0 0.30645727397209449 -0.36288407395584937 0 0.30645727397209449 -0.36288407395584937 0 0.29679046571490397 -0.35476037412381528 0 0.30645727397209449 -0.36288407395584937 0 0.30688905738443423 -0.35742135589017171 0 0.29679046571490397 -0.35476037412381528 0 0.30688905738443423 -0.35742135589017171 0 0.30678012175483971 -0.35225971474481138 0 0.29679046571490397 -0.35476037412381528 0 0.31493709525240382 -0.34716888925057759 0 0.31455291482099162 -0.35544410608228261 0 0.30678012175483971 -0.35225971474481138 0 0.31455291482099162 -0.35544410608228261 0 0.30986451065934051 -0.36175851054409991 0 0.30688905738443423 -0.35742135589017171 0 0.31455291482099162 -0.35544410608228261 0 0.30688905738443423 -0.35742135589017171 0 0.30678012175483971 -0.35225971474481138 0 0.31036839405486349 -0.34026197480980858 0 0.30678012175483971 -0.35225971474481138 0 0.31493709525240382 -0.34716888925057759 0 0.31036839405486349 -0.34026197480980858 0 0.30678012175483971 -0.35225971474481138 0 0.31036839405486349 -0.34026197480980858 0 0.30678012175483971 -0.35225971474481138 0 0.29679046571490397 -0.35476037412381528 0 0.31036839405486349 -0.34026197480980858 0 0.29679046571490397 -0.35476037412381528 0 0.31036839405486349 -0.34026197480980858 0 0.28327202723396211 -0.34339987813639627 0 0.29679046571490397 -0.35476037412381528 0 0.28327202723396211 -0.34339987813639627 0 0.29679046571490397 -0.35476037412381528 0 0.2771261801961229 -0.35606842209530432 0 0.28327202723396211 -0.34339987813639627 0 0.29679046571490397 -0.35476037412381528 0 0.29679046571490397 -0.35476037412381528 0 0.2814441633282761 -0.37114702858419601 0 0.2771261801961229 -0.35606842209530432 0 0.30645727397209449 -0.36288407395584937 0 0.29679046571490397 -0.35476037412381528 0 0.2814441633282761 -0.37114702858419601 0 0.29679046571490397 -0.35476037412381528 0 0.2814441633282761 -0.37114702858419601 0 0.2969367092771778 -0.37669290262866761 0 0.30645727397209449 -0.36288407395584937 0 0.2814441633282761 -0.37114702858419601 0 0.30645727397209449 -0.36288407395584937 0 0.2814441633282761 -0.37114702858419601 0 0.2814441633282761 -0.37114702858419601 0 0.2771261801961229 -0.35606842209530432 0 0.26150643478340069 -0.36277241104851821 0 0.27547401724199572 -0.37752190107981182 0 0.2814441633282761 -0.37114702858419601 0 0.2771261801961229 -0.35606842209530432 0 0.26337993248748381 -0.34659187393147128 0 0.26150643478340069 -0.36277241104851821 0 0.28327202723396211 -0.34339987813639627 0 0.26337993248748381 -0.34659187393147128 0 0.28327202723396211 -0.34339987813639627 0 0.2771261801961229 -0.35606842209530432 0 0.26337993248748381 -0.34659187393147128 0 0.26337993248748381 -0.34659187393147128 0 0.2434878377410051 -0.34978386972654379 0 0.26337993248748381 -0.34659187393147128 0 0.26150643478340069 -0.36277241104851821 0 0.2434878377410051 -0.34978386972654379 0 0.2538544495678508 -0.38026115102412972 0 0.26150643478340069 -0.36277241104851821 0 0.24132947909497821 -0.36614042828414228 0 0.2538544495678508 -0.38026115102412972 0 0.2814441633282761 -0.37114702858419601 0 0.26150643478340069 -0.36277241104851821 0 0.28266629596104131 -0.32943553622650451 0 0.27559681460208318 -0.32151143284326078 0 0.26572396171835422 -0.32865300273668607 0 0.27559681460208318 -0.32151143284326078 0 0.26572396171835422 -0.32865300273668607 0 0.26400810641667721 -0.31981656621423998 0 0.27559681460208318 -0.32151143284326078 0 0.26400810641667721 -0.31981656621423998 0 0.27672631334660303 -0.30928271257493473 0 0.2881717082598888 -0.3187537807818599 0 0.27559681460208318 -0.32151143284326078 0 0.27672631334660303 -0.30928271257493473 0 0.28327202723396211 -0.34339987813639627 0 0.26337993248748381 -0.34659187393147128 0 0.26572396171835422 -0.32865300273668607 0 0.28327202723396211 -0.34339987813639627 0 0.28266629596104131 -0.32943553622650451 0 0.26572396171835422 -0.32865300273668607 0 0.28327202723396211 -0.34339987813639627 0 0.26572396171835422 -0.32865300273668607 0 0.26337993248748381 -0.34659187393147128 0 0.24769173205311679 -0.33305862008134313 0 0.2434878377410051 -0.34978386972654379 0 0.26337993248748381 -0.34659187393147128 0 0.26572396171835422 -0.32865300273668607 0 0.24769173205311679 -0.33305862008134313 0 0.26400810641667721 -0.31981656621423998 0 0.24900429298711979 -0.30912578976915372 0 0.2481758962027453 -0.3139061273369772 0 0.26572396171835422 -0.32865300273668607 0 0.26400810641667721 -0.31981656621423998 0 0.2481758962027453 -0.3139061273369772 0 0.26572396171835422 -0.32865300273668607 0 0.2481758962027453 -0.3139061273369772 0 0.24769173205311679 -0.33305862008134313 0 0.26572396171835422 -0.32865300273668607 0 0.2481758962027453 -0.3139061273369772 0 0.26400810641667721 -0.31981656621423998 0 0.25774643065133568 -0.30895210730775852 0 0.24900429298711979 -0.30912578976915372 0 0.26400810641667721 -0.31981656621423998 0 0.24900429298711979 -0.30912578976915372 0 0.25774643065133568 -0.30895210730775852 0 0.25387071989585752 -0.30254402726851232 0 0.24900429298711979 -0.30912578976915372 0 0.25387071989585752 -0.30254402726851232 0 0.26410260330568841 -0.30432204597912799 0 0.2559095943416968 -0.2937302760338239 0 0.26400810641667721 -0.31981656621423998 0 0.25774643065133568 -0.30895210730775852 0 0.26410260330568841 -0.30432204597912799 0 0.25774643065133568 -0.30895210730775852 0 0.25387071989585752 -0.30254402726851232 0 0.26410260330568841 -0.30432204597912799 0 0.2559095943416968 -0.2937302760338239 0 0.26352414462574508 -0.27935265603875459 0 0.2441594025901446 -0.28378404858921891 0 0.2559095943416968 -0.2937302760338239 0 0.27781870912583118 -0.28902553874357872 0 0.26410260330568841 -0.30432204597912799 0 0.2559095943416968 -0.2937302760338239 0 0.27781870912583118 -0.28902553874357872 0 0.2559095943416968 -0.2937302760338239 0 0.27781870912583118 -0.28902553874357872 0 0.26352414462574508 -0.27935265603875459 0 0.26410260330568841 -0.30432204597912799 0 0.27781870912583118 -0.28902553874357872 0 0.27672631334660303 -0.30928271257493473 0 0.26400810641667721 -0.31981656621423998 0 0.26410260330568841 -0.30432204597912799 0 0.27672631334660303 -0.30928271257493473 0 0.30092067844291898 -0.31277791362215529 0 0.2881717082598888 -0.3187537807818599 0 0.29172647307682009 -0.30159633177327799 0 0.27781870912583118 -0.28902553874357872 0 0.27672631334660303 -0.30928271257493473 0 0.29172647307682009 -0.30159633177327799 0 0.2881717082598888 -0.3187537807818599 0 0.27672631334660303 -0.30928271257493473 0 0.29172647307682009 -0.30159633177327799 0 0.27781870912583118 -0.28902553874357872 0 0.29172647307682009 -0.30159633177327799 0 0.29972782390996561 -0.28432080145333299 0 0.27781870912583118 -0.28902553874357872 0 0.29972782390996561 -0.28432080145333299 0 0.27781870912583118 -0.28902553874357872 0 0.29972782390996561 -0.28432080145333299 0 0.28051739643085422 -0.27462792651152768 0 0.32351034184133443 -0.29632058502715691 0 0.29972782390996561 -0.28432080145333299 0 0.30664807838180769 -0.30126545295822849 0 0.32351034184133443 -0.29632058502715691 0 0.29972782390996561 -0.28432080145333299 0 0.29172647307682009 -0.30159633177327799 0 0.29972782390996561 -0.28432080145333299 0 0.30664807838180769 -0.30126545295822849 0 0.31712945270501858 -0.31765571291339623 0 0.30092067844291898 -0.31277791362215529 0 0.30664807838180769 -0.30126545295822849 0 0.30092067844291898 -0.31277791362215529 0 0.29172647307682009 -0.30159633177327799 0 0.30664807838180769 -0.30126545295822849 0 0.30849589603726119 -0.24755155563553849 0 0.29053066305545472 -0.24930972454324049 0 0.30274386663821001 -0.25857129269346191 0 0.30849589603726119 -0.24755155563553849 0 0.31293741462306263 -0.26335062553706517 0 0.30274386663821001 -0.25857129269346191 0 0.30274386663821001 -0.25857129269346191 0 0.30516130179443618 -0.26910719882435691 0 0.29371570211740372 -0.26675079468930762 0 0.31293741462306263 -0.26335062553706517 0 0.30274386663821001 -0.25857129269346191 0 0.30516130179443618 -0.26910719882435691 0 0.29972782390996561 -0.28432080145333299 0 0.30516130179443618 -0.26910719882435691 0 0.29371570211740372 -0.26675079468930762 0 0.31426677938739728 -0.27340521883545482 0 0.31293741462306263 -0.26335062553706517 0 0.30516130179443618 -0.26910719882435691 0 0.31426677938739728 -0.27340521883545482 0 0.29972782390996561 -0.28432080145333299 0 0.30516130179443618 -0.26910719882435691 0 0.29972782390996561 -0.28432080145333299 0 0.29371570211740372 -0.26675079468930762 0 0.28051739643085422 -0.27462792651152768 0 0.29972782390996561 -0.28432080145333299 0 0.28051739643085422 -0.27462792651152768 0 0.29371570211740372 -0.26675079468930762 0 0.2749983627915108 -0.25641595150652408 0 0.28051739643085422 -0.27462792651152768 0 0.29053066305545472 -0.24930972454324049 0 0.29371570211740372 -0.26675079468930762 0 0.2749983627915108 -0.25641595150652408 0 0.29053066305545472 -0.24930972454324049 0 0.30274386663821001 -0.25857129269346191 0 0.29371570211740372 -0.26675079468930762 0 0.2749983627915108 -0.25641595150652408 0 0.28051739643085422 -0.27462792651152768 0 0.26130696895174249 -0.26493505156972302 0 0.28051739643085422 -0.27462792651152768 0 0.26352414462574508 -0.27935265603875459 0 0.26130696895174249 -0.26493505156972302 0 0.27781870912583118 -0.28902553874357872 0 0.28051739643085422 -0.27462792651152768 0 0.26352414462574508 -0.27935265603875459 0 0.28051739643085422 -0.27462792651152768 0 0.26130696895174249 -0.26493505156972302 0 0.26352414462574508 -0.27935265603875459 0 0.2467510508785479 -0.26990047560976532 0 0.2441594025901446 -0.28378404858921891 0 0.26352414462574508 -0.27935265603875459 0 0.26130696895174249 -0.26493505156972302 0 0.2467510508785479 -0.26990047560976532 0 0.26130696895174249 -0.26493505156972302 0 0.24209654147263079 -0.25524217662791832 0 0.2467510508785479 -0.26990047560976532 0 0.25655956082222359 -0.25080388744885951 0 0.26130696895174249 -0.26493505156972302 0 0.24209654147263079 -0.25524217662791832 0 0.2749983627915108 -0.25641595150652408 0 0.25655956082222359 -0.25080388744885951 0 0.26130696895174249 -0.26493505156972302 0 0.26130696895174249 -0.26493505156972302 0 0.24209654147263079 -0.25524217662791832 0 0.24209654147263079 -0.25524217662791832 0 0.23130675506740919 -0.2608036444855808 0 0.23799222890640129 -0.2431198439712699 0 0.24209654147263079 -0.25524217662791832 0 0.2467510508785479 -0.26990047560976532 0 0.23130675506740919 -0.2608036444855808 0 0.2467510508785479 -0.26990047560976532 0 0.23255144990387991 -0.27580822636713448 0 0.23130675506740919 -0.2608036444855808 0 0.2467510508785479 -0.26990047560976532 0 0.23255144990387991 -0.27580822636713448 0 0.2441594025901446 -0.28378404858921891 0 0.23255144990387991 -0.27580822636713448 0 0.2217956253442174 -0.27898266791281551 0 0.22967078209530109 -0.285458092221681 0 0.23255144990387991 -0.27580822636713448 0 0.2188685034190255 -0.26881786996371931 0 0.23130675506740919 -0.2608036444855808 0 0.2188685034190255 -0.26881786996371931 0 0.2217956253442174 -0.27898266791281551 0 0.21577340532165359 -0.2765583362427404 0 0.23255144990387991 -0.27580822636713448 0 0.2188685034190255 -0.26881786996371931 0 0.2217956253442174 -0.27898266791281551 0 0.23130675506740919 -0.2608036444855808 0 0.20958075582396971 -0.25193327437367768 0 0.23799222890640129 -0.2431198439712699 0 0.2188685034190255 -0.26881786996371931 0 0.23130675506740919 -0.2608036444855808 0 0.20958075582396971 -0.25193327437367768 0 0.2188685034190255 -0.26881786996371931 0 0.20958075582396971 -0.25193327437367768 0 0.20359711304580699 -0.26712295308583822 0 0.2188685034190255 -0.26881786996371931 0 0.21220242454795141 -0.27376633025476549 0 0.20359711304580699 -0.26712295308583822 0 0.2188685034190255 -0.26881786996371931 0 0.21577340532165359 -0.2765583362427404 0 0.21220242454795141 -0.27376633025476549 0 0.2217956253442174 -0.27898266791281551 0 0.21577340532165359 -0.2765583362427404 0 0.21069166528908681 -0.28182661415180038 0 0.21577340532165359 -0.2765583362427404 0 0.21220242454795141 -0.27376633025476549 0 0.21069166528908681 -0.28182661415180038 0 0.21220242454795141 -0.27376633025476549 0 0.20359711304580699 -0.26712295308583822 0 0.21069166528908681 -0.28182661415180038 0 0.20359711304580699 -0.26712295308583822 0 0.21069166528908681 -0.28182661415180038 0 0.18738285102061111 -0.2652182149795333 0 0.1957795667923444 -0.27809437373674911 0 0.21069166528908681 -0.28182661415180038 0 0.18738285102061111 -0.2652182149795333 0 0.18974957946099541 -0.27285072447840009 0 0.19397639628142599 -0.29336031216846192 0 0.18295576915147041 -0.26864349899846729 0 0.19397639628142599 -0.29336031216846192 0 0.18295576915147041 -0.26864349899846729 0 0.21069166528908681 -0.28182661415180038 0 0.18738285102061111 -0.2652182149795333 0 0.1957795667923444 -0.27809437373674911 0 0.18974957946099541 -0.27285072447840009 0 0.18738285102061111 -0.2652182149795333 0 0.20958075582396971 -0.25193327437367768 0 0.19027000216824391 -0.25306176427082933 0 0.19612993758727559 -0.26072290227330591 0 0.19612993758727559 -0.26072290227330591 0 0.18738285102061111 -0.2652182149795333 0 0.18668260305280529 -0.25953061020317131 0 0.20359711304580699 -0.26712295308583822 0 0.19612993758727559 -0.26072290227330591 0 0.18738285102061111 -0.2652182149795333 0 0.19027000216824391 -0.25306176427082933 0 0.19612993758727559 -0.26072290227330591 0 0.18668260305280529 -0.25953061020317131 0 0.20958075582396971 -0.25193327437367768 0 0.20359711304580699 -0.26712295308583822 0 0.19612993758727559 -0.26072290227330591 0 0.19397639628142599 -0.29336031216846192 0 0.2049970234113816 -0.31807712533845661 0 0.1784249191452307 -0.30111137083421752 0 0.19397639628142599 -0.29336031216846192 0 0.20770414304562701 -0.29804689472344592 0 0.2049970234113816 -0.31807712533845661 0 0.19397639628142599 -0.29336031216846192 0 0.2049970234113816 -0.31807712533845661 0 0.1957795667923444 -0.27809437373674911 0 0.18974957946099541 -0.27285072447840009 0 0.19397639628142599 -0.29336031216846192 0 0.1957795667923444 -0.27809437373674911 0 0.19397639628142599 -0.29336031216846192 0 0.2015937375469391 -0.28652058951586262 0 0.1957795667923444 -0.27809437373674911 0 0.2015937375469391 -0.28652058951586262 0 0.21069166528908681 -0.28182661415180038 0 0.19397639628142599 -0.29336031216846192 0 0.2015937375469391 -0.28652058951586262 0 0.20770414304562701 -0.29804689472344592 0 0.2015937375469391 -0.28652058951586262 0 0.2099919031564482 -0.28935116285369339 0 0.20770414304562701 -0.29804689472344592 0 0.2099919031564482 -0.28935116285369339 0 0.21503564027571159 -0.29439081820879781 0 0.20770414304562701 -0.29804689472344592 0 0.2015937375469391 -0.28652058951586262 0 0.2099919031564482 -0.28935116285369339 0 0.21069166528908681 -0.28182661415180038 0 0.2099919031564482 -0.28935116285369339 0 0.21069166528908681 -0.28182661415180038 0 0.2149343296248763 -0.28597089766856032 0 0.2099919031564482 -0.28935116285369339 0 0.2149343296248763 -0.28597089766856032 0 0.21503564027571159 -0.29439081820879781 0 0.20770414304562701 -0.29804689472344592 0 0.21945483213456279 -0.30155852837778102 0 0.21868588879888029 -0.31417531643952817 0 0.21503564027571159 -0.29439081820879781 0 0.20770414304562701 -0.29804689472344592 0 0.21945483213456279 -0.30155852837778102 0 0.20770414304562701 -0.29804689472344592 0 0.2049970234113816 -0.31807712533845661 0 0.21868588879888029 -0.31417531643952817 0 0.21945483213456279 -0.30155852837778102 0 0.2272899734249467 -0.31083041129803812 0 0.21868588879888029 -0.31417531643952817 0 0.21503564027571159 -0.29439081820879781 0 0.21945483213456279 -0.30155852837778102 0 0.23062783068713749 -0.299159251937267 0 0.21945483213456279 -0.30155852837778102 0 0.23062783068713749 -0.299159251937267 0 0.2272899734249467 -0.31083041129803812 0 0.21945483213456279 -0.30155852837778102 0 0.23062783068713749 -0.299159251937267 0 0.23062783068713749 -0.299159251937267 0 0.23400047955756209 -0.29843501332406808 0 0.21069166528908681 -0.28182661415180038 0 0.23400047955756209 -0.29843501332406808 0 0.22967078209530109 -0.285458092221681 0 0.21069166528908681 -0.28182661415180038 0 0.2149343296248763 -0.28597089766856032 0 0.23400047955756209 -0.29843501332406808 0 0.2149343296248763 -0.28597089766856032 0 0.23062783068713749 -0.299159251937267 0 0.2217956253442174 -0.27898266791281551 0 0.21069166528908681 -0.28182661415180038 0 0.22967078209530109 -0.285458092221681 0 0.2149343296248763 -0.28597089766856032 0 0.21503564027571159 -0.29439081820879781 0 0.23062783068713749 -0.299159251937267 0 0.2149343296248763 -0.28597089766856032 0 0.23062783068713749 -0.299159251937267 0 0.23400047955756209 -0.29843501332406808 0 0.21069166528908681 -0.28182661415180038 0 0.23400047955756209 -0.29843501332406808 0 0.2559095943416968 -0.2937302760338239 0 0.23400047955756209 -0.29843501332406808 0 0.2441594025901446 -0.28378404858921891 0 0.2559095943416968 -0.2937302760338239 0 0.23400047955756209 -0.29843501332406808 0 0.23255144990387991 -0.27580822636713448 0 0.22967078209530109 -0.285458092221681 0 0.2441594025901446 -0.28378404858921891 0 0.23400047955756209 -0.29843501332406808 0 0.22967078209530109 -0.285458092221681 0 0.2441594025901446 -0.28378404858921891 0 0.23062783068713749 -0.299159251937267 0 0.23400047955756209 -0.29843501332406808 0 0.2481758962027453 -0.3139061273369772 0 0.23062783068713749 -0.299159251937267 0 0.2272899734249467 -0.31083041129803812 0 0.2481758962027453 -0.3139061273369772 0 0.25387071989585752 -0.30254402726851232 0 0.2559095943416968 -0.2937302760338239 0 0.23400047955756209 -0.29843501332406808 0 0.25387071989585752 -0.30254402726851232 0 0.23400047955756209 -0.29843501332406808 0 0.24900429298711979 -0.30912578976915372 0 0.23062783068713749 -0.299159251937267 0 0.2481758962027453 -0.3139061273369772 0 0.23400047955756209 -0.29843501332406808 0 0.24900429298711979 -0.30912578976915372 0 0.23400047955756209 -0.29843501332406808 0 0.24900429298711979 -0.30912578976915372 0 0.2481758962027453 -0.3139061273369772 0 0.2272899734249467 -0.31083041129803812 0 0.2481758962027453 -0.3139061273369772 0 0.23073781898403739 -0.3234891442658796 0 0.2481758962027453 -0.3139061273369772 0 0.24769173205311679 -0.33305862008134313 0 0.23073781898403739 -0.3234891442658796 0 0.24769173205311679 -0.33305862008134313 0 0.23157543408400569 -0.3391257958730246 0 0.2434878377410051 -0.34978386972654379 0 0.24769173205311679 -0.33305862008134313 0 0.23157543408400569 -0.3391257958730246 0 0.23073781898403739 -0.3234891442658796 0 0.23157543408400569 -0.3391257958730246 0 0.22040276316392851 -0.32753226408506808 0 0.23073781898403739 -0.3234891442658796 0 0.23157543408400569 -0.3391257958730246 0 0.22040276316392851 -0.32753226408506808 0 0.2160176505413372 -0.3427939385084513 0 0.22040276316392851 -0.32753226408506808 0 0.23073781898403739 -0.3234891442658796 0 0.21868588879888029 -0.31417531643952817 0 0.2272899734249467 -0.31083041129803812 0 0.23073781898403739 -0.3234891442658796 0 0.21868588879888029 -0.31417531643952817 0 0.26150643478340069 -0.36277241104851821 0 0.24132947909497821 -0.36614042828414228 0 0.2434878377410051 -0.34978386972654379 0 0.2538544495678508 -0.38026115102412972 0 0.24132947909497821 -0.36614042828414228 0 0.23307765763782529 -0.37577017986368932 0 0.24132947909497821 -0.36614042828414228 0 0.2434878377410051 -0.34978386972654379 0 0.23386283437545061 -0.35910272880268712 0 0.2434878377410051 -0.34978386972654379 0 0.22359574299452631 -0.35297586552161642 0 0.23386283437545061 -0.35910272880268712 0 0.23157543408400569 -0.3391257958730246 0 0.2434878377410051 -0.34978386972654379 0 0.22359574299452631 -0.35297586552161642 0 0.22359574299452631 -0.35297586552161642 0 0.22703827767129281 -0.36751075167844599 0 0.2160176505413372 -0.3427939385084513 0 0.2434878377410051 -0.34978386972654379 0 0.22359574299452631 -0.35297586552161642 0 0.22703827767129281 -0.36751075167844599 0 0.2160176505413372 -0.3427939385084513 0 0.23157543408400569 -0.3391257958730246 0 0.22359574299452631 -0.35297586552161642 0 0.2160176505413372 -0.3427939385084513 0 0.22703827767129281 -0.36751075167844599 0 0.23307765763782529 -0.37577017986368932 0 0.2169013460475788 -0.37556329486766332 0 0.24132947909497821 -0.36614042828414228 0 0.23386283437545061 -0.35910272880268712 0 0.22703827767129281 -0.36751075167844599 0 0.22359574299452631 -0.35297586552161642 0 0.23386283437545061 -0.35910272880268712 0 0.22703827767129281 -0.36751075167844599 0 0.24132947909497821 -0.36614042828414228 0 0.22703827767129281 -0.36751075167844599 0 0.23307765763782529 -0.37577017986368932 0 0.22703827767129281 -0.36751075167844599 0 0.20753795628773189 -0.36175131627126139 0 0.2169013460475788 -0.37556329486766332 0 0.20753795628773189 -0.36175131627126139 0 0.20159523996386011 -0.37479034145554613 0 0.2169013460475788 -0.37556329486766332 0 0.20753795628773189 -0.36175131627126139 0 0.2169013460475788 -0.37556329486766332 0 0.22703827767129281 -0.36751075167844599 0 0.20753795628773189 -0.36175131627126139 0 0.2160176505413372 -0.3427939385084513 0 0.20753795628773189 -0.36175131627126139 0 0.19977721330318859 -0.34751262585736348 0 0.2160176505413372 -0.3427939385084513 0 0.20753795628773189 -0.36175131627126139 0 0.19977721330318859 -0.34751262585736348 0 0.1885564281759248 -0.35976364260572069 0 0.19977721330318859 -0.34751262585736348 0 0.1885564281759248 -0.35976364260572069 0 0.1857835224273704 -0.34045152856622019 0 0.1885564281759248 -0.35976364260572069 0 0.20159523996386011 -0.37479034145554613 0 0.18712911927873321 -0.38025258625828329 0 0.20753795628773189 -0.36175131627126139 0 0.1885564281759248 -0.35976364260572069 0 0.20159523996386011 -0.37479034145554613 0 0.22040276316392851 -0.32753226408506808 0 0.2049970234113816 -0.31807712533845661 0 0.21868588879888029 -0.31417531643952817 0 0.22040276316392851 -0.32753226408506808 0 0.2049970234113816 -0.31807712533845661 0 0.2160176505413372 -0.3427939385084513 0 0.2049970234113816 -0.31807712533845661 0 0.2160176505413372 -0.3427939385084513 0 0.19977721330318859 -0.34751262585736348 0 0.2160176505413372 -0.3427939385084513 0 0.19865922620616019 -0.33311559874383689 0 0.2049970234113816 -0.31807712533845661 0 0.2160176505413372 -0.3427939385084513 0 0.19865922620616019 -0.33311559874383689 0 0.19977721330318859 -0.34751262585736348 0 0.19865922620616019 -0.33311559874383689 0 0.1857835224273704 -0.34045152856622019 0 0.2049970234113816 -0.31807712533845661 0 0.19865922620616019 -0.33311559874383689 0 0.1755305635359124 -0.31824467341032331 0 0.19865922620616019 -0.33311559874383689 0 0.1755305635359124 -0.31824467341032331 0 0.1857835224273704 -0.34045152856622019 0 0.1755305635359124 -0.31824467341032331 0 0.1857835224273704 -0.34045152856622019 0 0.1654274518563732 -0.34600264855809632 0 0.1755305635359124 -0.31824467341032331 0 0.1654274518563732 -0.34600264855809632 0 0.1450537288932654 -0.32602876244008888 0 0.1755305635359124 -0.31824467341032331 0 0.1450537288932654 -0.32602876244008888 0 0.15619562803224721 -0.29757661656487588 0 0.1885564281759248 -0.35976364260572069 0 0.16876623378044389 -0.36696808643773499 0 0.18712911927873321 -0.38025258625828329 0 0.1885564281759248 -0.35976364260572069 0 0.1857835224273704 -0.34045152856622019 0 0.1654274518563732 -0.34600264855809632 0 0.1885564281759248 -0.35976364260572069 0 0.1654274518563732 -0.34600264855809632 0 0.16876623378044389 -0.36696808643773499 0 0.1654274518563732 -0.34600264855809632 0 0.16876623378044389 -0.36696808643773499 0 0.15660583463754391 -0.35975938125381501 0 0.16876623378044389 -0.36696808643773499 0 0.15660583463754391 -0.35975938125381501 0 0.1493375100281627 -0.37488507626872591 0 0.1493375100281627 -0.37488507626872591 0 0.14289214288519569 -0.35118171375070301 0 0.13000289361066331 -0.36208612455862432 0 0.15660583463754391 -0.35975938125381501 0 0.1493375100281627 -0.37488507626872591 0 0.14289214288519569 -0.35118171375070301 0 0.1654274518563732 -0.34600264855809632 0 0.15660583463754391 -0.35975938125381501 0 0.14289214288519569 -0.35118171375070301 0 0.14289214288519569 -0.35118171375070301 0 0.13000289361066331 -0.36208612455862432 0 0.12604582389339331 -0.34317988847961828 0 0.13000289361066331 -0.36208612455862432 0 0.12967895120999531 -0.37827397464121698 0 0.1171801822708201 -0.37005217928074918 0 0.1493375100281627 -0.37488507626872591 0 0.13000289361066331 -0.36208612455862432 0 0.12967895120999531 -0.37827397464121698 0 0.1654274518563732 -0.34600264855809632 0 0.14289214288519569 -0.35118171375070301 0 0.1450537288932654 -0.32602876244008888 0 0.14289214288519569 -0.35118171375070301 0 0.1450537288932654 -0.32602876244008888 0 0.12604582389339331 -0.34317988847961828 0 0.1450537288932654 -0.32602876244008888 0 0.12604582389339331 -0.34317988847961828 0 0.1188567330813 -0.32479141442047371 0 0.1450537288932654 -0.32602876244008888 0 0.12882910482907181 -0.30121485459423503 0 0.1188567330813 -0.32479141442047371 0 0.1450537288932654 -0.32602876244008888 0 0.12882910482907181 -0.30121485459423503 0 0.15619562803224721 -0.29757661656487588 0 0.12882910482907181 -0.30121485459423503 0 0.15619562803224721 -0.29757661656487588 0 0.13686069252858191 -0.2769085597194284 0 0.15619562803224721 -0.29757661656487588 0 0.13686069252858191 -0.2769085597194284 0 0.15619562803224721 -0.29757661656487588 0 0.13686069252858191 -0.2769085597194284 0 0.15994633238888681 -0.26974776550929752 0 0.12882910482907181 -0.30121485459423503 0 0.13686069252858191 -0.2769085597194284 0 0.1110040395220085 -0.28035186938618639 0 0.13686069252858191 -0.2769085597194284 0 0.11752575702491661 -0.25624050287398092 0 0.13686069252858191 -0.2769085597194284 0 0.1339877596727336 -0.25199910163767042 0 0.15029464079908189 -0.25158054944809299 0 0.13686069252858191 -0.2769085597194284 0 0.1339877596727336 -0.25199910163767042 0 0.11752575702491661 -0.25624050287398092 0 0.13686069252858191 -0.2769085597194284 0 0.15029464079908189 -0.25158054944809299 0 0.15994633238888681 -0.26974776550929752 0 0.15994633238888681 -0.26974776550929752 0 0.17095247748817491 -0.26762537787668927 0 0.17630851986942789 -0.27616328306845328 0 0.15994633238888681 -0.26974776550929752 0 0.17630851986942789 -0.27616328306845328 0 0.1709962178875396 -0.28608519758717549 0 0.15029464079908189 -0.25158054944809299 0 0.15994633238888681 -0.26974776550929752 0 0.16211301339255779 -0.25253309379002159 0 0.15994633238888681 -0.26974776550929752 0 0.16211301339255779 -0.25253309379002159 0 0.16945603098324119 -0.25930509195902463 0 0.15994633238888681 -0.26974776550929752 0 0.17095247748817491 -0.26762537787668927 0 0.16945603098324119 -0.25930509195902463 0 0.16211301339255779 -0.25253309379002159 0 0.16945603098324119 -0.25930509195902463 0 0.17075296256400421 -0.24887823445580179 0 0.16945603098324119 -0.25930509195902463 0 0.1793029839882633 -0.25707010293428101 0 0.17075296256400421 -0.24887823445580179 0 0.1793029839882633 -0.25707010293428101 0 0.18052219150569671 -0.24758160325192061 0 0.17075296256400421 -0.24887823445580179 0 0.17095247748817491 -0.26762537787668927 0 0.16945603098324119 -0.25930509195902463 0 0.17709904433783111 -0.2662911806587015 0 0.16945603098324119 -0.25930509195902463 0 0.1793029839882633 -0.25707010293428101 0 0.17709904433783111 -0.2662911806587015 0 0.1793029839882633 -0.25707010293428101 0 0.1826954776248727 -0.263415523145134 0 0.17709904433783111 -0.2662911806587015 0 0.1826954776248727 -0.263415523145134 0 0.18738285102061111 -0.2652182149795333 0 0.18668260305280529 -0.25953061020317131 0 0.1793029839882633 -0.25707010293428101 0 0.1826954776248727 -0.263415523145134 0 0.18668260305280529 -0.25953061020317131 0 0.19027000216824391 -0.25306176427082933 0 0.1793029839882633 -0.25707010293428101 0 0.18668260305280529 -0.25953061020317131 0 0.19027000216824391 -0.25306176427082933 0 0.1793029839882633 -0.25707010293428101 0 0.18052219150569671 -0.24758160325192061 0 0.17630851986942789 -0.27616328306845328 0 0.18295576915147041 -0.26864349899846729 0 0.1805323644670189 -0.28507273253135512 0 0.17095247748817491 -0.26762537787668927 0 0.17630851986942789 -0.27616328306845328 0 0.17709904433783111 -0.2662911806587015 0 0.17630851986942789 -0.27616328306845328 0 0.17709904433783111 -0.2662911806587015 0 0.18295576915147041 -0.26864349899846729 0 0.1826954776248727 -0.263415523145134 0 0.17709904433783111 -0.2662911806587015 0 0.18295576915147041 -0.26864349899846729 0 0.1826954776248727 -0.263415523145134 0 0.18738285102061111 -0.2652182149795333 0 0.18295576915147041 -0.26864349899846729 0 0.18974957946099541 -0.27285072447840009 0 0.18738285102061111 -0.2652182149795333 0 0.18295576915147041 -0.26864349899846729 0 0.19397639628142599 -0.29336031216846192 0 0.1805323644670189 -0.28507273253135512 0 0.1784249191452307 -0.30111137083421752 0 0.1805323644670189 -0.28507273253135512 0 0.1784249191452307 -0.30111137083421752 0 0.1709962178875396 -0.28608519758717549 0 0.19397639628142599 -0.29336031216846192 0 0.18295576915147041 -0.26864349899846729 0 0.1805323644670189 -0.28507273253135512 0 0.17630851986942789 -0.27616328306845328 0 0.1805323644670189 -0.28507273253135512 0 0.1709962178875396 -0.28608519758717549 0 0.2049970234113816 -0.31807712533845661 0 0.1755305635359124 -0.31824467341032331 0 0.1784249191452307 -0.30111137083421752 0 0.1755305635359124 -0.31824467341032331 0 0.15619562803224721 -0.29757661656487588 0 0.1784249191452307 -0.30111137083421752 0 0.1755305635359124 -0.31824467341032331 0 0.15619562803224721 -0.29757661656487588 0 0.15619562803224721 -0.29757661656487588 0 0.1784249191452307 -0.30111137083421752 0 0.1709962178875396 -0.28608519758717549 0 0.15619562803224721 -0.29757661656487588 0 0.15994633238888681 -0.26974776550929752 0 0.1709962178875396 -0.28608519758717549 0 0.19684971894770911 -0.5 0 0.19743128905478771 -0.48276198444836821 0 0.21134191763616231 -0.48661502087731268 0 0.19684971894770911 -0.5 0 0.19743128905478771 -0.48276198444836821 0 0.18048089462413969 -0.50000000000000011 0 0.19743128905478771 -0.48276198444836821 0 0.1899593126342847 -0.4747653319854816 0 0.20514824328661729 -0.46202741221570909 0 0.1899593126342847 -0.4747653319854816 0 0.19451263454732309 -0.46477005656079801 0 0.18523786306158879 -0.4706536681341798 0 0.19743128905478771 -0.48276198444836821 0 0.2192343076829916 -0.47429423004229487 0 0.19743128905478771 -0.48276198444836821 0 0.21134191763616231 -0.48661502087731268 0 0.2192343076829916 -0.47429423004229487 0 0.19743128905478771 -0.48276198444836821 0 0.2192343076829916 -0.47429423004229487 0 0.20514824328661729 -0.46202741221570909 0 0.19684971894770911 -0.5 0 0.21134191763616231 -0.48661502087731268 0 0.21321854327127829 -0.50000000000000122 0 0.21134191763616231 -0.48661502087731268 0 0.21321854327127829 -0.50000000000000122 0 0.23162699891070679 -0.48508637761409418 0 0.21321854327127829 -0.50000000000000122 0 0.23162699891070679 -0.48508637761409418 0 0.21321854327127829 -0.50000000000000122 0 0.23162699891070679 -0.48508637761409418 0 0.23286804766094721 -0.49999999999999789 0 0.23162699891070679 -0.48508637761409418 0 0.23286804766094721 -0.49999999999999789 0 0.23700295537573299 -0.48976801733576802 0 0.23162699891070679 -0.48508637761409418 0 0.23700295537573299 -0.48976801733576802 0 0.25342611147226329 -0.5 0 0.23286804766094721 -0.49999999999999789 0 0.24109573981334051 -0.49333220955347462 0 0.23286804766094721 -0.49999999999999789 0 0.24109573981334051 -0.49333220955347462 0 0.23700295537573299 -0.48976801733576802 0 0.23286804766094721 -0.49999999999999789 0 0.23700295537573299 -0.48976801733576802 0 0.24109573981334051 -0.49333220955347462 0 0.23700295537573299 -0.48976801733576802 0 0.2446986496159072 -0.48506298424840838 0 0.24109573981334051 -0.49333220955347462 0 0.23700295537573299 -0.48976801733576802 0 0.25107664763744508 -0.49096361739747379 0 0.24109573981334051 -0.49333220955347462 0 0.2446986496159072 -0.48506298424840838 0 0.25342611147226329 -0.5 0 0.25107664763744508 -0.49096361739747379 0 0.24109573981334051 -0.49333220955347462 0 0.23162699891070679 -0.48508637761409418 0 0.24243256833576979 -0.47633223847137529 0 0.23348127682462241 -0.46876105879754859 0 0.24243256833576979 -0.47633223847137529 0 0.24772824596625381 -0.46322788755280381 0 0.25332188580423248 -0.46751025079647912 0 0.24243256833576979 -0.47633223847137529 0 0.24772824596625381 -0.46322788755280381 0 0.25332188580423248 -0.46751025079647912 0 0.24243256833576979 -0.47633223847137529 0 0.25332188580423248 -0.46751025079647912 0 0.25117173819890981 -0.47745118506790901 0 0.24243256833576979 -0.47633223847137529 0 0.25117173819890981 -0.47745118506790901 0 0.2446986496159072 -0.48506298424840838 0 0.24243256833576979 -0.47633223847137529 0 0.23700295537573299 -0.48976801733576802 0 0.2446986496159072 -0.48506298424840838 0 0.24243256833576979 -0.47633223847137529 0 0.23700295537573299 -0.48976801733576802 0 0.24243256833576979 -0.47633223847137529 0 0.23162699891070679 -0.48508637761409418 0 0.23700295537573299 -0.48976801733576802 0 0.24243256833576979 -0.47633223847137529 0 0.23162699891070679 -0.48508637761409418 0 0.24243256833576979 -0.47633223847137529 0 0.24243256833576979 -0.47633223847137529 0 0.23348127682462241 -0.46876105879754859 0 0.24772824596625381 -0.46322788755280381 0 0.21134191763616231 -0.48661502087731268 0 0.23162699891070679 -0.48508637761409418 0 0.2192343076829916 -0.47429423004229487 0 0.23162699891070679 -0.48508637761409418 0 0.23348127682462241 -0.46876105879754859 0 0.2192343076829916 -0.47429423004229487 0 0.23162699891070679 -0.48508637761409418 0 0.2192343076829916 -0.47429423004229487 0 0.23348127682462241 -0.46876105879754859 0 0.2192343076829916 -0.47429423004229487 0 0.23348127682462241 -0.46876105879754859 0 0.2192343076829916 -0.47429423004229487 0 0.2237961285110458 -0.46155541231269942 0 0.2237961285110458 -0.46155541231269942 0 0.23695950312591771 -0.45660855689281432 0 0.22415731163507949 -0.44608580361513012 0 0.23348127682462241 -0.46876105879754859 0 0.2237961285110458 -0.46155541231269942 0 0.23695950312591771 -0.45660855689281432 0 0.23348127682462241 -0.46876105879754859 0 0.24772824596625381 -0.46322788755280381 0 0.23348127682462241 -0.46876105879754859 0 0.23695950312591771 -0.45660855689281432 0 0.24772824596625381 -0.46322788755280381 0 0.23695950312591771 -0.45660855689281432 0 0.24772824596625381 -0.46322788755280381 0 0.24584884686607039 -0.45040333128855492 0 0.25847876793922242 -0.43662532177716418 0 0.24584884686607039 -0.45040333128855492 0 0.2402288704328869 -0.44515155893143721 0 0.25847876793922242 -0.43662532177716418 0 0.2402288704328869 -0.44515155893143721 0 0.23616224894315441 -0.43146985771271562 0 0.23695950312591771 -0.45660855689281432 0 0.24584884686607039 -0.45040333128855492 0 0.2402288704328869 -0.44515155893143721 0 0.2402288704328869 -0.44515155893143721 0 0.22415731163507949 -0.44608580361513012 0 0.23616224894315441 -0.43146985771271562 0 0.23695950312591771 -0.45660855689281432 0 0.2402288704328869 -0.44515155893143721 0 0.22415731163507949 -0.44608580361513012 0 0.22415731163507949 -0.44608580361513012 0 0.20987446226014361 -0.44835885667108089 0 0.20514824328661729 -0.46202741221570909 0 0.22415731163507949 -0.44608580361513012 0 0.2089148576777117 -0.43848702134918138 0 0.20987446226014361 -0.44835885667108089 0 0.2089148576777117 -0.43848702134918138 0 0.20987446226014361 -0.44835885667108089 0 0.1993403717080024 -0.44384908052624972 0 0.20987446226014361 -0.44835885667108089 0 0.1993403717080024 -0.44384908052624972 0 0.20172473719417791 -0.4496914734564163 0 0.20987446226014361 -0.44835885667108089 0 0.20149739638147959 -0.45352874395124337 0 0.20172473719417791 -0.4496914734564163 0 0.22415731163507949 -0.44608580361513012 0 0.20514824328661729 -0.46202741221570909 0 0.2192343076829916 -0.47429423004229487 0 0.2237961285110458 -0.46155541231269942 0 0.20514824328661729 -0.46202741221570909 0 0.2237961285110458 -0.46155541231269942 0 0.22415731163507949 -0.44608580361513012 0 0.20514824328661729 -0.46202741221570909 0 0.2192343076829916 -0.47429423004229487 0 0.20514824328661729 -0.46202741221570909 0 0.20987446226014361 -0.44835885667108089 0 0.20514824328661729 -0.46202741221570909 0 0.20149739638147959 -0.45352874395124337 0 0.20514824328661729 -0.46202741221570909 0 0.20149739638147959 -0.45352874395124337 0 0.19570534414122639 -0.45380408451310622 0 0.20514824328661729 -0.46202741221570909 0 0.19570534414122639 -0.45380408451310622 0 0.19570534414122639 -0.45380408451310622 0 0.19451263454732309 -0.46477005656079801 0 0.18523786306158879 -0.4706536681341798 0 0.19570534414122639 -0.45380408451310622 0 0.18523786306158879 -0.4706536681341798 0 0.20514824328661729 -0.46202741221570909 0 0.19570534414122639 -0.45380408451310622 0 0.19451263454732309 -0.46477005656079801 0 0.1899593126342847 -0.4747653319854816 0 0.20514824328661729 -0.46202741221570909 0 0.1899593126342847 -0.4747653319854816 0 0.20514824328661729 -0.46202741221570909 0 0.19451263454732309 -0.46477005656079801 0 0.19570534414122639 -0.45380408451310622 0 0.1993403717080024 -0.44384908052624972 0 0.18230729787602259 -0.44213642574464351 0 0.19570534414122639 -0.45380408451310622 0 0.18230729787602259 -0.44213642574464351 0 0.1993403717080024 -0.44384908052624972 0 0.19840517162958929 -0.43140403428655749 0 0.18230729787602259 -0.44213642574464351 0 0.2089148576777117 -0.43848702134918138 0 0.1993403717080024 -0.44384908052624972 0 0.19840517162958929 -0.43140403428655749 0 0.19570534414122639 -0.45380408451310622 0 0.1993403717080024 -0.44384908052624972 0 0.20172473719417791 -0.4496914734564163 0 0.20149739638147959 -0.45352874395124337 0 0.19570534414122639 -0.45380408451310622 0 0.20172473719417791 -0.4496914734564163 0 0.19840517162958929 -0.43140403428655749 0 0.20023146881517831 -0.41405977054180138 0 0.18090190862261141 -0.42040761985425151 0 0.20023146881517831 -0.41405977054180138 0 0.18382151258941101 -0.40339617765007901 0 0.18090190862261141 -0.42040761985425151 0 0.20023146881517831 -0.41405977054180138 0 0.2138457299470862 -0.42631439364826718 0 0.22132750300939 -0.40827257331142103 0 0.19840517162958929 -0.43140403428655749 0 0.20023146881517831 -0.41405977054180138 0 0.2138457299470862 -0.42631439364826718 0 0.22415731163507949 -0.44608580361513012 0 0.2089148576777117 -0.43848702134918138 0 0.2138457299470862 -0.42631439364826718 0 0.2089148576777117 -0.43848702134918138 0 0.19840517162958929 -0.43140403428655749 0 0.2138457299470862 -0.42631439364826718 0 0.2138457299470862 -0.42631439364826718 0 0.23616224894315441 -0.43146985771271562 0 0.2138457299470862 -0.42631439364826718 0 0.23616224894315441 -0.43146985771271562 0 0.22132750300939 -0.40827257331142103 0 0.22415731163507949 -0.44608580361513012 0 0.2138457299470862 -0.42631439364826718 0 0.23616224894315441 -0.43146985771271562 0 0.25515483786095622 -0.43199119370722189 0 0.25847876793922242 -0.43662532177716418 0 0.23616224894315441 -0.43146985771271562 0 0.25847876793922242 -0.43662532177716418 0 0.23616224894315441 -0.43146985771271562 0 0.25515483786095622 -0.43199119370722189 0 0.23616224894315441 -0.43146985771271562 0 0.240709786834191 -0.41068323358564363 0 0.25515483786095622 -0.43199119370722189 0 0.240709786834191 -0.41068323358564363 0 0.23616224894315441 -0.43146985771271562 0 0.240709786834191 -0.41068323358564363 0 0.22132750300939 -0.40827257331142103 0 0.240709786834191 -0.41068323358564363 0 0.2262647358074259 -0.3893752734640652 0 0.240709786834191 -0.41068323358564363 0 0.22132750300939 -0.40827257331142103 0 0.2262647358074259 -0.3893752734640652 0 0.25446924412686628 -0.3997970634160336 0 0.240709786834191 -0.41068323358564363 0 0.24382455408408349 -0.39502918037246798 0 0.240709786834191 -0.41068323358564363 0 0.24382455408408349 -0.39502918037246798 0 0.2262647358074259 -0.3893752734640652 0 0.2538544495678508 -0.38026115102412972 0 0.24382455408408349 -0.39502918037246798 0 0.2262647358074259 -0.3893752734640652 0 0.2538544495678508 -0.38026115102412972 0 0.23307765763782529 -0.37577017986368932 0 0.2262647358074259 -0.3893752734640652 0 0.2538544495678508 -0.38026115102412972 0 0.2262647358074259 -0.3893752734640652 0 0.23307765763782529 -0.37577017986368932 0 0.2262647358074259 -0.3893752734640652 0 0.2169013460475788 -0.37556329486766332 0 0.2262647358074259 -0.3893752734640652 0 0.2169013460475788 -0.37556329486766332 0 0.20159523996386011 -0.37479034145554613 0 0.2169013460475788 -0.37556329486766332 0 0.20504312419841841 -0.39638572555707191 0 0.2262647358074259 -0.3893752734640652 0 0.2169013460475788 -0.37556329486766332 0 0.20504312419841841 -0.39638572555707191 0 0.20023146881517831 -0.41405977054180138 0 0.22132750300939 -0.40827257331142103 0 0.20504312419841841 -0.39638572555707191 0 0.22132750300939 -0.40827257331142103 0 0.2262647358074259 -0.3893752734640652 0 0.20504312419841841 -0.39638572555707191 0 0.2262647358074259 -0.3893752734640652 0 0.20504312419841841 -0.39638572555707191 0 0.20023146881517831 -0.41405977054180138 0 0.20504312419841841 -0.39638572555707191 0 0.18382151258941101 -0.40339617765007901 0 0.20504312419841841 -0.39638572555707191 0 0.18382151258941101 -0.40339617765007901 0 0.20504312419841841 -0.39638572555707191 0 0.18712911927873321 -0.38025258625828329 0 0.18382151258941101 -0.40339617765007901 0 0.20159523996386011 -0.37479034145554613 0 0.20504312419841841 -0.39638572555707191 0 0.18712911927873321 -0.38025258625828329 0 0.16876623378044389 -0.36696808643773499 0 0.18712911927873321 -0.38025258625828329 0 0.17094872869333261 -0.38591523457000099 0 0.18712911927873321 -0.38025258625828329 0 0.18382151258941101 -0.40339617765007901 0 0.17094872869333261 -0.38591523457000099 0 0.18382151258941101 -0.40339617765007901 0 0.16832186376712491 -0.40297228074575397 0 0.17094872869333261 -0.38591523457000099 0 0.16832186376712491 -0.40297228074575397 0 0.17094872869333261 -0.38591523457000099 0 0.15464590186979929 -0.39417569241289641 0 0.16832186376712491 -0.40297228074575397 0 0.15464590186979929 -0.39417569241289641 0 0.155287023332779 -0.40759417787625318 0 0.16876623378044389 -0.36696808643773499 0 0.1493375100281627 -0.37488507626872591 0 0.17094872869333261 -0.38591523457000099 0 0.1493375100281627 -0.37488507626872591 0 0.17094872869333261 -0.38591523457000099 0 0.15464590186979929 -0.39417569241289641 0 0.1493375100281627 -0.37488507626872591 0 0.14076149295236509 -0.38849262228764209 0 0.15464590186979929 -0.39417569241289641 0 0.14076149295236509 -0.38849262228764209 0 0.12967895120999531 -0.37827397464121698 0 0.12898397939606729 -0.395830971041081 0 0.12967895120999531 -0.37827397464121698 0 0.12898397939606729 -0.395830971041081 0 0.11698802941385079 -0.3896879892394996 0 0.1493375100281627 -0.37488507626872591 0 0.14076149295236509 -0.38849262228764209 0 0.12967895120999531 -0.37827397464121698 0 0.14076149295236509 -0.38849262228764209 0 0.12898397939606729 -0.395830971041081 0 0.1418383771110247 -0.40406859573290421 0 0.12898397939606729 -0.395830971041081 0 0.1418383771110247 -0.40406859573290421 0 0.1292500346185953 -0.40822215490943908 0 0.14076149295236509 -0.38849262228764209 0 0.1418383771110247 -0.40406859573290421 0 0.15464590186979929 -0.39417569241289641 0 0.1418383771110247 -0.40406859573290421 0 0.15464590186979929 -0.39417569241289641 0 0.155287023332779 -0.40759417787625318 0 0.1418383771110247 -0.40406859573290421 0 0.155287023332779 -0.40759417787625318 0 0.14858961393615949 -0.41809949503152399 0 0.155287023332779 -0.40759417787625318 0 0.14858961393615949 -0.41809949503152399 0 0.16205421110097029 -0.41982168376519269 0 0.1418383771110247 -0.40406859573290421 0 0.14858961393615949 -0.41809949503152399 0 0.13517593168618289 -0.41811928144859278 0 0.1418383771110247 -0.40406859573290421 0 0.13517593168618289 -0.41811928144859278 0 0.1292500346185953 -0.40822215490943908 0 0.13517593168618289 -0.41811928144859278 0 0.1292500346185953 -0.40822215490943908 0 0.12434210736262161 -0.41825534171125778 0 0.13393892679714869 -0.43405812247418879 0 0.122777440871759 -0.44550356114083911 0 0.12434210736262161 -0.41825534171125778 0 0.13517593168618289 -0.41811928144859278 0 0.13393892679714869 -0.43405812247418879 0 0.14809995201043269 -0.4414771654881795 0 0.13517593168618289 -0.41811928144859278 0 0.13393892679714869 -0.43405812247418879 0 0.12434210736262161 -0.41825534171125778 0 0.14858961393615949 -0.41809949503152399 0 0.16205421110097029 -0.41982168376519269 0 0.14809995201043269 -0.4414771654881795 0 0.14858961393615949 -0.41809949503152399 0 0.13517593168618289 -0.41811928144859278 0 0.14809995201043269 -0.4414771654881795 0 0.13517593168618289 -0.41811928144859278 0 0.14809995201043269 -0.4414771654881795 0 0.16811703529196989 -0.43432829509419052 0 0.16205421110097029 -0.41982168376519269 0 0.18090190862261141 -0.42040761985425151 0 0.16811703529196989 -0.43432829509419052 0 0.16205421110097029 -0.41982168376519269 0 0.14809995201043269 -0.4414771654881795 0 0.16832186376712491 -0.40297228074575397 0 0.16205421110097029 -0.41982168376519269 0 0.18090190862261141 -0.42040761985425151 0 0.16832186376712491 -0.40297228074575397 0 0.155287023332779 -0.40759417787625318 0 0.16205421110097029 -0.41982168376519269 0 0.18382151258941101 -0.40339617765007901 0 0.16832186376712491 -0.40297228074575397 0 0.18090190862261141 -0.42040761985425151 0 0.16811703529196989 -0.43432829509419052 0 0.18090190862261141 -0.42040761985425151 0 0.18230729787602259 -0.44213642574464351 0 0.19840517162958929 -0.43140403428655749 0 0.18090190862261141 -0.42040761985425151 0 0.18230729787602259 -0.44213642574464351 0 0.19570534414122639 -0.45380408451310622 0 0.18230729787602259 -0.44213642574464351 0 0.17811988207893889 -0.45598145307937671 0 0.18230729787602259 -0.44213642574464351 0 0.17811988207893889 -0.45598145307937671 0 0.16722180684981239 -0.44779858061868549 0 0.16811703529196989 -0.43432829509419052 0 0.18230729787602259 -0.44213642574464351 0 0.16722180684981239 -0.44779858061868549 0 0.19570534414122639 -0.45380408451310622 0 0.17811988207893889 -0.45598145307937671 0 0.18523786306158879 -0.4706536681341798 0 0.17811988207893889 -0.45598145307937671 0 0.16102397233468249 -0.46483504952776622 0 0.18523786306158879 -0.4706536681341798 0 0.17811988207893889 -0.45598145307937671 0 0.16102397233468249 -0.46483504952776622 0 0.16722180684981239 -0.44779858061868549 0 0.16811703529196989 -0.43432829509419052 0 0.16722180684981239 -0.44779858061868549 0 0.14809995201043269 -0.4414771654881795 0 0.16102397233468249 -0.46483504952776622 0 0.16722180684981239 -0.44779858061868549 0 0.14809995201043269 -0.4414771654881795 0 0.13393892679714869 -0.43405812247418879 0 0.14809995201043269 -0.4414771654881795 0 0.122777440871759 -0.44550356114083911 0 0.14809995201043269 -0.4414771654881795 0 0.14062594896277411 -0.46631713980851719 0 0.122777440871759 -0.44550356114083911 0 0.14062594896277411 -0.46631713980851719 0 0.1212127743808963 -0.47275178057042022 0 0.122777440871759 -0.44550356114083911 0 0.16102397233468249 -0.46483504952776622 0 0.14809995201043269 -0.4414771654881795 0 0.16102397233468249 -0.46483504952776622 0 0.14809995201043269 -0.4414771654881795 0 0.14062594896277411 -0.46631713980851719 0 0.14062594896277411 -0.46631713980851719 0 0.1505024357198313 -0.48069841253284429 0 0.13513821192576089 -0.4853120105006935 0 0.16102397233468249 -0.46483504952776622 0 0.14062594896277411 -0.46631713980851719 0 0.1505024357198313 -0.48069841253284429 0 0.14062594896277411 -0.46631713980851719 0 0.13513821192576089 -0.4853120105006935 0 0.1212127743808963 -0.47275178057042022 0 0.13513821192576089 -0.4853120105006935 0 0.11964810789003361 -0.50000000000000144 0 0.1212127743808963 -0.47275178057042022 0 0.13513821192576089 -0.4853120105006935 0 0.13975856829884331 -0.5 0 0.11964810789003361 -0.50000000000000144 0 0.13513821192576089 -0.4853120105006935 0 0.13975856829884331 -0.5 0 0.14714148410751271 -0.49166547072015532 0 0.13975856829884331 -0.5 0 0.14714148410751271 -0.49166547072015532 0 0.1554651971079932 -0.49906057897089329 0 0.13975856829884331 -0.5 0 0.1554651971079932 -0.49906057897089329 0 0.15986902870765299 -0.49999999999999822 0 0.1505024357198313 -0.48069841253284429 0 0.13513821192576089 -0.4853120105006935 0 0.14714148410751271 -0.49166547072015532 0 0.1505024357198313 -0.48069841253284429 0 0.14714148410751271 -0.49166547072015532 0 0.15615200656250169 -0.49008956132037879 0 0.1505024357198313 -0.48069841253284429 0 0.15615200656250169 -0.49008956132037879 0 0.16189688412451289 -0.48395869488739912 0 0.14714148410751271 -0.49166547072015532 0 0.15615200656250169 -0.49008956132037879 0 0.1554651971079932 -0.49906057897089329 0 0.1554651971079932 -0.49906057897089329 0 0.15986902870765299 -0.49999999999999822 0 0.1657540317526591 -0.49506464949060303 0 0.1554651971079932 -0.49906057897089329 0 0.1657540317526591 -0.49506464949060303 0 0.15615200656250169 -0.49008956132037879 0 0.1554651971079932 -0.49906057897089329 0 0.1657540317526591 -0.49506464949060303 0 0.15986902870765299 -0.49999999999999822 0 0.1657540317526591 -0.49506464949060303 0 0.15986902870765299 -0.49999999999999822 0 0.16700701650357369 -0.50000000000000044 0 0.1657540317526591 -0.49506464949060303 0 0.16700701650357369 -0.50000000000000044 0 0.1657540317526591 -0.49506464949060303 0 0.17144641359935539 -0.49285386885121679 0 0.1657540317526591 -0.49506464949060303 0 0.17144641359935539 -0.49285386885121679 0 0.16700701650357369 -0.50000000000000044 0 0.17144641359935539 -0.49285386885121679 0 0.1657540317526591 -0.49506464949060303 0 0.17394799265893171 -0.48819293356735338 0 0.1657540317526591 -0.49506464949060303 0 0.17144641359935539 -0.49285386885121679 0 0.17394799265893171 -0.48819293356735338 0 0.1657540317526591 -0.49506464949060303 0 0.16189688412451289 -0.48395869488739912 0 0.17394799265893171 -0.48819293356735338 0 0.15615200656250169 -0.49008956132037879 0 0.1657540317526591 -0.49506464949060303 0 0.16189688412451289 -0.48395869488739912 0 0.16102397233468249 -0.46483504952776622 0 0.16189688412451289 -0.48395869488739912 0 0.17394799265893171 -0.48819293356735338 0 0.16102397233468249 -0.46483504952776622 0 0.1505024357198313 -0.48069841253284429 0 0.16189688412451289 -0.48395869488739912 0 0.16102397233468249 -0.46483504952776622 0 0.17394799265893171 -0.48819293356735338 0 0.16102397233468249 -0.46483504952776622 0 0.18523786306158879 -0.4706536681341798 0 0.17394799265893171 -0.48819293356735338 0 0.18523786306158879 -0.4706536681341798 0 0.17394799265893171 -0.48819293356735338 0 0.19743128905478771 -0.48276198444836821 0 0.1899593126342847 -0.4747653319854816 0 0.17394799265893171 -0.48819293356735338 0 0.1899593126342847 -0.4747653319854816 0 0.17394799265893171 -0.48819293356735338 0 0.1899593126342847 -0.4747653319854816 0 0.18523786306158879 -0.4706536681341798 0 0.17394799265893171 -0.48819293356735338 0 0.19743128905478771 -0.48276198444836821 0 0.18048089462413969 -0.50000000000000011 0 0.17562827042658291 -0.49122973885443882 0 0.19743128905478771 -0.48276198444836821 0 0.17562827042658291 -0.49122973885443882 0 0.17394799265893171 -0.48819293356735338 0 0.19743128905478771 -0.48276198444836821 0 0.17562827042658291 -0.49122973885443882 0 0.17144641359935539 -0.49285386885121679 0 0.18048089462413969 -0.50000000000000011 0 0.17562827042658291 -0.49122973885443882 0 0.16700701650357369 -0.50000000000000044 0 0.17144641359935539 -0.49285386885121679 0 0.18048089462413969 -0.50000000000000011 0 0.18048089462413969 -0.50000000000000011 0 0.17562827042658291 -0.49122973885443882 0 0.17144641359935539 -0.49285386885121679 0 0.17562827042658291 -0.49122973885443882 0 0.17394799265893171 -0.48819293356735338 0 0.17144641359935539 -0.49285386885121679 0 0.17394799265893171 -0.48819293356735338 0 0.17144641359935539 -0.49285386885121679 0 0.17562827042658291 -0.49122973885443882 0 0.17562827042658291 -0.49122973885443882 0 0.17394799265893171 -0.48819293356735338 0 0.072523598967310116 -0.4888021335281445 0 0.090884439382532323 -0.5 0 0.062120770875030977 -0.50000000000000366 0 0.072523598967310116 -0.4888021335281445 0 0.056383224355070281 -0.47657281042145277 0 0.062120770875030977 -0.50000000000000366 0 0.072523598967310116 -0.4888021335281445 0 0.080705961256606867 -0.47863572369112523 0 0.056383224355070281 -0.47657281042145277 0 0.080705961256606867 -0.47863572369112523 0 0.069484618871534815 -0.46299567541230202 0 0.056383224355070281 -0.47657281042145277 0 0.080705961256606867 -0.47863572369112523 0 0.090884439382532323 -0.5 0 0.10316165778616671 -0.48573133023810811 0 0.072523598967310116 -0.4888021335281445 0 0.080705961256606867 -0.47863572369112523 0 0.090884439382532323 -0.5 0 0.090884439382532323 -0.5 0 0.10316165778616671 -0.48573133023810811 0 0.11964810789003361 -0.50000000000000144 0 0.11964810789003361 -0.50000000000000144 0 0.1212127743808963 -0.47275178057042022 0 0.10316165778616671 -0.48573133023810811 0 0.11964810789003361 -0.50000000000000144 0 0.1212127743808963 -0.47275178057042022 0 0.10316165778616671 -0.48573133023810811 0 0.1212127743808963 -0.47275178057042022 0 0.09914777432053215 -0.46918264736854759 0 0.080705961256606867 -0.47863572369112523 0 0.10316165778616671 -0.48573133023810811 0 0.09914777432053215 -0.46918264736854759 0 0.09914777432053215 -0.46918264736854759 0 0.1031698877339266 -0.45074211241782142 0 0.085479024712474372 -0.45748307146933659 0 0.1212127743808963 -0.47275178057042022 0 0.09914777432053215 -0.46918264736854759 0 0.1031698877339266 -0.45074211241782142 0 0.1212127743808963 -0.47275178057042022 0 0.122777440871759 -0.44550356114083911 0 0.1212127743808963 -0.47275178057042022 0 0.122777440871759 -0.44550356114083911 0 0.1031698877339266 -0.45074211241782142 0 0.122777440871759 -0.44550356114083911 0 0.1031698877339266 -0.45074211241782142 0 0.10567379756112789 -0.4276580960627499 0 0.1031698877339266 -0.45074211241782142 0 0.086834942824301056 -0.44051606232031881 0 0.10567379756112789 -0.4276580960627499 0 0.1031698877339266 -0.45074211241782142 0 0.086834942824301056 -0.44051606232031881 0 0.085479024712474372 -0.45748307146933659 0 0.086834942824301056 -0.44051606232031881 0 0.085479024712474372 -0.45748307146933659 0 0.070647920541861697 -0.44817046320525339 0 0.080705961256606867 -0.47863572369112523 0 0.09914777432053215 -0.46918264736854759 0 0.085479024712474372 -0.45748307146933659 0 0.080705961256606867 -0.47863572369112523 0 0.085479024712474372 -0.45748307146933659 0 0.069484618871534815 -0.46299567541230202 0 0.085479024712474372 -0.45748307146933659 0 0.069484618871534815 -0.46299567541230202 0 0.070647920541861697 -0.44817046320525339 0 0.069484618871534815 -0.46299567541230202 0 0.070647920541861697 -0.44817046320525339 0 0.050645677835110432 -0.45314562084290172 0 0.086834942824301056 -0.44051606232031881 0 0.070647920541861697 -0.44817046320525339 0 0.071392601351870283 -0.43590311705869839 0 0.070647920541861697 -0.44817046320525339 0 0.071392601351870283 -0.43590311705869839 0 0.060050657655879219 -0.43897923212796353 0 0.071392601351870283 -0.43590311705869839 0 0.06298473753662498 -0.42546507049581828 0 0.081085139387995248 -0.42216882627661351 0 0.071392601351870283 -0.43590311705869839 0 0.06298473753662498 -0.42546507049581828 0 0.060050657655879219 -0.43897923212796353 0 0.06298473753662498 -0.42546507049581828 0 0.067855943763572929 -0.41168210360983598 0 0.081085139387995248 -0.42216882627661351 0 0.067855943763572929 -0.41168210360983598 0 0.081085139387995248 -0.42216882627661351 0 0.079808292333534564 -0.40341575576055072 0 0.081085139387995248 -0.42216882627661351 0 0.096884421329077305 -0.4086392921372059 0 0.079808292333534564 -0.40341575576055072 0 0.086834942824301056 -0.44051606232031881 0 0.081085139387995248 -0.42216882627661351 0 0.10567379756112789 -0.4276580960627499 0 0.086834942824301056 -0.44051606232031881 0 0.071392601351870283 -0.43590311705869839 0 0.081085139387995248 -0.42216882627661351 0 0.122777440871759 -0.44550356114083911 0 0.12434210736262161 -0.41825534171125778 0 0.122777440871759 -0.44550356114083911 0 0.10567379756112789 -0.4276580960627499 0 0.12434210736262161 -0.41825534171125778 0 0.10567379756112789 -0.4276580960627499 0 0.12434210736262161 -0.41825534171125778 0 0.1110803933665772 -0.4154722239361916 0 0.1292500346185953 -0.40822215490943908 0 0.12434210736262161 -0.41825534171125778 0 0.11590977753708009 -0.40483658461335997 0 0.12434210736262161 -0.41825534171125778 0 0.1110803933665772 -0.4154722239361916 0 0.11590977753708009 -0.40483658461335997 0 0.081085139387995248 -0.42216882627661351 0 0.10567379756112789 -0.4276580960627499 0 0.096884421329077305 -0.4086392921372059 0 0.1110803933665772 -0.4154722239361916 0 0.096884421329077305 -0.4086392921372059 0 0.11590977753708009 -0.40483658461335997 0 0.10567379756112789 -0.4276580960627499 0 0.1110803933665772 -0.4154722239361916 0 0.096884421329077305 -0.4086392921372059 0 0.10567379756112789 -0.4276580960627499 0 0.096884421329077305 -0.4086392921372059 0 0.096884421329077305 -0.4086392921372059 0 0.10291274487302091 -0.3932538950882325 0 0.11590977753708009 -0.40483658461335997 0 0.096884421329077305 -0.4086392921372059 0 0.10291274487302091 -0.3932538950882325 0 0.088095045097026731 -0.38962048821166179 0 0.10291274487302091 -0.3932538950882325 0 0.11590977753708009 -0.40483658461335997 0 0.11698802941385079 -0.3896879892394996 0 0.12898397939606729 -0.395830971041081 0 0.11590977753708009 -0.40483658461335997 0 0.11698802941385079 -0.3896879892394996 0 0.12898397939606729 -0.395830971041081 0 0.1292500346185953 -0.40822215490943908 0 0.11590977753708009 -0.40483658461335997 0 0.12967895120999531 -0.37827397464121698 0 0.11698802941385079 -0.3896879892394996 0 0.1171801822708201 -0.37005217928074918 0 0.11698802941385079 -0.3896879892394996 0 0.10713174670563839 -0.37967814221308499 0 0.1171801822708201 -0.37005217928074918 0 0.10291274487302091 -0.3932538950882325 0 0.10713174670563839 -0.37967814221308499 0 0.094842109667129831 -0.37822826797639908 0 0.10291274487302091 -0.3932538950882325 0 0.11698802941385079 -0.3896879892394996 0 0.10713174670563839 -0.37967814221308499 0 0.10291274487302091 -0.3932538950882325 0 0.094842109667129831 -0.37822826797639908 0 0.088095045097026731 -0.38962048821166179 0 0.10713174670563839 -0.37967814221308499 0 0.094842109667129831 -0.37822826797639908 0 0.1026554928386751 -0.36819229633688272 0 0.094842109667129831 -0.37822826797639908 0 0.088095045097026731 -0.38962048821166179 0 0.079305668864976642 -0.37060168428611751 0 0.088095045097026731 -0.38962048821166179 0 0.079305668864976642 -0.37060168428611751 0 0.088095045097026731 -0.38962048821166179 0 0.071974047336814742 -0.38660216008215648 0 0.079305668864976642 -0.37060168428611751 0 0.096884421329077305 -0.4086392921372059 0 0.088095045097026731 -0.38962048821166179 0 0.079808292333534564 -0.40341575576055072 0 0.096884421329077305 -0.4086392921372059 0 0.088095045097026731 -0.38962048821166179 0 0.088095045097026731 -0.38962048821166179 0 0.079808292333534564 -0.40341575576055072 0 0.071974047336814742 -0.38660216008215648 0 0.067855943763572929 -0.41168210360983598 0 0.079808292333534564 -0.40341575576055072 0 0.062552439613760669 -0.39778543522307502 0 0.079808292333534564 -0.40341575576055072 0 0.062552439613760669 -0.39778543522307502 0 0.071974047336814742 -0.38660216008215648 0 0.062552439613760669 -0.39778543522307502 0 0.071974047336814742 -0.38660216008215648 0 0.056369353570104627 -0.37673286819668261 0 0.071974047336814742 -0.38660216008215648 0 0.056369353570104627 -0.37673286819668261 0 0.079305668864976642 -0.37060168428611751 0 0.062552439613760669 -0.39778543522307502 0 0.056369353570104627 -0.37673286819668261 0 0.048358024544725681 -0.39381100512157607 0 0.062552439613760669 -0.39778543522307502 0 0.048358024544725681 -0.39381100512157607 0 0.052615951745281692 -0.41433871263744859 0 0.033433038275232647 -0.38286405210724778 0 0.025921162299813449 -0.39618933592425049 0 0.039170584795190713 -0.40629124168579939 0 0.048358024544725681 -0.39381100512157607 0 0.033433038275232647 -0.38286405210724778 0 0.039170584795190713 -0.40629124168579939 0 0.048358024544725681 -0.39381100512157607 0 0.039170584795190713 -0.40629124168579939 0 0.052615951745281692 -0.41433871263744859 0 0.033433038275232647 -0.38286405210724778 0 0.039170584795190713 -0.40629124168579939 0 0.056369353570104627 -0.37673286819668261 0 0.033433038275232647 -0.38286405210724778 0 0.041775920757968363 -0.37507092929996488 0 0.056369353570104627 -0.37673286819668261 0 0.033433038275232647 -0.38286405210724778 0 0.056369353570104627 -0.37673286819668261 0 0.048358024544725681 -0.39381100512157607 0 0.033433038275232647 -0.38286405210724778 0 0.033433038275232647 -0.38286405210724778 0 0.041775920757968363 -0.37507092929996488 0 0.03519429668408669 -0.37693667165803613 0 0.033433038275232647 -0.38286405210724778 0 0.031439853222639778 -0.38134680443418678 0 0.02917149213729307 -0.38227912181231011 0 0.033433038275232647 -0.38286405210724778 0 0.03519429668408669 -0.37693667165803613 0 0.032900647557505637 -0.3806902277677644 0 0.032900647557505637 -0.3806902277677644 0 0.030700638650810901 -0.37675003666300738 0 0.030242958374787111 -0.37989740743881961 0 0.032900647557505637 -0.3806902277677644 0 0.031439853222639778 -0.38134680443418678 0 0.030242958374787111 -0.37989740743881961 0 0.033433038275232647 -0.38286405210724778 0 0.032900647557505637 -0.3806902277677644 0 0.031439853222639778 -0.38134680443418678 0 0.033433038275232647 -0.38286405210724778 0 0.032900647557505637 -0.3806902277677644 0 0.03519429668408669 -0.37693667165803613 0 0.032900647557505637 -0.3806902277677644 0 0.030700638650810901 -0.37675003666300738 0 0.03519429668408669 -0.37693667165803613 0 0.030700638650810901 -0.37675003666300738 0 0.031640231502057289 -0.37231143786843879 0 0.030700638650810901 -0.37675003666300738 0 0.026979607214204879 -0.37910802929561821 0 0.024584159277916889 -0.37297410367608341 0 0.033433038275232647 -0.38286405210724778 0 0.01304644108142052 -0.38831366226035757 0 0.021681986234726489 -0.3913824457885815 0 0.033433038275232647 -0.38286405210724778 0 0.01304644108142052 -0.38831366226035757 0 0.033433038275232647 -0.38286405210724778 0 0.023820785480544199 -0.3834972168450041 0 0.01304644108142052 -0.38831366226035757 0 0.030700638650810901 -0.37675003666300738 0 0.030242958374787111 -0.37989740743881961 0 0.026979607214204879 -0.37910802929561821 0 0.031439853222639778 -0.38134680443418678 0 0.030242958374787111 -0.37989740743881961 0 0.02917149213729307 -0.38227912181231011 0 0.030242958374787111 -0.37989740743881961 0 0.02917149213729307 -0.38227912181231011 0 0.026979607214204879 -0.37910802929561821 0 0.02917149213729307 -0.38227912181231011 0 0.026979607214204879 -0.37910802929561821 0 0.023820785480544199 -0.3834972168450041 0 0.026979607214204879 -0.37910802929561821 0 0.022054458276207028 -0.37478508085391321 0 0.024584159277916889 -0.37297410367608341 0 0.033433038275232647 -0.38286405210724778 0 0.021681986234726489 -0.3913824457885815 0 0.025921162299813449 -0.39618933592425049 0 0.033433038275232647 -0.38286405210724778 0 0.02917149213729307 -0.38227912181231011 0 0.023820785480544199 -0.3834972168450041 0 0.023820785480544199 -0.3834972168450041 0 0.01870804139939395 -0.38173569192340989 0 0.01304644108142052 -0.38831366226035757 0 0.026979607214204879 -0.37910802929561821 0 0.023820785480544199 -0.3834972168450041 0 0.01870804139939395 -0.38173569192340989 0 0.026979607214204879 -0.37910802929561821 0 0.01275949946975607 -0.37541601939822422 0 0.026979607214204879 -0.37910802929561821 0 0.01275949946975607 -0.37541601939822422 0 0.018007025962361121 -0.37455640311761479 0 0.026979607214204879 -0.37910802929561821 0 0.01870804139939395 -0.38173569192340989 0 0.01275949946975607 -0.37541601939822422 0 0.026979607214204879 -0.37910802929561821 0 0.018007025962361121 -0.37455640311761479 0 0.022054458276207028 -0.37478508085391321 0 0.01870804139939395 -0.38173569192340989 0 0.01275949946975607 -0.37541601939822422 0 0.01304644108142052 -0.38831366226035757 0 0.01275949946975607 -0.37541601939822422 0 0.01027485318440405 -0.3804930435184613 0 0.01304644108142052 -0.38831366226035757 0 0.01275949946975607 -0.37541601939822422 0 0.01304644108142052 -0.38831366226035757 0 0.01275949946975607 -0.37541601939822422 0 0.0079698287346119858 -0.37815136780201852 0 0.01027485318440405 -0.3804930435184613 0 0.0083985185602050601 -0.38178363896437262 0 0.01027485318440405 -0.3804930435184613 0 0.0097307984233690366 -0.38449538460012977 0 0.0079698287346119858 -0.37815136780201852 0 0.0081601215361974538 -0.38005986426438021 0 0.01027485318440405 -0.3804930435184613 0 0.0083985185602050601 -0.38178363896437262 0 0.0081601215361974538 -0.38005986426438021 0 0.01027485318440405 -0.3804930435184613 0 0.01027485318440405 -0.3804930435184613 0 0.01304644108142052 -0.38831366226035757 0 0.0097307984233690366 -0.38449538460012977 0 0.01304644108142052 -0.38831366226035757 0 0.0098525977267297088 -0.38916741931494159 0 0.0097307984233690366 -0.38449538460012977 0 0.01304644108142052 -0.38831366226035757 0 0.0098525977267297088 -0.38916741931494159 0 0.0098525977267297088 -0.38916741931494159 0 0.0097307984233690366 -0.38449538460012977 0 0.0067653291121059379 -0.38457852686243832 0 0.0083985185602050601 -0.38178363896437262 0 0.0097307984233690366 -0.38449538460012977 0 0.0067653291121059379 -0.38457852686243832 0 0.0067653291121059379 -0.38457852686243832 0 0.0024663421228158611 -0.38577551295023971 0 0.005699638919037674 -0.38063327967320681 0 0.0098525977267297088 -0.38916741931494159 0 0.0024663421228158611 -0.38577551295023971 0 0.0005835934915041272 -0.3961125858119427 0 0.0098525977267297088 -0.38916741931494159 0 0.0067653291121059379 -0.38457852686243832 0 0.0024663421228158611 -0.38577551295023971 0 0.01275949946975607 -0.37541601939822422 0 0.0079698287346119858 -0.37815136780201852 0 0.002186550478631818 -0.37664663839193951 0 0.0024663421228158611 -0.38577551295023971 0 0.002186550478631818 -0.37664663839193951 0 0.005699638919037674 -0.38063327967320681 0 0.0079698287346119858 -0.37815136780201852 0 0.002186550478631818 -0.37664663839193951 0 0.005699638919037674 -0.38063327967320681 0 0.0083985185602050601 -0.38178363896437262 0 0.0081601215361974538 -0.38005986426438021 0 0.005699638919037674 -0.38063327967320681 0 0.0079698287346119858 -0.37815136780201852 0 0.0081601215361974538 -0.38005986426438021 0 0.005699638919037674 -0.38063327967320681 0 0.0083985185602050601 -0.38178363896437262 0 0.0067653291121059379 -0.38457852686243832 0 0.005699638919037674 -0.38063327967320681 0 0.0098525977267297088 -0.38916741931494159 0 0.0058266026647509706 -0.40564038898758092 0 0.0005835934915041272 -0.3961125858119427 0 0.01304644108142052 -0.38831366226035757 0 0.01370376318239616 -0.41785941428543089 0 0.01304644108142052 -0.38831366226035757 0 0.0098525977267297088 -0.38916741931494159 0 0.0058266026647509706 -0.40564038898758092 0 0.01304644108142052 -0.38831366226035757 0 0.0058266026647509706 -0.40564038898758092 0 0.01370376318239616 -0.41785941428543089 0 0.01304644108142052 -0.38831366226035757 0 0.01855161994556553 -0.39951765000589268 0 0.01370376318239616 -0.41785941428543089 0 -0.001367206077267252 -0.40650877190431511 0 0.0058266026647509706 -0.40564038898758092 0 0.0005835934915041272 -0.3961125858119427 0 0.01855161994556553 -0.39951765000589268 0 0.021044944843924929 -0.40469021498548191 0 0.025921162299813449 -0.39618933592425049 0 0.021044944843924929 -0.40469021498548191 0 0.025921162299813449 -0.39618933592425049 0 0.039170584795190713 -0.40629124168579939 0 0.01855161994556553 -0.39951765000589268 0 0.021681986234726489 -0.3913824457885815 0 0.025921162299813449 -0.39618933592425049 0 0.01304644108142052 -0.38831366226035757 0 0.01855161994556553 -0.39951765000589268 0 0.021681986234726489 -0.3913824457885815 0 0.021044944843924929 -0.40469021498548191 0 0.027012183416916889 -0.43027242003771687 0 0.021044944843924929 -0.40469021498548191 0 0.027012183416916889 -0.43027242003771687 0 0.039170584795190713 -0.40629124168579939 0 0.021044944843924929 -0.40469021498548191 0 0.01370376318239616 -0.41785941428543089 0 0.027012183416916889 -0.43027242003771687 0 0.01855161994556553 -0.39951765000589268 0 0.021044944843924929 -0.40469021498548191 0 0.01370376318239616 -0.41785941428543089 0 0.0058266026647509706 -0.40564038898758092 0 0.01370376318239616 -0.41785941428543089 0 0.0062077999202321578 -0.41939994597139402 0 0.01370376318239616 -0.41785941428543089 0 0.01379243660661106 -0.42184516647476122 0 -0.0018914237909277061 -0.41928909002879139 0 0.0058266026647509706 -0.40564038898758092 0 0.0062077999202321578 -0.41939994597139402 0 -0.0018914237909277061 -0.41928909002879139 0 -0.001367206077267252 -0.40650877190431511 0 0.0058266026647509706 -0.40564038898758092 0 0.01379243660661106 -0.42184516647476122 0 0.0061512126340387023 -0.43027995724634288 0 0.014361085283374009 -0.44740516631050431 0 0.01379243660661106 -0.42184516647476122 0 0.014361085283374009 -0.44740516631050431 0 -0.0082866790812689186 -0.43278516735961292 0 0.0061512126340387023 -0.43027995724634288 0 0.0030651850402754859 -0.4419511729918677 0 -0.0018914237909277061 -0.41928909002879139 0 0.0062077999202321578 -0.41939994597139402 0 0.0061512126340387023 -0.43027995724634288 0 0.01370376318239616 -0.41785941428543089 0 0.01379243660661106 -0.42184516647476122 0 0.0061512126340387023 -0.43027995724634288 0 0.01370376318239616 -0.41785941428543089 0 0.0062077999202321578 -0.41939994597139402 0 0.0061512126340387023 -0.43027995724634288 0 0.01379243660661106 -0.42184516647476122 0 0.027012183416916889 -0.43027242003771687 0 0.02252685740662155 -0.44170127483434202 0 0.01379243660661106 -0.42184516647476122 0 0.02252685740662155 -0.44170127483434202 0 0.014361085283374009 -0.44740516631050431 0 0.01379243660661106 -0.42184516647476122 0 0.02252685740662155 -0.44170127483434202 0 0.01370376318239616 -0.41785941428543089 0 0.01379243660661106 -0.42184516647476122 0 0.027012183416916889 -0.43027242003771687 0 0.027012183416916889 -0.43027242003771687 0 0.044908131315150583 -0.4297184312643505 0 0.039170584795190713 -0.40629124168579939 0 0.027012183416916889 -0.43027242003771687 0 0.044908131315150583 -0.4297184312643505 0 0.036319036272959002 -0.4415885815575693 0 0.044908131315150583 -0.4297184312643505 0 0.039170584795190713 -0.40629124168579939 0 0.044908131315150583 -0.4297184312643505 0 0.039170584795190713 -0.40629124168579939 0 0.052615951745281692 -0.41433871263744859 0 0.067855943763572929 -0.41168210360983598 0 0.062552439613760669 -0.39778543522307502 0 0.052615951745281692 -0.41433871263744859 0 0.06298473753662498 -0.42546507049581828 0 0.067855943763572929 -0.41168210360983598 0 0.052615951745281692 -0.41433871263744859 0 0.06298473753662498 -0.42546507049581828 0 0.044908131315150583 -0.4297184312643505 0 0.060050657655879219 -0.43897923212796353 0 0.06298473753662498 -0.42546507049581828 0 0.044908131315150583 -0.4297184312643505 0 0.052615951745281692 -0.41433871263744859 0 0.070647920541861697 -0.44817046320525339 0 0.060050657655879219 -0.43897923212796353 0 0.050645677835110432 -0.45314562084290172 0 0.044908131315150583 -0.4297184312643505 0 0.060050657655879219 -0.43897923212796353 0 0.050645677835110432 -0.45314562084290172 0 0.044908131315150583 -0.4297184312643505 0 0.050645677835110432 -0.45314562084290172 0 0.050645677835110432 -0.45314562084290172 0 0.043704775303735462 -0.46683991088465748 0 0.056383224355070281 -0.47657281042145277 0 0.069484618871534815 -0.46299567541230202 0 0.050645677835110432 -0.45314562084290172 0 0.056383224355070281 -0.47657281042145277 0 0.050645677835110432 -0.45314562084290172 0 0.056383224355070281 -0.47657281042145277 0 0.050645677835110432 -0.45314562084290172 0 0.04212350583237643 -0.45621135164791221 0 0.043704775303735462 -0.46683991088465748 0 0.043704775303735462 -0.46683991088465748 0 0.032979421989908837 -0.45585462508995189 0 0.038946660562901053 -0.4814368301421868 0 0.032979421989908837 -0.45585462508995189 0 0.038946660562901053 -0.4814368301421868 0 0.032979421989908837 -0.45585462508995189 0 0.0307367589847614 -0.4615690524882643 0 0.038946660562901053 -0.4814368301421868 0 0.04212350583237643 -0.45621135164791221 0 0.043704775303735462 -0.46683991088465748 0 0.032979421989908837 -0.45585462508995189 0 0.04212350583237643 -0.45621135164791221 0 0.032979421989908837 -0.45585462508995189 0 0.041164148200751011 -0.44900524977413792 0 0.044908131315150583 -0.4297184312643505 0 0.050645677835110432 -0.45314562084290172 0 0.041164148200751011 -0.44900524977413792 0 0.044908131315150583 -0.4297184312643505 0 0.041164148200751011 -0.44900524977413792 0 0.036319036272959002 -0.4415885815575693 0 0.027012183416916889 -0.43027242003771687 0 0.032979421989908837 -0.45585462508995189 0 0.036319036272959002 -0.4415885815575693 0 0.032979421989908837 -0.45585462508995189 0 0.041164148200751011 -0.44900524977413792 0 0.036319036272959002 -0.4415885815575693 0 0.050645677835110432 -0.45314562084290172 0 0.04212350583237643 -0.45621135164791221 0 0.041164148200751011 -0.44900524977413792 0 0.02252685740662155 -0.44170127483434202 0 0.0307367589847614 -0.4615690524882643 0 0.032979421989908837 -0.45585462508995189 0 0.02252685740662155 -0.44170127483434202 0 0.0307367589847614 -0.4615690524882643 0 0.027012183416916889 -0.43027242003771687 0 0.032979421989908837 -0.45585462508995189 0 0.02252685740662155 -0.44170127483434202 0 0.014361085283374009 -0.44740516631050431 0 0.0307367589847614 -0.4615690524882643 0 0.027012183416916889 -0.43027242003771687 0 0.032979421989908837 -0.45585462508995189 0 0.02252685740662155 -0.44170127483434202 0 -0.00056832804991988322 -0.45874236693044629 0 0.014361085283374009 -0.44740516631050431 0 0.0030651850402754859 -0.4419511729918677 0 0.0061512126340387023 -0.43027995724634288 0 0.014361085283374009 -0.44740516631050431 0 0.0030651850402754859 -0.4419511729918677 0 -0.00056832804991988322 -0.45874236693044629 0 0.014361085283374009 -0.44740516631050431 0 0.01501840738435186 -0.47695091833557768 0 0.014361085283374009 -0.44740516631050431 0 0.01501840738435186 -0.47695091833557768 0 0.014361085283374009 -0.44740516631050431 0 0.0307367589847614 -0.4615690524882643 0 0.01501840738435186 -0.47695091833557768 0 0.0307367589847614 -0.4615690524882643 0 0.02801443854686525 -0.47506186495463981 0 0.01501840738435186 -0.47695091833557768 0 0.02801443854686525 -0.47506186495463981 0 0.01501840738435186 -0.47695091833557768 0 0.0288216370802389 -0.48807010668290929 0 -0.00056832804991988322 -0.45874236693044629 0 -0.0045807544369819847 -0.48001459429476379 0 0.01501840738435186 -0.47695091833557768 0 -0.0045807544369819847 -0.48001459429476379 0 0.01501840738435186 -0.47695091833557768 0 0.017395201577052769 -0.5 0 -0.01182705985915739 -0.5 0 -0.0045807544369819847 -0.48001459429476379 0 0.017395201577052769 -0.5 0 0.017395201577052769 -0.5 0 0.0288216370802389 -0.48807010668290929 0 0.042936545922173122 -0.49854190548772259 0 0.01501840738435186 -0.47695091833557768 0 0.017395201577052769 -0.5 0 0.0288216370802389 -0.48807010668290929 0 0.042936545922173122 -0.49854190548772259 0 0.046617463013262993 -0.50000000000000067 0 0.038946660562901053 -0.4814368301421868 0 0.046617463013262993 -0.50000000000000067 0 0.038946660562901053 -0.4814368301421868 0 0.046617463013262993 -0.50000000000000067 0 0.038946660562901053 -0.4814368301421868 0 0.051017029701566317 -0.48950241014091 0 0.017395201577052769 -0.5 0 0.042936545922173122 -0.49854190548772259 0 0.046617463013262993 -0.50000000000000067 0 0.042936545922173122 -0.49854190548772259 0 0.038946660562901053 -0.4814368301421868 0 0.0288216370802389 -0.48807010668290929 0 0.042936545922173122 -0.49854190548772259 0 0.038946660562901053 -0.4814368301421868 0 0.043704775303735462 -0.46683991088465748 0 0.038946660562901053 -0.4814368301421868 0 0.056383224355070281 -0.47657281042145277 0 0.0307367589847614 -0.4615690524882643 0 0.02801443854686525 -0.47506186495463981 0 0.038946660562901053 -0.4814368301421868 0 0.02801443854686525 -0.47506186495463981 0 0.0288216370802389 -0.48807010668290929 0 0.038946660562901053 -0.4814368301421868 0 0.0307367589847614 -0.4615690524882643 0 0.038946660562901053 -0.4814368301421868 0 0.038946660562901053 -0.4814368301421868 0 0.056383224355070281 -0.47657281042145277 0 0.051017029701566317 -0.48950241014091 0 0.056383224355070281 -0.47657281042145277 0 0.062120770875030977 -0.50000000000000366 0 0.051017029701566317 -0.48950241014091 0 0.056383224355070281 -0.47657281042145277 0 0.062120770875030977 -0.50000000000000366 0 0.046617463013262993 -0.50000000000000067 0 0.062120770875030977 -0.50000000000000366 0 0.051017029701566317 -0.48950241014091 0 0.08777530595011683 -0.28182630112377172 0 0.077050552621789822 -0.29785353970087192 0 0.1033160195157084 -0.30330885777212269 0 0.077050552621789822 -0.29785353970087192 0 0.1033160195157084 -0.30330885777212269 0 0.0795417564418745 -0.3175415104018679 0 0.077050552621789822 -0.29785353970087192 0 0.0795417564418745 -0.3175415104018679 0 0.057046203864900773 -0.30225629559535921 0 0.0795417564418745 -0.3175415104018679 0 0.057046203864900773 -0.30225629559535921 0 0.08777530595011683 -0.28182630112377172 0 0.077050552621789822 -0.29785353970087192 0 0.067162563732714398 -0.28218339542873327 0 0.077050552621789822 -0.29785353970087192 0 0.067162563732714398 -0.28218339542873327 0 0.057046203864900773 -0.30225629559535921 0 0.067162563732714398 -0.28218339542873327 0 0.072234592384525217 -0.26034374447542058 0 0.058354565218051352 -0.26969349420616717 0 0.08777530595011683 -0.28182630112377172 0 0.067162563732714398 -0.28218339542873327 0 0.072234592384525217 -0.26034374447542058 0 0.072234592384525217 -0.26034374447542058 0 0.091717357283655473 -0.26261214023357998 0 0.077244090369030446 -0.24937400243974969 0 0.091717357283655473 -0.26261214023357998 0 0.077244090369030446 -0.24937400243974969 0 0.095652858460654439 -0.2440925638743634 0 0.08777530595011683 -0.28182630112377172 0 0.072234592384525217 -0.26034374447542058 0 0.08777530595011683 -0.28182630112377172 0 0.072234592384525217 -0.26034374447542058 0 0.091717357283655473 -0.26261214023357998 0 0.08777530595011683 -0.28182630112377172 0 0.091717357283655473 -0.26261214023357998 0 0.1110040395220085 -0.28035186938618639 0 0.091717357283655473 -0.26261214023357998 0 0.11752575702491661 -0.25624050287398092 0 0.1110040395220085 -0.28035186938618639 0 0.091717357283655473 -0.26261214023357998 0 0.11752575702491661 -0.25624050287398092 0 0.095652858460654439 -0.2440925638743634 0 0.13686069252858191 -0.2769085597194284 0 0.11752575702491661 -0.25624050287398092 0 0.1110040395220085 -0.28035186938618639 0 0.12882910482907181 -0.30121485459423503 0 0.1110040395220085 -0.28035186938618639 0 0.1033160195157084 -0.30330885777212269 0 0.08777530595011683 -0.28182630112377172 0 0.1110040395220085 -0.28035186938618639 0 0.1033160195157084 -0.30330885777212269 0 0.08777530595011683 -0.28182630112377172 0 0.1033160195157084 -0.30330885777212269 0 0.12882910482907181 -0.30121485459423503 0 0.1033160195157084 -0.30330885777212269 0 0.1188567330813 -0.32479141442047371 0 0.1033160195157084 -0.30330885777212269 0 0.1188567330813 -0.32479141442047371 0 0.12604582389339331 -0.34317988847961828 0 0.1188567330813 -0.32479141442047371 0 0.1075084221552743 -0.341345620057872 0 0.1075084221552743 -0.341345620057872 0 0.09779016609369541 -0.32630606194568068 0 0.091659426960919166 -0.34314702945206582 0 0.1188567330813 -0.32479141442047371 0 0.1075084221552743 -0.341345620057872 0 0.09779016609369541 -0.32630606194568068 0 0.1033160195157084 -0.30330885777212269 0 0.1188567330813 -0.32479141442047371 0 0.09779016609369541 -0.32630606194568068 0 0.13000289361066331 -0.36208612455862432 0 0.1171801822708201 -0.37005217928074918 0 0.1130759996764211 -0.35571570547643422 0 0.1171801822708201 -0.37005217928074918 0 0.1130759996764211 -0.35571570547643422 0 0.1026554928386751 -0.36819229633688272 0 0.13000289361066331 -0.36208612455862432 0 0.12604582389339331 -0.34317988847961828 0 0.1130759996764211 -0.35571570547643422 0 0.12604582389339331 -0.34317988847961828 0 0.1075084221552743 -0.341345620057872 0 0.1130759996764211 -0.35571570547643422 0 0.1075084221552743 -0.341345620057872 0 0.097622383225916903 -0.35493362057295919 0 0.091659426960919166 -0.34314702945206582 0 0.1075084221552743 -0.341345620057872 0 0.1130759996764211 -0.35571570547643422 0 0.097622383225916903 -0.35493362057295919 0 0.1130759996764211 -0.35571570547643422 0 0.097622383225916903 -0.35493362057295919 0 0.1026554928386751 -0.36819229633688272 0 0.097622383225916903 -0.35493362057295919 0 0.1026554928386751 -0.36819229633688272 0 0.08895195962344131 -0.36802310172241531 0 0.094842109667129831 -0.37822826797639908 0 0.1026554928386751 -0.36819229633688272 0 0.08895195962344131 -0.36802310172241531 0 0.10713174670563839 -0.37967814221308499 0 0.1171801822708201 -0.37005217928074918 0 0.1026554928386751 -0.36819229633688272 0 0.079305668864976642 -0.37060168428611751 0 0.08895195962344131 -0.36802310172241531 0 0.094842109667129831 -0.37822826797639908 0 0.079305668864976642 -0.37060168428611751 0 0.08895195962344131 -0.36802310172241531 0 0.097622383225916903 -0.35493362057295919 0 0.08895195962344131 -0.36802310172241531 0 0.082997975042530189 -0.35524798021857151 0 0.079305668864976642 -0.37060168428611751 0 0.08895195962344131 -0.36802310172241531 0 0.082997975042530189 -0.35524798021857151 0 0.082997975042530189 -0.35524798021857151 0 0.078988011880389092 -0.33603328754812578 0 0.091659426960919166 -0.34314702945206582 0 0.097622383225916903 -0.35493362057295919 0 0.082997975042530189 -0.35524798021857151 0 0.091659426960919166 -0.34314702945206582 0 0.082997975042530189 -0.35524798021857151 0 0.070191689438172514 -0.35088049098143881 0 0.078988011880389092 -0.33603328754812578 0 0.079305668864976642 -0.37060168428611751 0 0.082997975042530189 -0.35524798021857151 0 0.070191689438172514 -0.35088049098143881 0 0.056369353570104627 -0.37673286819668261 0 0.079305668864976642 -0.37060168428611751 0 0.0579396210714406 -0.36101311848213108 0 0.079305668864976642 -0.37060168428611751 0 0.070191689438172514 -0.35088049098143881 0 0.056369353570104627 -0.37673286819668261 0 0.079305668864976642 -0.37060168428611751 0 0.079305668864976642 -0.37060168428611751 0 0.070191689438172514 -0.35088049098143881 0 0.0579396210714406 -0.36101311848213108 0 0.09779016609369541 -0.32630606194568068 0 0.0795417564418745 -0.3175415104018679 0 0.078988011880389092 -0.33603328754812578 0 0.1033160195157084 -0.30330885777212269 0 0.09779016609369541 -0.32630606194568068 0 0.0795417564418745 -0.3175415104018679 0 0.09779016609369541 -0.32630606194568068 0 0.078988011880389092 -0.33603328754812578 0 0.091659426960919166 -0.34314702945206582 0 0.070191689438172514 -0.35088049098143881 0 0.078988011880389092 -0.33603328754812578 0 0.061077710011368948 -0.33115929767675978 0 0.0795417564418745 -0.3175415104018679 0 0.078988011880389092 -0.33603328754812578 0 0.061077710011368948 -0.33115929767675978 0 0.070191689438172514 -0.35088049098143881 0 0.061077710011368948 -0.33115929767675978 0 0.0795417564418745 -0.3175415104018679 0 0.061077710011368948 -0.33115929767675978 0 0.057046203864900773 -0.30225629559535921 0 0.061077710011368948 -0.33115929767675978 0 0.046357041313809799 -0.31756788373497008 0 0.057046203864900773 -0.30225629559535921 0 0.061077710011368948 -0.33115929767675978 0 0.038817528632063517 -0.33446758643270758 0 0.046357041313809799 -0.31756788373497008 0 0.061077710011368948 -0.33115929767675978 0 0.038817528632063517 -0.33446758643270758 0 0.048894992954108832 -0.35035838499931732 0 0.038817528632063517 -0.33446758643270758 0 0.033656969715846988 -0.31696668652322602 0 0.046357041313809799 -0.31756788373497008 0 0.033656969715846988 -0.31696668652322602 0 0.046357041313809799 -0.31756788373497008 0 0.039394616411875749 -0.30509407708308239 0 0.056369353570104627 -0.37673286819668261 0 0.0579396210714406 -0.36101311848213108 0 0.044656568014290937 -0.36483292491988117 0 0.056369353570104627 -0.37673286819668261 0 0.041775920757968363 -0.37507092929996488 0 0.044656568014290937 -0.36483292491988117 0 0.070191689438172514 -0.35088049098143881 0 0.0579396210714406 -0.36101311848213108 0 0.048894992954108832 -0.35035838499931732 0 0.070191689438172514 -0.35088049098143881 0 0.061077710011368948 -0.33115929767675978 0 0.048894992954108832 -0.35035838499931732 0 0.0579396210714406 -0.36101311848213108 0 0.048894992954108832 -0.35035838499931732 0 0.044656568014290937 -0.36483292491988117 0 0.038817528632063517 -0.33446758643270758 0 0.048894992954108832 -0.35035838499931732 0 0.031319288230065988 -0.35351081067275292 0 0.048894992954108832 -0.35035838499931732 0 0.031319288230065988 -0.35351081067275292 0 0.044656568014290937 -0.36483292491988117 0 0.031319288230065988 -0.35351081067275292 0 0.044656568014290937 -0.36483292491988117 0 0.031640231502057289 -0.37231143786843879 0 0.041775920757968363 -0.37507092929996488 0 0.03519429668408669 -0.37693667165803613 0 0.031640231502057289 -0.37231143786843879 0 0.041775920757968363 -0.37507092929996488 0 0.044656568014290937 -0.36483292491988117 0 0.031640231502057289 -0.37231143786843879 0 0.031319288230065988 -0.35351081067275292 0 0.031640231502057289 -0.37231143786843879 0 0.017523423221046108 -0.36314178125956748 0 0.018518592097831871 -0.37177455430138329 0 0.024584159277916889 -0.37297410367608341 0 0.017523423221046108 -0.36314178125956748 0 0.018518592097831871 -0.37177455430138329 0 0.017523423221046108 -0.36314178125956748 0 0.01476636486298607 -0.36860783529822588 0 0.018518592097831871 -0.37177455430138329 0 0.018007025962361121 -0.37455640311761479 0 0.022054458276207028 -0.37478508085391321 0 0.018518592097831871 -0.37177455430138329 0 0.018007025962361121 -0.37455640311761479 0 0.01501708627312524 -0.37190526932362272 0 0.018518592097831871 -0.37177455430138329 0 0.01476636486298607 -0.36860783529822588 0 0.01501708627312524 -0.37190526932362272 0 0.018518592097831871 -0.37177455430138329 0 0.022054458276207028 -0.37478508085391321 0 0.024584159277916889 -0.37297410367608341 0 0.031640231502057289 -0.37231143786843879 0 0.017523423221046108 -0.36314178125956748 0 0.031640231502057289 -0.37231143786843879 0 0.024584159277916889 -0.37297410367608341 0 0.017523423221046108 -0.36314178125956748 0 0.030700638650810901 -0.37675003666300738 0 0.031640231502057289 -0.37231143786843879 0 0.024584159277916889 -0.37297410367608341 0 0.031319288230065988 -0.35351081067275292 0 0.017523423221046108 -0.36314178125956748 0 0.01700093957239935 -0.34918480424343412 0 0.031319288230065988 -0.35351081067275292 0 0.01700093957239935 -0.34918480424343412 0 0.022804822986707139 -0.34051658065031859 0 0.01700093957239935 -0.34918480424343412 0 0.0075725997733496111 -0.34583881123027299 0 0.01278499068139871 -0.33663151026337917 0 0.01700093957239935 -0.34918480424343412 0 0.0075725997733496111 -0.34583881123027299 0 0.01028395355103637 -0.35262640903738868 0 0.001841636670160379 -0.34665091486273469 0 0.0013316416042528519 -0.34933408190008453 0 0.0048854604307610929 -0.35075075241288178 0 0.0013316416042528519 -0.34933408190008453 0 0.0048854604307610929 -0.35075075241288178 0 0.0034066149400347099 -0.3539721246506965 0 0.0075725997733496111 -0.34583881123027299 0 0.001841636670160379 -0.34665091486273469 0 0.0048854604307610929 -0.35075075241288178 0 0.0075725997733496111 -0.34583881123027299 0 0.0048854604307610929 -0.35075075241288178 0 0.01028395355103637 -0.35262640903738868 0 0.0048854604307610929 -0.35075075241288178 0 0.0034066149400347099 -0.3539721246506965 0 0.01028395355103637 -0.35262640903738868 0 -0.0028400579241715002 -0.35784654174796909 0 0.0034066149400347099 -0.3539721246506965 0 0.0029551226172910491 -0.36092099995658328 0 0.017523423221046108 -0.36314178125956748 0 0.0034066149400347099 -0.3539721246506965 0 0.0029551226172910491 -0.36092099995658328 0 0.017523423221046108 -0.36314178125956748 0 0.0034066149400347099 -0.3539721246506965 0 0.01028395355103637 -0.35262640903738868 0 0.017523423221046108 -0.36314178125956748 0 0.01700093957239935 -0.34918480424343412 0 0.01028395355103637 -0.35262640903738868 0 0.017523423221046108 -0.36314178125956748 0 0.0034066149400347099 -0.3539721246506965 0 -0.01389993942185256 -0.36849434805679587 0 0.01275949946975607 -0.37541601939822422 0 0.0088809091835504086 -0.36962472348447162 0 -0.01389993942185256 -0.36849434805679587 0 0.01275949946975607 -0.37541601939822422 0 0.002186550478631818 -0.37664663839193951 0 0.017523423221046108 -0.36314178125956748 0 0.01173394904941668 -0.36580170236414827 0 0.0029551226172910491 -0.36092099995658328 0 0.01173394904941668 -0.36580170236414827 0 0.0029551226172910491 -0.36092099995658328 0 0.0088809091835504086 -0.36962472348447162 0 0.017523423221046108 -0.36314178125956748 0 0.01173394904941668 -0.36580170236414827 0 0.01476636486298607 -0.36860783529822588 0 0.01173394904941668 -0.36580170236414827 0 0.0088809091835504086 -0.36962472348447162 0 0.01476636486298607 -0.36860783529822588 0 0.0088809091835504086 -0.36962472348447162 0 0.01476636486298607 -0.36860783529822588 0 0.01501708627312524 -0.37190526932362272 0 0.01275949946975607 -0.37541601939822422 0 0.0088809091835504086 -0.36962472348447162 0 0.01501708627312524 -0.37190526932362272 0 0.01275949946975607 -0.37541601939822422 0 0.018007025962361121 -0.37455640311761479 0 0.01501708627312524 -0.37190526932362272 0 0.033656969715846988 -0.31696668652322602 0 0.01549112275882299 -0.32370169872399879 0 0.02536221587689419 -0.30170843877300663 0 0.038817528632063517 -0.33446758643270758 0 0.033656969715846988 -0.31696668652322602 0 0.01549112275882299 -0.32370169872399879 0 0.022804822986707139 -0.34051658065031859 0 0.01278499068139871 -0.33663151026337917 0 0.01549112275882299 -0.32370169872399879 0 0.038817528632063517 -0.33446758643270758 0 0.022804822986707139 -0.34051658065031859 0 0.01549112275882299 -0.32370169872399879 0 0.038817528632063517 -0.33446758643270758 0 0.031319288230065988 -0.35351081067275292 0 0.022804822986707139 -0.34051658065031859 0 0.01700093957239935 -0.34918480424343412 0 0.022804822986707139 -0.34051658065031859 0 0.01278499068139871 -0.33663151026337917 0 0.01278499068139871 -0.33663151026337917 0 0.001363271001456459 -0.33695923204405698 0 0.01549112275882299 -0.32370169872399879 0 0.0075725997733496111 -0.34583881123027299 0 0.01278499068139871 -0.33663151026337917 0 0.001363271001456459 -0.33695923204405698 0 0.0075725997733496111 -0.34583881123027299 0 0.001841636670160379 -0.34665091486273469 0 0.001363271001456459 -0.33695923204405698 0 -0.001476048506313423 -0.31866223119492831 0 0.001363271001456459 -0.33695923204405698 0 0.01549112275882299 -0.32370169872399879 0 -0.001476048506313423 -0.31866223119492831 0 0.01549112275882299 -0.32370169872399879 0 0.007359152392873396 -0.30414063040254607 0 0.0001914317168464046 -0.28580454581531212 0 0.015903709997098829 -0.29006211235241142 0 0.012055098710953159 -0.27168586598234162 0 0.007359152392873396 -0.30414063040254607 0 0.0001914317168464046 -0.28580454581531212 0 0.015903709997098829 -0.29006211235241142 0 0.015903709997098829 -0.29006211235241142 0 0.034550651287926983 -0.28697108078885042 0 0.012055098710953159 -0.27168586598234162 0 0.015903709997098829 -0.29006211235241142 0 0.02536221587689419 -0.30170843877300663 0 0.034550651287926983 -0.28697108078885042 0 0.007359152392873396 -0.30414063040254607 0 0.015903709997098829 -0.29006211235241142 0 0.02536221587689419 -0.30170843877300663 0 0.01549112275882299 -0.32370169872399879 0 0.007359152392873396 -0.30414063040254607 0 0.02536221587689419 -0.30170843877300663 0 0.033656969715846988 -0.31696668652322602 0 0.02536221587689419 -0.30170843877300663 0 0.039394616411875749 -0.30509407708308239 0 0.02536221587689419 -0.30170843877300663 0 0.039394616411875749 -0.30509407708308239 0 0.034550651287926983 -0.28697108078885042 0 0.039394616411875749 -0.30509407708308239 0 0.034550651287926983 -0.28697108078885042 0 0.057046203864900773 -0.30225629559535921 0 0.034550651287926983 -0.28697108078885042 0 0.057046203864900773 -0.30225629559535921 0 0.034550651287926983 -0.28697108078885042 0 0.05221303970702286 -0.2820440811813012 0 0.057046203864900773 -0.30225629559535921 0 0.067162563732714398 -0.28218339542873327 0 0.05221303970702286 -0.2820440811813012 0 0.057046203864900773 -0.30225629559535921 0 0.046357041313809799 -0.31756788373497008 0 0.039394616411875749 -0.30509407708308239 0 0.057046203864900773 -0.30225629559535921 0 0.072234592384525217 -0.26034374447542058 0 0.052965403979121632 -0.25707746056184988 0 0.056693878818933591 -0.2388611878270695 0 0.072234592384525217 -0.26034374447542058 0 0.052965403979121632 -0.25707746056184988 0 0.058354565218051352 -0.26969349420616717 0 0.052965403979121632 -0.25707746056184988 0 0.058354565218051352 -0.26969349420616717 0 0.040705202576168893 -0.27141349039126161 0 0.05221303970702286 -0.2820440811813012 0 0.058354565218051352 -0.26969349420616717 0 0.040705202576168893 -0.27141349039126161 0 0.067162563732714398 -0.28218339542873327 0 0.05221303970702286 -0.2820440811813012 0 0.058354565218051352 -0.26969349420616717 0 0.034550651287926983 -0.28697108078885042 0 0.040705202576168893 -0.27141349039126161 0 0.027125632554202962 -0.26411667227267788 0 0.034550651287926983 -0.28697108078885042 0 0.05221303970702286 -0.2820440811813012 0 0.040705202576168893 -0.27141349039126161 0 0.040705202576168893 -0.27141349039126161 0 0.027125632554202962 -0.26411667227267788 0 0.033592769042577179 -0.24737273641319579 0 0.040705202576168893 -0.27141349039126161 0 0.033592769042577179 -0.24737273641319579 0 0.052965403979121632 -0.25707746056184988 0 0.040705202576168893 -0.27141349039126161 0 0.033592769042577179 -0.24737273641319579 0 0.027125632554202962 -0.26411667227267788 0 0.016385493269131319 -0.24616508638642151 0 0.033592769042577179 -0.24737273641319579 0 0.027125632554202962 -0.26411667227267788 0 0.012055098710953159 -0.27168586598234162 0 0.016385493269131319 -0.24616508638642151 0 0.034550651287926983 -0.28697108078885042 0 0.012055098710953159 -0.27168586598234162 0 0.034550651287926983 -0.28697108078885042 0 0.027125632554202962 -0.26411667227267788 0 0.012055098710953159 -0.27168586598234162 0 -0.0045210631122281813 -0.25968277032720372 0 0.0001914317168464046 -0.28580454581531212 0 0.012055098710953159 -0.27168586598234162 0 -0.0045210631122281813 -0.25968277032720372 0 0.012055098710953159 -0.27168586598234162 0 0.016385493269131319 -0.24616508638642151 0 0.0018127702096612051 -0.2393031948996299 0 0.011496042778778181 -0.22955315377658911 0 0.016385493269131319 -0.24616508638642151 0 -0.0045210631122281813 -0.25968277032720372 0 0.0018127702096612051 -0.2393031948996299 0 0.016385493269131319 -0.24616508638642151 0 -0.0017643924418505161 -0.22612608804366419 0 0.0018127702096612051 -0.2393031948996299 0 0.011496042778778181 -0.22955315377658911 0 -0.0017643924418505161 -0.22612608804366419 0 0.011496042778778181 -0.22955315377658911 0 0.01245535173546046 -0.2157811001206123 0 0.011496042778778181 -0.22955315377658911 0 0.026480335508985469 -0.22333198243513011 0 0.016385493269131319 -0.24616508638642151 0 0.011496042778778181 -0.22955315377658911 0 0.026480335508985469 -0.22333198243513011 0 0.01245535173546046 -0.2157811001206123 0 0.026480335508985469 -0.22333198243513011 0 0.033592769042577179 -0.24737273641319579 0 0.026480335508985469 -0.22333198243513011 0 0.016385493269131319 -0.24616508638642151 0 0.033592769042577179 -0.24737273641319579 0 -0.0011302105970761101 -0.2104360268166206 0 0.008872794213139211 -0.19712976163152199 0 0.019367901975393821 -0.19929122845706429 0 0.008872794213139211 -0.19712976163152199 0 0.019367901975393821 -0.19929122845706429 0 0.013347541516751091 -0.1789417933499465 0 -0.0011302105970761101 -0.2104360268166206 0 -0.0061723781852608727 -0.19741163018913069 0 0.008872794213139211 -0.19712976163152199 0 -0.0017643924418505161 -0.22612608804366419 0 -0.0011302105970761101 -0.2104360268166206 0 0.01245535173546046 -0.2157811001206123 0 -0.0011302105970761101 -0.2104360268166206 0 0.01245535173546046 -0.2157811001206123 0 0.019367901975393821 -0.19929122845706429 0 -0.0011302105970761101 -0.2104360268166206 0 0.019367901975393821 -0.19929122845706429 0 0.026480335508985469 -0.22333198243513011 0 0.02561245168775093 -0.19589607453036689 0 0.041153165253341971 -0.21737863117871839 0 0.026480335508985469 -0.22333198243513011 0 0.019367901975393821 -0.19929122845706429 0 0.02561245168775093 -0.19589607453036689 0 0.026480335508985469 -0.22333198243513011 0 0.01245535173546046 -0.2157811001206123 0 0.019367901975393821 -0.19929122845706429 0 0.026480335508985469 -0.22333198243513011 0 0.019367901975393821 -0.19929122845706429 0 0.019367901975393821 -0.19929122845706429 0 0.013347541516751091 -0.1789417933499465 0 0.019367901975393821 -0.19929122845706429 0 0.02561245168775093 -0.19589607453036689 0 0.013347541516751091 -0.1789417933499465 0 0.019367901975393821 -0.19929122845706429 0 0.02561245168775093 -0.19589607453036689 0 0.02561245168775093 -0.19589607453036689 0 0.050185858205179353 -0.18253554391194851 0 0.02561245168775093 -0.19589607453036689 0 0.043422456692973802 -0.19937456286738919 0 0.050185858205179353 -0.18253554391194851 0 0.02561245168775093 -0.19589607453036689 0 0.041153165253341971 -0.21737863117871839 0 0.043422456692973802 -0.19937456286738919 0 0.041153165253341971 -0.21737863117871839 0 0.055245531777217173 -0.20650890483112189 0 0.02561245168775093 -0.19589607453036689 0 0.043422456692973802 -0.19937456286738919 0 0.041153165253341971 -0.21737863117871839 0 0.041153165253341971 -0.21737863117871839 0 0.055245531777217173 -0.20650890483112189 0 0.060349251645149121 -0.22041913059510329 0 0.055245531777217173 -0.20650890483112189 0 0.060349251645149121 -0.22041913059510329 0 0.067451808187091525 -0.2052439642391955 0 0.043422456692973802 -0.19937456286738919 0 0.055245531777217173 -0.20650890483112189 0 0.063850977107529364 -0.19012823527520339 0 0.055245531777217173 -0.20650890483112189 0 0.067451808187091525 -0.2052439642391955 0 0.063850977107529364 -0.19012823527520339 0 0.043422456692973802 -0.19937456286738919 0 0.063850977107529364 -0.19012823527520339 0 0.050185858205179353 -0.18253554391194851 0 0.026480335508985469 -0.22333198243513011 0 0.033592769042577179 -0.24737273641319579 0 0.03884438012526719 -0.23274657217589509 0 0.033592769042577179 -0.24737273641319579 0 0.03884438012526719 -0.23274657217589509 0 0.056693878818933591 -0.2388611878270695 0 0.041153165253341971 -0.21737863117871839 0 0.03884438012526719 -0.23274657217589509 0 0.056693878818933591 -0.2388611878270695 0 0.026480335508985469 -0.22333198243513011 0 0.041153165253341971 -0.21737863117871839 0 0.03884438012526719 -0.23274657217589509 0 0.041153165253341971 -0.21737863117871839 0 0.056693878818933591 -0.2388611878270695 0 0.041153165253341971 -0.21737863117871839 0 0.060349251645149121 -0.22041913059510329 0 0.056693878818933591 -0.2388611878270695 0 0.052965403979121632 -0.25707746056184988 0 0.033592769042577179 -0.24737273641319579 0 0.056693878818933591 -0.2388611878270695 0 0.072234592384525217 -0.26034374447542058 0 0.056693878818933591 -0.2388611878270695 0 0.077244090369030446 -0.24937400243974969 0 0.077244090369030446 -0.24937400243974969 0 0.086078943868186 -0.2261208835917084 0 0.070742725852247293 -0.23052401487418259 0 0.072234592384525217 -0.26034374447542058 0 0.056693878818933591 -0.2388611878270695 0 0.056693878818933591 -0.2388611878270695 0 0.077244090369030446 -0.24937400243974969 0 0.070742725852247293 -0.23052401487418259 0 0.077244090369030446 -0.24937400243974969 0 0.086078943868186 -0.2261208835917084 0 0.095652858460654439 -0.2440925638743634 0 0.077244090369030446 -0.24937400243974969 0 0.086078943868186 -0.2261208835917084 0 0.086078943868186 -0.2261208835917084 0 0.070742725852247293 -0.23052401487418259 0 0.073347464559937278 -0.2178448699172818 0 0.060349251645149121 -0.22041913059510329 0 0.056693878818933591 -0.2388611878270695 0 0.070742725852247293 -0.23052401487418259 0 0.060349251645149121 -0.22041913059510329 0 0.070742725852247293 -0.23052401487418259 0 0.073347464559937278 -0.2178448699172818 0 0.060349251645149121 -0.22041913059510329 0 0.067451808187091525 -0.2052439642391955 0 0.073347464559937278 -0.2178448699172818 0 0.067451808187091525 -0.2052439642391955 0 0.073347464559937278 -0.2178448699172818 0 0.080768888572064698 -0.20333015281644981 0 0.067451808187091525 -0.2052439642391955 0 0.079458436540947322 -0.1892384899255522 0 0.080768888572064698 -0.20333015281644981 0 0.067451808187091525 -0.2052439642391955 0 0.063850977107529364 -0.19012823527520339 0 0.079458436540947322 -0.1892384899255522 0 0.079458436540947322 -0.1892384899255522 0 0.089722443336712671 -0.19376276334532369 0 0.10374865086649721 -0.1796146458956257 0 0.079458436540947322 -0.1892384899255522 0 0.089722443336712671 -0.19376276334532369 0 0.080768888572064698 -0.20333015281644981 0 0.089722443336712671 -0.19376276334532369 0 0.080768888572064698 -0.20333015281644981 0 0.094913797367341568 -0.20286776474366711 0 0.086078943868186 -0.2261208835917084 0 0.094913797367341568 -0.20286776474366711 0 0.086078943868186 -0.2261208835917084 0 0.073347464559937278 -0.2178448699172818 0 0.080768888572064698 -0.20333015281644981 0 0.086078943868186 -0.2261208835917084 0 0.080768888572064698 -0.20333015281644981 0 0.094913797367341568 -0.20286776474366711 0 0.10255533575817979 -0.20674944934061371 0 0.11878406133753119 -0.21476462611037389 0 0.1056981437574836 -0.22611529023279789 0 0.086078943868186 -0.2261208835917084 0 0.10255533575817979 -0.20674944934061371 0 0.094913797367341568 -0.20286776474366711 0 0.094913797367341568 -0.20286776474366711 0 0.11007004999867891 -0.1921797914515827 0 0.10374865086649721 -0.1796146458956257 0 0.089722443336712671 -0.19376276334532369 0 0.094913797367341568 -0.20286776474366711 0 0.10374865086649721 -0.1796146458956257 0 0.094913797367341568 -0.20286776474366711 0 0.10374865086649721 -0.1796146458956257 0 0.10255533575817979 -0.20674944934061371 0 0.094913797367341568 -0.20286776474366711 0 0.11007004999867891 -0.1921797914515827 0 0.11007004999867891 -0.1921797914515827 0 0.120581325569228 -0.17518203794998999 0 0.1285511404321481 -0.1964850593280171 0 0.10255533575817979 -0.20674944934061371 0 0.11007004999867891 -0.1921797914515827 0 0.1285511404321481 -0.1964850593280171 0 0.10255533575817979 -0.20674944934061371 0 0.1285511404321481 -0.1964850593280171 0 0.10255533575817979 -0.20674944934061371 0 0.11878406133753119 -0.21476462611037389 0 0.1285511404321481 -0.1964850593280171 0 0.11878406133753119 -0.21476462611037389 0 0.1056981437574836 -0.22611529023279789 0 0.12590004361212079 -0.2300012799293091 0 0.11752575702491661 -0.25624050287398092 0 0.1056981437574836 -0.22611529023279789 0 0.12590004361212079 -0.2300012799293091 0 0.11752575702491661 -0.25624050287398092 0 0.095652858460654439 -0.2440925638743634 0 0.1056981437574836 -0.22611529023279789 0 0.086078943868186 -0.2261208835917084 0 0.095652858460654439 -0.2440925638743634 0 0.1056981437574836 -0.22611529023279789 0 0.086078943868186 -0.2261208835917084 0 0.10255533575817979 -0.20674944934061371 0 0.1056981437574836 -0.22611529023279789 0 0.099332671240041484 -0.15581448267512171 0 0.1045633954249475 -0.13967987252301159 0 0.08998679379526503 -0.14087065891172609 0 0.099332671240041484 -0.15581448267512171 0 0.1045633954249475 -0.13967987252301159 0 0.1239060777574726 -0.1424539520567083 0 0.098061671058171374 -0.12883494279628499 0 0.1045633954249475 -0.13967987252301159 0 0.08998679379526503 -0.14087065891172609 0 0.098061671058171374 -0.12883494279628499 0 0.1045633954249475 -0.13967987252301159 0 0.1115297632737869 -0.13042532617521699 0 0.1045633954249475 -0.13967987252301159 0 0.1115297632737869 -0.13042532617521699 0 0.1239060777574726 -0.1424539520567083 0 0.1115297632737869 -0.13042532617521699 0 0.1239060777574726 -0.1424539520567083 0 0.120571393356576 -0.12029381074793299 0 0.099332671240041484 -0.15581448267512171 0 0.1239060777574726 -0.1424539520567083 0 0.1239060777574726 -0.1424539520567083 0 0.1125835043656528 -0.15636152704758419 0 0.12765904280763571 -0.15808309190882719 0 0.099332671240041484 -0.15581448267512171 0 0.1239060777574726 -0.1424539520567083 0 0.1125835043656528 -0.15636152704758419 0 0.1125835043656528 -0.15636152704758419 0 0.120581325569228 -0.17518203794998999 0 0.10374865086649721 -0.1796146458956257 0 0.1125835043656528 -0.15636152704758419 0 0.120581325569228 -0.17518203794998999 0 0.12765904280763571 -0.15808309190882719 0 0.11007004999867891 -0.1921797914515827 0 0.120581325569228 -0.17518203794998999 0 0.10374865086649721 -0.1796146458956257 0 0.099332671240041484 -0.15581448267512171 0 0.1125835043656528 -0.15636152704758419 0 0.10374865086649721 -0.1796146458956257 0 0.1125835043656528 -0.15636152704758419 0 0.10374865086649721 -0.1796146458956257 0 0.099332671240041484 -0.15581448267512171 0 0.074759264722610408 -0.1691750132935351 0 0.099332671240041484 -0.15581448267512171 0 0.074759264722610408 -0.1691750132935351 0 0.075745594817577963 -0.15110401875964921 0 0.099332671240041484 -0.15581448267512171 0 0.10374865086649721 -0.1796146458956257 0 0.074759264722610408 -0.1691750132935351 0 0.079458436540947322 -0.1892384899255522 0 0.10374865086649721 -0.1796146458956257 0 0.074759264722610408 -0.1691750132935351 0 0.063850977107529364 -0.19012823527520339 0 0.074759264722610408 -0.1691750132935351 0 0.050185858205179353 -0.18253554391194851 0 0.063850977107529364 -0.19012823527520339 0 0.079458436540947322 -0.1892384899255522 0 0.074759264722610408 -0.1691750132935351 0 0.074759264722610408 -0.1691750132935351 0 0.075745594817577963 -0.15110401875964921 0 0.059716274317201112 -0.15456166536225571 0 0.075745594817577963 -0.15110401875964921 0 0.05837058877282178 -0.13647413160063149 0 0.059716274317201112 -0.15456166536225571 0 0.075745594817577963 -0.15110401875964921 0 0.074326490766599584 -0.1363626458873656 0 0.05837058877282178 -0.13647413160063149 0 0.099332671240041484 -0.15581448267512171 0 0.075745594817577963 -0.15110401875964921 0 0.08998679379526503 -0.14087065891172609 0 0.075745594817577963 -0.15110401875964921 0 0.08998679379526503 -0.14087065891172609 0 0.074326490766599584 -0.1363626458873656 0 0.08998679379526503 -0.14087065891172609 0 0.083753903846375474 -0.12901088947311981 0 0.074326490766599584 -0.1363626458873656 0 0.098061671058171374 -0.12883494279628499 0 0.08998679379526503 -0.14087065891172609 0 0.083753903846375474 -0.12901088947311981 0 0.083753903846375474 -0.12901088947311981 0 0.074326490766599584 -0.1363626458873656 0 0.070346669997908021 -0.1236127969713304 0 0.074326490766599584 -0.1363626458873656 0 0.05837058877282178 -0.13647413160063149 0 0.070346669997908021 -0.1236127969713304 0 0.05837058877282178 -0.13647413160063149 0 0.040065777321098547 -0.13386569907726209 0 0.047470200577274753 -0.1244554838415385 0 0.05837058877282178 -0.13647413160063149 0 0.04454314562780852 -0.14880858056275451 0 0.040065777321098547 -0.13386569907726209 0 0.05837058877282178 -0.13647413160063149 0 0.057459354494131948 -0.1200276011990481 0 0.047470200577274753 -0.1244554838415385 0 0.05837058877282178 -0.13647413160063149 0 0.057459354494131948 -0.1200276011990481 0 0.070346669997908021 -0.1236127969713304 0 0.05837058877282178 -0.13647413160063149 0 0.059716274317201112 -0.15456166536225571 0 0.04454314562780852 -0.14880858056275451 0 0.04454314562780852 -0.14880858056275451 0 0.03166769797168581 -0.15879188459770011 0 0.030316565219165179 -0.14262212107959171 0 0.04454314562780852 -0.14880858056275451 0 0.040065777321098547 -0.13386569907726209 0 0.030316565219165179 -0.14262212107959171 0 0.040065777321098547 -0.13386569907726209 0 0.02881898658624946 -0.12977923362615901 0 0.030316565219165179 -0.14262212107959171 0 0.040065777321098547 -0.13386569907726209 0 0.02881898658624946 -0.12977923362615901 0 0.036257587259893163 -0.1200095190910561 0 0.040065777321098547 -0.13386569907726209 0 0.047470200577274753 -0.1244554838415385 0 0.036257587259893163 -0.1200095190910561 0 0.074759264722610408 -0.1691750132935351 0 0.050185858205179353 -0.18253554391194851 0 0.047862855065467592 -0.16561974520353381 0 0.074759264722610408 -0.1691750132935351 0 0.050185858205179353 -0.18253554391194851 0 0.059716274317201112 -0.15456166536225571 0 0.04454314562780852 -0.14880858056275451 0 0.047862855065467592 -0.16561974520353381 0 0.074759264722610408 -0.1691750132935351 0 0.059716274317201112 -0.15456166536225571 0 0.047862855065467592 -0.16561974520353381 0 0.047862855065467592 -0.16561974520353381 0 0.03166769797168581 -0.15879188459770011 0 0.030572386575712249 -0.17456826150902729 0 0.04454314562780852 -0.14880858056275451 0 0.047862855065467592 -0.16561974520353381 0 0.03166769797168581 -0.15879188459770011 0 0.050185858205179353 -0.18253554391194851 0 0.047862855065467592 -0.16561974520353381 0 0.030572386575712249 -0.17456826150902729 0 0.02561245168775093 -0.19589607453036689 0 0.050185858205179353 -0.18253554391194851 0 0.030572386575712249 -0.17456826150902729 0 0.02561245168775093 -0.19589607453036689 0 0.030572386575712249 -0.17456826150902729 0 0.013347541516751091 -0.1789417933499465 0 0.02561245168775093 -0.19589607453036689 0 0.013347541516751091 -0.1789417933499465 0 0.030572386575712249 -0.17456826150902729 0 0.02038362059682634 -0.1634809041735874 0 0.013347541516751091 -0.1789417933499465 0 0.03166769797168581 -0.15879188459770011 0 0.030572386575712249 -0.17456826150902729 0 0.02038362059682634 -0.1634809041735874 0 0.03166769797168581 -0.15879188459770011 0 0.02038362059682634 -0.1634809041735874 0 0.020380777719547879 -0.15116625296374561 0 -0.0040270011763860244 -0.15492426055975811 0 0.013347541516751091 -0.1789417933499465 0 0.0059496992004344244 -0.15393632844751781 0 -0.0040270011763860244 -0.15492426055975811 0 -0.002026644035102563 -0.1743026528086962 0 0.013347541516751091 -0.1789417933499465 0 -0.0040270011763860244 -0.15492426055975811 0 0.013347541516751091 -0.1789417933499465 0 0.02038362059682634 -0.1634809041735874 0 0.013347541516751091 -0.1789417933499465 0 0.0059496992004344244 -0.15393632844751781 0 0.013347541516751091 -0.1789417933499465 0 0.0059496992004344244 -0.15393632844751781 0 -0.002026644035102563 -0.1743026528086962 0 0.008872794213139211 -0.19712976163152199 0 0.013347541516751091 -0.1789417933499465 0 0.018640464628095019 -0.13637304474172679 0 0.02881898658624946 -0.12977923362615901 0 0.021123868739167231 -0.12003784993199119 0 0.018640464628095019 -0.13637304474172679 0 0.01080402214079817 -0.12699825789432359 0 0.021123868739167231 -0.12003784993199119 0 0.018640464628095019 -0.13637304474172679 0 0.02881898658624946 -0.12977923362615901 0 0.030316565219165179 -0.14262212107959171 0 0.03166769797168581 -0.15879188459770011 0 0.030316565219165179 -0.14262212107959171 0 0.020380777719547879 -0.15116625296374561 0 0.018640464628095019 -0.13637304474172679 0 0.030316565219165179 -0.14262212107959171 0 0.020380777719547879 -0.15116625296374561 0 0.018640464628095019 -0.13637304474172679 0 0.020380777719547879 -0.15116625296374561 0 0.01273479900571239 -0.14440510336814019 0 -0.001448143115881912 -0.12893086354508901 0 0.0059496992004344244 -0.15393632844751781 0 0.01273479900571239 -0.14440510336814019 0 0.0059496992004344244 -0.15393632844751781 0 0.0083739072583860763 -0.1375618818051341 0 -0.001448143115881912 -0.12893086354508901 0 -0.0040270011763860244 -0.15492426055975811 0 0.0059496992004344244 -0.15393632844751781 0 0.020380777719547879 -0.15116625296374561 0 0.01273479900571239 -0.14440510336814019 0 0.0059496992004344244 -0.15393632844751781 0 0.02038362059682634 -0.1634809041735874 0 0.020380777719547879 -0.15116625296374561 0 0.0059496992004344244 -0.15393632844751781 0 -0.001448143115881912 -0.12893086354508901 0 0.0059496992004344244 -0.15393632844751781 0 0.0083739072583860763 -0.1375618818051341 0 0.018640464628095019 -0.13637304474172679 0 0.01273479900571239 -0.14440510336814019 0 0.0083739072583860763 -0.1375618818051341 0 0.018640464628095019 -0.13637304474172679 0 0.0083739072583860763 -0.1375618818051341 0 0.01080402214079817 -0.12699825789432359 0 -0.001448143115881912 -0.12893086354508901 0 0.0083739072583860763 -0.1375618818051341 0 0.01080402214079817 -0.12699825789432359 0 0.01080402214079817 -0.12699825789432359 0 0.0046222836972163346 -0.11624481063804749 0 0.021123868739167231 -0.12003784993199119 0 0.0046222836972163346 -0.11624481063804749 0 0.021123868739167231 -0.12003784993199119 0 0.018070911090457061 -0.10354437420072329 0 -0.001448143115881912 -0.12893086354508901 0 0.01080402214079817 -0.12699825789432359 0 0.0046222836972163346 -0.11624481063804749 0 0.021123868739167231 -0.12003784993199119 0 0.018070911090457061 -0.10354437420072329 0 0.033361714651917139 -0.10594011745297401 0 0.021123868739167231 -0.12003784993199119 0 0.036257587259893163 -0.1200095190910561 0 0.033361714651917139 -0.10594011745297401 0 0.02881898658624946 -0.12977923362615901 0 0.021123868739167231 -0.12003784993199119 0 0.036257587259893163 -0.1200095190910561 0 0.018070911090457061 -0.10354437420072329 0 0.029669810559144059 -0.091083344898856014 0 0.033361714651917139 -0.10594011745297401 0 0.018070911090457061 -0.10354437420072329 0 0.015040554633970559 -0.090289328112499373 0 0.029669810559144059 -0.091083344898856014 0 -0.0069547684239616298 -0.089163205094297177 0 0.0046222836972163346 -0.11624481063804749 0 0.0070918929633363411 -0.096207014078676822 0 0.0046222836972163346 -0.11624481063804749 0 0.018070911090457061 -0.10354437420072329 0 0.0070918929633363411 -0.096207014078676822 0 0.018070911090457061 -0.10354437420072329 0 0.0070918929633363411 -0.096207014078676822 0 0.015040554633970559 -0.090289328112499373 0 -0.0069547684239616298 -0.089163205094297177 0 0.0070918929633363411 -0.096207014078676822 0 0.006311249423132298 -0.081515978952543436 0 0.006311249423132298 -0.081515978952543436 0 0.015040554633970559 -0.090289328112499373 0 0.020351470297847611 -0.078358009035430456 0 0.0070918929633363411 -0.096207014078676822 0 0.006311249423132298 -0.081515978952543436 0 0.015040554633970559 -0.090289328112499373 0 -0.0020415661367895162 -0.053431008488494879 0 -0.0031264906627298181 -0.070164676629234424 0 0.0093786751802497244 -0.064247944616466296 0 -0.0031264906627298181 -0.070164676629234424 0 0.006311249423132298 -0.081515978952543436 0 0.0093786751802497244 -0.064247944616466296 0 0.006311249423132298 -0.081515978952543436 0 0.0093786751802497244 -0.064247944616466296 0 0.020351470297847611 -0.078358009035430456 0 0.0093786751802497244 -0.064247944616466296 0 0.026369507489716861 -0.06529840069413638 0 0.020351470297847611 -0.078358009035430456 0 0.026369507489716861 -0.06529840069413638 0 0.020351470297847611 -0.078358009035430456 0 0.036263855503565638 -0.077614356070874482 0 0.020351470297847611 -0.078358009035430456 0 0.029669810559144059 -0.091083344898856014 0 0.036263855503565638 -0.077614356070874482 0 0.015040554633970559 -0.090289328112499373 0 0.020351470297847611 -0.078358009035430456 0 0.029669810559144059 -0.091083344898856014 0 0.036263855503565638 -0.077614356070874482 0 0.047543457507643903 -0.092623513854323131 0 0.052548352504212872 -0.07877906658073959 0 0.029669810559144059 -0.091083344898856014 0 0.036263855503565638 -0.077614356070874482 0 0.047543457507643903 -0.092623513854323131 0 0.026369507489716861 -0.06529840069413638 0 0.036263855503565638 -0.077614356070874482 0 0.045508520161590203 -0.065554386916227406 0 0.036263855503565638 -0.077614356070874482 0 0.045508520161590203 -0.065554386916227406 0 0.052548352504212872 -0.07877906658073959 0 0.052548352504212872 -0.07877906658073959 0 0.064119228967894626 -0.087325866457324444 0 0.065757887940176493 -0.068019544487215491 0 0.045508520161590203 -0.065554386916227406 0 0.052548352504212872 -0.07877906658073959 0 0.065757887940176493 -0.068019544487215491 0 0.047543457507643903 -0.092623513854323131 0 0.052548352504212872 -0.07877906658073959 0 0.064119228967894626 -0.087325866457324444 0 0.047543457507643903 -0.092623513854323131 0 0.064138701987489222 -0.10667102217081691 0 0.064119228967894626 -0.087325866457324444 0 0.047543457507643903 -0.092623513854323131 0 0.047516890712892092 -0.11159319095030561 0 0.064138701987489222 -0.10667102217081691 0 0.057459354494131948 -0.1200276011990481 0 0.047516890712892092 -0.11159319095030561 0 0.064138701987489222 -0.10667102217081691 0 0.057459354494131948 -0.1200276011990481 0 0.047470200577274753 -0.1244554838415385 0 0.047516890712892092 -0.11159319095030561 0 0.047470200577274753 -0.1244554838415385 0 0.047516890712892092 -0.11159319095030561 0 0.036257587259893163 -0.1200095190910561 0 0.047516890712892092 -0.11159319095030561 0 0.036257587259893163 -0.1200095190910561 0 0.033361714651917139 -0.10594011745297401 0 0.029669810559144059 -0.091083344898856014 0 0.047543457507643903 -0.092623513854323131 0 0.033361714651917139 -0.10594011745297401 0 0.047543457507643903 -0.092623513854323131 0 0.047516890712892092 -0.11159319095030561 0 0.033361714651917139 -0.10594011745297401 0 0.02922333002937957 -0.0082555710176626471 0 0.01439257658453344 -0.0038299249426867062 0 0.007468935992880568 -0.023184147988071759 0 0.020086082938962909 0.0074320309104848412 0 0.02922333002937957 -0.0082555710176626471 0 0.01439257658453344 -0.0038299249426867062 0 0.0009626133680662478 0.004694825809427778 0 0.01439257658453344 -0.0038299249426867062 0 0.007468935992880568 -0.023184147988071759 0 0.0009626133680662478 0.004694825809427778 0 0.007468935992880568 -0.023184147988071759 0 0.0009626133680662478 0.004694825809427778 0 0.003190367795538461 -0.01235854054012421 0 0.007468935992880568 -0.023184147988071759 0 -0.0076707263748008424 -0.037220070045335563 0 0.003190367795538461 -0.01235854054012421 0 0.007468935992880568 -0.023184147988071759 0 0.007468935992880568 -0.023184147988071759 0 0.0080049150627039198 -0.025480767339014412 0 0.0043878529276636484 -0.036986451752035958 0 0.007468935992880568 -0.023184147988071759 0 0.0080049150627039198 -0.025480767339014412 0 0.007468935992880568 -0.023184147988071759 0 0.0080049150627039198 -0.025480767339014412 0 0.016664028730319979 -0.028474268390186151 0 0.0080049150627039198 -0.025480767339014412 0 0.016664028730319979 -0.028474268390186151 0 0.0043878529276636484 -0.036986451752035958 0 0.016664028730319979 -0.028474268390186151 0 0.025538550890233779 -0.020308108717871011 0 0.040936485273927722 -0.026406720172394361 0 0.02922333002937957 -0.0082555710176626471 0 0.007468935992880568 -0.023184147988071759 0 0.016664028730319979 -0.028474268390186151 0 0.016431338699999239 -0.037633261424458581 0 0.040936485273927722 -0.026406720172394361 0 0.02922333002937957 -0.0082555710176626471 0 0.007468935992880568 -0.023184147988071759 0 0.025538550890233779 -0.020308108717871011 0 0.007468935992880568 -0.023184147988071759 0 0.016664028730319979 -0.028474268390186151 0 0.025538550890233779 -0.020308108717871011 0 0.016431338699999239 -0.037633261424458581 0 0.032233419224745569 -0.041868452204984488 0 0.040936485273927722 -0.026406720172394361 0 0.016431338699999239 -0.037633261424458581 0 0.02117261647298881 -0.052661307078568587 0 0.032233419224745569 -0.041868452204984488 0 0.016431338699999239 -0.037633261424458581 0 0.040936485273927722 -0.026406720172394361 0 0.016431338699999239 -0.037633261424458581 0 0.0094771052922552421 -0.049174354200240737 0 0.02117261647298881 -0.052661307078568587 0 -0.0020415661367895162 -0.053431008488494879 0 0.0043878529276636484 -0.036986451752035958 0 0.0094771052922552421 -0.049174354200240737 0 0.016664028730319979 -0.028474268390186151 0 0.016431338699999239 -0.037633261424458581 0 0.0043878529276636484 -0.036986451752035958 0 -0.0076707263748008424 -0.037220070045335563 0 0.007468935992880568 -0.023184147988071759 0 0.0043878529276636484 -0.036986451752035958 0 0.016431338699999239 -0.037633261424458581 0 0.0043878529276636484 -0.036986451752035958 0 0.0094771052922552421 -0.049174354200240737 0 -0.0020415661367895162 -0.053431008488494879 0 0.0093786751802497244 -0.064247944616466296 0 0.0094771052922552421 -0.049174354200240737 0 0.0093786751802497244 -0.064247944616466296 0 0.0094771052922552421 -0.049174354200240737 0 0.02117261647298881 -0.052661307078568587 0 0.02117261647298881 -0.052661307078568587 0 0.037386784297949213 -0.052912231319242893 0 0.032233419224745569 -0.041868452204984488 0 0.026369507489716861 -0.06529840069413638 0 0.02117261647298881 -0.052661307078568587 0 0.037386784297949213 -0.052912231319242893 0 0.0093786751802497244 -0.064247944616466296 0 0.026369507489716861 -0.06529840069413638 0 0.02117261647298881 -0.052661307078568587 0 0.037386784297949213 -0.052912231319242893 0 0.054317759330228248 -0.050386476345415591 0 0.045122043780690353 -0.041294332396923823 0 0.026369507489716861 -0.06529840069413638 0 0.045508520161590203 -0.065554386916227406 0 0.037386784297949213 -0.052912231319242893 0 0.045508520161590203 -0.065554386916227406 0 0.037386784297949213 -0.052912231319242893 0 0.054317759330228248 -0.050386476345415591 0 0.045508520161590203 -0.065554386916227406 0 0.054317759330228248 -0.050386476345415591 0 0.065757887940176493 -0.068019544487215491 0 0.060735770776600938 -0.034897781942581738 0 0.045122043780690353 -0.041294332396923823 0 0.040936485273927722 -0.026406720172394361 0 0.054317759330228248 -0.050386476345415591 0 0.060735770776600938 -0.034897781942581738 0 0.045122043780690353 -0.041294332396923823 0 0.045122043780690353 -0.041294332396923823 0 0.032233419224745569 -0.041868452204984488 0 0.040936485273927722 -0.026406720172394361 0 0.037386784297949213 -0.052912231319242893 0 0.045122043780690353 -0.041294332396923823 0 0.032233419224745569 -0.041868452204984488 0 0.025538550890233779 -0.020308108717871011 0 0.040936485273927722 -0.026406720172394361 0 0.039599659390442972 -0.01280951197563723 0 0.040936485273927722 -0.026406720172394361 0 0.04927726307812233 -0.01127098610313677 0 0.039599659390442972 -0.01280951197563723 0 0.040936485273927722 -0.026406720172394361 0 0.04927726307812233 -0.01127098610313677 0 0.05569302574867277 -0.0096934860034888007 0 0.060735770776600938 -0.034897781942581738 0 0.040936485273927722 -0.026406720172394361 0 0.065441631847856147 -0.0151801789203302 0 0.040936485273927722 -0.026406720172394361 0 0.065441631847856147 -0.0151801789203302 0 0.040936485273927722 -0.026406720172394361 0 0.05569302574867277 -0.0096934860034888007 0 0.065441631847856147 -0.0151801789203302 0 0.051995645116997273 0.0055228002246816019 0 0.05569302574867277 -0.0096934860034888007 0 0.066477279452386295 -0.01084080552449102 0 0.051995645116997273 0.0055228002246816019 0 0.04927726307812233 -0.01127098610313677 0 0.039599659390442972 -0.01280951197563723 0 0.051995645116997273 0.0055228002246816019 0 0.04927726307812233 -0.01127098610313677 0 0.05569302574867277 -0.0096934860034888007 0 0.051995645116997273 0.0055228002246816019 0 0.066477279452386295 -0.01084080552449102 0 0.051995645116997273 0.0055228002246816019 0 0.02922333002937957 -0.0082555710176626471 0 0.051995645116997273 0.0055228002246816019 0 0.02922333002937957 -0.0082555710176626471 0 0.039599659390442972 -0.01280951197563723 0 0.02922333002937957 -0.0082555710176626471 0 0.025538550890233779 -0.020308108717871011 0 0.039599659390442972 -0.01280951197563723 0 0.087962381713208915 -0.0048627492070227631 0 0.082320885996717233 -0.016476133633389619 0 0.097565648143610961 -0.021431527734748691 0 0.087962381713208915 -0.0048627492070227631 0 0.068910971976752028 -0.01359077034621955 0 0.082320885996717233 -0.016476133633389619 0 0.087962381713208915 -0.0048627492070227631 0 0.068910971976752028 -0.01359077034621955 0 0.070494389351615672 0.0059909234811812706 0 0.076223698019018987 -0.0042716822877690861 0 0.066477279452386295 -0.01084080552449102 0 0.087962381713208915 -0.0048627492070227631 0 0.076223698019018987 -0.0042716822877690861 0 0.068910971976752028 -0.01359077034621955 0 0.070494389351615672 0.0059909234811812706 0 0.066477279452386295 -0.01084080552449102 0 0.05569302574867277 -0.0096934860034888007 0 0.065441631847856147 -0.0151801789203302 0 0.066477279452386295 -0.01084080552449102 0 0.065441631847856147 -0.0151801789203302 0 0.066477279452386295 -0.01084080552449102 0 0.065441631847856147 -0.0151801789203302 0 0.066477279452386295 -0.01084080552449102 0 0.068910971976752028 -0.01359077034621955 0 0.066477279452386295 -0.01084080552449102 0 0.068910971976752028 -0.01359077034621955 0 0.065441631847856147 -0.0151801789203302 0 0.068910971976752028 -0.01359077034621955 0 0.076223698019018987 -0.0042716822877690861 0 0.066477279452386295 -0.01084080552449102 0 0.068910971976752028 -0.01359077034621955 0 0.060735770776600938 -0.034897781942581738 0 0.065441631847856147 -0.0151801789203302 0 0.070328318124169079 -0.026766808651126909 0 0.060735770776600938 -0.034897781942581738 0 0.065441631847856147 -0.0151801789203302 0 0.068910971976752028 -0.01359077034621955 0 0.082676344161633386 -0.029145031571669072 0 0.068910971976752028 -0.01359077034621955 0 0.082676344161633386 -0.029145031571669072 0 0.082320885996717233 -0.016476133633389619 0 0.068910971976752028 -0.01359077034621955 0 0.070328318124169079 -0.026766808651126909 0 0.082676344161633386 -0.029145031571669072 0 0.065441631847856147 -0.0151801789203302 0 0.068910971976752028 -0.01359077034621955 0 0.070328318124169079 -0.026766808651126909 0 0.082676344161633386 -0.029145031571669072 0 0.082320885996717233 -0.016476133633389619 0 0.097565648143610961 -0.021431527734748691 0 0.082676344161633386 -0.029145031571669072 0 0.074059798534574187 -0.045876739491430847 0 0.096441716346515147 -0.044699292797118199 0 0.082676344161633386 -0.029145031571669072 0 0.096441716346515147 -0.044699292797118199 0 0.097565648143610961 -0.021431527734748691 0 0.082676344161633386 -0.029145031571669072 0 0.096441716346515147 -0.044699292797118199 0 0.060735770776600938 -0.034897781942581738 0 0.070328318124169079 -0.026766808651126909 0 0.074059798534574187 -0.045876739491430847 0 0.070328318124169079 -0.026766808651126909 0 0.082676344161633386 -0.029145031571669072 0 0.074059798534574187 -0.045876739491430847 0 0.054317759330228248 -0.050386476345415591 0 0.060735770776600938 -0.034897781942581738 0 0.074059798534574187 -0.045876739491430847 0 0.074059798534574187 -0.045876739491430847 0 0.065757887940176493 -0.068019544487215491 0 0.088160793062696113 -0.067222240644889006 0 0.054317759330228248 -0.050386476345415591 0 0.074059798534574187 -0.045876739491430847 0 0.065757887940176493 -0.068019544487215491 0 0.074059798534574187 -0.045876739491430847 0 0.096441716346515147 -0.044699292797118199 0 0.088160793062696113 -0.067222240644889006 0 0.11020708853139689 -0.060253554022567303 0 0.096441716346515147 -0.044699292797118199 0 0.088160793062696113 -0.067222240644889006 0 0.11020708853139689 -0.060253554022567303 0 0.11499867004339059 -0.045919616376733058 0 0.096441716346515147 -0.044699292797118199 0 0.11020708853139689 -0.060253554022567303 0 0.096441716346515147 -0.044699292797118199 0 0.11020708853139689 -0.060253554022567303 0 0.11499867004339059 -0.045919616376733058 0 0.1274578962460291 -0.053337300068790873 0 0.11020708853139689 -0.060253554022567303 0 0.12407799183285011 -0.070588369559739128 0 0.1274578962460291 -0.053337300068790873 0 0.11499867004339059 -0.045919616376733058 0 0.1143897206191952 -0.02939370457162924 0 0.12947280348027271 -0.036755676034893242 0 0.11499867004339059 -0.045919616376733058 0 0.12947280348027271 -0.036755676034893242 0 0.1274578962460291 -0.053337300068790873 0 0.096441716346515147 -0.044699292797118199 0 0.097565648143610961 -0.021431527734748691 0 0.1143897206191952 -0.02939370457162924 0 0.11499867004339059 -0.045919616376733058 0 0.096441716346515147 -0.044699292797118199 0 0.1143897206191952 -0.02939370457162924 0 0.097565648143610961 -0.021431527734748691 0 0.1143897206191952 -0.02939370457162924 0 0.11033273714389651 -0.016884634224966149 0 0.1143897206191952 -0.02939370457162924 0 0.1293062229241152 -0.024229085293067332 0 0.12947280348027271 -0.036755676034893242 0 0.1143897206191952 -0.02939370457162924 0 0.1221372607117456 -0.01431511005653326 0 0.1293062229241152 -0.024229085293067332 0 0.1143897206191952 -0.02939370457162924 0 0.11033273714389651 -0.016884634224966149 0 0.1221372607117456 -0.01431511005653326 0 0.11033273714389651 -0.016884634224966149 0 0.1221372607117456 -0.01431511005653326 0 0.11633231768299999 -0.0032458042684647909 0 0.11033273714389651 -0.016884634224966149 0 0.11633231768299999 -0.0032458042684647909 0 0.1032452020217742 -0.0064486600515361444 0 0.1221372607117456 -0.01431511005653326 0 0.11633231768299999 -0.0032458042684647909 0 0.12774018681310881 -0.00055002405430379581 0 0.087962381713208915 -0.0048627492070227631 0 0.097565648143610961 -0.021431527734748691 0 0.1032452020217742 -0.0064486600515361444 0 0.10794563736626241 0.0033798730949545562 0 0.11633231768299999 -0.0032458042684647909 0 0.1032452020217742 -0.0064486600515361444 0 0.097565648143610961 -0.021431527734748691 0 0.11033273714389651 -0.016884634224966149 0 0.1032452020217742 -0.0064486600515361444 0 0.097562349300996831 0.0046908460472591717 0 0.087962381713208915 -0.0048627492070227631 0 0.1032452020217742 -0.0064486600515361444 0 0.091527033777470443 -0.1030740823102488 0 0.077905589314432727 -0.096961222560182761 0 0.086575795432649663 -0.087189192391376708 0 0.091527033777470443 -0.1030740823102488 0 0.086575795432649663 -0.087189192391376708 0 0.098209109921669285 -0.093294098026230177 0 0.091527033777470443 -0.1030740823102488 0 0.083910257361786589 -0.114853454708314 0 0.077905589314432727 -0.096961222560182761 0 0.091527033777470443 -0.1030740823102488 0 0.083910257361786589 -0.114853454708314 0 0.1012281232366489 -0.11548064141965871 0 0.098061671058171374 -0.12883494279628499 0 0.083753903846375474 -0.12901088947311981 0 0.083910257361786589 -0.114853454708314 0 0.083753903846375474 -0.12901088947311981 0 0.083910257361786589 -0.114853454708314 0 0.070346669997908021 -0.1236127969713304 0 0.057459354494131948 -0.1200276011990481 0 0.070346669997908021 -0.1236127969713304 0 0.064138701987489222 -0.10667102217081691 0 0.083910257361786589 -0.114853454708314 0 0.070346669997908021 -0.1236127969713304 0 0.064138701987489222 -0.10667102217081691 0 0.077905589314432727 -0.096961222560182761 0 0.064138701987489222 -0.10667102217081691 0 0.064119228967894626 -0.087325866457324444 0 0.083910257361786589 -0.114853454708314 0 0.077905589314432727 -0.096961222560182761 0 0.064138701987489222 -0.10667102217081691 0 0.077905589314432727 -0.096961222560182761 0 0.075880048000016839 -0.079106630068009567 0 0.064119228967894626 -0.087325866457324444 0 0.075880048000016839 -0.079106630068009567 0 0.064119228967894626 -0.087325866457324444 0 0.065757887940176493 -0.068019544487215491 0 0.075880048000016839 -0.079106630068009567 0 0.065757887940176493 -0.068019544487215491 0 0.088160793062696113 -0.067222240644889006 0 0.075880048000016839 -0.079106630068009567 0 0.088160793062696113 -0.067222240644889006 0 0.086575795432649663 -0.087189192391376708 0 0.088160793062696113 -0.067222240644889006 0 0.086575795432649663 -0.087189192391376708 0 0.10594802519478359 -0.081460632641802255 0 0.077905589314432727 -0.096961222560182761 0 0.075880048000016839 -0.079106630068009567 0 0.086575795432649663 -0.087189192391376708 0 0.086575795432649663 -0.087189192391376708 0 0.098209109921669285 -0.093294098026230177 0 0.10594802519478359 -0.081460632641802255 0 0.098209109921669285 -0.093294098026230177 0 0.10594802519478359 -0.081460632641802255 0 0.1087855852817734 -0.101452484761493 0 0.11020708853139689 -0.060253554022567303 0 0.088160793062696113 -0.067222240644889006 0 0.10594802519478359 -0.081460632641802255 0 0.11020708853139689 -0.060253554022567303 0 0.10594802519478359 -0.081460632641802255 0 0.12407799183285011 -0.070588369559739128 0 0.10594802519478359 -0.081460632641802255 0 0.12407799183285011 -0.070588369559739128 0 0.1223874063379496 -0.091585896415170856 0 0.10594802519478359 -0.081460632641802255 0 0.1223874063379496 -0.091585896415170856 0 0.1087855852817734 -0.101452484761493 0 0.1227274015638153 -0.1059534896342318 0 0.1087855852817734 -0.101452484761493 0 0.120571393356576 -0.12029381074793299 0 0.1223874063379496 -0.091585896415170856 0 0.1227274015638153 -0.1059534896342318 0 0.1087855852817734 -0.101452484761493 0 0.091527033777470443 -0.1030740823102488 0 0.1087855852817734 -0.101452484761493 0 0.1012281232366489 -0.11548064141965871 0 0.091527033777470443 -0.1030740823102488 0 0.098209109921669285 -0.093294098026230177 0 0.1087855852817734 -0.101452484761493 0 0.098061671058171374 -0.12883494279628499 0 0.083910257361786589 -0.114853454708314 0 0.1012281232366489 -0.11548064141965871 0 0.098061671058171374 -0.12883494279628499 0 0.1115297632737869 -0.13042532617521699 0 0.1012281232366489 -0.11548064141965871 0 0.1115297632737869 -0.13042532617521699 0 0.1012281232366489 -0.11548064141965871 0 0.120571393356576 -0.12029381074793299 0 0.1087855852817734 -0.101452484761493 0 0.1012281232366489 -0.11548064141965871 0 0.120571393356576 -0.12029381074793299 0 0.1227274015638153 -0.1059534896342318 0 0.120571393356576 -0.12029381074793299 0 0.13912469256232751 -0.1068280076724139 0 0.120571393356576 -0.12029381074793299 0 0.13912469256232751 -0.1068280076724139 0 0.14847948427490371 -0.12909342143829489 0 0.13912469256232751 -0.1068280076724139 0 0.1730528907923348 -0.1157328908198814 0 0.14847948427490371 -0.12909342143829489 0 0.1223874063379496 -0.091585896415170856 0 0.13912469256232751 -0.1068280076724139 0 0.13628409817877979 -0.082844851047404758 0 0.1223874063379496 -0.091585896415170856 0 0.1227274015638153 -0.1059534896342318 0 0.13912469256232751 -0.1068280076724139 0 0.12407799183285011 -0.070588369559739128 0 0.1223874063379496 -0.091585896415170856 0 0.13628409817877979 -0.082844851047404758 0 0.12407799183285011 -0.070588369559739128 0 0.13628409817877979 -0.082844851047404758 0 0.1438962966176022 -0.059475690549868621 0 0.15140849614452251 -0.074353661765467691 0 0.1438962966176022 -0.059475690549868621 0 0.15933601342758599 -0.053863450531230019 0 0.13628409817877979 -0.082844851047404758 0 0.15140849614452251 -0.074353661765467691 0 0.1438962966176022 -0.059475690549868621 0 0.13628409817877979 -0.082844851047404758 0 0.15140849614452251 -0.074353661765467691 0 0.15896707194302309 -0.090346061719780602 0 0.13912469256232751 -0.1068280076724139 0 0.13628409817877979 -0.082844851047404758 0 0.15896707194302309 -0.090346061719780602 0 0.15896707194302309 -0.090346061719780602 0 0.1685086412404968 -0.06937394978465998 0 0.181981998706684 -0.085488584963732323 0 0.15140849614452251 -0.074353661765467691 0 0.15896707194302309 -0.090346061719780602 0 0.1685086412404968 -0.06937394978465998 0 0.15140849614452251 -0.074353661765467691 0 0.1685086412404968 -0.06937394978465998 0 0.15933601342758599 -0.053863450531230019 0 0.1685086412404968 -0.06937394978465998 0 0.18397102125257669 -0.065517704790907572 0 0.181981998706684 -0.085488584963732323 0 0.1730528907923348 -0.1157328908198814 0 0.19762629730976591 -0.102372360201468 0 0.13912469256232751 -0.1068280076724139 0 0.15896707194302309 -0.090346061719780602 0 0.1730528907923348 -0.1157328908198814 0 0.181981998706684 -0.085488584963732323 0 0.1730528907923348 -0.1157328908198814 0 0.19762629730976591 -0.102372360201468 0 0.1730528907923348 -0.1157328908198814 0 0.19137253810201679 -0.1240302571769123 0 0.19762629730976591 -0.102372360201468 0 0.1730528907923348 -0.1157328908198814 0 0.14847948427490371 -0.12909342143829489 0 0.15896707194302309 -0.090346061719780602 0 0.181981998706684 -0.085488584963732323 0 0.1730528907923348 -0.1157328908198814 0 0.15460176220199889 -0.01169294882567601 0 0.1444986816950119 -0.0054195686798767691 0 0.1628119002964023 -3.4503031802248997e-05 0 0.1444986816950119 -0.0054195686798767691 0 0.13472867505236041 -0.01188608756077375 0 0.14581857950682461 -0.015983386901676722 0 0.15460176220199889 -0.01169294882567601 0 0.1444986816950119 -0.0054195686798767691 0 0.14581857950682461 -0.015983386901676722 0 0.1371043771030877 0.004741772287450402 0 0.1444986816950119 -0.0054195686798767691 0 0.13472867505236041 -0.01188608756077375 0 0.1371043771030877 0.004741772287450402 0 0.12774018681310881 -0.00055002405430379581 0 0.13472867505236041 -0.01188608756077375 0 0.1221372607117456 -0.01431511005653326 0 0.12774018681310881 -0.00055002405430379581 0 0.13472867505236041 -0.01188608756077375 0 0.13472867505236041 -0.01188608756077375 0 0.1293062229241152 -0.024229085293067332 0 0.14200075583621269 -0.02719252037896077 0 0.1221372607117456 -0.01431511005653326 0 0.13472867505236041 -0.01188608756077375 0 0.1293062229241152 -0.024229085293067332 0 0.1293062229241152 -0.024229085293067332 0 0.14200075583621269 -0.02719252037896077 0 0.12947280348027271 -0.036755676034893242 0 0.13472867505236041 -0.01188608756077375 0 0.14200075583621269 -0.02719252037896077 0 0.14581857950682461 -0.015983386901676722 0 0.14200075583621269 -0.02719252037896077 0 0.14581857950682461 -0.015983386901676722 0 0.15326302274853901 -0.023725809063096331 0 0.15460176220199889 -0.01169294882567601 0 0.14581857950682461 -0.015983386901676722 0 0.15326302274853901 -0.023725809063096331 0 0.14200075583621269 -0.02719252037896077 0 0.15326302274853901 -0.023725809063096331 0 0.1572152343157536 -0.035625948107545963 0 0.14200075583621269 -0.02719252037896077 0 0.14322983332057601 -0.044375097611881582 0 0.1572152343157536 -0.035625948107545963 0 0.14322983332057601 -0.044375097611881582 0 0.15933601342758599 -0.053863450531230019 0 0.1572152343157536 -0.035625948107545963 0 0.14200075583621269 -0.02719252037896077 0 0.14322983332057601 -0.044375097611881582 0 0.12947280348027271 -0.036755676034893242 0 0.14322983332057601 -0.044375097611881582 0 0.12947280348027271 -0.036755676034893242 0 0.1274578962460291 -0.053337300068790873 0 0.14322983332057601 -0.044375097611881582 0 0.1274578962460291 -0.053337300068790873 0 0.1438962966176022 -0.059475690549868621 0 0.12407799183285011 -0.070588369559739128 0 0.1274578962460291 -0.053337300068790873 0 0.1438962966176022 -0.059475690549868621 0 0.14322983332057601 -0.044375097611881582 0 0.1438962966176022 -0.059475690549868621 0 0.15933601342758599 -0.053863450531230019 0 0.1685086412404968 -0.06937394978465998 0 0.15933601342758599 -0.053863450531230019 0 0.1761187251714289 -0.048816869050683297 0 0.18397102125257669 -0.065517704790907572 0 0.1761187251714289 -0.048816869050683297 0 0.19346038729653159 -0.053604551123238808 0 0.1761187251714289 -0.048816869050683297 0 0.1872975807434441 -0.042045148276801753 0 0.19346038729653159 -0.053604551123238808 0 0.1685086412404968 -0.06937394978465998 0 0.18397102125257669 -0.065517704790907572 0 0.1761187251714289 -0.048816869050683297 0 0.1761187251714289 -0.048816869050683297 0 0.1872975807434441 -0.042045148276801753 0 0.17807099090260489 -0.025817373919653622 0 0.1761187251714289 -0.048816869050683297 0 0.1572152343157536 -0.035625948107545963 0 0.17807099090260489 -0.025817373919653622 0 0.15933601342758599 -0.053863450531230019 0 0.1761187251714289 -0.048816869050683297 0 0.1572152343157536 -0.035625948107545963 0 0.15460176220199889 -0.01169294882567601 0 0.17807099090260489 -0.025817373919653622 0 0.15460176220199889 -0.01169294882567601 0 0.15326302274853901 -0.023725809063096331 0 0.17807099090260489 -0.025817373919653622 0 0.15326302274853901 -0.023725809063096331 0 0.1572152343157536 -0.035625948107545963 0 0.17807099090260489 -0.025817373919653622 0 0.17807099090260489 -0.025817373919653622 0 0.1758171007110983 -0.0072782848513643569 0 0.19031655405675571 -0.01511024886819123 0 0.1758171007110983 -0.0072782848513643569 0 0.19317581678127099 -0.00216777134334645 0 0.19031655405675571 -0.01511024886819123 0 0.15460176220199889 -0.01169294882567601 0 0.1758171007110983 -0.0072782848513643569 0 0.1628119002964023 -3.4503031802248997e-05 0 0.15460176220199889 -0.01169294882567601 0 0.17807099090260489 -0.025817373919653622 0 0.1758171007110983 -0.0072782848513643569 0 0.21545221830689651 -0.0031844272832586029 0 0.2050471669166693 -0.014983231228238331 0 0.2251354975674637 -0.027037514850661332 0 0.21545221830689651 -0.0031844272832586029 0 0.2050471669166693 -0.014983231228238331 0 0.19317581678127099 -0.00216777134334645 0 0.2050471669166693 -0.014983231228238331 0 0.19317581678127099 -0.00216777134334645 0 0.19031655405675571 -0.01511024886819123 0 0.2050471669166693 -0.014983231228238331 0 0.19031655405675571 -0.01511024886819123 0 0.20115574787095961 -0.027416193795734029 0 0.17807099090260489 -0.025817373919653622 0 0.20115574787095961 -0.027416193795734029 0 0.20154021960321089 -0.039941799013631242 0 0.17807099090260489 -0.025817373919653622 0 0.19031655405675571 -0.01511024886819123 0 0.20115574787095961 -0.027416193795734029 0 0.20115574787095961 -0.027416193795734029 0 0.2251354975674637 -0.027037514850661332 0 0.2050471669166693 -0.014983231228238331 0 0.20115574787095961 -0.027416193795734029 0 0.2251354975674637 -0.027037514850661332 0 0.21718006107523899 -0.040515062960039309 0 0.20154021960321089 -0.039941799013631242 0 0.225009448303817 -0.054066224107608869 0 0.20115574787095961 -0.027416193795734029 0 0.21718006107523899 -0.040515062960039309 0 0.2251354975674637 -0.027037514850661332 0 0.20115574787095961 -0.027416193795734029 0 0.21718006107523899 -0.040515062960039309 0 0.20154021960321089 -0.039941799013631242 0 0.17807099090260489 -0.025817373919653622 0 0.20154021960321089 -0.039941799013631242 0 0.1872975807434441 -0.042045148276801753 0 0.17807099090260489 -0.025817373919653622 0 0.20154021960321089 -0.039941799013631242 0 0.1872975807434441 -0.042045148276801753 0 0.20154021960321089 -0.039941799013631242 0 0.19346038729653159 -0.053604551123238808 0 0.20154021960321089 -0.039941799013631242 0 0.19346038729653159 -0.053604551123238808 0 0.20777047015637951 -0.057173631517180107 0 0.19346038729653159 -0.053604551123238808 0 0.20777047015637951 -0.057173631517180107 0 0.20063811957627001 -0.072549487530176884 0 0.20777047015637951 -0.057173631517180107 0 0.225009448303817 -0.054066224107608869 0 0.21757537202287061 -0.068368028090882479 0 0.20154021960321089 -0.039941799013631242 0 0.20777047015637951 -0.057173631517180107 0 0.225009448303817 -0.054066224107608869 0 0.20154021960321089 -0.039941799013631242 0 0.225009448303817 -0.054066224107608869 0 0.225009448303817 -0.054066224107608869 0 0.2359980544077005 -0.046991663127622173 0 0.22752634083961881 -0.040717614401506431 0 0.225009448303817 -0.054066224107608869 0 0.24847867700442311 -0.068190649201586517 0 0.225009448303817 -0.054066224107608869 0 0.24444943548621931 -0.054569561725390889 0 0.24847867700442311 -0.068190649201586517 0 0.225009448303817 -0.054066224107608869 0 0.24444943548621931 -0.054569561725390889 0 0.2359980544077005 -0.046991663127622173 0 0.25090223679437568 -0.057488120824325008 0 0.24444943548621931 -0.054569561725390889 0 0.24847867700442311 -0.068190649201586517 0 0.24444943548621931 -0.054569561725390889 0 0.2359980544077005 -0.046991663127622173 0 0.24858064332193749 -0.040711471060813291 0 0.25271720777739931 -0.049505738923643537 0 0.24444943548621931 -0.054569561725390889 0 0.24858064332193749 -0.040711471060813291 0 0.25090223679437568 -0.057488120824325008 0 0.25271720777739931 -0.049505738923643537 0 0.24444943548621931 -0.054569561725390889 0 0.2359980544077005 -0.046991663127622173 0 0.24858064332193749 -0.040711471060813291 0 0.2491152472639678 -0.02665883590558818 0 0.2359980544077005 -0.046991663127622173 0 0.2343086428438734 -0.034977606961600453 0 0.2491152472639678 -0.02665883590558818 0 0.2359980544077005 -0.046991663127622173 0 0.2491152472639678 -0.02665883590558818 0 0.25183449102707761 -0.026615894658384251 0 0.24858064332193749 -0.040711471060813291 0 0.2491152472639678 -0.02665883590558818 0 0.2343086428438734 -0.034977606961600453 0 0.22752634083961881 -0.040717614401506431 0 0.2251354975674637 -0.027037514850661332 0 0.2359980544077005 -0.046991663127622173 0 0.2343086428438734 -0.034977606961600453 0 0.22752634083961881 -0.040717614401506431 0 0.21718006107523899 -0.040515062960039309 0 0.225009448303817 -0.054066224107608869 0 0.22752634083961881 -0.040717614401506431 0 0.21718006107523899 -0.040515062960039309 0 0.22752634083961881 -0.040717614401506431 0 0.2251354975674637 -0.027037514850661332 0 0.2343086428438734 -0.034977606961600453 0 0.2251354975674637 -0.027037514850661332 0 0.2491152472639678 -0.02665883590558818 0 0.2251354975674637 -0.027037514850661332 0 0.2491152472639678 -0.02665883590558818 0 0.2251354975674637 -0.027037514850661332 0 0.2491152472639678 -0.02665883590558818 0 0.2367702974023807 -0.015263657117113191 0 0.25054830565431291 -0.02443746667138855 0 0.2491152472639678 -0.02665883590558818 0 0.25054830565431291 -0.02443746667138855 0 0.2491152472639678 -0.02665883590558818 0 0.2367702974023807 -0.015263657117113191 0 0.23539277787515489 0.001231637153694301 0 0.25054830565431291 -0.02443746667138855 0 0.2367702974023807 -0.015263657117113191 0 0.23539277787515489 0.001231637153694301 0 0.25054830565431291 -0.02443746667138855 0 0.23539277787515489 0.001231637153694301 0 0.25054830565431291 -0.02443746667138855 0 0.24772306794153229 -0.0049010006205228709 0 0.21545221830689651 -0.0031844272832586029 0 0.2251354975674637 -0.027037514850661332 0 0.2367702974023807 -0.015263657117113191 0 0.23539277787515489 0.001231637153694301 0 0.21545221830689651 -0.0031844272832586029 0 0.2367702974023807 -0.015263657117113191 0 0.19762629730976591 -0.102372360201468 0 0.22219970382719689 -0.089011829583054619 0 0.19762629730976591 -0.102372360201468 0 0.22219970382719689 -0.089011829583054619 0 0.22097387041094629 -0.1170989206018505 0 0.19137253810201679 -0.1240302571769123 0 0.19762629730976591 -0.102372360201468 0 0.22097387041094629 -0.1170989206018505 0 0.181981998706684 -0.085488584963732323 0 0.19762629730976591 -0.102372360201468 0 0.20063811957627001 -0.072549487530176884 0 0.18397102125257669 -0.065517704790907572 0 0.19346038729653159 -0.053604551123238808 0 0.20063811957627001 -0.072549487530176884 0 0.18397102125257669 -0.065517704790907572 0 0.181981998706684 -0.085488584963732323 0 0.20063811957627001 -0.072549487530176884 0 0.20063811957627001 -0.072549487530176884 0 0.21757537202287061 -0.068368028090882479 0 0.22219970382719689 -0.089011829583054619 0 0.20777047015637951 -0.057173631517180107 0 0.20063811957627001 -0.072549487530176884 0 0.21757537202287061 -0.068368028090882479 0 0.19762629730976591 -0.102372360201468 0 0.20063811957627001 -0.072549487530176884 0 0.22219970382719689 -0.089011829583054619 0 0.22219970382719689 -0.089011829583054619 0 0.2322591182506894 -0.069038967716391925 0 0.24677311034462801 -0.075651298964641206 0 0.21757537202287061 -0.068368028090882479 0 0.22219970382719689 -0.089011829583054619 0 0.2322591182506894 -0.069038967716391925 0 0.225009448303817 -0.054066224107608869 0 0.21757537202287061 -0.068368028090882479 0 0.2322591182506894 -0.069038967716391925 0 0.2322591182506894 -0.069038967716391925 0 0.24677311034462801 -0.075651298964641206 0 0.24847867700442311 -0.068190649201586517 0 0.225009448303817 -0.054066224107608869 0 0.2322591182506894 -0.069038967716391925 0 0.24847867700442311 -0.068190649201586517 0 0.22219970382719689 -0.089011829583054619 0 0.24677311034462801 -0.075651298964641206 0 0.24463848379058739 -0.088536849521758776 0 0.22219970382719689 -0.089011829583054619 0 0.24463848379058739 -0.088536849521758776 0 0.23732562238344479 -0.10070349679248081 0 0.22219970382719689 -0.089011829583054619 0 0.24677311034462801 -0.075651298964641206 0 0.25446499988308319 -0.081012334980481548 0 0.24677311034462801 -0.075651298964641206 0 0.24463848379058739 -0.088536849521758776 0 0.25015999641617842 -0.096977429205485174 0 0.23732562238344479 -0.10070349679248081 0 0.24582995645715619 -0.1154111646723136 0 0.25015999641617842 -0.096977429205485174 0 0.24463848379058739 -0.088536849521758776 0 0.23732562238344479 -0.10070349679248081 0 0.22219970382719689 -0.089011829583054619 0 0.23732562238344479 -0.10070349679248081 0 0.22097387041094629 -0.1170989206018505 0 0.22097387041094629 -0.1170989206018505 0 0.24582995645715619 -0.1154111646723136 0 0.2311645697210146 -0.13273253475307389 0 0.23732562238344479 -0.10070349679248081 0 0.22097387041094629 -0.1170989206018505 0 0.24582995645715619 -0.1154111646723136 0 0.24582995645715619 -0.1154111646723136 0 0.24822779734363501 -0.13312164547455721 0 0.2311645697210146 -0.13273253475307389 0 0.24822779734363501 -0.13312164547455721 0 0.23842826524723701 -0.14481404747028731 0 0.2311645697210146 -0.13273253475307389 0 0.2517969940147583 -0.15104916485636141 0 0.24822779734363501 -0.13312164547455721 0 0.23842826524723701 -0.14481404747028731 0 0.2517969940147583 -0.15104916485636141 0 0.23842826524723701 -0.14481404747028731 0 0.23719759697127421 -0.1590569314279755 0 0.22375436818550309 -0.1481099608394684 0 0.23719759697127421 -0.1590569314279755 0 0.23842826524723701 -0.14481404747028731 0 0.22375436818550309 -0.1481099608394684 0 0.23719759697127421 -0.1590569314279755 0 0.23842826524723701 -0.14481404747028731 0 0.22375436818550309 -0.1481099608394684 0 0.2311645697210146 -0.13273253475307389 0 0.22375436818550309 -0.1481099608394684 0 0.2311645697210146 -0.13273253475307389 0 0.20858668232723571 -0.13442876690702729 0 0.22097387041094629 -0.1170989206018505 0 0.2311645697210146 -0.13273253475307389 0 0.20858668232723571 -0.13442876690702729 0 0.19137253810201679 -0.1240302571769123 0 0.22097387041094629 -0.1170989206018505 0 0.20858668232723571 -0.13442876690702729 0 0.22375436818550309 -0.1481099608394684 0 0.20858668232723571 -0.13442876690702729 0 0.20862461462476639 -0.15060064172090759 0 0.22375436818550309 -0.1481099608394684 0 0.20862461462476639 -0.15060064172090759 0 0.22193474538638919 -0.16210046148286411 0 0.20862461462476639 -0.15060064172090759 0 0.18995943234539989 -0.14840476315169759 0 0.20524588375347491 -0.1666280468877675 0 0.20858668232723571 -0.13442876690702729 0 0.20862461462476639 -0.15060064172090759 0 0.18995943234539989 -0.14840476315169759 0 0.19137253810201679 -0.1240302571769123 0 0.20858668232723571 -0.13442876690702729 0 0.18995943234539989 -0.14840476315169759 0 0.20524588375347491 -0.1666280468877675 0 0.203298255657379 -0.18743426180215009 0 0.180542749780085 -0.17595627930282401 0 0.203298255657379 -0.18743426180215009 0 0.18425858982475241 -0.19698180489230019 0 0.180542749780085 -0.17595627930282401 0 0.18995943234539989 -0.14840476315169759 0 0.20524588375347491 -0.1666280468877675 0 0.180542749780085 -0.17595627930282401 0 0.20862461462476639 -0.15060064172090759 0 0.20524588375347491 -0.1666280468877675 0 0.22193474538638919 -0.16210046148286411 0 0.20524588375347491 -0.1666280468877675 0 0.22284227259880721 -0.17784585547248449 0 0.22193474538638919 -0.16210046148286411 0 0.20524588375347491 -0.1666280468877675 0 0.203298255657379 -0.18743426180215009 0 0.22284227259880721 -0.17784585547248449 0 0.22284227259880721 -0.17784585547248449 0 0.23497473965622251 -0.1823810075594624 0 0.22415112114707239 -0.19953526305991939 0 0.22284227259880721 -0.17784585547248449 0 0.23439123328995509 -0.17083070126087629 0 0.23497473965622251 -0.1823810075594624 0 0.22284227259880721 -0.17784585547248449 0 0.22193474538638919 -0.16210046148286411 0 0.23439123328995509 -0.17083070126087629 0 0.22375436818550309 -0.1481099608394684 0 0.22193474538638919 -0.16210046148286411 0 0.23719759697127421 -0.1590569314279755 0 0.22193474538638919 -0.16210046148286411 0 0.23719759697127421 -0.1590569314279755 0 0.23439123328995509 -0.17083070126087629 0 0.25064082575704588 -0.1700039020164818 0 0.2517969940147583 -0.15104916485636141 0 0.23719759697127421 -0.1590569314279755 0 0.23719759697127421 -0.1590569314279755 0 0.23439123328995509 -0.17083070126087629 0 0.24793574579121491 -0.1722810130817983 0 0.25064082575704588 -0.1700039020164818 0 0.23719759697127421 -0.1590569314279755 0 0.24793574579121491 -0.1722810130817983 0 0.25064082575704588 -0.1700039020164818 0 0.23719759697127421 -0.1590569314279755 0 0.25064082575704588 -0.1700039020164818 0 0.24793574579121491 -0.1722810130817983 0 0.23497473965622251 -0.1823810075594624 0 0.24793574579121491 -0.1722810130817983 0 0.2455533254540628 -0.19141220492223349 0 0.23439123328995509 -0.17083070126087629 0 0.23497473965622251 -0.1823810075594624 0 0.24793574579121491 -0.1722810130817983 0 0.2455533254540628 -0.19141220492223349 0 0.22415112114707239 -0.19953526305991939 0 0.23497473965622251 -0.1823810075594624 0 0.2455533254540628 -0.19141220492223349 0 0.22415112114707239 -0.19953526305991939 0 0.2455533254540628 -0.19141220492223349 0 0.2493615313569888 -0.20579470911091521 0 0.22415112114707239 -0.19953526305991939 0 0.2493615313569888 -0.20579470911091521 0 0.24100276054523589 -0.2185255786401053 0 0.22415112114707239 -0.19953526305991939 0 0.24100276054523589 -0.2185255786401053 0 0.22598738599419951 -0.21486602077689801 0 0.22415112114707239 -0.19953526305991939 0 0.25655956082222359 -0.25080388744885951 0 0.24209654147263079 -0.25524217662791832 0 0.23799222890640129 -0.2431198439712699 0 0.26640370198883279 -0.23430641356886209 0 0.24100276054523589 -0.2185255786401053 0 0.23799222890640129 -0.2431198439712699 0 0.24100276054523589 -0.2185255786401053 0 0.23799222890640129 -0.2431198439712699 0 0.2177919448957179 -0.22795184310363059 0 0.24100276054523589 -0.2185255786401053 0 0.22598738599419951 -0.21486602077689801 0 0.2177919448957179 -0.22795184310363059 0 0.20958075582396971 -0.25193327437367768 0 0.23799222890640129 -0.2431198439712699 0 0.20958075582396971 -0.25193327437367768 0 0.23799222890640129 -0.2431198439712699 0 0.2177919448957179 -0.22795184310363059 0 0.20958075582396971 -0.25193327437367768 0 0.2177919448957179 -0.22795184310363059 0 0.2004422225847175 -0.2295732929838665 0 0.2177919448957179 -0.22795184310363059 0 0.2004422225847175 -0.2295732929838665 0 0.20274891684008209 -0.20765832119760519 0 0.2004422225847175 -0.2295732929838665 0 0.20274891684008209 -0.20765832119760519 0 0.18301919041060999 -0.2203001677414628 0 0.2004422225847175 -0.2295732929838665 0 0.18907030495320751 -0.2400228585029564 0 0.18301919041060999 -0.2203001677414628 0 0.20958075582396971 -0.25193327437367768 0 0.19027000216824391 -0.25306176427082933 0 0.18907030495320751 -0.2400228585029564 0 0.20958075582396971 -0.25193327437367768 0 0.2004422225847175 -0.2295732929838665 0 0.18907030495320751 -0.2400228585029564 0 0.203298255657379 -0.18743426180215009 0 0.22284227259880721 -0.17784585547248449 0 0.22415112114707239 -0.19953526305991939 0 0.203298255657379 -0.18743426180215009 0 0.22415112114707239 -0.19953526305991939 0 0.20274891684008209 -0.20765832119760519 0 0.22415112114707239 -0.19953526305991939 0 0.20274891684008209 -0.20765832119760519 0 0.22598738599419951 -0.21486602077689801 0 0.22415112114707239 -0.19953526305991939 0 0.20274891684008209 -0.20765832119760519 0 0.22598738599419951 -0.21486602077689801 0 0.2177919448957179 -0.22795184310363059 0 0.20274891684008209 -0.20765832119760519 0 0.20274891684008209 -0.20765832119760519 0 0.18425858982475241 -0.19698180489230019 0 0.18301919041060999 -0.2203001677414628 0 0.203298255657379 -0.18743426180215009 0 0.20274891684008209 -0.20765832119760519 0 0.18425858982475241 -0.19698180489230019 0 0.18425858982475241 -0.19698180489230019 0 0.16660749314416259 -0.20767183856040841 0 0.18301919041060999 -0.2203001677414628 0 0.16660749314416259 -0.20767183856040841 0 0.1653485473843285 -0.2222763398552739 0 0.14445846841605739 -0.2157354210342998 0 0.16660749314416259 -0.20767183856040841 0 0.18301919041060999 -0.2203001677414628 0 0.1653485473843285 -0.2222763398552739 0 0.18425858982475241 -0.19698180489230019 0 0.16660749314416259 -0.20767183856040841 0 0.15454694510611641 -0.18622066931542061 0 0.18907030495320751 -0.2400228585029564 0 0.18052219150569671 -0.24758160325192061 0 0.17255223165827371 -0.23585658792440689 0 0.18052219150569671 -0.24758160325192061 0 0.17255223165827371 -0.23585658792440689 0 0.17075296256400421 -0.24887823445580179 0 0.19027000216824391 -0.25306176427082933 0 0.18907030495320751 -0.2400228585029564 0 0.18052219150569671 -0.24758160325192061 0 0.17255223165827371 -0.23585658792440689 0 0.18301919041060999 -0.2203001677414628 0 0.1653485473843285 -0.2222763398552739 0 0.18907030495320751 -0.2400228585029564 0 0.17255223165827371 -0.23585658792440689 0 0.18301919041060999 -0.2203001677414628 0 0.17255223165827371 -0.23585658792440689 0 0.1653485473843285 -0.2222763398552739 0 0.1562020872037049 -0.23301432863452479 0 0.17255223165827371 -0.23585658792440689 0 0.16256313148266549 -0.24254949897974021 0 0.1562020872037049 -0.23301432863452479 0 0.15029464079908189 -0.25158054944809299 0 0.16256313148266549 -0.24254949897974021 0 0.1562020872037049 -0.23301432863452479 0 0.15029464079908189 -0.25158054944809299 0 0.16211301339255779 -0.25253309379002159 0 0.16256313148266549 -0.24254949897974021 0 0.17255223165827371 -0.23585658792440689 0 0.16256313148266549 -0.24254949897974021 0 0.17075296256400421 -0.24887823445580179 0 0.16211301339255779 -0.25253309379002159 0 0.16256313148266549 -0.24254949897974021 0 0.17075296256400421 -0.24887823445580179 0 0.15029464079908189 -0.25158054944809299 0 0.14113015602441481 -0.23636737810339861 0 0.1562020872037049 -0.23301432863452479 0 0.1339877596727336 -0.25199910163767042 0 0.15029464079908189 -0.25158054944809299 0 0.14113015602441481 -0.23636737810339861 0 0.14113015602441481 -0.23636737810339861 0 0.1562020872037049 -0.23301432863452479 0 0.14445846841605739 -0.2157354210342998 0 0.1653485473843285 -0.2222763398552739 0 0.1562020872037049 -0.23301432863452479 0 0.14445846841605739 -0.2157354210342998 0 0.11878406133753119 -0.21476462611037389 0 0.12590004361212079 -0.2300012799293091 0 0.14445846841605739 -0.2157354210342998 0 0.14113015602441481 -0.23636737810339861 0 0.12590004361212079 -0.2300012799293091 0 0.14445846841605739 -0.2157354210342998 0 0.1339877596727336 -0.25199910163767042 0 0.14113015602441481 -0.23636737810339861 0 0.12590004361212079 -0.2300012799293091 0 0.1339877596727336 -0.25199910163767042 0 0.11752575702491661 -0.25624050287398092 0 0.12590004361212079 -0.2300012799293091 0 0.14445846841605739 -0.2157354210342998 0 0.1285511404321481 -0.1964850593280171 0 0.15454694510611641 -0.18622066931542061 0 0.1285511404321481 -0.1964850593280171 0 0.15454694510611641 -0.18622066931542061 0 0.16660749314416259 -0.20767183856040841 0 0.14445846841605739 -0.2157354210342998 0 0.15454694510611641 -0.18622066931542061 0 0.11878406133753119 -0.21476462611037389 0 0.14445846841605739 -0.2157354210342998 0 0.1285511404321481 -0.1964850593280171 0 0.120581325569228 -0.17518203794998999 0 0.1285511404321481 -0.1964850593280171 0 0.1394328398817507 -0.16867923054673309 0 0.15454694510611641 -0.18622066931542061 0 0.1394328398817507 -0.16867923054673309 0 0.16350745308404779 -0.15321155077602189 0 0.1285511404321481 -0.1964850593280171 0 0.15454694510611641 -0.18622066931542061 0 0.1394328398817507 -0.16867923054673309 0 0.1394328398817507 -0.16867923054673309 0 0.14179146646407409 -0.14773871194312041 0 0.16350745308404779 -0.15321155077602189 0 0.120581325569228 -0.17518203794998999 0 0.1394328398817507 -0.16867923054673309 0 0.12765904280763571 -0.15808309190882719 0 0.1394328398817507 -0.16867923054673309 0 0.12765904280763571 -0.15808309190882719 0 0.14179146646407409 -0.14773871194312041 0 0.1239060777574726 -0.1424539520567083 0 0.12765904280763571 -0.15808309190882719 0 0.14179146646407409 -0.14773871194312041 0 0.1239060777574726 -0.1424539520567083 0 0.14847948427490371 -0.12909342143829489 0 0.1239060777574726 -0.1424539520567083 0 0.14847948427490371 -0.12909342143829489 0 0.14179146646407409 -0.14773871194312041 0 0.1239060777574726 -0.1424539520567083 0 0.120571393356576 -0.12029381074793299 0 0.14847948427490371 -0.12909342143829489 0 0.14847948427490371 -0.12909342143829489 0 0.14179146646407409 -0.14773871194312041 0 0.16350745308404779 -0.15321155077602189 0 0.1730528907923348 -0.1157328908198814 0 0.14847948427490371 -0.12909342143829489 0 0.17267475041508679 -0.13559147573274591 0 0.14847948427490371 -0.12909342143829489 0 0.16350745308404779 -0.15321155077602189 0 0.17267475041508679 -0.13559147573274591 0 0.19137253810201679 -0.1240302571769123 0 0.18995943234539989 -0.14840476315169759 0 0.17267475041508679 -0.13559147573274591 0 0.1730528907923348 -0.1157328908198814 0 0.19137253810201679 -0.1240302571769123 0 0.17267475041508679 -0.13559147573274591 0 0.18995943234539989 -0.14840476315169759 0 0.16350745308404779 -0.15321155077602189 0 0.17267475041508679 -0.13559147573274591 0 0.15454694510611641 -0.18622066931542061 0 0.16350745308404779 -0.15321155077602189 0 0.180542749780085 -0.17595627930282401 0 0.18995943234539989 -0.14840476315169759 0 0.16350745308404779 -0.15321155077602189 0 0.180542749780085 -0.17595627930282401 0 0.18425858982475241 -0.19698180489230019 0 0.15454694510611641 -0.18622066931542061 0 0.180542749780085 -0.17595627930282401 0 0.15454694510611641 -0.18622066931542061 0 0.180542749780085 -0.17595627930282401 0 
</DataArray>
</Points>
<Cells>
<DataArray type="UInt32" Name="connectivity" format="ascii">
0 1 2 3 4 5 6 7 8 9 10 11 12 13 14 15 16 17 18 19 20 21 22 23 24 25 26 27 28 29 30 31 32 33 34 35 36 37 38 39 40 41 42 43 44 45 46 47 48 49 50 51 52 53 54 55 56 57 58 59 60 61 62 63 64 65 66 67 68 69 70 71 72 73 74 75 76 77 78 79 80 81 82 83 84 85 86 87 88 89 90 91 92 93 94 95 96 97 98 99 100 101 102 103 104 105 106 107 108 109 110 111 112 113 114 115 116 117 118 119 120 121 122 123 124 125 126 127 128 129 130 131 132 133 134 135 136 137 138 139 140 141 142 143 144 145 146 147 148 149 150 151 152 153 154 155 156 157 158 159 160 161 162 163 164 165 166 167 168 169 170 171 172 173 174 175 176 177 178 179 180 181 182 183 184 185 186 187 188 189 190 191 192 193 194 195 196 197 198 199 200 201 202 203 204 205 206 207 208 209 210 211 212 213 214 215 216 217 218 219 220 221 222 223 224 225 226 227 228 229 230 231 232 233 234 235 236 237 238 239 240 241 242 243 244 245 246 247 248 249 250 251 252 253 254 255 256 257 258 259 260 261 262 263 264 265 266 267 268 269 270 271 272 273 274 275 276 277 278 279 280 281 282 283 284 285 286 287 288 289 290 291 292 293 294 295 296 297 298 299 300 301 302 303 304 305 306 307 308 309 310 311 312 313 314 315 316 317 318 319 320 321 322 323 324 325 326 327 328 329 330 331 332 333 334 335 336 337 338 339 340 341 342 343 344 345 346 347 348 349 350 351 352 353 354 355 356 357 358 359 360 361 362 363 364 365 366 367 368 369 370 371 372 373 374 375 376 377 378 379 380 381 382 383 384 385 386 387 388 389 390 391 392 393 394 395 396 397 398 399 400 401 402 403 404 405 406 407 408 409 410 411 412 413 414 415 416 417 418 419 420 421 422 423 424 425 426 427 428 429 430 431 432 433 434 435 436 437 438 439 440 441 442 443 444 445 446 447 448 449 450 451 452 453 454 455 456 457 458 459 460 461 462 463 464 465 466 467 468 469 470 471 472 473 474 475 476 477 478 479 480 481 482 483 484 485 486 487 488 489 490 491 492 493 494 495 496 497 498 499 500 501 502 503 504 505 506 507 508 509 510 511 512 513 514 515 516 517 518 519 520 521 522 523 524 525 526 527 528 529 530 531 532 533 534 535 536 537 538 539 540 541 542 543 544 545 546 547 548 549 550 551 552 553 554 555 556 557 558 559 560 561 562 563 564 565 566 567 568 569 570 571 572 573 574 575 576 577 578 579 580 581 582 583 584 585 586 587 588 589 590 591 592 593 594 595 596 597 598 599 600 601 602 603 604 605 606 607 608 609 610 611 612 613 614 615 616 617 618 619 620 621 622 623 624 625 626 627 628 629 630 631 632 633 634 635 636 637 638 639 640 641 642 643 644 645 646 647 648 649 650 651 652 653 654 655 656 657 658 659 660 661 662 663 664 665 666 667 668 669 670 671 672 673 674 675 676 677 678 679 680 681 682 683 684 685 686 687 688 689 690 691 692 693 694 695 696 697 698 699 700 701 702 703 704 705 706 707 708 709 710 711 712 713 714 715 716 717 718 719 720 721 722 723 724 725 726 727 728 729 730 731 732 733 734 735 736 737 738 739 740 741 742 743 744 745 746 747 748 749 750 751 752 753 754 755 756 757 758 759 760 761 762 763 764 765 766 767 768 769 770 771 772 773 774 775 776 777 778 779 780 781 782 783 784 785 786 787 788 789 790 791 792 793 794 795 796 797 798 799 800 801 802 803 804 805 806 807 808 809 810 811 812 813 814 815 816 817 818 819 820 821 822 823 824 825 826 827 828 829 830 831 832 833 834 835 836 837 838 839 840 841 842 843 844 845 846 847 848 849 850 851 852 853 854 855 856 857 858 859 860 861 862 863 864 865 866 867 868 869 870 871 872 873 874 875 876 877 878 879 880 881 882 883 884 885 886 887 888 889 890 891 892 893 894 895 896 897 898 899 900 901 902 903 904 905 906 907 908 909 910 911 912 913 914 915 916 917 918 919 920 921 922 923 924 925 926 927 928 929 930 931 932 933 934 935 936 937 938 939 940 941 942 943 944 945 946 947 948 949 950 951 952 953 954 955 956 957 958 959 960 961 962 963 964 965 966 967 968 969 970 971 972 973 974 975 976 977 978 979 980 981 982 983 984 985 986 987 988 989 990 991 992 993 994 995 996 997 998 999 1000 1001 1002 1003 1004 1005 1006 1007 1008 1009 1010 1011 1012 1013 1014 1015 1016 1017 1018 1019 1020 1021 1022 1023 1024 1025 1026 1027 1028 1029 1030 1031 1032 1033 1034 1035 1036 1037 1038 1039 1040 1041 1042 1043 1044 1045 1046 1047 1048 1049 1050 1051 1052 1053 1054 1055 1056 1057 1058 1059 1060 1061 1062 1063 1064 1065 1066 1067 1068 1069 1070 1071 1072 1073 1074 1075 1076 1077 1078 1079 1080 1081 1082 1083 1084 1085 1086 1087 1088 1089 1090 1091 1092 1093 1094 1095 1096 1097 1098 1099 1100 1101 1102 1103 1104 1105 1106 1107 1108 1109 1110 1111 1112 1113 1114 1115 1116 1117 1118 1119 1120 1121 1122 1123 1124 1125 1126 1127 1128 1129 1130 1131 1132 1133 1134 1135 1136 1137 1138 1139 1140 1141 1142 1143 1144 1145 1146 1147 1148 1149 1150 1151 1152 1153 1154 1155 1156 1157 1158 1159 1160 1161 1162 1163 1164 1165 1166 1167 1168 1169 1170 1171 1172 1173 1174 1175 1176 1177 1178 1179 1180 1181 1182 1183 1184 1185 1186 1187 1188 1189 1190 1191 1192 1193 1194 1195 1196 1197 1198 1199 1200 1201 1202 1203 1204 1205 1206 1207 1208 1209 1210 1211 1212 1213 1214 1215 1216 1217 1218 1219 1220 1221 1222 1223 1224 1225 1226 1227 1228 1229 1230 1231 1232 1233 1234 1235 1236 1237 1238 1239 1240 1241 1242 1243 1244 1245 1246 1247 1248 1249 1250 1251 1252 1253 1254 1255 1256 1257 1258 1259 1260 1261 1262 1263 1264 1265 1266 1267 1268 1269 1270 1271 1272 1273 1274 1275 1276 1277 1278 1279 1280 1281 1282 1283 1284 1285 1286 1287 1288 1289 1290 1291 1292 1293 1294 1295 1296 1297 1298 1299 1300 1301 1302 1303 1304 1305 1306 1307 1308 1309 1310 1311 1312 1313 1314 1315 1316 1317 1318 1319 1320 1321 1322 1323 1324 1325 1326 1327 1328 1329 1330 1331 1332 1333 1334 1335 1336 1337 1338 1339 1340 1341 1342 1343 1344 1345 1346 1347 1348 1349 1350 1351 1352 1353 1354 1355 1356 1357 1358 1359 1360 1361 1362 1363 1364 1365 1366 1367 1368 1369 1370 1371 1372 1373 1374 1375 1376 1377 1378 1379 1380 1381 1382 1383 1384 1385 1386 1387 1388 1389 1390 1391 1392 1393 1394 1395 1396 1397 1398 1399 1400 1401 1402 1403 1404 1405 1406 1407 1408 1409 1410 1411 1412 1413 1414 1415 1416 1417 1418 1419 1420 1421 1422 1423 1424 1425 1426 1427 1428 1429 1430 1431 1432 1433 1434 1435 1436 1437 1438 1439 1440 1441 1442 1443 1444 1445 1446 1447 1448 1449 1450 1451 1452 1453 1454 1455 1456 1457 1458 1459 1460 1461 1462 1463 1464 1465 1466 1467 1468 1469 1470 1471 1472 1473 1474 1475 1476 1477 1478 1479 1480 1481 1482 1483 1484 1485 1486 1487 1488 1489 1490 1491 1492 1493 1494 1495 1496 1497 1498 1499 1500 1501 1502 1503 1504 1505 1506 1507 1508 1509 1510 1511 1512 1513 1514 1515 1516 1517 1518 1519 1520 1521 1522 1523 1524 1525 1526 1527 1528 1529 1530 1531 1532 1533 1534 1535 1536 1537 1538 1539 1540 1541 1542 1543 1544 1545 1546 1547 1548 1549 1550 1551 1552 1553 1554 1555 1556 1557 1558 1559 1560 1561 1562 1563 1564 1565 1566 1567 1568 1569 1570 1571 1572 1573 1574 1575 1576 1577 1578 1579 1580 1581 1582 1583 1584 1585 1586 1587 1588 1589 1590 1591 1592 1593 1594 1595 1596 1597 1598 1599 1600 1601 1602 1603 1604 1605 1606 1607 1608 1609 1610 1611 1612 1613 1614 1615 1616 1617 1618 1619 1620 1621 1622 1623 1624 1625 1626 1627 1628 1629 1630 1631 1632 1633 1634 1635 1636 1637 1638 1639 1640 1641 1642 1643 1644 1645 1646 1647 1648 1649 1650 1651 1652 1653 1654 1655 1656 1657 1658 1659 1660 1661 1662 1663 1664 1665 1666 1667 1668 1669 1670 1671 1672 1673 1674 1675 1676 1677 1678 1679 1680 1681 1682 1683 1684 1685 1686 1687 1688 1689 1690 1691 1692 1693 1694 1695 1696 1697 1698 1699 1700 1701 1702 1703 1704 1705 1706 1707 1708 1709 1710 1711 1712 1713 1714 1715 1716 1717 1718 1719 1720 1721 1722 1723 1724 1725 1726 1727 1728 1729 1730 1731 1732 1733 1734 1735 1736 1737 1738 1739 1740 1741 1742 1743 1744 1745 1746 1747 1748 1749 1750 1751 1752 1753 1754 1755 1756 1757 1758 1759 1760 1761 1762 1763 1764 1765 1766 1767 1768 1769 1770 1771 1772 1773 1774 1775 1776 1777 1778 1779 1780 1781 1782 1783 1784 1785 1786 1787 1788 1789 1790 1791 1792 1793 1794 1795 1796 1797 1798 1799 1800 1801 1802 1803 1804 1805 1806 1807 1808 1809 1810 1811 1812 1813 1814 1815 1816 1817 1818 1819 1820 1821 1822 1823 1824 1825 1826 1827 1828 1829 1830 1831 1832 1833 1834 1835 1836 1837 1838 1839 1840 1841 1842 1843 1844 1845 1846 1847 1848 1849 1850 1851 1852 1853 1854 1855 1856 1857 1858 1859 1860 1861 1862 1863 1864 1865 1866 1867 1868 1869 1870 1871 1872 1873 1874 1875 1876 1877 1878 1879 1880 1881 1882 1883 1884 1885 1886 1887 1888 1889 1890 1891 1892 1893 1894 1895 1896 1897 1898 1899 1900 1901 1902 1903 1904 1905 1906 1907 1908 1909 1910 1911 1912 1913 1914 1915 1916 1917 1918 1919 1920 1921 1922 1923 1924 1925 1926 1927 1928 1929 1930 1931 1932 1933 1934 1935 1936 1937 1938 1939 1940 1941 1942 1943 1944 1945 1946 1947 1948 1949 1950 1951 1952 1953 1954 1955 1956 1957 1958 1959 1960 1961 1962 1963 1964 1965 1966 1967 1968 1969 1970 1971 1972 1973 1974 1975 1976 1977 1978 1979 1980 1981 1982 1983 1984 1985 1986 1987 1988 1989 1990 1991 1992 1993 1994 1995 1996 1997 1998 1999 2000 2001 2002 2003 2004 2005 2006 2007 2008 2009 2010 2011 2012 2013 2014 2015 2016 2017 2018 2019 2020 2021 2022 2023 2024 2025 2026 2027 2028 2029 2030 2031 2032 2033 2034 2035 2036 2037 2038 2039 2040 2041 2042 2043 2044 2045 2046 2047 2048 2049 2050 2051 2052 2053 2054 2055 2056 2057 2058 2059 2060 2061 2062 2063 2064 2065 2066 2067 2068 2069 2070 2071 2072 2073 2074 2075 2076 2077 2078 2079 2080 2081 2082 2083 2084 2085 2086 2087 2088 2089 2090 2091 2092 2093 2094 2095 2096 2097 2098 2099 2100 2101 2102 2103 2104 2105 2106 2107 2108 2109 2110 2111 2112 2113 2114 2115 2116 2117 2118 2119 2120 2121 2122 2123 2124 2125 2126 2127 2128 2129 2130 2131 2132 2133 2134 2135 2136 2137 2138 2139 2140 2141 2142 2143 2144 2145 2146 2147 2148 2149 2150 2151 2152 2153 2154 2155 2156 2157 2158 2159 2160 2161 2162 2163 2164 2165 2166 2167 2168 2169 2170 2171 2172 2173 2174 2175 2176 2177 2178 2179 2180 2181 2182 2183 2184 2185 2186 2187 2188 2189 2190 2191 2192 2193 2194 2195 2196 2197 2198 2199 2200 2201 2202 2203 2204 2205 2206 2207 2208 2209 2210 2211 2212 2213 2214 2215 2216 2217 2218 2219 2220 2221 2222 2223 2224 2225 2226 2227 2228 2229 2230 2231 2232 2233 2234 2235 2236 2237 2238 2239 2240 2241 2242 2243 2244 2245 2246 2247 2248 2249 2250 2251 2252 2253 2254 2255 2256 2257 2258 2259 2260 2261 2262 2263 2264 2265 2266 2267 2268 2269 2270 2271 2272 2273 2274 2275 2276 2277 2278 2279 2280 2281 2282 2283 2284 2285 2286 2287 2288 2289 2290 2291 2292 2293 2294 2295 2296 2297 2298 2299 2300 2301 2302 2303 2304 2305 2306 2307 2308 2309 2310 2311 2312 2313 2314 2315 2316 2317 2318 2319 2320 2321 2322 2323 2324 2325 2326 2327 2328 2329 2330 2331 2332 2333 2334 2335 2336 2337 2338 2339 2340 2341 2342 2343 2344 2345 2346 2347 2348 2349 2350 2351 2352 2353 2354 2355 2356 2357 2358 2359 2360 2361 2362 2363 2364 2365 2366 2367 2368 2369 2370 2371 2372 2373 2374 2375 2376 2377 2378 2379 2380 2381 2382 2383 2384 2385 2386 2387 2388 2389 2390 2391 2392 2393 2394 2395 2396 2397 2398 2399 2400 2401 2402 2403 2404 2405 2406 2407 2408 2409 2410 2411 2412 2413 2414 2415 2416 2417 2418 2419 2420 2421 2422 2423 2424 2425 2426 2427 2428 2429 2430 2431 2432 2433 2434 2435 2436 2437 2438 2439 2440 2441 2442 2443 2444 2445 2446 2447 2448 2449 2450 2451 2452 2453 2454 2455 2456 2457 2458 2459 2460 2461 2462 2463 2464 2465 2466 2467 2468 2469 2470 2471 2472 2473 2474 2475 2476 2477 2478 2479 2480 2481 2482 2483 2484 2485 2486 2487 2488 2489 2490 2491 2492 2493 2494 2495 2496 2497 2498 2499 2500 2501 2502 2503 2504 2505 2506 2507 2508 2509 2510 2511 2512 2513 2514 2515 2516 2517 2518 2519 2520 2521 2522 2523 2524 2525 2526 2527 2528 2529 2530 2531 2532 2533 2534 2535 2536 2537 2538 2539 2540 2541 2542 2543 2544 2545 2546 2547 2548 2549 2550 2551 2552 2553 2554 2555 2556 2557 2558 2559 2560 2561 2562 2563 2564 2565 2566 2567 2568 2569 2570 2571 2572 2573 2574 2575 2576 2577 2578 2579 2580 2581 2582 2583 2584 2585 2586 2587 2588 2589 2590 2591 2592 2593 2594 2595 2596 2597 2598 2599 2600 2601 2602 2603 2604 2605 2606 2607 2608 2609 2610 2611 2612 2613 2614 2615 2616 2617 2618 2619 2620 2621 2622 2623 2624 2625 2626 2627 2628 2629 2630 2631 2632 2633 2634 2635 2636 2637 2638 2639 2640 2641 2642 2643 2644 2645 2646 2647 2648 2649 2650 2651 2652 2653 2654 2655 2656 2657 2658 2659 2660 2661 2662 2663 2664 2665 2666 2667 2668 2669 2670 2671 2672 2673 2674 2675 2676 2677 2678 2679 2680 2681 2682 2683 2684 2685 2686 2687 2688 2689 2690 2691 2692 2693 2694 2695 2696 2697 2698 2699 2700 2701 2702 2703 2704 2705 2706 2707 2708 2709 2710 2711 2712 2713 2714 2715 2716 2717 2718 2719 2720 2721 2722 2723 2724 2725 2726 2727 2728 2729 2730 2731 2732 2733 2734 2735 2736 2737 2738 2739 2740 2741 2742 2743 2744 2745 2746 2747 2748 2749 2750 2751 2752 2753 2754 2755 2756 2757 2758 2759 2760 2761 2762 2763 2764 2765 2766 2767 2768 2769 2770 2771 2772 2773 2774 2775 2776 2777 2778 2779 2780 2781 2782 2783 2784 2785 2786 2787 2788 2789 2790 2791 2792 2793 2794 2795 2796 2797 2798 2799 2800 2801 2802 2803 2804 2805 2806 2807 2808 2809 2810 2811 2812 2813 2814 2815 2816 2817 2818 2819 2820 2821 2822 2823 2824 2825 2826 2827 2828 2829 2830 2831 2832 2833 2834 2835 2836 2837 2838 2839 2840 2841 2842 2843 2844 2845 2846 2847 2848 2849 2850 2851 2852 2853 2854 2855 2856 2857 2858 2859 2860 2861 2862 2863 2864 2865 2866 2867 2868 2869 2870 2871 2872 2873 2874 2875 2876 2877 2878 2879 2880 2881 2882 2883 2884 2885 2886 2887 2888 2889 2890 2891 2892 2893 2894 2895 2896 2897 2898 2899 2900 2901 2902 2903 2904 2905 2906 2907 2908 2909 2910 2911 2912 2913 2914 2915 2916 2917 2918 2919 2920 2921 2922 2923 2924 2925 2926 2927 2928 2929 2930 2931 2932 2933 2934 2935 2936 2937 2938 2939 2940 2941 2942 2943 2944 2945 2946 2947 2948 2949 2950 2951 2952 2953 2954 2955 2956 2957 2958 2959 2960 2961 2962 2963 2964 2965 2966 2967 2968 2969 2970 2971 2972 2973 2974 2975 2976 2977 2978 2979 2980 2981 2982 2983 2984 2985 2986 2987 2988 2989 2990 2991 2992 2993 2994 2995 2996 2997 2998 2999 3000 3001 3002 3003 3004 3005 3006 3007 3008 3009 3010 3011 3012 3013 3014 3015 3016 3017 3018 3019 3020 3021 3022 3023 3024 3025 3026 3027 3028 3029 3030 3031 3032 3033 3034 3035 3036 3037 3038 3039 3040 3041 3042 3043 3044 3045 3046 3047 3048 3049 3050 3051 3052 3053 3054 3055 3056 3057 3058 3059 3060 3061 3062 3063 3064 3065 3066 3067 3068 3069 3070 3071 3072 3073 3074 3075 3076 3077 3078 3079 3080 3081 3082 3083 3084 3085 3086 3087 3088 3089 3090 3091 3092 3093 3094 3095 3096 3097 3098 3099 3100 3101 3102 3103 3104 3105 3106 3107 3108 3109 3110 3111 3112 3113 3114 3115 3116 3117 3118 3119 3120 3121 3122 3123 3124 3125 3126 3127 3128 3129 3130 3131 3132 3133 3134 3135 3136 3137 3138 3139 3140 3141 3142 3143 3144 3145 3146 3147 3148 3149 3150 3151 3152 3153 3154 3155 3156 3157 3158 3159 3160 3161 3162 3163 3164 3165 3166 3167 3168 3169 3170 3171 3172 3173 3174 3175 3176 3177 3178 3179 3180 3181 3182 3183 3184 3185 3186 3187 3188 3189 3190 3191 3192 3193 3194 3195 3196 3197 3198 3199 3200 3201 3202 3203 3204 3205 3206 3207 3208 3209 3210 3211 3212 3213 3214 3215 3216 3217 3218 3219 3220 3221 3222 3223 3224 3225 3226 3227 3228 3229 3230 3231 3232 3233 3234 3235 3236 3237 3238 3239 3240 3241 3242 3243 3244 3245 3246 3247 3248 3249 3250 3251 3252 3253 3254 3255 3256 3257 3258 3259 3260 3261 3262 3263 3264 3265 3266 3267 3268 3269 3270 3271 3272 3273 3274 3275 3276 3277 3278 3279 3280 3281 3282 3283 3284 3285 3286 3287 3288 3289 3290 3291 3292 3293 3294 3295 3296 3297 3298 3299 3300 3301 3302 3303 3304 3305 3306 3307 3308 3309 3310 3311 3312 3313 3314 3315 3316 3317 3318 3319 3320 3321 3322 3323 3324 3325 3326 3327 3328 3329 3330 3331 3332 3333 3334 3335 3336 3337 3338 3339 3340 3341 3342 3343 3344 3345 3346 3347 3348 3349 3350 3351 3352 3353 3354 3355 3356 3357 3358 3359 3360 3361 3362 3363 3364 3365 3366 3367 3368 3369 3370 3371 3372 3373 3374 3375 3376 3377 3378 3379 3380 3381 3382 3383 3384 3385 3386 3387 3388 3389 3390 3391 3392 3393 3394 3395 3396 3397 3398 3399 3400 3401 3402 3403 3404 3405 3406 3407 3408 3409 3410 3411 3412 3413 3414 3415 3416 3417 3418 3419 3420 3421 3422 3423 3424 3425 3426 3427 3428 3429 3430 3431 3432 3433 3434 3435 3436 3437 3438 3439 3440 3441 3442 3443 3444 3445 3446 3447 3448 3449 3450 3451 3452 3453 3454 3455 3456 3457 3458 3459 3460 3461 3462 3463 3464 3465 3466 3467 3468 3469 3470 3471 3472 3473 3474 3475 3476 3477 3478 3479 3480 3481 3482 3483 3484 3485 3486 3487 3488 3489 3490 3491 3492 3493 3494 3495 3496 3497 3498 3499 3500 3501 3502 3503 3504 3505 3506 3507 3508 3509 3510 3511 3512 3513 3514 3515 3516 3517 3518 3519 3520 3521 3522 3523 3524 3525 3526 3527 3528 3529 3530 3531 3532 3533 3534 3535 3536 3537 3538 3539 3540 3541 3542 3543 3544 3545 3546 3547 3548 3549 3550 3551 3552 3553 3554 3555 3556 3557 3558 3559 3560 3561 3562 3563 3564 3565 3566 3567 3568 3569 3570 3571 3572 3573 3574 3575 3576 3577 3578 3579 3580 3581 3582 3583 3584 3585 3586 3587 3588 3589 3590 3591 3592 3593 3594 3595 3596 3597 3598 3599 3600 3601 3602 3603 3604 3605 3606 3607 3608 3609 3610 3611 3612 3613 3614 3615 3616 3617 3618 3619 3620 3621 3622 3623 3624 3625 3626 3627 3628 3629 3630 3631 3632 3633 3634 3635 3636 3637 3638 3639 3640 3641 3642 3643 3644 3645 3646 3647 3648 3649 3650 3651 3652 3653 3654 3655 3656 3657 3658 3659 3660 3661 3662 3663 3664 3665 3666 3667 3668 3669 3670 3671 3672 3673 3674 3675 3676 3677 3678 3679 3680 3681 3682 3683 3684 3685 3686 3687 3688 3689 3690 3691 3692 3693 3694 3695 3696 3697 3698 3699 3700 3701 3702 3703 3704 3705 3706 3707 3708 3709 3710 3711 3712 3713 3714 3715 3716 3717 3718 3719 3720 3721 3722 3723 3724 3725 3726 3727 3728 3729 3730 3731 3732 3733 3734 3735 3736 3737 3738 3739 3740 3741 3742 3743 3744 3745 3746 3747 3748 3749 3750 3751 3752 3753 3754 3755 3756 3757 3758 3759 3760 3761 3762 3763 3764 3765 3766 3767 3768 3769 3770 3771 3772 3773 3774 3775 3776 3777 3778 3779 3780 3781 3782 3783 3784 3785 3786 3787 3788 3789 3790 3791 3792 3793 3794 3795 3796 3797 3798 3799 3800 3801 3802 3803 3804 3805 3806 3807 3808 3809 3810 3811 3812 3813 3814 3815 3816 3817 3818 3819 3820 3821 3822 3823 3824 3825 3826 3827 3828 3829 3830 3831 3832 3833 3834 3835 3836 3837 3838 3839 3840 3841 3842 3843 3844 3845 3846 3847 3848 3849 3850 3851 3852 3853 3854 3855 3856 3857 3858 3859 3860 3861 3862 3863 3864 3865 3866 3867 3868 3869 3870 3871 3872 3873 3874 3875 3876 3877 3878 3879 3880 3881 3882 3883 3884 3885 3886 3887 3888 3889 3890 3891 3892 3893 3894 3895 3896 3897 3898 3899 3900 3901 3902 3903 3904 3905 3906 3907 3908 3909 3910 3911 3912 3913 3914 3915 3916 3917 3918 3919 3920 3921 3922 3923 3924 3925 3926 3927 3928 3929 3930 3931 3932 3933 3934 3935 3936 3937 3938 3939 3940 3941 3942 3943 3944 3945 3946 3947 3948 3949 3950 3951 3952 3953 3954 3955 3956 3957 3958 3959 3960 3961 3962 3963 3964 3965 3966 3967 3968 3969 3970 3971 3972 3973 3974 3975 3976 3977 3978 3979 3980 3981 3982 3983 3984 3985 3986 3987 3988 3989 3990 3991 3992 3993 3994 3995 3996 3997 3998 3999 4000 4001 4002 4003 4004 4005 4006 4007 4008 4009 4010 4011 4012 4013 4014 4015 4016 4017 4018 4019 4020 4021 4022 4023 4024 4025 4026 4027 4028 4029 4030 4031 4032 4033 4034 4035 4036 4037 4038 4039 4040 4041 4042 4043 4044 4045 4046 4047 4048 4049 4050 4051 4052 4053 4054 4055 4056 4057 4058 4059 4060 4061 4062 4063 4064 4065 4066 4067 4068 4069 4070 4071 4072 4073 4074 4075 4076 4077 4078 4079 4080 4081 4082 4083 4084 4085 4086 4087 4088 4089 4090 4091 4092 4093 4094 4095 4096 4097 4098 4099 4100 4101 4102 4103 4104 4105 4106 4107 4108 4109 4110 4111 4112 4113 4114 4115 4116 4117 4118 4119 4120 4121 4122 4123 4124 4125 4126 4127 4128 4129 4130 4131 4132 4133 4134 4135 4136 4137 4138 4139 4140 4141 4142 4143 4144 4145 4146 4147 4148 4149 4150 4151 4152 4153 4154 4155 4156 4157 4158 4159 4160 4161 4162 4163 4164 4165 4166 4167 4168 4169 4170 4171 4172 4173 4174 4175 4176 4177 4178 4179 4180 4181 4182 4183 4184 4185 4186 4187 4188 4189 4190 4191 4192 4193 4194 4195 4196 4197 4198 4199 4200 4201 4202 4203 4204 4205 4206 4207 4208 4209 4210 4211 4212 4213 4214 4215 4216 4217 4218 4219 4220 4221 4222 4223 4224 4225 4226 4227 4228 4229 4230 4231 4232 4233 4234 4235 4236 4237 4238 4239 4240 4241 4242 4243 4244 4245 4246 4247 4248 4249 4250 4251 4252 4253 4254 4255 4256 4257 4258 4259 4260 4261 4262 4263 4264 4265 4266 4267 4268 4269 4270 4271 4272 4273 4274 4275 4276 4277 4278 4279 4280 4281 4282 4283 4284 4285 4286 4287 4288 4289 4290 4291 4292 4293 4294 4295 4296 4297 4298 4299 4300 4301 4302 4303 4304 4305 4306 4307 4308 4309 4310 4311 4312 4313 4314 4315 4316 4317 4318 4319 4320 4321 4322 4323 4324 4325 4326 4327 4328 4329 4330 4331 4332 4333 4334 4335 4336 4337 4338 4339 4340 4341 4342 4343 4344 4345 4346 4347 4348 4349 4350 4351 4352 4353 4354 4355 4356 4357 4358 4359 4360 4361 4362 4363 4364 4365 4366 4367 4368 4369 4370 4371 4372 4373 4374 4375 4376 4377 4378 4379 4380 4381 4382 4383 4384 4385 4386 4387 4388 4389 4390 4391 4392 4393 4394 4395 4396 4397 4398 4399 4400 4401 4402 4403 4404 4405 4406 4407 4408 4409 4410 4411 4412 4413 4414 4415 4416 4417 4418 4419 4420 4421 4422 4423 4424 4425 4426 4427 4428 4429 4430 4431 4432 4433 4434 4435 4436 4437 4438 4439 4440 4441 4442 4443 4444 4445 4446 4447 4448 4449 4450 4451 4452 4453 4454 4455 4456 4457 4458 4459 4460 4461 4462 4463 4464 4465 4466 4467 4468 4469 4470 4471 4472 4473 4474 4475 4476 4477 4478 4479 4480 4481 4482 4483 4484 4485 4486 4487 4488 4489 4490 4491 4492 4493 4494 4495 4496 4497 4498 4499 4500 4501 4502 4503 4504 4505 4506 4507 4508 4509 4510 4511 4512 4513 4514 4515 4516 4517 4518 4519 4520 4521 4522 4523 4524 4525 4526 4527 4528 4529 4530 4531 4532 4533 4534 4535 4536 4537 4538 4539 4540 4541 4542 4543 4544 4545 4546 4547 4548 4549 4550 4551 4552 4553 4554 4555 4556 4557 4558 4559 4560 4561 4562 4563 4564 4565 4566 4567 4568 4569 4570 4571 4572 4573 4574 4575 4576 4577 4578 4579 4580 4581 4582 4583 4584 4585 4586 4587 4588 4589 4590 4591 4592 4593 4594 4595 4596 4597 4598 4599 4600 4601 4602 4603 4604 4605 4606 4607 4608 4609 4610 4611 4612 4613 4614 4615 4616 4617 4618 4619 4620 4621 4622 4623 4624 4625 4626 4627 4628 4629 4630 4631 4632 4633 4634 4635 4636 4637 4638 4639 4640 4641 4642 4643 4644 4645 4646 4647 4648 4649 4650 4651 4652 4653 4654 4655 4656 4657 4658 4659 4660 4661 4662 4663 4664 4665 4666 4667 4668 4669 4670 4671 4672 4673 4674 4675 4676 4677 4678 4679 4680 4681 4682 4683 4684 4685 4686 4687 4688 4689 4690 4691 4692 4693 4694 4695 4696 4697 4698 4699 4700 4701 4702 4703 4704 4705 4706 4707 4708 4709 4710 4711 4712 4713 4714 4715 4716 4717 4718 4719 4720 4721 4722 4723 4724 4725 4726 4727 4728 4729 4730 4731 4732 4733 4734 4735 4736 4737 4738 4739 4740 4741 4742 4743 4744 4745 4746 4747 4748 4749 4750 4751 4752 4753 4754 4755 4756 4757 4758 4759 4760 4761 4762 4763 4764 4765 4766 4767 4768 4769 4770 4771 4772 4773 4774 4775 4776 4777 4778 4779 4780 4781 4782 4783 4784 4785 4786 4787 4788 4789 4790 4791 4792 4793 4794 4795 4796 4797 4798 4799 4800 4801 4802 4803 4804 4805 4806 4807 4808 4809 4810 4811 4812 4813 4814 4815 4816 4817 4818 4819 4820 4821 4822 4823 4824 4825 4826 4827 4828 4829 4830 4831 4832 4833 4834 4835 4836 4837 4838 4839 4840 4841 4842 4843 4844 4845 4846 4847 4848 4849 4850 4851 4852 4853 4854 4855 4856 4857 4858 4859 4860 4861 4862 4863 4864 4865 4866 4867 4868 4869 4870 4871 4872 4873 4874 4875 4876 4877 4878 4879 4880 4881 4882 4883 4884 4885 4886 4887 4888 4889 4890 4891 4892 4893 4894 4895 4896 4897 4898 4899 4900 4901 4902 4903 4904 4905 4906 4907 4908 4909 4910 4911 4912 4913 4914 4915 4916 4917 4918 4919 4920 4921 4922 4923 4924 4925 4926 4927 4928 4929 4930 4931 4932 4933 4934 4935 4936 4937 4938 4939 4940 4941 4942 4943 4944 4945 4946 4947 4948 4949 4950 4951 4952 4953 4954 4955 4956 4957 4958 4959 4960 4961 4962 4963 4964 4965 4966 4967 4968 4969 4970 4971 4972 4973 4974 4975 4976 4977 4978 4979 4980 4981 4982 4983 4984 4985 4986 4987 4988 4989 4990 4991 4992 4993 4994 4995 4996 4997 4998 4999 5000 5001 5002 5003 5004 5005 5006 5007 5008 5009 5010 5011 5012 5013 5014 5015 5016 5017 5018 5019 5020 5021 5022 5023 5024 5025 5026 5027 5028 5029 5030 5031 5032 5033 5034 5035 5036 5037 5038 5039 5040 5041 5042 5043 5044 5045 5046 5047 5048 5049 5050 5051 5052 5053 5054 5055 5056 5057 5058 5059 5060 5061 5062 5063 5064 5065 5066 5067 5068 5069 5070 5071 5072 5073 5074 5075 5076 5077 5078 5079 5080 5081 5082 5083 5084 5085 5086 5087 5088 5089 5090 5091 5092 5093 5094 5095 5096 5097 5098 5099 5100 5101 5102 5103 5104 5105 5106 5107 5108 5109 5110 5111 5112 5113 5114 5115 5116 5117 5118 5119 5120 5121 5122 5123 5124 5125 5126 5127 5128 5129 5130 5131 5132 5133 5134 5135 5136 5137 5138 5139 5140 5141 5142 5143 5144 5145 5146 5147 5148 5149 5150 5151 5152 5153 5154 5155 5156 5157 5158 5159 5160 5161 5162 5163 5164 5165 5166 5167 5168 5169 5170 5171 5172 5173 5174 5175 5176 5177 5178 5179 5180 5181 5182 5183 5184 5185 5186 5187 5188 5189 5190 5191 5192 5193 5194 5195 5196 5197 5198 5199 5200 5201 5202 5203 5204 5205 5206 5207 5208 5209 5210 5211 5212 5213 5214 5215 5216 5217 5218 5219 5220 5221 5222 5223 5224 5225 5226 5227 5228 5229 5230 5231 5232 5233 5234 5235 5236 5237 5238 5239 5240 5241 5242 5243 5244 5245 5246 5247 5248 5249 5250 5251 5252 5253 5254 5255 5256 5257 5258 5259 5260 5261 5262 5263 5264 5265 5266 5267 5268 5269 5270 5271 5272 5273 5274 5275 5276 5277 5278 5279 5280 5281 5282 5283 5284 5285 5286 5287 5288 5289 5290 5291 5292 5293 5294 5295 5296 5297 5298 5299 5300 5301 5302 5303 5304 5305 5306 5307 5308 5309 5310 5311 5312 5313 5314 5315 5316 5317 5318 5319 5320 5321 5322 5323 5324 5325 5326 5327 5328 5329 5330 5331 5332 5333 5334 5335 5336 5337 5338 5339 5340 5341 5342 5343 5344 5345 5346 5347 5348 5349 5350 5351 5352 5353 5354 5355 5356 5357 5358 5359 5360 5361 5362 5363 5364 5365 5366 5367 5368 5369 5370 5371 5372 5373 5374 5375 5376 5377 5378 5379 5380 5381 5382 5383 5384 5385 5386 5387 5388 5389 5390 5391 5392 5393 5394 5395 5396 5397 5398 5399 5400 5401 5402 5403 5404 5405 5406 5407 5408 5409 5410 5411 5412 5413 5414 5415 5416 5417 5418 5419 5420 5421 5422 5423 5424 5425 5426 5427 5428 5429 5430 5431 5432 5433 5434 5435 5436 5437 5438 5439 5440 5441 5442 5443 5444 5445 5446 5447 5448 5449 5450 5451 5452 5453 5454 5455 5456 5457 5458 5459 5460 5461 5462 5463 5464 5465 5466 5467 5468 5469 5470 5471 5472 5473 5474 5475 5476 5477 5478 5479 5480 5481 5482 5483 5484 5485 5486 5487 5488 5489 5490 5491 5492 5493 5494 5495 5496 5497 5498 5499 5500 5501 5502 5503 5504 5505 5506 5507 5508 5509 5510 5511 5512 5513 5514 5515 5516 5517 5518 5519 5520 5521 5522 5523 5524 5525 5526 5527 5528 5529 5530 5531 5532 5533 5534 5535 5536 5537 5538 5539 5540 5541 5542 5543 5544 5545 5546 5547 5548 5549 5550 5551 5552 5553 5554 5555 5556 5557 5558 5559 5560 5561 5562 5563 5564 5565 5566 5567 5568 5569 5570 5571 5572 5573 5574 5575 5576 5577 5578 5579 5580 5581 5582 5583 5584 5585 5586 5587 5588 5589 5590 5591 5592 5593 5594 5595 5596 5597 5598 5599 5600 5601 5602 5603 5604 5605 5606 5607 5608 5609 5610 5611 5612 5613 5614 5615 5616 5617 5618 5619 5620 5621 5622 5623 5624 5625 5626 5627 5628 5629 5630 5631 5632 5633 5634 5635 5636 5637 5638 5639 5640 5641 5642 5643 5644 5645 5646 5647 5648 5649 5650 5651 5652 5653 5654 5655 5656 5657 5658 5659 5660 5661 5662 5663 5664 5665 5666 5667 5668 5669 5670 5671 5672 5673 5674 5675 5676 5677 5678 5679 5680 5681 5682 5683 5684 5685 5686 5687 5688 5689 5690 5691 5692 5693 5694 5695 5696 5697 5698 5699 5700 5701 5702 5703 5704 5705 5706 5707 5708 5709 5710 5711 5712 5713 5714 5715 5716 5717 5718 5719 5720 5721 5722 5723 5724 5725 5726 5727 5728 5729 5730 5731 5732 5733 5734 5735 5736 5737 5738 5739 5740 5741 5742 5743 5744 5745 5746 5747 5748 5749 5750 5751 5752 5753 5754 5755 5756 5757 5758 5759 5760 5761 5762 5763 5764 5765 5766 5767 5768 5769 5770 5771 5772 5773 5774 5775 5776 5777 5778 5779 5780 5781 5782 5783 5784 5785 5786 5787 5788 5789 5790 5791 5792 5793 5794 5795 5796 5797 5798 5799 5800 5801 5802 5803 5804 5805 5806 5807 5808 5809 5810 5811 5812 5813 5814 5815 5816 5817 5818 5819 5820 5821 5822 5823 5824 5825 5826 5827 5828 5829 5830 5831 5832 5833 5834 5835 5836 5837 5838 5839 5840 5841 5842 5843 5844 5845 5846 5847 5848 5849 5850 5851 5852 5853 5854 5855 5856 5857 5858 5859 5860 5861 5862 5863 5864 5865 5866 5867 5868 5869 5870 5871 5872 5873 5874 5875 5876 5877 5878 5879 5880 5881 5882 5883 5884 5885 5886 5887 5888 5889 5890 5891 5892 5893 5894 5895 5896 5897 5898 5899 5900 5901 5902 5903 5904 5905 5906 5907 5908 5909 5910 5911 5912 5913 5914 5915 5916 5917 5918 5919 5920 5921 5922 5923 5924 5925 5926 5927 5928 5929 5930 5931 5932 5933 5934 5935 5936 5937 5938 5939 5940 5941 5942 5943 5944 5945 5946 5947 5948 5949 5950 5951 5952 5953 5954 5955 5956 5957 5958 5959 5960 5961 5962 5963 5964 5965 5966 5967 5968 5969 5970 5971 5972 5973 5974 5975 5976 5977 5978 5979 5980 5981 5982 5983 5984 5985 5986 5987 5988 5989 5990 5991 5992 5993 5994 5995 5996 5997 5998 5999 6000 6001 6002 6003 6004 6005 6006 6007 6008 6009 6010 6011 6012 6013 6014 6015 6016 6017 6018 6019 6020 6021 6022 6023 6024 6025 6026 6027 6028 6029 6030 6031 6032 6033 6034 6035 6036 6037 6038 6039 6040 6041 6042 6043 6044 6045 6046 6047 6048 6049 6050 6051 6052 6053 6054 6055 6056 6057 6058 6059 6060 6061 6062 6063 6064 6065 6066 6067 6068 6069 6070 6071 6072 6073 6074 6075 6076 6077 6078 6079 6080 6081 6082 6083 6084 6085 6086 6087 6088 6089 6090 6091 6092 6093 6094 6095 6096 6097 6098 6099 6100 6101 6102 6103 6104 6105 6106 6107 6108 6109 6110 6111 6112 6113 6114 6115 6116 6117 6118 6119 6120 6121 6122 6123 6124 6125 6126 6127 6128 6129 6130 6131 6132 6133 6134 6135 6136 6137 6138 6139 6140 6141 6142 6143 6144 6145 6146 6147 6148 6149 6150 6151 6152 6153 6154 6155 6156 6157 6158 6159 6160 6161 6162 6163 6164 6165 6166 6167 6168 6169 6170 6171 6172 6173 6174 6175 6176 6177 6178 6179 6180 6181 6182 6183 6184 6185 6186 6187 6188 6189 6190 6191 6192 6193 6194 6195 6196 6197 6198 6199 6200 6201 6202 6203 6204 6205 6206 6207 6208 6209 6210 6211 6212 6213 6214 6215 6216 6217 6218 6219 6220 6221 6222 6223 6224 6225 6226 6227 6228 6229 6230 6231 6232 6233 6234 6235 6236 6237 6238 6239 6240 6241 6242 6243 6244 6245 6246 6247 6248 6249 6250 6251 6252 6253 6254 6255 6256 6257 6258 6259 6260 6261 6262 6263 6264 6265 6266 6267 6268 6269 6270 6271 6272 6273 6274 6275 6276 6277 6278 6279 6280 6281 6282 6283 6284 6285 6286 6287 6288 6289 6290 6291 6292 6293 6294 6295 6296 6297 6298 6299 6300 6301 6302 6303 6304 6305 6306 6307 6308 6309 6310 6311 6312 6313 6314 6315 6316 6317 6318 6319 6320 6321 6322 6323 6324 6325 6326 6327 6328 6329 6330 6331 6332 6333 6334 6335 6336 6337 6338 6339 6340 6341 6342 6343 6344 6345 6346 6347 6348 6349 6350 6351 6352 6353 6354 6355 6356 6357 6358 6359 6360 6361 6362 6363 6364 6365 6366 6367 6368 6369 6370 6371 6372 6373 6374 6375 6376 6377 6378 6379 6380 6381 6382 6383 6384 6385 6386 6387 6388 6389 6390 6391 6392 6393 6394 6395 6396 6397 6398 6399 6400 6401 6402 6403 6404 6405 6406 6407 6408 6409 6410 6411 6412 6413 6414 6415 6416 6417 6418 6419 6420 6421 6422 6423 6424 6425 6426 6427 6428 6429 6430 6431 6432 6433 6434 6435 6436 6437 6438 6439 6440 6441 6442 6443 6444 6445 6446 6447 6448 6449 6450 6451 6452 6453 6454 6455 6456 6457 6458 6459 6460 6461 6462 6463 6464 6465 6466 6467 6468 6469 6470 6471 6472 6473 6474 6475 6476 6477 6478 6479 6480 6481 6482 6483 6484 6485 6486 6487 6488 6489 6490 6491 6492 6493 6494 6495 6496 6497 6498 6499 6500 6501 6502 6503 6504 6505 6506 6507 6508 6509 6510 6511 6512 6513 6514 6515 6516 6517 6518 6519 6520 6521 6522 6523 6524 6525 6526 6527 6528 6529 6530 6531 6532 6533 6534 6535 6536 6537 6538 6539 6540 6541 6542 6543 6544 6545 6546 6547 6548 6549 6550 6551 6552 6553 6554 6555 6556 6557 6558 6559 6560 6561 6562 6563 6564 6565 6566 6567 6568 6569 6570 6571 6572 6573 6574 6575 6576 6577 6578 6579 6580 6581 6582 6583 6584 6585 6586 6587 6588 6589 6590 6591 6592 6593 6594 6595 6596 6597 6598 6599 6600 6601 6602 6603 6604 6605 6606 6607 6608 6609 6610 6611 6612 6613 6614 6615 6616 6617 6618 6619 6620 6621 6622 6623 6624 6625 6626 6627 6628 6629 6630 6631 6632 6633 6634 6635 6636 6637 6638 6639 6640 6641 6642 6643 6644 6645 6646 6647 6648 6649 6650 6651 6652 6653 6654 6655 6656 6657 6658 6659 6660 6661 6662 6663 6664 6665 6666 6667 6668 6669 6670 6671 6672 6673 6674 6675 6676 6677 6678 6679 6680 6681 6682 6683 6684 6685 6686 6687 6688 6689 6690 6691 6692 6693 6694 6695 6696 6697 6698 6699 6700 6701 6702 6703 6704 6705 6706 6707 6708 6709 6710 6711 6712 6713 6714 6715 6716 6717 6718 6719 6720 6721 6722 6723 6724 6725 6726 6727 6728 6729 6730 6731 6732 6733 6734 6735 6736 6737 6738 6739 6740 6741 6742 6743 6744 6745 6746 6747 6748 6749 6750 6751 6752 6753 6754 6755 6756 6757 6758 6759 6760 6761 6762 6763 6764 6765 6766 6767 6768 6769 6770 6771 6772 6773 6774 6775 6776 6777 6778 6779 6780 6781 6782 6783 6784 6785 6786 6787 6788 6789 6790 6791 6792 6793 6794 6795 6796 6797 6798 6799 6800 6801 6802 6803 6804 6805 6806 6807 6808 6809 6810 6811 6812 6813 6814 6815 6816 6817 6818 6819 6820 6821 6822 6823 6824 6825 6826 6827 6828 6829 6830 6831 6832 6833 6834 6835 6836 6837 6838 6839 6840 6841 6842 6843 6844 6845 6846 6847 6848 6849 6850 6851 6852 6853 6854 6855 6856 6857 6858 6859 6860 6861 6862 6863 6864 6865 6866 6867 6868 6869 6870 6871 6872 6873 6874 6875 6876 6877 6878 6879 6880 6881 6882 6883 6884 6885 6886 6887 6888 6889 6890 6891 6892 6893 6894 6895 6896 6897 6898 6899 6900 6901 6902 6903 6904 6905 6906 6907 6908 6909 6910 6911 6912 6913 6914 6915 6916 6917 6918 6919 6920 6921 6922 6923 6924 6925 6926 6927 6928 6929 6930 6931 6932 6933 6934 6935 6936 6937 6938 6939 6940 6941 6942 6943 6944 6945 6946 6947 6948 6949 6950 6951 6952 6953 6954 6955 6956 6957 6958 6959 6960 6961 6962 6963 6964 6965 6966 6967 6968 6969 6970 6971 6972 6973 6974 6975 6976 6977 6978 6979 6980 6981 6982 6983 6984 6985 6986 6987 6988 6989 6990 6991 6992 6993 6994 6995 6996 6997 6998 6999 7000 7001 7002 7003 7004 7005 7006 7007 7008 7009 7010 7011 7012 7013 7014 7015 7016 7017 7018 7019 7020 7021 7022 7023 7024 7025 7026 7027 7028 7029 7030 7031 7032 7033 7034 7035 7036 7037 7038 7039 7040 7041 7042 7043 7044 7045 7046 7047 7048 7049 7050 7051 7052 7053 7054 7055 7056 7057 7058 7059 7060 7061 7062 7063 7064 7065 7066 7067 7068 7069 7070 7071 7072 7073 7074 7075 7076 7077 7078 7079 7080 7081 7082 7083 7084 7085 7086 7087 7088 7089 7090 7091 7092 7093 7094 7095 7096 7097 7098 7099 7100 7101 7102 7103 7104 7105 7106 7107 7108 7109 7110 7111 7112 7113 7114 7115 7116 7117 7118 7119 7120 7121 7122 7123 7124 7125 7126 7127 7128 7129 7130 7131 7132 7133 7134 7135 7136 7137 7138 7139 7140 7141 7142 7143 7144 7145 7146 7147 7148 7149 7150 7151 7152 7153 7154 7155 7156 7157 7158 7159 7160 7161 7162 7163 7164 7165 7166 7167 7168 7169 7170 7171 7172 7173 7174 7175 7176 7177 7178 7179 7180 7181 7182 7183 7184 7185 7186 7187 7188 7189 7190 7191 7192 7193 7194 7195 7196 7197 7198 7199 7200 7201 7202 7203 7204 7205 7206 7207 7208 7209 7210 7211 7212 7213 7214 7215 7216 7217 7218 7219 7220 7221 7222 7223 7224 7225 7226 7227 7228 7229 7230 7231 7232 7233 7234 7235 7236 7237 7238 7239 7240 7241 7242 7243 7244 7245 7246 7247 7248 7249 7250 7251 7252 7253 7254 7255 7256 7257 7258 7259 7260 7261 7262 7263 7264 7265 7266 7267 7268 7269 7270 7271 7272 7273 7274 7275 7276 7277 7278 7279 7280 7281 7282 7283 7284 7285 7286 7287 7288 7289 7290 7291 7292 7293 7294 7295 7296 7297 7298 7299 7300 7301 7302 7303 7304 7305 7306 7307 7308 7309 7310 7311 7312 7313 7314 7315 7316 7317 7318 7319 7320 7321 7322 7323 7324 7325 7326 7327 7328 7329 7330 7331 7332 7333 7334 7335 7336 7337 7338 7339 7340 7341 7342 7343 7344 7345 7346 7347 7348 7349 7350 7351 7352 7353 7354 7355 7356 7357 7358 7359 7360 7361 7362 7363 7364 7365 7366 7367 7368 7369 7370 7371 7372 7373 7374 7375 7376 7377 7378 7379 7380 7381 7382 7383 7384 7385 7386 7387 7388 7389 7390 7391 7392 7393 7394 7395 7396 7397 7398 7399 7400 7401 7402 7403 7404 7405 7406 7407 7408 7409 7410 7411 7412 7413 7414 7415 7416 7417 7418 7419 7420 7421 7422 7423 7424 7425 7426 7427 7428 7429 7430 7431 7432 7433 7434 7435 7436 7437 7438 7439 7440 7441 7442 7443 7444 7445 7446 7447 7448 7449 7450 7451 7452 7453 7454 7455 7456 7457 7458 7459 7460 7461 7462 7463 7464 7465 7466 7467 7468 7469 7470 7471 7472 7473 7474 7475 7476 7477 7478 7479 7480 7481 7482 7483 7484 7485 7486 7487 7488 7489 7490 7491 7492 7493 7494 7495 7496 7497 7498 7499 7500 7501 7502 7503 7504 7505 7506 7507 7508 7509 7510 7511 7512 7513 7514 7515 7516 7517 7518 7519 7520 7521 7522 7523 7524 7525 7526 7527 7528 7529 7530 7531 7532 7533 7534 7535 7536 7537 7538 7539 7540 7541 7542 7543 7544 7545 7546 7547 7548 7549 7550 7551 7552 7553 7554 7555 7556 7557 7558 7559 7560 7561 7562 7563 7564 7565 7566 7567 7568 7569 7570 7571 7572 7573 7574 7575 7576 7577 7578 7579 7580 7581 7582 7583 7584 7585 7586 7587 7588 7589 7590 7591 7592 7593 7594 7595 7596 7597 7598 7599 7600 7601 7602 7603 7604 7605 7606 7607 7608 7609 7610 7611 7612 7613 7614 7615 7616 7617 7618 7619 7620 7621 7622 7623 7624 7625 7626 7627 7628 7629 7630 7631 7632 7633 7634 7635 7636 7637 7638 7639 7640 7641 7642 7643 7644 7645 7646 7647 7648 7649 7650 7651 7652 7653 7654 7655 7656 7657 7658 7659 7660 7661 7662 7663 7664 7665 7666 7667 7668 7669 7670 7671 7672 7673 7674 7675 7676 7677 7678 7679 7680 7681 7682 7683 7684 7685 7686 7687 7688 7689 7690 7691 7692 7693 7694 7695 7696 7697 7698 7699 7700 7701 7702 7703 7704 7705 7706 7707 7708 7709 7710 7711 7712 7713 7714 7715 7716 7717 7718 7719 7720 7721 7722 7723 7724 7725 7726 7727 7728 7729 7730 7731 7732 7733 7734 7735 7736 7737 7738 7739 7740 7741 7742 7743 7744 7745 7746 7747 7748 7749 7750 7751 7752 7753 7754 7755 7756 7757 7758 7759 7760 7761 7762 7763 7764 7765 7766 7767 7768 7769 7770 7771 7772 7773 7774 7775 7776 7777 7778 7779 7780 7781 7782 7783 7784 7785 7786 7787 7788 7789 7790 7791 7792 7793 7794 7795 7796 7797 7798 7799 7800 7801 7802 7803 7804 7805 7806 7807 7808 7809 7810 7811 7812 7813 7814 7815 7816 7817 7818 7819 7820 7821 7822 7823 7824 7825 7826 7827 7828 7829 7830 7831 7832 7833 7834 7835 7836 7837 7838 7839 7840 7841 7842 7843 7844 7845 7846 7847 7848 7849 7850 7851 7852 7853 7854 7855 7856 7857 7858 7859 7860 7861 7862 7863 7864 7865 7866 7867 7868 7869 7870 7871 7872 7873 7874 7875 7876 7877 7878 7879 7880 7881 7882 7883 7884 7885 7886 7887 7888 7889 7890 7891 7892 7893 7894 7895 7896 7897 7898 7899 7900 7901 7902 7903 7904 7905 7906 7907 7908 7909 7910 7911 7912 7913 7914 7915 7916 7917 7918 7919 7920 7921 7922 7923 7924 7925 7926 7927 7928 7929 7930 7931 7932 7933 7934 7935 7936 7937 7938 7939 7940 7941 7942 7943 7944 7945 7946 7947 7948 7949 7950 7951 7952 7953 7954 7955 7956 7957 7958 7959 7960 7961 7962 7963 7964 7965 7966 7967 7968 7969 7970 7971 7972 7973 7974 7975 7976 7977 7978 7979 7980 7981 7982 7983 7984 7985 7986 7987 7988 7989 7990 7991 7992 7993 7994 7995 7996 7997 7998 7999 8000 8001 8002 8003 8004 8005 8006 8007 8008 8009 8010 8011 8012 8013 8014 8015 8016 8017 8018 8019 8020 8021 8022 8023 8024 8025 8026 8027 8028 8029 8030 8031 8032 8033 8034 8035 8036 8037 8038 8039 8040 8041 8042 8043 8044 8045 8046 8047 8048 8049 8050 8051 8052 8053 8054 8055 8056 8057 8058 8059 8060 8061 8062 8063 8064 8065 8066 8067 8068 8069 8070 8071 8072 8073 8074 8075 8076 8077 8078 8079 8080 8081 8082 8083 8084 8085 8086 8087 8088 8089 8090 8091 8092 8093 8094 8095 8096 8097 8098 8099 8100 8101 8102 8103 8104 8105 8106 8107 8108 8109 8110 8111 8112 8113 8114 8115 8116 8117 8118 8119 8120 8121 8122 8123 8124 8125 8126 8127 8128 8129 8130 8131 8132 8133 8134 8135 8136 8137 8138 8139 8140 8141 8142 8143 8144 8145 8146 8147 8148 8149 8150 8151 8152 8153 8154 8155 8156 8157 8158 8159 8160 8161 8162 8163 8164 8165 8166 8167 8168 8169 8170 8171 8172 8173 8174 8175 8176 8177 8178 8179 8180 8181 8182 8183 8184 8185 8186 8187 8188 8189 8190 8191 8192 8193 8194 8195 8196 8197 8198 8199 8200 8201 8202 8203 8204 8205 8206 8207 8208 8209 8210 8211 8212 8213 8214 8215 8216 8217 8218 8219 8220 8221 8222 8223 8224 8225 8226 8227 8228 8229 8230 8231 8232 8233 8234 8235 8236 8237 8238 8239 8240 8241 8242 8243 8244 8245 8246 8247 8248 8249 8250 8251 8252 8253 8254 8255 8256 8257 8258 8259 8260 8261 8262 8263 8264 8265 8266 8267 8268 8269 8270 8271 8272 8273 8274 8275 8276 8277 8278 8279 8280 8281 8282 8283 8284 8285 8286 8287 8288 8289 8290 8291 8292 8293 8294 8295 8296 8297 8298 8299 8300 8301 8302 8303 8304 8305 8306 8307 8308 8309 8310 8311 8312 8313 8314 8315 8316 8317 8318 8319 8320 8321 8322 8323 8324 8325 8326 8327 8328 8329 8330 8331 8332 8333 8334 8335 8336 8337 8338 8339 8340 8341 8342 8343 8344 8345 8346 8347 8348 8349 8350 8351 8352 8353 8354 8355 8356 8357 8358 8359 8360 8361 8362 8363 8364 8365 8366 8367 8368 8369 8370 8371 8372 8373 8374 8375 8376 8377 8378 8379 8380 8381 8382 8383 8384 8385 8386 8387 8388 8389 8390 8391 8392 8393 8394 8395 8396 8397 8398 8399 8400 8401 8402 8403 8404 8405 8406 8407 8408 8409 8410 8411 8412 8413 8414 8415 8416 8417 8418 8419 8420 8421 8422 8423 8424 8425 8426 8427 8428 8429 8430 8431 8432 8433 8434 8435 8436 8437 8438 8439 8440 8441 8442 8443 8444 8445 8446 8447 8448 8449 8450 8451 8452 8453 8454 8455 8456 8457 8458 8459 8460 8461 8462 8463 8464 8465 8466 8467 8468 8469 8470 8471 8472 8473 8474 8475 8476 8477 8478 8479 8480 8481 8482 8483 8484 8485 8486 8487 8488 8489 8490 8491 8492 8493 8494 8495 8496 8497 8498 8499 8500 8501 8502 8503 8504 8505 8506 8507 8508 8509 8510 8511 8512 8513 8514 8515 8516 8517 8518 8519 8520 8521 8522 8523 8524 8525 8526 8527 8528 8529 8530 8531 8532 8533 8534 8535 8536 8537 8538 8539 8540 8541 8542 8543 8544 8545 8546 8547 8548 8549 8550 8551 8552 8553 8554 8555 8556 8557 8558 8559 8560 8561 8562 8563 8564 8565 8566 8567 8568 8569 8570 8571 8572 8573 8574 8575 8576 8577 8578 8579 8580 8581 8582 8583 8584 8585 8586 8587 8588 8589 8590 8591 8592 8593 8594 8595 8596 8597 8598 8599 8600 8601 8602 8603 8604 8605 8606 8607 8608 8609 8610 8611 8612 8613 8614 8615 8616 8617 8618 8619 8620 8621 8622 8623 8624 8625 8626 8627 8628 8629 8630 8631 8632 8633 8634 8635 8636 8637 8638 8639 8640 8641 8642 8643 8644 8645 8646 8647 8648 8649 8650 8651 8652 8653 8654 8655 8656 8657 8658 8659 8660 8661 8662 8663 8664 8665 8666 8667 8668 8669 8670 8671 8672 8673 8674 8675 8676 8677 8678 8679 8680 8681 8682 8683 8684 8685 8686 8687 8688 8689 8690 8691 8692 8693 8694 8695 8696 8697 8698 8699 8700 8701 8702 8703 8704 8705 8706 8707 8708 8709 8710 8711 8712 8713 8714 8715 8716 8717 8718 8719 8720 8721 8722 8723 8724 8725 8726 8727 8728 8729 8730 8731 8732 8733 8734 8735 8736 8737 8738 8739 8740 8741 8742 8743 8744 8745 8746 8747 8748 8749 8750 8751 8752 8753 8754 8755 8756 8757 8758 8759 8760 8761 8762 8763 8764 8765 8766 8767 8768 8769 8770 8771 8772 8773 8774 8775 8776 8777 8778 8779 8780 8781 8782 8783 8784 8785 8786 8787 8788 8789 8790 8791 8792 8793 8794 8795 8796 8797 8798 8799 8800 8801 8802 8803 8804 8805 8806 8807 8808 8809 8810 8811 8812 8813 8814 8815 8816 8817 8818 8819 8820 8821 8822 8823 8824 8825 8826 8827 8828 8829 8830 8831 8832 8833 8834 8835 8836 8837 8838 8839 8840 8841 8842 8843 8844 8845 8846 8847 8848 8849 8850 8851 8852 8853 8854 8855 8856 8857 8858 8859 8860 8861 8862 8863 8864 8865 8866 8867 8868 8869 8870 8871 8872 8873 8874 8875 8876 8877 8878 8879 8880 8881 8882 8883 8884 8885 8886 8887 8888 8889 8890 8891 8892 8893 8894 8895 8896 8897 8898 8899 8900 8901 8902 8903 8904 8905 8906 8907 8908 8909 8910 8911 8912 8913 8914 8915 8916 8917 8918 8919 8920 8921 8922 8923 8924 8925 8926 8927 8928 8929 8930 8931 8932 8933 8934 8935 8936 8937 8938 8939 8940 8941 8942 8943 8944 8945 8946 8947 8948 8949 8950 8951 8952 8953 8954 8955 8956 8957 8958 8959 8960 8961 8962 8963 8964 8965 8966 8967 8968 8969 8970 8971 8972 8973 8974 8975 8976 8977 8978 8979 8980 8981 8982 8983 8984 8985 8986 8987 8988 8989 8990 8991 8992 8993 8994 8995 8996 8997 8998 8999 9000 9001 9002 9003 9004 9005 9006 9007 9008 9009 9010 9011 9012 9013 9014 9015 9016 9017 9018 9019 9020 9021 9022 9023 9024 9025 9026 9027 9028 9029 9030 9031 9032 9033 9034 9035 9036 9037 9038 9039 9040 9041 9042 9043 9044 9045 9046 9047 9048 9049 9050 9051 9052 9053 9054 9055 9056 9057 9058 9059 9060 9061 9062 9063 9064 9065 9066 9067 9068 9069 9070 9071 9072 9073 9074 9075 9076 9077 9078 9079 9080 9081 9082 9083 9084 9085 9086 9087 9088 9089 9090 9091 9092 9093 9094 9095 9096 9097 9098 9099 9100 9101 9102 9103 9104 9105 9106 9107 9108 9109 9110 9111 9112 9113 9114 9115 9116 9117 9118 9119 9120 9121 9122 9123 9124 9125 9126 9127 9128 9129 9130 9131 9132 9133 9134 9135 9136 9137 9138 9139 9140 9141 9142 9143 9144 9145 9146 9147 9148 9149 9150 9151 9152 9153 9154 9155 9156 9157 9158 9159 9160 9161 9162 9163 9164 9165 9166 9167 9168 9169 9170 9171 9172 9173 9174 9175 9176 9177 9178 9179 9180 9181 9182 9183 9184 9185 9186 9187 9188 9189 9190 9191 9192 9193 9194 9195 9196 9197 9198 9199 9200 9201 9202 9203 9204 9205 9206 9207 9208 9209 9210 9211 9212 9213 9214 9215 9216 9217 9218 9219 9220 9221 9222 9223 9224 9225 9226 9227 9228 9229 9230 9231 9232 9233 9234 9235 9236 9237 9238 9239 9240 9241 9242 9243 9244 9245 9246 9247 9248 9249 9250 9251 9252 9253 9254 9255 9256 9257 9258 9259 9260 9261 9262 9263 9264 9265 9266 9267 9268 9269 9270 9271 9272 9273 9274 9275 9276 9277 9278 9279 9280 9281 9282 9283 9284 9285 9286 9287 9288 9289 9290 9291 9292 9293 9294 9295 9296 9297 9298 9299 9300 9301 9302 9303 9304 9305 9306 9307 9308 9309 9310 9311 9312 9313 9314 9315 9316 9317 9318 9319 9320 9321 9322 9323 9324 9325 9326 9327 9328 9329 9330 9331 9332 9333 9334 9335 9336 9337 9338 9339 9340 9341 9342 9343 9344 9345 9346 9347 9348 9349 9350 9351 9352 9353 9354 9355 9356 9357 9358 9359 9360 9361 9362 9363 9364 9365 9366 9367 9368 9369 9370 9371 9372 9373 9374 9375 9376 9377 9378 9379 9380 9381 9382 9383 9384 9385 9386 9387 9388 9389 9390 9391 9392 9393 9394 9395 9396 9397 9398 9399 9400 9401 9402 9403 9404 9405 9406 9407 9408 9409 9410 9411 9412 9413 9414 9415 9416 9417 9418 9419 9420 9421 9422 9423 9424 9425 9426 9427 9428 9429 9430 9431 9432 9433 9434 9435 9436 9437 9438 9439 9440 9441 9442 9443 9444 9445 9446 9447 9448 9449 9450 9451 9452 9453 9454 9455 9456 9457 9458 9459 9460 9461 9462 9463 9464 9465 9466 9467 9468 9469 9470 9471 9472 9473 9474 9475 9476 9477 9478 9479 9480 9481 9482 9483 9484 9485 9486 9487 9488 9489 9490 9491 9492 9493 9494 9495 9496 9497 9498 9499 9500 9501 9502 9503 9504 9505 9506 9507 9508 9509 9510 9511 9512 9513 9514 9515 9516 9517 9518 9519 9520 9521 9522 9523 9524 9525 9526 9527 9528 9529 9530 9531 9532 9533 9534 9535 9536 9537 9538 9539 9540 9541 9542 9543 9544 9545 9546 9547 9548 9549 9550 9551 9552 9553 9554 9555 9556 9557 9558 9559 9560 9561 9562 9563 9564 9565 9566 9567 9568 9569 9570 9571 9572 9573 9574 9575 9576 9577 9578 9579 9580 9581 9582 9583 9584 9585 9586 9587 9588 9589 9590 9591 9592 9593 9594 9595 9596 9597 9598 9599 9600 9601 9602 9603 9604 9605 9606 9607 9608 9609 9610 9611 9612 9613 9614 9615 9616 9617 9618 9619 9620 9621 9622 9623 9624 9625 9626 9627 9628 9629 9630 9631 9632 9633 9634 9635 9636 9637 9638 9639 9640 9641 9642 9643 9644 9645 9646 9647 9648 9649 9650 9651 9652 9653 9654 9655 9656 9657 9658 9659 9660 9661 9662 9663 9664 9665 9666 9667 9668 9669 9670 9671 9672 9673 9674 9675 9676 9677 9678 9679 9680 9681 9682 9683 9684 9685 9686 9687 9688 9689 9690 9691 9692 9693 9694 9695 9696 9697 9698 9699 9700 9701 9702 9703 9704 9705 9706 9707 9708 9709 9710 9711 9712 9713 9714 9715 9716 9717 9718 9719 9720 9721 9722 9723 9724 9725 9726 9727 9728 9729 9730 9731 9732 9733 9734 9735 9736 9737 9738 9739 9740 9741 9742 9743 9744 9745 9746 9747 9748 9749 9750 9751 9752 9753 9754 9755 9756 9757 9758 9759 9760 9761 9762 9763 9764 9765 9766 9767 9768 9769 9770 9771 9772 9773 9774 9775 9776 9777 9778 9779 9780 9781 9782 9783 9784 9785 9786 9787 9788 9789 9790 9791 9792 9793 9794 9795 9796 9797 9798 9799 9800 9801 9802 9803 9804 9805 9806 9807 9808 9809 9810 9811 9812 9813 9814 9815 9816 9817 9818 9819 9820 9821 9822 9823 9824 9825 9826 9827 9828 9829 9830 9831 9832 9833 9834 9835 9836 9837 9838 9839 9840 9841 9842 9843 9844 9845 9846 9847 9848 9849 9850 9851 9852 9853 9854 9855 9856 9857 9858 9859 9860 9861 9862 9863 9864 9865 9866 9867 9868 9869 9870 9871 9872 9873 9874 9875 9876 9877 9878 9879 9880 9881 9882 9883 9884 9885 9886 9887 9888 9889 9890 9891 9892 9893 9894 9895 9896 9897 9898 9899 9900 9901 9902 9903 9904 9905 9906 9907 9908 9909 9910 9911 9912 9913 9914 9915 9916 9917 9918 9919 9920 9921 9922 9923 9924 9925 9926 9927 9928 9929 9930 9931 9932 9933 9934 9935 9936 9937 9938 9939 9940 9941 9942 9943 9944 9945 9946 9947 9948 9949 9950 9951 9952 9953 9954 9955 9956 9957 9958 9959 9960 9961 9962 9963 9964 9965 9966 9967 9968 9969 9970 9971 9972 9973 9974 9975 9976 9977 9978 9979 9980 9981 9982 9983 9984 9985 9986 9987 9988 9989 9990 9991 9992 9993 9994 9995 9996 9997 9998 9999 10000 10001 10002 10003 10004 10005 10006 10007 10008 10009 10010 10011 10012 10013 10014 10015 10016 10017 10018 10019 10020 10021 10022 10023 10024 10025 10026 10027 10028 10029 10030 10031 10032 10033 10034 10035 10036 10037 10038 10039 10040 10041 10042 10043 10044 10045 10046 10047 10048 10049 10050 10051 10052 10053 10054 10055 10056 10057 10058 10059 10060 10061 10062 10063 10064 10065 10066 10067 10068 10069 10070 10071 10072 10073 10074 10075 10076 10077 10078 10079 10080 10081 10082 10083 10084 10085 10086 10087 10088 10089 10090 10091 10092 10093 10094 10095 10096 10097 10098 10099 10100 10101 10102 10103 10104 10105 10106 10107 10108 10109 10110 10111 10112 10113 10114 10115 10116 10117 10118 10119 10120 10121 10122 10123 10124 10125 10126 10127 10128 10129 10130 10131 10132 10133 10134 10135 10136 10137 10138 10139 10140 10141 10142 10143 10144 10145 10146 10147 10148 10149 10150 10151 10152 10153 10154 10155 10156 10157 10158 10159 10160 10161 10162 10163 10164 10165 10166 10167 10168 10169 10170 10171 10172 10173 10174 10175 10176 10177 10178 10179 10180 10181 10182 10183 10184 10185 10186 10187 10188 10189 10190 10191 10192 10193 10194 10195 10196 10197 10198 10199 10200 10201 10202 10203 10204 10205 10206 10207 10208 10209 10210 10211 10212 10213 10214 10215 10216 10217 10218 10219 10220 10221 10222 10223 10224 10225 10226 10227 10228 10229 10230 10231 10232 10233 10234 10235 10236 10237 10238 10239 10240 10241 10242 10243 10244 10245 10246 10247 10248 10249 10250 10251 10252 10253 10254 10255 10256 10257 10258 10259 10260 10261 10262 10263 10264 10265 10266 10267 10268 10269 10270 10271 10272 10273 10274 10275 10276 10277 10278 10279 10280 10281 10282 10283 10284 10285 10286 10287 10288 10289 10290 10291 10292 10293 10294 10295 10296 10297 10298 10299 10300 10301 10302 10303 10304 10305 10306 10307 10308 10309 10310 10311 10312 10313 10314 10315 10316 10317 10318 10319 10320 10321 10322 10323 10324 10325 10326 10327 10328 10329 10330 10331 10332 10333 10334 10335 10336 10337 10338 10339 10340 10341 10342 10343 10344 10345 10346 10347 10348 10349 10350 10351 10352 10353 10354 10355 10356 10357 10358 10359 10360 10361 10362 10363 10364 10365 10366 10367 10368 10369 10370 10371 10372 10373 10374 10375 10376 10377 10378 10379 10380 10381 10382 10383 10384 10385 10386 10387 10388 10389 10390 10391 10392 10393 10394 10395 10396 10397 10398 10399 10400 10401 10402 10403 10404 10405 10406 10407 10408 10409 10410 10411 10412 10413 10414 10415 10416 10417 10418 10419 10420 10421 10422 10423 10424 10425 10426 10427 10428 10429 10430 10431 10432 10433 10434 10435 10436 10437 10438 10439 10440 10441 10442 10443 10444 10445 10446 10447 10448 10449 10450 10451 10452 10453 10454 10455 10456 10457 10458 10459 10460 10461 10462 10463 10464 10465 10466 10467 10468 10469 10470 10471 10472 10473 10474 10475 10476 10477 10478 10479 10480 10481 10482 10483 10484 10485 10486 10487 10488 10489 10490 10491 10492 10493 10494 10495 10496 10497 10498 10499 10500 10501 10502 10503 10504 10505 10506 10507 10508 10509 10510 10511 10512 10513 10514 10515 10516 10517 10518 10519 10520 10521 10522 10523 10524 10525 10526 10527 10528 10529 10530 10531 10532 10533 10534 10535 10536 10537 10538 10539 10540 10541 10542 10543 10544 10545 10546 10547 10548 10549 10550 10551 10552 10553 10554 10555 10556 10557 10558 10559 10560 10561 10562 10563 10564 10565 10566 10567 10568 10569 10570 10571 10572 10573 10574 10575 10576 10577 10578 10579 10580 10581 10582 10583 10584 10585 10586 10587 10588 10589 10590 10591 10592 10593 10594 10595 10596 10597 10598 10599 10600 10601 10602 10603 10604 10605 10606 10607 10608 10609 10610 10611 10612 10613 10614 10615 10616 10617 10618 10619 10620 10621 10622 10623 10624 10625 10626 10627 10628 10629 10630 10631 10632 10633 10634 10635 10636 10637 10638 10639 10640 10641 10642 10643 10644 10645 10646 10647 10648 10649 10650 10651 10652 10653 10654 10655 10656 10657 10658 10659 10660 10661 10662 10663 10664 10665 10666 10667 10668 10669 10670 10671 10672 10673 10674 10675 10676 10677 10678 10679 10680 10681 10682 10683 10684 10685 10686 10687 10688 10689 10690 10691 10692 10693 10694 10695 10696 10697 10698 10699 10700 10701 10702 10703 10704 10705 10706 10707 10708 10709 10710 10711 10712 10713 10714 10715 10716 10717 10718 10719 10720 10721 10722 10723 10724 10725 10726 10727 10728 10729 10730 10731 10732 10733 10734 10735 10736 10737 10738 10739 10740 10741 10742 10743 10744 10745 10746 10747 10748 10749 10750 10751 10752 10753 10754 10755 10756 10757 10758 10759 10760 10761 10762 10763 10764 10765 10766 10767 10768 10769 10770 10771 10772 10773 10774 10775 10776 10777 10778 10779 10780 10781 10782 10783 10784 10785 10786 10787 10788 10789 10790 10791 10792 10793 10794 10795 10796 10797 10798 10799 10800 10801 10802 10803 10804 10805 10806 10807 10808 10809 10810 10811 10812 10813 10814 10815 10816 10817 10818 10819 10820 10821 10822 10823 10824 10825 10826 10827 10828 10829 10830 10831 10832 10833 10834 10835 10836 10837 10838 10839 10840 10841 10842 10843 10844 10845 10846 10847 10848 10849 10850 10851 10852 10853 10854 10855 10856 10857 10858 10859 10860 10861 10862 10863 10864 10865 10866 10867 10868 10869 10870 10871 10872 10873 10874 10875 10876 10877 10878 10879 10880 10881 10882 10883 10884 10885 10886 10887 10888 10889 10890 10891 10892 10893 10894 10895 10896 10897 10898 10899 10900 10901 10902 10903 10904 10905 10906 10907 10908 10909 10910 10911 10912 10913 10914 10915 10916 10917 10918 10919 10920 10921 10922 10923 10924 10925 10926 10927 10928 10929 10930 10931 10932 10933 10934 10935 10936 10937 10938 10939 10940 10941 10942 10943 10944 10945 10946 10947 10948 10949 10950 10951 10952 10953 10954 10955 10956 10957 10958 10959 10960 10961 10962 10963 10964 10965 10966 10967 10968 10969 10970 10971 10972 10973 10974 10975 10976 10977 10978 10979 10980 10981 10982 10983 10984 10985 10986 10987 10988 10989 10990 10991 10992 10993 10994 10995 10996 10997 10998 10999 11000 11001 11002 11003 11004 11005 11006 11007 11008 11009 11010 11011 11012 11013 11014 11015 11016 11017 11018 11019 11020 11021 11022 11023 11024 11025 11026 11027 11028 11029 11030 11031 11032 11033 11034 11035 11036 11037 11038 11039 11040 11041 11042 11043 11044 11045 11046 11047 11048 11049 11050 11051 11052 11053 11054 11055 11056 11057 11058 11059 11060 11061 11062 11063 11064 11065 11066 11067 11068 11069 11070 11071 11072 11073 11074 11075 11076 11077 11078 11079 11080 11081 11082 11083 11084 11085 11086 11087 11088 11089 11090 11091 11092 11093 11094 11095 11096 11097 11098 11099 11100 11101 11102 11103 11104 11105 11106 11107 11108 11109 11110 11111 11112 11113 11114 11115 11116 11117 11118 11119 11120 11121 11122 11123 11124 11125 11126 11127 11128 11129 11130 11131 11132 11133 11134 11135 11136 11137 11138 11139 11140 11141 11142 11143 11144 11145 11146 11147 11148 11149 11150 11151 11152 11153 11154 11155 11156 11157 11158 11159 11160 11161 11162 11163 11164 11165 11166 11167 11168 11169 11170 11171 11172 11173 11174 11175 11176 11177 11178 11179 11180 11181 11182 11183 11184 11185 11186 11187 11188 11189 11190 11191 11192 11193 11194 11195 11196 11197 11198 11199 11200 11201 11202 11203 11204 11205 11206 11207 11208 11209 11210 11211 11212 11213 11214 11215 11216 11217 11218 11219 11220 11221 11222 11223 11224 11225 11226 11227 11228 11229 11230 11231 11232 11233 11234 11235 11236 11237 11238 11239 11240 11241 11242 11243 11244 11245 11246 11247 11248 11249 11250 11251 11252 11253 11254 11255 11256 11257 11258 11259 11260 11261 11262 11263 11264 11265 11266 11267 11268 11269 11270 11271 11272 11273 11274 11275 11276 11277 11278 11279 11280 11281 11282 11283 11284 11285 11286 11287 11288 11289 11290 11291 11292 11293 11294 11295 11296 11297 11298 11299 11300 11301 11302 11303 11304 11305 11306 11307 11308 11309 11310 11311 11312 11313 11314 11315 11316 11317 11318 11319 11320 11321 11322 11323 11324 11325 11326 11327 11328 11329 11330 11331 11332 11333 11334 11335 11336 11337 11338 11339 11340 11341 11342 11343 11344 11345 11346 11347 11348 11349 11350 11351 11352 11353 11354 11355 11356 11357 11358 11359 11360 11361 11362 11363 11364 11365 11366 11367 11368 11369 11370 11371 11372 11373 11374 11375 11376 11377 11378 11379 11380 11381 11382 11383 11384 11385 11386 11387 11388 11389 11390 11391 11392 11393 11394 11395 11396 11397 11398 11399 11400 11401 11402 11403 11404 11405 11406 11407 11408 11409 11410 11411 11412 11413 11414 11415 11416 11417 11418 11419 11420 11421 11422 11423 11424 11425 11426 11427 11428 11429 11430 11431 11432 11433 11434 11435 11436 11437 11438 11439 11440 11441 11442 11443 11444 11445 11446 11447 11448 11449 11450 11451 11452 11453 11454 11455 11456 11457 11458 11459 11460 11461 11462 11463 11464 11465 11466 11467 11468 11469 11470 11471 11472 11473 11474 11475 11476 11477 11478 11479 11480 11481 11482 11483 11484 11485 11486 11487 11488 11489 11490 11491 11492 11493 11494 11495 11496 11497 11498 11499 11500 11501 11502 11503 11504 11505 11506 11507 11508 11509 11510 11511 11512 11513 11514 11515 11516 11517 11518 11519 11520 11521 11522 11523 11524 11525 11526 11527 11528 11529 11530 11531 11532 11533 11534 11535 11536 11537 11538 11539 11540 11541 11542 11543 11544 11545 11546 11547 11548 11549 11550 11551 11552 11553 11554 11555 11556 11557 11558 11559 11560 11561 11562 11563 11564 11565 11566 11567 11568 11569 11570 11571 11572 11573 11574 11575 11576 11577 11578 11579 11580 11581 11582 11583 11584 11585 11586 11587 11588 11589 11590 11591 11592 11593 11594 11595 11596 11597 11598 11599 11600 11601 11602 11603 11604 11605 11606 11607 11608 11609 11610 11611 11612 11613 11614 11615 11616 11617 11618 11619 11620 11621 11622 11623 11624 11625 11626 11627 11628 11629 11630 11631 11632 11633 11634 11635 11636 11637 11638 11639 11640 11641 11642 11643 11644 11645 11646 11647 11648 11649 11650 11651 11652 11653 11654 11655 11656 11657 11658 11659 11660 11661 11662 11663 11664 11665 11666 11667 11668 11669 11670 11671 11672 11673 11674 11675 11676 11677 11678 11679 11680 11681 11682 11683 11684 11685 11686 11687 11688 11689 11690 11691 11692 11693 11694 11695 11696 11697 11698 11699 11700 11701 11702 11703 11704 11705 11706 11707 11708 11709 11710 11711 11712 11713 11714 11715 11716 11717 11718 11719 11720 11721 11722 11723 11724 11725 11726 11727 11728 11729 11730 11731 11732 11733 11734 11735 11736 11737 11738 11739 11740 11741 11742 11743 11744 11745 11746 11747 11748 11749 11750 11751 11752 11753 11754 11755 11756 11757 11758 11759 11760 11761 11762 11763 11764 11765 11766 11767 11768 11769 11770 11771 11772 11773 11774 11775 11776 11777 11778 11779 11780 11781 11782 11783 11784 11785 11786 11787 11788 11789 11790 11791 11792 11793 11794 11795 11796 11797 11798 11799 11800 11801 11802 11803 11804 11805 11806 11807 11808 11809 11810 11811 11812 11813 11814 11815 11816 11817 11818 11819 11820 11821 11822 11823 11824 11825 11826 11827 11828 11829 11830 11831 11832 11833 11834 11835 11836 11837 11838 11839 11840 11841 11842 11843 11844 11845 11846 11847 11848 11849 11850 11851 11852 11853 11854 11855 11856 11857 11858 11859 11860 11861 11862 11863 11864 11865 11866 11867 11868 11869 11870 11871 11872 11873 11874 11875 11876 11877 11878 11879 11880 11881 11882 11883 11884 11885 11886 11887 11888 11889 11890 11891 11892 11893 11894 11895 11896 11897 11898 11899 11900 11901 11902 11903 11904 11905 11906 11907 11908 11909 11910 11911 11912 11913 11914 11915 11916 11917 11918 11919 11920 11921 11922 11923 11924 11925 11926 11927 11928 11929 11930 11931 11932 11933 11934 11935 11936 11937 11938 11939 11940 11941 11942 11943 11944 11945 11946 11947 11948 11949 11950 11951 11952 11953 11954 11955 11956 11957 11958 11959 11960 11961 11962 11963 11964 11965 11966 11967 11968 11969 11970 11971 11972 11973 11974 11975 11976 11977 11978 11979 11980 11981 11982 11983 11984 11985 11986 11987 11988 11989 11990 11991 11992 11993 11994 11995 11996 11997 11998 11999 12000 12001 12002 12003 12004 12005 12006 12007 12008 12009 12010 12011 12012 12013 12014 12015 12016 12017 12018 12019 12020 12021 12022 12023 12024 12025 12026 12027 12028 12029 12030 12031 12032 12033 12034 12035 12036 12037 12038 12039 12040 12041 12042 12043 12044 12045 12046 12047 12048 12049 12050 12051 12052 12053 12054 12055 12056 12057 12058 12059 12060 12061 12062 12063 12064 12065 12066 12067 12068 12069 12070 12071 12072 12073 12074 12075 12076 12077 12078 12079 12080 12081 12082 12083 12084 12085 12086 12087 12088 12089 12090 12091 12092 12093 12094 12095 12096 12097 12098 12099 12100 12101 12102 12103 12104 12105 12106 12107 12108 12109 12110 12111 12112 12113 12114 12115 12116 12117 12118 12119 12120 12121 12122 12123 12124 12125 12126 12127 12128 12129 12130 12131 12132 12133 12134 12135 12136 12137 12138 12139 12140 12141 12142 12143 12144 12145 12146 12147 12148 12149 12150 12151 12152 12153 12154 12155 12156 12157 12158 12159 12160 12161 12162 12163 12164 12165 12166 12167 12168 12169 12170 12171 12172 12173 12174 12175 12176 12177 12178 12179 12180 12181 12182 12183 12184 12185 12186 12187 12188 12189 12190 12191 12192 12193 12194 12195 12196 12197 12198 12199 12200 12201 12202 12203 12204 12205 12206 12207 12208 12209 12210 12211 12212 12213 12214 12215 12216 12217 12218 12219 12220 12221 12222 12223 12224 12225 12226 12227 12228 12229 12230 12231 12232 12233 12234 12235 12236 12237 12238 12239 12240 12241 12242 12243 12244 12245 12246 12247 12248 12249 12250 12251 12252 12253 12254 12255 12256 12257 12258 12259 12260 12261 12262 12263 12264 12265 12266 12267 12268 12269 12270 12271 12272 12273 12274 12275 12276 12277 12278 12279 12280 12281 12282 12283 12284 12285 12286 12287 12288 12289 12290 12291 12292 12293 12294 12295 12296 12297 12298 12299 12300 12301 12302 12303 12304 12305 12306 12307 12308 12309 12310 12311 12312 12313 12314 12315 12316 12317 12318 12319 12320 12321 12322 12323 12324 12325 12326 12327 12328 12329 12330 12331 12332 12333 12334 12335 12336 12337 12338 12339 12340 12341 12342 12343 12344 12345 12346 12347 12348 12349 12350 12351 12352 12353 12354 12355 12356 12357 12358 12359 12360 12361 12362 12363 12364 12365 12366 12367 12368 12369 12370 12371 12372 12373 12374 12375 12376 12377 12378 12379 12380 12381 12382 12383 12384 12385 12386 12387 12388 12389 12390 12391 12392 12393 12394 12395 12396 12397 12398 12399 12400 12401 12402 12403 12404 12405 12406 12407 12408 12409 12410 12411 12412 12413 12414 12415 12416 12417 12418 12419 12420 12421 12422 12423 12424 12425 12426 12427 12428 12429 12430 12431 12432 12433 12434 12435 12436 12437 12438 12439 12440 12441 12442 12443 12444 12445 12446 12447 12448 12449 12450 12451 12452 12453 12454 12455 12456 12457 12458 12459 12460 12461 12462 12463 12464 12465 12466 12467 12468 12469 12470 12471 12472 12473 12474 12475 12476 12477 12478 12479 12480 12481 12482 12483 12484 12485 12486 12487 12488 12489 12490 12491 12492 12493 12494 12495 12496 12497 12498 12499 12500 12501 12502 12503 12504 12505 12506 12507 12508 12509 12510 12511 12512 12513 12514 12515 12516 12517 12518 12519 12520 12521 12522 12523 12524 12525 12526 12527 12528 12529 12530 12531 12532 12533 12534 12535 12536 12537 12538 12539 12540 12541 12542 12543 12544 12545 12546 12547 12548 12549 12550 12551 12552 12553 12554 12555 12556 12557 12558 12559 12560 12561 12562 12563 12564 12565 12566 12567 12568 12569 12570 12571 12572 12573 12574 12575 12576 12577 12578 12579 12580 12581 12582 12583 12584 12585 12586 12587 12588 12589 12590 12591 12592 12593 12594 12595 12596 12597 12598 12599 12600 12601 12602 12603 12604 12605 12606 12607 12608 12609 12610 12611 12612 12613 12614 12615 12616 12617 12618 12619 12620 12621 12622 12623 12624 12625 12626 12627 12628 12629 12630 12631 12632 12633 12634 12635 12636 12637 12638 12639 12640 12641 12642 12643 12644 12645 12646 12647 12648 12649 12650 12651 12652 12653 12654 12655 12656 12657 12658 12659 12660 12661 12662 12663 12664 12665 12666 12667 12668 12669 12670 12671 12672 12673 12674 12675 12676 12677 12678 12679 12680 12681 12682 12683 12684 12685 12686 12687 12688 12689 12690 12691 12692 12693 12694 12695 12696 12697 12698 12699 12700 12701 12702 12703 12704 12705 12706 12707 12708 12709 12710 12711 12712 12713 12714 12715 12716 12717 12718 12719 12720 12721 12722 12723 12724 12725 12726 12727 12728 12729 12730 12731 12732 12733 12734 12735 12736 12737 12738 12739 12740 12741 12742 12743 12744 12745 12746 12747 12748 12749 12750 12751 12752 12753 12754 12755 12756 12757 12758 12759 12760 12761 12762 12763 12764 12765 12766 12767 12768 12769 12770 12771 12772 12773 12774 12775 12776 12777 12778 12779 12780 12781 12782 12783 12784 12785 12786 12787 12788 12789 12790 12791 12792 12793 12794 12795 12796 12797 12798 12799 12800 12801 12802 12803 12804 12805 12806 12807 12808 12809 12810 12811 12812 12813 12814 12815 12816 12817 12818 12819 12820 12821 12822 12823 12824 12825 12826 12827 12828 12829 12830 12831 12832 12833 12834 12835 12836 12837 12838 12839 12840 12841 12842 12843 12844 12845 12846 12847 12848 12849 12850 12851 12852 12853 12854 12855 12856 12857 12858 12859 12860 12861 12862 12863 12864 12865 12866 12867 12868 12869 12870 12871 12872 12873 12874 12875 12876 12877 12878 12879 12880 12881 12882 12883 12884 12885 12886 12887 12888 12889 12890 12891 12892 12893 12894 12895 12896 12897 12898 12899 12900 12901 12902 12903 12904 12905 12906 12907 12908 12909 12910 12911 12912 12913 12914 12915 12916 12917 12918 12919 12920 12921 12922 12923 12924 12925 12926 12927 12928 12929 12930 12931 12932 12933 12934 12935 12936 12937 12938 12939 12940 12941 12942 12943 12944 12945 12946 12947 12948 12949 12950 12951 12952 12953 12954 12955 12956 12957 12958 12959 12960 12961 12962 12963 12964 12965 12966 12967 12968 12969 12970 12971 12972 12973 12974 12975 12976 12977 12978 12979 12980 12981 12982 12983 12984 12985 12986 12987 12988 12989 12990 12991 12992 12993 12994 12995 12996 12997 12998 12999 13000 13001 13002 13003 13004 13005 13006 13007 13008 13009 13010 13011 13012 13013 13014 13015 13016 13017 13018 13019 13020 13021 13022 13023 13024 13025 13026 13027 13028 13029 13030 13031 13032 13033 13034 13035 13036 13037 13038 13039 13040 13041 13042 13043 13044 13045 13046 13047 13048 13049 13050 13051 13052 13053 13054 13055 13056 13057 13058 13059 13060 13061 13062 13063 13064 13065 13066 13067 13068 13069 13070 13071 13072 13073 13074 13075 13076 13077 13078 13079 13080 13081 13082 13083 13084 13085 13086 13087 13088 13089 13090 13091 13092 13093 13094 13095 13096 13097 13098 13099 13100 13101 13102 13103 13104 13105 13106 13107 13108 13109 13110 13111 13112 13113 13114 13115 13116 13117 13118 13119 13120 13121 13122 13123 13124 13125 13126 13127 13128 13129 13130 13131 13132 13133 13134 13135 13136 13137 13138 13139 13140 13141 13142 13143 13144 13145 13146 13147 13148 13149 13150 13151 13152 13153 13154 13155 13156 13157 13158 13159 13160 13161 13162 13163 13164 13165 13166 13167 13168 13169 13170 13171 13172 13173 13174 13175 13176 13177 13178 13179 13180 13181 13182 13183 13184 13185 13186 13187 13188 13189 13190 13191 13192 13193 13194 13195 13196 13197 13198 13199 13200 13201 13202 13203 13204 13205 13206 13207 13208 13209 13210 13211 13212 13213 13214 13215 13216 13217 13218 13219 13220 13221 13222 13223 13224 13225 13226 13227 13228 13229 13230 13231 13232 13233 13234 13235 13236 13237 13238 13239 13240 13241 13242 13243 13244 13245 13246 13247 13248 13249 13250 13251 13252 13253 13254 13255 13256 13257 13258 13259 13260 13261 13262 13263 13264 13265 13266 13267 13268 13269 13270 13271 13272 13273 13274 13275 13276 13277 13278 13279 13280 13281 13282 13283 13284 13285 13286 13287 13288 13289 13290 13291 13292 13293 13294 13295 13296 13297 13298 13299 13300 13301 13302 13303 13304 13305 13306 13307 13308 13309 13310 13311 13312 13313 13314 13315 13316 13317 13318 13319 13320 13321 13322 13323 13324 13325 13326 13327 13328 13329 13330 13331 13332 13333 13334 13335 13336 13337 13338 13339 13340 13341 13342 13343 13344 13345 13346 13347 13348 13349 13350 13351 13352 13353 13354 13355 13356 13357 13358 13359 13360 13361 13362 13363 13364 13365 13366 13367 13368 13369 13370 13371 13372 13373 13374 13375 13376 13377 13378 13379 13380 13381 13382 13383 13384 13385 13386 13387 13388 13389 13390 13391 13392 13393 13394 13395 13396 13397 13398 13399 13400 13401 13402 13403 13404 13405 13406 13407 13408 13409 13410 13411 13412 13413 13414 13415 13416 13417 13418 13419 13420 13421 13422 13423 13424 13425 13426 13427 13428 13429 13430 13431 13432 13433 13434 13435 13436 13437 13438 13439 13440 13441 13442 13443 13444 13445 13446 13447 13448 13449 13450 13451 13452 13453 13454 13455 13456 13457 13458 13459 13460 13461 13462 13463 13464 13465 13466 13467 13468 13469 13470 13471 13472 13473 13474 13475 13476 13477 13478 13479 13480 13481 13482 13483 13484 13485 13486 13487 13488 13489 13490 13491 13492 13493 13494 13495 13496 13497 13498 13499 13500 13501 13502 13503 13504 13505 13506 13507 13508 13509 13510 13511 13512 13513 13514 13515 13516 13517 13518 13519 13520 13521 13522 13523 13524 13525 13526 13527 13528 13529 13530 13531 13532 13533 13534 13535 13536 13537 13538 13539 13540 13541 13542 13543 13544 13545 13546 13547 13548 13549 13550 13551 13552 13553 13554 13555 13556 13557 13558 13559 13560 13561 13562 13563 13564 13565 13566 13567 13568 13569 13570 13571 13572 13573 13574 13575 13576 13577 13578 13579 13580 13581 13582 13583 13584 13585 13586 13587 13588 13589 13590 13591 13592 13593 13594 13595 13596 13597 13598 13599 13600 13601 13602 13603 13604 13605 13606 13607 13608 13609 13610 13611 13612 13613 13614 13615 13616 13617 13618 13619 13620 13621 13622 13623 13624 13625 13626 13627 13628 13629 13630 13631 13632 13633 13634 13635 13636 13637 13638 13639 13640 13641 13642 13643 13644 13645 13646 13647 13648 13649 13650 13651 13652 13653 13654 13655 13656 13657 13658 13659 13660 13661 13662 13663 13664 13665 13666 13667 13668 13669 13670 13671 13672 13673 13674 13675 13676 13677 13678 13679 13680 13681 13682 13683 13684 13685 13686 13687 13688 13689 13690 13691 13692 13693 13694 13695 13696 13697 13698 13699 13700 13701 13702 13703 13704 13705 13706 13707 13708 13709 13710 13711 13712 13713 13714 13715 13716 13717 13718 13719 13720 13721 13722 13723 13724 13725 13726 13727 13728 13729 13730 13731 13732 13733 13734 13735 13736 13737 13738 13739 13740 13741 13742 13743 13744 13745 13746 13747 13748 13749 13750 13751 13752 13753 13754 13755 13756 13757 13758 13759 13760 13761 13762 13763 13764 13765 13766 13767 13768 13769 13770 13771 13772 13773 13774 13775 13776 13777 13778 13779 13780 13781 13782 13783 13784 13785 13786 13787 13788 13789 13790 13791 13792 13793 13794 13795 13796 13797 13798 13799 13800 13801 13802 13803 13804 13805 13806 13807 13808 13809 13810 13811 13812 13813 13814 13815 13816 13817 13818 13819 13820 13821 13822 13823 13824 13825 13826 13827 13828 13829 13830 13831 13832 13833 13834 13835 13836 13837 13838 13839 13840 13841 13842 13843 13844 13845 13846 13847 13848 13849 13850 13851 13852 13853 13854 13855 13856 13857 13858 13859 13860 13861 13862 13863 13864 13865 13866 13867 13868 13869 13870 13871 13872 13873 13874 13875 13876 13877 13878 13879 13880 13881 13882 13883 13884 13885 13886 13887 13888 13889 13890 13891 13892 13893 13894 13895 13896 13897 13898 13899 13900 13901 13902 13903 13904 13905 13906 13907 13908 13909 13910 13911 13912 13913 13914 13915 13916 13917 13918 13919 13920 13921 13922 13923 13924 13925 13926 13927 13928 13929 13930 13931 13932 13933 13934 13935 13936 13937 13938 13939 13940 13941 13942 13943 13944 13945 13946 13947 13948 13949 13950 13951 13952 13953 13954 13955 13956 13957 13958 13959 13960 13961 13962 13963 13964 13965 13966 13967 13968 13969 13970 13971 13972 13973 13974 13975 13976 13977 13978 13979 13980 13981 13982 13983 13984 13985 13986 13987 13988 13989 13990 13991 13992 13993 13994 13995 13996 13997 13998 13999 14000 14001 14002 14003 14004 14005 14006 14007 14008 14009 14010 14011 14012 14013 14014 14015 14016 14017 14018 14019 14020 14021 14022 14023 14024 14025 14026 14027 14028 14029 14030 14031 14032 14033 14034 14035 14036 14037 14038 14039 14040 14041 14042 14043 14044 14045 14046 14047 14048 14049 14050 14051 14052 14053 14054 14055 14056 14057 14058 14059 14060 14061 14062 14063 14064 14065 14066 14067 14068 14069 14070 14071 14072 14073 14074 14075 14076 14077 14078 14079 14080 14081 14082 14083 14084 14085 14086 14087 14088 14089 14090 14091 14092 14093 14094 14095 14096 14097 14098 14099 14100 14101 14102 14103 14104 14105 14106 14107 14108 14109 14110 14111 14112 14113 14114 14115 14116 14117 14118 14119 14120 14121 14122 14123 14124 14125 14126 14127 14128 14129 14130 14131 14132 14133 14134 14135 14136 14137 14138 14139 14140 14141 14142 14143 14144 14145 14146 14147 14148 14149 14150 14151 14152 14153 14154 14155 14156 14157 14158 14159 14160 14161 14162 14163 14164 14165 14166 14167 14168 14169 14170 14171 14172 14173 14174 14175 14176 14177 14178 14179 14180 14181 14182 14183 14184 14185 14186 14187 14188 14189 14190 14191 14192 14193 14194 14195 14196 14197 14198 14199 14200 14201 14202 14203 14204 14205 14206 14207 14208 14209 14210 14211 14212 14213 14214 14215 14216 14217 14218 14219 14220 14221 14222 14223 14224 14225 14226 14227 14228 14229 14230 14231 14232 14233 14234 14235 14236 14237 14238 14239 14240 14241 14242 14243 14244 14245 14246 14247 14248 14249 14250 14251 14252 14253 14254 14255 14256 14257 14258 14259 14260 14261 14262 14263 14264 14265 14266 14267 14268 14269 14270 14271 14272 14273 14274 14275 14276 14277 14278 14279 14280 14281 14282 14283 14284 14285 14286 14287 14288 14289 14290 14291 14292 14293 14294 14295 14296 14297 14298 14299 14300 14301 14302 14303 14304 14305 14306 14307 14308 14309 14310 14311 14312 14313 14314 14315 14316 14317 14318 14319 14320 14321 14322 14323 14324 14325 14326 14327 14328 14329 14330 14331 14332 14333 14334 14335 14336 14337 14338 14339 14340 14341 14342 14343 14344 14345 14346 14347 14348 14349 14350 14351 14352 14353 14354 14355 14356 14357 14358 14359 14360 14361 14362 14363 14364 14365 14366 14367 14368 14369 14370 14371 14372 14373 14374 14375 14376 14377 14378 14379 14380 14381 14382 14383 14384 14385 14386 14387 14388 14389 14390 14391 14392 14393 14394 14395 14396 14397 14398 14399 14400 14401 14402 14403 14404 14405 14406 14407 14408 14409 14410 14411 14412 14413 14414 14415 14416 14417 14418 14419 14420 14421 14422 14423 14424 14425 14426 14427 14428 14429 14430 14431 14432 14433 14434 14435 14436 14437 14438 14439 14440 14441 14442 14443 14444 14445 14446 14447 14448 14449 14450 14451 14452 14453 14454 14455 14456 14457 14458 14459 14460 14461 14462 14463 14464 14465 14466 14467 14468 14469 14470 14471 14472 14473 14474 14475 14476 14477 14478 14479 14480 14481 14482 14483 14484 14485 14486 14487 14488 14489 14490 14491 14492 14493 14494 14495 14496 14497 14498 14499 14500 14501 14502 14503 14504 14505 14506 14507 14508 14509 14510 14511 14512 14513 14514 14515 14516 14517 14518 14519 14520 14521 14522 14523 14524 14525 14526 14527 14528 14529 14530 14531 14532 14533 14534 14535 14536 14537 14538 14539 14540 14541 14542 14543 14544 14545 14546 14547 14548 14549 14550 14551 14552 14553 14554 14555 14556 14557 14558 14559 14560 14561 14562 14563 14564 14565 14566 14567 14568 14569 14570 14571 14572 14573 14574 14575 14576 14577 14578 14579 14580 14581 14582 14583 14584 14585 14586 14587 14588 14589 14590 14591 14592 14593 14594 14595 14596 14597 14598 14599 14600 14601 14602 14603 14604 14605 14606 14607 14608 14609 14610 14611 14612 14613 14614 14615 14616 14617 14618 14619 14620 14621 14622 14623 14624 14625 14626 14627 14628 14629 14630 14631 14632 14633 14634 14635 14636 14637 14638 14639 14640 14641 14642 14643 14644 14645 14646 14647 14648 14649 14650 14651 14652 14653 14654 14655 14656 14657 14658 14659 14660 14661 14662 14663 14664 14665 14666 14667 14668 14669 14670 14671 14672 14673 14674 14675 14676 14677 14678 14679 14680 14681 14682 14683 14684 14685 14686 14687 14688 14689 14690 14691 14692 14693 14694 14695 14696 14697 14698 14699 14700 14701 14702 14703 14704 14705 14706 14707 14708 14709 14710 14711 14712 14713 14714 14715 14716 14717 14718 14719 14720 14721 14722 14723 14724 14725 14726 14727 14728 14729 14730 14731 14732 14733 14734 14735 14736 14737 14738 14739 14740 14741 14742 14743 14744 14745 14746 14747 14748 14749 14750 14751 14752 14753 14754 14755 14756 14757 14758 14759 14760 14761 14762 14763 14764 14765 14766 14767 14768 14769 14770 14771 14772 14773 14774 14775 14776 14777 14778 14779 14780 14781 14782 14783 14784 14785 14786 14787 14788 14789 14790 14791 14792 14793 14794 14795 14796 14797 14798 14799 14800 14801 14802 14803 14804 14805 14806 14807 14808 14809 14810 14811 14812 14813 14814 14815 14816 14817 14818 14819 14820 14821 14822 14823 14824 14825 14826 14827 14828 14829 14830 14831 14832 14833 14834 14835 14836 14837 14838 14839 14840 14841 14842 14843 14844 14845 14846 14847 14848 14849 14850 14851 14852 14853 14854 14855 14856 14857 14858 14859 14860 14861 14862 14863 14864 14865 14866 14867 14868 14869 14870 14871 14872 14873 14874 14875 14876 14877 14878 14879 14880 14881 14882 14883 14884 14885 14886 14887 14888 14889 14890 14891 14892 14893 14894 14895 14896 14897 14898 14899 14900 14901 14902 14903 14904 14905 14906 14907 14908 14909 14910 14911 14912 14913 14914 14915 14916 14917 14918 14919 14920 14921 14922 14923 14924 14925 14926 14927 14928 14929 14930 14931 14932 14933 14934 14935 14936 14937 14938 14939 14940 14941 14942 14943 14944 14945 14946 14947 14948 14949 14950 14951 14952 14953 14954 14955 14956 14957 14958 14959 14960 14961 14962 14963 14964 14965 14966 14967 14968 14969 14970 14971 14972 14973 14974 14975 14976 14977 14978 14979 14980 14981 14982 14983 14984 14985 14986 14987 14988 14989 14990 14991 14992 14993 14994 14995 14996 14997 14998 14999 15000 15001 15002 15003 15004 15005 15006 15007 15008 15009 15010 15011 15012 15013 15014 15015 15016 15017 15018 15019 15020 15021 15022 15023 15024 15025 15026 15027 15028 15029 15030 15031 15032 15033 15034 15035 15036 15037 15038 15039 15040 15041 15042 15043 15044 15045 15046 15047 15048 15049 15050 15051 15052 15053 15054 15055 15056 15057 15058 15059 15060 15061 15062 15063 15064 15065 15066 15067 15068 15069 15070 15071 15072 15073 15074 15075 15076 15077 15078 15079 15080 15081 15082 15083 15084 15085 15086 15087 15088 15089 15090 15091 15092 15093 15094 15095 15096 15097 15098 15099 15100 15101 15102 15103 15104 15105 15106 15107 15108 15109 15110 15111 15112 15113 15114 15115 15116 15117 15118 15119 15120 15121 15122 15123 15124 15125 15126 15127 15128 15129 15130 15131 15132 15133 15134 15135 15136 15137 15138 15139 15140 15141 15142 15143 15144 15145 15146 15147 15148 15149 15150 15151 15152 15153 15154 15155 15156 15157 15158 15159 15160 15161 15162 15163 15164 15165 15166 15167 15168 15169 15170 15171 15172 15173 15174 15175 15176 15177 15178 15179 15180 15181 15182 15183 15184 15185 15186 15187 15188 15189 15190 15191 15192 15193 15194 15195 15196 15197 15198 15199 15200 15201 15202 15203 15204 15205 15206 15207 15208 15209 15210 15211 15212 15213 15214 15215 15216 15217 15218 15219 15220 15221 15222 15223 15224 15225 15226 15227 15228 15229 15230 15231 15232 15233 15234 15235 15236 15237 15238 15239 15240 15241 15242 15243 15244 15245 15246 15247 15248 15249 15250 15251 15252 15253 15254 15255 15256 15257 15258 15259 15260 15261 15262 15263 15264 15265 15266 15267 15268 15269 15270 15271 15272 15273 15274 15275 15276 15277 15278 15279 15280 15281 15282 15283 15284 15285 15286 15287 15288 15289 15290 15291 15292 15293 15294 15295 15296 15297 15298 15299 15300 15301 15302 15303 15304 15305 15306 15307 15308 15309 15310 15311 15312 15313 15314 15315 15316 15317 15318 15319 15320 15321 15322 15323 15324 15325 15326 15327 15328 15329 15330 15331 15332 15333 15334 15335 15336 15337 15338 15339 15340 15341 15342 15343 15344 15345 15346 15347 15348 15349 15350 15351 15352 15353 15354 15355 15356 15357 15358 15359 15360 15361 15362 15363 15364 15365 15366 15367 15368 15369 15370 15371 15372 15373 15374 15375 15376 15377 15378 15379 15380 15381 15382 15383 15384 15385 15386 15387 15388 15389 15390 15391 15392 15393 15394 15395 15396 15397 15398 15399 15400 15401 15402 15403 15404 15405 15406 15407 15408 15409 15410 15411 15412 15413 15414 15415 15416 15417 15418 15419 15420 15421 15422 15423 15424 15425 15426 15427 15428 15429 15430 15431 15432 15433 15434 15435 15436 15437 15438 15439 15440 15441 15442 15443 15444 15445 15446 15447 15448 15449 15450 15451 15452 15453 15454 15455 15456 15457 15458 15459 15460 15461 15462 15463 15464 15465 15466 15467 15468 15469 15470 15471 15472 15473 15474 15475 15476 15477 15478 15479 15480 15481 15482 15483 15484 15485 15486 15487 15488 15489 15490 15491 15492 15493 15494 15495 15496 15497 15498 15499 15500 15501 15502 15503 15504 15505 15506 15507 15508 15509 15510 15511 15512 15513 15514 15515 15516 15517 15518 15519 15520 15521 15522 15523 15524 15525 15526 15527 15528 15529 15530 15531 15532 15533 15534 15535 15536 15537 15538 15539 15540 15541 15542 15543 15544 15545 15546 15547 15548 15549 15550 15551 15552 15553 15554 15555 15556 15557 15558 15559 15560 15561 15562 15563 15564 15565 15566 15567 15568 15569 15570 15571 15572 15573 15574 15575 15576 15577 15578 15579 15580 15581 15582 15583 15584 15585 15586 15587 15588 15589 15590 15591 15592 15593 15594 15595 15596 15597 15598 15599 15600 15601 15602 15603 15604 15605 15606 15607 15608 15609 15610 15611 15612 15613 15614 15615 15616 15617 15618 15619 15620 15621 15622 15623 15624 15625 15626 15627 15628 15629 15630 15631 15632 15633 15634 15635 15636 15637 15638 15639 15640 15641 15642 15643 15644 15645 15646 15647 15648 15649 15650 15651 15652 15653 15654 15655 15656 15657 15658 15659 15660 15661 15662 15663 15664 15665 15666 15667 15668 15669 15670 15671 15672 15673 15674 15675 15676 15677 15678 15679 15680 15681 15682 15683 15684 15685 15686 15687 15688 15689 15690 15691 15692 15693 15694 15695 15696 15697 15698 15699 15700 15701 15702 15703 15704 15705 15706 15707 15708 15709 15710 15711 15712 15713 15714 15715 15716 15717 15718 15719 15720 15721 15722 15723 15724 15725 15726 15727 15728 15729 15730 15731 15732 15733 15734 15735 15736 15737 15738 15739 15740 15741 15742 15743 15744 15745 15746 15747 15748 15749 15750 15751 15752 15753 15754 15755 15756 15757 15758 15759 15760 15761 15762 15763 15764 15765 15766 15767 15768 15769 15770 15771 15772 15773 15774 15775 15776 15777 15778 15779 15780 15781 15782 15783 15784 15785 15786 15787 15788 15789 15790 15791 15792 15793 15794 15795 15796 15797 15798 15799 15800 15801 15802 15803 15804 15805 15806 15807 15808 15809 15810 15811 15812 15813 15814 15815 15816 15817 15818 15819 15820 15821 15822 15823 15824 15825 15826 15827 15828 15829 15830 15831 15832 15833 15834 15835 15836 15837 15838 15839 15840 15841 15842 15843 15844 15845 15846 15847 15848 15849 15850 15851 15852 15853 15854 15855 15856 15857 15858 15859 15860 15861 15862 15863 15864 15865 15866 15867 15868 15869 15870 15871 15872 15873 15874 15875 15876 15877 15878 15879 15880 15881 15882 15883 15884 15885 15886 15887 15888 15889 15890 15891 15892 15893 15894 15895 15896 15897 15898 15899 15900 15901 15902 15903 15904 15905 15906 15907 15908 15909 15910 15911 15912 15913 15914 15915 15916 15917 15918 15919 15920 15921 15922 15923 15924 15925 15926 15927 15928 15929 15930 15931 15932 15933 15934 15935 15936 15937 15938 15939 15940 15941 15942 15943 15944 15945 15946 15947 15948 15949 15950 15951 15952 15953 15954 15955 15956 15957 15958 15959 15960 15961 15962 15963 15964 15965 15966 15967 15968 15969 15970 15971 15972 15973 15974 15975 15976 15977 15978 15979 15980 15981 15982 15983 15984 15985 15986 15987 15988 15989 15990 15991 15992 15993 15994 15995 15996 15997 15998 15999 16000 16001 16002 16003 16004 16005 16006 16007 16008 16009 16010 16011 16012 16013 16014 16015 16016 16017 16018 16019 16020 16021 16022 16023 16024 16025 16026 16027 16028 16029 16030 16031 16032 16033 16034 16035 16036 16037 16038 16039 16040 16041 16042 16043 16044 16045 16046 16047 16048 16049 16050 16051 16052 16053 16054 16055 16056 16057 16058 16059 16060 16061 16062 16063 16064 16065 16066 16067 16068 16069 16070 16071 16072 16073 16074 16075 16076 16077 16078 16079 16080 16081 16082 16083 16084 16085 16086 16087 16088 16089 16090 16091 16092 16093 16094 16095 16096 16097 16098 16099 16100 16101 16102 16103 16104 16105 16106 16107 16108 16109 16110 16111 16112 16113 16114 16115 16116 16117 16118 16119 16120 16121 16122 16123 16124 16125 16126 16127 16128 16129 16130 16131 16132 16133 16134 16135 16136 16137 16138 16139 16140 16141 16142 16143 16144 16145 16146 16147 16148 16149 16150 16151 16152 16153 16154 16155 16156 16157 16158 16159 16160 16161 16162 16163 16164 16165 16166 16167 16168 16169 16170 16171 16172 16173 16174 16175 16176 16177 16178 16179 16180 16181 16182 16183 16184 16185 16186 16187 16188 16189 16190 16191 16192 16193 16194 16195 16196 16197 16198 16199 16200 16201 16202 16203 16204 16205 16206 16207 16208 16209 16210 16211 16212 16213 16214 16215 16216 16217 16218 16219 16220 16221 16222 16223 16224 16225 16226 16227 16228 16229 16230 16231 16232 16233 16234 16235 16236 16237 16238 16239 16240 16241 16242 16243 16244 16245 16246 16247 16248 16249 16250 16251 16252 16253 16254 16255 16256 16257 16258 16259 16260 16261 16262 16263 16264 16265 16266 16267 16268 16269 16270 16271 16272 16273 16274 16275 16276 16277 16278 16279 16280 16281 16282 16283 16284 16285 16286 16287 16288 16289 16290 16291 16292 16293 16294 16295 16296 16297 16298 16299 16300 16301 16302 16303 16304 16305 16306 16307 16308 16309 16310 16311 16312 16313 16314 16315 16316 16317 16318 16319 16320 16321 16322 16323 16324 16325 16326 16327 16328 16329 16330 16331 16332 16333 16334 16335 16336 16337 16338 16339 16340 16341 16342 16343 16344 16345 16346 16347 16348 16349 16350 16351 16352 16353 16354 16355 16356 16357 16358 16359 16360 16361 16362 16363 16364 16365 16366 16367 16368 16369 16370 16371 16372 16373 16374 16375 16376 16377 16378 16379 16380 16381 16382 16383 16384 16385 16386 16387 16388 16389 16390 16391 16392 16393 16394 16395 16396 16397 16398 16399 16400 16401 16402 16403 16404 16405 16406 16407 16408 16409 16410 16411 16412 16413 16414 16415 16416 16417 16418 16419 16420 16421 16422 16423 16424 16425 16426 16427 16428 16429 16430 16431 16432 16433 16434 16435 16436 16437 16438 16439 16440 16441 16442 16443 16444 16445 16446 16447 16448 16449 16450 16451 16452 16453 16454 16455 16456 16457 16458 16459 16460 16461 16462 16463 16464 16465 16466 16467 16468 16469 16470 16471 16472 16473 16474 16475 16476 16477 16478 16479 16480 16481 16482 16483 16484 16485 16486 16487 16488 16489 16490 16491 16492 16493 16494 16495 16496 16497 16498 16499 16500 16501 16502 16503 16504 16505 16506 16507 16508 16509 16510 16511 16512 16513 16514 16515 16516 16517 16518 16519 16520 16521 16522 16523 16524 16525 16526 16527 16528 16529 16530 16531 16532 16533 16534 16535 16536 16537 16538 16539 16540 16541 16542 16543 16544 16545 16546 16547 16548 16549 16550 16551 16552 16553 16554 16555 16556 16557 16558 16559 16560 16561 16562 16563 16564 16565 16566 16567 16568 16569 16570 16571 16572 16573 16574 16575 16576 16577 16578 16579 16580 16581 16582 16583 16584 16585 16586 16587 16588 16589 16590 16591 16592 16593 16594 16595 16596 16597 16598 16599 16600 16601 16602 16603 16604 16605 16606 16607 16608 16609 16610 16611 16612 16613 16614 16615 16616 16617 16618 16619 16620 16621 16622 16623 16624 16625 16626 16627 16628 16629 16630 16631 16632 16633 16634 16635 16636 16637 16638 16639 16640 16641 16642 16643 16644 16645 16646 16647 16648 16649 16650 16651 16652 16653 16654 16655 16656 16657 16658 16659 16660 16661 16662 16663 16664 16665 16666 16667 16668 16669 16670 16671 16672 16673 16674 16675 16676 16677 16678 16679 16680 16681 16682 16683 16684 16685 16686 16687 16688 16689 16690 16691 16692 16693 16694 16695 16696 16697 16698 16699 16700 16701 16702 16703 16704 16705 16706 16707 16708 16709 16710 16711 16712 16713 16714 16715 16716 16717 16718 16719 16720 16721 16722 16723 16724 16725 16726 16727 16728 16729 16730 16731 16732 16733 16734 16735 16736 16737 16738 16739 16740 16741 16742 16743 16744 16745 16746 16747 16748 16749 16750 16751 16752 16753 16754 16755 16756 16757 16758 16759 16760 16761 16762 16763 16764 16765 16766 16767 16768 16769 16770 16771 16772 16773 16774 16775 16776 16777 16778 16779 16780 16781 16782 16783 16784 16785 16786 16787 16788 16789 16790 16791 16792 16793 16794 16795 16796 16797 16798 16799 16800 16801 16802 16803 16804 16805 16806 16807 16808 16809 16810 16811 16812 16813 16814 16815 16816 16817 16818 16819 16820 16821 16822 16823 16824 16825 16826 16827 16828 16829 16830 16831 16832 16833 16834 16835 16836 16837 16838 16839 16840 16841 16842 16843 16844 16845 16846 16847 16848 16849 16850 16851 16852 16853 16854 16855 16856 16857 16858 16859 16860 16861 16862 16863 16864 16865 16866 16867 16868 16869 16870 16871 16872 16873 16874 16875 16876 16877 16878 16879 16880 16881 16882 16883 16884 16885 16886 16887 16888 16889 16890 16891 16892 16893 16894 16895 16896 16897 16898 16899 16900 16901 16902 16903 16904 16905 16906 16907 16908 16909 16910 16911 16912 16913 16914 16915 16916 16917 16918 16919 16920 16921 16922 16923 16924 16925 16926 16927 16928 16929 16930 16931 16932 16933 16934 16935 16936 16937 16938 16939 16940 16941 16942 16943 16944 16945 16946 16947 16948 16949 16950 16951 16952 16953 16954 16955 16956 16957 16958 16959 16960 16961 16962 16963 16964 16965 16966 16967 16968 16969 16970 16971 16972 16973 16974 16975 16976 16977 16978 16979 16980 16981 16982 16983 16984 16985 16986 16987 16988 16989 16990 16991 16992 16993 16994 16995 16996 16997 16998 16999 17000 17001 17002 17003 17004 17005 17006 17007 17008 17009 17010 17011 17012 17013 17014 17015 17016 17017 17018 17019 17020 17021 17022 17023 17024 17025 17026 17027 17028 17029 17030 17031 17032 17033 17034 17035 17036 17037 17038 17039 17040 17041 17042 17043 17044 17045 17046 17047 17048 17049 17050 17051 17052 17053 17054 17055 17056 17057 17058 17059 17060 17061 17062 17063 17064 17065 17066 17067 17068 17069 17070 17071 17072 17073 17074 17075 17076 17077 17078 17079 17080 17081 17082 17083 17084 17085 17086 17087 17088 17089 17090 17091 17092 17093 17094 17095 17096 17097 17098 17099 17100 17101 17102 17103 17104 17105 17106 17107 17108 17109 17110 17111 17112 17113 17114 17115 17116 17117 17118 17119 17120 17121 17122 17123 17124 17125 17126 17127 17128 17129 17130 17131 17132 17133 17134 17135 17136 17137 17138 17139 17140 17141 17142 17143 17144 17145 17146 17147 17148 17149 17150 17151 17152 17153 17154 17155 17156 17157 17158 17159 17160 17161 17162 17163 17164 17165 17166 17167 17168 17169 17170 17171 17172 17173 17174 17175 17176 17177 17178 17179 17180 17181 17182 17183 17184 17185 17186 17187 17188 17189 17190 17191 17192 17193 17194 17195 17196 17197 17198 17199 17200 17201 17202 17203 17204 17205 17206 17207 17208 17209 17210 17211 17212 17213 17214 17215 17216 17217 17218 17219 17220 17221 17222 17223 17224 17225 17226 17227 17228 17229 17230 17231 17232 17233 17234 17235 17236 17237 17238 17239 17240 17241 17242 17243 17244 17245 17246 17247 17248 17249 17250 17251 17252 17253 17254 17255 17256 17257 17258 17259 17260 17261 17262 17263 17264 17265 17266 17267 17268 17269 17270 17271 17272 17273 17274 17275 17276 17277 17278 17279 17280 17281 17282 17283 17284 17285 17286 17287 17288 17289 17290 17291 17292 17293 17294 17295 17296 17297 17298 17299 17300 17301 17302 17303 17304 17305 17306 17307 17308 17309 17310 17311 17312 17313 17314 17315 17316 17317 17318 17319 17320 17321 17322 17323 17324 17325 17326 17327 17328 17329 17330 17331 17332 17333 17334 17335 17336 17337 17338 17339 17340 17341 17342 17343 17344 17345 17346 17347 17348 17349 17350 17351 17352 17353 17354 17355 17356 17357 17358 17359 17360 17361 17362 17363 17364 17365 17366 17367 17368 17369 17370 17371 17372 17373 17374 17375 17376 17377 17378 17379 17380 17381 17382 17383 17384 17385 17386 17387 17388 17389 17390 17391 17392 17393 17394 17395 17396 17397 17398 17399 17400 17401 17402 17403 17404 17405 17406 17407 17408 17409 17410 17411 17412 17413 17414 17415 17416 17417 17418 17419 17420 17421 17422 17423 17424 17425 17426 17427 17428 17429 17430 17431 17432 17433 17434 17435 17436 17437 17438 17439 17440 17441 17442 17443 17444 17445 17446 17447 17448 17449 17450 17451 17452 17453 17454 17455 17456 17457 17458 17459 17460 17461 17462 17463 17464 17465 17466 17467 17468 17469 17470 17471 17472 17473 17474 17475 17476 17477 17478 17479 17480 17481 17482 17483 17484 17485 17486 17487 17488 17489 17490 17491 17492 17493 17494 17495 17496 17497 17498 17499 17500 17501 17502 17503 17504 17505 17506 17507 17508 17509 17510 17511 17512 17513 17514 17515 17516 17517 17518 17519 17520 17521 17522 17523 17524 17525 17526 17527 17528 17529 17530 17531 17532 17533 17534 17535 17536 17537 17538 17539 17540 17541 17542 17543 17544 17545 17546 17547 17548 17549 17550 17551 17552 17553 17554 17555 17556 17557 17558 17559 17560 17561 17562 17563 17564 17565 17566 17567 17568 17569 17570 17571 17572 17573 17574 17575 17576 17577 17578 17579 17580 17581 17582 17583 17584 17585 17586 17587 17588 17589 17590 17591 17592 17593 17594 17595 17596 17597 17598 17599 17600 17601 17602 17603 17604 17605 17606 17607 17608 17609 17610 17611 17612 17613 17614 17615 17616 17617 17618 17619 17620 17621 17622 17623 17624 17625 17626 17627 17628 17629 17630 17631 17632 17633 17634 17635 17636 17637 17638 17639 17640 17641 17642 17643 17644 17645 17646 17647 17648 17649 17650 17651 17652 17653 17654 17655 17656 17657 17658 17659 17660 17661 17662 17663 17664 17665 17666 17667 17668 17669 17670 17671 17672 17673 17674 17675 17676 17677 17678 17679 17680 17681 17682 17683 17684 17685 17686 17687 17688 17689 17690 17691 17692 17693 17694 17695 17696 17697 17698 17699 17700 17701 17702 17703 17704 17705 17706 17707 17708 17709 17710 17711 17712 17713 17714 17715 17716 17717 17718 17719 17720 17721 17722 17723 17724 17725 17726 17727 17728 17729 17730 17731 17732 17733 17734 17735 17736 17737 17738 17739 17740 17741 17742 17743 17744 17745 17746 17747 17748 17749 17750 17751 17752 17753 17754 17755 17756 17757 17758 17759 17760 17761 17762 17763 17764 17765 17766 17767 17768 17769 17770 17771 17772 17773 17774 17775 17776 17777 17778 17779 17780 17781 17782 17783 17784 17785 17786 17787 17788 17789 17790 17791 17792 17793 17794 17795 17796 17797 17798 17799 17800 17801 17802 17803 17804 17805 17806 17807 17808 17809 17810 17811 17812 17813 17814 17815 17816 17817 17818 17819 17820 17821 17822 17823 17824 17825 17826 17827 17828 17829 17830 17831 17832 17833 17834 17835 17836 17837 17838 17839 17840 17841 17842 17843 17844 17845 17846 17847 17848 17849 17850 17851 17852 17853 17854 17855 17856 17857 17858 17859 17860 17861 17862 17863 17864 17865 17866 17867 17868 17869 17870 17871 17872 17873 17874 17875 17876 17877 17878 17879 17880 17881 17882 17883 17884 17885 17886 17887 17888 17889 17890 17891 17892 17893 17894 17895 17896 17897 17898 17899 17900 17901 17902 17903 17904 17905 17906 17907 17908 17909 17910 17911 17912 17913 17914 17915 17916 17917 17918 17919 17920 17921 17922 17923 17924 17925 17926 17927 17928 17929 17930 17931 17932 17933 17934 17935 17936 17937 17938 17939 17940 17941 17942 17943 17944 17945 17946 17947 17948 17949 17950 17951 17952 17953 17954 17955 17956 17957 17958 17959 17960 17961 17962 17963 17964 17965 17966 17967 17968 17969 17970 17971 17972 17973 17974 17975 17976 17977 17978 17979 17980 17981 17982 17983 17984 17985 17986 17987 17988 17989 17990 17991 17992 17993 17994 17995 17996 17997 17998 17999 18000 18001 18002 18003 18004 18005 18006 18007 18008 18009 18010 18011 18012 18013 18014 18015 18016 18017 18018 18019 18020 18021 18022 18023 18024 18025 18026 18027 18028 18029 18030 18031 18032 18033 18034 18035 18036 18037 18038 18039 18040 18041 18042 18043 18044 18045 18046 18047 18048 18049 18050 18051 18052 18053 18054 18055 18056 18057 18058 18059 18060 18061 18062 18063 18064 18065 18066 18067 18068 18069 18070 18071 18072 18073 18074 18075 18076 18077 18078 18079 18080 18081 18082 18083 18084 18085 18086 18087 18088 18089 18090 18091 18092 18093 18094 18095 18096 18097 18098 18099 18100 18101 18102 18103 18104 18105 18106 18107 18108 18109 18110 18111 18112 18113 18114 18115 18116 18117 18118 18119 18120 18121 18122 18123 18124 18125 18126 18127 18128 18129 18130 18131 18132 18133 18134 18135 18136 18137 18138 18139 18140 18141 18142 18143 18144 18145 18146 18147 18148 18149 18150 18151 18152 18153 18154 18155 18156 18157 18158 18159 18160 18161 18162 18163 18164 18165 18166 18167 18168 18169 18170 18171 18172 18173 18174 18175 18176 18177 18178 18179 18180 18181 18182 18183 18184 18185 18186 18187 18188 18189 18190 18191 18192 18193 18194 18195 18196 18197 18198 18199 18200 18201 18202 18203 18204 18205 18206 18207 18208 18209 18210 18211 18212 18213 18214 18215 18216 18217 18218 18219 18220 18221 18222 18223 18224 18225 18226 18227 18228 18229 18230 18231 18232 18233 18234 18235 18236 18237 18238 18239 18240 18241 18242 18243 18244 18245 18246 18247 18248 18249 18250 18251 18252 18253 18254 18255 18256 18257 18258 18259 18260 18261 18262 18263 18264 18265 18266 18267 18268 18269 18270 18271 18272 18273 18274 18275 18276 18277 18278 18279 18280 18281 18282 18283 18284 18285 18286 18287 18288 18289 18290 18291 18292 18293 18294 18295 18296 18297 18298 18299 18300 18301 18302 18303 18304 18305 18306 18307 18308 18309 18310 18311 18312 18313 18314 18315 18316 18317 18318 18319 18320 18321 18322 18323 18324 18325 18326 18327 18328 18329 18330 18331 18332 18333 18334 18335 18336 18337 18338 18339 18340 18341 18342 18343 18344 18345 18346 18347 18348 18349 18350 18351 18352 18353 18354 18355 18356 18357 18358 18359 18360 18361 18362 18363 18364 18365 18366 18367 18368 18369 18370 18371 18372 18373 18374 18375 18376 18377 18378 18379 18380 18381 18382 18383 18384 18385 18386 18387 18388 18389 18390 18391 18392 18393 18394 18395 18396 18397 18398 18399 18400 18401 18402 18403 18404 18405 18406 18407 18408 18409 18410 18411 18412 18413 18414 18415 18416 18417 18418 18419 18420 18421 18422 18423 18424 18425 18426 18427 18428 18429 18430 18431 18432 18433 18434 18435 18436 18437 18438 18439 18440 18441 18442 18443 18444 18445 18446 18447 18448 18449 18450 18451 18452 18453 18454 18455 18456 18457 18458 18459 18460 18461 18462 18463 18464 18465 18466 18467 18468 18469 18470 18471 18472 18473 18474 18475 18476 18477 18478 18479 18480 18481 18482 18483 18484 18485 18486 18487 18488 18489 18490 18491 18492 18493 18494 18495 18496 18497 18498 18499 18500 18501 18502 18503 18504 18505 18506 18507 18508 18509 18510 18511 18512 18513 18514 18515 18516 18517 18518 18519 18520 18521 18522 18523 18524 18525 18526 18527 18528 18529 18530 18531 18532 18533 18534 18535 18536 18537 18538 18539 18540 18541 18542 18543 18544 18545 18546 18547 18548 18549 18550 18551 18552 18553 18554 18555 18556 18557 18558 18559 18560 18561 18562 18563 18564 18565 18566 18567 18568 18569 18570 18571 18572 18573 18574 18575 18576 18577 18578 18579 18580 18581 18582 18583 18584 18585 18586 18587 18588 18589 18590 18591 18592 18593 18594 18595 18596 18597 18598 18599 18600 18601 18602 18603 18604 18605 18606 18607 18608 18609 18610 18611 18612 18613 18614 18615 18616 18617 18618 18619 18620 18621 18622 18623 18624 18625 18626 18627 18628 18629 18630 18631 18632 18633 18634 18635 18636 18637 18638 18639 18640 18641 18642 18643 18644 18645 18646 18647 18648 18649 18650 18651 18652 18653 18654 18655 18656 18657 18658 18659 18660 18661 18662 18663 18664 18665 18666 18667 18668 18669 18670 18671 18672 18673 18674 18675 18676 18677 18678 18679 18680 18681 18682 18683 18684 18685 18686 18687 18688 18689 18690 18691 18692 18693 18694 18695 18696 18697 18698 18699 18700 18701 18702 18703 18704 18705 18706 18707 18708 18709 18710 18711 18712 18713 18714 18715 18716 18717 18718 18719 18720 18721 18722 18723 18724 18725 18726 18727 18728 18729 18730 18731 18732 18733 18734 18735 18736 18737 18738 18739 18740 18741 18742 18743 18744 18745 18746 18747 18748 18749 18750 18751 18752 18753 18754 18755 18756 18757 18758 18759 18760 18761 18762 18763 18764 18765 18766 18767 18768 18769 18770 18771 18772 18773 18774 18775 18776 18777 18778 18779 18780 18781 18782 18783 18784 18785 18786 18787 18788 18789 18790 18791 18792 18793 18794 18795 18796 18797 18798 18799 18800 18801 18802 18803 18804 18805 18806 18807 18808 18809 18810 18811 18812 18813 18814 18815 18816 18817 18818 18819 18820 18821 18822 18823 18824 18825 18826 18827 18828 18829 18830 18831 18832 18833 18834 18835 18836 18837 18838 18839 18840 18841 18842 18843 18844 18845 18846 18847 18848 18849 18850 18851 18852 18853 18854 18855 18856 18857 18858 18859 18860 18861 18862 18863 18864 18865 18866 18867 18868 18869 18870 18871 18872 18873 18874 18875 18876 18877 18878 18879 18880 18881 18882 18883 18884 18885 18886 18887 18888 18889 18890 18891 18892 18893 18894 18895 18896 18897 18898 18899 18900 18901 18902 18903 18904 18905 18906 18907 18908 18909 18910 18911 18912 18913 18914 18915 18916 18917 18918 18919 18920 18921 18922 18923 18924 18925 18926 18927 18928 18929 18930 18931 18932 18933 18934 18935 18936 18937 18938 18939 18940 18941 18942 18943 18944 18945 18946 18947 18948 18949 18950 18951 18952 18953 18954 18955 18956 18957 18958 18959 18960 18961 18962 18963 18964 18965 18966 18967 18968 18969 18970 18971 18972 18973 18974 18975 18976 18977 18978 18979 18980 18981 18982 18983 18984 18985 18986 18987 18988 18989 18990 18991 18992 18993 18994 18995 18996 18997 18998 18999 19000 19001 19002 19003 19004 19005 19006 19007 19008 19009 19010 19011 19012 19013 19014 19015 19016 19017 19018 19019 19020 19021 19022 19023 19024 19025 19026 19027 19028 19029 19030 19031 19032 19033 19034 19035 19036 19037 19038 19039 19040 19041 19042 19043 19044 19045 19046 19047 19048 19049 19050 19051 19052 19053 19054 19055 19056 19057 19058 19059 19060 19061 19062 19063 19064 19065 19066 19067 19068 19069 19070 19071 19072 19073 19074 19075 19076 19077 19078 19079 19080 19081 19082 19083 19084 19085 19086 19087 19088 19089 19090 19091 19092 19093 19094 19095 19096 19097 19098 19099 19100 19101 19102 19103 19104 19105 19106 19107 19108 19109 19110 19111 19112 19113 19114 19115 19116 19117 19118 19119 19120 19121 19122 19123 19124 19125 19126 19127 19128 19129 19130 19131 19132 19133 19134 19135 19136 19137 19138 19139 19140 19141 19142 19143 19144 19145 19146 19147 19148 19149 19150 19151 19152 19153 19154 19155 19156 19157 19158 19159 19160 19161 19162 19163 19164 19165 19166 19167 19168 19169 19170 19171 19172 19173 19174 19175 19176 19177 19178 19179 19180 19181 19182 19183 19184 19185 19186 19187 19188 19189 19190 19191 19192 19193 19194 19195 19196 19197 19198 19199 19200 19201 19202 19203 19204 19205 19206 19207 19208 19209 19210 19211 19212 19213 19214 19215 19216 19217 19218 19219 19220 19221 19222 19223 19224 19225 19226 19227 19228 19229 19230 19231 19232 19233 19234 19235 19236 19237 19238 19239 19240 19241 19242 19243 19244 19245 19246 19247 19248 19249 19250 19251 19252 19253 19254 19255 19256 19257 19258 19259 19260 19261 19262 19263 19264 19265 19266 19267 19268 19269 19270 19271 19272 19273 19274 19275 19276 19277 19278 19279 19280 19281 19282 19283 19284 19285 19286 19287 19288 19289 19290 19291 19292 19293 19294 19295 19296 19297 19298 19299 19300 19301 19302 19303 19304 19305 19306 19307 19308 19309 19310 19311 19312 19313 19314 19315 19316 19317 19318 19319 19320 19321 19322 19323 19324 19325 19326 19327 19328 19329 19330 19331 19332 19333 19334 19335 19336 19337 19338 19339 19340 19341 19342 19343 19344 19345 19346 19347 19348 19349 19350 19351 19352 19353 19354 19355 19356 19357 19358 19359 19360 19361 19362 19363 19364 19365 19366 19367 19368 19369 19370 19371 19372 19373 19374 19375 19376 19377 19378 19379 19380 19381 19382 19383 19384 19385 19386 19387 19388 19389 19390 19391 19392 19393 19394 19395 19396 19397 19398 19399 19400 19401 19402 19403 19404 19405 19406 19407 19408 19409 19410 19411 19412 19413 19414 19415 19416 19417 19418 19419 19420 19421 19422 19423 19424 19425 19426 19427 19428 19429 19430 19431 19432 19433 19434 19435 19436 19437 19438 19439 19440 19441 19442 19443 19444 19445 19446 19447 19448 19449 19450 19451 19452 19453 19454 19455 19456 19457 19458 19459 19460 19461 19462 19463 19464 19465 19466 19467 19468 19469 19470 19471 19472 19473 19474 19475 19476 19477 19478 19479 19480 19481 19482 19483 19484 19485 19486 19487 19488 19489 19490 19491 19492 19493 19494 19495 19496 19497 19498 19499 19500 19501 19502 19503 19504 19505 19506 19507 19508 19509 19510 19511 19512 19513 19514 19515 19516 19517 19518 19519 19520 19521 19522 19523 19524 19525 19526 19527 19528 19529 19530 19531 19532 19533 19534 19535 19536 19537 19538 19539 19540 19541 19542 19543 19544 19545 19546 19547 19548 19549 19550 19551 19552 19553 19554 19555 19556 19557 19558 19559 19560 19561 19562 19563 19564 19565 19566 19567 19568 19569 19570 19571 19572 19573 19574 19575 19576 19577 19578 19579 19580 19581 19582 19583 19584 19585 19586 19587 19588 19589 19590 19591 19592 19593 19594 19595 19596 19597 19598 19599 19600 19601 19602 19603 19604 19605 19606 19607 19608 19609 19610 19611 19612 19613 19614 19615 19616 19617 19618 19619 19620 19621 19622 19623 19624 19625 19626 19627 19628 19629 19630 19631 19632 19633 19634 19635 19636 19637 19638 19639 19640 19641 19642 19643 19644 19645 19646 19647 19648 19649 19650 19651 19652 19653 19654 19655 19656 19657 19658 19659 19660 19661 19662 19663 19664 19665 19666 19667 19668 19669 19670 19671 19672 19673 19674 19675 19676 19677 19678 19679 19680 19681 19682 19683 19684 19685 19686 19687 19688 19689 19690 19691 19692 19693 19694 19695 19696 19697 19698 19699 19700 19701 19702 19703 19704 19705 19706 19707 19708 19709 19710 19711 19712 19713 19714 19715 19716 19717 19718 19719 19720 19721 19722 19723 19724 19725 19726 19727 19728 19729 19730 19731 19732 19733 19734 19735 19736 19737 19738 19739 19740 19741 19742 19743 19744 19745 19746 19747 19748 19749 19750 19751 19752 19753 19754 19755 19756 19757 19758 19759 19760 19761 19762 19763 19764 19765 19766 19767 19768 19769 19770 19771 19772 19773 19774 19775 19776 19777 19778 19779 19780 19781 19782 19783 19784 19785 19786 19787 19788 19789 19790 19791 19792 19793 19794 19795 19796 19797 19798 19799 19800 19801 19802 19803 19804 19805 19806 19807 19808 19809 19810 19811 19812 19813 19814 19815 19816 19817 19818 19819 19820 19821 19822 19823 19824 19825 19826 19827 19828 19829 19830 19831 19832 19833 19834 19835 19836 19837 19838 19839 19840 19841 19842 19843 19844 19845 19846 19847 19848 19849 19850 19851 19852 19853 19854 19855 19856 19857 19858 19859 19860 19861 19862 19863 19864 19865 19866 19867 19868 19869 19870 19871 19872 19873 19874 19875 19876 19877 19878 19879 19880 19881 19882 19883 19884 19885 19886 19887 19888 19889 19890 19891 19892 19893 19894 19895 19896 19897 19898 19899 19900 19901 19902 19903 19904 19905 19906 19907 19908 19909 19910 19911 19912 19913 19914 19915 19916 19917 19918 19919 19920 19921 19922 19923 19924 19925 19926 19927 19928 19929 19930 19931 19932 19933 19934 19935 19936 19937 19938 19939 19940 19941 19942 19943 19944 19945 19946 19947 19948 19949 19950 19951 19952 19953 19954 19955 19956 19957 19958 19959 19960 19961 19962 19963 19964 19965 19966 19967 19968 19969 19970 19971 19972 19973 19974 19975 19976 19977 19978 19979 19980 19981 19982 19983 19984 19985 19986 19987 19988 19989 19990 19991 19992 19993 19994 19995 19996 19997 19998 19999 20000 20001 20002 20003 20004 20005 20006 20007 20008 20009 20010 20011 20012 20013 20014 20015 20016 20017 20018 20019 20020 20021 20022 20023 20024 20025 20026 20027 20028 20029 20030 20031 20032 20033 20034 20035 20036 20037 20038 20039 20040 20041 20042 20043 20044 20045 20046 20047 20048 20049 20050 20051 20052 20053 20054 20055 20056 20057 20058 20059 20060 20061 20062 20063 20064 20065 20066 20067 20068 20069 20070 20071 20072 20073 20074 20075 20076 20077 20078 20079 20080 20081 20082 20083 20084 20085 20086 20087 20088 20089 20090 20091 20092 20093 20094 20095 20096 20097 20098 20099 20100 20101 20102 20103 20104 20105 20106 20107 20108 20109 20110 20111 20112 20113 20114 20115 20116 20117 20118 20119 20120 20121 20122 20123 20124 20125 20126 20127 20128 20129 20130 20131 20132 20133 20134 20135 20136 20137 20138 20139 20140 20141 20142 20143 20144 20145 20146 20147 20148 20149 20150 20151 20152 20153 20154 20155 20156 20157 20158 20159 20160 20161 20162 20163 20164 20165 20166 20167 20168 20169 20170 20171 20172 20173 20174 20175 20176 20177 20178 20179 20180 20181 20182 20183 20184 20185 20186 20187 20188 20189 20190 20191 20192 20193 20194 20195 20196 20197 20198 20199 20200 20201 20202 20203 20204 20205 20206 20207 20208 20209 20210 20211 20212 20213 20214 20215 20216 20217 20218 20219 20220 20221 20222 20223 20224 20225 20226 20227 20228 20229 20230 20231 20232 20233 20234 20235 20236 20237 20238 20239 20240 20241 20242 20243 20244 20245 20246 20247 20248 20249 20250 20251 20252 20253 20254 20255 20256 20257 20258 20259 20260 20261 20262 20263 20264 20265 20266 20267 20268 20269 20270 20271 20272 20273 20274 20275 20276 20277 20278 20279 20280 20281 20282 20283 20284 20285 20286 20287 20288 20289 20290 20291 20292 20293 20294 20295 20296 20297 20298 20299 20300 20301 20302 20303 20304 20305 20306 20307 20308 20309 20310 20311 20312 20313 20314 20315 20316 20317 20318 20319 20320 20321 20322 20323 20324 20325 20326 20327 20328 20329 20330 20331 20332 20333 20334 20335 20336 20337 20338 20339 20340 20341 20342 20343 20344 20345 20346 20347 20348 20349 20350 20351 20352 20353 20354 20355 20356 20357 20358 20359 20360 20361 20362 20363 20364 20365 20366 20367 20368 20369 20370 20371 20372 20373 20374 20375 20376 20377 20378 20379 20380 20381 20382 20383 20384 20385 20386 20387 20388 20389 20390 20391 20392 20393 20394 20395 20396 20397 20398 20399 20400 20401 20402 20403 20404 20405 20406 20407 20408 20409 20410 20411 20412 20413 20414 20415 20416 20417 20418 20419 20420 20421 20422 20423 20424 20425 20426 20427 20428 20429 20430 20431 20432 20433 20434 20435 20436 20437 20438 20439 20440 20441 20442 20443 20444 20445 20446 20447 20448 20449 20450 20451 20452 20453 20454 20455 20456 20457 20458 20459 20460 20461 20462 20463 20464 20465 20466 20467 20468 20469 20470 20471 20472 20473 20474 20475 20476 20477 20478 20479 20480 20481 20482 20483 20484 20485 20486 20487 20488 20489 20490 20491 20492 20493 20494 20495 20496 20497 20498 20499 20500 20501 20502 20503 20504 20505 20506 20507 20508 20509 20510 20511 20512 20513 20514 20515 20516 20517 20518 20519 20520 20521 20522 20523 20524 20525 20526 20527 20528 20529 20530 20531 20532 20533 20534 20535 20536 20537 20538 20539 20540 20541 20542 20543 20544 20545 20546 20547 20548 20549 20550 20551 20552 20553 20554 20555 20556 20557 20558 20559 20560 20561 20562 20563 20564 20565 20566 20567 20568 20569 20570 20571 20572 20573 20574 20575 20576 20577 20578 20579 20580 20581 20582 20583 20584 20585 20586 20587 20588 20589 20590 20591 20592 20593 20594 20595 20596 20597 20598 20599 20600 20601 20602 20603 20604 20605 20606 20607 20608 20609 20610 20611 20612 20613 20614 20615 20616 20617 20618 20619 20620 20621 20622 20623 20624 20625 20626 20627 20628 20629 20630 20631 20632 20633 20634 20635 20636 20637 20638 20639 20640 20641 20642 20643 20644 20645 20646 20647 20648 20649 20650 20651 20652 20653 20654 20655 20656 20657 20658 20659 20660 20661 20662 20663 20664 20665 20666 20667 20668 20669 20670 20671 20672 20673 20674 20675 20676 20677 20678 20679 20680 20681 20682 20683 20684 20685 20686 20687 20688 20689 20690 20691 20692 20693 20694 20695 20696 20697 20698 20699 20700 20701 20702 20703 20704 20705 20706 20707 20708 20709 20710 20711 20712 20713 20714 20715 20716 20717 20718 20719 20720 20721 20722 20723 20724 20725 20726 20727 20728 20729 20730 20731 20732 20733 20734 20735 20736 20737 20738 20739 20740 20741 20742 20743 20744 20745 20746 20747 20748 20749 20750 20751 20752 20753 20754 20755 20756 20757 20758 20759 20760 20761 20762 20763 20764 20765 20766 20767 20768 20769 20770 20771 20772 20773 20774 20775 20776 20777 20778 20779 20780 20781 20782 20783 20784 20785 20786 20787 20788 20789 20790 20791 20792 20793 20794 20795 20796 20797 20798 20799 20800 20801 20802 20803 20804 20805 20806 20807 20808 20809 20810 20811 20812 20813 20814 20815 20816 20817 20818 20819 20820 20821 20822 20823 20824 20825 20826 20827 20828 20829 20830 20831 20832 20833 20834 20835 20836 20837 20838 20839 20840 20841 20842 20843 20844 20845 20846 20847 20848 20849 20850 20851 20852 20853 20854 20855 20856 20857 20858 20859 20860 20861 20862 20863 20864 20865 20866 20867 20868 20869 20870 20871 20872 20873 20874 20875 20876 20877 20878 20879 20880 20881 20882 20883 20884 20885 20886 20887 20888 20889 20890 20891 20892 20893 20894 20895 20896 20897 20898 20899 20900 20901 20902 20903 20904 20905 20906 20907 20908 20909 20910 20911 20912 20913 20914 20915 20916 20917 20918 20919 20920 20921 20922 20923 20924 20925 20926 20927 20928 20929 20930 20931 20932 20933 20934 20935 20936 20937 20938 20939 20940 20941 20942 20943 20944 20945 20946 20947 20948 20949 20950 20951 20952 20953 20954 20955 20956 20957 20958 20959 20960 20961 20962 20963 20964 20965 20966 20967 20968 20969 20970 20971 20972 20973 20974 20975 20976 20977 20978 20979 20980 20981 20982 20983 20984 20985 20986 20987 20988 20989 20990 20991 20992 20993 20994 20995 20996 20997 20998 20999 21000 21001 21002 21003 21004 21005 21006 21007 21008 21009 21010 21011 21012 21013 21014 21015 21016 21017 21018 21019 21020 21021 21022 21023 21024 21025 21026 21027 21028 21029 21030 21031 21032 21033 21034 21035 21036 21037 21038 21039 21040 21041 21042 21043 21044 21045 21046 21047 21048 21049 21050 21051 21052 21053 21054 21055 21056 21057 21058 21059 21060 21061 21062 21063 21064 21065 21066 21067 21068 21069 21070 21071 21072 21073 21074 21075 21076 21077 21078 21079 21080 21081 21082 21083 21084 21085 21086 21087 21088 21089 21090 21091 21092 21093 21094 21095 21096 21097 21098 21099 21100 21101 21102 21103 21104 21105 21106 21107 21108 21109 21110 21111 21112 21113 21114 21115 21116 21117 21118 21119 21120 21121 21122 21123 21124 21125 21126 21127 21128 21129 21130 21131 21132 21133 21134 21135 21136 21137 21138 21139 21140 21141 21142 21143 21144 21145 21146 21147 21148 21149 21150 21151 21152 21153 21154 21155 21156 21157 21158 21159 21160 21161 21162 21163 21164 21165 21166 21167 21168 21169 21170 21171 21172 21173 21174 21175 21176 21177 21178 21179 21180 21181 21182 21183 21184 21185 21186 21187 21188 21189 21190 21191 21192 21193 21194 21195 21196 21197 21198 21199 21200 21201 21202 21203 21204 21205 21206 21207 21208 21209 21210 21211 21212 21213 21214 21215 21216 21217 21218 21219 21220 21221 21222 21223 21224 21225 21226 21227 21228 21229 21230 21231 21232 21233 21234 21235 21236 21237 21238 21239 21240 21241 21242 21243 21244 21245 21246 21247 21248 21249 21250 21251 21252 21253 21254 21255 21256 21257 21258 21259 21260 21261 21262 21263 21264 21265 21266 21267 21268 21269 21270 21271 21272 21273 21274 21275 21276 21277 21278 21279 21280 21281 21282 21283 21284 21285 21286 21287 21288 21289 21290 21291 21292 21293 21294 21295 21296 21297 21298 21299 21300 21301 21302 21303 21304 21305 21306 21307 21308 21309 21310 21311 21312 21313 21314 21315 21316 21317 21318 21319 21320 21321 21322 21323 21324 21325 21326 21327 21328 21329 21330 21331 21332 21333 21334 21335 21336 21337 21338 21339 21340 21341 21342 21343 21344 21345 21346 21347 21348 21349 21350 21351 21352 21353 21354 21355 21356 21357 21358 21359 21360 21361 21362 21363 21364 21365 21366 21367 21368 21369 21370 21371 21372 21373 21374 21375 21376 21377 21378 21379 21380 21381 21382 21383 21384 21385 21386 21387 21388 21389 21390 21391 21392 21393 21394 21395 21396 21397 21398 21399 21400 21401 21402 21403 21404 21405 21406 21407 21408 21409 21410 21411 21412 21413 21414 21415 21416 21417 21418 21419 21420 21421 21422 21423 21424 21425 21426 21427 21428 21429 21430 21431 21432 21433 21434 21435 21436 21437 21438 21439 21440 21441 21442 21443 21444 21445 21446 21447 21448 21449 21450 21451 21452 21453 21454 21455 21456 21457 21458 21459 21460 21461 21462 21463 21464 21465 21466 21467 21468 21469 21470 21471 21472 21473 21474 21475 21476 21477 21478 21479 21480 21481 21482 21483 21484 21485 21486 21487 21488 21489 21490 21491 21492 21493 21494 21495 21496 21497 21498 21499 21500 21501 21502 21503 21504 21505 21506 21507 21508 21509 21510 21511 21512 21513 21514 21515 21516 21517 21518 21519 21520 21521 21522 21523 21524 21525 21526 21527 21528 21529 21530 21531 21532 21533 21534 21535 21536 21537 21538 21539 21540 21541 21542 21543 21544 21545 21546 21547 21548 21549 21550 21551 21552 21553 21554 21555 21556 21557 21558 21559 21560 21561 21562 21563 21564 21565 21566 21567 21568 21569 21570 21571 21572 21573 21574 21575 21576 21577 21578 21579 21580 21581 21582 21583 21584 21585 21586 21587 21588 21589 21590 21591 21592 21593 21594 21595 21596 21597 21598 21599 21600 21601 21602 21603 21604 21605 21606 21607 21608 21609 21610 21611 21612 21613 21614 21615 21616 21617 21618 21619 21620 21621 21622 21623 21624 21625 21626 21627 21628 21629 21630 21631 21632 21633 21634 21635 21636 21637 21638 21639 21640 21641 21642 21643 21644 21645 21646 21647 21648 21649 21650 21651 21652 21653 21654 21655 21656 21657 21658 21659 21660 21661 21662 21663 21664 21665 21666 21667 21668 21669 21670 21671 21672 21673 21674 21675 21676 21677 21678 21679 21680 21681 21682 21683 21684 21685 21686 21687 21688 21689 21690 21691 21692 21693 21694 21695 21696 21697 21698 21699 21700 21701 21702 21703 21704 21705 21706 21707 21708 21709 21710 21711 21712 21713 21714 21715 21716 21717 21718 21719 21720 21721 21722 21723 21724 21725 21726 21727 21728 21729 21730 21731 21732 21733 21734 21735 21736 21737 21738 21739 21740 21741 21742 21743 21744 21745 21746 21747 21748 21749 21750 21751 21752 21753 21754 21755 21756 21757 21758 21759 21760 21761 21762 21763 21764 21765 21766 21767 21768 21769 21770 21771 21772 21773 21774 21775 21776 21777 21778 21779 21780 21781 21782 21783 21784 21785 21786 21787 21788 21789 21790 21791 21792 21793 21794 21795 21796 21797 21798 21799 21800 21801 21802 21803 21804 21805 21806 21807 21808 21809 21810 21811 21812 21813 21814 21815 21816 21817 21818 21819 21820 21821 21822 21823 21824 21825 21826 21827 21828 21829 21830 21831 21832 21833 21834 21835 21836 21837 21838 21839 21840 21841 21842 21843 21844 21845 21846 21847 21848 21849 21850 21851 21852 21853 21854 21855 21856 21857 21858 21859 21860 21861 21862 21863 21864 21865 21866 21867 21868 21869 21870 21871 21872 21873 21874 21875 21876 21877 21878 21879 21880 21881 21882 21883 21884 21885 21886 21887 21888 21889 21890 21891 21892 21893 21894 21895 21896 21897 21898 21899 21900 21901 21902 21903 21904 21905 21906 21907 21908 21909 21910 21911 21912 21913 21914 21915 21916 21917 21918 21919 21920 21921 21922 21923 21924 21925 21926 21927 21928 21929 21930 21931 21932 21933 21934 21935 21936 21937 21938 21939 21940 21941 21942 21943 21944 21945 21946 21947 21948 21949 21950 21951 21952 21953 21954 21955 21956 21957 21958 21959 21960 21961 21962 21963 21964 21965 21966 21967 21968 21969 21970 21971 21972 21973 21974 21975 21976 21977 21978 21979 21980 21981 21982 21983 21984 21985 21986 21987 21988 21989 21990 21991 21992 21993 21994 21995 21996 21997 21998 21999 22000 22001 22002 22003 22004 22005 22006 22007 22008 22009 22010 22011 22012 22013 22014 22015 22016 22017 22018 22019 22020 22021 22022 22023 22024 22025 22026 22027 22028 22029 22030 22031 22032 22033 22034 22035 22036 22037 22038 22039 22040 22041 22042 22043 22044 22045 22046 22047 22048 22049 22050 22051 22052 22053 22054 22055 22056 22057 22058 22059 22060 22061 22062 22063 22064 22065 22066 22067 22068 22069 22070 22071 22072 22073 22074 22075 22076 22077 22078 22079 22080 22081 22082 22083 22084 22085 22086 22087 22088 22089 22090 22091 22092 22093 22094 22095 22096 22097 22098 22099 22100 22101 22102 22103 22104 22105 22106 22107 22108 22109 22110 22111 22112 22113 22114 22115 22116 22117 22118 22119 22120 22121 22122 22123 22124 22125 22126 22127 22128 22129 22130 22131 22132 22133 22134 22135 22136 22137 22138 22139 22140 22141 22142 22143 22144 22145 22146 22147 22148 22149 22150 22151 22152 22153 22154 22155 22156 22157 22158 22159 22160 22161 22162 22163 22164 22165 22166 22167 22168 22169 22170 22171 22172 22173 22174 22175 22176 22177 22178 22179 22180 22181 22182 22183 22184 22185 22186 22187 22188 22189 22190 22191 22192 22193 22194 22195 22196 22197 22198 22199 22200 22201 22202 22203 22204 22205 22206 22207 22208 22209 22210 22211 22212 22213 22214 22215 22216 22217 22218 22219 22220 22221 22222 22223 22224 22225 22226 22227 22228 22229 22230 22231 22232 22233 22234 22235 22236 22237 22238 22239 22240 22241 22242 22243 22244 22245 22246 22247 22248 22249 22250 22251 22252 22253 22254 22255 22256 22257 22258 22259 22260 22261 22262 22263 22264 22265 22266 22267 22268 22269 22270 22271 22272 22273 22274 22275 22276 22277 22278 22279 22280 22281 22282 22283 22284 22285 22286 22287 22288 22289 22290 22291 22292 22293 22294 22295 22296 22297 22298 22299 22300 22301 22302 22303 22304 22305 22306 22307 22308 22309 22310 22311 22312 22313 22314 22315 22316 22317 22318 22319 22320 22321 22322 22323 22324 22325 22326 22327 22328 22329 22330 22331 22332 22333 22334 22335 22336 22337 22338 22339 22340 22341 22342 22343 22344 22345 22346 22347 22348 22349 22350 22351 22352 22353 22354 22355 22356 22357 22358 22359 22360 22361 22362 22363 22364 22365 22366 22367 22368 22369 22370 22371 22372 22373 22374 22375 22376 22377 22378 22379 22380 22381 22382 22383 22384 22385 22386 22387 22388 22389 22390 22391 22392 22393 22394 22395 22396 22397 22398 22399 22400 22401 22402 22403 22404 22405 22406 22407 22408 22409 22410 22411 22412 22413 22414 22415 22416 22417 22418 22419 22420 22421 22422 22423 22424 22425 22426 22427 22428 22429 22430 22431 22432 22433 22434 22435 22436 22437 22438 22439 22440 22441 22442 22443 22444 22445 22446 22447 22448 22449 22450 22451 22452 22453 22454 22455 22456 22457 22458 22459 22460 22461 22462 22463 22464 22465 22466 22467 22468 22469 22470 22471 22472 22473 22474 22475 22476 22477 22478 22479 22480 22481 22482 22483 22484 22485 22486 22487 22488 22489 22490 22491 22492 22493 22494 22495 22496 22497 22498 22499 22500 22501 22502 22503 22504 22505 22506 22507 22508 22509 22510 22511 22512 22513 22514 22515 22516 22517 22518 22519 22520 22521 22522 22523 22524 22525 22526 22527 22528 22529 22530 22531 22532 22533 22534 22535 22536 22537 22538 22539 22540 22541 22542 22543 22544 22545 22546 22547 22548 22549 22550 22551 22552 22553 22554 22555 22556 22557 22558 22559 22560 22561 22562 22563 22564 22565 22566 22567 22568 22569 22570 22571 22572 22573 22574 22575 22576 22577 22578 22579 22580 22581 22582 22583 22584 22585 22586 22587 22588 22589 22590 22591 22592 22593 22594 22595 22596 22597 22598 22599 22600 22601 22602 22603 22604 22605 22606 22607 22608 22609 22610 22611 22612 22613 22614 22615 22616 22617 22618 22619 22620 22621 22622 22623 22624 22625 22626 22627 22628 22629 22630 22631 22632 22633 22634 22635 22636 22637 22638 22639 22640 22641 22642 22643 22644 22645 22646 22647 22648 22649 22650 22651 22652 22653 22654 22655 22656 22657 22658 22659 22660 22661 22662 22663 22664 22665 22666 22667 22668 22669 22670 22671 22672 22673 22674 22675 22676 22677 22678 22679 22680 22681 22682 22683 22684 22685 22686 22687 22688 22689 22690 22691 22692 22693 22694 22695 22696 22697 22698 22699 22700 22701 22702 22703 22704 22705 22706 22707 22708 22709 22710 22711 22712 22713 22714 22715 22716 22717 22718 22719 22720 22721 22722 22723 22724 22725 22726 22727 22728 22729 22730 22731 22732 22733 22734 22735 22736 22737 22738 22739 22740 22741 22742 22743 22744 22745 22746 22747 22748 22749 22750 22751 22752 22753 22754 22755 22756 22757 22758 22759 22760 22761 22762 22763 22764 22765 22766 22767 22768 22769 22770 22771 22772 22773 22774 22775 22776 22777 22778 22779 22780 22781 22782 22783 22784 22785 22786 22787 22788 22789 22790 22791 22792 22793 22794 22795 22796 22797 22798 22799 22800 22801 22802 22803 22804 22805 22806 22807 22808 22809 22810 22811 22812 22813 22814 22815 22816 22817 22818 22819 22820 22821 22822 22823 22824 22825 22826 22827 22828 22829 22830 22831 22832 22833 22834 22835 22836 22837 22838 22839 22840 22841 22842 22843 22844 22845 22846 22847 22848 22849 22850 22851 22852 22853 22854 22855 22856 22857 22858 22859 22860 22861 22862 22863 22864 22865 22866 22867 22868 22869 22870 22871 22872 22873 22874 22875 22876 22877 22878 22879 22880 22881 22882 22883 22884 22885 22886 22887 22888 22889 22890 22891 22892 22893 22894 22895 22896 22897 22898 22899 22900 22901 22902 22903 22904 22905 22906 22907 22908 22909 22910 22911 22912 22913 22914 22915 22916 22917 22918 22919 22920 22921 22922 22923 22924 22925 22926 22927 22928 22929 22930 22931 22932 22933 22934 22935 22936 22937 22938 22939 22940 22941 22942 22943 22944 22945 22946 22947 22948 22949 22950 22951 22952 22953 22954 22955 22956 22957 22958 22959 22960 22961 22962 22963 22964 22965 22966 22967 22968 22969 22970 22971 22972 22973 22974 22975 22976 22977 22978 22979 22980 22981 22982 22983 22984 22985 22986 22987 22988 22989 22990 22991 22992 22993 22994 22995 22996 22997 22998 22999 23000 23001 23002 23003 23004 23005 23006 23007 23008 23009 23010 23011 23012 23013 23014 23015 23016 23017 23018 23019 23020 23021 23022 23023 23024 23025 23026 23027 23028 23029 23030 23031 23032 23033 23034 23035 23036 23037 23038 23039 23040 23041 23042 23043 23044 23045 23046 23047 23048 23049 23050 23051 23052 23053 23054 23055 23056 23057 23058 23059 23060 23061 23062 23063 23064 23065 23066 23067 23068 23069 23070 23071 23072 23073 23074 23075 23076 23077 23078 23079 23080 23081 23082 23083 23084 23085 23086 23087 23088 23089 23090 23091 23092 23093 23094 23095 23096 23097 23098 23099 23100 23101 23102 23103 23104 23105 23106 23107 23108 23109 23110 23111 23112 23113 23114 23115 23116 23117 23118 23119 23120 23121 23122 23123 23124 23125 23126 23127 23128 23129 23130 23131 23132 23133 23134 23135 23136 23137 23138 23139 23140 23141 23142 23143 23144 23145 23146 23147 23148 23149 23150 23151 23152 23153 23154 23155 23156 23157 23158 23159 23160 23161 23162 23163 23164 23165 23166 23167 23168 23169 23170 23171 23172 23173 23174 23175 23176 23177 23178 23179 23180 23181 23182 23183 23184 23185 23186 23187 23188 23189 23190 23191 23192 23193 23194 23195 23196 23197 23198 23199 23200 23201 23202 23203 23204 23205 23206 23207 23208 23209 23210 23211 23212 23213 23214 23215 23216 23217 23218 23219 23220 23221 23222 23223 23224 23225 23226 23227 23228 23229 23230 23231 23232 23233 23234 23235 23236 23237 23238 23239 23240 23241 23242 23243 23244 23245 23246 23247 23248 23249 23250 23251 23252 23253 23254 23255 23256 23257 23258 23259 23260 23261 23262 23263 23264 23265 23266 23267 23268 23269 23270 23271 23272 23273 23274 23275 23276 23277 23278 23279 23280 23281 23282 23283 23284 23285 23286 23287 23288 23289 23290 23291 23292 23293 23294 23295 23296 23297 23298 23299 23300 23301 23302 23303 23304 23305 23306 23307 23308 23309 23310 23311 23312 23313 23314 23315 23316 23317 23318 23319 23320 23321 23322 23323 23324 23325 23326 23327 23328 23329 23330 23331 23332 23333 23334 23335 23336 23337 23338 23339 23340 23341 23342 23343 23344 23345 23346 23347 23348 23349 23350 23351 23352 23353 23354 23355 23356 23357 23358 23359 23360 23361 23362 23363 23364 23365 23366 23367 23368 23369 23370 23371 23372 23373 23374 23375 23376 23377 23378 23379 23380 23381 23382 23383 23384 23385 23386 23387 23388 23389 23390 23391 23392 23393 23394 23395 23396 23397 23398 23399 23400 23401 23402 23403 23404 23405 23406 23407 23408 23409 23410 23411 23412 23413 23414 23415 23416 23417 23418 23419 23420 23421 23422 23423 23424 23425 23426 23427 23428 23429 23430 23431 23432 23433 23434 23435 23436 23437 23438 23439 23440 23441 23442 23443 23444 23445 23446 23447 23448 23449 23450 23451 23452 23453 23454 23455 23456 23457 23458 23459 23460 23461 23462 23463 23464 23465 23466 23467 23468 23469 23470 23471 23472 23473 23474 23475 23476 23477 23478 23479 23480 23481 23482 23483 23484 23485 23486 23487 23488 23489 23490 23491 23492 23493 23494 23495 23496 23497 23498 23499 23500 23501 23502 23503 23504 23505 23506 23507 23508 23509 23510 23511 23512 23513 23514 23515 23516 23517 23518 23519 23520 23521 23522 23523 23524 23525 23526 23527 23528 23529 23530 23531 23532 23533 23534 23535 23536 23537 23538 23539 23540 23541 23542 23543 23544 23545 23546 23547 23548 23549 23550 23551 23552 23553 23554 23555 23556 23557 23558 23559 23560 23561 23562 23563 23564 23565 23566 23567 23568 23569 23570 23571 23572 23573 23574 23575 23576 23577 23578 23579 23580 23581 23582 23583 23584 23585 23586 23587 23588 23589 23590 23591 23592 23593 23594 23595 23596 23597 23598 23599 23600 23601 23602 23603 23604 23605 23606 23607 23608 23609 23610 23611 23612 23613 23614 23615 23616 23617 23618 23619 23620 23621 23622 23623 23624 23625 23626 23627 23628 23629 23630 23631 23632 23633 23634 23635 23636 23637 23638 23639 23640 23641 23642 23643 23644 23645 23646 23647 23648 23649 23650 23651 23652 23653 23654 23655 23656 23657 23658 23659 23660 23661 23662 23663 23664 23665 23666 23667 23668 23669 23670 23671 23672 23673 23674 23675 23676 23677 23678 23679 23680 23681 23682 23683 23684 23685 23686 23687 23688 23689 23690 23691 23692 23693 23694 23695 23696 23697 23698 23699 23700 23701 23702 23703 23704 23705 23706 23707 23708 23709 23710 23711 23712 23713 23714 23715 23716 23717 23718 23719 23720 23721 23722 23723 23724 23725 23726 23727 23728 23729 23730 23731 23732 23733 23734 23735 23736 23737 23738 23739 23740 23741 23742 23743 23744 23745 23746 23747 23748 23749 23750 23751 23752 23753 23754 23755 23756 23757 23758 23759 23760 23761 23762 23763 23764 23765 23766 23767 23768 23769 23770 23771 23772 23773 23774 23775 23776 23777 23778 23779 23780 23781 23782 23783 23784 23785 23786 23787 23788 23789 23790 23791 23792 23793 23794 23795 23796 23797 23798 23799 23800 23801 23802 23803 23804 23805 23806 23807 23808 23809 23810 23811 23812 23813 23814 23815 23816 23817 23818 23819 23820 23821 23822 23823 23824 23825 23826 23827 23828 23829 23830 23831 23832 23833 23834 23835 23836 23837 23838 23839 23840 23841 23842 23843 23844 23845 23846 23847 23848 23849 23850 23851 23852 23853 23854 23855 23856 23857 23858 23859 23860 23861 23862 23863 23864 23865 23866 23867 23868 23869 23870 23871 23872 23873 23874 23875 23876 23877 23878 23879 23880 23881 23882 23883 23884 23885 23886 23887 23888 23889 23890 23891 23892 23893 23894 23895 23896 23897 23898 23899 23900 23901 23902 23903 23904 23905 23906 23907 23908 23909 23910 23911 23912 23913 23914 23915 23916 23917 23918 23919 23920 23921 23922 23923 23924 23925 23926 23927 23928 23929 23930 23931 23932 23933 23934 23935 23936 23937 23938 23939 23940 23941 23942 23943 23944 23945 23946 23947 23948 23949 23950 23951 23952 23953 23954 23955 23956 23957 23958 23959 23960 23961 23962 23963 23964 23965 23966 23967 23968 23969 23970 23971 23972 23973 23974 23975 23976 23977 23978 23979 23980 23981 23982 23983 23984 23985 23986 23987 23988 23989 23990 23991 23992 23993 23994 23995 23996 23997 23998 23999 24000 24001 24002 24003 24004 24005 24006 24007 24008 24009 24010 24011 24012 24013 24014 24015 24016 24017 24018 24019 24020 24021 24022 24023 24024 24025 24026 24027 24028 24029 24030 24031 24032 24033 24034 24035 24036 24037 24038 24039 24040 24041 24042 24043 24044 24045 24046 24047 24048 24049 24050 24051 24052 24053 24054 24055 24056 24057 24058 24059 24060 24061 24062 24063 24064 24065 24066 24067 24068 24069 24070 24071 24072 24073 24074 24075 24076 24077 24078 24079 24080 24081 24082 24083 24084 24085 24086 24087 24088 24089 24090 24091 24092 24093 24094 24095 24096 24097 24098 24099 24100 24101 24102 24103 24104 24105 24106 24107 24108 24109 24110 24111 24112 24113 24114 24115 24116 24117 24118 24119 24120 24121 24122 24123 24124 24125 24126 24127 24128 24129 24130 24131 24132 24133 24134 24135 24136 24137 24138 24139 24140 24141 24142 24143 24144 24145 24146 24147 24148 24149 24150 24151 24152 24153 24154 24155 24156 24157 24158 24159 24160 24161 24162 24163 24164 24165 24166 24167 24168 24169 24170 24171 24172 24173 24174 24175 24176 24177 24178 24179 24180 24181 24182 24183 24184 24185 24186 24187 24188 24189 24190 24191 24192 24193 24194 24195 24196 24197 24198 24199 24200 24201 24202 24203 24204 24205 24206 24207 24208 24209 24210 24211 24212 24213 24214 24215 24216 24217 24218 24219 24220 24221 24222 24223 24224 24225 24226 24227 24228 24229 24230 24231 24232 24233 24234 24235 24236 24237 24238 24239 24240 24241 24242 24243 24244 24245 24246 24247 24248 24249 24250 24251 24252 24253 24254 24255 24256 24257 24258 24259 24260 24261 24262 24263 24264 24265 24266 24267 24268 24269 24270 24271 24272 24273 24274 24275 24276 24277 24278 24279 24280 24281 24282 24283 24284 24285 24286 24287 24288 24289 24290 24291 24292 24293 24294 24295 24296 24297 24298 24299 24300 24301 24302 24303 24304 24305 24306 24307 24308 24309 24310 24311 24312 24313 24314 24315 24316 24317 24318 24319 24320 24321 24322 24323 24324 24325 24326 24327 24328 24329 24330 24331 24332 24333 24334 24335 24336 24337 24338 24339 24340 24341 24342 24343 24344 24345 24346 24347 24348 24349 24350 24351 24352 24353 24354 24355 24356 24357 24358 24359 24360 24361 24362 24363 24364 24365 24366 24367 24368 24369 24370 24371 24372 24373 24374 24375 24376 24377 24378 24379 24380 24381 24382 24383 24384 24385 24386 24387 24388 24389 24390 24391 24392 24393 24394 24395 24396 24397 24398 24399 24400 24401 24402 24403 24404 24405 24406 24407 24408 24409 24410 24411 24412 24413 24414 24415 24416 24417 24418 24419 24420 24421 24422 24423 24424 24425 24426 24427 24428 24429 24430 24431 24432 24433 24434 24435 24436 24437 24438 24439 24440 24441 24442 24443 24444 24445 24446 24447 24448 24449 24450 24451 24452 24453 24454 24455 24456 24457 24458 24459 24460 24461 24462 24463 24464 24465 24466 24467 24468 24469 24470 24471 24472 24473 24474 24475 24476 24477 24478 24479 24480 24481 24482 24483 24484 24485 24486 24487 24488 24489 24490 24491 24492 24493 24494 24495 24496 24497 24498 24499 24500 24501 24502 24503 24504 24505 24506 24507 24508 24509 24510 24511 24512 24513 24514 24515 24516 24517 24518 24519 24520 24521 24522 24523 24524 24525 24526 24527 24528 24529 24530 24531 24532 24533 24534 24535 24536 24537 24538 24539 24540 24541 24542 24543 24544 24545 24546 24547 24548 24549 24550 24551 24552 24553 24554 24555 24556 24557 24558 24559 24560 24561 24562 24563 24564 24565 24566 24567 24568 24569 24570 24571 24572 24573 24574 24575 24576 24577 24578 24579 24580 24581 24582 24583 24584 24585 24586 24587 24588 24589 24590 24591 24592 24593 24594 24595 24596 24597 24598 24599 24600 24601 24602 24603 24604 24605 24606 24607 24608 24609 24610 24611 24612 24613 24614 24615 24616 24617 24618 24619 24620 24621 24622 24623 24624 24625 24626 24627 24628 24629 24630 24631 24632 24633 24634 24635 24636 24637 24638 24639 24640 24641 24642 24643 24644 24645 24646 24647 24648 24649 24650 24651 24652 24653 24654 24655 24656 24657 24658 24659 24660 24661 24662 24663 24664 24665 24666 24667 24668 24669 24670 24671 24672 24673 24674 24675 24676 24677 24678 24679 24680 24681 24682 24683 24684 24685 24686 24687 24688 24689 24690 24691 24692 24693 24694 24695 24696 24697 24698 24699 24700 24701 24702 24703 24704 24705 24706 24707 24708 24709 24710 24711 24712 24713 24714 24715 24716 24717 24718 24719 24720 24721 24722 24723 24724 24725 24726 24727 24728 24729 24730 24731 24732 24733 24734 24735 24736 24737 24738 24739 24740 24741 24742 24743 24744 24745 24746 24747 24748 24749 24750 24751 24752 24753 24754 24755 24756 24757 24758 24759 24760 24761 24762 24763 24764 24765 24766 24767 24768 24769 24770 24771 24772 24773 24774 24775 24776 24777 24778 24779 24780 24781 24782 24783 24784 24785 24786 24787 24788 24789 24790 24791 24792 24793 24794 24795 24796 24797 24798 24799 24800 24801 24802 24803 24804 24805 24806 24807 24808 24809 24810 24811 24812 24813 24814 24815 24816 24817 24818 24819 24820 24821 24822 24823 24824 24825 24826 24827 24828 24829 24830 24831 24832 24833 24834 24835 24836 24837 24838 24839 24840 24841 24842 24843 24844 24845 24846 24847 24848 24849 24850 24851 24852 24853 24854 24855 24856 24857 24858 24859 24860 24861 24862 24863 24864 24865 24866 24867 24868 24869 24870 24871 24872 24873 24874 24875 24876 24877 24878 24879 24880 24881 24882 24883 24884 24885 24886 24887 24888 24889 24890 24891 24892 24893 24894 24895 24896 24897 24898 24899 24900 24901 24902 24903 24904 24905 24906 24907 24908 24909 24910 24911 24912 24913 24914 24915 24916 24917 24918 24919 24920 24921 24922 24923 24924 24925 24926 24927 24928 24929 24930 24931 24932 24933 24934 24935 24936 24937 24938 24939 24940 24941 24942 24943 24944 24945 24946 24947 24948 24949 24950 24951 24952 24953 24954 24955 24956 24957 24958 24959 24960 24961 24962 24963 24964 24965 24966 24967 24968 24969 24970 24971 24972 24973 24974 24975 24976 24977 24978 24979 24980 24981 24982 24983 24984 24985 24986 24987 24988 24989 24990 24991 24992 24993 24994 24995 24996 24997 24998 24999 25000 25001 25002 25003 25004 25005 25006 25007 25008 25009 25010 25011 25012 25013 25014 25015 25016 25017 25018 25019 25020 25021 25022 25023 25024 25025 25026 25027 25028 25029 25030 25031 25032 25033 25034 25035 25036 25037 25038 25039 25040 25041 25042 25043 25044 25045 25046 25047 25048 25049 25050 25051 25052 25053 25054 25055 25056 25057 25058 25059 25060 25061 25062 25063 25064 25065 25066 25067 25068 25069 25070 25071 25072 25073 25074 25075 25076 25077 25078 25079 25080 25081 25082 25083 25084 25085 25086 25087 25088 25089 25090 25091 25092 25093 25094 25095 25096 25097 25098 25099 25100 25101 25102 25103 25104 25105 25106 25107 25108 25109 25110 25111 25112 25113 25114 25115 25116 25117 25118 25119 25120 25121 25122 25123 25124 25125 25126 25127 25128 25129 25130 25131 25132 25133 25134 25135 25136 25137 25138 25139 25140 25141 25142 25143 25144 25145 25146 25147 25148 25149 25150 25151 25152 25153 25154 25155 25156 25157 25158 25159 25160 25161 25162 25163 25164 25165 25166 25167 25168 25169 25170 25171 25172 25173 25174 25175 25176 25177 25178 25179 25180 25181 25182 25183 25184 25185 25186 25187 25188 25189 25190 25191 25192 25193 25194 25195 25196 25197 25198 25199 25200 25201 25202 25203 25204 25205 25206 25207 25208 25209 25210 25211 25212 25213 25214 25215 25216 25217 25218 25219 25220 25221 25222 25223 25224 25225 25226 25227 25228 25229 25230 25231 25232 25233 25234 25235 25236 25237 25238 25239 25240 25241 25242 25243 25244 25245 25246 25247 25248 25249 25250 25251 25252 25253 25254 25255 25256 25257 25258 25259 25260 25261 25262 25263 25264 25265 25266 25267 25268 25269 25270 25271 25272 25273 25274 25275 25276 25277 25278 25279 25280 25281 25282 25283 25284 25285 25286 25287 25288 25289 25290 25291 25292 25293 25294 25295 25296 25297 25298 25299 25300 25301 25302 25303 25304 25305 25306 25307 25308 25309 25310 25311 25312 25313 25314 25315 25316 25317 25318 25319 25320 25321 25322 25323 25324 25325 25326 25327 25328 25329 25330 25331 25332 25333 25334 25335 25336 25337 25338 25339 25340 25341 25342 25343 25344 25345 25346 25347 25348 25349 25350 25351 25352 25353 25354 25355 25356 25357 25358 25359 25360 25361 25362 25363 25364 25365 25366 25367 25368 25369 25370 25371 25372 25373 25374 25375 25376 25377 25378 25379 25380 25381 25382 25383 25384 25385 25386 25387 25388 25389 25390 25391 25392 25393 25394 25395 25396 25397 25398 25399 25400 25401 25402 25403 25404 25405 25406 25407 25408 25409 25410 25411 25412 25413 25414 25415 25416 25417 25418 25419 25420 25421 25422 25423 25424 25425 25426 25427 25428 25429 25430 25431 25432 25433 25434 25435 25436 25437 25438 25439 25440 25441 25442 25443 25444 25445 25446 25447 25448 25449 25450 25451 25452 25453 25454 25455 25456 25457 25458 25459 25460 25461 25462 25463 25464 25465 25466 25467 25468 25469 25470 25471 25472 25473 25474 25475 25476 25477 25478 25479 25480 25481 25482 25483 25484 25485 25486 25487 25488 25489 25490 25491 25492 25493 25494 25495 25496 25497 25498 25499 25500 25501 25502 25503 25504 25505 25506 25507 25508 25509 25510 25511 25512 25513 25514 25515 25516 25517 25518 25519 25520 25521 25522 25523 25524 25525 25526 25527 25528 25529 25530 25531 25532 25533 25534 25535 25536 25537 25538 25539 25540 25541 25542 25543 25544 25545 25546 25547 25548 25549 25550 25551 25552 25553 25554 25555 25556 25557 25558 25559 25560 25561 25562 25563 25564 25565 25566 25567 25568 25569 25570 25571 25572 25573 25574 25575 25576 25577 25578 25579 25580 25581 25582 25583 25584 25585 25586 25587 25588 25589 25590 25591 25592 25593 25594 25595 25596 25597 25598 25599 25600 25601 25602 25603 25604 25605 25606 25607 25608 25609 25610 25611 25612 25613 25614 25615 25616 25617 25618 25619 25620 25621 25622 25623 25624 25625 25626 25627 25628 25629 25630 25631 25632 25633 25634 25635 25636 25637 25638 25639 25640 25641 25642 25643 25644 25645 25646 25647 25648 25649 25650 25651 25652 25653 25654 25655 25656 25657 25658 25659 25660 25661 25662 25663 25664 25665 25666 25667 25668 25669 25670 25671 25672 25673 25674 25675 25676 25677 25678 25679 25680 25681 25682 25683 25684 25685 25686 25687 25688 25689 25690 25691 25692 25693 25694 25695 25696 25697 25698 25699 25700 25701 25702 25703 25704 25705 25706 25707 25708 25709 25710 25711 25712 25713 25714 25715 25716 25717 25718 25719 25720 25721 25722 25723 25724 25725 25726 25727 25728 25729 25730 25731 25732 25733 25734 25735 25736 25737 25738 25739 25740 25741 25742 25743 25744 25745 25746 25747 25748 25749 25750 25751 25752 25753 25754 25755 25756 25757 25758 25759 25760 25761 25762 25763 25764 25765 25766 25767 25768 25769 25770 25771 25772 25773 25774 25775 25776 25777 25778 25779 25780 25781 25782 25783 25784 25785 25786 25787 25788 25789 25790 25791 25792 25793 25794 25795 25796 25797 25798 25799 25800 25801 25802 25803 25804 25805 25806 25807 25808 25809 25810 25811 25812 25813 25814 25815 25816 25817 25818 25819 25820 25821 25822 25823 25824 25825 25826 25827 25828 25829 25830 25831 25832 25833 25834 25835 25836 25837 25838 25839 25840 25841 25842 25843 25844 25845 25846 25847 25848 25849 25850 25851 25852 25853 25854 25855 25856 25857 25858 25859 25860 25861 25862 25863 25864 25865 25866 25867 25868 25869 25870 25871 25872 25873 25874 25875 25876 25877 25878 25879 25880 25881 25882 25883 25884 25885 25886 25887 25888 25889 25890 25891 25892 25893 25894 25895 25896 25897 25898 25899 25900 25901 25902 25903 25904 25905 25906 25907 25908 25909 25910 25911 25912 25913 25914 25915 25916 25917 25918 25919 25920 25921 25922 25923 25924 25925 25926 25927 25928 25929 25930 25931 25932 25933 25934 25935 25936 25937 25938 25939 25940 25941 25942 25943 25944 25945 25946 25947 25948 25949 25950 25951 25952 25953 25954 25955 25956 25957 25958 25959 25960 25961 25962 25963 25964 25965 25966 25967 25968 25969 25970 25971 25972 25973 25974 25975 25976 25977 25978 25979 25980 25981 25982 25983 25984 25985 25986 25987 25988 25989 25990 25991 25992 25993 25994 25995 25996 25997 25998 25999 26000 26001 26002 26003 26004 26005 26006 26007 26008 26009 26010 26011 26012 26013 26014 26015 26016 26017 26018 26019 26020 26021 26022 26023 26024 26025 26026 26027 26028 26029 26030 26031 26032 26033 26034 26035 26036 26037 26038 26039 26040 26041 26042 26043 26044 26045 26046 26047 26048 26049 26050 26051 26052 26053 26054 26055 26056 26057 26058 26059 26060 26061 26062 26063 26064 26065 26066 26067 26068 26069 26070 26071 26072 26073 26074 26075 26076 26077 26078 26079 26080 26081 26082 26083 26084 26085 26086 26087 26088 26089 26090 26091 26092 26093 26094 26095 26096 26097 26098 26099 26100 26101 26102 26103 26104 26105 26106 26107 26108 26109 26110 26111 26112 26113 26114 26115 26116 26117 26118 26119 26120 26121 26122 26123 26124 26125 26126 26127 26128 26129 26130 26131 26132 26133 26134 26135 26136 26137 26138 26139 26140 26141 26142 26143 26144 26145 26146 26147 26148 26149 26150 26151 26152 26153 26154 26155 26156 26157 26158 26159 26160 26161 26162 26163 26164 26165 26166 26167 26168 26169 26170 26171 26172 26173 26174 26175 26176 26177 26178 26179 26180 26181 26182 26183 26184 26185 26186 26187 26188 26189 26190 26191 26192 26193 26194 26195 26196 26197 26198 26199 26200 26201 26202 26203 26204 26205 26206 26207 26208 26209 26210 26211 26212 26213 26214 26215 26216 26217 26218 26219 26220 26221 26222 26223 26224 26225 26226 26227 26228 26229 26230 26231 26232 26233 26234 26235 26236 26237 26238 26239 26240 26241 26242 26243 26244 26245 26246 26247 26248 26249 26250 26251 26252 26253 26254 26255 26256 26257 26258 26259 26260 26261 26262 26263 26264 26265 26266 26267 26268 26269 26270 26271 26272 26273 26274 26275 26276 26277 26278 26279 26280 26281 26282 26283 26284 26285 26286 26287 26288 26289 26290 26291 26292 26293 26294 26295 26296 26297 26298 26299 26300 26301 26302 26303 26304 26305 26306 26307 26308 26309 26310 26311 26312 26313 26314 26315 26316 26317 26318 26319 26320 26321 26322 26323 26324 26325 26326 26327 26328 26329 26330 26331 26332 26333 26334 26335 26336 26337 26338 26339 26340 26341 26342 26343 26344 26345 26346 26347 26348 26349 26350 26351 26352 26353 26354 26355 26356 26357 26358 26359 26360 26361 26362 26363 26364 26365 26366 26367 26368 26369 26370 26371 26372 26373 26374 26375 26376 26377 26378 26379 26380 26381 26382 26383 26384 26385 26386 26387 26388 26389 26390 26391 26392 26393 26394 26395 26396 26397 26398 26399 26400 26401 26402 26403 26404 26405 26406 26407 26408 26409 26410 26411 26412 26413 26414 26415 26416 26417 26418 26419 26420 26421 26422 26423 26424 26425 26426 26427 26428 26429 26430 26431 26432 26433 26434 26435 26436 26437 26438 26439 26440 26441 26442 26443 26444 26445 26446 26447 26448 26449 26450 26451 26452 26453 26454 26455 26456 26457 26458 26459 26460 26461 26462 26463 26464 26465 26466 26467 26468 26469 26470 26471 26472 26473 26474 26475 26476 26477 26478 26479 26480 26481 26482 26483 26484 26485 26486 26487 26488 26489 26490 26491 26492 26493 26494 26495 26496 26497 26498 26499 26500 26501 26502 26503 26504 26505 26506 26507 26508 26509 26510 26511 26512 26513 26514 26515 26516 26517 26518 26519 26520 26521 26522 26523 26524 26525 26526 26527 26528 26529 26530 26531 26532 26533 26534 26535 26536 26537 26538 26539 26540 26541 26542 26543 26544 26545 26546 26547 26548 26549 26550 26551 26552 26553 26554 26555 26556 26557 26558 26559 26560 26561 26562 26563 26564 26565 26566 26567 26568 26569 26570 26571 26572 26573 26574 26575 26576 26577 26578 26579 26580 26581 26582 26583 26584 26585 26586 26587 26588 26589 26590 26591 26592 26593 26594 26595 26596 26597 26598 26599 26600 26601 26602 26603 26604 26605 26606 26607 26608 26609 26610 26611 26612 26613 26614 26615 26616 26617 26618 26619 26620 26621 26622 26623 26624 26625 26626 26627 26628 26629 26630 26631 26632 26633 26634 26635 26636 26637 26638 26639 26640 26641 26642 26643 26644 26645 26646 26647 26648 26649 26650 26651 26652 26653 26654 26655 26656 26657 26658 26659 26660 26661 26662 26663 26664 26665 26666 26667 26668 26669 26670 26671 26672 26673 26674 26675 26676 26677 26678 26679 26680 26681 26682 26683 26684 26685 26686 26687 26688 26689 26690 26691 26692 26693 26694 26695 26696 26697 26698 26699 26700 26701 26702 26703 26704 26705 26706 26707 26708 26709 26710 26711 26712 26713 26714 26715 26716 26717 26718 26719 26720 26721 26722 26723 26724 26725 26726 26727 26728 26729 26730 26731 26732 26733 26734 26735 26736 26737 26738 26739 26740 26741 26742 26743 26744 26745 26746 26747 26748 26749 26750 26751 26752 26753 26754 26755 26756 26757 26758 26759 26760 26761 26762 26763 26764 26765 26766 26767 26768 26769 26770 26771 26772 26773 26774 26775 26776 26777 26778 26779 26780 26781 26782 26783 26784 26785 26786 26787 26788 26789 26790 26791 26792 26793 26794 26795 26796 26797 26798 26799 26800 26801 26802 26803 26804 26805 26806 26807 26808 26809 26810 26811 26812 26813 26814 26815 26816 26817 26818 26819 26820 26821 26822 26823 26824 26825 26826 26827 26828 26829 26830 26831 26832 26833 26834 26835 26836 26837 26838 26839 26840 26841 26842 26843 26844 26845 26846 26847 26848 26849 26850 26851 26852 26853 26854 26855 26856 26857 26858 26859 26860 26861 26862 26863 26864 26865 26866 26867 26868 26869 26870 26871 26872 26873 26874 26875 26876 26877 26878 26879 26880 26881 26882 26883 26884 26885 26886 26887 26888 26889 26890 26891 26892 26893 26894 26895 26896 26897 26898 26899 26900 26901 26902 26903 26904 26905 26906 26907 26908 26909 26910 26911 26912 26913 26914 26915 26916 26917 26918 26919 26920 26921 26922 26923 26924 26925 26926 26927 26928 26929 26930 26931 26932 26933 26934 26935 26936 26937 26938 26939 26940 26941 26942 26943 26944 26945 26946 26947 26948 26949 26950 26951 26952 26953 26954 26955 26956 26957 26958 26959 26960 26961 26962 26963 26964 26965 26966 26967 26968 26969 26970 26971 26972 26973 26974 26975 26976 26977 26978 26979 26980 26981 26982 26983 26984 26985 26986 26987 26988 26989 26990 26991 26992 26993 26994 26995 26996 26997 26998 26999 27000 27001 27002 27003 27004 27005 27006 27007 27008 27009 27010 27011 27012 27013 27014 27015 27016 27017 27018 27019 27020 27021 27022 27023 27024 27025 27026 27027 27028 27029 27030 27031 27032 27033 27034 27035 27036 27037 27038 27039 27040 27041 27042 27043 27044 27045 27046 27047 27048 27049 27050 27051 27052 27053 27054 27055 27056 27057 27058 27059 27060 27061 27062 27063 27064 27065 27066 27067 27068 27069 27070 27071 27072 27073 27074 27075 27076 27077 27078 27079 27080 27081 27082 27083 27084 27085 27086 27087 27088 27089 27090 27091 27092 27093 27094 27095 27096 27097 27098 27099 27100 27101 27102 27103 27104 27105 27106 27107 27108 27109 27110 27111 27112 27113 27114 27115 27116 27117 27118 27119 27120 27121 27122 27123 27124 27125 27126 27127 27128 27129 27130 27131 27132 27133 27134 27135 27136 27137 27138 27139 27140 27141 27142 27143 27144 27145 27146 27147 27148 27149 27150 27151 27152 27153 27154 27155 27156 27157 27158 27159 27160 27161 27162 27163 27164 27165 27166 27167 27168 27169 27170 27171 27172 27173 27174 27175 27176 27177 27178 27179 27180 27181 27182 27183 27184 27185 27186 27187 27188 27189 27190 27191 27192 27193 27194 27195 27196 27197 27198 27199 27200 27201 27202 27203 27204 27205 27206 27207 27208 27209 27210 27211 27212 27213 27214 27215 27216 27217 27218 27219 27220 27221 27222 27223 27224 27225 27226 27227 27228 27229 27230 27231 27232 27233 27234 27235 27236 27237 27238 27239 27240 27241 27242 27243 27244 27245 27246 27247 27248 27249 27250 27251 27252 27253 27254 27255 27256 27257 27258 27259 27260 27261 27262 27263 27264 27265 27266 27267 27268 27269 27270 27271 27272 27273 27274 27275 27276 27277 27278 27279 27280 27281 27282 27283 27284 27285 27286 27287 27288 27289 27290 27291 27292 27293 27294 27295 27296 27297 27298 27299 27300 27301 27302 27303 27304 27305 27306 27307 27308 27309 27310 27311 27312 27313 27314 27315 27316 27317 27318 27319 27320 27321 27322 27323 27324 27325 27326 27327 27328 27329 27330 27331 27332 27333 27334 27335 27336 27337 27338 27339 27340 27341 27342 27343 27344 27345 27346 27347 27348 27349 27350 27351 27352 27353 27354 27355 27356 27357 27358 27359 27360 27361 27362 27363 27364 27365 27366 27367 27368 27369 27370 27371 27372 27373 27374 27375 27376 27377 27378 27379 27380 27381 27382 27383 27384 27385 27386 27387 27388 27389 27390 27391 27392 27393 27394 27395 27396 27397 27398 27399 27400 27401 27402 27403 27404 27405 27406 27407 27408 27409 27410 27411 27412 27413 27414 27415 27416 27417 27418 27419 27420 27421 27422 27423 27424 27425 27426 27427 27428 27429 27430 27431 27432 27433 27434 27435 27436 27437 27438 27439 27440 27441 27442 27443 27444 27445 27446 27447 27448 27449 27450 27451 27452 27453 27454 27455 27456 27457 27458 27459 27460 27461 27462 27463 27464 27465 27466 27467 27468 27469 27470 27471 27472 27473 27474 27475 27476 27477 27478 27479 27480 27481 27482 27483 27484 27485 27486 27487 27488 27489 27490 27491 27492 27493 27494 27495 27496 27497 27498 27499 27500 27501 27502 27503 27504 27505 27506 27507 27508 27509 27510 27511 27512 27513 27514 27515 27516 27517 27518 27519 27520 27521 27522 27523 27524 27525 27526 27527 27528 27529 27530 27531 27532 27533 27534 27535 27536 27537 27538 27539 27540 27541 27542 27543 27544 27545 27546 27547 27548 27549 27550 27551 27552 27553 27554 27555 27556 27557 27558 27559 27560 27561 27562 27563 27564 27565 27566 27567 27568 27569 27570 27571 27572 27573 27574 27575 27576 27577 27578 27579 27580 27581 27582 27583 27584 27585 27586 27587 27588 27589 27590 27591 27592 27593 27594 27595 27596 27597 27598 27599 27600 27601 27602 27603 27604 27605 27606 27607 27608 27609 27610 27611 27612 27613 27614 27615 27616 27617 27618 27619 27620 27621 27622 27623 27624 27625 27626 27627 27628 27629 27630 27631 27632 27633 27634 27635 27636 27637 27638 27639 27640 27641 27642 27643 27644 27645 27646 27647 27648 27649 27650 27651 27652 27653 27654 27655 27656 27657 27658 27659 27660 27661 27662 27663 27664 27665 27666 27667 27668 27669 27670 27671 27672 27673 27674 27675 27676 27677 27678 27679 27680 27681 27682 27683 27684 27685 27686 27687 27688 27689 27690 27691 27692 27693 27694 27695 27696 27697 27698 27699 27700 27701 27702 27703 27704 27705 27706 27707 27708 27709 27710 27711 27712 27713 27714 27715 27716 27717 27718 27719 27720 27721 27722 27723 27724 27725 27726 27727 27728 27729 27730 27731 27732 27733 27734 27735 27736 27737 27738 27739 27740 27741 27742 27743 27744 27745 27746 27747 27748 27749 27750 27751 27752 27753 27754 27755 27756 27757 27758 27759 27760 27761 27762 27763 27764 27765 27766 27767 27768 27769 27770 27771 27772 27773 27774 27775 27776 27777 27778 27779 27780 27781 27782 27783 27784 27785 27786 27787 27788 27789 27790 27791 27792 27793 27794 27795 27796 27797 27798 27799 27800 27801 27802 27803 27804 27805 27806 27807 27808 27809 27810 27811 27812 27813 27814 27815 27816 27817 27818 27819 27820 27821 27822 27823 27824 27825 27826 27827 27828 27829 27830 27831 27832 27833 27834 27835 27836 27837 27838 27839 27840 27841 27842 27843 27844 27845 27846 27847 27848 27849 27850 27851 27852 27853 27854 27855 27856 27857 27858 27859 27860 27861 27862 27863 27864 27865 27866 27867 27868 27869 27870 27871 27872 27873 27874 27875 27876 27877 27878 27879 27880 27881 27882 27883 27884 27885 27886 27887 27888 27889 27890 27891 27892 27893 27894 27895 27896 27897 27898 27899 27900 27901 27902 27903 27904 27905 27906 27907 27908 27909 27910 27911 27912 27913 27914 27915 27916 27917 27918 27919 27920 27921 27922 27923 27924 27925 27926 27927 27928 27929 27930 27931 27932 27933 27934 27935 27936 27937 27938 27939 27940 27941 27942 27943 27944 27945 27946 27947 27948 27949 27950 27951 27952 27953 27954 27955 27956 27957 27958 27959 27960 27961 27962 27963 27964 27965 27966 27967 27968 27969 27970 27971 27972 27973 27974 27975 27976 27977 27978 27979 27980 27981 27982 27983 27984 27985 27986 27987 27988 27989 27990 27991 27992 27993 27994 27995 27996 27997 27998 27999 28000 28001 28002 28003 28004 28005 28006 28007 28008 28009 28010 28011 28012 28013 28014 28015 28016 28017 28018 28019 28020 28021 28022 28023 28024 28025 28026 28027 28028 28029 28030 28031 28032 28033 28034 28035 28036 28037 28038 28039 28040 28041 28042 28043 28044 28045 28046 28047 28048 28049 28050 28051 28052 28053 28054 28055 28056 28057 28058 28059 28060 28061 28062 28063 28064 28065 28066 28067 28068 28069 28070 28071 28072 28073 28074 28075 28076 28077 28078 28079 28080 28081 28082 28083 28084 28085 28086 28087 28088 28089 28090 28091 28092 28093 28094 28095 28096 28097 28098 28099 28100 28101 28102 28103 28104 28105 28106 28107 28108 28109 28110 28111 28112 28113 28114 28115 28116 28117 28118 28119 28120 28121 28122 28123 28124 28125 28126 28127 28128 28129 28130 28131 28132 28133 28134 28135 28136 28137 28138 28139 28140 28141 28142 28143 28144 28145 28146 28147 28148 28149 28150 28151 28152 28153 28154 28155 28156 28157 28158 28159 28160 28161 28162 28163 28164 28165 28166 28167 28168 28169 28170 28171 28172 28173 28174 28175 28176 28177 28178 28179 28180 28181 28182 28183 28184 28185 28186 28187 28188 28189 28190 28191 28192 28193 28194 28195 28196 28197 28198 28199 28200 28201 28202 28203 28204 28205 28206 28207 28208 28209 28210 28211 28212 28213 28214 28215 28216 28217 28218 28219 28220 28221 28222 28223 28224 28225 28226 28227 28228 28229 28230 28231 28232 28233 28234 28235 28236 28237 28238 28239 28240 28241 28242 28243 28244 28245 28246 28247 28248 28249 28250 28251 28252 28253 28254 28255 28256 28257 28258 28259 28260 28261 28262 28263 28264 28265 28266 28267 28268 28269 28270 28271 28272 28273 28274 28275 28276 28277 28278 28279 28280 28281 28282 28283 28284 28285 28286 28287 28288 28289 28290 28291 28292 28293 28294 28295 28296 28297 28298 28299 28300 28301 28302 28303 28304 28305 28306 28307 28308 28309 28310 28311 28312 28313 28314 28315 28316 28317 28318 28319 28320 28321 28322 28323 28324 28325 28326 28327 28328 28329 28330 28331 28332 28333 28334 28335 28336 28337 28338 28339 28340 28341 28342 28343 28344 28345 28346 28347 28348 28349 28350 28351 28352 28353 28354 28355 28356 28357 28358 28359 28360 28361 28362 28363 28364 28365 28366 28367 28368 28369 28370 28371 28372 28373 28374 28375 28376 28377 28378 28379 28380 28381 28382 28383 28384 28385 28386 28387 28388 28389 28390 28391 28392 28393 28394 28395 28396 28397 28398 28399 28400 28401 28402 28403 28404 28405 28406 28407 28408 28409 28410 28411 28412 28413 28414 28415 28416 28417 28418 28419 28420 28421 28422 28423 28424 28425 28426 28427 28428 28429 28430 28431 28432 28433 28434 28435 28436 28437 28438 28439 28440 28441 28442 28443 28444 28445 28446 28447 28448 28449 28450 28451 28452 28453 28454 28455 28456 28457 28458 28459 28460 28461 28462 28463 28464 28465 28466 28467 28468 28469 28470 28471 28472 28473 28474 28475 28476 28477 28478 28479 28480 28481 28482 28483 28484 28485 28486 28487 28488 28489 28490 28491 28492 28493 28494 28495 28496 28497 28498 28499 28500 28501 28502 28503 28504 28505 28506 28507 28508 28509 28510 28511 28512 28513 28514 28515 28516 28517 28518 28519 28520 28521 28522 28523 28524 28525 28526 28527 28528 28529 28530 28531 28532 28533 28534 28535 28536 28537 28538 28539 28540 28541 28542 28543 28544 28545 28546 28547 28548 28549 28550 28551 28552 28553 28554 28555 28556 28557 28558 28559 28560 28561 28562 28563 28564 28565 28566 28567 28568 28569 28570 28571 28572 28573 28574 28575 28576 28577 28578 28579 28580 28581 28582 28583 28584 28585 28586 28587 28588 28589 28590 28591 28592 28593 28594 28595 28596 28597 28598 28599 28600 28601 28602 28603 28604 28605 28606 28607 28608 28609 28610 28611 28612 28613 28614 28615 28616 28617 28618 28619 28620 28621 28622 28623 28624 28625 28626 28627 28628 28629 28630 28631 28632 28633 28634 28635 28636 28637 28638 28639 28640 28641 28642 28643 28644 28645 28646 28647 28648 28649 28650 28651 28652 28653 28654 28655 28656 28657 28658 28659 28660 28661 28662 28663 28664 28665 28666 28667 28668 28669 28670 28671 28672 28673 28674 28675 28676 28677 28678 28679 28680 28681 28682 28683 28684 28685 28686 28687 28688 28689 28690 28691 28692 28693 28694 28695 28696 28697 28698 28699 28700 28701 28702 28703 28704 28705 28706 28707 28708 28709 28710 28711 28712 28713 28714 28715 28716 28717 28718 28719 28720 28721 28722 28723 28724 28725 28726 28727 28728 28729 28730 28731 28732 28733 28734 28735 28736 28737 28738 28739 28740 28741 28742 28743 28744 28745 28746 28747 28748 28749 28750 28751 28752 28753 28754 28755 28756 28757 28758 28759 28760 28761 28762 28763 28764 28765 28766 28767 28768 28769 28770 28771 28772 28773 28774 28775 28776 28777 28778 28779 28780 28781 28782 28783 28784 28785 28786 28787 28788 28789 28790 28791 28792 28793 28794 28795 28796 28797 28798 28799 28800 28801 28802 28803 28804 28805 28806 28807 28808 28809 28810 28811 28812 28813 28814 28815 28816 28817 28818 28819 28820 28821 28822 28823 28824 28825 28826 28827 28828 28829 28830 28831 28832 28833 28834 28835 28836 28837 28838 28839 28840 28841 28842 28843 28844 28845 28846 28847 28848 28849 28850 28851 28852 28853 28854 28855 28856 28857 28858 28859 28860 28861 28862 28863 28864 28865 28866 28867 28868 28869 28870 28871 28872 28873 28874 28875 28876 28877 28878 28879 28880 28881 28882 28883 28884 28885 28886 28887 28888 28889 28890 28891 28892 28893 28894 28895 28896 28897 28898 28899 28900 28901 28902 28903 28904 28905 28906 28907 28908 28909 28910 28911 28912 28913 28914 28915 28916 28917 28918 28919 28920 28921 28922 28923 28924 28925 28926 28927 28928 28929 28930 28931 28932 28933 28934 28935 28936 28937 28938 28939 28940 28941 28942 28943 28944 28945 28946 28947 28948 28949 28950 28951 28952 28953 28954 28955 28956 28957 28958 28959 28960 28961 28962 28963 28964 28965 28966 28967 28968 28969 28970 28971 28972 28973 28974 28975 28976 28977 28978 28979 28980 28981 28982 28983 28984 28985 28986 28987 28988 28989 28990 28991 28992 28993 28994 28995 28996 28997 28998 28999 29000 29001 29002 29003 29004 29005 29006 29007 29008 29009 29010 29011 29012 29013 29014 29015 29016 29017 29018 29019 29020 29021 29022 29023 29024 29025 29026 29027 29028 29029 29030 29031 29032 29033 29034 29035 29036 29037 29038 29039 29040 29041 29042 29043 29044 29045 29046 29047 29048 29049 29050 29051 29052 29053 29054 29055 29056 29057 29058 29059 29060 29061 29062 29063 29064 29065 29066 29067 29068 29069 29070 29071 29072 29073 29074 29075 29076 29077 29078 29079 29080 29081 29082 29083 29084 29085 29086 29087 29088 29089 29090 29091 29092 29093 29094 29095 29096 29097 29098 29099 29100 29101 29102 29103 29104 29105 29106 29107 29108 29109 29110 29111 29112 29113 29114 29115 29116 29117 29118 29119 29120 29121 29122 29123 29124 29125 29126 29127 29128 29129 29130 29131 29132 29133 29134 29135 29136 29137 29138 29139 29140 29141 29142 29143 29144 29145 29146 29147 29148 29149 29150 29151 29152 29153 29154 29155 29156 29157 29158 29159 29160 29161 29162 29163 29164 29165 29166 29167 29168 29169 29170 29171 29172 29173 29174 29175 29176 29177 29178 29179 29180 29181 29182 29183 29184 29185 29186 29187 29188 29189 29190 29191 29192 29193 29194 29195 29196 29197 29198 29199 29200 29201 29202 29203 29204 29205 29206 29207 29208 29209 29210 29211 29212 29213 29214 29215 29216 29217 29218 29219 29220 29221 29222 29223 29224 29225 29226 29227 29228 29229 29230 29231 29232 29233 29234 29235 29236 29237 29238 29239 29240 29241 29242 29243 29244 29245 29246 29247 29248 29249 29250 29251 29252 29253 29254 29255 29256 29257 29258 29259 29260 29261 29262 29263 29264 29265 29266 29267 29268 29269 29270 29271 29272 29273 29274 29275 29276 29277 29278 29279 29280 29281 29282 29283 29284 29285 29286 29287 29288 29289 29290 29291 29292 29293 29294 29295 29296 29297 29298 29299 29300 29301 29302 29303 29304 29305 29306 29307 29308 29309 29310 29311 29312 29313 29314 29315 29316 29317 29318 29319 29320 29321 29322 29323 29324 29325 29326 29327 29328 29329 29330 29331 29332 29333 29334 29335 29336 29337 29338 29339 29340 29341 29342 29343 29344 29345 29346 29347 29348 29349 29350 29351 29352 29353 29354 29355 29356 29357 29358 29359 29360 29361 29362 29363 29364 29365 29366 29367 29368 29369 29370 29371 29372 29373 29374 29375 29376 29377 29378 29379 29380 29381 29382 29383 29384 29385 29386 29387 29388 29389 29390 29391 29392 29393 29394 29395 29396 29397 29398 29399 29400 29401 29402 29403 29404 29405 29406 29407 29408 29409 29410 29411 29412 29413 29414 29415 29416 29417 29418 29419 29420 29421 29422 29423 29424 29425 29426 29427 29428 29429 29430 29431 29432 29433 29434 29435 29436 29437 29438 29439 29440 29441 29442 29443 29444 29445 29446 29447 29448 29449 29450 29451 29452 29453 29454 29455 29456 29457 29458 29459 29460 29461 29462 29463 29464 29465 29466 29467 29468 29469 29470 29471 29472 29473 29474 29475 29476 29477 29478 29479 29480 29481 29482 29483 29484 29485 29486 29487 29488 29489 29490 29491 29492 29493 29494 29495 29496 29497 29498 29499 29500 29501 29502 29503 29504 29505 29506 29507 29508 29509 29510 29511 29512 29513 29514 29515 29516 29517 29518 29519 29520 29521 29522 29523 29524 29525 29526 29527 29528 29529 29530 29531 29532 29533 29534 29535 29536 29537 29538 29539 29540 29541 29542 29543 29544 29545 29546 29547 29548 29549 29550 29551 29552 29553 29554 29555 29556 29557 29558 29559 29560 29561 29562 29563 29564 29565 29566 29567 29568 29569 29570 29571 29572 29573 29574 29575 29576 29577 29578 29579 29580 29581 29582 29583 29584 29585 29586 29587 29588 29589 29590 29591 29592 29593 29594 29595 29596 29597 29598 29599 29600 29601 29602 29603 29604 29605 29606 29607 29608 29609 29610 29611 29612 29613 29614 29615 29616 29617 29618 29619 29620 29621 29622 29623 29624 29625 29626 29627 29628 29629 29630 29631 29632 29633 29634 29635 29636 29637 29638 29639 29640 29641 29642 29643 29644 29645 29646 29647 29648 29649 29650 29651 29652 29653 29654 29655 29656 29657 29658 29659 29660 29661 29662 29663 29664 29665 29666 29667 29668 29669 29670 29671 29672 29673 29674 29675 29676 29677 29678 29679 29680 29681 29682 29683 29684 29685 29686 29687 29688 29689 29690 29691 29692 29693 29694 29695 29696 29697 29698 29699 29700 29701 29702 29703 29704 29705 29706 29707 29708 29709 29710 29711 29712 29713 29714 29715 29716 29717 29718 29719 29720 29721 29722 29723 29724 29725 29726 29727 29728 29729 29730 29731 29732 29733 29734 29735 29736 29737 29738 29739 29740 29741 29742 29743 29744 29745 29746 29747 29748 29749 29750 29751 29752 29753 29754 29755 29756 29757 29758 29759 29760 29761 29762 29763 29764 29765 29766 29767 29768 29769 29770 29771 29772 29773 29774 29775 29776 29777 29778 29779 29780 29781 29782 29783 29784 29785 29786 29787 29788 29789 29790 29791 29792 29793 29794 29795 29796 29797 29798 29799 29800 29801 29802 29803 29804 29805 29806 29807 29808 29809 29810 29811 29812 29813 29814 29815 29816 29817 29818 29819 29820 29821 29822 29823 29824 29825 29826 29827 29828 29829 29830 29831 29832 29833 29834 29835 29836 29837 29838 29839 29840 29841 29842 29843 29844 29845 29846 29847 29848 29849 29850 29851 29852 29853 29854 29855 29856 29857 29858 29859 29860 29861 29862 29863 29864 29865 29866 29867 29868 29869 29870 29871 29872 29873 29874 29875 29876 29877 29878 29879 29880 29881 29882 29883 29884 29885 29886 29887 29888 29889 29890 29891 29892 29893 29894 29895 29896 29897 29898 29899 29900 29901 29902 29903 29904 29905 29906 29907 29908 29909 29910 29911 29912 29913 29914 29915 29916 29917 29918 29919 29920 29921 29922 29923 29924 29925 29926 29927 29928 29929 29930 29931 29932 29933 29934 29935 29936 29937 29938 29939 29940 29941 29942 29943 29944 29945 29946 29947 29948 29949 29950 29951 29952 29953 29954 29955 29956 29957 29958 29959 29960 29961 29962 29963 29964 29965 29966 29967 29968 29969 29970 29971 29972 29973 29974 29975 29976 29977 29978 29979 29980 29981 29982 29983 29984 29985 29986 29987 29988 29989 29990 29991 29992 29993 29994 29995 29996 29997 29998 29999 30000 30001 30002 30003 30004 30005 30006 30007 30008 30009 30010 30011 30012 30013 30014 30015 30016 30017 30018 30019 30020 30021 30022 30023 30024 30025 30026 30027 30028 30029 30030 30031 30032 30033 30034 30035 30036 30037 30038 30039 30040 30041 30042 30043 30044 30045 30046 30047 30048 30049 30050 30051 30052 30053 30054 30055 30056 30057 30058 30059 30060 30061 30062 30063 30064 30065 30066 30067 30068 30069 30070 30071 30072 30073 30074 30075 30076 30077 30078 30079 30080 30081 30082 30083 30084 30085 30086 30087 30088 30089 30090 30091 30092 30093 30094 30095 30096 30097 30098 30099 30100 30101 30102 30103 30104 30105 30106 30107 30108 30109 30110 30111 30112 30113 30114 30115 30116 30117 30118 30119 30120 30121 30122 30123 30124 30125 30126 30127 30128 30129 30130 30131 30132 30133 30134 30135 30136 30137 30138 30139 30140 30141 30142 30143 30144 30145 30146 30147 30148 30149 30150 30151 30152 30153 30154 30155 30156 30157 30158 30159 30160 30161 30162 30163 30164 30165 30166 30167 30168 30169 30170 30171 30172 30173 30174 30175 30176 30177 30178 30179 30180 30181 30182 30183 30184 30185 30186 30187 30188 30189 30190 30191 30192 30193 30194 30195 30196 30197 30198 30199 30200 30201 30202 30203 30204 30205 30206 30207 30208 30209 30210 30211 30212 30213 30214 30215 30216 30217 30218 30219 30220 30221 30222 30223 30224 30225 30226 30227 30228 30229 30230 30231 30232 30233 30234 30235 30236 30237 30238 30239 30240 30241 30242 30243 30244 30245 30246 30247 30248 30249 30250 30251 30252 30253 30254 30255 30256 30257 30258 30259 30260 30261 30262 30263 30264 30265 30266 30267 30268 30269 30270 30271 30272 30273 30274 30275 30276 30277 30278 30279 30280 30281 30282 30283 30284 30285 30286 30287 30288 30289 30290 30291 30292 30293 30294 30295 30296 30297 30298 30299 30300 30301 30302 30303 30304 30305 30306 30307 30308 30309 30310 30311 30312 30313 30314 30315 30316 30317 30318 30319 30320 30321 30322 30323 30324 30325 30326 30327 30328 30329 30330 30331 30332 30333 30334 30335 30336 30337 30338 30339 30340 30341 30342 30343 30344 30345 30346 30347 30348 30349 30350 30351 30352 30353 30354 30355 30356 30357 30358 30359 30360 30361 30362 30363 30364 30365 30366 30367 30368 30369 30370 30371 30372 30373 30374 30375 30376 30377 30378 30379 30380 30381 30382 30383 30384 30385 30386 30387 30388 30389 30390 30391 30392 30393 30394 30395 30396 30397 30398 30399 30400 30401 30402 30403 30404 30405 30406 30407 30408 30409 30410 30411 30412 30413 30414 30415 30416 30417 30418 30419 30420 30421 30422 30423 30424 30425 30426 30427 30428 30429 30430 30431 30432 30433 30434 30435 30436 30437 30438 30439 30440 30441 30442 30443 30444 30445 30446 30447 30448 30449 30450 30451 30452 30453 30454 30455 30456 30457 30458 30459 30460 30461 30462 30463 30464 30465 30466 30467 30468 30469 30470 30471 30472 30473 30474 30475 30476 30477 30478 30479 30480 30481 30482 30483 30484 30485 30486 30487 30488 30489 30490 30491 30492 30493 30494 30495 30496 30497 30498 30499 30500 30501 30502 30503 30504 30505 30506 30507 30508 30509 30510 30511 30512 30513 30514 30515 30516 30517 30518 30519 30520 30521 30522 30523 30524 30525 30526 30527 30528 30529 30530 30531 30532 30533 30534 30535 30536 30537 30538 30539 30540 30541 30542 30543 30544 30545 30546 30547 30548 30549 30550 30551 30552 30553 30554 30555 30556 30557 30558 30559 30560 30561 30562 30563 30564 30565 30566 30567 30568 30569 30570 30571 30572 30573 30574 30575 30576 30577 30578 30579 30580 30581 30582 30583 30584 30585 30586 30587 30588 30589 30590 30591 30592 30593 30594 30595 30596 30597 30598 30599 30600 30601 30602 30603 30604 30605 30606 30607 30608 30609 30610 30611 30612 30613 30614 30615 30616 30617 30618 30619 30620 30621 30622 30623 30624 30625 30626 30627 30628 30629 30630 30631 30632 30633 30634 30635 30636 30637 30638 30639 30640 30641 30642 30643 30644 30645 30646 30647 30648 30649 30650 30651 30652 30653 30654 30655 30656 30657 30658 30659 30660 30661 30662 30663 30664 30665 30666 30667 30668 30669 30670 30671 30672 30673 30674 30675 30676 30677 30678 30679 30680 30681 30682 30683 30684 30685 30686 30687 30688 30689 30690 30691 30692 30693 30694 30695 30696 30697 30698 30699 30700 30701 30702 30703 30704 30705 30706 30707 30708 30709 30710 30711 30712 30713 30714 30715 30716 30717 30718 30719 30720 30721 30722 30723 30724 30725 30726 30727 30728 30729 30730 30731 30732 30733 30734 30735 30736 30737 30738 30739 30740 30741 30742 30743 30744 30745 30746 30747 30748 30749 30750 30751 30752 30753 30754 30755 30756 30757 30758 30759 30760 30761 30762 30763 30764 30765 30766 30767 30768 30769 30770 30771 30772 30773 30774 30775 30776 30777 30778 30779 30780 30781 30782 30783 30784 30785 30786 30787 30788 30789 30790 30791 30792 30793 30794 30795 30796 30797 30798 30799 30800 30801 30802 30803 30804 30805 30806 30807 30808 30809 30810 30811 30812 30813 30814 30815 30816 30817 30818 30819 30820 30821 30822 30823 30824 30825 30826 30827 30828 30829 30830 30831 30832 30833 30834 30835 30836 30837 30838 30839 30840 30841 30842 30843 30844 30845 30846 30847 30848 30849 30850 30851 30852 30853 30854 30855 30856 30857 30858 30859 30860 30861 30862 30863 30864 30865 30866 30867 30868 30869 30870 30871 30872 30873 30874 30875 30876 30877 30878 30879 30880 30881 30882 30883 30884 30885 30886 30887 30888 30889 30890 30891 30892 30893 30894 30895 30896 30897 30898 30899 30900 30901 30902 30903 30904 30905 30906 30907 30908 30909 30910 30911 30912 30913 30914 30915 30916 30917 30918 30919 30920 30921 30922 30923 30924 30925 30926 30927 30928 30929 30930 30931 30932 30933 30934 30935 30936 30937 30938 30939 30940 30941 30942 30943 30944 30945 30946 30947 30948 30949 30950 30951 30952 30953 30954 30955 30956 30957 30958 30959 30960 30961 30962 30963 30964 30965 30966 30967 30968 30969 30970 30971 30972 30973 30974 30975 30976 30977 30978 30979 30980 30981 30982 30983 30984 30985 30986 30987 30988 30989 30990 30991 30992 30993 30994 30995 30996 30997 30998 30999 31000 31001 31002 31003 31004 31005 31006 31007 31008 31009 31010 31011 31012 31013 31014 31015 31016 31017 31018 31019 31020 31021 31022 31023 31024 31025 31026 31027 31028 31029 31030 31031 31032 31033 31034 31035 31036 31037 31038 31039 31040 31041 31042 31043 31044 31045 31046 31047 31048 31049 31050 31051 31052 31053 31054 31055 31056 31057 31058 31059 31060 31061 31062 31063 31064 31065 31066 31067 31068 31069 31070 31071 31072 31073 31074 31075 31076 31077 31078 31079 31080 31081 31082 31083 31084 31085 31086 31087 31088 31089 31090 31091 31092 31093 31094 31095 31096 31097 31098 31099 31100 31101 31102 31103 31104 31105 31106 31107 31108 31109 31110 31111 31112 31113 31114 31115 31116 31117 31118 31119 31120 31121 31122 31123 31124 31125 31126 31127 31128 31129 31130 31131 31132 31133 31134 31135 31136 31137 31138 31139 31140 31141 31142 31143 31144 31145 31146 31147 31148 31149 31150 31151 31152 31153 31154 31155 31156 31157 31158 31159 31160 31161 31162 31163 31164 31165 31166 31167 31168 31169 31170 31171 31172 31173 31174 31175 31176 31177 31178 31179 31180 31181 31182 31183 31184 31185 31186 31187 31188 31189 31190 31191 31192 31193 31194 31195 31196 31197 31198 31199 31200 31201 31202 31203 31204 31205 31206 31207 31208 31209 31210 31211 31212 31213 31214 31215 31216 31217 31218 31219 31220 31221 31222 31223 31224 31225 31226 31227 31228 31229 31230 31231 31232 31233 31234 31235 31236 31237 31238 31239 31240 31241 31242 31243 31244 31245 31246 31247 31248 31249 31250 31251 31252 31253 31254 31255 31256 31257 31258 31259 31260 31261 31262 31263 31264 31265 31266 31267 31268 31269 31270 31271 31272 31273 31274 31275 
</DataArray>
<DataArray type="UInt32" Name="offsets" format="ascii">
3 6 9 12 15 17 20 23 26 29 32 35 38 41 43 46 49 52 55 58 61 63 66 68 71 73 76 78 81 84 87 89 92 95 97 100 103 106 109 112 115 118 120 123 126 129 132 134 136 139 142 145 148 151 154 156 159 162 165 168 171 174 177 180 183 186 189 192 195 198 201 203 206 209 212 215 218 221 224 227 230 233 235 238 241 243 246 249 251 254 256 258 261 263 265 268 271 274 276 279 282 285 288 290 293 296 298 301 304 306 309 312 315 317 320 323 326 329 331 333 336 339 341 344 347 349 352 355 358 361 363 366 369 372 375 378 381 384 387 390 392 394 397 399 402 405 408 411 413 416 418 421 424 426 429 432 435 437 440 443 446 448 450 453 455 458 461 464 467 470 473 476 479 482 485 488 491 494 497 499 502 504 506 508 511 514 517 520 522 525 528 531 533 536 538 540 543 545 547 550 553 556 558 561 564 566 569 572 575 577 580 583 586 589 592 594 597 600 603 606 609 611 613 616 619 622 625 627 630 633 636 639 642 644 647 650 653 655 658 661 664 667 670 672 675 678 681 684 687 689 692 695 698 701 704 707 710 712 715 718 721 723 726 729 732 735 738 741 744 747 750 753 756 758 761 764 767 770 773 775 778 781 784 786 789 792 795 798 800 803 806 809 811 814 817 820 823 826 828 831 834 837 840 843 846 848 851 854 857 860 863 866 869 872 875 877 880 883 886 889 892 895 897 900 903 906 909 911 914 917 920 923 926 929 931 934 937 940 943 946 948 951 954 957 959 962 965 968 971 974 977 980 983 986 989 991 994 997 1000 1003 1006 1009 1012 1015 1018 1021 1024 1027 1030 1033 1036 1039 1042 1045 1048 1051 1054 1057 1060 1063 1066 1069 1072 1075 1078 1081 1084 1086 1089 1092 1094 1097 1100 1103 1106 1109 1112 1114 1117 1120 1123 1126 1129 1132 1135 1138 1141 1143 1146 1149 1151 1154 1157 1160 1163 1165 1168 1171 1173 1176 1179 1182 1184 1187 1190 1193 1195 1198 1201 1204 1206 1209 1212 1215 1218 1220 1223 1226 1228 1231 1234 1236 1239 1242 1245 1248 1251 1253 1256 1259 1262 1265 1268 1271 1274 1277 1279 1282 1285 1288 1290 1293 1296 1299 1302 1305 1307 1310 1313 1316 1319 1322 1325 1328 1331 1334 1337 1340 1343 1346 1349 1352 1355 1358 1360 1363 1366 1369 1372 1375 1378 1381 1384 1387 1390 1393 1396 1399 1402 1405 1408 1411 1414 1417 1420 1423 1426 1429 1432 1434 1437 1440 1443 1446 1448 1451 1454 1457 1460 1463 1466 1469 1471 1474 1477 1480 1483 1486 1488 1491 1494 1497 1500 1503 1506 1509 1512 1515 1518 1521 1524 1527 1530 1533 1536 1538 1541 1543 1546 1549 1551 1554 1556 1559 1562 1565 1568 1571 1574 1576 1579 1582 1585 1588 1591 1594 1597 1599 1602 1605 1607 1610 1613 1615 1618 1621 1624 1627 1630 1632 1635 1637 1640 1642 1645 1648 1651 1654 1656 1659 1662 1665 1667 1670 1672 1675 1678 1681 1684 1687 1689 1692 1694 1697 1700 1703 1706 1709 1712 1715 1718 1721 1724 1727 1730 1733 1736 1739 1741 1744 1747 1750 1753 1756 1759 1762 1765 1768 1771 1774 1777 1780 1783 1786 1788 1791 1794 1797 1800 1803 1806 1809 1812 1815 1818 1821 1824 1827 1830 1833 1836 1839 1842 1844 1847 1850 1853 1856 1859 1862 1865 1868 1871 1873 1876 1879 1881 1884 1887 1890 1893 1896 1899 1902 1905 1908 1911 1913 1916 1918 1921 1924 1927 1930 1933 1936 1939 1942 1945 1947 1950 1953 1956 1959 1962 1965 1968 1970 1973 1976 1979 1982 1985 1988 1991 1993 1996 1999 2002 2005 2008 2010 2013 2016 2019 2022 2025 2028 2031 2034 2037 2040 2042 2045 2048 2051 2054 2057 2060 2063 2066 2069 2072 2075 2078 2080 2083 2086 2089 2092 2095 2098 2101 2104 2107 2110 2113 2116 2119 2122 2125 2128 2131 2134 2137 2139 2141 2144 2147 2150 2153 2155 2157 2160 2163 2166 2169 2172 2175 2178 2181 2184 2187 2190 2193 2196 2198 2201 2204 2207 2210 2213 2216 2219 2222 2225 2228 2231 2234 2237 2240 2243 2246 2249 2252 2255 2258 2261 2264 2267 2270 2273 2276 2279 2282 2285 2288 2291 2294 2297 2300 2303 2306 2309 2312 2315 2318 2321 2324 2327 2330 2332 2335 2338 2340 2343 2346 2348 2351 2354 2356 2359 2362 2365 2368 2370 2373 2375 2378 2380 2383 2386 2388 2391 2394 2396 2399 2402 2405 2408 2410 2413 2416 2419 2422 2425 2428 2430 2433 2435 2438 2441 2444 2447 2450 2453 2456 2458 2461 2464 2467 2470 2472 2475 2478 2481 2484 2487 2490 2492 2495 2498 2501 2503 2506 2509 2512 2515 2518 2521 2524 2527 2530 2533 2536 2539 2542 2545 2547 2550 2553 2556 2558 2560 2563 2566 2569 2572 2575 2578 2581 2583 2586 2589 2592 2595 2598 2601 2603 2606 2609 2611 2614 2617 2620 2623 2626 2628 2630 2632 2635 2638 2641 2644 2646 2649 2652 2654 2657 2659 2662 2665 2668 2671 2673 2676 2679 2681 2684 2687 2690 2693 2696 2698 2701 2704 2706 2709 2712 2714 2717 2720 2723 2725 2728 2730 2733 2736 2739 2742 2745 2748 2751 2754 2756 2759 2762 2765 2767 2769 2772 2775 2777 2780 2783 2785 2788 2791 2794 2797 2800 2803 2806 2809 2812 2815 2818 2821 2824 2827 2830 2832 2835 2838 2841 2844 2847 2850 2853 2855 2858 2861 2864 2867 2870 2873 2876 2879 2882 2885 2888 2891 2894 2897 2900 2903 2906 2908 2910 2913 2916 2919 2922 2925 2928 2931 2934 2937 2940 2943 2946 2949 2952 2955 2958 2961 2964 2967 2970 2973 2975 2978 2981 2984 2987 2989 2992 2995 2997 3000 3003 3006 3009 3012 3014 3017 3020 3023 3026 3029 3032 3035 3038 3040 3043 3046 3049 3052 3055 3058 3061 3064 3067 3070 3073 3076 3079 3082 3085 3088 3091 3094 3097 3100 3103 3105 3108 3111 3114 3116 3119 3122 3125 3128 3131 3134 3137 3140 3143 3146 3149 3152 3155 3158 3161 3164 3167 3170 3172 3175 3178 3180 3183 3186 3189 3192 3195 3198 3201 3204 3207 3210 3213 3216 3219 3222 3225 3228 3231 3234 3237 3240 3243 3246 3249 3252 3255 3258 3261 3264 3267 3270 3273 3276 3279 3282 3285 3288 3291 3294 3297 3300 3302 3305 3308 3310 3313 3316 3318 3321 3324 3327 3330 3333 3336 3339 3341 3344 3347 3350 3353 3355 3358 3361 3364 3366 3369 3372 3375 3377 3380 3383 3386 3389 3392 3394 3397 3399 3402 3405 3408 3411 3414 3417 3420 3423 3426 3429 3432 3435 3438 3441 3444 3447 3450 3453 3456 3459 3462 3465 3468 3471 3474 3476 3479 3481 3484 3487 3490 3493 3496 3499 3501 3504 3507 3510 3513 3516 3518 3521 3524 3527 3530 3533 3535 3538 3541 3544 3547 3550 3553 3556 3559 3561 3564 3567 3570 3573 3576 3579 3582 3585 3588 3590 3593 3596 3598 3601 3604 3607 3610 3613 3616 3619 3622 3624 3627 3630 3633 3636 3639 3641 3644 3647 3650 3653 3655 3658 3661 3663 3666 3669 3672 3674 3677 3680 3683 3686 3689 3692 3695 3698 3701 3704 3707 3710 3713 3716 3718 3721 3724 3727 3730 3733 3736 3739 3741 3744 3746 3749 3752 3755 3758 3761 3764 3767 3770 3773 3776 3778 3781 3784 3786 3789 3792 3795 3798 3801 3804 3806 3809 3812 3815 3818 3821 3824 3827 3829 3832 3835 3838 3841 3844 3847 3850 3853 3856 3859 3862 3865 3868 3871 3874 3877 3880 3883 3886 3889 3892 3895 3898 3901 3904 3907 3910 3913 3916 3919 3922 3925 3927 3930 3933 3936 3938 3941 3944 3947 3949 3952 3955 3958 3961 3963 3966 3969 3972 3975 3978 3980 3983 3986 3989 3991 3994 3997 4000 4003 4006 4009 4012 4015 4018 4021 4024 4027 4030 4033 4036 4039 4041 4044 4047 4050 4053 4056 4059 4062 4065 4068 4071 4073 4076 4079 4081 4084 4087 4090 4092 4095 4098 4101 4104 4107 4109 4112 4115 4117 4120 4122 4125 4128 4130 4133 4136 4138 4141 4144 4146 4149 4152 4155 4158 4161 4164 4167 4170 4173 4176 4179 4182 4184 4187 4190 4193 4196 4199 4202 4205 4208 4210 4213 4216 4219 4222 4225 4228 4231 4234 4237 4240 4242 4245 4247 4250 4253 4256 4258 4261 4264 4267 4270 4273 4276 4278 4281 4284 4287 4290 4293 4296 4299 4302 4305 4308 4311 4314 4317 4320 4323 4326 4329 4332 4335 4338 4341 4344 4347 4350 4353 4356 4359 4362 4365 4368 4370 4373 4376 4378 4381 4383 4386 4389 4392 4395 4397 4400 4403 4406 4409 4412 4415 4418 4420 4423 4426 4429 4432 4435 4438 4441 4444 4447 4450 4453 4456 4459 4462 4465 4468 4471 4473 4476 4479 4481 4484 4487 4490 4493 4496 4499 4502 4505 4508 4511 4514 4517 4520 4523 4526 4529 4532 4534 4537 4540 4543 4546 4549 4552 4555 4558 4560 4563 4566 4569 4572 4575 4577 4580 4582 4585 4588 4591 4594 4597 4600 4603 4606 4609 4612 4615 4618 4621 4624 4626 4629 4632 4634 4637 4640 4643 4646 4649 4652 4655 4658 4661 4664 4667 4670 4673 4676 4679 4682 4685 4688 4691 4693 4696 4699 4702 4705 4708 4710 4713 4715 4717 4720 4723 4725 4728 4731 4733 4736 4739 4742 4745 4748 4751 4753 4756 4759 4761 4764 4766 4769 4772 4775 4777 4780 4783 4786 4789 4792 4795 4797 4800 4803 4806 4809 4812 4815 4817 4820 4823 4826 4829 4832 4835 4838 4841 4844 4847 4849 4852 4855 4858 4861 4864 4867 4870 4873 4875 4878 4881 4884 4887 4890 4893 4896 4899 4902 4905 4907 4910 4913 4916 4918 4921 4924 4927 4930 4933 4936 4939 4942 4945 4948 4950 4953 4956 4958 4961 4964 4967 4969 4972 4975 4978 4981 4984 4987 4990 4993 4996 4998 5001 5004 5007 5009 5012 5015 5018 5021 5024 5027 5030 5032 5035 5038 5041 5044 5047 5049 5052 5055 5058 5061 5064 5067 5070 5073 5076 5079 5082 5085 5087 5090 5093 5096 5099 5101 5104 5107 5110 5112 5115 5118 5121 5124 5127 5130 5132 5135 5138 5140 5143 5146 5149 5152 5155 5158 5161 5164 5167 5170 5173 5176 5179 5181 5184 5187 5190 5193 5196 5199 5202 5205 5208 5211 5214 5217 5219 5222 5224 5227 5230 5233 5235 5238 5241 5243 5246 5249 5252 5255 5258 5261 5264 5267 5270 5273 5276 5279 5282 5285 5288 5291 5294 5297 5300 5303 5305 5308 5311 5314 5317 5320 5323 5326 5329 5332 5335 5338 5341 5344 5347 5350 5353 5356 5359 5362 5365 5368 5371 5374 5376 5379 5382 5385 5387 5390 5393 5396 5399 5402 5405 5408 5411 5413 5416 5419 5422 5425 5428 5431 5434 5436 5439 5442 5445 5448 5451 5454 5457 5460 5462 5465 5468 5471 5474 5476 5479 5482 5484 5487 5490 5493 5496 5499 5502 5505 5508 5511 5514 5517 5520 5523 5526 5529 5532 5535 5538 5541 5544 5547 5550 5553 5556 5559 5562 5565 5568 5571 5574 5577 5580 5583 5586 5589 5592 5595 5598 5601 5604 5607 5610 5613 5616 5619 5622 5624 5627 5630 5633 5636 5639 5642 5645 5648 5650 5653 5656 5658 5661 5664 5667 5670 5673 5676 5679 5682 5685 5688 5690 5693 5696 5699 5702 5705 5708 5711 5714 5717 5720 5723 5726 5729 5732 5735 5738 5741 5744 5747 5750 5753 5756 5759 5762 5765 5768 5771 5774 5777 5780 5783 5786 5789 5792 5795 5798 5801 5804 5807 5810 5813 5816 5819 5822 5825 5828 5831 5834 5837 5840 5843 5846 5849 5852 5855 5858 5861 5864 5867 5870 5873 5876 5879 5882 5885 5888 5891 5894 5897 5900 5903 5906 5909 5912 5915 5918 5921 5924 5927 5930 5933 5936 5938 5941 5944 5947 5950 5952 5955 5958 5961 5964 5967 5970 5973 5976 5979 5982 5985 5988 5991 5994 5997 6000 6003 6006 6009 6012 6015 6018 6021 6024 6027 6030 6032 6035 6038 6041 6044 6047 6050 6053 6055 6058 6061 6064 6067 6070 6073 6076 6079 6082 6085 6088 6091 6094 6096 6099 6101 6104 6107 6110 6113 6116 6119 6122 6125 6128 6131 6134 6137 6140 6143 6145 6148 6151 6154 6157 6160 6163 6166 6169 6172 6175 6178 6181 6184 6187 6190 6193 6196 6199 6202 6205 6208 6210 6213 6216 6219 6222 6224 6227 6229 6232 6235 6238 6241 6244 6247 6249 6251 6254 6257 6260 6263 6266 6269 6272 6274 6277 6280 6283 6286 6289 6292 6295 6298 6301 6304 6307 6310 6313 6316 6319 6322 6325 6327 6330 6333 6336 6339 6342 6344 6347 6350 6353 6356 6359 6362 6365 6367 6370 6373 6376 6379 6382 6385 6388 6391 6394 6397 6400 6403 6406 6409 6412 6415 6418 6420 6423 6426 6429 6432 6435 6438 6441 6444 6447 6450 6453 6456 6459 6462 6465 6468 6471 6474 6477 6479 6482 6485 6488 6491 6494 6496 6499 6502 6505 6508 6511 6514 6517 6520 6523 6526 6529 6532 6535 6538 6541 6544 6547 6550 6553 6556 6559 6561 6564 6567 6569 6572 6575 6578 6581 6584 6587 6590 6593 6596 6599 6602 6605 6608 6611 6614 6617 6620 6623 6626 6629 6632 6635 6638 6641 6644 6647 6650 6653 6656 6659 6662 6665 6667 6670 6673 6676 6679 6682 6685 6688 6691 6694 6697 6700 6703 6706 6709 6712 6715 6717 6720 6723 6726 6729 6732 6735 6737 6740 6743 6746 6749 6752 6754 6757 6759 6762 6765 6768 6771 6773 6776 6779 6782 6785 6788 6791 6794 6797 6800 6803 6806 6809 6811 6813 6816 6819 6822 6825 6828 6831 6833 6836 6839 6842 6844 6846 6849 6852 6854 6857 6859 6862 6864 6867 6870 6873 6876 6878 6881 6884 6887 6889 6892 6895 6898 6901 6904 6907 6909 6911 6914 6917 6920 6923 6926 6929 6932 6935 6937 6940 6943 6946 6949 6951 6954 6956 6959 6962 6965 6968 6971 6974 6977 6980 6983 6986 6989 6992 6994 6997 7000 7003 7006 7009 7012 7015 7017 7020 7023 7026 7029 7032 7035 7038 7041 7044 7047 7050 7053 7056 7059 7062 7065 7068 7071 7074 7077 7079 7082 7084 7087 7090 7093 7096 7099 7102 7105 7108 7111 7114 7117 7120 7123 7126 7129 7132 7135 7138 7141 7144 7147 7150 7152 7155 7157 7160 7163 7166 7169 7172 7175 7178 7180 7183 7186 7189 7192 7195 7198 7200 7203 7206 7209 7212 7215 7218 7221 7224 7226 7229 7232 7235 7238 7241 7244 7247 7250 7253 7256 7259 7262 7265 7268 7271 7274 7277 7280 7283 7286 7289 7292 7295 7298 7301 7303 7306 7309 7312 7314 7316 7319 7322 7325 7327 7330 7333 7336 7338 7341 7344 7347 7350 7353 7356 7359 7362 7365 7367 7370 7373 7376 7379 7382 7385 7387 7390 7392 7395 7398 7401 7404 7406 7408 7410 7413 7416 7419 7422 7425 7428 7431 7434 7437 7440 7443 7446 7449 7452 7455 7457 7460 7463 7466 7469 7472 7475 7478 7481 7483 7486 7489 7492 7495 7498 7501 7504 7507 7510 7513 7516 7518 7521 7523 7526 7529 7532 7535 7538 7541 7544 7547 7550 7553 7556 7559 7562 7565 7568 7571 7574 7577 7579 7581 7584 7587 7590 7593 7596 7599 7601 7604 7607 7610 7613 7616 7618 7621 7624 7627 7630 7633 7636 7639 7642 7645 7648 7651 7654 7656 7659 7662 7665 7668 7670 7673 7676 7678 7681 7684 7687 7690 7693 7696 7699 7702 7704 7707 7710 7713 7716 7719 7722 7725 7728 7731 7734 7737 7740 7743 7745 7748 7751 7754 7757 7759 7762 7765 7768 7770 7773 7775 7778 7780 7783 7786 7789 7792 7795 7798 7801 7804 7807 7810 7813 7815 7818 7821 7824 7827 7830 7832 7835 7838 7840 7843 7845 7848 7851 7854 7857 7859 7862 7865 7868 7871 7874 7877 7879 7882 7885 7888 7891 7894 7897 7900 7903 7906 7908 7911 7914 7917 7920 7923 7926 7928 7931 7934 7937 7940 7943 7946 7949 7952 7955 7958 7961 7964 7967 7970 7972 7975 7978 7981 7983 7985 7988 7990 7993 7995 7997 7999 8002 8005 8008 8011 8014 8016 8019 8022 8025 8028 8031 8034 8037 8039 8042 8044 8047 8050 8053 8056 8059 8062 8065 8068 8071 8073 8076 8079 8082 8085 8088 8091 8093 8096 8099 8102 8104 8107 8110 8113 8116 8119 8122 8125 8127 8130 8133 8136 8139 8142 8144 8146 8149 8152 8155 8158 8161 8164 8166 8168 8171 8174 8177 8180 8182 8185 8188 8191 8194 8196 8198 8201 8203 8206 8208 8211 8214 8217 8220 8223 8225 8228 8231 8234 8237 8239 8242 8245 8248 8251 8254 8257 8260 8262 8265 8267 8270 8273 8276 8279 8282 8285 8288 8291 8294 8297 8300 8303 8306 8309 8312 8315 8317 8319 8322 8325 8327 8330 8333 8336 8339 8342 8345 8347 8350 8353 8355 8358 8361 8363 8366 8368 8371 8374 8376 8379 8382 8385 8388 8391 8394 8397 8400 8403 8406 8409 8412 8415 8418 8421 8424 8427 8430 8433 8435 8438 8440 8443 8446 8449 8452 8455 8458 8461 8464 8467 8469 8472 8475 8478 8481 8483 8486 8489 8492 8494 8497 8500 8502 8505 8508 8511 8514 8516 8519 8522 8525 8527 8530 8532 8535 8538 8541 8544 8547 8550 8553 8556 8559 8562 8565 8568 8571 8574 8576 8579 8582 8585 8588 8590 8592 8595 8598 8601 8604 8607 8610 8613 8616 8619 8622 8625 8628 8630 8633 8636 8639 8642 8645 8648 8650 8653 8656 8659 8662 8664 8667 8670 8673 8676 8679 8682 8685 8688 8691 8694 8697 8700 8703 8706 8709 8711 8714 8717 8720 8723 8726 8729 8732 8735 8738 8741 8744 8747 8750 8753 8756 8759 8762 8765 8768 8771 8774 8777 8780 8782 8785 8788 8791 8794 8796 8799 8802 8804 8807 8809 8812 8815 8817 8820 8823 8826 8829 8832 8834 8836 8839 8842 8845 8848 8851 8854 8857 8859 8862 8865 8868 8871 8874 8877 8880 8883 8885 8888 8891 8894 8897 8900 8903 8906 8909 8912 8915 8918 8921 8924 8927 8930 8933 8935 8938 8941 8944 8947 8950 8953 8956 8959 8962 8965 8968 8970 8972 8975 8978 8981 8984 8986 8989 8992 8995 8997 9000 9003 9006 9009 9012 9015 9017 9020 9022 9025 9028 9030 9033 9036 9039 9041 9043 9046 9048 9050 9053 9055 9058 9061 9064 9067 9069 9072 9075 9078 9081 9084 9087 9090 9093 9096 9099 9102 9105 9108 9110 9112 9115 9117 9120 9123 9126 9129 9132 9135 9138 9141 9144 9147 9150 9153 9156 9159 9162 9165 9167 9170 9173 9176 9179 9181 9183 9186 9189 9192 9195 9198 9201 9204 9207 9210 9213 9216 9219 9222 9225 9228 9230 9233 9236 9239 9242 9245 9248 9251 9254 9256 9259 9262 9265 9268 9271 9274 9277 9280 9283 9285 9288 9291 9294 9297 9300 9303 9306 9309 9312 9315 9318 9321 9324 9327 9329 9332 9335 9338 9341 9344 9347 9350 9353 9356 9359 9362 9364 9367 9370 9373 9376 9379 9382 9385 9388 9391 9393 9396 9399 9401 9404 9407 9409 9411 9414 9417 9420 9422 9425 9428 9431 9433 9436 9439 9442 9445 9448 9450 9453 9456 9459 9462 9465 9468 9471 9474 9477 9480 9483 9486 9489 9491 9494 9496 9499 9502 9504 9506 9509 9512 9515 9518 9521 9523 9526 9529 9532 9535 9538 9541 9544 9547 9550 9553 9556 9558 9561 9564 9567 9570 9573 9576 9579 9582 9585 9588 9591 9594 9597 9599 9601 9604 9607 9610 9613 9616 9619 9622 9625 9628 9631 9634 9637 9640 9643 9646 9649 9652 9655 9658 9661 9663 9666 9669 9671 9674 9677 9680 9683 9686 9689 9692 9694 9697 9700 9703 9706 9709 9712 9715 9717 9720 9723 9726 9728 9730 9733 9736 9738 9741 9744 9747 9750 9752 9754 9757 9759 9762 9765 9768 9771 9774 9777 9780 9783 9786 9789 9792 9795 9798 9800 9803 9806 9808 9811 9814 9817 9819 9822 9825 9828 9831 9834 9837 9840 9843 9846 9849 9852 9855 9858 9860 9863 9866 9869 9872 9875 9878 9881 9884 9887 9890 9893 9896 9898 9901 9904 9907 9910 9913 9916 9919 9922 9925 9928 9931 9934 9936 9939 9942 9944 9947 9950 9953 9956 9959 9962 9965 9968 9971 9974 9977 9980 9983 9986 9989 9992 9995 9997 10000 10003 10005 10008 10011 10013 10016 10019 10021 10024 10027 10030 10033 10035 10037 10039 10042 10044 10047 10050 10053 10056 10059 10062 10064 10067 10070 10073 10076 10079 10082 10085 10088 10091 10094 10097 10100 10103 10106 10109 10112 10115 10118 10121 10124 10127 10130 10133 10136 10138 10141 10144 10147 10150 10152 10155 10158 10161 10164 10167 10170 10173 10176 10179 10181 10183 10186 10189 10192 10195 10198 10201 10204 10207 10210 10212 10215 10218 10221 10224 10227 10230 10232 10235 10237 10240 10243 10245 10248 10251 10254 10256 10258 10261 10264 10266 10268 10271 10274 10277 10280 10283 10286 10288 10291 10294 10297 10300 10302 10305 10308 10311 10314 10317 10320 10323 10326 10329 10332 10335 10338 10340 10343 10346 10348 10351 10354 10357 10360 10363 10365 10367 10370 10373 10376 10378 10381 10384 10387 10390 10393 10396 10399 10402 10405 10407 10410 10413 10416 10419 10422 10425 10428 10431 10434 10437 10440 10443 10446 10449 10452 10455 10458 10461 10464 10467 10470 10472 10475 10478 10481 10484 10487 10490 10493 10496 10499 10501 10504 10507 10510 10513 10516 10519 10522 10525 10527 10530 10533 10536 10539 10542 10545 10547 10550 10553 10556 10559 10562 10565 10568 10571 10574 10577 10580 10583 10585 10588 10591 10594 10596 10599 10602 10605 10608 10611 10614 10617 10620 10623 10626 10629 10632 10634 10637 10640 10643 10646 10649 10652 10655 10658 10661 10664 10666 10669 10672 10675 10678 10681 10684 10687 10690 10693 10696 10699 10701 10704 10707 10710 10712 10715 10718 10721 10724 10727 10730 10733 10736 10739 10742 10745 10747 10750 10753 10756 10758 10761 10764 10766 10769 10772 10775 10778 10781 10784 10787 10790 10793 10796 10799 10802 10805 10807 10810 10813 10815 10818 10821 10823 10826 10829 10831 10833 10836 10839 10842 10844 10847 10850 10852 10855 10858 10861 10864 10866 10869 10872 10875 10878 10881 10884 10887 10890 10893 10896 10899 10902 10905 10907 10910 10913 10916 10919 10921 10924 10927 10930 10933 10936 10938 10941 10944 10947 10949 10952 10955 10958 10961 10964 10967 10970 10973 10975 10978 10981 10984 10987 10990 10993 10995 10998 11001 11004 11007 11010 11012 11015 11017 11020 11023 11026 11028 11030 11033 11036 11039 11042 11045 11048 11050 11053 11056 11059 11062 11065 11068 11071 11074 11077 11079 11082 11085 11088 11090 11093 11096 11098 11101 11103 11106 11109 11112 11115 11118 11121 11124 11126 11129 11132 11135 11138 11140 11143 11146 11149 11152 11155 11158 11160 11163 11166 11169 11172 11175 11178 11181 11184 11187 11190 11193 11196 11198 11201 11204 11207 11210 11212 11215 11217 11220 11223 11226 11229 11232 11234 11237 11240 11243 11245 11248 11251 11254 11257 11259 11262 11265 11268 11271 11274 11277 11280 11283 11286 11289 11292 11295 11298 11301 11304 11307 11310 11313 11316 11319 11322 11325 11328 11331 11334 11337 11340 11343 11346 11349 11351 11354 11357 11360 11363 11366 11369 11372 11375 11378 11381 11384 11387 11390 11393 11396 11399 11402 11405 11408 11411 11414 11417 11420 11423 11426 11429 11432 11435 11438 11441 11444 11447 11450 11453 11456 11459 11462 11465 11468 11471 11474 11477 11480 11483 11486 11489 11492 11495 11498 11501 11504 11507 11510 11513 11516 11519 11522 11525 11528 11531 11534 11537 11540 11543 11546 11549 11552 11554 11557 11560 11563 11566 11569 11572 11575 11578 11581 11584 11587 11590 11593 11596 11599 11602 11605 11608 11611 11614 11617 11620 11623 11626 11628 11631 11634 11637 11640 11643 11646 11649 11652 11655 11658 11660 11663 11666 11669 11672 11675 11678 11681 11683 11685 11688 11691 11694 11697 11700 11703 11706 11709 11712 11715 11718 11721 11724 11727 11730 11733 11736 11739 11742 11745 11748 11751 11754 11757 11760 11763 11766 11769 11772 11775 11778 11780 11783 11786 11789 11792 11795 11798 11801 11804 11807 11810 11812 11814 11817 11819 11822 11825 11828 11831 11834 11837 11839 11842 11845 11848 11851 11854 11856 11859 11862 11865 11868 11871 11873 11876 11879 11882 11885 11887 11890 11893 11896 11899 11902 11905 11908 11911 11914 11917 11920 11923 11926 11929 11932 11935 11938 11941 11944 11946 11949 11952 11955 11958 11961 11964 11967 11970 11973 11975 11978 11981 11984 11987 11990 11993 11996 11999 12002 12005 12007 12010 12013 12016 12018 12021 12024 12027 12029 12032 12035 12037 12039 12042 12045 12048 12051 12053 12056 12059 12062 12065 12068 12071 12074 12077 12079 12082 12085 12088 12091 12094 12097 12100 12103 12106 12109 12112 12115 12118 12121 12124 12127 12130 12133 12136 12139 12142 12145 12148 12151 12154 12157 12160 12163 12166 12169 12172 12175 12178 12180 12183 12186 12188 12191 12193 12196 12198 12201 12204 12207 12209 12211 12213 12216 12219 12222 12224 12227 12230 12233 12236 12239 12242 12245 12248 12251 12254 12257 12260 12263 12266 12268 12271 12274 12277 12280 12283 12286 12289 12292 12295 12298 12301 12304 12307 12310 12313 12315 12318 12321 12323 12325 12328 12331 12334 12336 12339 12342 12344 12347 12349 12352 12354 12357 12360 12363 12366 12369 12372 12375 12378 12380 12383 12386 12388 12391 12394 12397 12399 12402 12404 12407 12410 12413 12416 12419 12422 12425 12428 12431 12434 12437 12440 12443 12446 12449 12452 12455 12458 12461 12464 12467 12470 12473 12476 12479 12482 12485 12488 12491 12494 12497 12500 12503 12506 12509 12512 12515 12518 12521 12524 12527 12530 12533 12536 12539 12541 12544 12547 12550 12553 12556 12559 12561 12563 12566 12569 12572 12575 12578 12580 12583 12585 12587 12590 12592 12594 12597 12599 12602 12604 12607 12610 12613 12616 12619 12622 12625 12628 12631 12633 12636 12639 12642 12645 12648 12651 12653 12656 12659 12662 12665 12668 12671 12674 12677 12680 12683 12686 12688 12690 12693 12696 12699 12702 12705 12708 12710 12712 12715 12718 12720 12723 12726 12729 12732 12735 12738 12741 12744 12746 12749 12752 12755 12758 12761 12764 12767 12770 12773 12776 12779 12782 12785 12788 12791 12794 12797 12800 12803 12806 12808 12811 12813 12816 12819 12821 12824 12827 12830 12833 12835 12837 12839 12842 12845 12848 12850 12852 12855 12858 12860 12863 12866 12869 12871 12874 12876 12879 12882 12884 12887 12889 12891 12894 12896 12899 12902 12905 12908 12911 12913 12915 12918 12921 12924 12927 12930 12933 12936 12938 12941 12944 12947 12950 12953 12955 12958 12961 12964 12966 12969 12972 12975 12978 12980 12983 12985 12988 12990 12993 12996 12998 13000 13003 13006 13009 13011 13014 13016 13019 13022 13025 13028 13031 13034 13037 13040 13043 13046 13049 13052 13055 13058 13061 13064 13067 13070 13073 13076 13078 13081 13084 13087 13090 13093 13096 13099 13102 13105 13107 13110 13113 13116 13119 13121 13124 13127 13130 13133 13135 13138 13141 13144 13147 13150 13153 13156 13159 13162 13165 13167 13170 13173 13176 13179 13181 13184 13187 13190 13193 13196 13199 13202 13205 13208 13211 13214 13217 13220 13223 13226 13229 13232 13235 13238 13240 13243 13246 13248 13251 13254 13256 13259 13262 13265 13267 13269 13272 13275 13278 13281 13284 13287 13290 13293 13295 13298 13301 13304 13307 13310 13313 13316 13319 13322 13325 13328 13331 13334 13337 13340 13343 13346 13349 13352 13355 13357 13360 13363 13366 13369 13372 13375 13378 13381 13384 13387 13390 13393 13396 13399 13402 13405 13408 13411 13414 13417 13420 13423 13426 13429 13432 13435 13437 13440 13443 13446 13449 13452 13455 13458 13461 13464 13466 13469 13472 13474 13477 13479 13481 13484 13487 13490 13493 13496 13499 13501 13504 13507 13510 13513 13516 13519 13522 13525 13528 13531 13534 13537 13540 13543 13546 13549 13552 13555 13558 13561 13564 13567 13570 13573 13576 13579 13582 13585 13588 13591 13594 13597 13600 13603 13606 13608 13611 13614 13617 13620 13623 13626 13629 13632 13635 13638 13641 13644 13647 13650 13653 13656 13659 13662 13665 13668 13671 13674 13677 13680 13683 13686 13689 13692 13695 13697 13700 13703 13706 13709 13712 13715 13718 13720 13723 13726 13728 13731 13734 13737 13740 13743 13745 13748 13750 13753 13756 13758 13761 13764 13767 13770 13773 13776 13779 13782 13785 13788 13791 13794 13797 13800 13803 13806 13809 13812 13815 13818 13821 13824 13827 13830 13833 13836 13839 13842 13845 13848 13851 13854 13857 13860 13863 13866 13869 13872 13875 13877 13880 13882 13885 13888 13891 13894 13897 13900 13903 13905 13907 13910 13913 13916 13918 13921 13924 13927 13930 13933 13936 13939 13942 13945 13948 13950 13953 13956 13958 13961 13964 13966 13969 13972 13975 13978 13981 13984 13987 13989 13992 13995 13998 14001 14004 14007 14010 14012 14015 14018 14021 14024 14027 14030 14033 14036 14039 14042 14045 14047 14050 14053 14056 14059 14062 14064 14067 14070 14073 14076 14079 14082 14084 14087 14090 14093 14096 14098 14101 14103 14106 14109 14112 14114 14116 14119 14121 14124 14127 14130 14133 14136 14139 14141 14144 14147 14150 14153 14156 14159 14162 14165 14167 14170 14173 14175 14178 14181 14184 14186 14189 14192 14194 14197 14200 14202 14205 14208 14211 14214 14216 14219 14222 14225 14227 14230 14233 14236 14239 14241 14244 14247 14250 14253 14256 14259 14262 14265 14268 14271 14274 14277 14280 14283 14286 14288 14291 14294 14297 14300 14303 14305 14308 14311 14314 14317 14320 14323 14326 14329 14332 14335 14338 14341 14344 14347 14350 14353 14356 14358 14361 14364 14366 14369 14372 14375 14378 14381 14384 14386 14389 14392 14395 14398 14401 14404 14407 14410 14413 14416 14419 14422 14425 14428 14431 14434 14437 14439 14442 14445 14448 14451 14454 14457 14460 14463 14466 14468 14471 14473 14476 14479 14481 14484 14487 14490 14492 14494 14497 14500 14503 14506 14509 14512 14515 14518 14520 14523 14526 14529 14531 14534 14536 14538 14541 14544 14546 14549 14552 14555 14558 14561 14564 14567 14570 14572 14575 14578 14581 14583 14585 14587 14590 14592 14595 14598 14600 14603 14606 14608 14611 14613 14616 14619 14622 14625 14628 14631 14634 14637 14640 14643 14646 14649 14652 14655 14658 14661 14664 14667 14670 14673 14676 14679 14682 14685 14688 14691 14694 14697 14700 14703 14706 14709 14712 14715 14718 14721 14724 14727 14730 14733 14736 14739 14742 14745 14748 14751 14754 14757 14760 14763 14766 14769 14771 14774 14777 14779 14782 14785 14788 14791 14794 14797 14800 14803 14805 14808 14811 14813 14816 14819 14822 14824 14827 14830 14833 14836 14839 14842 14845 14848 14851 14854 14857 14860 14863 14866 14869 14872 14875 14878 14881 14884 14886 14889 14891 14894 14896 14899 14902 14905 14907 14910 14913 14915 14918 14921 14924 14927 14930 14933 14936 14939 14942 14945 14948 14951 14954 14957 14960 14963 14966 14969 14972 14975 14978 14980 14983 14986 14988 14991 14994 14996 14999 15002 15005 15008 15011 15014 15017 15019 15022 15025 15028 15031 15034 15036 15039 15042 15045 15047 15050 15053 15055 15058 15061 15064 15067 15070 15073 15076 15079 15082 15085 15088 15091 15094 15097 15100 15103 15106 15109 15112 15115 15118 15121 15124 15127 15130 15133 15136 15139 15142 15145 15148 15151 15153 15156 15159 15161 15164 15167 15170 15172 15174 15177 15179 15182 15184 15187 15190 15193 15195 15198 15201 15204 15207 15210 15212 15215 15218 15221 15224 15227 15230 15233 15236 15239 15242 15244 15247 15250 15253 15256 15259 15261 15264 15267 15270 15273 15275 15278 15281 15284 15287 15290 15293 15296 15299 15302 15305 15308 15311 15313 15316 15319 15322 15325 15328 15331 15334 15336 15339 15342 15345 15348 15351 15354 15357 15360 15363 15366 15369 15372 15375 15378 15381 15384 15387 15390 15393 15395 15398 15401 15404 15407 15410 15413 15415 15418 15421 15424 15427 15430 15433 15436 15439 15442 15445 15448 15451 15453 15456 15459 15462 15465 15468 15471 15474 15477 15480 15482 15485 15487 15490 15493 15496 15499 15502 15505 15508 15511 15514 15516 15519 15521 15524 15527 15530 15533 15536 15539 15542 15545 15548 15550 15553 15556 15559 15562 15565 15568 15571 15573 15576 15579 15582 15584 15587 15590 15593 15596 15599 15602 15604 15607 15610 15613 15616 15619 15622 15624 15627 15630 15633 15636 15638 15641 15644 15647 15649 15652 15655 15658 15660 15663 15666 15669 15671 15674 15677 15680 15683 15686 15688 15690 15693 15696 15699 15702 15705 15708 15711 15714 15717 15720 15723 15726 15729 15731 15734 15737 15740 15743 15745 15748 15751 15754 15757 15760 15763 15766 15769 15772 15775 15778 15781 15784 15787 15790 15793 15796 15799 15802 15804 15807 15809 15812 15815 15818 15821 15824 15827 15830 15833 15836 15839 15842 15845 15847 15850 15853 15856 15859 15862 15864 15867 15870 15873 15876 15879 15882 15885 15887 15890 15893 15896 15898 15900 15903 15906 15909 15912 15915 15918 15921 15924 15927 15930 15932 15935 15938 15941 15944 15947 15950 15952 15955 15958 15961 15964 15967 15970 15973 15976 15979 15982 15985 15988 15990 15993 15996 15998 16001 16004 16007 16010 16012 16015 16018 16021 16024 16027 16029 16031 16034 16037 16039 16042 16045 16048 16051 16054 16056 16059 16061 16064 16066 16068 16071 16073 16076 16079 16081 16084 16087 16090 16093 16096 16099 16102 16104 16106 16109 16111 16114 16116 16119 16122 16125 16128 16131 16134 16137 16140 16143 16146 16149 16151 16154 16157 16160 16163 16166 16169 16172 16175 16178 16181 16184 16187 16190 16193 16196 16198 16201 16204 16207 16210 16213 16216 16219 16222 16224 16227 16230 16233 16236 16239 16242 16245 16248 16251 16254 16257 16260 16263 16266 16269 16272 16274 16277 16280 16283 16286 16289 16292 16295 16298 16301 16304 16307 16310 16313 16315 16318 16320 16323 16326 16329 16332 16335 16338 16341 16344 16347 16350 16353 16356 16359 16362 16365 16368 16371 16374 16377 16379 16382 16385 16388 16390 16393 16396 16399 16402 16405 16408 16411 16414 16417 16420 16423 16426 16429 16432 16435 16438 16441 16444 16447 16450 16453 16456 16459 16462 16465 16468 16471 16473 16476 16479 16482 16485 16488 16491 16494 16497 16499 16502 16505 16508 16511 16514 16517 16520 16523 16525 16527 16530 16533 16536 16539 16542 16545 16548 16551 16554 16557 16560 16563 16566 16569 16572 16575 16578 16581 16584 16587 16590 16593 16596 16599 16602 16605 16608 16611 16614 16617 16619 16622 16625 16628 16631 16634 16637 16640 16643 16646 16649 16652 16654 16656 16659 16662 16665 16667 16669 16672 16675 16678 16680 16683 16686 16689 16691 16694 16697 16700 16703 16706 16708 16711 16714 16716 16719 16722 16725 16728 16731 16734 16737 16740 16743 16746 16749 16752 16755 16758 16761 16764 16767 16770 16773 16776 16779 16782 16785 16788 16791 16794 16797 16800 16803 16806 16808 16811 16814 16817 16820 16823 16826 16829 16832 16835 16838 16841 16844 16847 16850 16852 16855 16858 16861 16864 16867 16870 16873 16876 16879 16882 16885 16888 16891 16894 16897 16900 16903 16906 16909 16912 16915 16917 16920 16923 16926 16929 16932 16935 16938 16941 16943 16946 16948 16951 16954 16956 16958 16961 16964 16966 16969 16972 16975 16977 16979 16982 16984 16987 16989 16992 16995 16997 17000 17003 17006 17009 17011 17014 17017 17020 17023 17026 17029 17032 17035 17037 17040 17043 17046 17049 17052 17055 17058 17061 17064 17067 17070 17073 17076 17079 17082 17085 17088 17091 17094 17097 17100 17103 17106 17108 17111 17114 17117 17120 17123 17126 17129 17132 17135 17138 17141 17144 17147 17150 17153 17156 17158 17161 17164 17167 17170 17173 17176 17179 17182 17185 17187 17189 17192 17195 17198 17200 17203 17206 17209 17212 17215 17218 17221 17224 17226 17229 17232 17235 17238 17241 17244 17247 17250 17253 17256 17259 17261 17264 17266 17269 17272 17275 17278 17281 17284 17287 17290 17293 17296 17299 17301 17304 17307 17310 17313 17316 17319 17321 17324 17327 17330 17333 17336 17339 17342 17345 17348 17351 17354 17357 17360 17363 17366 17369 17372 17375 17378 17381 17384 17387 17390 17393 17396 17399 17402 17405 17408 17411 17414 17417 17420 17423 17426 17429 17432 17434 17436 17439 17442 17445 17447 17450 17453 17456 17459 17462 17465 17468 17471 17474 17477 17480 17483 17486 17489 17492 17495 17498 17501 17504 17507 17510 17513 17516 17519 17522 17525 17528 17531 17534 17537 17540 17543 17546 17549 17552 17555 17558 17561 17563 17566 17569 17572 17575 17578 17580 17583 17586 17589 17592 17595 17597 17600 17602 17605 17608 17610 17613 17616 17619 17622 17625 17628 17631 17633 17636 17639 17642 17645 17648 17651 17654 17657 17660 17663 17666 17669 17672 17675 17678 17681 17684 17687 17690 17693 17696 17699 17702 17705 17708 17711 17714 17716 17719 17722 17724 17727 17730 17732 17735 17738 17741 17744 17746 17749 17752 17755 17758 17761 17764 17767 17770 17773 17776 17779 17782 17785 17788 17791 17794 17797 17800 17803 17806 17809 17812 17815 17817 17820 17823 17825 17828 17831 17834 17837 17840 17843 17846 17849 17852 17855 17858 17861 17864 17867 17870 17872 17875 17878 17881 17884 17887 17890 17892 17895 17897 17900 17903 17906 17909 17912 17915 17918 17921 17924 17927 17930 17933 17936 17939 17942 17945 17948 17951 17954 17957 17960 17962 17965 17968 17971 17973 17975 17978 17981 17984 17987 17989 17992 17995 17998 18000 18003 18006 18009 18012 18015 18018 18020 18023 18025 18028 18031 18034 18037 18039 18042 18045 18048 18051 18053 18056 18059 18062 18065 18067 18070 18073 18075 18078 18081 18084 18087 18090 18093 18096 18099 18102 18105 18108 18111 18114 18117 18120 18123 18126 18129 18132 18135 18138 18140 18143 18146 18148 18151 18154 18157 18160 18163 18166 18169 18172 18175 18178 18181 18184 18187 18190 18193 18196 18199 18202 18205 18208 18211 18214 18217 18220 18223 18226 18229 18232 18235 18238 18241 18244 18247 18250 18253 18256 18259 18262 18265 18268 18271 18274 18277 18280 18283 18286 18289 18292 18295 18298 18301 18304 18307 18310 18313 18316 18319 18322 18325 18327 18330 18333 18336 18339 18342 18345 18348 18351 18354 18357 18360 18363 18366 18369 18371 18374 18377 18380 18383 18386 18389 18392 18395 18398 18401 18403 18406 18409 18412 18415 18418 18421 18424 18427 18430 18433 18436 18439 18442 18445 18448 18451 18454 18456 18459 18462 18465 18467 18470 18473 18476 18479 18482 18485 18488 18491 18493 18496 18499 18502 18505 18508 18510 18513 18516 18519 18522 18525 18528 18531 18534 18536 18539 18542 18545 18548 18551 18554 18556 18559 18562 18565 18568 18571 18574 18577 18580 18583 18586 18589 18592 18594 18597 18600 18602 18604 18607 18609 18612 18615 18618 18621 18624 18626 18629 18632 18635 18638 18641 18644 18647 18650 18652 18654 18657 18659 18662 18665 18668 18671 18674 18677 18680 18683 18686 18688 18691 18694 18697 18700 18703 18706 18709 18712 18715 18718 18721 18724 18727 18730 18733 18736 18739 18741 18744 18747 18750 18753 18755 18758 18761 18764 18766 18769 18772 18775 18777 18780 18783 18786 18789 18792 18795 18798 18801 18803 18806 18809 18812 18815 18817 18820 18823 18826 18829 18832 18835 18838 18841 18844 18846 18849 18852 18855 18858 18861 18864 18867 18870 18873 18876 18879 18882 18885 18888 18891 18894 18897 18900 18903 18906 18909 18912 18915 18918 18921 18924 18926 18928 18931 18934 18937 18940 18943 18946 18949 18952 18955 18958 18961 18964 18967 18969 18972 18975 18978 18981 18984 18987 18989 18992 18995 18998 19001 19004 19007 19010 19013 19016 19019 19022 19025 19028 19031 19034 19037 19039 19042 19045 19048 19051 19054 19057 19060 19063 19066 19069 19072 19075 19078 19081 19084 19087 19090 19093 19096 19099 19102 19105 19108 19111 19114 19117 19120 19123 19126 19129 19132 19135 19137 19140 19143 19146 19149 19152 19155 19158 19161 19164 19167 19170 19173 19176 19179 19182 19185 19188 19191 19194 19197 19200 19203 19206 19209 19212 19215 19218 19221 19224 19227 19230 19233 19236 19239 19242 19245 19248 19251 19254 19257 19260 19263 19266 19269 19272 19275 19278 19281 19284 19287 19290 19293 19296 19299 19302 19305 19308 19311 19314 19317 19320 19323 19326 19328 19331 19334 19337 19340 19343 19346 19349 19352 19355 19358 19360 19363 19366 19369 19372 19375 19378 19381 19384 19386 19389 19391 19394 19396 19398 19401 19404 19407 19410 19412 19415 19418 19421 19424 19426 19429 19432 19435 19438 19441 19444 19446 19449 19452 19455 19458 19461 19464 19467 19470 19473 19476 19479 19482 19485 19488 19490 19493 19496 19498 19501 19504 19507 19510 19513 19516 19519 19522 19525 19528 19531 19534 19537 19540 19543 19546 19549 19552 19555 19558 19561 19564 19567 19570 19573 19576 19579 19582 19585 19588 19591 19594 19597 19600 19603 19605 19608 19610 19613 19616 19619 19622 19625 19628 19630 19633 19636 19639 19642 19645 19648 19651 19654 19657 19660 19663 19666 19669 19672 19675 19678 19681 19684 19687 19690 19692 19695 19698 19701 19704 19707 19710 19713 19716 19719 19722 19725 19728 19731 19734 19737 19740 19743 19746 19748 19750 19753 19756 19759 19762 19765 19768 19770 19773 19776 19779 19782 19785 19788 19791 19794 19797 19800 19803 19806 19809 19812 19815 19818 19821 19823 19826 19829 19832 19835 19838 19841 19844 19847 19850 19853 19856 19859 19862 19865 19868 19871 19874 19877 19880 19883 19886 19889 19891 19894 19896 19898 19901 19904 19907 19909 19911 19914 19916 19918 19921 19924 19927 19929 19932 19935 19937 19940 19943 19946 19949 19952 19955 19958 19961 19964 19967 19970 19973 19976 19978 19981 19984 19987 19989 19992 19995 19997 20000 20003 20006 20008 20011 20014 20017 20019 20022 20024 20027 20030 20032 20035 20038 20040 20043 20046 20048 20051 20054 20057 20060 20063 20066 20069 20072 20075 20078 20081 20084 20087 20089 20091 20094 20097 20100 20103 20105 20107 20110 20113 20115 20118 20121 20124 20127 20130 20133 20136 20139 20142 20145 20148 20151 20154 20157 20160 20163 20166 20169 20172 20175 20178 20181 20184 20187 20189 20192 20195 20197 20200 20203 20205 20208 20211 20213 20216 20219 20222 20224 20227 20230 20233 20236 20239 20242 20245 20248 20251 20254 20257 20260 20263 20266 20268 20271 20274 20277 20280 20283 20286 20289 20292 20295 20298 20301 20304 20307 20310 20313 20316 20319 20322 20325 20328 20331 20334 20337 20340 20343 20346 20349 20352 20355 20358 20361 20364 20367 20370 20373 20376 20379 20382 20385 20388 20391 20394 20397 20400 20403 20406 20409 20412 20415 20418 20421 20424 20427 20430 20433 20435 20438 20441 20444 20447 20449 20451 20454 20457 20460 20463 20465 20468 20471 20474 20477 20479 20481 20484 20487 20490 20493 20496 20498 20501 20504 20507 20509 20512 20515 20518 20521 20524 20526 20529 20532 20535 20538 20541 20543 20546 20549 20552 20555 20558 20561 20564 20567 20569 20572 20574 20577 20580 20583 20586 20589 20592 20595 20597 20599 20602 20605 20608 20611 20613 20616 20618 20621 20624 20627 20630 20633 20636 20639 20642 20644 20647 20650 20653 20655 20658 20661 20664 20666 20668 20671 20674 20677 20680 20683 20685 20688 20691 20693 20696 20698 20701 20704 20707 20710 20712 20715 20717 20719 20722 20724 20726 20729 20732 20735 20738 20741 20744 20747 20750 20753 20756 20759 20762 20765 20768 20771 20774 20776 20779 20782 20785 20787 20790 20793 20796 20799 20802 20805 20808 20811 20814 20817 20820 20823 20825 20828 20831 20834 20837 20840 20843 20846 20849 20852 20855 20858 20861 20864 20866 20869 20872 20875 20877 20880 20883 20886 20889 20892 20895 20898 20901 20904 20907 20910 20913 20916 20919 20922 20924 20927 20930 20933 20935 20938 20941 20944 20947 20950 20953 20956 20959 20962 20965 20968 20971 20974 20977 20980 20983 20986 20989 20992 20995 20998 21001 21004 21007 21010 21013 21016 21019 21022 21025 21028 21031 21034 21037 21040 21043 21046 21049 21052 21055 21058 21060 21063 21065 21068 21071 21074 21077 21079 21082 21084 21087 21089 21092 21095 21098 21101 21104 21107 21110 21113 21116 21119 21122 21125 21128 21130 21133 21136 21139 21142 21145 21148 21151 21153 21156 21159 21161 21164 21166 21169 21172 21175 21178 21180 21183 21186 21188 21190 21192 21195 21198 21201 21204 21207 21210 21213 21216 21219 21222 21225 21228 21231 21234 21237 21240 21243 21246 21249 21252 21255 21258 21261 21264 21266 21269 21272 21275 21278 21281 21284 21287 21289 21292 21295 21297 21299 21302 21305 21308 21311 21314 21317 21320 21323 21326 21329 21332 21335 21338 21341 21344 21347 21350 21353 21356 21359 21362 21365 21368 21371 21374 21377 21380 21383 21385 21388 21391 21394 21397 21400 21402 21405 21408 21411 21413 21416 21419 21422 21425 21428 21431 21434 21437 21440 21442 21444 21447 21450 21453 21456 21459 21462 21465 21468 21471 21474 21476 21479 21482 21485 21488 21491 21494 21497 21500 21503 21505 21508 21511 21514 21517 21520 21523 21526 21529 21532 21535 21538 21541 21544 21547 21550 21553 21556 21558 21561 21563 21566 21569 21572 21575 21578 21581 21584 21587 21590 21593 21596 21599 21602 21605 21608 21611 21614 21617 21620 21623 21626 21629 21632 21635 21638 21641 21644 21647 21650 21653 21656 21659 21662 21665 21668 21671 21674 21676 21679 21681 21684 21687 21690 21693 21696 21699 21702 21705 21708 21710 21713 21716 21719 21721 21724 21727 21729 21732 21734 21737 21740 21742 21745 21748 21751 21754 21757 21759 21762 21765 21768 21771 21774 21777 21780 21783 21785 21788 21790 21793 21795 21798 21801 21804 21807 21810 21813 21816 21819 21822 21825 21828 21831 21833 21836 21839 21842 21844 21847 21850 21853 21855 21858 21860 21863 21866 21869 21872 21875 21877 21880 21882 21885 21888 21891 21893 21896 21899 21901 21904 21907 21910 21913 21916 21919 21922 21925 21928 21930 21933 21936 21938 21941 21944 21947 21950 21953 21956 21959 21962 21965 21968 21971 21974 21976 21979 21982 21984 21987 21989 21992 21995 21998 22001 22004 22006 22009 22012 22015 22017 22019 22022 22025 22028 22031 22034 22037 22039 22042 22045 22048 22051 22053 22056 22059 22062 22065 22067 22069 22072 22075 22077 22080 22083 22086 22088 22091 22094 22097 22100 22103 22106 22108 22111 22114 22116 22119 22121 22124 22126 22129 22132 22135 22138 22141 22144 22147 22150 22153 22156 22159 22162 22165 22168 22171 22174 22177 22180 22182 22185 22188 22191 22194 22197 22200 22203 22206 22209 22212 22215 22218 22221 22224 22227 22230 22233 22236 22239 22242 22245 22248 22250 22253 22256 22258 22261 22264 22267 22270 22273 22276 22279 22282 22285 22288 22290 22293 22296 22298 22301 22304 22307 22309 22312 22315 22318 22321 22323 22325 22328 22331 22334 22336 22339 22341 22343 22346 22349 22351 22354 22357 22360 22363 22365 22368 22370 22373 22376 22379 22382 22385 22387 22390 22393 22395 22398 22401 22404 22407 22410 22413 22416 22419 22422 22425 22428 22431 22434 22437 22440 22442 22445 22448 22451 22454 22457 22460 22463 22466 22469 22472 22475 22478 22481 22484 22487 22490 22493 22496 22499 22501 22504 22507 22510 22512 22515 22518 22521 22524 22527 22530 22533 22536 22539 22542 22545 22547 22550 22552 22555 22558 22561 22564 22566 22569 22572 22575 22578 22580 22583 22586 22589 22592 22595 22598 22601 22604 22606 22609 22612 22614 22617 22620 22623 22626 22629 22632 22635 22638 22641 22644 22647 22650 22653 22656 22659 22662 22665 22668 22671 22674 22677 22680 22683 22686 22688 22691 22694 22696 22699 22702 22704 22707 22710 22713 22715 22718 22721 22724 22727 22730 22733 22736 22739 22742 22745 22747 22750 22753 22756 22759 22762 22764 22767 22770 22773 22776 22779 22782 22785 22787 22790 22793 22796 22799 22802 22805 22808 22811 22814 22817 22820 22822 22824 22826 22829 22831 22834 22837 22840 22842 22845 22848 22851 22853 22856 22859 22862 22865 22867 22870 22873 22876 22879 22882 22885 22887 22890 22893 22896 22899 22902 22904 22907 22910 22913 22916 22919 22922 22925 22928 22931 22934 22937 22940 22942 22945 22948 22951 22954 22957 22960 22963 22966 22969 22972 22975 22978 22981 22984 22986 22989 22992 22995 22998 23001 23004 23007 23010 23013 23015 23018 23021 23024 23027 23029 23032 23035 23038 23041 23044 23047 23050 23053 23055 23057 23060 23063 23066 23069 23071 23074 23077 23080 23083 23086 23089 23092 23095 23098 23101 23104 23107 23110 23113 23116 23119 23122 23125 23128 23131 23134 23137 23140 23143 23146 23149 23152 23155 23158 23161 23164 23166 23169 23172 23175 23178 23181 23184 23187 23190 23193 23196 23199 23202 23205 23207 23210 23213 23216 23219 23222 23225 23228 23230 23233 23236 23239 23242 23245 23248 23250 23253 23256 23258 23261 23264 23267 23270 23272 23275 23278 23281 23284 23287 23290 23292 23295 23298 23301 23304 23307 23310 23313 23316 23319 23322 23325 23328 23331 23334 23337 23340 23343 23346 23349 23352 23355 23358 23361 23364 23367 23370 23373 23376 23379 23382 23385 23388 23391 23394 23397 23400 23403 23406 23408 23411 23414 23416 23419 23421 23424 23426 23429 23432 23435 23438 23441 23443 23446 23449 23452 23455 23458 23461 23464 23467 23469 23472 23475 23478 23481 23484 23486 23489 23492 23495 23498 23501 23503 23506 23509 23512 23514 23517 23520 23523 23525 23528 23531 23534 23537 23540 23543 23546 23549 23552 23555 23558 23561 23564 23567 23570 23573 23576 23579 23582 23584 23587 23590 23593 23596 23599 23602 23605 23608 23611 23613 23616 23619 23621 23624 23627 23630 23633 23636 23639 23641 23644 23647 23650 23653 23656 23659 23662 23665 23668 23671 23674 23677 23680 23683 23686 23689 23692 23695 23698 23701 23704 23707 23710 23713 23716 23719 23722 23725 23728 23731 23734 23737 23740 23743 23746 23749 23752 23755 23758 23761 23764 23767 23770 23773 23776 23779 23782 23785 23788 23791 23794 23797 23800 23803 23806 23809 23812 23815 23818 23821 23824 23827 23830 23833 23836 23839 23842 23845 23848 23851 23854 23857 23860 23863 23866 23869 23872 23875 23878 23881 23884 23887 23890 23893 23896 23899 23902 23905 23908 23911 23914 23917 23920 23923 23926 23929 23932 23935 23938 23941 23944 23947 23950 23953 23956 23959 23962 23965 23968 23971 23974 23977 23980 23983 23986 23989 23992 23995 23998 24001 24004 24007 24010 24013 24016 24019 24022 24025 24028 24031 24034 24037 24040 24043 24046 24049 24052 24055 24058 24061 24064 24067 24070 24073 24075 24078 24081 24084 24087 24090 24093 24096 24099 24102 24105 24107 24110 24113 24116 24119 24122 24125 24128 24131 24134 24137 24140 24143 24145 24148 24151 24153 24155 24158 24161 24163 24166 24169 24172 24175 24177 24180 24182 24185 24188 24191 24194 24196 24199 24201 24203 24206 24209 24212 24214 24217 24220 24223 24226 24228 24231 24234 24237 24240 24243 24246 24249 24252 24255 24258 24261 24264 24266 24269 24272 24275 24278 24281 24284 24287 24290 24293 24296 24299 24301 24303 24306 24309 24312 24315 24318 24321 24324 24327 24330 24333 24335 24338 24341 24344 24347 24350 24352 24355 24358 24361 24364 24366 24369 24372 24375 24378 24380 24383 24386 24389 24392 24395 24397 24400 24402 24405 24408 24410 24413 24416 24419 24422 24424 24427 24430 24433 24436 24439 24442 24445 24447 24450 24453 24456 24459 24462 24465 24468 24471 24474 24476 24479 24482 24485 24488 24491 24494 24497 24500 24503 24506 24509 24512 24515 24518 24521 24524 24527 24530 24533 24536 24539 24542 24545 24548 24551 24554 24557 24560 24563 24566 24569 24572 24575 24578 24581 24584 24587 24590 24593 24596 24599 24602 24605 24608 24611 24614 24617 24620 24623 24626 24629 24632 24635 24638 24641 24644 24647 24650 24653 24655 24658 24661 24664 24666 24669 24672 24675 24678 24681 24684 24687 24690 24693 24695 24698 24700 24703 24706 24709 24712 24715 24718 24721 24724 24727 24730 24732 24735 24738 24741 24744 24747 24750 24753 24756 24759 24761 24764 24767 24770 24773 24776 24778 24781 24783 24786 24789 24792 24795 24798 24800 24803 24806 24809 24812 24815 24818 24821 24824 24827 24830 24832 24835 24837 24840 24843 24845 24848 24850 24853 24855 24857 24860 24863 24866 24869 24872 24875 24878 24881 24884 24886 24889 24892 24895 24898 24901 24904 24907 24909 24912 24915 24918 24921 24924 24927 24929 24932 24935 24938 24941 24944 24946 24949 24951 24953 24956 24959 24961 24964 24967 24970 24973 24976 24979 24982 24985 24987 24990 24993 24996 24999 25002 25005 25008 25011 25014 25017 25019 25022 25025 25028 25030 25033 25036 25039 25042 25045 25048 25051 25054 25057 25060 25063 25066 25069 25072 25075 25078 25081 25084 25087 25090 25093 25096 25099 25102 25105 25108 25111 25114 25117 25120 25123 25126 25129 25132 25135 25138 25141 25144 25147 25150 25153 25156 25159 25162 25165 25168 25171 25174 25177 25180 25183 25185 25188 25191 25194 25196 25199 25202 25205 25208 25211 25213 25216 25218 25221 25224 25226 25229 25231 25234 25237 25240 25243 25246 25249 25252 25254 25256 25259 25262 25265 25268 25271 25274 25277 25280 25283 25286 25289 25292 25295 25298 25301 25304 25307 25309 25312 25315 25318 25320 25323 25325 25327 25329 25332 25335 25337 25340 25342 25345 25348 25351 25354 25357 25359 25361 25364 25367 25370 25373 25376 25379 25382 25385 25388 25391 25394 25397 25400 25403 25406 25409 25411 25414 25416 25419 25422 25425 25428 25430 25433 25435 25438 25441 25444 25447 25450 25453 25455 25458 25460 25463 25465 25467 25470 25472 25475 25478 25480 25483 25485 25488 25491 25494 25496 25499 25502 25505 25508 25511 25513 25516 25519 25522 25525 25528 25531 25534 25537 25540 25542 25545 25548 25551 25554 25557 25560 25562 25564 25567 25569 25572 25575 25577 25580 25583 25586 25588 25591 25594 25597 25600 25602 25605 25608 25611 25614 25617 25620 25623 25626 25629 25631 25634 25637 25640 25642 25644 25647 25649 25652 25655 25658 25661 25664 25667 25670 25673 25676 25679 25682 25685 25687 25690 25692 25695 25698 25701 25704 25707 25710 25713 25716 25719 25721 25723 25726 25729 25732 25735 25738 25741 25744 25747 25750 25753 25755 25757 25760 25763 25766 25769 25772 25775 25777 25780 25783 25786 25789 25792 25795 25798 25801 25804 25806 25809 25811 25814 25817 25820 25823 25826 25829 25831 25834 25837 25839 25841 25844 25847 25850 25853 25856 25859 25861 25864 25866 25869 25872 25875 25878 25880 25883 25885 25888 25891 25894 25897 25899 25902 25905 25907 25910 25913 25916 25919 25922 25924 25926 25929 25932 25935 25938 25941 25943 25946 25949 25952 25955 25957 25960 25963 25966 25968 25970 25973 25976 25979 25982 25985 25988 25990 25993 25996 25999 26002 26005 26008 26010 26013 26016 26019 26021 26024 26026 26029 26032 26035 26038 26041 26044 26047 26050 26053 26056 26059 26062 26065 26068 26071 26074 26076 26079 26081 26084 26087 26090 26092 26095 26098 26101 26104 26107 26109 26112 26115 26118 26121 26124 26126 26129 26132 26134 26137 26140 26142 26145 26148 26151 26154 26157 26160 26162 26165 26168 26171 26173 26176 26179 26182 26185 26188 26191 26194 26197 26200 26203 26206 26209 26211 26214 26216 26219 26222 26225 26228 26231 26234 26237 26240 26243 26246 26249 26252 26255 26258 26261 26264 26267 26270 26273 26276 26279 26282 26285 26288 26291 26294 26297 26300 26303 26306 26309 26312 26315 26318 26321 26324 26327 26330 26333 26336 26339 26342 26345 26348 26351 26354 26357 26359 26362 26365 26368 26371 26373 26376 26379 26382 26385 26388 26391 26394 26396 26399 26402 26405 26408 26410 26413 26416 26419 26422 26425 26428 26431 26434 26437 26440 26443 26446 26449 26452 26454 26457 26460 26463 26466 26469 26472 26475 26477 26480 26483 26486 26489 26492 26495 26498 26501 26504 26507 26510 26513 26516 26519 26522 26525 26528 26531 26534 26537 26540 26543 26546 26549 26551 26554 26557 26559 26562 26565 26568 26571 26574 26577 26580 26583 26586 26589 26592 26595 26598 26601 26604 26607 26610 26613 26616 26619 26622 26625 26628 26631 26633 26636 26639 26642 26645 26648 26651 26654 26657 26660 26663 26666 26669 26672 26675 26677 26680 26683 26686 26689 26692 26695 26698 26700 26703 26706 26709 26712 26715 26718 26721 26724 26727 26730 26733 26736 26739 26742 26745 26748 26751 26754 26757 26760 26763 26766 26769 26772 26775 26778 26781 26784 26787 26790 26793 26796 26799 26802 26805 26808 26811 26814 26817 26820 26823 26826 26829 26832 26835 26838 26841 26844 26847 26850 26853 26856 26859 26862 26864 26866 26869 26872 26875 26877 26880 26883 26885 26888 26891 26894 26896 26899 26902 26905 26908 26911 26914 26917 26920 26923 26926 26929 26932 26935 26938 26941 26944 26947 26950 26953 26956 26959 26962 26965 26968 26971 26974 26977 26979 26982 26985 26988 26991 26994 26997 26999 27002 27005 27008 27010 27013 27016 27018 27021 27023 27025 27028 27031 27034 27036 27039 27041 27044 27047 27050 27052 27054 27057 27059 27062 27065 27068 27070 27073 27075 27077 27080 27083 27085 27088 27091 27094 27097 27100 27103 27106 27109 27112 27115 27118 27120 27123 27125 27128 27130 27133 27136 27138 27141 27143 27145 27148 27151 27154 27157 27160 27162 27164 27167 27170 27173 27176 27179 27182 27185 27188 27190 27193 27196 27199 27202 27205 27208 27211 27213 27216 27218 27220 27223 27226 27229 27231 27233 27236 27239 27241 27244 27247 27249 27251 27254 27256 27259 27262 27265 27268 27271 27274 27277 27279 27282 27285 27288 27291 27294 27297 27300 27303 27305 27308 27311 27314 27317 27319 27322 27325 27327 27330 27332 27335 27338 27341 27344 27347 27350 27353 27356 27359 27362 27365 27368 27371 27374 27377 27380 27383 27386 27389 27391 27394 27397 27399 27402 27405 27408 27411 27414 27417 27419 27422 27424 27427 27430 27432 27435 27438 27441 27443 27446 27449 27451 27453 27456 27458 27461 27464 27467 27470 27473 27476 27479 27482 27484 27487 27489 27492 27495 27498 27501 27504 27506 27509 27512 27514 27516 27519 27522 27525 27528 27531 27533 27536 27539 27541 27544 27547 27549 27552 27555 27557 27560 27562 27565 27567 27570 27572 27575 27577 27580 27583 27586 27589 27592 27595 27598 27601 27604 27606 27609 27612 27615 27618 27621 27623 27626 27628 27631 27634 27637 27640 27643 27645 27648 27651 27654 27657 27660 27663 27666 27669 27671 27674 27677 27679 27682 27685 27688 27691 27694 27697 27700 27703 27706 27709 27712 27714 27717 27720 27723 27726 27729 27732 27734 27737 27740 27743 27746 27749 27751 27754 27757 27760 27763 27766 27769 27772 27775 27778 27781 27784 27787 27790 27793 27796 27799 27802 27805 27808 27810 27812 27815 27818 27821 27824 27827 27830 27833 27836 27838 27841 27844 27847 27850 27853 27856 27859 27862 27865 27868 27871 27874 27877 27880 27883 27885 27887 27890 27893 27895 27898 27901 27904 27906 27909 27911 27914 27917 27920 27923 27926 27929 27931 27933 27936 27939 27942 27945 27948 27951 27954 27957 27960 27963 27966 27969 27972 27975 27978 27980 27982 27985 27988 27991 27994 27997 28000 28003 28005 28008 28011 28014 28017 28020 28023 28026 28029 28031 28034 28037 28040 28043 28046 28049 28052 28055 28058 28061 28064 28067 28070 28073 28076 28079 28082 28085 28088 28091 28094 28097 28100 28103 28106 28108 28111 28114 28116 28119 28122 28125 28128 28131 28134 28137 28140 28143 28146 28149 28152 28155 28158 28161 28164 28167 28170 28173 28176 28179 28182 28185 28188 28191 28194 28197 28200 28203 28206 28208 28211 28214 28217 28220 28223 28226 28228 28231 28234 28237 28240 28242 28245 28248 28250 28253 28256 28258 28261 28263 28266 28269 28272 28274 28277 28279 28282 28285 28288 28290 28293 28295 28298 28301 28304 28306 28308 28311 28314 28317 28319 28322 28325 28328 28331 28334 28337 28340 28343 28346 28349 28352 28355 28357 28360 28363 28365 28368 28371 28373 28376 28378 28381 28383 28386 28389 28391 28394 28397 28400 28403 28406 28409 28412 28415 28418 28421 28423 28426 28429 28432 28434 28437 28439 28442 28444 28447 28450 28453 28456 28459 28461 28464 28466 28469 28472 28475 28478 28480 28483 28485 28488 28491 28494 28497 28500 28503 28506 28509 28512 28515 28518 28521 28524 28527 28530 28533 28536 28539 28542 28545 28548 28551 28554 28557 28560 28563 28566 28568 28571 28574 28577 28580 28583 28586 28589 28592 28595 28598 28601 28604 28607 28610 28613 28616 28619 28622 28624 28627 28630 28633 28636 28639 28642 28645 28648 28651 28654 28657 28660 28663 28666 28668 28671 28673 28676 28679 28681 28683 28685 28688 28691 28694 28697 28700 28702 28705 28707 28710 28712 28715 28718 28721 28723 28726 28729 28731 28734 28736 28738 28740 28743 28746 28749 28752 28755 28758 28761 28763 28766 28769 28772 28775 28778 28780 28783 28786 28789 28792 28795 28798 28801 28804 28807 28810 28813 28816 28819 28822 28825 28828 28831 28834 28836 28839 28842 28845 28848 28851 28854 28857 28859 28862 28865 28868 28871 28874 28877 28880 28883 28886 28889 28892 28895 28897 28900 28903 28905 28908 28911 28914 28917 28920 28923 28926 28929 28932 28935 28937 28940 28942 28945 28948 28951 28954 28957 28960 28963 28965 28968 28971 28974 28977 28979 28982 28985 28988 28991 28994 28997 29000 29003 29006 29009 29011 29014 29017 29020 29023 29026 29028 29031 29034 29037 29040 29043 29046 29048 29051 29054 29057 29060 29063 29066 29069 29072 29075 29078 29081 29084 29086 29089 29092 29095 29098 29101 29104 29107 29110 29112 29115 29118 29121 29124 29126 29129 29132 29135 29137 29140 29143 29146 29149 29152 29155 29157 29160 29163 29166 29168 29171 29174 29177 29180 29183 29186 29189 29191 29194 29197 29199 29202 29205 29207 29210 29213 29216 29219 29222 29225 29228 29231 29233 29236 29238 29241 29244 29247 29250 29253 29255 29258 29261 29264 29267 29270 29273 29276 29279 29282 29284 29287 29290 29292 29295 29298 29301 29304 29306 29309 29312 29314 29317 29320 29323 29326 29328 29331 29334 29337 29340 29343 29346 29348 29351 29354 29357 29360 29363 29366 29369 29371 29374 29376 29379 29382 29385 29388 29391 29394 29397 29400 29403 29406 29409 29412 29415 29418 29420 29423 29426 29429 29432 29435 29438 29441 29444 29446 29448 29451 29454 29457 29460 29463 29466 29468 29471 29474 29477 29480 29483 29486 29489 29492 29495 29498 29501 29504 29507 29510 29513 29516 29519 29522 29525 29528 29531 29534 29537 29539 29542 29545 29548 29551 29554 29557 29560 29563 29566 29569 29572 29575 29578 29581 29584 29586 29589 29592 29595 29598 29601 29604 29607 29610 29613 29616 29619 29622 29625 29628 29631 29634 29637 29640 29643 29646 29649 29652 29655 29658 29661 29664 29667 29670 29673 29675 29678 29681 29684 29687 29690 29693 29696 29699 29702 29705 29708 29710 29713 29716 29719 29721 29724 29727 29730 29733 29736 29739 29742 29745 29748 29750 29753 29756 29759 29762 29765 29768 29770 29773 29776 29779 29781 29783 29786 29788 29790 29793 29795 29798 29801 29804 29807 29810 29813 29816 29819 29822 29825 29828 29830 29833 29836 29839 29842 29844 29847 29850 29852 29855 29858 29861 29864 29867 29870 29873 29876 29879 29882 29884 29887 29890 29893 29896 29899 29902 29904 29907 29910 29913 29915 29918 29921 29924 29927 29930 29933 29936 29939 29942 29945 29948 29951 29953 29956 29959 29962 29965 29968 29971 29973 29975 29978 29981 29984 29987 29990 29993 29996 29999 30002 30005 30008 30011 30014 30017 30020 30023 30026 30029 30032 30035 30038 30041 30044 30047 30050 30052 30055 30058 30061 30064 30067 30070 30073 30075 30078 30081 30084 30087 30090 30092 30095 30097 30100 30103 30106 30109 30112 30115 30118 30120 30123 30126 30129 30132 30135 30138 30141 30144 30147 30150 30153 30156 30159 30162 30165 30168 30171 30174 30177 30180 30183 30186 30189 30192 30195 30198 30201 30204 30207 30210 30213 30216 30219 30222 30225 30228 30231 30234 30237 30240 30243 30246 30249 30252 30255 30258 30261 30263 30266 30269 30272 30274 30277 30280 30283 30285 30288 30291 30294 30297 30300 30302 30305 30308 30311 30314 30317 30320 30323 30326 30329 30332 30335 30338 30341 30344 30347 30350 30353 30356 30359 30362 30365 30368 30370 30373 30376 30379 30382 30384 30386 30389 30392 30395 30398 30400 30403 30406 30408 30411 30413 30416 30418 30420 30423 30426 30428 30430 30433 30436 30439 30442 30445 30448 30450 30453 30456 30459 30462 30465 30468 30471 30474 30476 30479 30482 30485 30488 30491 30494 30497 30500 30503 30506 30509 30512 30515 30518 30521 30524 30527 30530 30533 30536 30539 30542 30545 30548 30551 30554 30557 30560 30563 30566 30569 30572 30575 30578 30581 30584 30587 30590 30593 30596 30599 30602 30605 30608 30611 30614 30617 30620 30623 30626 30629 30632 30635 30638 30641 30644 30647 30650 30653 30656 30659 30662 30664 30667 30670 30673 30675 30678 30681 30684 30687 30690 30693 30696 30699 30702 30705 30708 30711 30714 30717 30720 30723 30726 30729 30732 30735 30738 30741 30744 30747 30750 30753 30756 30759 30761 30764 30767 30770 30773 30776 30779 30782 30785 30788 30791 30794 30797 30799 30802 30805 30808 30811 30813 30816 30819 30822 30825 30828 30831 30833 30836 30838 30841 30844 30847 30850 30853 30856 30859 30862 30864 30867 30870 30873 30876 30879 30882 30884 30887 30889 30892 30895 30897 30900 30903 30906 30908 30911 30914 30917 30920 30923 30926 30929 30932 30935 30938 30941 30944 30947 30950 30953 30955 30958 30961 30964 30967 30970 30973 30976 30979 30982 30985 30987 30990 30993 30996 30999 31002 31005 31008 31011 31014 31017 31020 31023 31026 31029 31032 31035 31038 31041 31044 31047 31050 31053 31056 31059 31061 31063 31066 31069 31071 31074 31077 31080 31083 31086 31089 31092 31095 31097 31100 31103 31106 31109 31112 31115 31118 31121 31124 31126 31129 31132 31135 31138 31141 31144 31147 31150 31153 31156 31159 31162 31165 31168 31171 31174 31177 31180 31183 31186 31189 31192 31195 31198 31201 31204 31207 31210 31212 31215 31218 31221 31224 31227 31230 31233 31236 31239 31241 31244 31247 31250 31253 31256 31259 31262 31265 31268 31271 31274 31276 
</DataArray>
<DataArray type="UInt32" Name="types" format="ascii">
5 5 5 5 5 3 5 5 5 5 5 5 5 5 3 5 5 5 5 5 5 3 5 3 5 3 5 3 5 5 5 3 5 5 3 5 5 5 5 5 5 5 3 5 5 5 5 3 3 5 5 5 5 5 5 3 5 5 5 5 5 5 5 5 5 5 5 5 5 5 5 3 5 5 5 5 5 5 5 5 5 5 3 5 5 3 5 5 3 5 3 3 5 3 3 5 5 5 3 5 5 5 5 3 5 5 3 5 5 3 5 5 5 3 5 5 5 5 3 3 5 5 3 5 5 3 5 5 5 5 3 5 5 5 5 5 5 5 5 5 3 3 5 3 5 5 5 5 3 5 3 5 5 3 5 5 5 3 5 5 5 3 3 5 3 5 5 5 5 5 5 5 5 5 5 5 5 5 5 3 5 3 3 3 5 5 5 5 3 5 5 5 3 5 3 3 5 3 3 5 5 5 3 5 5 3 5 5 5 3 5 5 5 5 5 3 5 5 5 5 5 3 3 5 5 5 5 3 5 5 5 5 5 3 5 5 5 3 5 5 5 5 5 3 5 5 5 5 5 3 5 5 5 5 5 5 5 3 5 5 5 3 5 5 5 5 5 5 5 5 5 5 5 3 5 5 5 5 5 3 5 5 5 3 5 5 5 5 3 5 5 5 3 5 5 5 5 5 3 5 5 5 5 5 5 3 5 5 5 5 5 5 5 5 5 3 5 5 5 5 5 5 3 5 5 5 5 3 5 5 5 5 5 5 3 5 5 5 5 5 3 5 5 5 3 5 5 5 5 5 5 5 5 5 5 3 5 5 5 5 5 5 5 5 5 5 5 5 5 5 5 5 5 5 5 5 5 5 5 5 5 5 5 5 5 5 5 3 5 5 3 5 5 5 5 5 5 3 5 5 5 5 5 5 5 5 5 3 5 5 3 5 5 5 5 3 5 5 3 5 5 5 3 5 5 5 3 5 5 5 3 5 5 5 5 3 5 5 3 5 5 3 5 5 5 5 5 3 5 5 5 5 5 5 5 5 3 5 5 5 3 5 5 5 5 5 3 5 5 5 5 5 5 5 5 5 5 5 5 5 5 5 5 5 3 5 5 5 5 5 5 5 5 5 5 5 5 5 5 5 5 5 5 5 5 5 5 5 5 3 5 5 5 5 3 5 5 5 5 5 5 5 3 5 5 5 5 5 3 5 5 5 5 5 5 5 5 5 5 5 5 5 5 5 5 3 5 3 5 5 3 5 3 5 5 5 5 5 5 3 5 5 5 5 5 5 5 3 5 5 3 5 5 3 5 5 5 5 5 3 5 3 5 3 5 5 5 5 3 5 5 5 3 5 3 5 5 5 5 5 3 5 3 5 5 5 5 5 5 5 5 5 5 5 5 5 5 5 3 5 5 5 5 5 5 5 5 5 5 5 5 5 5 5 3 5 5 5 5 5 5 5 5 5 5 5 5 5 5 5 5 5 5 3 5 5 5 5 5 5 5 5 5 3 5 5 3 5 5 5 5 5 5 5 5 5 5 3 5 3 5 5 5 5 5 5 5 5 5 3 5 5 5 5 5 5 5 3 5 5 5 5 5 5 5 3 5 5 5 5 5 3 5 5 5 5 5 5 5 5 5 5 3 5 5 5 5 5 5 5 5 5 5 5 5 3 5 5 5 5 5 5 5 5 5 5 5 5 5 5 5 5 5 5 5 3 3 5 5 5 5 3 3 5 5 5 5 5 5 5 5 5 5 5 5 5 3 5 5 5 5 5 5 5 5 5 5 5 5 5 5 5 5 5 5 5 5 5 5 5 5 5 5 5 5 5 5 5 5 5 5 5 5 5 5 5 5 5 5 5 5 3 5 5 3 5 5 3 5 5 3 5 5 5 5 3 5 3 5 3 5 5 3 5 5 3 5 5 5 5 3 5 5 5 5 5 5 3 5 3 5 5 5 5 5 5 5 3 5 5 5 5 3 5 5 5 5 5 5 3 5 5 5 3 5 5 5 5 5 5 5 5 5 5 5 5 5 5 3 5 5 5 3 3 5 5 5 5 5 5 5 3 5 5 5 5 5 5 3 5 5 3 5 5 5 5 5 3 3 3 5 5 5 5 3 5 5 3 5 3 5 5 5 5 3 5 5 3 5 5 5 5 5 3 5 5 3 5 5 3 5 5 5 3 5 3 5 5 5 5 5 5 5 5 3 5 5 5 3 3 5 5 3 5 5 3 5 5 5 5 5 5 5 5 5 5 5 5 5 5 5 3 5 5 5 5 5 5 5 3 5 5 5 5 5 5 5 5 5 5 5 5 5 5 5 5 5 3 3 5 5 5 5 5 5 5 5 5 5 5 5 5 5 5 5 5 5 5 5 5 3 5 5 5 5 3 5 5 3 5 5 5 5 5 3 5 5 5 5 5 5 5 5 3 5 5 5 5 5 5 5 5 5 5 5 5 5 5 5 5 5 5 5 5 5 3 5 5 5 3 5 5 5 5 5 5 5 5 5 5 5 5 5 5 5 5 5 5 3 5 5 3 5 5 5 5 5 5 5 5 5 5 5 5 5 5 5 5 5 5 5 5 5 5 5 5 5 5 5 5 5 5 5 5 5 5 5 5 5 5 5 5 3 5 5 3 5 5 3 5 5 5 5 5 5 5 3 5 5 5 5 3 5 5 5 3 5 5 5 3 5 5 5 5 5 3 5 3 5 5 5 5 5 5 5 5 5 5 5 5 5 5 5 5 5 5 5 5 5 5 5 5 5 3 5 3 5 5 5 5 5 5 3 5 5 5 5 5 3 5 5 5 5 5 3 5 5 5 5 5 5 5 5 3 5 5 5 5 5 5 5 5 5 3 5 5 3 5 5 5 5 5 5 5 5 3 5 5 5 5 5 3 5 5 5 5 3 5 5 3 5 5 5 3 5 5 5 5 5 5 5 5 5 5 5 5 5 5 3 5 5 5 5 5 5 5 3 5 3 5 5 5 5 5 5 5 5 5 5 3 5 5 3 5 5 5 5 5 5 3 5 5 5 5 5 5 5 3 5 5 5 5 5 5 5 5 5 5 5 5 5 5 5 5 5 5 5 5 5 5 5 5 5 5 5 5 5 5 5 5 3 5 5 5 3 5 5 5 3 5 5 5 5 3 5 5 5 5 5 3 5 5 5 3 5 5 5 5 5 5 5 5 5 5 5 5 5 5 5 5 3 5 5 5 5 5 5 5 5 5 5 3 5 5 3 5 5 5 3 5 5 5 5 5 3 5 5 3 5 3 5 5 3 5 5 3 5 5 3 5 5 5 5 5 5 5 5 5 5 5 5 3 5 5 5 5 5 5 5 5 3 5 5 5 5 5 5 5 5 5 5 3 5 3 5 5 5 3 5 5 5 5 5 5 3 5 5 5 5 5 5 5 5 5 5 5 5 5 5 5 5 5 5 5 5 5 5 5 5 5 5 5 5 5 5 3 5 5 3 5 3 5 5 5 5 3 5 5 5 5 5 5 5 3 5 5 5 5 5 5 5 5 5 5 5 5 5 5 5 5 5 3 5 5 3 5 5 5 5 5 5 5 5 5 5 5 5 5 5 5 5 5 3 5 5 5 5 5 5 5 5 3 5 5 5 5 5 3 5 3 5 5 5 5 5 5 5 5 5 5 5 5 5 5 3 5 5 3 5 5 5 5 5 5 5 5 5 5 5 5 5 5 5 5 5 5 5 3 5 5 5 5 5 3 5 3 3 5 5 3 5 5 3 5 5 5 5 5 5 3 5 5 3 5 3 5 5 5 3 5 5 5 5 5 5 3 5 5 5 5 5 5 3 5 5 5 5 5 5 5 5 5 5 3 5 5 5 5 5 5 5 5 3 5 5 5 5 5 5 5 5 5 5 3 5 5 5 3 5 5 5 5 5 5 5 5 5 5 3 5 5 3 5 5 5 3 5 5 5 5 5 5 5 5 5 3 5 5 5 3 5 5 5 5 5 5 5 3 5 5 5 5 5 3 5 5 5 5 5 5 5 5 5 5 5 5 3 5 5 5 5 3 5 5 5 3 5 5 5 5 5 5 3 5 5 3 5 5 5 5 5 5 5 5 5 5 5 5 5 3 5 5 5 5 5 5 5 5 5 5 5 5 3 5 3 5 5 5 3 5 5 3 5 5 5 5 5 5 5 5 5 5 5 5 5 5 5 5 5 5 5 5 3 5 5 5 5 5 5 5 5 5 5 5 5 5 5 5 5 5 5 5 5 5 5 5 3 5 5 5 3 5 5 5 5 5 5 5 5 3 5 5 5 5 5 5 5 3 5 5 5 5 5 5 5 5 3 5 5 5 5 3 5 5 3 5 5 5 5 5 5 5 5 5 5 5 5 5 5 5 5 5 5 5 5 5 5 5 5 5 5 5 5 5 5 5 5 5 5 5 5 5 5 5 5 5 5 5 5 5 5 3 5 5 5 5 5 5 5 5 3 5 5 3 5 5 5 5 5 5 5 5 5 5 3 5 5 5 5 5 5 5 5 5 5 5 5 5 5 5 5 5 5 5 5 5 5 5 5 5 5 5 5 5 5 5 5 5 5 5 5 5 5 5 5 5 5 5 5 5 5 5 5 5 5 5 5 5 5 5 5 5 5 5 5 5 5 5 5 5 5 5 5 5 5 5 5 5 5 5 5 5 5 5 5 5 5 3 5 5 5 5 3 5 5 5 5 5 5 5 5 5 5 5 5 5 5 5 5 5 5 5 5 5 5 5 5 5 5 3 5 5 5 5 5 5 5 3 5 5 5 5 5 5 5 5 5 5 5 5 5 3 5 3 5 5 5 5 5 5 5 5 5 5 5 5 5 5 3 5 5 5 5 5 5 5 5 5 5 5 5 5 5 5 5 5 5 5 5 5 3 5 5 5 5 3 5 3 5 5 5 5 5 5 3 3 5 5 5 5 5 5 5 3 5 5 5 5 5 5 5 5 5 5 5 5 5 5 5 5 5 3 5 5 5 5 5 3 5 5 5 5 5 5 5 3 5 5 5 5 5 5 5 5 5 5 5 5 5 5 5 5 5 3 5 5 5 5 5 5 5 5 5 5 5 5 5 5 5 5 5 5 5 3 5 5 5 5 5 3 5 5 5 5 5 5 5 5 5 5 5 5 5 5 5 5 5 5 5 5 5 3 5 5 3 5 5 5 5 5 5 5 5 5 5 5 5 5 5 5 5 5 5 5 5 5 5 5 5 5 5 5 5 5 5 5 5 3 5 5 5 5 5 5 5 5 5 5 5 5 5 5 5 5 3 5 5 5 5 5 5 3 5 5 5 5 5 3 5 3 5 5 5 5 3 5 5 5 5 5 5 5 5 5 5 5 5 3 3 5 5 5 5 5 5 3 5 5 5 3 3 5 5 3 5 3 5 3 5 5 5 5 3 5 5 5 3 5 5 5 5 5 5 3 3 5 5 5 5 5 5 5 5 3 5 5 5 5 3 5 3 5 5 5 5 5 5 5 5 5 5 5 5 3 5 5 5 5 5 5 5 3 5 5 5 5 5 5 5 5 5 5 5 5 5 5 5 5 5 5 5 5 3 5 3 5 5 5 5 5 5 5 5 5 5 5 5 5 5 5 5 5 5 5 5 5 5 3 5 3 5 5 5 5 5 5 5 3 5 5 5 5 5 5 3 5 5 5 5 5 5 5 5 3 5 5 5 5 5 5 5 5 5 5 5 5 5 5 5 5 5 5 5 5 5 5 5 5 5 3 5 5 5 3 3 5 5 5 3 5 5 5 3 5 5 5 5 5 5 5 5 5 3 5 5 5 5 5 5 3 5 3 5 5 5 5 3 3 3 5 5 5 5 5 5 5 5 5 5 5 5 5 5 5 3 5 5 5 5 5 5 5 5 3 5 5 5 5 5 5 5 5 5 5 5 3 5 3 5 5 5 5 5 5 5 5 5 5 5 5 5 5 5 5 5 5 3 3 5 5 5 5 5 5 3 5 5 5 5 5 3 5 5 5 5 5 5 5 5 5 5 5 5 3 5 5 5 5 3 5 5 3 5 5 5 5 5 5 5 5 3 5 5 5 5 5 5 5 5 5 5 5 5 5 3 5 5 5 5 3 5 5 5 3 5 3 5 3 5 5 5 5 5 5 5 5 5 5 5 3 5 5 5 5 5 3 5 5 3 5 3 5 5 5 5 3 5 5 5 5 5 5 3 5 5 5 5 5 5 5 5 5 3 5 5 5 5 5 5 3 5 5 5 5 5 5 5 5 5 5 5 5 5 5 3 5 5 5 3 3 5 3 5 3 3 3 5 5 5 5 5 3 5 5 5 5 5 5 5 3 5 3 5 5 5 5 5 5 5 5 5 3 5 5 5 5 5 5 3 5 5 5 3 5 5 5 5 5 5 5 3 5 5 5 5 5 3 3 5 5 5 5 5 5 3 3 5 5 5 5 3 5 5 5 5 3 3 5 3 5 3 5 5 5 5 5 3 5 5 5 5 3 5 5 5 5 5 5 5 3 5 3 5 5 5 5 5 5 5 5 5 5 5 5 5 5 5 5 3 3 5 5 3 5 5 5 5 5 5 3 5 5 3 5 5 3 5 3 5 5 3 5 5 5 5 5 5 5 5 5 5 5 5 5 5 5 5 5 5 5 3 5 3 5 5 5 5 5 5 5 5 5 3 5 5 5 5 3 5 5 5 3 5 5 3 5 5 5 5 3 5 5 5 3 5 3 5 5 5 5 5 5 5 5 5 5 5 5 5 5 3 5 5 5 5 3 3 5 5 5 5 5 5 5 5 5 5 5 5 3 5 5 5 5 5 5 3 5 5 5 5 3 5 5 5 5 5 5 5 5 5 5 5 5 5 5 5 3 5 5 5 5 5 5 5 5 5 5 5 5 5 5 5 5 5 5 5 5 5 5 5 3 5 5 5 5 3 5 5 3 5 3 5 5 3 5 5 5 5 5 3 3 5 5 5 5 5 5 5 3 5 5 5 5 5 5 5 5 3 5 5 5 5 5 5 5 5 5 5 5 5 5 5 5 5 3 5 5 5 5 5 5 5 5 5 5 5 3 3 5 5 5 5 3 5 5 5 3 5 5 5 5 5 5 3 5 3 5 5 3 5 5 5 3 3 5 3 3 5 3 5 5 5 5 3 5 5 5 5 5 5 5 5 5 5 5 5 5 3 3 5 3 5 5 5 5 5 5 5 5 5 5 5 5 5 5 5 5 3 5 5 5 5 3 3 5 5 5 5 5 5 5 5 5 5 5 5 5 5 5 3 5 5 5 5 5 5 5 5 3 5 5 5 5 5 5 5 5 5 3 5 5 5 5 5 5 5 5 5 5 5 5 5 5 3 5 5 5 5 5 5 5 5 5 5 5 3 5 5 5 5 5 5 5 5 5 3 5 5 3 5 5 3 3 5 5 5 3 5 5 5 3 5 5 5 5 5 3 5 5 5 5 5 5 5 5 5 5 5 5 5 3 5 3 5 5 3 3 5 5 5 5 5 3 5 5 5 5 5 5 5 5 5 5 5 3 5 5 5 5 5 5 5 5 5 5 5 5 5 3 3 5 5 5 5 5 5 5 5 5 5 5 5 5 5 5 5 5 5 5 5 3 5 5 3 5 5 5 5 5 5 5 3 5 5 5 5 5 5 5 3 5 5 5 3 3 5 5 3 5 5 5 5 3 3 5 3 5 5 5 5 5 5 5 5 5 5 5 5 5 3 5 5 3 5 5 5 3 5 5 5 5 5 5 5 5 5 5 5 5 5 3 5 5 5 5 5 5 5 5 5 5 5 5 3 5 5 5 5 5 5 5 5 5 5 5 5 3 5 5 3 5 5 5 5 5 5 5 5 5 5 5 5 5 5 5 5 5 3 5 5 3 5 5 3 5 5 3 5 5 5 5 3 3 3 5 3 5 5 5 5 5 5 3 5 5 5 5 5 5 5 5 5 5 5 5 5 5 5 5 5 5 5 5 5 5 5 5 3 5 5 5 5 3 5 5 5 5 5 5 5 5 5 3 3 5 5 5 5 5 5 5 5 5 3 5 5 5 5 5 5 3 5 3 5 5 3 5 5 5 3 3 5 5 3 3 5 5 5 5 5 5 3 5 5 5 5 3 5 5 5 5 5 5 5 5 5 5 5 5 3 5 5 3 5 5 5 5 5 3 3 5 5 5 3 5 5 5 5 5 5 5 5 5 3 5 5 5 5 5 5 5 5 5 5 5 5 5 5 5 5 5 5 5 5 5 3 5 5 5 5 5 5 5 5 5 3 5 5 5 5 5 5 5 5 3 5 5 5 5 5 5 3 5 5 5 5 5 5 5 5 5 5 5 5 3 5 5 5 3 5 5 5 5 5 5 5 5 5 5 5 5 3 5 5 5 5 5 5 5 5 5 5 3 5 5 5 5 5 5 5 5 5 5 5 3 5 5 5 3 5 5 5 5 5 5 5 5 5 5 5 3 5 5 5 3 5 5 3 5 5 5 5 5 5 5 5 5 5 5 5 5 3 5 5 3 5 5 3 5 5 3 3 5 5 5 3 5 5 3 5 5 5 5 3 5 5 5 5 5 5 5 5 5 5 5 5 5 3 5 5 5 5 3 5 5 5 5 5 3 5 5 5 3 5 5 5 5 5 5 5 5 3 5 5 5 5 5 5 3 5 5 5 5 5 3 5 3 5 5 5 3 3 5 5 5 5 5 5 3 5 5 5 5 5 5 5 5 5 3 5 5 5 3 5 5 3 5 3 5 5 5 5 5 5 5 3 5 5 5 5 3 5 5 5 5 5 5 3 5 5 5 5 5 5 5 5 5 5 5 5 3 5 5 5 5 3 5 3 5 5 5 5 5 3 5 5 5 3 5 5 5 5 3 5 5 5 5 5 5 5 5 5 5 5 5 5 5 5 5 5 5 5 5 5 5 5 5 5 5 5 5 5 5 3 5 5 5 5 5 5 5 5 5 5 5 5 5 5 5 5 5 5 5 5 5 5 5 5 5 5 5 5 5 5 5 5 5 5 5 5 5 5 5 5 5 5 5 5 5 5 5 5 5 5 5 5 5 5 5 5 5 5 5 5 5 5 5 5 5 5 5 3 5 5 5 5 5 5 5 5 5 5 5 5 5 5 5 5 5 5 5 5 5 5 5 5 3 5 5 5 5 5 5 5 5 5 5 3 5 5 5 5 5 5 5 3 3 5 5 5 5 5 5 5 5 5 5 5 5 5 5 5 5 5 5 5 5 5 5 5 5 5 5 5 5 5 5 5 3 5 5 5 5 5 5 5 5 5 5 3 3 5 3 5 5 5 5 5 5 3 5 5 5 5 5 3 5 5 5 5 5 3 5 5 5 5 3 5 5 5 5 5 5 5 5 5 5 5 5 5 5 5 5 5 5 5 3 5 5 5 5 5 5 5 5 5 3 5 5 5 5 5 5 5 5 5 5 3 5 5 5 3 5 5 5 3 5 5 3 3 5 5 5 5 3 5 5 5 5 5 5 5 5 3 5 5 5 5 5 5 5 5 5 5 5 5 5 5 5 5 5 5 5 5 5 5 5 5 5 5 5 5 5 5 5 5 5 3 5 5 3 5 3 5 3 5 5 5 3 3 3 5 5 5 3 5 5 5 5 5 5 5 5 5 5 5 5 5 5 3 5 5 5 5 5 5 5 5 5 5 5 5 5 5 5 3 5 5 3 3 5 5 5 3 5 5 3 5 3 5 3 5 5 5 5 5 5 5 5 3 5 5 3 5 5 5 3 5 3 5 5 5 5 5 5 5 5 5 5 5 5 5 5 5 5 5 5 5 5 5 5 5 5 5 5 5 5 5 5 5 5 5 5 5 5 5 5 5 5 5 5 5 5 5 3 5 5 5 5 5 5 3 3 5 5 5 5 5 3 5 3 3 5 3 3 5 3 5 3 5 5 5 5 5 5 5 5 5 3 5 5 5 5 5 5 3 5 5 5 5 5 5 5 5 5 5 5 3 3 5 5 5 5 5 5 3 3 5 5 3 5 5 5 5 5 5 5 5 3 5 5 5 5 5 5 5 5 5 5 5 5 5 5 5 5 5 5 5 5 3 5 3 5 5 3 5 5 5 5 3 3 3 5 5 5 3 3 5 5 3 5 5 5 3 5 3 5 5 3 5 3 3 5 3 5 5 5 5 5 3 3 5 5 5 5 5 5 5 3 5 5 5 5 5 3 5 5 5 3 5 5 5 5 3 5 3 5 3 5 5 3 3 5 5 5 3 5 3 5 5 5 5 5 5 5 5 5 5 5 5 5 5 5 5 5 5 5 5 3 5 5 5 5 5 5 5 5 5 3 5 5 5 5 3 5 5 5 5 3 5 5 5 5 5 5 5 5 5 5 3 5 5 5 5 3 5 5 5 5 5 5 5 5 5 5 5 5 5 5 5 5 5 5 5 3 5 5 3 5 5 3 5 5 5 3 3 5 5 5 5 5 5 5 5 3 5 5 5 5 5 5 5 5 5 5 5 5 5 5 5 5 5 5 5 5 3 5 5 5 5 5 5 5 5 5 5 5 5 5 5 5 5 5 5 5 5 5 5 5 5 5 5 3 5 5 5 5 5 5 5 5 5 3 5 5 3 5 3 3 5 5 5 5 5 5 3 5 5 5 5 5 5 5 5 5 5 5 5 5 5 5 5 5 5 5 5 5 5 5 5 5 5 5 5 5 5 5 5 5 5 5 3 5 5 5 5 5 5 5 5 5 5 5 5 5 5 5 5 5 5 5 5 5 5 5 5 5 5 5 5 5 3 5 5 5 5 5 5 5 3 5 5 3 5 5 5 5 5 3 5 3 5 5 3 5 5 5 5 5 5 5 5 5 5 5 5 5 5 5 5 5 5 5 5 5 5 5 5 5 5 5 5 5 5 5 5 5 5 5 5 5 5 5 3 5 3 5 5 5 5 5 5 5 3 3 5 5 5 3 5 5 5 5 5 5 5 5 5 5 3 5 5 3 5 5 3 5 5 5 5 5 5 5 3 5 5 5 5 5 5 5 3 5 5 5 5 5 5 5 5 5 5 5 3 5 5 5 5 5 3 5 5 5 5 5 5 3 5 5 5 5 3 5 3 5 5 5 3 3 5 3 5 5 5 5 5 5 3 5 5 5 5 5 5 5 5 3 5 5 3 5 5 5 3 5 5 3 5 5 3 5 5 5 5 3 5 5 5 3 5 5 5 5 3 5 5 5 5 5 5 5 5 5 5 5 5 5 5 5 3 5 5 5 5 5 3 5 5 5 5 5 5 5 5 5 5 5 5 5 5 5 5 5 3 5 5 3 5 5 5 5 5 5 3 5 5 5 5 5 5 5 5 5 5 5 5 5 5 5 5 5 3 5 5 5 5 5 5 5 5 5 3 5 3 5 5 3 5 5 5 3 3 5 5 5 5 5 5 5 5 3 5 5 5 3 5 3 3 5 5 3 5 5 5 5 5 5 5 5 3 5 5 5 3 3 3 5 3 5 5 3 5 5 3 5 3 5 5 5 5 5 5 5 5 5 5 5 5 5 5 5 5 5 5 5 5 5 5 5 5 5 5 5 5 5 5 5 5 5 5 5 5 5 5 5 5 5 5 5 5 5 5 5 5 5 5 5 5 3 5 5 3 5 5 5 5 5 5 5 5 3 5 5 3 5 5 5 3 5 5 5 5 5 5 5 5 5 5 5 5 5 5 5 5 5 5 5 5 3 5 3 5 3 5 5 5 3 5 5 3 5 5 5 5 5 5 5 5 5 5 5 5 5 5 5 5 5 5 5 5 5 3 5 5 3 5 5 3 5 5 5 5 5 5 5 3 5 5 5 5 5 3 5 5 5 3 5 5 3 5 5 5 5 5 5 5 5 5 5 5 5 5 5 5 5 5 5 5 5 5 5 5 5 5 5 5 5 5 5 5 5 3 5 5 3 5 5 5 3 3 5 3 5 3 5 5 5 3 5 5 5 5 5 3 5 5 5 5 5 5 5 5 5 5 3 5 5 5 5 5 3 5 5 5 5 3 5 5 5 5 5 5 5 5 5 5 5 5 3 5 5 5 5 5 5 5 3 5 5 5 5 5 5 5 5 5 5 5 5 5 5 5 5 5 5 5 3 5 5 5 5 5 5 3 5 5 5 5 5 5 5 5 5 5 5 5 3 5 5 5 5 5 5 5 5 5 3 5 3 5 5 5 5 5 5 5 5 5 3 5 3 5 5 5 5 5 5 5 5 5 3 5 5 5 5 5 5 5 3 5 5 5 3 5 5 5 5 5 5 3 5 5 5 5 5 5 3 5 5 5 5 3 5 5 5 3 5 5 5 3 5 5 5 3 5 5 5 5 5 3 3 5 5 5 5 5 5 5 5 5 5 5 5 5 3 5 5 5 5 3 5 5 5 5 5 5 5 5 5 5 5 5 5 5 5 5 5 5 5 3 5 3 5 5 5 5 5 5 5 5 5 5 5 5 3 5 5 5 5 5 3 5 5 5 5 5 5 5 3 5 5 5 3 3 5 5 5 5 5 5 5 5 5 5 3 5 5 5 5 5 5 3 5 5 5 5 5 5 5 5 5 5 5 5 3 5 5 3 5 5 5 5 3 5 5 5 5 5 3 3 5 5 3 5 5 5 5 5 3 5 3 5 3 3 5 3 5 5 3 5 5 5 5 5 5 5 3 3 5 3 5 3 5 5 5 5 5 5 5 5 5 5 5 3 5 5 5 5 5 5 5 5 5 5 5 5 5 5 5 3 5 5 5 5 5 5 5 5 3 5 5 5 5 5 5 5 5 5 5 5 5 5 5 5 5 3 5 5 5 5 5 5 5 5 5 5 5 5 5 3 5 3 5 5 5 5 5 5 5 5 5 5 5 5 5 5 5 5 5 5 5 3 5 5 5 3 5 5 5 5 5 5 5 5 5 5 5 5 5 5 5 5 5 5 5 5 5 5 5 5 5 5 5 3 5 5 5 5 5 5 5 5 3 5 5 5 5 5 5 5 5 3 3 5 5 5 5 5 5 5 5 5 5 5 5 5 5 5 5 5 5 5 5 5 5 5 5 5 5 5 5 5 5 3 5 5 5 5 5 5 5 5 5 5 5 3 3 5 5 5 3 3 5 5 5 3 5 5 5 3 5 5 5 5 5 3 5 5 3 5 5 5 5 5 5 5 5 5 5 5 5 5 5 5 5 5 5 5 5 5 5 5 5 5 5 5 5 5 5 3 5 5 5 5 5 5 5 5 5 5 5 5 5 5 3 5 5 5 5 5 5 5 5 5 5 5 5 5 5 5 5 5 5 5 5 5 3 5 5 5 5 5 5 5 5 3 5 3 5 5 3 3 5 5 3 5 5 5 3 3 5 3 5 3 5 5 3 5 5 5 5 3 5 5 5 5 5 5 5 5 3 5 5 5 5 5 5 5 5 5 5 5 5 5 5 5 5 5 5 5 5 5 5 5 3 5 5 5 5 5 5 5 5 5 5 5 5 5 5 5 5 3 5 5 5 5 5 5 5 5 5 3 3 5 5 5 3 5 5 5 5 5 5 5 5 3 5 5 5 5 5 5 5 5 5 5 5 3 5 3 5 5 5 5 5 5 5 5 5 5 5 3 5 5 5 5 5 5 3 5 5 5 5 5 5 5 5 5 5 5 5 5 5 5 5 5 5 5 5 5 5 5 5 5 5 5 5 5 5 5 5 5 5 5 5 5 3 3 5 5 5 3 5 5 5 5 5 5 5 5 5 5 5 5 5 5 5 5 5 5 5 5 5 5 5 5 5 5 5 5 5 5 5 5 5 5 5 5 5 5 3 5 5 5 5 5 3 5 5 5 5 5 3 5 3 5 5 3 5 5 5 5 5 5 5 3 5 5 5 5 5 5 5 5 5 5 5 5 5 5 5 5 5 5 5 5 5 5 5 5 5 5 5 3 5 5 3 5 5 3 5 5 5 5 3 5 5 5 5 5 5 5 5 5 5 5 5 5 5 5 5 5 5 5 5 5 5 5 3 5 5 3 5 5 5 5 5 5 5 5 5 5 5 5 5 5 5 3 5 5 5 5 5 5 3 5 3 5 5 5 5 5 5 5 5 5 5 5 5 5 5 5 5 5 5 5 5 5 3 5 5 5 3 3 5 5 5 5 3 5 5 5 3 5 5 5 5 5 5 3 5 3 5 5 5 5 3 5 5 5 5 3 5 5 5 5 3 5 5 3 5 5 5 5 5 5 5 5 5 5 5 5 5 5 5 5 5 5 5 5 5 3 5 5 3 5 5 5 5 5 5 5 5 5 5 5 5 5 5 5 5 5 5 5 5 5 5 5 5 5 5 5 5 5 5 5 5 5 5 5 5 5 5 5 5 5 5 5 5 5 5 5 5 5 5 5 5 5 5 5 5 5 5 5 3 5 5 5 5 5 5 5 5 5 5 5 5 5 5 3 5 5 5 5 5 5 5 5 5 5 3 5 5 5 5 5 5 5 5 5 5 5 5 5 5 5 5 5 3 5 5 5 3 5 5 5 5 5 5 5 5 3 5 5 5 5 5 3 5 5 5 5 5 5 5 5 3 5 5 5 5 5 5 3 5 5 5 5 5 5 5 5 5 5 5 5 3 5 5 3 3 5 3 5 5 5 5 5 3 5 5 5 5 5 5 5 5 3 3 5 3 5 5 5 5 5 5 5 5 5 3 5 5 5 5 5 5 5 5 5 5 5 5 5 5 5 5 5 3 5 5 5 5 3 5 5 5 3 5 5 5 3 5 5 5 5 5 5 5 5 3 5 5 5 5 3 5 5 5 5 5 5 5 5 5 3 5 5 5 5 5 5 5 5 5 5 5 5 5 5 5 5 5 5 5 5 5 5 5 5 5 5 3 3 5 5 5 5 5 5 5 5 5 5 5 5 5 3 5 5 5 5 5 5 3 5 5 5 5 5 5 5 5 5 5 5 5 5 5 5 5 3 5 5 5 5 5 5 5 5 5 5 5 5 5 5 5 5 5 5 5 5 5 5 5 5 5 5 5 5 5 5 5 5 3 5 5 5 5 5 5 5 5 5 5 5 5 5 5 5 5 5 5 5 5 5 5 5 5 5 5 5 5 5 5 5 5 5 5 5 5 5 5 5 5 5 5 5 5 5 5 5 5 5 5 5 5 5 5 5 5 5 5 5 5 5 5 5 3 5 5 5 5 5 5 5 5 5 5 3 5 5 5 5 5 5 5 5 3 5 3 5 3 3 5 5 5 5 3 5 5 5 5 3 5 5 5 5 5 5 3 5 5 5 5 5 5 5 5 5 5 5 5 5 5 3 5 5 3 5 5 5 5 5 5 5 5 5 5 5 5 5 5 5 5 5 5 5 5 5 5 5 5 5 5 5 5 5 5 5 5 5 5 5 3 5 3 5 5 5 5 5 5 3 5 5 5 5 5 5 5 5 5 5 5 5 5 5 5 5 5 5 5 5 3 5 5 5 5 5 5 5 5 5 5 5 5 5 5 5 5 5 5 3 3 5 5 5 5 5 5 3 5 5 5 5 5 5 5 5 5 5 5 5 5 5 5 5 5 3 5 5 5 5 5 5 5 5 5 5 5 5 5 5 5 5 5 5 5 5 5 5 3 5 3 3 5 5 5 3 3 5 3 3 5 5 5 3 5 5 3 5 5 5 5 5 5 5 5 5 5 5 5 5 3 5 5 5 3 5 5 3 5 5 5 3 5 5 5 3 5 3 5 5 3 5 5 3 5 5 3 5 5 5 5 5 5 5 5 5 5 5 5 5 3 3 5 5 5 5 3 3 5 5 3 5 5 5 5 5 5 5 5 5 5 5 5 5 5 5 5 5 5 5 5 5 5 5 5 3 5 5 3 5 5 3 5 5 3 5 5 5 3 5 5 5 5 5 5 5 5 5 5 5 5 5 5 3 5 5 5 5 5 5 5 5 5 5 5 5 5 5 5 5 5 5 5 5 5 5 5 5 5 5 5 5 5 5 5 5 5 5 5 5 5 5 5 5 5 5 5 5 5 5 5 5 5 5 5 5 5 5 5 3 5 5 5 5 3 3 5 5 5 5 3 5 5 5 5 3 3 5 5 5 5 5 3 5 5 5 3 5 5 5 5 5 3 5 5 5 5 5 3 5 5 5 5 5 5 5 5 3 5 3 5 5 5 5 5 5 5 3 3 5 5 5 5 3 5 3 5 5 5 5 5 5 5 5 3 5 5 5 3 5 5 5 3 3 5 5 5 5 5 3 5 5 3 5 3 5 5 5 5 3 5 3 3 5 3 3 5 5 5 5 5 5 5 5 5 5 5 5 5 5 5 5 3 5 5 5 3 5 5 5 5 5 5 5 5 5 5 5 5 3 5 5 5 5 5 5 5 5 5 5 5 5 5 3 5 5 5 3 5 5 5 5 5 5 5 5 5 5 5 5 5 5 5 3 5 5 5 3 5 5 5 5 5 5 5 5 5 5 5 5 5 5 5 5 5 5 5 5 5 5 5 5 5 5 5 5 5 5 5 5 5 5 5 5 5 5 5 5 5 3 5 3 5 5 5 5 3 5 3 5 3 5 5 5 5 5 5 5 5 5 5 5 5 5 3 5 5 5 5 5 5 5 3 5 5 3 5 3 5 5 5 5 3 5 5 3 3 3 5 5 5 5 5 5 5 5 5 5 5 5 5 5 5 5 5 5 5 5 5 5 5 5 3 5 5 5 5 5 5 5 3 5 5 3 3 5 5 5 5 5 5 5 5 5 5 5 5 5 5 5 5 5 5 5 5 5 5 5 5 5 5 5 5 3 5 5 5 5 5 3 5 5 5 3 5 5 5 5 5 5 5 5 5 3 3 5 5 5 5 5 5 5 5 5 5 3 5 5 5 5 5 5 5 5 5 3 5 5 5 5 5 5 5 5 5 5 5 5 5 5 5 5 5 3 5 3 5 5 5 5 5 5 5 5 5 5 5 5 5 5 5 5 5 5 5 5 5 5 5 5 5 5 5 5 5 5 5 5 5 5 5 5 5 3 5 3 5 5 5 5 5 5 5 5 5 3 5 5 5 3 5 5 3 5 3 5 5 3 5 5 5 5 5 3 5 5 5 5 5 5 5 5 3 5 3 5 3 5 5 5 5 5 5 5 5 5 5 5 5 3 5 5 5 3 5 5 5 3 5 3 5 5 5 5 5 3 5 3 5 5 5 3 5 5 3 5 5 5 5 5 5 5 5 5 3 5 5 3 5 5 5 5 5 5 5 5 5 5 5 5 3 5 5 3 5 3 5 5 5 5 5 3 5 5 5 3 3 5 5 5 5 5 5 3 5 5 5 5 3 5 5 5 5 3 3 5 5 3 5 5 5 3 5 5 5 5 5 5 3 5 5 3 5 3 5 3 5 5 5 5 5 5 5 5 5 5 5 5 5 5 5 5 5 5 3 5 5 5 5 5 5 5 5 5 5 5 5 5 5 5 5 5 5 5 5 5 5 3 5 5 3 5 5 5 5 5 5 5 5 5 5 3 5 5 3 5 5 5 3 5 5 5 5 3 3 5 5 5 3 5 3 3 5 5 3 5 5 5 5 3 5 3 5 5 5 5 5 3 5 5 3 5 5 5 5 5 5 5 5 5 5 5 5 5 5 5 3 5 5 5 5 5 5 5 5 5 5 5 5 5 5 5 5 5 5 5 3 5 5 5 3 5 5 5 5 5 5 5 5 5 5 5 3 5 3 5 5 5 5 3 5 5 5 5 3 5 5 5 5 5 5 5 5 3 5 5 3 5 5 5 5 5 5 5 5 5 5 5 5 5 5 5 5 5 5 5 5 5 5 5 5 3 5 5 3 5 5 3 5 5 5 3 5 5 5 5 5 5 5 5 5 5 3 5 5 5 5 5 3 5 5 5 5 5 5 5 3 5 5 5 5 5 5 5 5 5 5 5 3 3 3 5 3 5 5 5 3 5 5 5 3 5 5 5 5 3 5 5 5 5 5 5 3 5 5 5 5 5 3 5 5 5 5 5 5 5 5 5 5 5 5 3 5 5 5 5 5 5 5 5 5 5 5 5 5 5 3 5 5 5 5 5 5 5 5 5 3 5 5 5 5 3 5 5 5 5 5 5 5 5 3 3 5 5 5 5 3 5 5 5 5 5 5 5 5 5 5 5 5 5 5 5 5 5 5 5 5 5 5 5 5 5 5 5 5 5 5 5 3 5 5 5 5 5 5 5 5 5 5 5 5 5 3 5 5 5 5 5 5 5 3 5 5 5 5 5 5 3 5 5 3 5 5 5 5 3 5 5 5 5 5 5 3 5 5 5 5 5 5 5 5 5 5 5 5 5 5 5 5 5 5 5 5 5 5 5 5 5 5 5 5 5 5 5 5 5 5 5 5 5 5 3 5 5 3 5 3 5 3 5 5 5 5 5 3 5 5 5 5 5 5 5 5 3 5 5 5 5 5 3 5 5 5 5 5 3 5 5 5 3 5 5 5 3 5 5 5 5 5 5 5 5 5 5 5 5 5 5 5 5 5 5 5 3 5 5 5 5 5 5 5 5 5 3 5 5 3 5 5 5 5 5 5 3 5 5 5 5 5 5 5 5 5 5 5 5 5 5 5 5 5 5 5 5 5 5 5 5 5 5 5 5 5 5 5 5 5 5 5 5 5 5 5 5 5 5 5 5 5 5 5 5 5 5 5 5 5 5 5 5 5 5 5 5 5 5 5 5 5 5 5 5 5 5 5 5 5 5 5 5 5 5 5 5 5 5 5 5 5 5 5 5 5 5 5 5 5 5 5 5 5 5 5 5 5 5 5 5 5 5 5 5 5 5 5 5 5 5 5 5 5 5 5 5 5 5 5 5 5 5 5 5 5 5 5 5 5 5 5 5 5 5 5 5 5 5 5 5 3 5 5 5 5 5 5 5 5 5 5 3 5 5 5 5 5 5 5 5 5 5 5 5 3 5 5 3 3 5 5 3 5 5 5 5 3 5 3 5 5 5 5 3 5 3 3 5 5 5 3 5 5 5 5 3 5 5 5 5 5 5 5 5 5 5 5 5 3 5 5 5 5 5 5 5 5 5 5 5 3 3 5 5 5 5 5 5 5 5 5 5 3 5 5 5 5 5 3 5 5 5 5 3 5 5 5 5 3 5 5 5 5 5 3 5 3 5 5 3 5 5 5 5 3 5 5 5 5 5 5 5 3 5 5 5 5 5 5 5 5 5 3 5 5 5 5 5 5 5 5 5 5 5 5 5 5 5 5 5 5 5 5 5 5 5 5 5 5 5 5 5 5 5 5 5 5 5 5 5 5 5 5 5 5 5 5 5 5 5 5 5 5 5 5 5 5 5 5 5 5 5 3 5 5 5 3 5 5 5 5 5 5 5 5 5 3 5 3 5 5 5 5 5 5 5 5 5 5 3 5 5 5 5 5 5 5 5 5 3 5 5 5 5 5 3 5 3 5 5 5 5 5 3 5 5 5 5 5 5 5 5 5 5 3 5 3 5 5 3 5 3 5 3 3 5 5 5 5 5 5 5 5 5 3 5 5 5 5 5 5 5 3 5 5 5 5 5 5 3 5 5 5 5 5 3 5 3 3 5 5 3 5 5 5 5 5 5 5 5 3 5 5 5 5 5 5 5 5 5 5 3 5 5 5 3 5 5 5 5 5 5 5 5 5 5 5 5 5 5 5 5 5 5 5 5 5 5 5 5 5 5 5 5 5 5 5 5 5 5 5 5 5 5 5 5 5 5 5 5 5 5 5 5 5 5 5 3 5 5 5 3 5 5 5 5 5 3 5 3 5 5 3 5 3 5 5 5 5 5 5 5 3 3 5 5 5 5 5 5 5 5 5 5 5 5 5 5 5 5 5 3 5 5 5 3 5 3 3 3 5 5 3 5 3 5 5 5 5 5 3 3 5 5 5 5 5 5 5 5 5 5 5 5 5 5 5 5 3 5 3 5 5 5 5 3 5 3 5 5 5 5 5 5 3 5 3 5 3 3 5 3 5 5 3 5 3 5 5 5 3 5 5 5 5 5 3 5 5 5 5 5 5 5 5 5 3 5 5 5 5 5 5 3 3 5 3 5 5 3 5 5 5 3 5 5 5 5 3 5 5 5 5 5 5 5 5 5 3 5 5 5 3 3 5 3 5 5 5 5 5 5 5 5 5 5 5 5 3 5 3 5 5 5 5 5 5 5 5 5 3 3 5 5 5 5 5 5 5 5 5 5 3 3 5 5 5 5 5 5 3 5 5 5 5 5 5 5 5 5 3 5 3 5 5 5 5 5 5 3 5 5 3 3 5 5 5 5 5 5 3 5 3 5 5 5 5 3 5 3 5 5 5 5 3 5 5 3 5 5 5 5 5 3 3 5 5 5 5 5 3 5 5 5 5 3 5 5 5 3 3 5 5 5 5 5 5 3 5 5 5 5 5 5 3 5 5 5 3 5 3 5 5 5 5 5 5 5 5 5 5 5 5 5 5 5 5 3 5 3 5 5 5 3 5 5 5 5 5 3 5 5 5 5 5 3 5 5 3 5 5 3 5 5 5 5 5 5 3 5 5 5 3 5 5 5 5 5 5 5 5 5 5 5 5 3 5 3 5 5 5 5 5 5 5 5 5 5 5 5 5 5 5 5 5 5 5 5 5 5 5 5 5 5 5 5 5 5 5 5 5 5 5 5 5 5 5 5 5 5 5 5 5 5 5 3 5 5 5 5 3 5 5 5 5 5 5 5 3 5 5 5 5 3 5 5 5 5 5 5 5 5 5 5 5 5 5 5 3 5 5 5 5 5 5 5 3 5 5 5 5 5 5 5 5 5 5 5 5 5 5 5 5 5 5 5 5 5 5 5 5 3 5 5 3 5 5 5 5 5 5 5 5 5 5 5 5 5 5 5 5 5 5 5 5 5 5 5 5 3 5 5 5 5 5 5 5 5 5 5 5 5 5 5 3 5 5 5 5 5 5 5 3 5 5 5 5 5 5 5 5 5 5 5 5 5 5 5 5 5 5 5 5 5 5 5 5 5 5 5 5 5 5 5 5 5 5 5 5 5 5 5 5 5 5 5 5 5 5 5 5 5 5 5 5 5 5 3 3 5 5 5 3 5 5 3 5 5 5 3 5 5 5 5 5 5 5 5 5 5 5 5 5 5 5 5 5 5 5 5 5 5 5 5 5 5 5 3 5 5 5 5 5 5 3 5 5 5 3 5 5 3 5 3 3 5 5 5 3 5 3 5 5 5 3 3 5 3 5 5 5 3 5 3 3 5 5 3 5 5 5 5 5 5 5 5 5 5 5 3 5 3 5 3 5 5 3 5 3 3 5 5 5 5 5 3 3 5 5 5 5 5 5 5 5 3 5 5 5 5 5 5 5 3 5 3 3 5 5 5 3 3 5 5 3 5 5 3 3 5 3 5 5 5 5 5 5 5 3 5 5 5 5 5 5 5 5 3 5 5 5 5 3 5 5 3 5 3 5 5 5 5 5 5 5 5 5 5 5 5 5 5 5 5 5 5 5 3 5 5 3 5 5 5 5 5 5 3 5 3 5 5 3 5 5 5 3 5 5 3 3 5 3 5 5 5 5 5 5 5 5 3 5 3 5 5 5 5 5 3 5 5 3 3 5 5 5 5 5 3 5 5 3 5 5 3 5 5 3 5 3 5 3 5 3 5 3 5 5 5 5 5 5 5 5 5 3 5 5 5 5 5 3 5 3 5 5 5 5 5 3 5 5 5 5 5 5 5 5 3 5 5 3 5 5 5 5 5 5 5 5 5 5 5 3 5 5 5 5 5 5 3 5 5 5 5 5 3 5 5 5 5 5 5 5 5 5 5 5 5 5 5 5 5 5 5 5 3 3 5 5 5 5 5 5 5 5 3 5 5 5 5 5 5 5 5 5 5 5 5 5 5 5 3 3 5 5 3 5 5 5 3 5 3 5 5 5 5 5 5 3 3 5 5 5 5 5 5 5 5 5 5 5 5 5 5 5 3 3 5 5 5 5 5 5 5 3 5 5 5 5 5 5 5 5 3 5 5 5 5 5 5 5 5 5 5 5 5 5 5 5 5 5 5 5 5 5 5 5 5 5 3 5 5 3 5 5 5 5 5 5 5 5 5 5 5 5 5 5 5 5 5 5 5 5 5 5 5 5 5 5 5 5 5 5 3 5 5 5 5 5 5 3 5 5 5 5 3 5 5 3 5 5 3 5 3 5 5 5 3 5 3 5 5 5 3 5 3 5 5 5 3 3 5 5 5 3 5 5 5 5 5 5 5 5 5 5 5 5 3 5 5 3 5 5 3 5 3 5 3 5 5 3 5 5 5 5 5 5 5 5 5 5 3 5 5 5 3 5 3 5 3 5 5 5 5 5 3 5 3 5 5 5 5 3 5 3 5 5 5 5 5 5 5 5 5 5 5 5 5 5 5 5 5 5 5 5 5 5 5 5 5 5 5 3 5 5 5 5 5 5 5 5 5 5 5 5 5 5 5 5 5 5 3 5 5 5 5 5 5 5 5 5 5 5 5 5 5 3 5 3 5 5 3 3 3 5 5 5 5 5 3 5 3 5 3 5 5 5 3 5 5 3 5 3 3 3 5 5 5 5 5 5 5 3 5 5 5 5 5 3 5 5 5 5 5 5 5 5 5 5 5 5 5 5 5 5 5 5 3 5 5 5 5 5 5 5 3 5 5 5 5 5 5 5 5 5 5 5 5 3 5 5 3 5 5 5 5 5 5 5 5 5 5 3 5 3 5 5 5 5 5 5 5 3 5 5 5 5 3 5 5 5 5 5 5 5 5 5 5 3 5 5 5 5 5 3 5 5 5 5 5 5 3 5 5 5 5 5 5 5 5 5 5 5 5 3 5 5 5 5 5 5 5 5 3 5 5 5 5 3 5 5 5 3 5 5 5 5 5 5 3 5 5 5 3 5 5 5 5 5 5 5 3 5 5 3 5 5 3 5 5 5 5 5 5 5 5 3 5 3 5 5 5 5 5 3 5 5 5 5 5 5 5 5 5 3 5 5 3 5 5 5 5 3 5 5 3 5 5 5 5 3 5 5 5 5 5 5 3 5 5 5 5 5 5 5 3 5 3 5 5 5 5 5 5 5 5 5 5 5 5 5 5 3 5 5 5 5 5 5 5 5 3 3 5 5 5 5 5 5 3 5 5 5 5 5 5 5 5 5 5 5 5 5 5 5 5 5 5 5 5 5 5 5 3 5 5 5 5 5 5 5 5 5 5 5 5 5 5 5 3 5 5 5 5 5 5 5 5 5 5 5 5 5 5 5 5 5 5 5 5 5 5 5 5 5 5 5 5 5 3 5 5 5 5 5 5 5 5 5 5 5 3 5 5 5 3 5 5 5 5 5 5 5 5 5 3 5 5 5 5 5 5 3 5 5 5 3 3 5 3 3 5 3 5 5 5 5 5 5 5 5 5 5 5 3 5 5 5 5 3 5 5 3 5 5 5 5 5 5 5 5 5 5 3 5 5 5 5 5 5 3 5 5 5 3 5 5 5 5 5 5 5 5 5 5 5 5 3 5 5 5 5 5 5 3 3 5 5 5 5 5 5 5 5 5 5 5 5 5 5 5 5 5 5 5 5 5 5 5 5 5 3 5 5 5 5 5 5 5 3 5 5 5 5 5 3 5 3 5 5 5 5 5 5 5 3 5 5 5 5 5 5 5 5 5 5 5 5 5 5 5 5 5 5 5 5 5 5 5 5 5 5 5 5 5 5 5 5 5 5 5 5 5 5 5 5 5 5 5 5 5 5 5 3 5 5 5 3 5 5 5 3 5 5 5 5 5 3 5 5 5 5 5 5 5 5 5 5 5 5 5 5 5 5 5 5 5 5 5 5 3 5 5 5 5 3 3 5 5 5 5 3 5 5 3 5 3 5 3 3 5 5 3 3 5 5 5 5 5 5 3 5 5 5 5 5 5 5 5 3 5 5 5 5 5 5 5 5 5 5 5 5 5 5 5 5 5 5 5 5 5 5 5 5 5 5 5 5 5 5 5 5 5 5 5 5 5 5 5 5 5 5 5 5 5 5 5 5 5 5 5 5 5 5 5 5 5 5 5 5 5 5 3 5 5 5 3 5 5 5 5 5 5 5 5 5 5 5 5 5 5 5 5 5 5 5 5 5 5 5 5 5 5 5 5 3 5 5 5 5 5 5 5 5 5 5 5 5 3 5 5 5 5 3 5 5 5 5 5 5 3 5 3 5 5 5 5 5 5 5 5 3 5 5 5 5 5 5 3 5 3 5 5 3 5 5 5 3 5 5 5 5 5 5 5 5 5 5 5 5 5 5 5 3 5 5 5 5 5 5 5 5 5 5 3 5 5 5 5 5 5 5 5 5 5 5 5 5 5 5 5 5 5 5 5 5 5 5 5 3 3 5 5 3 5 5 5 5 5 5 5 5 3 5 5 5 5 5 5 5 5 5 3 5 5 5 5 5 5 5 5 5 5 5 5 5 5 5 5 5 5 5 5 5 5 5 5 5 5 5 5 3 5 5 5 5 5 5 5 5 5 3 5 5 5 5 5 5 5 5 5 5 5 3 
</DataArray>
</Cells>
<PointData Scalars="" Vectors="displacement," Tensors="">
<DataArray type="Float64" Name="displacement" NumberOfComponents="3" format="ascii">
0.0049996861130466594 0.0049996103930408532 0 0.0048421040221783033 0.0048269326022134873 0 0.0049995178084474437 0.0043696813835890722 0 0.0049996861130466594 0.0049996103930408532 0 0.0048421040221783033 0.0048269326022134873 0 0.0046261130103001152 0.0049997192730745687 0 0.0048421040221783033 0.0048269326022134873 0 0.0048453073016625102 0.0046446834471993003 0 0.0049995178084474437 0.0043696813835890722 0 0.0048421040221783033 0.0048269326022134873 0 0.0048453073016625102 0.0046446834471993003 0 0.0047668665687123999 0.0048212994892672598 0 0.0047668665687123999 0.0048212994892672598 0 0.0046803591585001707 0.0049039826263071956 0 0.0048072139937137886 0.0047093551655469409 0 0.0042953018457437151 0.0048592622971978814 0 0.0043113688431443524 0.004779153796718387 0 0.003927885209732836 0.0048466097313957712 0 0.0038826920103539183 0.0047672629740542613 0 0.0039368855646227992 0.0047559750175387543 0 0.0048453073016625102 0.0046446834471993003 0 0.0047668665687123999 0.0048212994892672598 0 0.0048072139937137886 0.0047093551655469409 0 0.0048421040221783033 0.0048269326022134873 0 0.0047668665687123999 0.0048212994892672598 0 0.004616753682374377 0.0049592265213902051 0 0.0047668665687123999 0.0048212994892672598 0 0.0046803591585001707 0.0049039826263071956 0 0.004616753682374377 0.0049592265213902051 0 0.0046803591585001707 0.0049039826263071956 0 0.004616753682374377 0.0049592265213902051 0 0.0043935311289713744 0.0050097822265202062 0 0.004616753682374377 0.0049592265213902051 0 0.0046261130103001152 0.0049997192730745687 0 0.004097020141061003 0.004999876319531955 0 0.0048421040221783033 0.0048269326022134873 0 0.004616753682374377 0.0049592265213902051 0 0.0046261130103001152 0.0049997192730745687 0 0.004616753682374377 0.0049592265213902051 0 0.004097020141061003 0.004999876319531955 0 0.0043935311289713744 0.0050097822265202062 0 0.0040966281997956069 0.0049999486788520125 0 0.004184148527450123 0.0049556005447071051 0 0.0040963599898907023 0.0050000678679674847 0 0.0039864371732395171 0.0049346083692593957 0 0.0040490698470337927 0.0049354994737572265 0 0.0039864371732395171 0.0049346083692593957 0 0.0040490698470337927 0.0049354994737572265 0 0.0040005058446374144 0.0048582706446859717 0 0.0039019707562339004 0.0050959602160678668 0 0.00391104970923771 0.0049999978102619226 0 0.0036647689892035907 0.004999997674109905 0 0.0040963599898907023 0.0050000678679674847 0 0.0040422756932792367 0.0050103355987165558 0 0.0040490698470337927 0.0049354994737572265 0 0.0040963610315262597 0.0049853053789935412 0 0.0040422756932792367 0.0050103355987165558 0 0.0040490698470337927 0.0049354994737572265 0 0.0040963599898907023 0.0050000678679674847 0 0.0039112924290130094 0.0049998882039481805 0 0.0040422756932792367 0.0050103355987165558 0 0.0038953473107998723 0.0049489133509609583 0 0.0039110340425859867 0.0050000698046475875 0 0.0039040399575163858 0.0051025124280979807 0 0.0039112924290130094 0.0049998882039481805 0 0.0040422756932792367 0.0050103355987165558 0 0.0038953473107998723 0.0049489133509609583 0 0.0040326763398126683 0.0049915646368897237 0 0.0040963610315262597 0.0049853053789935412 0 0.0040490698470337927 0.0049354994737572265 0 0.0041078029395859939 0.0048681610236710601 0 0.0038953473107998723 0.0049489133509609583 0 0.0039415216877953536 0.0048566838672523625 0 0.0037724074457626913 0.00478621315756903 0 0.0037666555106365168 0.0048509888565387753 0 0.0037147240013822194 0.0048139948743268542 0 0.0038953473107998723 0.0049489133509609583 0 0.0036710536720299157 0.0050440721296754441 0 0.0037666555106365168 0.0048509888565387753 0 0.0037147240013822194 0.0048139948743268542 0 0.0037285759319462841 0.0048453445719118674 0 0.0040490698470337927 0.0049354994737572265 0 0.0041078029395859939 0.0048681610236710601 0 0.0040482598857263736 0.0048034712018832351 0 0.0041078029395859939 0.0048681610236710601 0 0.0040482598857263736 0.0048034712018832351 0 0.0040883382211742278 0.0047429464495054299 0 0.0039415216877953536 0.0048566838672523625 0 0.0039244924187035847 0.0047829839403019875 0 0.0037666555106365168 0.0048509888565387753 0 0.0037622967945306115 0.0049180099253634682 0 0.0037285759319462841 0.0048453445719118674 0 0.003927885209732836 0.0048466097313957712 0 0.0039864371732395171 0.0049346083692593957 0 0.0040005058446374144 0.0048582706446859717 0 0.0042953018457437151 0.0048592622971978814 0 0.004184148527450123 0.0049556005447071051 0 0.0040490698470337927 0.0049354994737572265 0 0.0040482598857263736 0.0048034712018832351 0 0.0040005058446374144 0.0048582706446859717 0 0.0040482598857263736 0.0048034712018832351 0 0.0039927772553497122 0.0047781025038379169 0 0.0040320110326363921 0.0047424751655361433 0 0.0040482598857263736 0.0048034712018832351 0 0.0040005058446374144 0.0048582706446859717 0 0.0039927772553497122 0.0047781025038379169 0 0.003927885209732836 0.0048466097313957712 0 0.0040005058446374144 0.0048582706446859717 0 0.0039927772553497122 0.0047781025038379169 0 0.003927885209732836 0.0048466097313957712 0 0.0039927772553497122 0.0047781025038379169 0 0.0039368855646227992 0.0047559750175387543 0 0.0039927772553497122 0.0047781025038379169 0 0.0039666561511919208 0.0046821395325493016 0 0.0039368855646227992 0.0047559750175387543 0 0.0039927772553497122 0.0047781025038379169 0 0.0040320110326363921 0.0047424751655361433 0 0.0039666561511919208 0.0046821395325493016 0 0.0037444418579774944 0.0040660700356684515 0 0.0036626813937441203 0.0040657471082935692 0 0.0035061549624862982 0.0033957695154016813 0 0.0032787534667481182 0.0034272339871801402 0 0.003354431905362225 0.0035045294594830329 0 0.0040320110326363921 0.0047424751655361433 0 0.0039666561511919208 0.0046821395325493016 0 0.0040604261878742672 0.0047206357494098137 0 0.004034229625916941 0.0046422045065699306 0 0.0040100407449976507 0.0047206316474873531 0 0.0039309682768681395 0.004649601725403494 0 0.0040100407449976507 0.0047206316474873531 0 0.0039309682768681395 0.004649601725403494 0 0.0039386483102227029 0.0047378860068232028 0 0.0039244924187035847 0.0047829839403019875 0 0.004008910311586256 0.0047817571803729277 0 0.0039244924187035847 0.0047829839403019875 0 0.0039820275012910989 0.0046961511906954646 0 0.0040290223707721128 0.0047086093033673043 0 0.0040100407449976507 0.0047206316474873531 0 0.0040538724408160634 0.0047249666445287105 0 0.0040482598857263736 0.0048034712018832351 0 0.0040883382211742278 0.0047429464495054299 0 0.0040538724408160634 0.0047249666445287105 0 0.0040482598857263736 0.0048034712018832351 0 0.0040320110326363921 0.0047424751655361433 0 0.0040538724408160634 0.0047249666445287105 0 0.0040320110326363921 0.0047424751655361433 0 0.0040538724408160634 0.0047249666445287105 0 0.0040604261878742672 0.0047206357494098137 0 0.0040100407449976507 0.0047206316474873531 0 0.0040538724408160634 0.0047249666445287105 0 0.0040604261878742672 0.0047206357494098137 0 0.0032787534667481182 0.0034272339871801402 0 0.0031881974557750369 0.003500203674251353 0 0.0031470217031857447 0.0034695117209195435 0 0.0036626813937441203 0.0040657471082935692 0 0.0035677310133510054 0.004135532397019367 0 0.0040100407449976507 0.0047206316474873531 0 0.0040604261878742672 0.0047206357494098137 0 0.0039386483102227029 0.0047378860068232028 0 0.0031881974557750369 0.003500203674251353 0 0.0032420576762014304 0.0035769361071352015 0 0.0031187271409409177 0.0035540257869020207 0 0.0032787534667481182 0.0034272339871801402 0 0.0031881974557750369 0.003500203674251353 0 0.0032420576762014304 0.0035769361071352015 0 0.0032787534667481182 0.0034272339871801402 0 0.0032420576762014304 0.0035769361071352015 0 0.003354431905362225 0.0035045294594830329 0 0.0032420576762014304 0.0035769361071352015 0 0.0031187271409409177 0.0035540257869020207 0 0.0031068967350997415 0.0036105445467357151 0 0.0035061549624862982 0.0033957695154016813 0 0.0034259297228331075 0.0036072462137629506 0 0.0036155444948584576 0.0036067972228530083 0 0.0035061549624862982 0.0033957695154016813 0 0.003354431905362225 0.0035045294594830329 0 0.0034259297228331075 0.0036072462137629506 0 0.0032420576762014304 0.0035769361071352015 0 0.003354431905362225 0.0035045294594830329 0 0.0034259297228331075 0.0036072462137629506 0 0.0032420576762014304 0.0035769361071352015 0 0.0034259297228331075 0.0036072462137629506 0 0.0033555371290950251 0.0036497555895740868 0 0.0034259297228331075 0.0036072462137629506 0 0.0036155444948584576 0.0036067972228530083 0 0.003632348299035853 0.0037280653815754163 0 0.003739046128856846 0.0036403549531094821 0 0.0036155444948584576 0.0036067972228530083 0 0.003632348299035853 0.0037280653815754163 0 0.003739046128856846 0.0036403549531094821 0 0.0036155444948584576 0.0036067972228530083 0 0.0036937350191454956 0.0035132459182308524 0 0.0035061549624862982 0.0033957695154016813 0 0.0036155444948584576 0.0036067972228530083 0 0.0036937350191454956 0.0035132459182308524 0 0.0035061549624862982 0.0033957695154016813 0 0.0036937350191454956 0.0035132459182308524 0 0.0038093333484923919 0.0034281119647423669 0 0.003739046128856846 0.0036403549531094821 0 0.0036937350191454956 0.0035132459182308524 0 0.0038183723680160972 0.0035413799701916929 0 0.0037986911660331611 0.0034930299325520719 0 0.0038355367757241547 0.0038825690546746248 0 0.0036937350191454956 0.0035132459182308524 0 0.0038232036410598921 0.0034137403612547888 0 0.0038183723680160972 0.0035413799701916929 0 0.0038232036410598921 0.0034137403612547888 0 0.0038183723680160972 0.0035413799701916929 0 0.0039370053081210629 0.0035033703994323843 0 0.0038183723680160972 0.0035413799701916929 0 0.0039370053081210629 0.0035033703994323843 0 0.0039102275730234773 0.0036446609597578995 0 0.003739046128856846 0.0036403549531094821 0 0.0038183723680160972 0.0035413799701916929 0 0.0039102275730234773 0.0036446609597578995 0 0.003739046128856846 0.0036403549531094821 0 0.0039102275730234773 0.0036446609597578995 0 0.0037720428789375358 0.0038082450059256315 0 0.0044804952024148177 0.0033543262485023228 0 0.0047176843469274215 0.0033774364480642777 0 0.0045383134888162249 0.0035530532528193597 0 0.0044804952024148177 0.0033543262485023228 0 0.0047176843469274215 0.0033774364480642777 0 0.0047381728029000378 0.0030878579013860472 0 0.0047176843469274215 0.0033774364480642777 0 0.0049025514610446718 0.0033317643367166794 0 0.0047381728029000378 0.0030878579013860472 0 0.0050940309960394708 0.0038680837396842154 0 0.0049999941210024075 0.0039699726090270905 0 0.004999998812896758 0.0037321703922380016 0 0.0048970560104186463 0.0035538852040478846 0 0.0049025514610446718 0.0033317643367166794 0 0.0049999796284148192 0.0037316124845429926 0 0.0049779605329303466 0.0035969578131580474 0 0.0050070667595983028 0.0036970181560808443 0 0.0047176843469274215 0.0033774364480642777 0 0.0048970560104186463 0.0035538852040478846 0 0.0049025514610446718 0.0033317643367166794 0 0.0047176843469274215 0.0033774364480642777 0 0.0048970560104186463 0.0035538852040478846 0 0.0048286684769511473 0.0035794075634031741 0 0.0050004745373763036 0.0039701052729860476 0 0.0047944261132520372 0.0037589428880677464 0 0.0050940309960394708 0.0038680837396842154 0 0.0049999941210024075 0.0039699726090270905 0 0.0051777069390027521 0.0039971360287674807 0 0.004999994124580541 0.0039700044922209394 0 0.0051813780954753303 0.0040096636345614512 0 0.0051323169719336634 0.0040726914577768726 0 0.0049779605329303466 0.0035969578131580474 0 0.0047944261132520372 0.0037589428880677464 0 0.0038232036410598921 0.0034137403612547888 0 0.0039370053081210629 0.0035033703994323843 0 0.0040734571504583037 0.0034616855246345003 0 0.0038355367757241547 0.0038825690546746248 0 0.0047944261132520372 0.0037589428880677464 0 0.0041682806333921581 0.0034448584022188349 0 0.0047944261132520372 0.0037589428880677464 0 0.0039370053081210629 0.0035033703994323843 0 0.0039102275730234773 0.0036446609597578995 0 0.0040734571504583037 0.0034616855246345003 0 0.0047944261132520372 0.0037589428880677464 0 0.004959711538718695 0.003899789376729329 0 0.0047944261132520372 0.0037589428880677464 0 0.0045978795601142606 0.0044042462559277309 0 0.0052741824811399609 0.0041439746623305853 0 0.0051323169719336634 0.0040726914577768726 0 0.0051400788852643204 0.0042531204236264846 0 0.004177869827774283 0.0040091756899062799 0 0.0046168004429542773 0.0040892751505033544 0 0.0044191489344853991 0.0038279604011512026 0 0.005179007001986053 0.0040124801314061686 0 0.0052741824811399609 0.0041439746623305853 0 0.0051323169719336634 0.0040726914577768726 0 0.0045978795601142606 0.0044042462559277309 0 0.0050628325486972341 0.0044038063881731175 0 0.004999995588525547 0.0041691081431619202 0 0.0051323169719336634 0.0040726914577768726 0 0.0051400788852643204 0.0042531204236264846 0 0.004999994124580541 0.0039700044922209394 0 0.004999995588525547 0.0041691081431619202 0 0.0051323169719336634 0.0040726914577768726 0 0.0048453073016625102 0.0046446834471993003 0 0.0048945894403247432 0.0046339829742885414 0 0.0049995178084474437 0.0043696813835890722 0 0.004999995588525547 0.0041691081431619202 0 0.0051400788852643204 0.0042531204236264846 0 0.0049999985517206738 0.0043682241466598869 0 0.0050628325486972341 0.0044038063881731175 0 0.0049999384917095921 0.0043683258113841666 0 0.0048453073016625102 0.0046446834471993003 0 0.0048461807519689128 0.0046817388337669257 0 0.0048945894403247432 0.0046339829742885414 0 0.0038373607701633599 0.0046909665677233158 0 0.0038826920103539183 0.0047672629740542613 0 0.0039135182744300303 0.0047111656804537374 0 0.0045978795601142606 0.0044042462559277309 0 0.0043113688431443524 0.004779153796718387 0 0.0048453073016625102 0.0046446834471993003 0 0.0048461807519689128 0.0046817388337669257 0 0.0048072139937137886 0.0047093551655469409 0 0.0038826920103539183 0.0047672629740542613 0 0.0039368855646227992 0.0047559750175387543 0 0.0039135182744300303 0.0047111656804537374 0 0.0037444418579774944 0.0040660700356684515 0 0.0038355367757241547 0.0038825690546746248 0 0.0039666561511919208 0.0046821395325493016 0 0.0038753113137221518 0.0046595505669978915 0 0.0039135182744300303 0.0047111656804537374 0 0.0039666561511919208 0.0046821395325493016 0 0.0039368855646227992 0.0047559750175387543 0 0.0039135182744300303 0.0047111656804537374 0 0.0038753113137221518 0.0046595505669978915 0 0.0038373607701633599 0.0046909665677233158 0 0.0039135182744300303 0.0047111656804537374 0 0.0038355367757241547 0.0038825690546746248 0 0.0045978795601142606 0.0044042462559277309 0 0.0021851142716835612 0.0051784717399801896 0 0.0021630925937269809 0.0052043664743003119 0 0.0021815088376568557 0.0051788286375826628 0 0.002187437257462085 0.0051784262382313807 0 0.0021851142716835612 0.0051784717399801896 0 0.0021815088376568557 0.0051788286375826628 0 0.0021851142716835612 0.0051784717399801896 0 0.0022346823652014815 0.0051126293242918092 0 0.0022120347141236442 0.0051894058202992489 0 0.002187437257462085 0.0051784262382313807 0 0.0021851142716835612 0.0051784717399801896 0 0.0021939446399599858 0.0051766037085566345 0 0.0025881253849557259 0.0046662399430485385 0 0.0027314806492418436 0.0043710933345643983 0 0.0020288099148332499 0.0053732572461726155 0 0.0025881253849557259 0.0046662399430485385 0 0.0021895700450217845 0.0051803949060461344 0 0.002195901177191842 0.0051750680735557948 0 0.0021939446399599858 0.0051766037085566345 0 0.002187437257462085 0.0051784262382313807 0 0.0021895700450217845 0.0051803949060461344 0 0.0021939446399599858 0.0051766037085566345 0 0.0023313920227569698 0.0052395479101663674 0 0.0026656920009333232 0.0050528758803081563 0 0.002187437257462085 0.0051784262382313807 0 0.0021895700450217845 0.0051803949060461344 0 0.0021815088376568557 0.0051788286375826628 0 0.0021895700450217845 0.0051803949060461344 0 0.002218418045505629 0.0051883987621917102 0 0.0021815088376568557 0.0051788286375826628 0 0.0023313920227569698 0.0052395479101663674 0 0.002251379243887683 0.0052019368154044478 0 0.002409133235823719 0.0051313876900433803 0 0.0026306765501825278 0.0050678876765276231 0 0.002699003739194366 0.0051910137306991891 0 0.0025354814784136269 0.0052974850406029743 0 0.002409133235823719 0.0051313876900433803 0 0.002699003739194366 0.0051910137306991891 0 0.0025354814784136269 0.0052974850406029743 0 0.002409133235823719 0.0051313876900433803 0 0.002218418045505629 0.0051883987621917102 0 0.002409133235823719 0.0051313876900433803 0 0.0026306765501825278 0.0050678876765276231 0 0.0022867306161869811 0.004972689202971366 0 0.0026049654941233884 0.0050642230304894795 0 0.0023781060312326042 0.0050286270371526142 0 0.002586481697085489 0.0049999709864779439 0 0.0026306765501825278 0.0050678876765276231 0 0.0024605233291173094 0.0050776513392900985 0 0.002586481697085489 0.0049999709864779439 0 0.0027376918397444862 0.0050545635423064773 0 0.0028704467716575304 0.0049999274106822846 0 0.002586481697085489 0.0049999709864779439 0 0.0026306765501825278 0.0050678876765276231 0 0.0027376918397444862 0.0050545635423064773 0 0.0026306765501825278 0.0050678876765276231 0 0.0027376918397444862 0.0050545635423064773 0 0.002699003739194366 0.0051910137306991891 0 0.0025354814784136269 0.0052974850406029743 0 0.002699003739194366 0.0051910137306991891 0 0.0028057466630391878 0.0053075145909746791 0 0.002699003739194366 0.0051910137306991891 0 0.0028207275591438583 0.0051231980394123482 0 0.0028057466630391878 0.0053075145909746791 0 0.0027376918397444862 0.0050545635423064773 0 0.002699003739194366 0.0051910137306991891 0 0.0028207275591438583 0.0051231980394123482 0 0.0028610072854923277 0.0051543255047016784 0 0.0029001360366911096 0.0052981002310890169 0 0.0028453803836499679 0.0052960921545324446 0 0.0028610072854923277 0.0051543255047016784 0 0.0030077162082018968 0.0051819187438471928 0 0.0029001360366911096 0.0052981002310890169 0 0.0028379466250946124 0.0051752529387937476 0 0.0026656920009333232 0.0050528758803081563 0 0.0030319893239264622 0.0049798753711123899 0 0.0029927327272968713 0.0046420735332492391 0 0.0027376918397444862 0.0050545635423064773 0 0.0028207275591438583 0.0051231980394123482 0 0.0028704467716575304 0.0049999274106822846 0 0.0028379466250946124 0.0051752529387937476 0 0.0028705568980605446 0.0049999990777457523 0 0.0028610072854923277 0.0051543255047016784 0 0.002994380337079845 0.0050772768629608741 0 0.0030077162082018968 0.0051819187438471928 0 0.0028610072854923277 0.0051543255047016784 0 0.0028705990795729543 0.0049999965580757207 0 0.002994380337079845 0.0050772768629608741 0 0.0028705990795729543 0.0049999965580757207 0 0.0030887119744891374 0.0049999947177335026 0 0.002994380337079845 0.0050772768629608741 0 0.0031137021986205153 0.0050613716370103892 0 0.0030887119744891374 0.0049999947177335026 0 0.002994380337079845 0.0050772768629608741 0 0.0031274007604168014 0.0050896316762219411 0 0.0030887647875212205 0.005000050116680501 0 0.0031137021986205153 0.0050613716370103892 0 0.002994380337079845 0.0050772768629608741 0 0.0030077162082018968 0.0051819187438471928 0 0.0031274007604168014 0.0050896316762219411 0 0.0030319893239264622 0.0049798753711123899 0 0.0030756443776135838 0.0046750343885021972 0 0.0030780542525145295 0.0046816408774708346 0 0.0030997009884584912 0.0046859520765329338 0 0.0031185866545428414 0.0050033939280553601 0 0.0031466559531734602 0.0049673918558218065 0 0.0030877082712356986 0.0049329169905911194 0 0.0030319893239264622 0.0049798753711123899 0 0.0031795869847620712 0.0048402043712688723 0 0.0030756443776135838 0.0046750343885021972 0 0.0030780542525145295 0.0046816408774708346 0 0.0030634892421038521 0.0046873724367342629 0 0.0030780542525145295 0.0046816408774708346 0 0.0030818127542202468 0.0046878046097179769 0 0.0030634892421038521 0.0046873724367342629 0 0.0030780542525145295 0.0046816408774708346 0 0.0030818127542202468 0.0046878046097179769 0 0.0030997009884584912 0.0046859520765329338 0 0.0030931974146406007 0.0042084497546758795 0 0.0029927327272968713 0.0046420735332492391 0 0.0030858562246843966 0.0037418647275854842 0 0.0031305441847869157 0.0037451934973248805 0 0.0031147625558116091 0.0037093239180367608 0 0.0030858562246843966 0.0037418647275854842 0 0.0030799881915126439 0.0036941996735513154 0 0.0030621991912948431 0.003726493997269899 0 0.0030858562246843966 0.0037418647275854842 0 0.0031147625558116091 0.0037093239180367608 0 0.0030799881915126439 0.0036941996735513154 0 0.0029927327272968713 0.0046420735332492391 0 0.0025881253849557259 0.0046662399430485385 0 0.0026656920009333232 0.0050528758803081563 0 0.0025881253849557259 0.0046662399430485385 0 0.0027216180968703263 0.0047549349246145843 0 0.0026942585826792327 0.0047544460588626837 0 0.0026885146515743309 0.0047924786546833329 0 0.0029927327272968713 0.0046420735332492391 0 0.0026656920009333232 0.0050528758803081563 0 0.0031305441847869157 0.0037451934973248805 0 0.0031496106007512089 0.0037198713601748245 0 0.0031147625558116091 0.0037093239180367608 0 0.0031147625558116091 0.0037093239180367608 0 0.0031285706883759112 0.0036745495125796723 0 0.0031053607444081546 0.0036698465958628162 0 0.0031496106007512089 0.0037198713601748245 0 0.0031285706883759112 0.0036745495125796723 0 0.0031499785992448845 0.0036399464483142978 0 0.0031496106007512089 0.0037198713601748245 0 0.0031147625558116091 0.0037093239180367608 0 0.0031285706883759112 0.0036745495125796723 0 0.0031285706883759112 0.0036745495125796723 0 0.0031053607444081546 0.0036698465958628162 0 0.0031134974717720665 0.0036362004230646905 0 0.0031053607444081546 0.0036698465958628162 0 0.0030799881915126439 0.0036941996735513154 0 0.0030683505034699494 0.003623293398666981 0 0.0031147625558116091 0.0037093239180367608 0 0.0031053607444081546 0.0036698465958628162 0 0.0030799881915126439 0.0036941996735513154 0 0.0030799881915126439 0.0036941996735513154 0 0.0030511957770585066 0.0036733646660724291 0 0.0030683505034699494 0.003623293398666981 0 0.0030511957770585066 0.0036733646660724291 0 0.0030023967535753042 0.0036667112919923834 0 0.0030683505034699494 0.003623293398666981 0 0.0030591577594006199 0.0037018478841819207 0 0.0030511957770585066 0.0036733646660724291 0 0.0030369163754946737 0.0037114248015583341 0 0.0030511957770585066 0.0036733646660724291 0 0.0030023967535753042 0.0036667112919923834 0 0.0030369163754946737 0.0037114248015583341 0 0.0030799881915126439 0.0036941996735513154 0 0.0030591577594006199 0.0037018478841819207 0 0.0030511957770585066 0.0036733646660724291 0 0.0035611812416911628 0.0045371621940779967 0 0.0035604119212685461 0.0043380751824715806 0 0.0036801080788375464 0.0045406275735993392 0 0.0030023967535753042 0.0036667112919923834 0 0.0030243329770409948 0.0037192669143992067 0 0.0030369163754946737 0.0037114248015583341 0 0.0032953626394044743 0.0041319594493069468 0 0.0032089718579339606 0.0041482613726610256 0 0.0035611812416911628 0.0045371621940779967 0 0.0035604119212685461 0.0043380751824715806 0 0.0034859287583852796 0.0043765890841090801 0 0.0034745793494645838 0.0046284523031973994 0 0.0032089718579339606 0.0041482613726610256 0 0.0034745793494645838 0.0046284523031973994 0 0.0035426345545641817 0.0049136886082225394 0 0.0035426345545641817 0.0049136886082225394 0 0.0032430624364591506 0.0047319548217187157 0 0.0032831337300837475 0.0045185176293997004 0 0.0032463644643360122 0.0045372568962099751 0 0.0032431110628778465 0.0044967018149632025 0 0.0032810050682098918 0.0053366798662726816 0 0.0032407623043274494 0.0053143464610094816 0 0.0033389552810384106 0.0052613933881042385 0 0.0034270564341711868 0.0053420038269453443 0 0.0032810050682098918 0.0053366798662726816 0 0.0033389552810384106 0.0052613933881042385 0 0.0034187711931507629 0.0048389334708998383 0 0.0035294839710165908 0.0047803154451619831 0 0.0033013746821304508 0.0047730600620486292 0 0.0034745793494645838 0.0046284523031973994 0 0.0032430624364591506 0.0047319548217187157 0 0.0030858562246843966 0.0037418647275854842 0 0.0030369460045139222 0.0037433419347130863 0 0.0030621991912948431 0.003726493997269899 0 0.0030828232204620672 0.0047556378137455883 0 0.0031715891725551549 0.0047577008932441003 0 0.0030537600362396042 0.0046927051334462238 0 0.0032463644643360122 0.0045372568962099751 0 0.00322691485848162 0.0044962797978434299 0 0.0032431110628778465 0.0044967018149632025 0 0.0032089718579339606 0.0041482613726610256 0 0.0030980881366450457 0.0045424837922257329 0 0.0030369460045139222 0.0037433419347130863 0 0.0030448243320587332 0.0037238569092692825 0 0.0030621991912948431 0.003726493997269899 0 0.0032430624364591506 0.0047319548217187157 0 0.0031795869847620712 0.0048402043712688723 0 0.0030931974146406007 0.0042084497546758795 0 0.0030980881366450457 0.0045424837922257329 0 0.0030818127542202468 0.0046878046097179769 0 0.003100803226677135 0.0046880190785288716 0 0.0030997009884584912 0.0046859520765329338 0 0.0030980881366450457 0.0045424837922257329 0 0.0031795869847620712 0.0048402043712688723 0 0.0030980881366450457 0.0045424837922257329 0 0.0032430624364591506 0.0047319548217187157 0 0.0030256513014041589 0.0037189997937175233 0 0.0030448243320587332 0.0037238569092692825 0 0.0030369163754946737 0.0037114248015583341 0 0.0030256513014041589 0.0037189997937175233 0 0.0030369460045139222 0.0037433419347130863 0 0.0030448243320587332 0.0037238569092692825 0 0.0030591577594006199 0.0037018478841819207 0 0.0030448243320587332 0.0037238569092692825 0 0.0030369163754946737 0.0037114248015583341 0 0.0032089718579339606 0.0041482613726610256 0 0.0031936800812985282 0.0040650403628680288 0 0.0030799881915126439 0.0036941996735513154 0 0.0030591577594006199 0.0037018478841819207 0 0.0030621991912948431 0.003726493997269899 0 0.0030591577594006199 0.0037018478841819207 0 0.0030448243320587332 0.0037238569092692825 0 0.0030621991912948431 0.003726493997269899 0 0.0031274007604168014 0.0050896316762219411 0 0.0031795869847620712 0.0048402043712688723 0 0.0031212046999740555 0.0050626502148473666 0 0.0032407623043274494 0.0053143464610094816 0 0.0032846528526246179 0.0051425892790283815 0 0.0031212046999740555 0.0050626502148473666 0 0.0031722124527172827 0.00499999735988047 0 0.0032846528526246179 0.0051425892790283815 0 0.003118465541761237 0.0050648869718817159 0 0.0030887452996485351 0.0049999999916513554 0 0.0031722011518006306 0.0049999999314610539 0 0.0031274007604168014 0.0050896316762219411 0 0.0031721859370819369 0.0050000509923499902 0 0.0034184831925813067 0.0049999962885740185 0 0.0032846528526246179 0.0051425892790283815 0 0.0034624125253259605 0.0051707245679483999 0 0.0031722124527172827 0.00499999735988047 0 0.0034184831925813067 0.0049999962885740185 0 0.0032846528526246179 0.0051425892790283815 0 0.0032846528526246179 0.0051425892790283815 0 0.0033389552810384106 0.0052613933881042385 0 0.0034624125253259605 0.0051707245679483999 0 0.0034270564341711868 0.0053420038269453443 0 0.0033389552810384106 0.0052613933881042385 0 0.0034624125253259605 0.0051707245679483999 0 0.0032407623043274494 0.0053143464610094816 0 0.0032846528526246179 0.0051425892790283815 0 0.0033389552810384106 0.0052613933881042385 0 0.0035426345545641817 0.0049136886082225394 0 0.0036710536720299157 0.0050440721296754441 0 0.0034270564341711868 0.0053420038269453443 0 0.0034624125253259605 0.0051707245679483999 0 0.0036638246982396302 0.0052202489401229086 0 0.0034184831925813067 0.0049999962885740185 0 0.0034624125253259605 0.0051707245679483999 0 0.0036647689892035907 0.004999997674109905 0 0.0039019707562339004 0.0050959602160678668 0 0.0036647689892035907 0.004999997674109905 0 0.0036638246982396302 0.0052202489401229086 0 0.0034624125253259605 0.0051707245679483999 0 0.0036647689892035907 0.004999997674109905 0 0.0036638246982396302 0.0052202489401229086 0 0.0036526421023804828 0.0048470497951487064 0 0.0037147240013822194 0.0048139948743268542 0 0.0037285759319462841 0.0048453445719118674 0 0.0035426345545641817 0.0049136886082225394 0 0.0037722080785861679 0.0048258612877468193 0 0.0034745793494645838 0.0046284523031973994 0 0.003777107099112349 0.0046866792134691261 0 0.0036505435462926344 0.0048382817228961672 0 0.0037285759319462841 0.0048453445719118674 0 0.0036993627068707675 0.0048858448246591581 0 0.0036306607872801091 0.0048480104490423656 0 0.0036505435462926344 0.0048382817228961672 0 0.0036993627068707675 0.0048858448246591581 0 0.0035604119212685461 0.0043380751824715806 0 0.0036801080788375464 0.0045406275735993392 0 0.0038240438080615669 0.0044930282393119223 0 0.0036801080788375464 0.0045406275735993392 0 0.0038240438080615669 0.0044930282393119223 0 0.0038155462626150586 0.0046343275914753172 0 0.0039244924187035847 0.0047829839403019875 0 0.003777107099112349 0.0046866792134691261 0 0.0037622967945306115 0.0049180099253634682 0 0.0037285759319462841 0.0048453445719118674 0 0.0036993627068707675 0.0048858448246591581 0 0.004034229625916941 0.0046422045065699306 0 0.0038240438080615669 0.0044930282393119223 0 0.0039309682768681395 0.004649601725403494 0 0.0039309682768681395 0.004649601725403494 0 0.0038155462626150586 0.0046343275914753172 0 0.0039386483102227029 0.0047378860068232028 0 0.0038240438080615669 0.0044930282393119223 0 0.0039309682768681395 0.004649601725403494 0 0.0038155462626150586 0.0046343275914753172 0 0.0038155462626150586 0.0046343275914753172 0 0.0039386483102227029 0.0047378860068232028 0 0.0036344931277417082 0.0046919869035976112 0 0.0035677310133510054 0.004135532397019367 0 0.0032530440077348727 0.0038760450935037835 0 0.0036801080788375464 0.0045406275735993392 0 0.0038155462626150586 0.0046343275914753172 0 0.0036344931277417082 0.0046919869035976112 0 0.0031110975380360703 0.0035136189527966558 0 0.0031470217031857447 0.0034695117209195435 0 0.0030527330757204674 0.0034977077247533585 0 0.003067872356600207 0.0035324827556045546 0 0.0031110975380360703 0.0035136189527966558 0 0.0030527330757204674 0.0034977077247533585 0 0.0030328618550031681 0.0034513023525367475 0 0.0032530440077348727 0.0038760450935037835 0 0.003067872356600207 0.0035324827556045546 0 0.0031110975380360703 0.0035136189527966558 0 0.0030831340837742401 0.0035481610292752673 0 0.0031881974557750369 0.003500203674251353 0 0.0031110975380360703 0.0035136189527966558 0 0.0031470217031857447 0.0034695117209195435 0 0.0031110975380360703 0.0035136189527966558 0 0.0031187271409409177 0.0035540257869020207 0 0.0030831340837742401 0.0035481610292752673 0 0.0031881974557750369 0.003500203674251353 0 0.0031110975380360703 0.0035136189527966558 0 0.0031187271409409177 0.0035540257869020207 0 0.0031187271409409177 0.0035540257869020207 0 0.003065985766480542 0.0035796253670596768 0 0.0031068967350997415 0.0036105445467357151 0 0.0030258320227111177 0.0035755302033508816 0 0.0031018570893306427 0.0036074285144152346 0 0.0030831340837742401 0.0035481610292752673 0 0.0030631221418733847 0.0035564820443587369 0 0.003065985766480542 0.0035796253670596768 0 0.0031187271409409177 0.0035540257869020207 0 0.0030831340837742401 0.0035481610292752673 0 0.003065985766480542 0.0035796253670596768 0 0.003067872356600207 0.0035324827556045546 0 0.0030831340837742401 0.0035481610292752673 0 0.0030631221418733847 0.0035564820443587369 0 0.002978397994069377 0.0035701453431741131 0 0.0028597811577517336 0.0035361423823463967 0 0.0028716380528043804 0.0036359009297257153 0 0.0030631221418733847 0.0035564820443587369 0 0.003065985766480542 0.0035796253670596768 0 0.0030642511477308996 0.003558414406215031 0 0.0030258320227111177 0.0035755302033508816 0 0.0029594339729896602 0.0035537819038107938 0 0.0030631221418733847 0.0035564820443587369 0 0.0030642511477308996 0.003558414406215031 0 0.0030659552564608859 0.0035679826437844367 0 0.0030642511477308996 0.003558414406215031 0 0.0030659552564608859 0.0035679826437844367 0 0.0030831927698032747 0.0035771316858181205 0 0.0030659552564608859 0.0035679826437844367 0 0.0030683505034699494 0.003623293398666981 0 0.0030831927698032747 0.0035771316858181205 0 0.0030659552564608859 0.0035679826437844367 0 0.003062465803511685 0.0035657240338525767 0 0.0030683505034699494 0.003623293398666981 0 0.0030631221418733847 0.0035564820443587369 0 0.0030659552564608859 0.0035679826437844367 0 0.003062465803511685 0.0035657240338525767 0 0.003067872356600207 0.0035324827556045546 0 0.0030631221418733847 0.0035564820443587369 0 0.003062465803511685 0.0035657240338525767 0 0.003067872356600207 0.0035324827556045546 0 0.003062465803511685 0.0035657240338525767 0 0.0030580886326037021 0.0035700608790225196 0 0.0032530440077348727 0.0038760450935037835 0 0.0029630069301377726 0.0035422129606626838 0 0.003062465803511685 0.0035657240338525767 0 0.0030580886326037021 0.0035700608790225196 0 0.0030683505034699494 0.003623293398666981 0 0.0030023967535753042 0.0036667112919923834 0 0.0029813986149327793 0.0036167643806742102 0 0.0030683505034699494 0.003623293398666981 0 0.0035611812416911628 0.0045371621940779967 0 0.0036801080788375464 0.0045406275735993392 0 0.0036344931277417082 0.0046919869035976112 0 0.0032953626394044743 0.0041319594493069468 0 0.0032530440077348727 0.0038760450935037835 0 0.0030683505034699494 0.003623293398666981 0 0.0031134974717720665 0.0036362004230646905 0 0.0031032398145704764 0.0036047342114079099 0 0.0031053607444081546 0.0036698465958628162 0 0.0030683505034699494 0.003623293398666981 0 0.0031134974717720665 0.0036362004230646905 0 0.0031285706883759112 0.0036745495125796723 0 0.0031134974717720665 0.0036362004230646905 0 0.0031499785992448845 0.0036399464483142978 0 0.0031134974717720665 0.0036362004230646905 0 0.003126429212729221 0.0036084455391167066 0 0.0031499785992448845 0.0036399464483142978 0 0.0031134974717720665 0.0036362004230646905 0 0.003126429212729221 0.0036084455391167066 0 0.0031032398145704764 0.0036047342114079099 0 0.003126429212729221 0.0036084455391167066 0 0.0031112237485785184 0.0035855824313026272 0 0.0031451878427646257 0.0035798659501626935 0 0.003126429212729221 0.0036084455391167066 0 0.0031112237485785184 0.0035855824313026272 0 0.0031032398145704764 0.0036047342114079099 0 0.0030683505034699494 0.003623293398666981 0 0.0030831927698032747 0.0035771316858181205 0 0.0031032398145704764 0.0036047342114079099 0 0.0031112237485785184 0.0035855824313026272 0 0.0030831927698032747 0.0035771316858181205 0 0.0031032398145704764 0.0036047342114079099 0 0.0030642511477308996 0.003558414406215031 0 0.0030831927698032747 0.0035771316858181205 0 0.0031003932442963148 0.0035614365706977034 0 0.0031112237485785184 0.0035855824313026272 0 0.0030831927698032747 0.0035771316858181205 0 0.0031003932442963148 0.0035614365706977034 0 0.0029594339729896602 0.0035537819038107938 0 0.0029288331173462643 0.0034125609082097143 0 0.0028597811577517336 0.0035361423823463967 0 0.0027052742304640954 0.0034424584991622304 0 0.0027213109346913371 0.0036003659992510564 0 0.0028597811577517336 0.0035361423823463967 0 0.0027213109346913371 0.0036003659992510564 0 0.0027636771790752863 0.0036488176695127416 0 0.0027213109346913371 0.0036003659992510564 0 0.0025974830193508068 0.0036714918234209315 0 0.0026534044896817646 0.0036736855747792779 0 0.0027052742304640954 0.0034424584991622304 0 0.0027213109346913371 0.0036003659992510564 0 0.0025974830193508068 0.0036714918234209315 0 0.0027052742304640954 0.0034424584991622304 0 0.0025974830193508068 0.0036714918234209315 0 0.0024642025064828136 0.0034819907517250471 0 0.0029288331173462643 0.0034125609082097143 0 0.0023987083067492617 0.0043386710245642531 0 0.0027052742304640954 0.0034424584991622304 0 0.0024642025064828136 0.0034819907517250471 0 0.0023070009093973092 0.0032471570786104737 0 0.0031112237485785184 0.0035855824313026272 0 0.0031003932442963148 0.0035614365706977034 0 0.0031451878427646257 0.0035798659501626935 0 0.0018537059832397433 0.0051772999967771753 0 0.0018763194518603588 0.0047473585582249568 0 0.0021347328291777806 0.0051033481305481597 0 0.0023987083067492617 0.0043386710245642531 0 0.0020388539892658084 0.0041754259494747531 0 0.0024642025064828136 0.0034819907517250471 0 0.0023070009093973092 0.0032471570786104737 0 0.0021863574578972209 0.0036092744425767175 0 0.0025974830193508068 0.0036714918234209315 0 0.0024642025064828136 0.0034819907517250471 0 0.0021863574578972209 0.0036092744425767175 0 0.0025974830193508068 0.0036714918234209315 0 0.0021863574578972209 0.0036092744425767175 0 0.0022687941310133523 0.0039675313349851063 0 0.0021076738114956979 0.0045041787389809261 0 0.0021347328291777806 0.0051033481305481597 0 0.002338353485840587 0.0044279950685038672 0 0.0021394325782204886 0.0050705889002070478 0 0.0021877795253855722 0.0047521839686413842 0 0.0021347328291777806 0.0051033481305481597 0 0.0020491184865193504 0.0050678444718373818 0 0.0021135353627882753 0.0051402179091374215 0 0.0018763194518603588 0.0047473585582249568 0 0.0021076738114956979 0.0045041787389809261 0 0.0021347328291777806 0.0051033481305481597 0 0.0018537059832397433 0.0051772999967771753 0 0.0021347328291777806 0.0051033481305481597 0 0.0021515417718102354 0.0052210407373236558 0 0.0023987083067492617 0.0043386710245642531 0 0.0020823007598277624 0.0052835463742913558 0 0.0021347328291777806 0.0051033481305481597 0 0.0021515417718102354 0.0052210407373236558 0 0.0021415185304973126 0.0051904643983699235 0 0.0021958655528176549 0.0052302213988964273 0 0.0021515417718102354 0.0052210407373236558 0 0.0021788713905591399 0.0052120460561949269 0 0.0021610590527220814 0.0052130328259554753 0 0.0021788713905591399 0.0052120460561949269 0 0.0021778601548969692 0.0052002607612998391 0 0.0021515417718102354 0.0052210407373236558 0 0.0021610590527220814 0.0052130328259554753 0 0.0021788713905591399 0.0052120460561949269 0 0.003126429212729221 0.0036084455391167066 0 0.0031451878427646257 0.0035798659501626935 0 0.0031499785992448845 0.0036399464483142978 0 0.0023987083067492617 0.0043386710245642531 0 0.0027314806492418436 0.0043710933345643983 0 0.0021958655528176549 0.0052302213988964273 0 0.0021788713905591399 0.0052120460561949269 0 0.0022120347141236442 0.0051894058202992489 0 0.0021788713905591399 0.0052120460561949269 0 0.0022120347141236442 0.0051894058202992489 0 0.0021778601548969692 0.0052002607612998391 0 0.0021851142716835612 0.0051784717399801896 0 0.0022120347141236442 0.0051894058202992489 0 0.0021778601548969692 0.0052002607612998391 0 0.0021851142716835612 0.0051784717399801896 0 0.0021778601548969692 0.0052002607612998391 0 0.0021630925937269809 0.0052043664743003119 0 0.0021610590527220814 0.0052130328259554753 0 0.0021778601548969692 0.0052002607612998391 0 0.0021630925937269809 0.0052043664743003119 0 0.0025937389295641882 0.0037112475363810463 0 0.0025942440306232781 0.0037220934592168448 0 0.002584622961873697 0.0037253586620407632 0 0.0025848261821427806 0.0037088681097699368 0 0.002525589980288285 0.0037821583739575931 0 0.0024976893219154331 0.0037531944375736349 0 0.0025937389295641882 0.0037112475363810463 0 0.0024615837397650915 0.0038450449170607864 0 0.0024976893219154331 0.0037531944375736349 0 0.0025937389295641882 0.0037112475363810463 0 0.0026254932293050975 0.0036690810070337371 0 0.002279267853763364 0.0039369376015721408 0 0.0022874298408044266 0.0040487766820716939 0 0.0023735600836204732 0.0039711472898799728 0 0.0026472033970784676 0.0037161354066623151 0 0.0025937389295641882 0.0037112475363810463 0 0.0025942440306232781 0.0037220934592168448 0 0.0026472033970784676 0.0037161354066623151 0 0.0025937389295641882 0.0037112475363810463 0 0.002643670878038963 0.0036894470131894814 0 0.0025937389295641882 0.0037112475363810463 0 0.002643670878038963 0.0036894470131894814 0 0.0026254932293050975 0.0036690810070337371 0 0.002643670878038963 0.0036894470131894814 0 0.0026577916889689965 0.0036791368727995856 0 0.0026254932293050975 0.0036690810070337371 0 0.002279267853763364 0.0039369376015721408 0 0.0021695667085420336 0.0040974665035046513 0 0.0022874298408044266 0.0040487766820716939 0 0.0021695667085420336 0.0040974665035046513 0 0.0022874298408044266 0.0040487766820716939 0 0.002239132500719109 0.004154164841007689 0 0.0023869152568966375 0.0038532583826643386 0 0.0023994880392838474 0.0038921867764506127 0 0.0022874298408044266 0.0040487766820716939 0 0.002239132500719109 0.004154164841007689 0 0.0023359371410643149 0.0041484600127478675 0 0.002239132500719109 0.004154164841007689 0 0.0022137640690780501 0.0042486396109853684 0 0.0023359371410643149 0.0041484600127478675 0 0.0021695667085420336 0.0040974665035046513 0 0.002239132500719109 0.004154164841007689 0 0.0021810053755541227 0.0042121637568493502 0 0.002239132500719109 0.004154164841007689 0 0.0022137640690780501 0.0042486396109853684 0 0.0021810053755541227 0.0042121637568493502 0 0.0022137640690780501 0.0042486396109853684 0 0.0021420790442352911 0.0042482171592145342 0 0.0021810053755541227 0.0042121637568493502 0 0.0022137640690780501 0.0042486396109853684 0 0.002338353485840587 0.0044279950685038672 0 0.0023359371410643149 0.0041484600127478675 0 0.0021877795253855722 0.0047521839686413842 0 0.0021830593143515892 0.0045069665403203903 0 0.0021076738114956979 0.0045041787389809261 0 0.0022137640690780501 0.0042486396109853684 0 0.0020705195802948979 0.0042367354032530769 0 0.0021076738114956979 0.0045041787389809261 0 0.0022137640690780501 0.0042486396109853684 0 0.002338353485840587 0.0044279950685038672 0 0.0021863574578972209 0.0036092744425767175 0 0.0022687941310133523 0.0039675313349851063 0 0.0020705195802948979 0.0042367354032530769 0 0.0018763194518603588 0.0047473585582249568 0 0.0021076738114956979 0.0045041787389809261 0 0.0020705195802948979 0.0042367354032530769 0 0.0020388539892658084 0.0041754259494747531 0 0.0020550037403567986 0.004246054970704927 0 0.0025974830193508068 0.0036714918234209315 0 0.0022687941310133523 0.0039675313349851063 0 0.0021961145596733987 0.0043064145595795638 0 0.0020705195802948979 0.0042367354032530769 0 0.0021961145596733987 0.0043064145595795638 0 0.0021420790442352911 0.0042482171592145342 0 0.0022137640690780501 0.0042486396109853684 0 0.0020705195802948979 0.0042367354032530769 0 0.0021420790442352911 0.0042482171592145342 0 0.0022687941310133523 0.0039675313349851063 0 0.0020705195802948979 0.0042367354032530769 0 0.0021961145596733987 0.0043064145595795638 0 0.0021695667085420336 0.0040974665035046513 0 0.0021961145596733987 0.0043064145595795638 0 0.0021810053755541227 0.0042121637568493502 0 0.0026577916889689965 0.0036791368727995856 0 0.0026254932293050975 0.0036690810070337371 0 0.0026553824275252595 0.0036744974277272808 0 0.0023994880392838474 0.0038921867764506127 0 0.0024331541963841042 0.0039604343668573263 0 0.0021961145596733987 0.0043064145595795638 0 0.0021420790442352911 0.0042482171592145342 0 0.0021810053755541227 0.0042121637568493502 0 0.0026577916889689965 0.0036791368727995856 0 0.0026553824275252595 0.0036744974277272808 0 0.0026800062212676405 0.0036876817779300272 0 0.0026553824275252595 0.0036744974277272808 0 0.0026800062212676405 0.0036876817779300272 0 0.0026534044896817646 0.0036736855747792779 0 0.0025974830193508068 0.0036714918234209315 0 0.0026553824275252595 0.0036744974277272808 0 0.0026534044896817646 0.0036736855747792779 0 0.0026800062212676405 0.0036876817779300272 0 0.0026534044896817646 0.0036736855747792779 0 0.0027636771790752863 0.0036488176695127416 0 0.0025838140528113502 0.0036932014442588646 0 0.0024331541963841042 0.0039604343668573263 0 0.0027213109346913371 0.0036003659992510564 0 0.0026534044896817646 0.0036736855747792779 0 0.0027636771790752863 0.0036488176695127416 0 0.0026800062212676405 0.0036876817779300272 0 0.0028270026624481583 0.0037886626080441241 0 0.0028149756005260273 0.0036965991673840815 0 0.0026800062212676405 0.0036876817779300272 0 0.0027636771790752863 0.0036488176695127416 0 0.0028149756005260273 0.0036965991673840815 0 0.0026912828556272246 0.0036869606569273432 0 0.0027916531939260062 0.0037307187581086744 0 0.0026800062212676405 0.0036876817779300272 0 0.0027577562260411013 0.0036718356967658868 0 0.002680561872783697 0.0036875239842590838 0 0.0026577916889689965 0.0036791368727995856 0 0.0026800062212676405 0.0036876817779300272 0 0.002680561872783697 0.0036875239842590838 0 0.002643670878038963 0.0036894470131894814 0 0.0026577916889689965 0.0036791368727995856 0 0.002680561872783697 0.0036875239842590838 0 0.0026472033970784676 0.0037161354066623151 0 0.002643670878038963 0.0036894470131894814 0 0.002680561872783697 0.0036875239842590838 0 0.0026472033970784676 0.0037161354066623151 0 0.0027054610663040934 0.0037230304955800488 0 0.0026842054899931353 0.003786785432460491 0 0.0026472033970784676 0.0037161354066623151 0 0.002680561872783697 0.0036875239842590838 0 0.0027054610663040934 0.0037230304955800488 0 0.0027577562260411013 0.0036718356967658868 0 0.002680561872783697 0.0036875239842590838 0 0.0027054610663040934 0.0037230304955800488 0 0.0027577562260411013 0.0036718356967658868 0 0.0027054610663040934 0.0037230304955800488 0 0.002782322884766996 0.0037496777717000206 0 0.0028270026624481583 0.0037886626080441241 0 0.0029452122788094074 0.0038343565191140162 0 0.0029991634532193397 0.0037733643483944942 0 0.0028270026624481583 0.0037886626080441241 0 0.0029460088817776981 0.0037077736227235738 0 0.0029991634532193397 0.0037733643483944942 0 0.0027916531939260062 0.0037307187581086744 0 0.0029131634599447046 0.0037789483643986747 0 0.0027577562260411013 0.0036718356967658868 0 0.0028821946760590189 0.0037235166269932135 0 0.002782322884766996 0.0037496777717000206 0 0.0029452122788094074 0.0038343565191140162 0 0.0029991634532193397 0.0037733643483944942 0 0.0030132015273971755 0.0038145077721875582 0 0.0028270026624481583 0.0037886626080441241 0 0.0028149756005260273 0.0036965991673840815 0 0.0029460088817776981 0.0037077736227235738 0 0.0028149756005260273 0.0036965991673840815 0 0.0028716380528043804 0.0036359009297257153 0 0.0029460088817776981 0.0037077736227235738 0 0.0027636771790752863 0.0036488176695127416 0 0.0028149756005260273 0.0036965991673840815 0 0.0028716380528043804 0.0036359009297257153 0 0.0028597811577517336 0.0035361423823463967 0 0.0027636771790752863 0.0036488176695127416 0 0.0028716380528043804 0.0036359009297257153 0 0.002978397994069377 0.0035701453431741131 0 0.0028716380528043804 0.0036359009297257153 0 0.0029460088817776981 0.0037077736227235738 0 0.0029460088817776981 0.0037077736227235738 0 0.0030610705174200382 0.0036960109939712504 0 0.0029991634532193397 0.0037733643483944942 0 0.002978397994069377 0.0035701453431741131 0 0.0029460088817776981 0.0037077736227235738 0 0.0030610705174200382 0.0036960109939712504 0 0.002978397994069377 0.0035701453431741131 0 0.0030610705174200382 0.0036960109939712504 0 0.0031068967350997415 0.0036105445467357151 0 0.0030610705174200382 0.0036960109939712504 0 0.0031068967350997415 0.0036105445467357151 0 0.003183483656520345 0.0036609200933930544 0 0.0030610705174200382 0.0036960109939712504 0 0.003183483656520345 0.0036609200933930544 0 0.0031632704137994471 0.003726667830279706 0 0.0030610705174200382 0.0036960109939712504 0 0.0030764097138973791 0.0037673603037767663 0 0.0031632704137994471 0.003726667830279706 0 0.0030610705174200382 0.0036960109939712504 0 0.0030764097138973791 0.0037673603037767663 0 0.0029991634532193397 0.0037733643483944942 0 0.0030764097138973791 0.0037673603037767663 0 0.0029991634532193397 0.0037733643483944942 0 0.0030132015273971755 0.0038145077721875582 0 0.0030764097138973791 0.0037673603037767663 0 0.0030132015273971755 0.0038145077721875582 0 0.0030730603139954233 0.0038238811301125573 0 0.0030764097138973791 0.0037673603037767663 0 0.0030730603139954233 0.0038238811301125573 0 0.0031521649705808811 0.0037903291575123511 0 0.0030730603139954233 0.0038238811301125573 0 0.0030038612257046846 0.0038175669969557498 0 0.0030630104306043743 0.0038323049482356219 0 0.0030132015273971755 0.0038145077721875582 0 0.0030730603139954233 0.0038238811301125573 0 0.0030038612257046846 0.0038175669969557498 0 0.0029452122788094074 0.0038343565191140162 0 0.0030132015273971755 0.0038145077721875582 0 0.0030038612257046846 0.0038175669969557498 0 0.0030038612257046846 0.0038175669969557498 0 0.0030630104306043743 0.0038323049482356219 0 0.0030120378814161605 0.003830070284826648 0 0.0030038612257046846 0.0038175669969557498 0 0.0030120378814161605 0.003830070284826648 0 0.0029429666428309937 0.0038249233878777 0 0.0030630104306043743 0.0038323049482356219 0 0.0030612082131533762 0.0038269124394341137 0 0.0030120378814161605 0.003830070284826648 0 0.0030612082131533762 0.0038269124394341137 0 0.0029658245536808492 0.0038602407165728293 0 0.0030321590359249201 0.003871118474477173 0 0.0030612082131533762 0.0038269124394341137 0 0.0029658245536808492 0.0038602407165728293 0 0.0030120378814161605 0.003830070284826648 0 0.0029658245536808492 0.0038602407165728293 0 0.0030120378814161605 0.003830070284826648 0 0.0029429666428309937 0.0038249233878777 0 0.0029658245536808492 0.0038602407165728293 0 0.0029429666428309937 0.0038249233878777 0 0.002876883238821295 0.0038470509795271298 0 0.0029658245536808492 0.0038602407165728293 0 0.002876883238821295 0.0038470509795271298 0 0.0028579082106698454 0.0039059319600710609 0 0.002876883238821295 0.0038470509795271298 0 0.002778107915246855 0.003838020342025337 0 0.0028579082106698454 0.0039059319600710609 0 0.002876883238821295 0.0038470509795271298 0 0.0028140503804717346 0.0037402783814160859 0 0.002778107915246855 0.003838020342025337 0 0.0029429666428309937 0.0038249233878777 0 0.002876883238821295 0.0038470509795271298 0 0.0028140503804717346 0.0037402783814160859 0 0.002930150890388312 0.0038228020789427279 0 0.0028116506339460742 0.0037854869939680149 0 0.0029429666428309937 0.0038249233878777 0 0.0028092864503864398 0.0038322123839173491 0 0.0029070676012585865 0.0037983038863393568 0 0.0030038612257046846 0.0038175669969557498 0 0.0029429666428309937 0.0038249233878777 0 0.0029070676012585865 0.0037983038863393568 0 0.0029131634599447046 0.0037789483643986747 0 0.0029951171269613649 0.0038173253238609761 0 0.0028821946760590189 0.0037235166269932135 0 0.0030038612257046846 0.0038175669969557498 0 0.0029070676012585865 0.0037983038863393568 0 0.0028092864503864398 0.0038322123839173491 0 0.0029070676012585865 0.0037983038863393568 0 0.002782322884766996 0.0037496777717000206 0 0.0028821946760590189 0.0037235166269932135 0 0.0029070676012585865 0.0037983038863393568 0 0.002782322884766996 0.0037496777717000206 0 0.0028092864503864398 0.0038322123839173491 0 0.002782322884766996 0.0037496777717000206 0 0.0026842054899931353 0.003786785432460491 0 0.0027054610663040934 0.0037230304955800488 0 0.002782322884766996 0.0037496777717000206 0 0.0026842054899931353 0.003786785432460491 0 0.0026803818452243765 0.0037034076033270946 0 0.0027132664592506204 0.0037855864798855576 0 0.0026203210920722449 0.0037689973857045213 0 0.0028116506339460742 0.0037854869939680149 0 0.0026842317716274031 0.0037463721344686875 0 0.0028140503804717346 0.0037402783814160859 0 0.0026803818452243765 0.0037034076033270946 0 0.0027132664592506204 0.0037855864798855576 0 0.0028140503804717346 0.0037402783814160859 0 0.002778107915246855 0.003838020342025337 0 0.0027132664592506204 0.0037855864798855576 0 0.002778107915246855 0.003838020342025337 0 0.0026826368656551096 0.0038778929054851486 0 0.0027737349179348539 0.0039072871961568926 0 0.002778107915246855 0.003838020342025337 0 0.0028579082106698454 0.0039059319600710609 0 0.0027737349179348539 0.0039072871961568926 0 0.002778107915246855 0.003838020342025337 0 0.0026826368656551096 0.0038778929054851486 0 0.0027132664592506204 0.0037855864798855576 0 0.0026826368656551096 0.0038778929054851486 0 0.0027132664592506204 0.0037855864798855576 0 0.0026203210920722449 0.0037689973857045213 0 0.0026826368656551096 0.0038778929054851486 0 0.0025701927568405492 0.003867520281538759 0 0.002600399565298036 0.003953949975770951 0 0.0026826368656551096 0.0038778929054851486 0 0.0025701927568405492 0.003867520281538759 0 0.0026203210920722449 0.0037689973857045213 0 0.0025701927568405492 0.003867520281538759 0 0.0025254791407262589 0.0037932086487458385 0 0.0024331256711178683 0.0039226525776710737 0 0.0024627385306856936 0.0038664197294593985 0 0.0024345592386996722 0.0039247929623053212 0 0.0025701927568405492 0.003867520281538759 0 0.0025254791407262589 0.0037932086487458385 0 0.0026203210920722449 0.0037689973857045213 0 0.0023974919997433067 0.0039333049370097349 0 0.0024615837397650915 0.0038450449170607864 0 0.0023786622488714184 0.0038618167589602815 0 0.0024627385306856936 0.0038664197294593985 0 0.002525589980288285 0.0037821583739575931 0 0.0025254791407262589 0.0037932086487458385 0 0.0026203210920722449 0.0037689973857045213 0 0.002584622961873697 0.0037253586620407632 0 0.0026203210920722449 0.0037689973857045213 0 0.0026236708560786817 0.0037263055864472155 0 0.002584622961873697 0.0037253586620407632 0 0.0026803818452243765 0.0037034076033270946 0 0.0026203210920722449 0.0037689973857045213 0 0.0026236708560786817 0.0037263055864472155 0 0.0026803818452243765 0.0037034076033270946 0 0.0026236708560786817 0.0037263055864472155 0 0.0025942440306232781 0.0037220934592168448 0 0.0026842317716274031 0.0037463721344686875 0 0.0026032191379946933 0.003723180312399434 0 0.0026472033970784676 0.0037161354066623151 0 0.0026842054899931353 0.003786785432460491 0 0.0025942440306232781 0.0037220934592168448 0 0.0026236708560786817 0.0037263055864472155 0 0.0025942440306232781 0.0037220934592168448 0 0.002584622961873697 0.0037253586620407632 0 0.0023869152568966375 0.0038532583826643386 0 0.0023767303310062811 0.0038659396231687996 0 0.0024976893219154331 0.0037531944375736349 0 0.0024615837397650915 0.0038450449170607864 0 0.0023786622488714184 0.0038618167589602815 0 0.002279267853763364 0.0039369376015721408 0 0.0023786622488714184 0.0038618167589602815 0 0.0023540727492341847 0.0039049701027294961 0 0.0041827969866525538 0.0043015351861979507 0 0.0045018601377550564 0.004095386862225125 0 0.0041577562468211315 0.00392622916134403 0 0.0037748857324689956 0.0042253258293351399 0 0.004651908561093961 0.0036816487700498213 0 0.0041827969866525538 0.0043015351861979507 0 0.0047165423161580804 0.0044400837952435004 0 0.0045018601377550564 0.004095386862225125 0 0.0035608302764325735 0.0041001430472438621 0 0.0036297234701441906 0.0040566353023064388 0 0.0036277785596758511 0.0041263025587927266 0 0.0041827969866525538 0.0043015351861979507 0 0.0041577562468211315 0.00392622916134403 0 0.0036987570745833651 0.0039369927209675628 0 0.0037748857324689956 0.0042253258293351399 0 0.0036810999706413721 0.0040793090316084265 0 0.0041827969866525538 0.0043015351861979507 0 0.0036987570745833651 0.0039369927209675628 0 0.0036297234701441906 0.0040566353023064388 0 0.0035465513066065555 0.0040425251103046768 0 0.0036277785596758511 0.0041263025587927266 0 0.0035302647873162959 0.0039579782733294667 0 0.0035608302764325735 0.0041001430472438621 0 0.0035465513066065555 0.0040425251103046768 0 0.0036277785596758511 0.0041263025587927266 0 0.0035324462929277817 0.0039503880931036298 0 0.0035322210565743293 0.0039629428903973562 0 0.0035465513066065555 0.0040425251103046768 0 0.0035273107248226803 0.0040499667089811649 0 0.0035141992214612833 0.0040043796864738142 0 0.0035608302764325735 0.0041001430472438621 0 0.0035273107248226803 0.0040499667089811649 0 0.0034896513811527815 0.0040656591206228712 0 0.0035608302764325735 0.0041001430472438621 0 0.0035465513066065555 0.0040425251103046768 0 0.0035273107248226803 0.0040499667089811649 0 0.0035273107248226803 0.0040499667089811649 0 0.0034896513811527815 0.0040656591206228712 0 0.0035141992214612833 0.0040043796864738142 0 0.004651908561093961 0.0036816487700498213 0 0.0043324597301601583 0.0035412911240165264 0 0.0051512391822136003 0.0032240813247715835 0 0.0050974791726237836 0.0030889344391787465 0 0.0051923058019183203 0.0030689795320808615 0 0.0051512391822136003 0.0032240813247715835 0 0.0049999535274580752 0.0032030540571490835 0 0.0050974791726237836 0.0030889344391787465 0 0.004651908561093961 0.0036816487700498213 0 0.0050005238743523533 0.0032031973509833362 0 0.005000057891100764 0.0032031531723508955 0 0.0051390065567798052 0.0034251676363415144 0 0.0049998682559701975 0.003458932727593541 0 0.0051994300879555271 0.0032649918781773803 0 0.005000057891100764 0.0032031531723508955 0 0.0051390065567798052 0.0034251676363415144 0 0.004651908561093961 0.0036816487700498213 0 0.0049933188043908231 0.0037501197607452143 0 0.0047165423161580804 0.0044400837952435004 0 0.0048614648804983715 0.0040637262667551702 0 0.0045018601377550564 0.004095386862225125 0 0.0048614648804983715 0.0040637262667551702 0 0.0045018601377550564 0.004095386862225125 0 0.0045852725277296174 0.0037647623747663079 0 0.0048614648804983715 0.0040637262667551702 0 0.0045852725277296174 0.0037647623747663079 0 0.0050053120546601554 0.0036533486705134224 0 0.0049998682559701975 0.003458932727593541 0 0.0050053120546601554 0.0036533486705134224 0 0.0050000221895608304 0.0037145265327658186 0 0.0051390065567798052 0.0034251676363415144 0 0.0049998682559701975 0.003458932727593541 0 0.0050053120546601554 0.0036533486705134224 0 0.0049933188043908231 0.0037501197607452143 0 0.005012485235364089 0.0036609276656024673 0 0.0048970560104186463 0.0035538852040478846 0 0.0050000221895608304 0.0037145265327658186 0 0.0048286684769511473 0.0035794075634031741 0 0.0050053120546601554 0.0036533486705134224 0 0.0050000221895608304 0.0037145265327658186 0 0.0048286684769511473 0.0035794075634031741 0 0.0048970560104186463 0.0035538852040478846 0 0.0050000221895608304 0.0037145265327658186 0 0.0049999796284148192 0.0037316124845429926 0 0.0045852725277296174 0.0037647623747663079 0 0.0050053120546601554 0.0036533486705134224 0 0.0048286684769511473 0.0035794075634031741 0 0.0045852725277296174 0.0037647623747663079 0 0.0048286684769511473 0.0035794075634031741 0 0.0045383134888162249 0.0035530532528193597 0 0.0047176843469274215 0.0033774364480642777 0 0.0048286684769511473 0.0035794075634031741 0 0.0045383134888162249 0.0035530532528193597 0 0.0044804952024148177 0.0033543262485023228 0 0.0045383134888162249 0.0035530532528193597 0 0.0041400845123966889 0.0035835481177389108 0 0.0045852725277296174 0.0037647623747663079 0 0.0045383134888162249 0.0035530532528193597 0 0.0041400845123966889 0.0035835481177389108 0 0.0041682806333921581 0.0034448584022188349 0 0.0039468505099913547 0.003715466577667663 0 0.0045852725277296174 0.0037647623747663079 0 0.0041577562468211315 0.00392622916134403 0 0.0041400845123966889 0.0035835481177389108 0 0.0045018601377550564 0.004095386862225125 0 0.0045852725277296174 0.0037647623747663079 0 0.0041577562468211315 0.00392622916134403 0 0.0036987570745833651 0.0039369927209675628 0 0.0037720428789375358 0.0038082450059256315 0 0.0035998129980656397 0.0039062339424166281 0 0.0037201781837045492 0.0039270231044222052 0 0.0039468505099913547 0.003715466577667663 0 0.0041577562468211315 0.00392622916134403 0 0.0036987570745833651 0.0039369927209675628 0 0.0041400845123966889 0.0035835481177389108 0 0.003739046128856846 0.0036403549531094821 0 0.0037720428789375358 0.0038082450059256315 0 0.003632348299035853 0.0037280653815754163 0 0.0037720428789375358 0.0038082450059256315 0 0.003632348299035853 0.0037280653815754163 0 0.0035998129980656397 0.0039062339424166281 0 0.0034259297228331075 0.0036072462137629506 0 0.003632348299035853 0.0037280653815754163 0 0.0035998129980656397 0.0039062339424166281 0 0.0034259297228331075 0.0036072462137629506 0 0.0033555371290950251 0.0036497555895740868 0 0.0033844859002826215 0.0036806023505761985 0 0.0034294938437482146 0.0036068917278974017 0 0.0034894231477018739 0.0037896786720061711 0 0.0033555371290950251 0.0036497555895740868 0 0.0033253220640966537 0.0036908388891137038 0 0.0032721819416559605 0.0036575051362648815 0 0.0033555371290950251 0.0036497555895740868 0 0.0033253220640966537 0.0036908388891137038 0 0.0033844859002826215 0.0036806023505761985 0 0.0033253220640966537 0.0036908388891137038 0 0.0033844859002826215 0.0036806023505761985 0 0.0033603284208742214 0.003731655087958502 0 0.0036987570745833651 0.0039369927209675628 0 0.0035998129980656397 0.0039062339424166281 0 0.0036297234701441906 0.0040566353023064388 0 0.0032420576762014304 0.0035769361071352015 0 0.0031068967350997415 0.0036105445467357151 0 0.003183483656520345 0.0036609200933930544 0 0.0032420576762014304 0.0035769361071352015 0 0.003183483656520345 0.0036609200933930544 0 0.0032721819416559605 0.0036575051362648815 0 0.0032420576762014304 0.0035769361071352015 0 0.0033555371290950251 0.0036497555895740868 0 0.0032721819416559605 0.0036575051362648815 0 0.0033253220640966537 0.0036908388891137038 0 0.0032469991241559685 0.0037013286146557745 0 0.0032726013507636867 0.0037490162307157833 0 0.003183483656520345 0.0036609200933930544 0 0.0032721819416559605 0.0036575051362648815 0 0.0032469991241559685 0.0037013286146557745 0 0.0033253220640966537 0.0036908388891137038 0 0.0032721819416559605 0.0036575051362648815 0 0.0032469991241559685 0.0037013286146557745 0 0.003183483656520345 0.0036609200933930544 0 0.0032469991241559685 0.0037013286146557745 0 0.0031632704137994471 0.003726667830279706 0 0.0030764097138973791 0.0037673603037767663 0 0.0031632704137994471 0.003726667830279706 0 0.0031521649705808811 0.0037903291575123511 0 0.0032469991241559685 0.0037013286146557745 0 0.0031632704137994471 0.003726667830279706 0 0.0032726013507636867 0.0037490162307157833 0 0.0031632704137994471 0.003726667830279706 0 0.0032726013507636867 0.0037490162307157833 0 0.0031521649705808811 0.0037903291575123511 0 0.0032288343915533916 0.0038101343690826643 0 0.0031521649705808811 0.0037903291575123511 0 0.003151606091150914 0.0038710256887962849 0 0.0032726013507636867 0.0037490162307157833 0 0.0032288343915533916 0.0038101343690826643 0 0.0031521649705808811 0.0037903291575123511 0 0.0035998129980656397 0.0039062339424166281 0 0.0036297234701441906 0.0040566353023064388 0 0.0036277785596758511 0.0041263025587927266 0 0.0034894231477018739 0.0037896786720061711 0 0.0035324462929277817 0.0039503880931036298 0 0.0033844859002826215 0.0036806023505761985 0 0.0033603284208742214 0.003731655087958502 0 0.0034371818134083386 0.0037716048096363883 0 0.0033603284208742214 0.003731655087958502 0 0.0033725468259595956 0.0037758612282685496 0 0.0034371818134083386 0.0037716048096363883 0 0.0032726013507636867 0.0037490162307157833 0 0.0033603284208742214 0.003731655087958502 0 0.0033725468259595956 0.0037758612282685496 0 0.0033253220640966537 0.0036908388891137038 0 0.0032726013507636867 0.0037490162307157833 0 0.0033603284208742214 0.003731655087958502 0 0.0032726013507636867 0.0037490162307157833 0 0.0033295675676276366 0.0038226994865167767 0 0.0033725468259595956 0.0037758612282685496 0 0.0032726013507636867 0.0037490162307157833 0 0.0032288343915533916 0.0038101343690826643 0 0.0033295675676276366 0.0038226994865167767 0 0.0032288343915533916 0.0038101343690826643 0 0.0033295675676276366 0.0038226994865167767 0 0.0032889020533211281 0.0038734165773278931 0 0.0034090285868002175 0.0038489120262681438 0 0.0034371818134083386 0.0037716048096363883 0 0.0035302647873162959 0.0039579782733294667 0 0.0033295675676276366 0.0038226994865167767 0 0.0034090285868002175 0.0038489120262681438 0 0.0033725468259595956 0.0037758612282685496 0 0.0034090285868002175 0.0038489120262681438 0 0.0033725468259595956 0.0037758612282685496 0 0.0034371818134083386 0.0037716048096363883 0 0.0034090285868002175 0.0038489120262681438 0 0.0033877031313952069 0.0039331722064402915 0 0.0035302647873162959 0.0039579782733294667 0 0.0033295675676276366 0.0038226994865167767 0 0.0034090285868002175 0.0038489120262681438 0 0.0033877031313952069 0.0039331722064402915 0 0.0033295675676276366 0.0038226994865167767 0 0.0033877031313952069 0.0039331722064402915 0 0.0032889020533211281 0.0038734165773278931 0 0.0033877031313952069 0.0039331722064402915 0 0.0033195344668887944 0.0040160559402959177 0 0.0034162657059322089 0.004020410531056581 0 0.0033877031313952069 0.0039331722064402915 0 0.0032889020533211281 0.0038734165773278931 0 0.0033195344668887944 0.0040160559402959177 0 0.0033877031313952069 0.0039331722064402915 0 0.0034465768778053291 0.0039804785401819087 0 0.0034162657059322089 0.004020410531056581 0 0.0034465768778053291 0.0039804785401819087 0 0.0034775884650225979 0.0040056637718496159 0 0.0035302647873162959 0.0039579782733294667 0 0.0033877031313952069 0.0039331722064402915 0 0.0034465768778053291 0.0039804785401819087 0 0.0035302647873162959 0.0039579782733294667 0 0.0034465768778053291 0.0039804785401819087 0 0.0034775884650225979 0.0040056637718496159 0 0.0034162657059322089 0.004020410531056581 0 0.0030730603139954233 0.0038238811301125573 0 0.0031521649705808811 0.0037903291575123511 0 0.003151606091150914 0.0038710256887962849 0 0.0030730603139954233 0.0038238811301125573 0 0.0030630104306043743 0.0038323049482356219 0 0.003151606091150914 0.0038710256887962849 0 0.0032889020533211281 0.0038734165773278931 0 0.0033195344668887944 0.0040160559402959177 0 0.003151606091150914 0.0038710256887962849 0 0.0032288343915533916 0.0038101343690826643 0 0.0032889020533211281 0.0038734165773278931 0 0.003151606091150914 0.0038710256887962849 0 0.0030364983180725794 0.0038638763949110102 0 0.003151606091150914 0.0038710256887962849 0 0.0030976838380677562 0.0038338336411751048 0 0.0031895511965527442 0.0039280128522962655 0 0.0031432433187706978 0.0038706636803910355 0 0.0030630104306043743 0.0038323049482356219 0 0.003151606091150914 0.0038710256887962849 0 0.0030976838380677562 0.0038338336411751048 0 0.0030612082131533762 0.0038269124394341137 0 0.0030976838380677562 0.0038338336411751048 0 0.0030776235432272061 0.0037719070371309018 0 0.0030630104306043743 0.0038323049482356219 0 0.0030612082131533762 0.0038269124394341137 0 0.0030976838380677562 0.0038338336411751048 0 0.0030364983180725794 0.0038638763949110102 0 0.0030976838380677562 0.0038338336411751048 0 0.0030776235432272061 0.0037719070371309018 0 0.0029256032146690405 0.0036258114016653334 0 0.0032723700894721035 0.0034007190209694713 0 0.0030776235432272061 0.0037719070371309018 0 0.0029123447602126258 0.0036183958711906456 0 0.0030977222343021803 0.0037997055442989237 0 0.0030612082131533762 0.0038269124394341137 0 0.0030977222343021803 0.0037997055442989237 0 0.0030321590359249201 0.003871118474477173 0 0.0030612082131533762 0.0038269124394341137 0 0.0030776235432272061 0.0037719070371309018 0 0.0030977222343021803 0.0037997055442989237 0 0.0034564010131178432 0.004034087465867601 0 0.0034162657059322089 0.004020410531056581 0 0.003436936089369414 0.0040527280962633812 0 0.0034564010131178432 0.004034087465867601 0 0.0034775884650225979 0.0040056637718496159 0 0.0034896869854375923 0.0040261408442835538 0 0.0034564010131178432 0.004034087465867601 0 0.0034775884650225979 0.0040056637718496159 0 0.0034162657059322089 0.004020410531056581 0 0.0030364983180725794 0.0038638763949110102 0 0.0030776235432272061 0.0037719070371309018 0 0.0029123447602126258 0.0036183958711906456 0 0.0031895511965527442 0.0039280128522962655 0 0.0029633429071878846 0.0037637095992419886 0 0.0033195344668887944 0.0040160559402959177 0 0.0034162657059322089 0.004020410531056581 0 0.003436936089369414 0.0040527280962633812 0 0.0030364983180725794 0.0038638763949110102 0 0.0029123447602126258 0.0036183958711906456 0 0.0027280222118287014 0.0034509766913098745 0 0.0029123447602126258 0.0036183958711906456 0 0.0027280222118287014 0.0034509766913098745 0 0.0029513171273116423 0.0029483827734842379 0 0.0029123447602126258 0.0036183958711906456 0 0.0029513171273116423 0.0029483827734842379 0 0.0034940109431198956 0.0029903564833254322 0 0.003436936089369414 0.0040527280962633812 0 0.0034781722440383914 0.0040443908951758303 0 0.0034917110334436717 0.0040505184660526369 0 0.0029633429071878846 0.0037637095992419886 0 0.0038192172053529323 0.0030787647836117292 0 0.0034564010131178432 0.004034087465867601 0 0.003436936089369414 0.0040527280962633812 0 0.003461172011704444 0.004044246764961794 0 0.003436936089369414 0.0040527280962633812 0 0.003461172011704444 0.004044246764961794 0 0.0034781722440383914 0.0040443908951758303 0 0.0034564010131178432 0.004034087465867601 0 0.003461172011704444 0.004044246764961794 0 0.0034806995962643173 0.0040409913904118555 0 0.003461172011704444 0.004044246764961794 0 0.0034781722440383914 0.0040443908951758303 0 0.0034806995962643173 0.0040409913904118555 0 0.0034781722440383914 0.0040443908951758303 0 0.0034951387985143298 0.0040438313095301406 0 0.0034957249700252381 0.0040385183623114036 0 0.0034825377924769694 0.004053838843470315 0 0.003493743998123407 0.0040403257949826058 0 0.0035164601905553201 0.004024441127591062 0 0.0034781722440383914 0.0040443908951758303 0 0.0034951387985143298 0.0040438313095301406 0 0.0034806995962643173 0.0040409913904118555 0 0.0034951387985143298 0.0040438313095301406 0 0.003493743998123407 0.0040403257949826058 0 0.0034806995962643173 0.0040409913904118555 0 0.0034951387985143298 0.0040438313095301406 0 0.0034957249700252381 0.0040385183623114036 0 0.0035118809960608993 0.0040215583133311368 0 0.0034951387985143298 0.0040438313095301406 0 0.0034825377924769694 0.004053838843470315 0 0.003493743998123407 0.0040403257949826058 0 0.0034951387985143298 0.0040438313095301406 0 0.0034825377924769694 0.004053838843470315 0 0.0035118809960608993 0.0040215583133311368 0 0.003493743998123407 0.0040403257949826058 0 0.0034896869854375923 0.0040261408442835538 0 0.0035164601905553201 0.004024441127591062 0 0.0034564010131178432 0.004034087465867601 0 0.0034806995962643173 0.0040409913904118555 0 0.0034896869854375923 0.0040261408442835538 0 0.003493743998123407 0.0040403257949826058 0 0.0034806995962643173 0.0040409913904118555 0 0.0034896869854375923 0.0040261408442835538 0 0.0052440519653385378 0.0026485268735357585 0 0.0051656704106805406 0.0026693437126402084 0 0.0052153535971228519 0.0027319443768175798 0 0.0034825377924769694 0.004053838843470315 0 0.003532154468451554 0.0040192674224936971 0 0.0035164601905553201 0.004024441127591062 0 0.0043015081553584647 0.0035061323641562589 0 0.0045752948533258489 0.0032952865423582153 0 0.0051656704106805406 0.0026693437126402084 0 0.0052153535971228519 0.0027319443768175798 0 0.0051340391510632391 0.0027972528176362483 0 0.0045752948533258489 0.0032952865423582153 0 0.0043508870677461484 0.0035016149711459203 0 0.0052274397742729855 0.0028823331056378495 0 0.0052100653696677806 0.0029495558680877883 0 0.0051487123555158691 0.0029180378750866104 0 0.0035271329043337373 0.0040164318098601069 0 0.0035126502692237895 0.0040049177892818207 0 0.0035317371596805844 0.0039766294795493661 0 0.0045752948533258489 0.0032952865423582153 0 0.0052747584052319791 0.0027659696454067585 0 0.0035271329043337373 0.0040164318098601069 0 0.0035164601905553201 0.004024441127591062 0 0.0035126502692237895 0.0040049177892818207 0 0.0045752948533258489 0.0032952865423582153 0 0.0040274655164426014 0.0036447010356593693 0 0.0034896869854375923 0.0040261408442835538 0 0.0035164601905553201 0.004024441127591062 0 0.0035126502692237895 0.0040049177892818207 0 0.0034775884650225979 0.0040056637718496159 0 0.0034896869854375923 0.0040261408442835538 0 0.0035126502692237895 0.0040049177892818207 0 0.0034775884650225979 0.0040056637718496159 0 0.0035126502692237895 0.0040049177892818207 0 0.0035302647873162959 0.0039579782733294667 0 0.0035126502692237895 0.0040049177892818207 0 0.0035317371596805844 0.0039766294795493661 0 0.0035302647873162959 0.0039579782733294667 0 0.0035465513066065555 0.0040425251103046768 0 0.0035302647873162959 0.0039579782733294667 0 0.0035141992214612833 0.0040043796864738142 0 0.0035317371596805844 0.0039766294795493661 0 0.0035302647873162959 0.0039579782733294667 0 0.0035141992214612833 0.0040043796864738142 0 0.0043508870677461484 0.0035016149711459203 0 0.0043324597301601583 0.0035412911240165264 0 0.0050974791726237836 0.0030889344391787465 0 0.0051141154084470139 0.0029908686929039654 0 0.0050000121985799501 0.0029464595488558586 0 0.0049999535274580752 0.0032030540571490835 0 0.0050974791726237836 0.0030889344391787465 0 0.0050000121985799501 0.0029464595488558586 0 0.0050974791726237836 0.0030889344391787465 0 0.0051923058019183203 0.0030689795320808615 0 0.0051141154084470139 0.0029908686929039654 0 0.0052100653696677806 0.0029495558680877883 0 0.0051923058019183203 0.0030689795320808615 0 0.0051141154084470139 0.0029908686929039654 0 0.0052100653696677806 0.0029495558680877883 0 0.0051487123555158691 0.0029180378750866104 0 0.0051141154084470139 0.0029908686929039654 0 0.0051487123555158691 0.0029180378750866104 0 0.0051141154084470139 0.0029908686929039654 0 0.0050000121985799501 0.0029464595488558586 0 0.0051340391510632391 0.0027972528176362483 0 0.0049999857209154959 0.0029461289861527989 0 0.0049999921836537597 0.0027484331592584526 0 0.0052747584052319791 0.0027659696454067585 0 0.0049998006124052398 0.0029464040905586974 0 0.0051340391510632391 0.0027972528176362483 0 0.0049999921836537597 0.0027484331592584526 0 0.0050836754658799659 0.0026550149368898103 0 0.0051656704106805406 0.0026693437126402084 0 0.0051340391510632391 0.0027972528176362483 0 0.0050836754658799659 0.0026550149368898103 0 0.0050000131316753297 0.0027482638348162274 0 0.0051173635259521288 0.0025853373645886675 0 0.0049999992241094087 0.0027482750773725017 0 0.0051441274889233056 0.0025380292397255704 0 0.0050000009608718804 0.0024560519179772085 0 0.0051441274889233056 0.0025380292397255704 0 0.0050000009608718804 0.0024560519179772085 0 0.0051317727605149771 0.0023266015561828508 0 0.0051173635259521288 0.0025853373645886675 0 0.0052085754896136743 0.0025045864826240163 0 0.0051441274889233056 0.0025380292397255704 0 0.0052926499641612204 0.0023286241781471798 0 0.0051317727605149771 0.0023266015561828508 0 0.0051656704106805406 0.0026693437126402084 0 0.0050836754658799659 0.0026550149368898103 0 0.0051456653728924624 0.0025603400355003083 0 0.0052926499641612204 0.0023286241781471798 0 0.0051317727605149771 0.0023266015561828508 0 0.0052250030407392104 0.0021419453185054522 0 0.0050000009608718804 0.0024560519179772085 0 0.0051317727605149771 0.0023266015561828508 0 0.0050000009383384314 0.002163840631703092 0 0.0051317727605149771 0.0023266015561828508 0 0.0050000009383384314 0.002163840631703092 0 0.0052250030407392104 0.0021419453185054522 0 0.0043015081553584647 0.0035061323641562589 0 0.0046466913926888542 0.0023641770067210676 0 0.0034825377924769694 0.004053838843470315 0 0.0035118809960608993 0.0040215583133311368 0 0.0035725958542369022 0.0037756909875419726 0 0.0046466913926888542 0.0023641770067210676 0 0.0038192172053529323 0.0030787647836117292 0 0.0035118809960608993 0.0040215583133311368 0 0.0035725958542369022 0.0037756909875419726 0 0.0036599594210352609 0.0038989988024498213 0 0.0033204232358018514 0.0039999024693264888 0 0.0038192172053529323 0.0030787647836117292 0 0.0034957249700252381 0.0040385183623114036 0 0.0035118809960608993 0.0040215583133311368 0 0.0034917110334436717 0.0040505184660526369 0 0.0034781722440383914 0.0040443908951758303 0 0.0034957249700252381 0.0040385183623114036 0 0.0034917110334436717 0.0040505184660526369 0 0.0052440519653385378 0.0026485268735357585 0 0.0051656704106805406 0.0026693437126402084 0 0.0051456653728924624 0.0025603400355003083 0 0.0052440519653385378 0.0026485268735357585 0 0.0051456653728924624 0.0025603400355003083 0 0.0052770177483225959 0.0025581702808378727 0 0.0052085754896136743 0.0025045864826240163 0 0.0052916299430111648 0.0019373482565883734 0 0.0052926499641612204 0.0023286241781471798 0 0.0054521342854465752 0.002105557253464009 0 0.0052250030407392104 0.0021419453185054522 0 0.0051456653728924624 0.0025603400355003083 0 0.0052770177483225959 0.0025581702808378727 0 0.0052117359468797399 0.002452619824196671 0 0.0051981487509306142 0.0014616695070226158 0 0.0052117102111497908 0.0015016745732870402 0 0.0051870310944170809 0.0014875512097289355 0 0.0046466913926888542 0.0023641770067210676 0 0.0052916299430111648 0.0019373482565883734 0 0.0051981487509306142 0.0014616695070226158 0 0.0052117102111497908 0.0015016745732870402 0 0.0052395392112288995 0.0015146689181368832 0 0.0046466913926888542 0.0023641770067210676 0 0.0052680085347811849 0.0012155880653649297 0 0.00520654749627672 0.0015160699517552385 0 0.0052117102111497908 0.0015016745732870402 0 0.0051870310944170809 0.0014875512097289355 0 0.0052117102111497908 0.0015016745732870402 0 0.0052301045339276358 0.0015304095103231227 0 0.0052395392112288995 0.0015146689181368832 0 0.00520654749627672 0.0015160699517552385 0 0.0052117102111497908 0.0015016745732870402 0 0.0052301045339276358 0.0015304095103231227 0 0.00520654749627672 0.0015160699517552385 0 0.0052301045339276358 0.0015304095103231227 0 0.0052216343569190284 0.0015461907565893775 0 0.0054521342854465752 0.002105557253464009 0 0.0053382768565011871 0.0019244430696134856 0 0.0052250030407392104 0.0021419453185054522 0 0.0052916299430111648 0.0019373482565883734 0 0.0052782052745686328 0.0017382646992943839 0 0.0052301045339276358 0.0015304095103231227 0 0.005239702500024682 0.0015195495281654832 0 0.0052339980479775604 0.0015650306269297922 0 0.0053477748077502829 0.0017370844587044931 0 0.0052916299430111648 0.0019373482565883734 0 0.005239702500024682 0.0015195495281654832 0 0.0052439271973940835 0.0015891875358505583 0 0.0052339980479775604 0.0015650306269297922 0 0.0052439271973940835 0.0015891875358505583 0 0.0052339980479775604 0.0015650306269297922 0 0.0052300838018217131 0.001613444316018561 0 0.0052339980479775604 0.0015650306269297922 0 0.0052286809557866654 0.0015747026885426698 0 0.0052300838018217131 0.001613444316018561 0 0.0052301045339276358 0.0015304095103231227 0 0.0052339980479775604 0.0015650306269297922 0 0.0052216343569190284 0.0015461907565893775 0 0.0052339980479775604 0.0015650306269297922 0 0.0052216343569190284 0.0015461907565893775 0 0.0052286809557866654 0.0015747026885426698 0 0.0052216343569190284 0.0015461907565893775 0 0.0052286809557866654 0.0015747026885426698 0 0.0052162026016871581 0.0015358539045562888 0 0.00520654749627672 0.0015160699517552385 0 0.0052216343569190284 0.0015461907565893775 0 0.0052162026016871581 0.0015358539045562888 0 0.0050000009383384314 0.002163840631703092 0 0.0052250030407392104 0.0021419453185054522 0 0.005144695006116363 0.0019693151784440279 0 0.0053382768565011871 0.0019244430696134856 0 0.005144695006116363 0.0019693151784440279 0 0.0051936446035706829 0.0016994820080291982 0 0.0053382768565011871 0.0019244430696134856 0 0.0052250030407392104 0.0021419453185054522 0 0.005144695006116363 0.0019693151784440279 0 0.0050000009383384314 0.002163840631703092 0 0.005144695006116363 0.0019693151784440279 0 0.0049999673987370921 0.0018715018722485436 0 0.005144695006116363 0.0019693151784440279 0 0.0049999673987370921 0.0018715018722485436 0 0.0051936446035706829 0.0016994820080291982 0 0.0051936446035706829 0.0016994820080291982 0 0.0052371587117645974 0.0015673687564908315 0 0.0051524031553408407 0.0014755468982701476 0 0.0050000055977667971 0.0015793253283804 0 0.0051936446035706829 0.0016994820080291982 0 0.0051524031553408407 0.0014755468982701476 0 0.0049999673987370921 0.0018715018722485436 0 0.0050000055977667971 0.0015793253283804 0 0.0051936446035706829 0.0016994820080291982 0 0.0052782052745686328 0.0017382646992943839 0 0.0052089925618436393 0.0016983763821271226 0 0.0052439271973940835 0.0015891875358505583 0 0.0051936446035706829 0.0016994820080291982 0 0.0052300838018217131 0.001613444316018561 0 0.0052300838018217131 0.001613444316018561 0 0.0052460763537709853 0.0015770158485987548 0 0.0052371587117645974 0.0015673687564908315 0 0.0051936446035706829 0.0016994820080291982 0 0.0052300838018217131 0.001613444316018561 0 0.0052371587117645974 0.0015673687564908315 0 0.0052286809557866654 0.0015747026885426698 0 0.0052460763537709853 0.0015770158485987548 0 0.0052162026016871581 0.0015358539045562888 0 0.0052286809557866654 0.0015747026885426698 0 0.0052300838018217131 0.001613444316018561 0 0.0052460763537709853 0.0015770158485987548 0 0.0052460763537709853 0.0015770158485987548 0 0.0052371587117645974 0.0015673687564908315 0 0.0052746435818574596 0.0015348705261618197 0 0.0052371587117645974 0.0015673687564908315 0 0.0052420431978885546 0.001419200160830127 0 0.0051524031553408407 0.0014755468982701476 0 0.0052371587117645974 0.0015673687564908315 0 0.0052746435818574596 0.0015348705261618197 0 0.0052420431978885546 0.001419200160830127 0 0.0052420431978885546 0.001419200160830127 0 0.0053058563766977124 0.0014943802194674152 0 0.0052934007058654409 0.0013618946685649545 0 0.0052746435818574596 0.0015348705261618197 0 0.0052420431978885546 0.001419200160830127 0 0.0053058563766977124 0.0014943802194674152 0 0.0052420431978885546 0.001419200160830127 0 0.0051524031553408407 0.0014755468982701476 0 0.0051422021077532692 0.0011903851635122506 0 0.0049999503144548983 0.0012872081978659484 0 0.0051524031553408407 0.0014755468982701476 0 0.0051422021077532692 0.0011903851635122506 0 0.0050000055977667971 0.0015793253283804 0 0.0049999503144548983 0.0012872081978659484 0 0.0051524031553408407 0.0014755468982701476 0 0.0051920942277704244 0.001733136584898719 0 0.0052793539409999053 0.0015769175976352633 0 0.0052131474011532179 0.0015829985250810248 0 0.0051920942277704244 0.001733136584898719 0 0.0046228151118897377 0.0019940614962368551 0 0.0049698140902723949 0.0023205743190428782 0 0.0051892066176649522 0.0017538196909264538 0 0.005109852558550761 0.0019293665109210863 0 0.0051920942277704244 0.001733136584898719 0 0.00526610824717977 0.0015538051927649192 0 0.0052644903163211318 0.0015583868103479339 0 0.0051920942277704244 0.001733136584898719 0 0.00526610824717977 0.0015538051927649192 0 0.0052793539409999053 0.0015769175976352633 0 0.0053058563766977124 0.0014943802194674152 0 0.0052793539409999053 0.0015769175976352633 0 0.0053736603792736556 0.0014701435505065216 0 0.00526610824717977 0.0015538051927649192 0 0.0052793539409999053 0.0015769175976352633 0 0.0053736603792736556 0.0014701435505065216 0 0.0053058563766977124 0.0014943802194674152 0 0.0052934007058654409 0.0013618946685649545 0 0.0053736603792736556 0.0014701435505065216 0 0.0052746435818574596 0.0015348705261618197 0 0.0053058563766977124 0.0014943802194674152 0 0.0052793539409999053 0.0015769175976352633 0 0.0052746435818574596 0.0015348705261618197 0 0.0052793539409999053 0.0015769175976352633 0 0.0052570089024623389 0.0015633214271759941 0 0.0052131474011532179 0.0015829985250810248 0 0.0052570089024623389 0.0015633214271759941 0 0.0052221907110327993 0.0015398653184542858 0 0.0052793539409999053 0.0015769175976352633 0 0.0052131474011532179 0.0015829985250810248 0 0.0052570089024623389 0.0015633214271759941 0 0.0052460763537709853 0.0015770158485987548 0 0.0052746435818574596 0.0015348705261618197 0 0.0052570089024623389 0.0015633214271759941 0 0.0052460763537709853 0.0015770158485987548 0 0.0052570089024623389 0.0015633214271759941 0 0.0052221907110327993 0.0015398653184542858 0 0.0052460763537709853 0.0015770158485987548 0 0.0052221907110327993 0.0015398653184542858 0 0.0052162026016871581 0.0015358539045562888 0 0.0052221907110327993 0.0015398653184542858 0 0.0051295185796432115 0.0014827769333049558 0 0.0051743737999655759 0.0014882888803772571 0 0.0052131474011532179 0.0015829985250810248 0 0.0052221907110327993 0.0015398653184542858 0 0.0051295185796432115 0.0014827769333049558 0 0.0052131474011532179 0.0015829985250810248 0 0.0051295185796432115 0.0014827769333049558 0 0.0049970878626967707 0.0015449068721345696 0 0.0051920942277704244 0.001733136584898719 0 0.0052131474011532179 0.0015829985250810248 0 0.0049970878626967707 0.0015449068721345696 0 0.0051920942277704244 0.001733136584898719 0 0.0049970878626967707 0.0015449068721345696 0 0.0046801441505795703 0.0016764267068908941 0 0.0051295185796432115 0.0014827769333049558 0 0.0049970878626967707 0.0015449068721345696 0 0.0049541619461928059 0.0013677930321815907 0 0.0043363503022490245 0.0015590689167054583 0 0.0042029732779975074 0.001734390896779657 0 0.0051295185796432115 0.0014827769333049558 0 0.0049541619461928059 0.0013677930321815907 0 0.0051132436503592144 0.0014141374209042815 0 0.0051295185796432115 0.0014827769333049558 0 0.0051132436503592144 0.0014141374209042815 0 0.0051743737999655759 0.0014882888803772571 0 0.0033361543116322478 0.0020053723763079775 0 0.0037900906459273661 0.0020379139692552916 0 0.0034033094434027631 0.0024519236541666882 0 0.0037344789674665295 0.0017399029856648089 0 0.0033361543116322478 0.0020053723763079775 0 0.0037900906459273661 0.0020379139692552916 0 0.00520654749627672 0.0015160699517552385 0 0.0052162026016871581 0.0015358539045562888 0 0.0051786678918290842 0.0014792266852007266 0 0.0052162026016871581 0.0015358539045562888 0 0.0051743737999655759 0.0014882888803772571 0 0.0051786678918290842 0.0014792266852007266 0 0.0052221907110327993 0.0015398653184542858 0 0.0052162026016871581 0.0015358539045562888 0 0.0051743737999655759 0.0014882888803772571 0 0.0051132436503592144 0.0014141374209042815 0 0.0051786678918290842 0.0014792266852007266 0 0.0051639616773537589 0.0014663820295745329 0 0.0051132436503592144 0.0014141374209042815 0 0.0051743737999655759 0.0014882888803772571 0 0.0051786678918290842 0.0014792266852007266 0 0.0042029732779975074 0.001734390896779657 0 0.0040405396743759198 0.0017881907659404656 0 0.00520654749627672 0.0015160699517552385 0 0.0051786678918290842 0.0014792266852007266 0 0.0051870310944170809 0.0014875512097289355 0 0.0051786678918290842 0.0014792266852007266 0 0.0051870310944170809 0.0014875512097289355 0 0.0051639616773537589 0.0014663820295745329 0 0.0040405396743759198 0.0017881907659404656 0 0.0038192172053529323 0.0030787647836117292 0 0.0051764331109510307 0.0014877995795505169 0 0.0051870310944170809 0.0014875512097289355 0 0.0051639616773537589 0.0014663820295745329 0 0.0051764331109510307 0.0014877995795505169 0 0.0051639616773537589 0.0014663820295745329 0 0.0051699028458503122 0.0014910180424572031 0 0.0028492775860886636 0.0023674683501229412 0 0.0029513171273116423 0.0029483827734842379 0 0.0034033094434027631 0.0024519236541666882 0 0.0028492775860886636 0.0023674683501229412 0 0.0029513171273116423 0.0029483827734842379 0 0.0023019365479251771 0.0027961428391731586 0 0.0027280222118287014 0.0034509766913098745 0 0.0029513171273116423 0.0029483827734842379 0 0.0023019365479251771 0.0027961428391731586 0 0.0037900906459273661 0.0020379139692552916 0 0.0034033094434027631 0.0024519236541666882 0 0.0039084447085906537 0.0024014662074574558 0 0.0033361543116322478 0.0020053723763079775 0 0.0028492775860886636 0.0023674683501229412 0 0.0034033094434027631 0.0024519236541666882 0 0.0029513171273116423 0.0029483827734842379 0 0.0034033094434027631 0.0024519236541666882 0 0.0034940109431198956 0.0029903564833254322 0 0.0030977222343021803 0.0037997055442989237 0 0.0030321590359249201 0.003871118474477173 0 0.0030566918881278259 0.0039297332871270343 0 0.0034033094434027631 0.0024519236541666882 0 0.0034940109431198956 0.0029903564833254322 0 0.0039084447085906537 0.0024014662074574558 0 0.0032723700894721035 0.0034007190209694713 0 0.0034727618879766106 0.0031652009689093394 0 0.0030566918881278259 0.0039297332871270343 0 0.0029366952408094804 0.0039454510024962983 0 0.0029712010423245693 0.0040282070621986575 0 0.0034727618879766106 0.0031652009689093394 0 0.0035467293402312492 0.0030058164544151215 0 0.0030321590359249201 0.003871118474477173 0 0.0030566918881278259 0.0039297332871270343 0 0.0029366952408094804 0.0039454510024962983 0 0.0029658245536808492 0.0038602407165728293 0 0.0030321590359249201 0.003871118474477173 0 0.0029366952408094804 0.0039454510024962983 0 0.0029658245536808492 0.0038602407165728293 0 0.0028579082106698454 0.0039059319600710609 0 0.0029366952408094804 0.0039454510024962983 0 0.0028579082106698454 0.0039059319600710609 0 0.0028406811391558321 0.0039641932944292427 0 0.0029366952408094804 0.0039454510024962983 0 0.0028579082106698454 0.0039059319600710609 0 0.0028406811391558321 0.0039641932944292427 0 0.0027737349179348539 0.0039072871961568926 0 0.0028406811391558321 0.0039641932944292427 0 0.0029366952408094804 0.0039454510024962983 0 0.0028480204480041869 0.0040368433224056933 0 0.0028406811391558321 0.0039641932944292427 0 0.0028480204480041869 0.0040368433224056933 0 0.0027437705356814775 0.0039816061765741862 0 0.0029366952408094804 0.0039454510024962983 0 0.0028480204480041869 0.0040368433224056933 0 0.0029712010423245693 0.0040282070621986575 0 0.0028480204480041869 0.0040368433224056933 0 0.0028687220070653789 0.0041143615045344632 0 0.0029712010423245693 0.0040282070621986575 0 0.0032724681074636571 0.00262684672613131 0 0.0031405005138171677 0.00269613156035545 0 0.0028480204480041869 0.0040368433224056933 0 0.0028687220070653789 0.0041143615045344632 0 0.0027606740986574033 0.0040831968683103974 0 0.0039594445796052287 0.0015395237772339036 0 0.0034541356404235927 0.0012341396811959453 0 0.003808353231154919 0.0015785752860149394 0 0.0039544644046445396 0.00157655486082973 0 0.0039852621386504512 0.0016039134857173799 0 0.0039633260865626716 0.0016282897700939654 0 0.0039544644046445396 0.00157655486082973 0 0.0039594445796052287 0.0015395237772339036 0 0.0039852621386504512 0.0016039134857173799 0 0.0039544644046445396 0.00157655486082973 0 0.0039188566777949236 0.0015834311040657894 0 0.0039594445796052287 0.0015395237772339036 0 0.0039188566777949236 0.0015834311040657894 0 0.0039594445796052287 0.0015395237772339036 0 0.003808353231154919 0.0015785752860149394 0 0.0039594445796052287 0.0015395237772339036 0 0.0040387806207320522 0.0016414826863559255 0 0.004127737255934771 0.0019024812500330471 0 0.0032724681074636571 0.00262684672613131 0 0.0035467293402312492 0.0030058164544151215 0 0.0039852621386504512 0.0016039134857173799 0 0.0040387806207320522 0.0016414826863559255 0 0.0039633260865626716 0.0016282897700939654 0 0.0039594445796052287 0.0015395237772339036 0 0.0039852621386504512 0.0016039134857173799 0 0.0040387806207320522 0.0016414826863559255 0 0.0040387806207320522 0.0016414826863559255 0 0.0040511385338567471 0.0016993471567247945 0 0.0040676018028420798 0.0016635268664418072 0 0.0040511385338567471 0.0016993471567247945 0 0.0039473564860797814 0.0017896937435679832 0 0.0040063561136776749 0.0016336187189291442 0 0.0040387806207320522 0.0016414826863559255 0 0.0040511385338567471 0.0016993471567247945 0 0.004127737255934771 0.0019024812500330471 0 0.0040511385338567471 0.0016993471567247945 0 0.0039473564860797814 0.0017896937435679832 0 0.004127737255934771 0.0019024812500330471 0 0.0037344789674665295 0.0017399029856648089 0 0.0037900906459273661 0.0020379139692552916 0 0.0039473564860797814 0.0017896937435679832 0 0.0043363503022490245 0.0015590689167054583 0 0.0042975551068421504 0.0015479676394175295 0 0.0037344789674665295 0.0017399029856648089 0 0.0039473564860797814 0.0017896937435679832 0 0.0040063561136776749 0.0016336187189291442 0 0.0037900906459273661 0.0020379139692552916 0 0.0039473564860797814 0.0017896937435679832 0 0.004127737255934771 0.0019024812500330471 0 0.0037900906459273661 0.0020379139692552916 0 0.0039084447085906537 0.0024014662074574558 0 0.004127737255934771 0.0019024812500330471 0 0.0024966723113109836 0.0040146729863567258 0 0.002600399565298036 0.003953949975770951 0 0.0024331256711178683 0.0039226525776710737 0 0.0025701927568405492 0.003867520281538759 0 0.002600399565298036 0.003953949975770951 0 0.0024331256711178683 0.0039226525776710737 0 0.0025439542434502081 0.0025177381904282659 0 0.0027911817216125217 0.0025610747859314944 0 0.0024966723113109836 0.0040146729863567258 0 0.002600399565298036 0.003953949975770951 0 0.0026397279861140408 0.0040544213839087085 0 0.002600399565298036 0.003953949975770951 0 0.0027437705356814775 0.0039816061765741862 0 0.0026397279861140408 0.0040544213839087085 0 0.0026826368656551096 0.0038778929054851486 0 0.002600399565298036 0.003953949975770951 0 0.0027437705356814775 0.0039816061765741862 0 0.0028406811391558321 0.0039641932944292427 0 0.0027737349179348539 0.0039072871961568926 0 0.0027437705356814775 0.0039816061765741862 0 0.0026826368656551096 0.0038778929054851486 0 0.0027737349179348539 0.0039072871961568926 0 0.0027437705356814775 0.0039816061765741862 0 0.0028480204480041869 0.0040368433224056933 0 0.0027437705356814775 0.0039816061765741862 0 0.0027606740986574033 0.0040831968683103974 0 0.0034541356404235927 0.0012341396811959453 0 0.0032467023240413165 0.001656944724429867 0 0.0035962465243623704 0.0016526637814018115 0 0.0034541356404235927 0.0012341396811959453 0 0.0035962465243623704 0.0016526637814018115 0 0.003808353231154919 0.0015785752860149394 0 0.0034541356404235927 0.0012341396811959453 0 0.0030116000633511599 0.0013936286202741617 0 0.0032467023240413165 0.001656944724429867 0 0.0027437705356814775 0.0039816061765741862 0 0.0027606740986574033 0.0040831968683103974 0 0.0026397279861140408 0.0040544213839087085 0 0.0031405005138171677 0.00269613156035545 0 0.0027911817216125217 0.0025610747859314944 0 0.0034541356404235927 0.0012341396811959453 0 0.0029545337930557839 0.0010751785870565893 0 0.0030116000633511599 0.0013936286202741617 0 0.0025631007680520499 0.0010034648285881746 0 0.0029545337930557839 0.0010751785870565893 0 0.0026647750706711749 0.0013222065221548188 0 0.0030116000633511599 0.0013936286202741617 0 0.0026647750706711749 0.0013222065221548188 0 0.0026765824972195726 0.0015732525987089804 0 0.0029545337930557839 0.0010751785870565893 0 0.0030116000633511599 0.0013936286202741617 0 0.0026647750706711749 0.0013222065221548188 0 0.0026647750706711749 0.0013222065221548188 0 0.0023995921745074943 0.0015518151879113547 0 0.0024045871200630304 0.0012927822895836079 0 0.0026647750706711749 0.0013222065221548188 0 0.0026765824972195726 0.0015732525987089804 0 0.0023995921745074943 0.0015518151879113547 0 0.0025631007680520499 0.0010034648285881746 0 0.0026647750706711749 0.0013222065221548188 0 0.0024045871200630304 0.0012927822895836079 0 0.0024447558327470287 0.0016836047113604625 0 0.0025200883922383626 0.0017049759218743014 0 0.0026765824972195726 0.0015732525987089804 0 0.0024447558327470287 0.0016836047113604625 0 0.0025200883922383626 0.0017049759218743014 0 0.002411179506451457 0.0017754534221939842 0 0.0024447558327470287 0.0016836047113604625 0 0.0026765824972195726 0.0015732525987089804 0 0.0023995921745074943 0.0015518151879113547 0 0.0026765824972195726 0.0015732525987089804 0 0.0030032187834699116 0.0016809665338137067 0 0.0029738888074640059 0.0019156885637675466 0 0.0030116000633511599 0.0013936286202741617 0 0.0026765824972195726 0.0015732525987089804 0 0.0030032187834699116 0.0016809665338137067 0 0.0026731647224396042 0.0015747303521915941 0 0.0027757723499696818 0.0017992247342886673 0 0.0025200883922383626 0.0017049759218743014 0 0.0026765824972195726 0.0015732525987089804 0 0.0025727793079697047 0.0016972178052429355 0 0.0030032187834699116 0.0016809665338137067 0 0.0029738888074640059 0.0019156885637675466 0 0.0031785328019226168 0.0018155297589214658 0 0.0025200883922383626 0.0017049759218743014 0 0.0025727793079697047 0.0016972178052429355 0 0.0025177092826724084 0.00176070564513264 0 0.003232055720768985 0.0019933706662691175 0 0.0034201619960620927 0.0018229260454632322 0 0.0035289397817110553 0.0019822981506412724 0 0.0029738888074640059 0.0019156885637675466 0 0.003232055720768985 0.0019933706662691175 0 0.0031793006291044074 0.002243568332663769 0 0.003232055720768985 0.0019933706662691175 0 0.0031785328019226168 0.0018155297589214658 0 0.0034201619960620927 0.0018229260454632322 0 0.0029738888074640059 0.0019156885637675466 0 0.003232055720768985 0.0019933706662691175 0 0.0031785328019226168 0.0018155297589214658 0 0.0030116000633511599 0.0013936286202741617 0 0.0030032187834699116 0.0016809665338137067 0 0.0032467023240413165 0.001656944724429867 0 0.0030032187834699116 0.0016809665338137067 0 0.0031785328019226168 0.0018155297589214658 0 0.0032467023240413165 0.001656944724429867 0 0.0031785328019226168 0.0018155297589214658 0 0.0032467023240413165 0.001656944724429867 0 0.0034201619960620927 0.0018229260454632322 0 0.0032467023240413165 0.001656944724429867 0 0.0035962465243623704 0.0016526637814018115 0 0.0034201619960620927 0.0018229260454632322 0 0.0035962465243623704 0.0016526637814018115 0 0.0034201619960620927 0.0018229260454632322 0 0.0037250293985318338 0.001798320640026466 0 0.0035289397817110553 0.0019822981506412724 0 0.0037250293985318338 0.001798320640026466 0 0.0037627424000418407 0.0019970747725662303 0 0.0034201619960620927 0.0018229260454632322 0 0.0035289397817110553 0.0019822981506412724 0 0.0037250293985318338 0.001798320640026466 0 0.0035289397817110553 0.0019822981506412724 0 0.0036023881554388569 0.002141509838837645 0 0.0037627424000418407 0.0019970747725662303 0 0.0035289397817110553 0.0019822981506412724 0 0.0036023881554388569 0.002141509838837645 0 0.0034169854586921684 0.0021102236761104702 0 0.0036023881554388569 0.002141509838837645 0 0.0035250380760630767 0.0022728526156859828 0 0.0034169854586921684 0.0021102236761104702 0 0.0036023881554388569 0.002141509838837645 0 0.0035250380760630767 0.0022728526156859828 0 0.0037835969684757264 0.0022072598396428436 0 0.0035250380760630767 0.0022728526156859828 0 0.0032366782122071323 0.0021296616604758681 0 0.0034271807770956944 0.0024827622918146639 0 0.0028039203299119659 0.0019918950701345536 0 0.0024081646353493911 0.0018690972890631128 0 0.0028039203299119659 0.0019918950701345536 0 0.002857756593837382 0.0021550741934200594 0 0.0023502417845926524 0.0019179609028260652 0 0.0023579204794982448 0.001842290698903443 0 0.0023087824321998407 0.001836017263470738 0 0.003232055720768985 0.0019933706662691175 0 0.0035289397817110553 0.0019822981506412724 0 0.0034169854586921684 0.0021102236761104702 0 0.0035250380760630767 0.0022728526156859828 0 0.0032366782122071323 0.0021296616604758681 0 0.0034169854586921684 0.0021102236761104702 0 0.003232055720768985 0.0019933706662691175 0 0.0032366782122071323 0.0021296616604758681 0 0.0034169854586921684 0.0021102236761104702 0 0.003146677865889957 0.0020319519615105423 0 0.0028039203299119659 0.0019918950701345536 0 0.0027757723499696818 0.0017992247342886673 0 0.0028039203299119659 0.0019918950701345536 0 0.0025727793079697047 0.0016972178052429355 0 0.0025723496859240617 0.0017881289289398484 0 0.0025177092826724084 0.00176070564513264 0 0.0025723496859240617 0.0017881289289398484 0 0.0025177092826724084 0.00176070564513264 0 0.0024814692335095542 0.0018286513054268378 0 0.0024814692335095542 0.0018286513054268378 0 0.0024343699039591506 0.0018913104204852174 0 0.0025173439030490531 0.0019048239107187898 0 0.0025723496859240617 0.0017881289289398484 0 0.0024814692335095542 0.0018286513054268378 0 0.0025173439030490531 0.0019048239107187898 0 0.0024814692335095542 0.0018286513054268378 0 0.0023521948417658941 0.0018539019212488145 0 0.0024343699039591506 0.0018913104204852174 0 0.0024814692335095542 0.0018286513054268378 0 0.0023521948417658941 0.0018539019212488145 0 0.002411179506451457 0.0017754534221939842 0 0.0025177092826724084 0.00176070564513264 0 0.0024814692335095542 0.0018286513054268378 0 0.002411179506451457 0.0017754534221939842 0 0.0025200883922383626 0.0017049759218743014 0 0.0025177092826724084 0.00176070564513264 0 0.002411179506451457 0.0017754534221939842 0 0.0046801441505795703 0.0016764267068908941 0 0.004128609680814908 0.0017151789891437482 0 0.0046228151118897377 0.0019940614962368551 0 0.0046801441505795703 0.0016764267068908941 0 0.0046157352416785601 0.0014185655208728597 0 0.004128609680814908 0.0017151789891437482 0 0.0049970878626967707 0.0015449068721345696 0 0.0046801441505795703 0.0016764267068908941 0 0.0046157352416785601 0.0014185655208728597 0 0.0049970878626967707 0.0015449068721345696 0 0.0049541619461928059 0.0013677930321815907 0 0.0046157352416785601 0.0014185655208728597 0 0.0040063561136776749 0.0016336187189291442 0 0.0040676018028420798 0.0016635268664418072 0 0.004128609680814908 0.0017151789891437482 0 0.0042975551068421504 0.0015479676394175295 0 0.0041312185093741755 0.0017014566706190924 0 0.0040511385338567471 0.0016993471567247945 0 0.0040063561136776749 0.0016336187189291442 0 0.0040676018028420798 0.0016635268664418072 0 0.0040676018028420798 0.0016635268664418072 0 0.0039568831094246946 0.0017047694070253924 0 0.004128609680814908 0.0017151789891437482 0 0.0040387806207320522 0.0016414826863559255 0 0.0040676018028420798 0.0016635268664418072 0 0.0039633260865626716 0.0016282897700939654 0 0.0040676018028420798 0.0016635268664418072 0 0.0039633260865626716 0.0016282897700939654 0 0.0039568831094246946 0.0017047694070253924 0 0.0035962465243623704 0.0016526637814018115 0 0.003808353231154919 0.0015785752860149394 0 0.0038039942725530255 0.0016804708819624088 0 0.0039188566777949236 0.0015834311040657894 0 0.003808353231154919 0.0015785752860149394 0 0.0039633260865626716 0.0016282897700939654 0 0.003808353231154919 0.0015785752860149394 0 0.0039633260865626716 0.0016282897700939654 0 0.0038039942725530255 0.0016804708819624088 0 0.0039544644046445396 0.00157655486082973 0 0.0039188566777949236 0.0015834311040657894 0 0.0039633260865626716 0.0016282897700939654 0 0.0039633260865626716 0.0016282897700939654 0 0.0039568831094246946 0.0017047694070253924 0 0.0038039942725530255 0.0016804708819624088 0 0.0035962465243623704 0.0016526637814018115 0 0.0038039942725530255 0.0016804708819624088 0 0.0037250293985318338 0.001798320640026466 0 0.0039568831094246946 0.0017047694070253924 0 0.0038039942725530255 0.0016804708819624088 0 0.0037250293985318338 0.001798320640026466 0 0.0037250293985318338 0.001798320640026466 0 0.0039140995215663941 0.0018417417701875518 0 0.0037627424000418407 0.0019970747725662303 0 0.0039568831094246946 0.0017047694070253924 0 0.0037250293985318338 0.001798320640026466 0 0.0039140995215663941 0.0018417417701875518 0 0.0039140995215663941 0.0018417417701875518 0 0.004128609680814908 0.0017151789891437482 0 0.003987849211956703 0.0020283884912337944 0 0.0039568831094246946 0.0017047694070253924 0 0.0039140995215663941 0.0018417417701875518 0 0.004128609680814908 0.0017151789891437482 0 0.004128609680814908 0.0017151789891437482 0 0.003987849211956703 0.0020283884912337944 0 0.0042560860664788381 0.0020926991302970951 0 0.0039140995215663941 0.0018417417701875518 0 0.003987849211956703 0.0020283884912337944 0 0.0037627424000418407 0.0019970747725662303 0 0.003987849211956703 0.0020283884912337944 0 0.0037627424000418407 0.0019970747725662303 0 0.0037835969684757264 0.0022072598396428436 0 0.0036023881554388569 0.002141509838837645 0 0.0037627424000418407 0.0019970747725662303 0 0.0037835969684757264 0.0022072598396428436 0 0.0035250380760630767 0.0022728526156859828 0 0.0037835969684757264 0.0022072598396428436 0 0.0037570939571345717 0.0024584113970876694 0 0.0037835969684757264 0.0022072598396428436 0 0.0040926509278277649 0.0023604992855031938 0 0.0037570939571345717 0.0024584113970876694 0 0.003987849211956703 0.0020283884912337944 0 0.0040926509278277649 0.0023604992855031938 0 0.0042560860664788381 0.0020926991302970951 0 0.003987849211956703 0.0020283884912337944 0 0.0037835969684757264 0.0022072598396428436 0 0.0040926509278277649 0.0023604992855031938 0 0.0042560860664788381 0.0020926991302970951 0 0.0046228151118897377 0.0019940614962368551 0 0.0044737250292594382 0.0024205042583491472 0 0.0040926509278277649 0.0023604992855031938 0 0.0042560860664788381 0.0020926991302970951 0 0.0044737250292594382 0.0024205042583491472 0 0.004128609680814908 0.0017151789891437482 0 0.0042560860664788381 0.0020926991302970951 0 0.0046228151118897377 0.0019940614962368551 0 0.0051920942277704244 0.001733136584898719 0 0.0046801441505795703 0.0016764267068908941 0 0.0046228151118897377 0.0019940614962368551 0 0.0046228151118897377 0.0019940614962368551 0 0.0044737250292594382 0.0024205042583491472 0 0.0049698140902723949 0.0023205743190428782 0 0.0047422819168051935 0.0027412291442318638 0 0.0044737250292594382 0.0024205042583491472 0 0.0049698140902723949 0.0023205743190428782 0 0.0047422819168051935 0.0027412291442318638 0 0.0043974902070262169 0.0027182892768100133 0 0.004407119365994085 0.0029115840733382986 0 0.0047422819168051935 0.0027412291442318638 0 0.0043974902070262169 0.0027182892768100133 0 0.0044737250292594382 0.0024205042583491472 0 0.0042080174390193622 0.0028199798283364318 0 0.0043974902070262169 0.0027182892768100133 0 0.004407119365994085 0.0029115840733382986 0 0.0042080174390193622 0.0028199798283364318 0 0.0043974902070262169 0.0027182892768100133 0 0.0042242707556468884 0.00257697414947816 0 0.0043974902070262169 0.0027182892768100133 0 0.0042242707556468884 0.00257697414947816 0 0.0044737250292594382 0.0024205042583491472 0 0.0040926509278277649 0.0023604992855031938 0 0.0042242707556468884 0.00257697414947816 0 0.0044737250292594382 0.0024205042583491472 0 0.0040926509278277649 0.0023604992855031938 0 0.0037570939571345717 0.0024584113970876694 0 0.0039994076097123995 0.0026762757601573798 0 0.0040926509278277649 0.0023604992855031938 0 0.0042242707556468884 0.00257697414947816 0 0.0039994076097123995 0.0026762757601573798 0 0.0037570939571345717 0.0024584113970876694 0 0.0037447871400675256 0.0026879511384997989 0 0.0039994076097123995 0.0026762757601573798 0 0.0037447871400675256 0.0026879511384997989 0 0.0040010035909233263 0.0030011485036994189 0 0.0036214491968800276 0.0028970404788623864 0 0.0037447871400675256 0.0026879511384997989 0 0.0039994076097123995 0.0026762757601573798 0 0.0040010035909233263 0.0030011485036994189 0 0.0042080174390193622 0.0028199798283364318 0 0.0039994076097123995 0.0026762757601573798 0 0.0040010035909233263 0.0030011485036994189 0 0.0042080174390193622 0.0028199798283364318 0 0.0042242707556468884 0.00257697414947816 0 0.0039994076097123995 0.0026762757601573798 0 0.0042080174390193622 0.0028199798283364318 0 0.0040010035909233263 0.0030011485036994189 0 0.0042285420146827837 0.0030376568404107767 0 0.0040010035909233263 0.0030011485036994189 0 0.0038733318919425904 0.0031081626578444706 0 0.0040414180329614406 0.003222698400548557 0 0.0040179685961602872 0.0032697805071590872 0 0.003286984513773451 0.0026352724881068598 0 0.0040010035909233263 0.0030011485036994189 0 0.0040641385469530455 0.0032768492084666958 0 0.0042285420146827837 0.0030376568404107767 0 0.0040010035909233263 0.0030011485036994189 0 0.0038733318919425904 0.0031081626578444706 0 0.0036214491968800276 0.0028970404788623864 0 0.0027558559155132839 0.0023500164632871468 0 0.003008527596705301 0.0023783995096841371 0 0.0038733318919425904 0.0031081626578444706 0 0.003817364051747213 0.0033044248288309395 0 0.0036214491968800276 0.0028970404788623864 0 0.0038733318919425904 0.0031081626578444706 0 0.003817364051747213 0.0033044248288309395 0 0.0040414180329614406 0.003222698400548557 0 0.0027558559155132839 0.0023500164632871468 0 0.003286984513773451 0.0026352724881068598 0 0.0023782757107675659 0.002248061623368013 0 0.0020626510729044954 0.002363138302768234 0 0.0021623952427915166 0.0021624437866635806 0 0.0020626510729044954 0.002363138302768234 0 0.0019784367385202485 0.0020296730567893719 0 0.0021623952427915166 0.0021624437866635806 0 0.003286984513773451 0.0026352724881068598 0 0.0025980517545821534 0.0019999590520385709 0 0.0031968204537370631 0.0019777034152951563 0 0.0032781162198181417 0.0020237610288204397 0 0.003223831957241758 0.0020931701634765258 0 0.0032781162198181417 0.0020237610288204397 0 0.0033474810260951371 0.0020237456278149762 0 0.003223831957241758 0.0020931701634765258 0 0.0031968204537370631 0.0019777034152951563 0 0.0032781162198181417 0.0020237610288204397 0 0.0033441307532080023 0.0019990516606913054 0 0.0031968204537370631 0.0019777034152951563 0 0.0033441307532080023 0.0019990516606913054 0 0.0034163575482131438 0.0018985606231760868 0 0.003286984513773451 0.0026352724881068598 0 0.0044557932559196392 0.0020614788985296459 0 0.0033441307532080023 0.0019990516606913054 0 0.003350472443413033 0.0020247597621959649 0 0.0034163575482131438 0.0018985606231760868 0 0.0033069663440153771 0.0019131563440524433 0 0.0044557932559196392 0.0020614788985296459 0 0.0032781162198181417 0.0020237610288204397 0 0.0033441307532080023 0.0019990516606913054 0 0.0033474810260951371 0.0020237456278149762 0 0.003316430559039078 0.0019442673372140808 0 0.0033069663440153771 0.0019131563440524433 0 0.0050058715948738649 0.00180063592115919 0 0.0051674158618640982 0.001781564240219978 0 0.0050757771842574947 0.0016869694204267912 0 0.0051967159418556978 0.0016025210875652706 0 0.0051332764108302231 0.0016822873823394526 0 0.0051901714150489921 0.0016608694136407579 0 0.0050007034174661411 0.0022205249679056079 0 0.0044557932559196392 0.0020614788985296459 0 0.0051674158618640982 0.001781564240219978 0 0.0050757771842574947 0.0016869694204267912 0 0.0051901714150489921 0.0016608694136407579 0 0.0047422819168051935 0.0027412291442318638 0 0.0045395848363586223 0.0031153299378755372 0 0.004407119365994085 0.0029115840733382986 0 0.0044557932559196392 0.0020614788985296459 0 0.0053663133242432175 0.001614225618085165 0 0.0045395848363586223 0.0031153299378755372 0 0.004407119365994085 0.0029115840733382986 0 0.0042285420146827837 0.0030376568404107767 0 0.0040641385469530455 0.0032768492084666958 0 0.0045395848363586223 0.0031153299378755372 0 0.0042285420146827837 0.0030376568404107767 0 0.0042080174390193622 0.0028199798283364318 0 0.004407119365994085 0.0029115840733382986 0 0.0042285420146827837 0.0030376568404107767 0 0.0023508933149281432 0.0019242877814403775 0 0.0024372365648248958 0.0019560917579859362 0 0.0023148535596319375 0.0020364448515782429 0 0.0023642392333270128 0.0018160006125780151 0 0.0023173223417077646 0.0018572768317968004 0 0.0024372365648248958 0.0019560917579859362 0 0.0024775762889991627 0.0020365352428015604 0 0.0023148535596319375 0.0020364448515782429 0 0.0023521948417658941 0.0018539019212488145 0 0.0023508933149281432 0.0019242877814403775 0 0.0024343699039591506 0.0018913104204852174 0 0.0023508933149281432 0.0019242877814403775 0 0.0024343699039591506 0.0018913104204852174 0 0.0024372365648248958 0.0019560917579859362 0 0.0024372365648248958 0.0019560917579859362 0 0.0025173439030490531 0.0019048239107187898 0 0.0024775762889991627 0.0020365352428015604 0 0.0024343699039591506 0.0018913104204852174 0 0.0024372365648248958 0.0019560917579859362 0 0.0025173439030490531 0.0019048239107187898 0 0.0023579204794982448 0.001842290698903443 0 0.0023618798672905184 0.0017736378910724029 0 0.0023292402990518061 0.0018053074416478213 0 0.0024081646353493911 0.0018690972890631128 0 0.0023642392333270128 0.0018160006125780151 0 0.0023465040046900224 0.0017727948708505163 0 0.0023340097048784652 0.0017759255788491642 0 0.0023310829001756557 0.0017545100153648933 0 0.0023642392333270128 0.0018160006125780151 0 0.0023406938741425188 0.0017934374800292136 0 0.0023292402990518061 0.0018053074416478213 0 0.0022894021670483177 0.0017672976315199268 0 0.0023120501424850784 0.0017560392319814814 0 0.0023340097048784652 0.0017759255788491642 0 0.0023292402990518061 0.0018053074416478213 0 0.0023120501424850784 0.0017560392319814814 0 0.0023618798672905184 0.0017736378910724029 0 0.0023340097048784652 0.0017759255788491642 0 0.0023292402990518061 0.0018053074416478213 0 0.0023579204794982448 0.001842290698903443 0 0.0023292402990518061 0.0018053074416478213 0 0.0023087824321998407 0.001836017263470738 0 0.0035250380760630767 0.0022728526156859828 0 0.0037570939571345717 0.0024584113970876694 0 0.0034271807770956944 0.0024827622918146639 0 0.0037570939571345717 0.0024584113970876694 0 0.0037447871400675256 0.0026879511384997989 0 0.0034271807770956944 0.0024827622918146639 0 0.0037447871400675256 0.0026879511384997989 0 0.0034271807770956944 0.0024827622918146639 0 0.0036214491968800276 0.0028970404788623864 0 0.002857756593837382 0.0021550741934200594 0 0.003008527596705301 0.0023783995096841371 0 0.0023292402990518061 0.0018053074416478213 0 0.0023087824321998407 0.001836017263470738 0 0.0022894021670483177 0.0017672976315199268 0 0.0022894021670483177 0.0017672976315199268 0 0.0023003174118252398 0.0017399810136777606 0 0.0023120501424850784 0.0017560392319814814 0 0.0022895470740947037 0.0017378938070598598 0 0.0023003174118252398 0.0017399810136777606 0 0.0023051090290833651 0.0017287645701085166 0 0.0022895470740947037 0.0017378938070598598 0 0.0022894021670483177 0.0017672976315199268 0 0.0023003174118252398 0.0017399810136777606 0 0.0023055451527084075 0.0017144310038053935 0 0.0022795672546084196 0.0017187817951965409 0 0.0023003174118252398 0.0017399810136777606 0 0.0023140438777597403 0.001727569334302109 0 0.0023051090290833651 0.0017287645701085166 0 0.0023140438777597403 0.001727569334302109 0 0.0023173843842914728 0.0016663868889320757 0 0.0022453416892789929 0.0016431459189205609 0 0.0023140438777597403 0.001727569334302109 0 0.0023120501424850784 0.0017560392319814814 0 0.0023310829001756557 0.0017545100153648933 0 0.0023003174118252398 0.0017399810136777606 0 0.0023140438777597403 0.001727569334302109 0 0.0023120501424850784 0.0017560392319814814 0 0.0023340097048784652 0.0017759255788491642 0 0.0023120501424850784 0.0017560392319814814 0 0.0023310829001756557 0.0017545100153648933 0 0.0023465040046900224 0.0017727948708505163 0 0.0023310829001756557 0.0017545100153648933 0 0.0023480806629596891 0.0017379203625964219 0 0.0023642392333270128 0.0018160006125780151 0 0.0023442604041266726 0.0016961114331277881 0 0.0023140438777597403 0.001727569334302109 0 0.0023310829001756557 0.0017545100153648933 0 0.0023480806629596891 0.0017379203625964219 0 0.0023140438777597403 0.001727569334302109 0 0.0023173843842914728 0.0016663868889320757 0 0.0023416618657424652 0.0016769681612226338 0 0.0023140438777597403 0.001727569334302109 0 0.0023480806629596891 0.0017379203625964219 0 0.0023416618657424652 0.0016769681612226338 0 0.0023442604041266726 0.0016961114331277881 0 0.0023412744627311225 0.0016889482613499601 0 0.0023316205359337288 0.0016828496891456146 0 0.0023416618657424652 0.0016769681612226338 0 0.0023236565736526574 0.0016859349941336112 0 0.0023416618657424652 0.0016769681612226338 0 0.0023478380880924557 0.001634243941676759 0 0.0023024734085937905 0.0016983633265511423 0 0.0023416618657424652 0.0016769681612226338 0 0.0023236565736526574 0.0016859349941336112 0 0.0023024734085937905 0.0016983633265511423 0 0.0023236565736526574 0.0016859349941336112 0 0.0023024734085937905 0.0016983633265511423 0 0.0022997549294189105 0.0016723673943541825 0 0.0023349141800200032 0.0016660618484214682 0 0.0023316205359337288 0.0016828496891456146 0 0.0022997549294189105 0.0016723673943541825 0 0.0023316205359337288 0.0016828496891456146 0 0.0023236565736526574 0.0016859349941336112 0 0.0022997549294189105 0.0016723673943541825 0 0.0023478380880924557 0.001634243941676759 0 0.002367894303130791 0.0015337877603874557 0 0.0023754028886730613 0.001561014261140377 0 0.0023478380880924557 0.001634243941676759 0 0.0023754028886730613 0.001561014261140377 0 0.00233617127220366 0.0016301915195021258 0 0.0023173843842914728 0.0016663868889320757 0 0.0023416618657424652 0.0016769681612226338 0 0.0023440028530064948 0.0016084823360969812 0 0.0023416618657424652 0.0016769681612226338 0 0.0023478380880924557 0.001634243941676759 0 0.0023440028530064948 0.0016084823360969812 0 0.0023440028530064948 0.0016084823360969812 0 0.002367894303130791 0.0015337877603874557 0 0.0022948346670202827 0.0015176632258995866 0 0.0023478380880924557 0.001634243941676759 0 0.0023440028530064948 0.0016084823360969812 0 0.002367894303130791 0.0015337877603874557 0 0.0022948346670202827 0.0015176632258995866 0 0.002108674075907199 0.0014803563228476134 0 0.0023732473216174937 0.0012863684649465832 0 0.002367894303130791 0.0015337877603874557 0 0.0022948346670202827 0.0015176632258995866 0 0.0023732473216174937 0.0012863684649465832 0 0.0023280425846444195 0.001603962483801609 0 0.0022795672546084196 0.0017187817951965409 0 0.0023173843842914728 0.0016663868889320757 0 0.0023440028530064948 0.0016084823360969812 0 0.0022453416892789929 0.0016431459189205609 0 0.0023440028530064948 0.0016084823360969812 0 0.0022948346670202827 0.0015176632258995866 0 0.0022376363952277237 0.0016531495446060833 0 0.0025873534780822406 0.0019085006391088282 0 0.0023736548912035868 0.0015681392676455479 0 0.0022362769394012518 0.0018197857499854192 0 0.0027558559155132839 0.0023500164632871468 0 0.0022795672546084196 0.0017187817951965409 0 0.0022795672546084196 0.0017187817951965409 0 0.0022616371291604835 0.0015398653377328819 0 0.0021919228665765178 0.0020375879587528432 0 0.0025873534780822406 0.0019085006391088282 0 0.0022362769394012518 0.0018197857499854192 0 0.0022948346670202827 0.0015176632258995866 0 0.0022376363952277237 0.0016531495446060833 0 0.002108674075907199 0.0014803563228476134 0 0.002108674075907199 0.0014803563228476134 0 0.0021887962612884074 0.0010996303153910621 0 0.0023732473216174937 0.0012863684649465832 0 0.0021887962612884074 0.0010996303153910621 0 0.0022446764395355253 0.00076264589861896922 0 0.0024374710608033767 0.00094009691592251792 0 0.0021887962612884074 0.0010996303153910621 0 0.002031948175036873 0.00088479575242902107 0 0.0022446764395355253 0.00076264589861896922 0 0.0021887962612884074 0.0010996303153910621 0 0.0023732473216174937 0.0012863684649465832 0 0.0024374710608033767 0.00094009691592251792 0 0.002367894303130791 0.0015337877603874557 0 0.0023732473216174937 0.0012863684649465832 0 0.0023754028886730613 0.001561014261140377 0 0.0023648079250386494 0.0013118174615805581 0 0.00251107961717933 0.0014517130182123896 0 0.0023732473216174937 0.0012863684649465832 0 0.0026841115267164472 0.0010929448268552138 0 0.0026631110487338955 0.0013605698717491068 0 0.0023732473216174937 0.0012863684649465832 0 0.0026841115267164472 0.0010929448268552138 0 0.0024374710608033767 0.00094009691592251792 0 0.0026841115267164472 0.0010929448268552138 0 0.0026631110487338955 0.0013605698717491068 0 0.002812939063628121 0.0013234127873643241 0 0.0021036325465022452 0.0015275208647166545 0 0.0020114768566367393 0.0017022101511527147 0 0.0021609607049685297 0.0016099715401026297 0 0.0021036325465022452 0.0015275208647166545 0 0.0021609607049685297 0.0016099715401026297 0 0.0020650707628424993 0.0012781750588894928 0 0.0021036325465022452 0.0015275208647166545 0 0.0019578023977837584 0.0015485807913436218 0 0.0019218221199190243 0.0017636215740963078 0 0.0017434011169215745 0.0018688303682320875 0 0.0037098829374777359 0.0014597917875020397 0 0.0021036325465022452 0.0015275208647166545 0 0.0019578023977837584 0.0015485807913436218 0 0.0019707663763292417 0.0014220779973821659 0 0.0019578023977837584 0.0015485807913436218 0 0.0018311231113728919 0.0014802682757317175 0 0.0019707663763292417 0.0014220779973821659 0 0.0037238650022314956 0.0012457197927643918 0 0.0037098829374777359 0.0014597917875020397 0 0.0056179617804210475 0.00096538394773260235 0 0.0056798505941082393 0.00088783930641884805 0 0.0056126741990906092 0.00090015765716633725 0 0.0056179617804210475 0.00096538394773260235 0 0.0056798505941082393 0.00088783930641884805 0 0.0056978104895397241 0.00092728863291000822 0 0.0019578023977837584 0.0015485807913436218 0 0.0018311231113728919 0.0014802682757317175 0 0.0019218221199190243 0.0017636215740963078 0 0.0050058715948738649 0.00180063592115919 0 0.0051674158618640982 0.001781564240219978 0 0.0050317686640369494 0.0019256938252325739 0 0.0057057006763357914 0.00085404744098990424 0 0.0056798505941082393 0.00088783930641884805 0 0.0056126741990906092 0.00090015765716633725 0 0.0056565241907788003 0.0012190588043157588 0 0.0037098829374777359 0.0014597917875020397 0 0.0033069663440153771 0.0019131563440524433 0 0.0023401631383199849 0.0018129064429370254 0 0.0033069663440153771 0.0019131563440524433 0 0.0037098829374777359 0.0014597917875020397 0 0.002063976368252131 0.0018612819376736874 0 0.0020114768566367393 0.0017022101511527147 0 0.0021609607049685297 0.0016099715401026297 0 0.0033474810260951371 0.0020237456278149762 0 0.003223831957241758 0.0020931701634765258 0 0.0032431358985214437 0.0022053499312915926 0 0.0019784367385202485 0.0020296730567893719 0 0.0021623952427915166 0.0021624437866635806 0 0.0022287253739400989 0.0019505368000884051 0 0.0019784367385202485 0.0020296730567893719 0 0.0020542484529383243 0.0018551548761559964 0 0.0022287253739400989 0.0019505368000884051 0 0.0025980517545821534 0.0019999590520385709 0 0.0023401631383199849 0.0018129064429370254 0 0.0019784367385202485 0.0020296730567893719 0 0.0020542484529383243 0.0018551548761559964 0 0.0019097590076943582 0.0017165003041606812 0 0.0023782757107675659 0.002248061623368013 0 0.0021623952427915166 0.0021624437866635806 0 0.0022287253739400989 0.0019505368000884051 0 0.0027558559155132839 0.0023500164632871468 0 0.0021610641136032452 0.0018329874402633847 0 0.0021919228665765178 0.0020375879587528432 0 0.0021207062318806787 0.0018324433041103159 0 0.0022362769394012518 0.0018197857499854192 0 0.0022180690850868178 0.001795334434203711 0 0.0020489312439429656 0.0015417694957301344 0 0.0023736548912035868 0.0015681392676455479 0 0.0022362769394012518 0.0018197857499854192 0 0.0019689237497459728 0.0014774872002090902 0 0.0021207062318806787 0.0018324433041103159 0 0.0022362769394012518 0.0018197857499854192 0 0.0021231239658267144 0.0016029071233602072 0 0.0021207062318806787 0.0018324433041103159 0 0.0021231239658267144 0.0016029071233602072 0 0.0020681005684598029 0.0016722301179109278 0 0.0020542484529383243 0.0018551548761559964 0 0.0019097590076943582 0.0017165003041606812 0 0.0020681005684598029 0.0016722301179109278 0 0.0021610641136032452 0.0018329874402633847 0 0.0020939308391240692 0.0017218337628417365 0 0.0020542484529383243 0.0018551548761559964 0 0.0022287253739400989 0.0019505368000884051 0 0.0020681005684598029 0.0016722301179109278 0 0.0021231239658267144 0.0016029071233602072 0 0.0020681005684598029 0.0016722301179109278 0 0.0019843802940680256 0.0015816911265538038 0 0.0023401631383199849 0.0018129064429370254 0 0.002133627496584909 0.0017087257324369359 0 0.0019097590076943582 0.0017165003041606812 0 0.0020681005684598029 0.0016722301179109278 0 0.0019843802940680256 0.0015816911265538038 0 0.0021231239658267144 0.0016029071233602072 0 0.0019532763607863074 0.0014438789467584616 0 0.0019466692249353371 0.0012982092703917279 0 0.0019843802940680256 0.0015816911265538038 0 0.0019532763607863074 0.0014438789467584616 0 0.0018349362296330922 0.001362314083769565 0 0.0019689237497459728 0.0014774872002090902 0 0.0020925592320558939 0.0011691582340260501 0 0.0017083672476966899 0.0011015268494076434 0 0.0021231239658267144 0.0016029071233602072 0 0.0019843802940680256 0.0015816911265538038 0 0.0019532763607863074 0.0014438789467584616 0 0.0020489312439429656 0.0015417694957301344 0 0.0018153089621751929 0.0011893985810112549 0 0.002108674075907199 0.0014803563228476134 0 0.0021887962612884074 0.0010996303153910621 0 0.0019407281169230572 0.001171067459715788 0 0.0023736548912035868 0.0015681392676455479 0 0.0019689237497459728 0.0014774872002090902 0 0.0020925592320558939 0.0011691582340260501 0 0.0022616371291604835 0.0015398653377328819 0 0.0020131250133645995 0.0011633294491725213 0 0.0019407281169230572 0.001171067459715788 0 0.002031948175036873 0.00088479575242902107 0 0.0017880071607613666 0.00079053605798770892 0 0.0021887962612884074 0.0010996303153910621 0 0.0019407281169230572 0.001171067459715788 0 0.002031948175036873 0.00088479575242902107 0 0.0020131250133645995 0.0011633294491725213 0 0.0018058625379148575 0.00082666456210846379 0 0.0020925592320558939 0.0011691582340260501 0 0.0017083672476966899 0.0011015268494076434 0 0.0017880071607613666 0.00079053605798770892 0 0.0017083672476966899 0.0011015268494076434 0 0.001638082631717798 0.00090168834015682674 0 0.0017880071607613666 0.00079053605798770892 0 0.001638082631717798 0.00090168834015682674 0 0.0016274735661463381 0.00077237946499842823 0 0.0017880071607613666 0.00079053605798770892 0 0.0019322264843354092 0.0012928957968100627 0 0.0017238278793247079 0.00088041368092397587 0 0.0017083672476966899 0.0011015268494076434 0 0.001638082631717798 0.00090168834015682674 0 0.0014953346279943135 0.00073705470804069553 0 0.0018153089621751929 0.0011893985810112549 0 0.0017238278793247079 0.00088041368092397587 0 0.001638082631717798 0.00090168834015682674 0 0.0016274735661463381 0.00077237946499842823 0 0.0015795655554844889 0.00078017023439146658 0 0.0019466692249353371 0.0012982092703917279 0 0.0018349362296330922 0.001362314083769565 0 0.0017437300281171332 0.00098226976171528289 0 0.0019069663783018713 0.0010957819352372914 0 0.0020650707628424993 0.0012781750588894928 0 0.0019558097184264735 0.00085620615354692169 0 0.001638082631717798 0.00090168834015682674 0 0.0015795655554844889 0.00078017023439146658 0 0.0014953346279943135 0.00073705470804069553 0 0.0018693638089865338 0.00098066579635790207 0 0.0019069663783018713 0.0010957819352372914 0 0.0019558097184264735 0.00085620615354692169 0 0.0019237999415516521 0.0017158095074091004 0 0.0019843802940680256 0.0015816911265538038 0 0.0018349362296330922 0.001362314083769565 0 0.0021036325465022452 0.0015275208647166545 0 0.0020650707628424993 0.0012781750588894928 0 0.0019707663763292417 0.0014220779973821659 0 0.0019532763607863074 0.0014438789467584616 0 0.0019466692249353371 0.0012982092703917279 0 0.0018349362296330922 0.001362314083769565 0 0.0023401631383199849 0.0018129064429370254 0 0.0019322264843354092 0.0012928957968100627 0 0.0020650707628424993 0.0012781750588894928 0 0.0018973097203705293 0.00129547189553977 0 0.0019707663763292417 0.0014220779973821659 0 0.0019069663783018713 0.0010957819352372914 0 0.0020650707628424993 0.0012781750588894928 0 0.0018973097203705293 0.00129547189553977 0 0.0018311231113728919 0.0014802682757317175 0 0.0018973097203705293 0.00129547189553977 0 0.0019707663763292417 0.0014220779973821659 0 0.0037238650022314956 0.0012457197927643918 0 0.003892695845503307 0.00080490984052437842 0 0.003892695845503307 0.00080490984052437842 0 0.006083764846911332 0.00062999809791496216 0 0.0018311231113728919 0.0014802682757317175 0 0.0018973097203705293 0.00129547189553977 0 0.0017192897342749476 0.0011872714245719145 0 0.0056179617804210475 0.00096538394773260235 0 0.0056206653829330034 0.0010370998837635245 0 0.0056978104895397241 0.00092728863291000822 0 0.003892695845503307 0.00080490984052437842 0 0.0015066222233526562 0.0013086292313361989 0 0.0018693638089865338 0.00098066579635790207 0 0.0017192897342749476 0.0011872714245719145 0 0.0017749365525986866 0.000866338494615292 0 0.0015657387408696077 0.0013726285331694895 0 0.0017749365525986866 0.000866338494615292 0 0.0014908529679032822 0.00069368695947764729 0 0.003892695845503307 0.00080490984052437842 0 0.0028906042170179333 0.00060093465064293668 0 0.0018693638089865338 0.00098066579635790207 0 0.0019069663783018713 0.0010957819352372914 0 0.0017192897342749476 0.0011872714245719145 0 0.0019069663783018713 0.0010957819352372914 0 0.0018973097203705293 0.00129547189553977 0 0.0017192897342749476 0.0011872714245719145 0 0.0059238538012375691 0.00026500881908449311 0 0.0057851188947588292 0.00020935132377268535 0 0.0057914836797457762 0.00034513499870067807 0 0.0059238538012375691 0.00026500881908449311 0 0.0057851188947588292 0.00020935132377268535 0 0.0058411479713600997 0.00013772558029183563 0 0.0057851188947588292 0.00020935132377268535 0 0.0057743248513323665 0.0001326994255697378 0 0.0058411479713600997 0.00013772558029183563 0 0.0057851188947588292 0.00020935132377268535 0 0.0057743248513323665 0.0001326994255697378 0 0.005707294255817669 0.00014068448813394659 0 0.0056702531584872391 0.00027121754411922784 0 0.0056458855900286924 0.00015003126979212312 0 0.005707294255817669 0.00014068448813394659 0 0.0057851188947588292 0.00020935132377268535 0 0.0056702531584872391 0.00027121754411922784 0 0.005707294255817669 0.00014068448813394659 0 0.0056702531584872391 0.00027121754411922784 0 0.0057914836797457762 0.00034513499870067807 0 0.0057143751132192333 0.00046398932956541331 0 0.0057851188947588292 0.00020935132377268535 0 0.0056702531584872391 0.00027121754411922784 0 0.0057914836797457762 0.00034513499870067807 0 0.0059238538012375691 0.00026500881908449311 0 0.0057914836797457762 0.00034513499870067807 0 0.0058565502490901282 0.00053391029060912093 0 0.0057914836797457762 0.00034513499870067807 0 0.0058565502490901282 0.00053391029060912093 0 0.0057143751132192333 0.00046398932956541331 0 0.0058565502490901282 0.00053391029060912093 0 0.0057143751132192333 0.00046398932956541331 0 0.0056090413018035495 0.00062448409834290675 0 0.0056090413018035495 0.00062448409834290675 0 0.0057223588252070332 0.00084136162638484969 0 0.0055581567762996997 0.0007929272775150871 0 0.0058565502490901282 0.00053391029060912093 0 0.0056090413018035495 0.00062448409834290675 0 0.0057223588252070332 0.00084136162638484969 0 0.006083764846911332 0.00062999809791496216 0 0.0056244164489653208 0.0008974354240373581 0 0.0056798505941082393 0.00088783930641884805 0 0.0056978104895397241 0.00092728863291000822 0 0.0057223588252070332 0.00084136162638484969 0 0.0057143751132192333 0.00046398932956541331 0 0.0056090413018035495 0.00062448409834290675 0 0.0054220025958779472 0.00046046917301263398 0 0.0056090413018035495 0.00062448409834290675 0 0.0054171824289858742 0.00068786853060784164 0 0.0055581567762996997 0.0007929272775150871 0 0.0056090413018035495 0.00062448409834290675 0 0.0054171824289858742 0.00068786853060784164 0 0.0054220025958779472 0.00046046917301263398 0 0.0054171824289858742 0.00068786853060784164 0 0.0054220025958779472 0.00046046917301263398 0 0.0052546209371661518 0.00059389755160297252 0 0.0055550440514836597 0.00030056151610484172 0 0.0055156459988343213 0.00016338628590525033 0 0.0054433835721948501 0.00023060810906775571 0 0.0056702531584872391 0.00027121754411922784 0 0.0057143751132192333 0.00046398932956541331 0 0.0054220025958779472 0.00046046917301263398 0 0.0056656652510846455 0.00027566972485561551 0 0.0054942579827774764 0.00037998402820508734 0 0.0056702531584872391 0.00027121754411922784 0 0.0055550440514836597 0.00030056151610484172 0 0.0055799580607851116 0.00014131473433041578 0 0.0056702531584872391 0.00027121754411922784 0 0.0055799580607851116 0.00014131473433041578 0 0.0056458855900286924 0.00015003126979212312 0 0.0055550440514836597 0.00030056151610484172 0 0.0055799580607851116 0.00014131473433041578 0 0.0055156459988343213 0.00016338628590525033 0 0.0055799580607851116 0.00014131473433041578 0 0.0055156459988343213 0.00016338628590525033 0 0.0055245178904713959 7.1706487579078316e-05 0 0.0055156459988343213 0.00016338628590525033 0 0.0054433835721948501 0.00023060810906775571 0 0.0054609905974508828 7.0162100665045673e-05 0 0.0053509991684182667 6.7695137231470363e-05 0 0.0054433835721948501 0.00023060810906775571 0 0.0054609905974508828 7.0162100665045673e-05 0 0.0053509991684182667 6.7695137231470363e-05 0 0.0053167171005838662 0.00020141781524560571 0 0.0051768612517459379 7.0062490420388118e-05 0 0.0053509991684182667 6.7695137231470363e-05 0 0.0053167171005838662 0.00020141781524560571 0 0.0054433835721948501 0.00023060810906775571 0 0.0053167171005838662 0.00020141781524560571 0 0.0054433835721948501 0.00023060810906775571 0 0.0054036613767534077 0.00042270463648651381 0 0.0053167171005838662 0.00020141781524560571 0 0.0051826660391649203 0.00031592664019676562 0 0.0054036613767534077 0.00042270463648651381 0 0.0055550440514836597 0.00030056151610484172 0 0.0054433835721948501 0.00023060810906775571 0 0.0054036613767534077 0.00042270463648651381 0 0.0049999948063396199 0.00011829718545816281 0 0.0051768612517459379 7.0062490420388118e-05 0 0.0051826660391649203 0.00031592664019676562 0 0.0053167171005838662 0.00020141781524560571 0 0.0051768612517459379 7.0062490420388118e-05 0 0.0051826660391649203 0.00031592664019676562 0 0.0049999948063396199 0.00011829718545816281 0 0.0051826660391649203 0.00031592664019676562 0 0.0049999482463513227 0.00041053558844058647 0 0.0051826660391649203 0.00031592664019676562 0 0.0049999482463513227 0.00041053558844058647 0 0.0051480489445157179 0.0006098333625493671 0 0.0051826660391649203 0.00031592664019676562 0 0.0051480489445157179 0.0006098333625493671 0 0.0054036613767534077 0.00042270463648651381 0 0.0049999482463513227 0.00041053558844058647 0 0.0051480489445157179 0.0006098333625493671 0 0.0049999577181433965 0.00070280064366554855 0 0.0054942579827774764 0.00037998402820508734 0 0.005323350515212163 0.00050821448007843111 0 0.0051527488172202068 0.00060661704245290756 0 0.005323350515212163 0.00050821448007843111 0 0.0051480489445157179 0.0006098333625493671 0 0.0052546209371661518 0.00059389755160297252 0 0.0052730529967521238 0.00079785716237243344 0 0.0054171824289858742 0.00068786853060784164 0 0.0052546209371661518 0.00059389755160297252 0 0.0052730529967521238 0.00079785716237243344 0 0.0052730529967521238 0.00079785716237243344 0 0.0053367671436849009 0.00098325906922588479 0 0.0054431668774739227 0.00086785107036803756 0 0.0052730529967521238 0.00079785716237243344 0 0.005137885974126428 0.00088862222286583987 0 0.0052436116926059331 0.0010372221698363884 0 0.0052730529967521238 0.00079785716237243344 0 0.0053367671436849009 0.00098325906922588479 0 0.0052436116926059331 0.0010372221698363884 0 0.0051480489445157179 0.0006098333625493671 0 0.0049999577181433965 0.00070280064366554855 0 0.005137885974126428 0.00088862222286583987 0 0.0051480489445157179 0.0006098333625493671 0 0.0052730529967521238 0.00079785716237243344 0 0.005137885974126428 0.00088862222286583987 0 0.0049999577181433965 0.00070280064366554855 0 0.005137885974126428 0.00088862222286583987 0 0.0049999321906815629 0.00099500024365943183 0 0.005137885974126428 0.00088862222286583987 0 0.0049999321906815629 0.00099500024365943183 0 0.0051422021077532692 0.0011903851635122506 0 0.005137885974126428 0.00088862222286583987 0 0.0051422021077532692 0.0011903851635122506 0 0.0052436116926059331 0.0010372221698363884 0 0.0049999503144548983 0.0012872081978659484 0 0.0049999321906815629 0.00099500024365943183 0 0.0051422021077532692 0.0011903851635122506 0 0.0052436116926059331 0.0010372221698363884 0 0.0052436703987129027 0.0012404217739352972 0 0.0053365080742310105 0.0011784332751642213 0 0.0053367671436849009 0.00098325906922588479 0 0.0052436116926059331 0.0010372221698363884 0 0.0053365080742310105 0.0011784332751642213 0 0.0051422021077532692 0.0011903851635122506 0 0.0052436116926059331 0.0010372221698363884 0 0.0052436703987129027 0.0012404217739352972 0 0.0052420431978885546 0.001419200160830127 0 0.0051422021077532692 0.0011903851635122506 0 0.0052436703987129027 0.0012404217739352972 0 0.0052420431978885546 0.001419200160830127 0 0.0052934007058654409 0.0013618946685649545 0 0.0052436703987129027 0.0012404217739352972 0 0.0052934007058654409 0.0013618946685649545 0 0.0052436703987129027 0.0012404217739352972 0 0.0053365080742310105 0.0011784332751642213 0 0.0052934007058654409 0.0013618946685649545 0 0.0053365080742310105 0.0011784332751642213 0 0.0053736603792736556 0.0014701435505065216 0 0.0053367671436849009 0.00098325906922588479 0 0.0053365080742310105 0.0011784332751642213 0 0.0054740388905933504 0.0010741752152030545 0 0.0053365080742310105 0.0011784332751642213 0 0.0054740388905933504 0.0010741752152030545 0 0.0053736603792736556 0.0014701435505065216 0 0.0054740388905933504 0.0010741752152030545 0 0.0053736603792736556 0.0014701435505065216 0 0.0056412134491213937 0.0011829477029377878 0 0.0053812932298206101 0.0014677267370881025 0 0.0054659358694967809 0.0013792877067960532 0 0.00526610824717977 0.0015538051927649192 0 0.0053736603792736556 0.0014701435505065216 0 0.0052881764835798544 0.0015895678245915247 0 0.00526610824717977 0.0015538051927649192 0 0.0052644903163211318 0.0015583868103479339 0 0.0052881764835798544 0.0015895678245915247 0 0.0052644903163211318 0.0015583868103479339 0 0.0052496444738949046 0.0016043623458500864 0 0.0052881764835798544 0.0015895678245915247 0 0.0051967159418556978 0.0016025210875652706 0 0.0052644903163211318 0.0015583868103479339 0 0.0052496444738949046 0.0016043623458500864 0 0.0050007034174661411 0.0022205249679056079 0 0.005109852558550761 0.0019293665109210863 0 0.0051967159418556978 0.0016025210875652706 0 0.0052496444738949046 0.0016043623458500864 0 0.0051901714150489921 0.0016608694136407579 0 0.0052496444738949046 0.0016043623458500864 0 0.0052881764835798544 0.0015895678245915247 0 0.0052592479154544578 0.0016591591066916192 0 0.0054659358694967809 0.0013792877067960532 0 0.0054592073135197655 0.0013428000789900349 0 0.0056069424501982712 0.00093369536260291873 0 0.0057484194861445684 0.00095435139369204965 0 0.0057223588252070332 0.00084136162638484969 0 0.0056412134491213937 0.0011829477029377878 0 0.0056069424501982712 0.00093369536260291873 0 0.0057484194861445684 0.00095435139369204965 0 0.0051674158618640982 0.001781564240219978 0 0.0052592479154544578 0.0016591591066916192 0 0.0051901714150489921 0.0016608694136407579 0 0.0052496444738949046 0.0016043623458500864 0 0.0052592479154544578 0.0016591591066916192 0 0.0051901714150489921 0.0016608694136407579 0 0.0057057006763357914 0.00085404744098990424 0 0.0056798505941082393 0.00088783930641884805 0 0.0057223588252070332 0.00084136162638484969 0 0.0056565241907788003 0.0012190588043157588 0 0.0054592073135197655 0.0013428000789900349 0 0.0057057006763357914 0.00085404744098990424 0 0.0057484194861445684 0.00095435139369204965 0 0.0057223588252070332 0.00084136162638484969 0 0.0056069424501982712 0.00093369536260291873 0 0.0057223588252070332 0.00084136162638484969 0 0.0055581567762996997 0.0007929272775150871 0 0.0054171824289858742 0.00068786853060784164 0 0.0055581567762996997 0.0007929272775150871 0 0.0054431668774739227 0.00086785107036803756 0 0.0056069424501982712 0.00093369536260291873 0 0.0055581567762996997 0.0007929272775150871 0 0.0054431668774739227 0.00086785107036803756 0 0.0054171824289858742 0.00068786853060784164 0 0.0052730529967521238 0.00079785716237243344 0 0.0054431668774739227 0.00086785107036803756 0 0.0053367671436849009 0.00098325906922588479 0 0.0054740388905933504 0.0010741752152030545 0 0.0054431668774739227 0.00086785107036803756 0 0.0054740388905933504 0.0010741752152030545 0 0.0056412134491213937 0.0011829477029377878 0 0.0056069424501982712 0.00093369536260291873 0 0.0054740388905933504 0.0010741752152030545 0 0.0056069424501982712 0.00093369536260291873 0 0.0054431668774739227 0.00086785107036803756 0 0.00095169783488488751 0.0020741878741896958 0 0.0010250786020855531 0.0020419894276713646 0 0.00089300451758552574 0.0021010670117617234 0 0.00092540537560329653 0.0020653818095428566 0 0.001034780317153789 0.0020276522260674933 0 0.00099471920969205672 0.0020335115751967201 0 0.001034780317153789 0.0020276522260674933 0 0.0010177547214979172 0.002010056519130336 0 0.00089300451758552574 0.0021010670117617234 0 0.00090463648045913168 0.0021981037398270463 0 0.00090581628165774199 0.0021018413619696592 0 0.00089300451758552574 0.0021010670117617234 0 0.00092540537560329653 0.0020653818095428566 0 0.00090581628165774199 0.0021018413619696592 0 0.00092540537560329653 0.0020653818095428566 0 0.00092163710304556654 0.002050282820751927 0 0.00094429767281323023 0.0020527987538192832 0 0.00092540537560329653 0.0020653818095428566 0 0.00090581628165774199 0.0021018413619696592 0 0.00092163710304556654 0.002050282820751927 0 0.00092540537560329653 0.0020653818095428566 0 0.00096877672818069345 0.0020605439449169066 0 0.00094429767281323023 0.0020527987538192832 0 0.00096877672818069345 0.0020605439449169066 0 0.001034780317153789 0.0020276522260674933 0 0.0010131875238794605 0.0020711728971856665 0 0.00092540537560329653 0.0020653818095428566 0 0.00096877672818069345 0.0020605439449169066 0 0.001034780317153789 0.0020276522260674933 0 0.001034780317153789 0.0020276522260674933 0 0.0011545259455930737 0.0020175686684622165 0 0.0010131875238794605 0.0020711728971856665 0 0.001034780317153789 0.0020276522260674933 0 0.0011545259455930737 0.0020175686684622165 0 0.0011432018788122293 0.0019620562020963598 0 0.0011545259455930737 0.0020175686684622165 0 0.0011432018788122293 0.0019620562020963598 0 0.0013454517786273244 0.0019399732821675682 0 0.001034780317153789 0.0020276522260674933 0 0.0010177547214979172 0.002010056519130336 0 0.0011432018788122293 0.0019620562020963598 0 0.0010177547214979172 0.002010056519130336 0 0.0011432018788122293 0.0019620562020963598 0 0.0010274178069705786 0.0019536810321040409 0 0.0011432018788122293 0.0019620562020963598 0 0.0012305796586716707 0.0018729625465739818 0 0.0013513236422816315 0.0018717661836108962 0 0.0011432018788122293 0.0019620562020963598 0 0.0012305796586716707 0.0018729625465739818 0 0.0010274178069705786 0.0019536810321040409 0 0.0012305796586716707 0.0018729625465739818 0 0.0010274178069705786 0.0019536810321040409 0 0.0012045189875295533 0.0017652537023843124 0 0.0010274178069705786 0.0019536810321040409 0 0.0009658353615178537 0.0021057207361152405 0 0.00093521977770694793 0.002208977368105896 0 0.0010177547214979172 0.002010056519130336 0 0.0010274178069705786 0.0019536810321040409 0 0.0009658353615178537 0.0021057207361152405 0 0.00099471920969205672 0.0020335115751967201 0 0.0010177547214979172 0.002010056519130336 0 0.0009658353615178537 0.0021057207361152405 0 0.00099471920969205672 0.0020335115751967201 0 0.0009658353615178537 0.0021057207361152405 0 0.0010176390711585848 0.0021282328188564742 0 0.00095169783488488751 0.0020741878741896958 0 0.00094986771795904656 0.0022120313632323541 0 0.00089300451758552574 0.0021010670117617234 0 0.00090463648045913168 0.0021981037398270463 0 0.00087369556697537839 0.0022903213450399247 0 0.0009658353615178537 0.0021057207361152405 0 0.00093521977770694793 0.002208977368105896 0 0.00099449684298770036 0.0022545489103565157 0 0.0009658353615178537 0.0021057207361152405 0 0.0010176390711585848 0.0021282328188564742 0 0.00099449684298770036 0.0022545489103565157 0 0.0010251718062869203 0.0024083576760632964 0 0.00094986771795904656 0.0022120313632323541 0 0.0010820605538557329 0.0023235656729444351 0 0.0010176390711585848 0.0021282328188564742 0 0.00099449684298770036 0.0022545489103565157 0 0.00097673376976436122 0.002499290871725283 0 0.00097079332262425648 0.0023177489413948871 0 0.0010513036253886358 0.0024164208683493246 0 0.00097673376976436122 0.002499290871725283 0 0.00097079332262425648 0.0023177489413948871 0 0.00087369556697537839 0.0022903213450399247 0 0.00097079332262425648 0.0023177489413948871 0 0.00090463648045913168 0.0021981037398270463 0 0.00096524087428716038 0.002193170456778748 0 0.00097079332262425648 0.0023177489413948871 0 0.0010807895775812365 0.0023011063800213228 0 0.00096524087428716038 0.002193170456778748 0 0.00097079332262425648 0.0023177489413948871 0 0.00090463648045913168 0.0021981037398270463 0 0.00087369556697537839 0.0022903213450399247 0 0.0011371335617778333 0.0026046461875221852 0 0.0010985907351673354 0.0026573065051594116 0 0.0010940588347284109 0.0025575349827642057 0 0.0010985907351673354 0.0026573065051594116 0 0.0010940588347284109 0.0025575349827642057 0 0.0010925330859429966 0.0026406895971356195 0 0.0011371335617778333 0.0026046461875221852 0 0.0010940588347284109 0.0025575349827642057 0 0.0011128401989269419 0.0024482960453193103 0 0.00097673376976436122 0.002499290871725283 0 0.0010940588347284109 0.0025575349827642057 0 0.0010513036253886358 0.0024164208683493246 0 0.0010940588347284109 0.0025575349827642057 0 0.0010513036253886358 0.0024164208683493246 0 0.0011128401989269419 0.0024482960453193103 0 0.00097079332262425648 0.0023177489413948871 0 0.0010513036253886358 0.0024164208683493246 0 0.0010807895775812365 0.0023011063800213228 0 0.0010513036253886358 0.0024164208683493246 0 0.0010807895775812365 0.0023011063800213228 0 0.0011128401989269419 0.0024482960453193103 0 0.0010807895775812365 0.0023011063800213228 0 0.0011128401989269419 0.0024482960453193103 0 0.0011700397053510643 0.0023238309267061795 0 0.0011128401989269419 0.0024482960453193103 0 0.0011700397053510643 0.0023238309267061795 0 0.0012119090349030288 0.0024663088551621138 0 0.0011371335617778333 0.0026046461875221852 0 0.0011128401989269419 0.0024482960453193103 0 0.0012119090349030288 0.0024663088551621138 0 0.00055959984071014227 0.0015325228886961305 0 0.00055542630359045597 0.0016820980248021271 0 0.00074532572993005566 0.0016679224277598554 0 0.00055959984071014227 0.0015325228886961305 0 0.00055542630359045597 0.0016820980248021271 0 0.00045561381277690053 0.0015685437569269195 0 0.00084212111177902596 0.0018931114914724023 0 0.00091327282613439681 0.0019216541554300519 0 0.0010807895775812365 0.0023011063800213228 0 0.0010870340550482957 0.002156521475201882 0 0.00096524087428716038 0.002193170456778748 0 0.0010807895775812365 0.0023011063800213228 0 0.0011700397053510643 0.0023238309267061795 0 0.0010870340550482957 0.002156521475201882 0 0.00091327282613439681 0.0019216541554300519 0 0.00094308945411486717 0.0019493386235825702 0 0.00074532572993005566 0.0016679224277598554 0 0.00080185011296479149 0.0018383857834825901 0 0.00095461066889721284 0.0019659468307148664 0 0.00080185011296479149 0.0018383857834825901 0 0.00087204774641279944 0.0019359059541696284 0 0.00066564731153117478 0.0018304642418365852 0 0.00080185011296479149 0.0018383857834825901 0 0.00087204774641279944 0.0019359059541696284 0 0.00095461066889721284 0.0019659468307148664 0 0.00074532572993005566 0.0016679224277598554 0 0.00080185011296479149 0.0018383857834825901 0 0.00066564731153117478 0.0018304642418365852 0 0.00055542630359045597 0.0016820980248021271 0 0.00074532572993005566 0.0016679224277598554 0 0.00066564731153117478 0.0018304642418365852 0 0.00055542630359045597 0.0016820980248021271 0 0.00066564731153117478 0.0018304642418365852 0 0.00052015134045013092 0.0018049961920463817 0 0.00055542630359045597 0.0016820980248021271 0 0.00052015134045013092 0.0018049961920463817 0 0.00043531683384863613 0.0016944440682885296 0 0.00090463648045913168 0.0021981037398270463 0 0.00090581628165774199 0.0021018413619696592 0 0.00096524087428716038 0.002193170456778748 0 0.00090581628165774199 0.0021018413619696592 0 0.00096524087428716038 0.002193170456778748 0 0.00094786468692622801 0.0020861514151820832 0 0.0010870340550482957 0.002156521475201882 0 0.00096524087428716038 0.002193170456778748 0 0.00094786468692622801 0.0020861514151820832 0 0.0010870340550482957 0.002156521475201882 0 0.00094786468692622801 0.0020861514151820832 0 0.00095461066889721284 0.0019659468307148664 0 0.00094786468692622801 0.0020861514151820832 0 0.00095461066889721284 0.0019659468307148664 0 0.00092406710158433349 0.002032954083736202 0 0.00087204774641279944 0.0019359059541696284 0 0.00095461066889721284 0.0019659468307148664 0 0.00091470746325821657 0.0019803916817607826 0 0.00095461066889721284 0.0019659468307148664 0 0.00092406710158433349 0.002032954083736202 0 0.00093012815234865215 0.001998103309277226 0 0.00092406710158433349 0.002032954083736202 0 0.00092163710304556654 0.002050282820751927 0 0.00092776074781898178 0.0020257938116094417 0 0.00090581628165774199 0.0021018413619696592 0 0.00094786468692622801 0.0020861514151820832 0 0.00092406710158433349 0.002032954083736202 0 0.00092406710158433349 0.002032954083736202 0 0.00092776074781898178 0.0020257938116094417 0 0.00093012815234865215 0.001998103309277226 0 0.00090581628165774199 0.0021018413619696592 0 0.00092406710158433349 0.002032954083736202 0 0.00092163710304556654 0.002050282820751927 0 0.00092163710304556654 0.002050282820751927 0 0.00093786690892467119 0.0020393590040322903 0 0.00092776074781898178 0.0020257938116094417 0 0.00093786690892467119 0.0020393590040322903 0 0.00093101768133493175 0.0020236840076454307 0 0.00092776074781898178 0.0020257938116094417 0 0.00093786690892467119 0.0020393590040322903 0 0.00093101768133493175 0.0020236840076454307 0 0.00094415550061796799 0.0020546083979327391 0 0.00093101768133493175 0.0020236840076454307 0 0.00092776074781898178 0.0020257938116094417 0 0.00093012815234865215 0.001998103309277226 0 0.00093012815234865215 0.001998103309277226 0 0.00091470746325821657 0.0019803916817607826 0 0.00091084570999302333 0.002003092162020337 0 0.00095461066889721284 0.0019659468307148664 0 0.00093012815234865215 0.001998103309277226 0 0.00091470746325821657 0.0019803916817607826 0 0.00087204774641279944 0.0019359059541696284 0 0.00091470746325821657 0.0019803916817607826 0 0.00087151959626426405 0.0019628683551924722 0 0.00091470746325821657 0.0019803916817607826 0 0.00091084570999302333 0.002003092162020337 0 0.00087151959626426405 0.0019628683551924722 0 0.00093101768133493175 0.0020236840076454307 0 0.00093012815234865215 0.001998103309277226 0 0.00091084570999302333 0.002003092162020337 0 0.00089193505353577635 0.0020207019050864144 0 0.00084043662137197272 0.0020087936727247726 0 0.00091097030277782103 0.0020708349974202962 0 0.00091084570999302333 0.002003092162020337 0 0.00089193505353577635 0.0020207019050864144 0 0.00092573440610960113 0.0020409701583342234 0 0.00093101768133493175 0.0020236840076454307 0 0.00091084570999302333 0.002003092162020337 0 0.00092573440610960113 0.0020409701583342234 0 0.00091084570999302333 0.002003092162020337 0 0.00089193505353577635 0.0020207019050864144 0 0.00086267232709413247 0.0019767925716271972 0 0.00089193505353577635 0.0020207019050864144 0 0.00092573440610960113 0.0020409701583342234 0 0.00091097030277782103 0.0020708349974202962 0 0.0009504952203580211 0.002077203036369441 0 0.00092573440610960113 0.0020409701583342234 0 0.00091097030277782103 0.0020708349974202962 0 0.0009504952203580211 0.002077203036369441 0 0.00094415550061796799 0.0020546083979327391 0 0.00092573440610960113 0.0020409701583342234 0 0.00093101768133493175 0.0020236840076454307 0 0.00094415550061796799 0.0020546083979327391 0 0.00092573440610960113 0.0020409701583342234 0 0.00052015134045013092 0.0018049961920463817 0 0.0005761298675737536 0.0019139254390678892 0 0.00045200856124326253 0.0018529840079756451 0 0.00066564731153117478 0.0018304642418365852 0 0.00052015134045013092 0.0018049961920463817 0 0.0005761298675737536 0.0019139254390678892 0 0.00087204774641279944 0.0019359059541696284 0 0.00066564731153117478 0.0018304642418365852 0 0.0005761298675737536 0.0019139254390678892 0 0.00087204774641279944 0.0019359059541696284 0 0.00080200589935053724 0.0019051389084515041 0 0.00087151959626426405 0.0019628683551924722 0 0.00080200589935053724 0.0019051389084515041 0 0.00087151959626426405 0.0019628683551924722 0 0.00086267232709413247 0.0019767925716271972 0 0.00085694675752407475 0.0019171692709488552 0 0.00069522331218518343 0.00190786911158668 0 0.00091084570999302333 0.002003092162020337 0 0.00087151959626426405 0.0019628683551924722 0 0.00086267232709413247 0.0019767925716271972 0 0.00080200589935053724 0.0019051389084515041 0 0.00086267232709413247 0.0019767925716271972 0 0.00084043662137197272 0.0020087936727247726 0 0.0008535480874595153 0.001925831625182075 0 0.00090381388691637807 0.0019746343429054422 0 0.00089193505353577635 0.0020207019050864144 0 0.00086267232709413247 0.0019767925716271972 0 0.00084043662137197272 0.0020087936727247726 0 0.00085915141842878918 0.0018467373320489784 0 0.00080916485300857124 0.0018603621077368595 0 0.0007608497829538816 0.001844970748531912 0 0.0008535480874595153 0.001925831625182075 0 0.0007739697838619106 0.0018610653664993203 0 0.00080200589935053724 0.0019051389084515041 0 0.00084043662137197272 0.0020087936727247726 0 0.0007608497829538816 0.001844970748531912 0 0.00080916485300857124 0.0018603621077368595 0 0.00075900952024631559 0.0018405560494792002 0 0.0007608497829538816 0.001844970748531912 0 0.00085915141842878918 0.0018467373320489784 0 0.00080916485300857124 0.0018603621077368595 0 0.00087040436295666643 0.001906529575924453 0 0.00079751931149661941 0.0018956718592813033 0 0.00080916485300857124 0.0018603621077368595 0 0.00087040436295666643 0.001906529575924453 0 0.00079751931149661941 0.0018956718592813033 0 0.00087040436295666643 0.001906529575924453 0 0.00083751507666817858 0.001936376776958181 0 0.00079751931149661941 0.0018956718592813033 0 0.00080916485300857124 0.0018603621077368595 0 0.00075900952024631559 0.0018405560494792002 0 0.00085915141842878918 0.0018467373320489784 0 0.00087040436295666643 0.001906529575924453 0 0.00090788189584950604 0.0018797870669291876 0 0.00097664731391808443 0.0018290050010118825 0 0.00091557967580756022 0.0018983875751876567 0 0.00087040436295666643 0.001906529575924453 0 0.00089624900636603758 0.0019131657286006729 0 0.00090715498870663899 0.0019062786410602628 0 0.00083751507666817858 0.001936376776958181 0 0.00076851404426576096 0.0020402817803421825 0 0.00090715498870663899 0.0019062786410602628 0 0.00087040436295666643 0.001906529575924453 0 0.00083751507666817858 0.001936376776958181 0 0.00090715498870663899 0.0019062786410602628 0 0.0009504952203580211 0.002077203036369441 0 0.00095129745340429115 0.0021053163186437072 0 0.00091097030277782103 0.0020708349974202962 0 0.00098455780528138525 0.0019821154014016788 0 0.00090381388691637807 0.0019746343429054422 0 0.00094503367239556714 0.0018961339526272099 0 0.00090788189584950604 0.0018797870669291876 0 0.00089624900636603758 0.0019131657286006729 0 0.00087040436295666643 0.001906529575924453 0 0.00090788189584950604 0.0018797870669291876 0 0.00089624900636603758 0.0019131657286006729 0 0.0010692811946245351 0.0017574670277119887 0 0.001001828013562183 0.0017577308495822005 0 0.0010649422241681252 0.0017635057109055099 0 0.00098455780528138525 0.0019821154014016788 0 0.00097664731391808443 0.0018290050010118825 0 0.00094971851732320619 0.0018578543396654294 0 0.001001828013562183 0.0017577308495822005 0 0.00088775379454412301 0.0017591162677286726 0 0.00094971851732320619 0.0018578543396654294 0 0.0010692811946245351 0.0017574670277119887 0 0.001001828013562183 0.0017577308495822005 0 0.00094971851732320619 0.0018578543396654294 0 0.00088775379454412301 0.0017591162677286726 0 0.00074817035036402278 0.0017812856880397869 0 0.00098455780528138525 0.0019821154014016788 0 0.00092792171071278968 0.001911493927513816 0 0.0011081333290358102 0.002098235457747219 0 0.001111536670620615 0.0020534344055164748 0 0.0010893724103652187 0.002089818606431512 0 0.00088775379454412301 0.0017591162677286726 0 0.00074817035036402278 0.0017812856880397869 0 0.00080167860778811726 0.0016913514483905137 0 0.001111536670620615 0.0020534344055164748 0 0.0010893724103652187 0.002089818606431512 0 0.0010197371223418846 0.0021087998391846985 0 0.0010893724103652187 0.002089818606431512 0 0.0010272897799468081 0.0021118202941586809 0 0.0010197371223418846 0.0021087998391846985 0 0.0010893724103652187 0.002089818606431512 0 0.0010272897799468081 0.0021118202941586809 0 0.0010979500825498722 0.0021015500599763917 0 0.0010327025180681705 0.0021078097450217348 0 0.0010361859328297384 0.0020985085896112138 0 0.0011081333290358102 0.002098235457747219 0 0.0010893724103652187 0.002089818606431512 0 0.0010979500825498722 0.0021015500599763917 0 0.00098455780528138525 0.0019821154014016788 0 0.0010361859328297384 0.0020985085896112138 0 0.0009504952203580211 0.002077203036369441 0 0.00095129745340429115 0.0021053163186437072 0 0.0009801015081312254 0.0021062865550460757 0 0.0009504952203580211 0.002077203036369441 0 0.0009801015081312254 0.0021062865550460757 0 0.00097313510583825859 0.0020703411434777781 0 0.00093786690892467119 0.0020393590040322903 0 0.00094415550061796799 0.0020546083979327391 0 0.00097313510583825859 0.0020703411434777781 0 0.0009504952203580211 0.002077203036369441 0 0.00094415550061796799 0.0020546083979327391 0 0.00097313510583825859 0.0020703411434777781 0 0.00097313510583825859 0.0020703411434777781 0 0.0010155117449032155 0.0020850189501657778 0 0.0010131875238794605 0.0020711728971856665 0 0.0010272897799468081 0.0021118202941586809 0 0.0009801015081312254 0.0021062865550460757 0 0.00097313510583825859 0.0020703411434777781 0 0.0010272897799468081 0.0021118202941586809 0 0.00097313510583825859 0.0020703411434777781 0 0.0010155117449032155 0.0020850189501657778 0 0.00096877672818069345 0.0020605439449169066 0 0.00097313510583825859 0.0020703411434777781 0 0.0010131875238794605 0.0020711728971856665 0 0.00093786690892467119 0.0020393590040322903 0 0.00097313510583825859 0.0020703411434777781 0 0.00094429767281323023 0.0020527987538192832 0 0.00096877672818069345 0.0020605439449169066 0 0.00097313510583825859 0.0020703411434777781 0 0.00094429767281323023 0.0020527987538192832 0 0.00092163710304556654 0.002050282820751927 0 0.00093786690892467119 0.0020393590040322903 0 0.00094429767281323023 0.0020527987538192832 0 0.0011545259455930737 0.0020175686684622165 0 0.0011156433241138715 0.0020621422534019074 0 0.0012277229864440197 0.0020190730363022413 0 0.0011545259455930737 0.0020175686684622165 0 0.0010131875238794605 0.0020711728971856665 0 0.0011156433241138715 0.0020621422534019074 0 0.0010131875238794605 0.0020711728971856665 0 0.0011156433241138715 0.0020621422534019074 0 0.0010425066742649322 0.0020907557609682981 0 0.0010272897799468081 0.0021118202941586809 0 0.0010425066742649322 0.0020907557609682981 0 0.0010299218612478578 0.0021033817989759827 0 0.0010155117449032155 0.0020850189501657778 0 0.0010131875238794605 0.0020711728971856665 0 0.0010425066742649322 0.0020907557609682981 0 0.0010272897799468081 0.0021118202941586809 0 0.0010155117449032155 0.0020850189501657778 0 0.0010425066742649322 0.0020907557609682981 0 0.0011156433241138715 0.0020621422534019074 0 0.0011184377980136709 0.0020848492989788241 0 0.0010299218612478578 0.0021033817989759827 0 0.0011156433241138715 0.0020621422534019074 0 0.0010425066742649322 0.0020907557609682981 0 0.0010299218612478578 0.0021033817989759827 0 0.0011184377980136709 0.0020848492989788241 0 0.0010299218612478578 0.0021033817989759827 0 0.0011220202799350611 0.0021317367948535944 0 0.0010299218612478578 0.0021033817989759827 0 0.0010375731966873216 0.0021121310986974683 0 0.0011220202799350611 0.0021317367948535944 0 0.0010299218612478578 0.0021033817989759827 0 0.00090345325799731288 0.0020723329973121713 0 0.0010375731966873216 0.0021121310986974683 0 0.0010272897799468081 0.0021118202941586809 0 0.0010299218612478578 0.0021033817989759827 0 0.0010197371223418846 0.0021087998391846985 0 0.0010299218612478578 0.0021033817989759827 0 0.0010197371223418846 0.0021087998391846985 0 0.00090345325799731288 0.0020723329973121713 0 0.001111536670620615 0.0020534344055164748 0 0.00090345325799731288 0.0020723329973121713 0 0.00059423887324515205 0.001742238964386296 0 0.00092792171071278968 0.001911493927513816 0 0.000602042395426779 0.0017516465078304462 0 0.001111536670620615 0.0020534344055164748 0 0.0010197371223418846 0.0021087998391846985 0 0.00090345325799731288 0.0020723329973121713 0 0.00088790295673911066 0.0020676466944790956 0 0.00075910013199687444 0.002019091917439523 0 0.00090345325799731288 0.0020723329973121713 0 0.0010375731966873216 0.0021121310986974683 0 0.0011042698475704487 0.0021804339695502099 0 0.00090345325799731288 0.0020723329973121713 0 0.00034928280271492412 0.001847500209969229 0 0.00059423887324515205 0.001742238964386296 0 0.0011042698475704487 0.0021804339695502099 0 0.0011220202799350611 0.0021317367948535944 0 0.0011283566387297163 0.0021708402685003529 0 0.0010375731966873216 0.0021121310986974683 0 0.0011042698475704487 0.0021804339695502099 0 0.0011220202799350611 0.0021317367948535944 0 0.0011220202799350611 0.0021317367948535944 0 0.0013076990317385307 0.002127517856276533 0 0.0012206290955029985 0.0020477793440387697 0 0.0011220202799350611 0.0021317367948535944 0 0.0013076990317385307 0.002127517856276533 0 0.0013388965727216503 0.0023279341826151424 0 0.0010740360520625457 0.002099476067414533 0 0.0013479108238952427 0.002342481267078267 0 0.0013076990317385307 0.002127517856276533 0 0.0013388965727216503 0.0023279341826151424 0 0.0014693585605759312 0.0021907975658831715 0 0.0013388965727216503 0.0023279341826151424 0 0.001611706291811784 0.0023583465246955668 0 0.0014693585605759312 0.0021907975658831715 0 0.001611706291811784 0.0023583465246955668 0 0.0016996549503868915 0.0021882466050796492 0 0.002089368590408841 0.0024877610552450783 0 0.001611706291811784 0.0023583465246955668 0 0.0016996549503868915 0.0021882466050796492 0 0.0014693585605759312 0.0021907975658831715 0 0.0019229107024306235 0.0019914720529346937 0 0.0018275089515147999 0.0018620723735671583 0 0.0020098983984839854 0.0018051258774012227 0 0.0018194812136576428 0.0021113544416212484 0 0.0016207149974536419 0.0019506549072841556 0 0.0013076990317385307 0.002127517856276533 0 0.0014693585605759312 0.0021907975658831715 0 0.0014171428751700045 0.0020308320382307296 0 0.0016996549503868915 0.0021882466050796492 0 0.0014693585605759312 0.0021907975658831715 0 0.0014171428751700045 0.0020308320382307296 0 0.0018275089515147999 0.0018620723735671583 0 0.0020098983984839854 0.0018051258774012227 0 0.0018543921358790873 0.0018162058199940121 0 0.0020098983984839854 0.0018051258774012227 0 0.0018543921358790873 0.0018162058199940121 0 0.0020707627600837276 0.0017454914131373642 0 0.0018543921358790873 0.0018162058199940121 0 0.0020707627600837276 0.0017454914131373642 0 0.0019096189732641536 0.0017549966706184702 0 0.0016207149974536419 0.0019506549072841556 0 0.0014622345383447156 0.0019359701025944468 0 0.0018275089515147999 0.0018620723735671583 0 0.0018543921358790873 0.0018162058199940121 0 0.0016479470352380053 0.0018984025415884505 0 0.0011156433241138715 0.0020621422534019074 0 0.0012277229864440197 0.0020190730363022413 0 0.0012206290955029985 0.0020477793440387697 0 0.0012877373246236727 0.0019928320420409752 0 0.0012277229864440197 0.0020190730363022413 0 0.0012206290955029985 0.0020477793440387697 0 0.0011156433241138715 0.0020621422534019074 0 0.0011184377980136709 0.0020848492989788241 0 0.0012206290955029985 0.0020477793440387697 0 0.0011184377980136709 0.0020848492989788241 0 0.0011220202799350611 0.0021317367948535944 0 0.0012206290955029985 0.0020477793440387697 0 0.0013076990317385307 0.002127517856276533 0 0.0014171428751700045 0.0020308320382307296 0 0.0012206290955029985 0.0020477793440387697 0 0.0014171428751700045 0.0020308320382307296 0 0.0012877373246236727 0.0019928320420409752 0 0.0012206290955029985 0.0020477793440387697 0 0.0026631110487338955 0.0013605698717491068 0 0.002812939063628121 0.0013234127873643241 0 0.0028606792932135898 0.0014899106633051117 0 0.00251107961717933 0.0014517130182123896 0 0.0025716688988118436 0.0015884080645401171 0 0.0023754028886730613 0.001561014261140377 0 0.0022957566775846576 0.0016723841635974265 0 0.00233617127220366 0.0016301915195021258 0 0.0026841115267164472 0.0010929448268552138 0 0.002812939063628121 0.0013234127873643241 0 0.0028495610452296716 0.0010651411557097297 0 0.002812939063628121 0.0013234127873643241 0 0.0029251869499897628 0.0011697226075967724 0 0.0028495610452296716 0.0010651411557097297 0 0.002812939063628121 0.0013234127873643241 0 0.0029251869499897628 0.0011697226075967724 0 0.0027528646506866316 0.0016433324449890904 0 0.0029251869499897628 0.0011697226075967724 0 0.0027528646506866316 0.0016433324449890904 0 0.0032214554577176401 0.0011581371243414417 0 0.002812939063628121 0.0013234127873643241 0 0.0027528646506866316 0.0016433324449890904 0 0.0028606792932135898 0.0014899106633051117 0 0.0027528646506866316 0.0016433324449890904 0 0.0028606792932135898 0.0014899106633051117 0 0.0022943415167291799 0.0016862296183678253 0 0.0027528646506866316 0.0016433324449890904 0 0.0021990975637919416 0.0018945978227400912 0 0.0022943415167291799 0.0016862296183678253 0 0.0027528646506866316 0.0016433324449890904 0 0.0024331415435867852 0.0022702770156636334 0 0.0021990975637919416 0.0018945978227400912 0 0.0027873091237107638 0.0016149994752115355 0 0.0028141867378375313 0.001794383619732922 0 0.0024331415435867852 0.0022702770156636334 0 0.0021453962839851027 0.0021554723054117938 0 0.0021990975637919416 0.0018945978227400912 0 0.0019229107024306235 0.0019914720529346937 0 0.0021453962839851027 0.0021554723054117938 0 0.0021990975637919416 0.0018945978227400912 0 0.0018194812136576428 0.0021113544416212484 0 0.0020825844894345 0.0024764342970295364 0 0.0019229107024306235 0.0019914720529346937 0 0.0021453962839851027 0.0021554723054117938 0 0.002089368590408841 0.0024877610552450783 0 0.0020098983984839854 0.0018051258774012227 0 0.0021990975637919416 0.0018945978227400912 0 0.0022943415167291799 0.0016862296183678253 0 0.0019229107024306235 0.0019914720529346937 0 0.0020098983984839854 0.0018051258774012227 0 0.0021990975637919416 0.0018945978227400912 0 0.0020098983984839854 0.0018051258774012227 0 0.0020707627600837276 0.0017454914131373642 0 0.0022943415167291799 0.0016862296183678253 0 0.0020707627600837276 0.0017454914131373642 0 0.0022943415167291799 0.0016862296183678253 0 0.0022300207190277298 0.0017270979026740719 0 0.0020707627600837276 0.0017454914131373642 0 0.0022300207190277298 0.0017270979026740719 0 0.0020547084522086396 0.0017013304788221768 0 0.0022943415167291799 0.0016862296183678253 0 0.0022757922322967647 0.0016899662329985003 0 0.0022300207190277298 0.0017270979026740719 0 0.0022957566775846576 0.0016723841635974265 0 0.0022943415167291799 0.0016862296183678253 0 0.0022757922322967647 0.0016899662329985003 0 0.0025716688988118436 0.0015884080645401171 0 0.0023322337895308799 0.0016644174160208591 0 0.0022757922322967647 0.0016899662329985003 0 0.0022300207190277298 0.0017270979026740719 0 0.0022971636281969967 0.0016829774420555209 0 0.0023478380880924557 0.001634243941676759 0 0.0022971636281969967 0.0016829774420555209 0 0.00233617127220366 0.0016301915195021258 0 0.0023478380880924557 0.001634243941676759 0 0.0022971636281969967 0.0016829774420555209 0 0.0023024734085937905 0.0016983633265511423 0 0.0022757922322967647 0.0016899662329985003 0 0.0022971636281969967 0.0016829774420555209 0 0.00233617127220366 0.0016301915195021258 0 0.0022957566775846576 0.0016723841635974265 0 0.0022757922322967647 0.0016899662329985003 0 0.00233617127220366 0.0016301915195021258 0 0.0021820063744845014 0.0018591397142840747 0 0.0023173223417077646 0.0018572768317968004 0 0.0023024734085937905 0.0016983633265511423 0 0.0022451033662487406 0.0017320832328947327 0 0.0022997549294189105 0.0016723673943541825 0 0.0022971636281969967 0.0016829774420555209 0 0.0023024734085937905 0.0016983633265511423 0 0.0022451033662487406 0.0017320832328947327 0 0.0022300207190277298 0.0017270979026740719 0 0.0022971636281969967 0.0016829774420555209 0 0.0022451033662487406 0.0017320832328947327 0 0.0022451033662487406 0.0017320832328947327 0 0.0022094141864654219 0.0017185330883913604 0 0.0022997549294189105 0.0016723673943541825 0 0.0021820063744845014 0.0018591397142840747 0 0.0020810197556309878 0.0018767015766191642 0 0.0022451033662487406 0.0017320832328947327 0 0.0022094141864654219 0.0017185330883913604 0 0.0021177827242240856 0.0018379890239860969 0 0.0022094141864654219 0.0017185330883913604 0 0.0021177827242240856 0.0018379890239860969 0 0.002058469648155592 0.0018817155123232591 0 0.0022048112318307062 0.0017414793387917544 0 0.0020853658482715325 0.0017693123137416369 0 0.0022300207190277298 0.0017270979026740719 0 0.0022451033662487406 0.0017320832328947327 0 0.0021177827242240856 0.0018379890239860969 0 0.0020707627600837276 0.0017454914131373642 0 0.0020547084522086396 0.0017013304788221768 0 0.0019096189732641536 0.0017549966706184702 0 0.0021177827242240856 0.0018379890239860969 0 0.002058469648155592 0.0018817155123232591 0 0.0019834158191504654 0.0019264361338561088 0 0.0020853658482715325 0.0017693123137416369 0 0.0019197666963770826 0.001823715654462378 0 0.0020547084522086396 0.0017013304788221768 0 0.0019096189732641536 0.0017549966706184702 0 0.0018553862216360685 0.0017227247808396225 0 0.002058469648155592 0.0018817155123232591 0 0.001971834888794557 0.0018852584628958943 0 0.0019834158191504654 0.0019264361338561088 0 0.002058469648155592 0.0018817155123232591 0 0.001971834888794557 0.0018852584628958943 0 0.0020753630568652731 0.0019211411639174869 0 0.001971834888794557 0.0018852584628958943 0 0.0020597576133917551 0.0018642827596265178 0 0.0020753630568652731 0.0019211411639174869 0 0.0020597576133917551 0.0018642827596265178 0 0.0021962359928587288 0.0019030557995273068 0 0.0021040287221846705 0.0018141495510324256 0 0.0020597576133917551 0.0018642827596265178 0 0.0020753630568652731 0.0019211411639174869 0 0.0021962359928587288 0.0019030557995273068 0 0.0021417794862101606 0.0019968427931033395 0 0.002058469648155592 0.0018817155123232591 0 0.0020753630568652731 0.0019211411639174869 0 0.0021417794862101606 0.0019968427931033395 0 0.0021962359928587288 0.0019030557995273068 0 0.0023148535596319375 0.0020364448515782429 0 0.0021417794862101606 0.0019968427931033395 0 0.0020753630568652731 0.0019211411639174869 0 0.0021962359928587288 0.0019030557995273068 0 0.0023508933149281432 0.0019242877814403775 0 0.0021962359928587288 0.0019030557995273068 0 0.0023148535596319375 0.0020364448515782429 0 0.0023521948417658941 0.0018539019212488145 0 0.0023508933149281432 0.0019242877814403775 0 0.0021962359928587288 0.0019030557995273068 0 0.0013454517786273244 0.0019399732821675682 0 0.0016995869208017581 0.0018160600718997572 0 0.0015211683433908761 0.0018246303980801913 0 0.0012877373246236727 0.0019928320420409752 0 0.0012277229864440197 0.0020190730363022413 0 0.0013454517786273244 0.0019399732821675682 0 0.0011545259455930737 0.0020175686684622165 0 0.0012277229864440197 0.0020190730363022413 0 0.0013454517786273244 0.0019399732821675682 0 0.0014622345383447156 0.0019359701025944468 0 0.0013502762200536655 0.001919198790825063 0 0.0016479470352380053 0.0018984025415884505 0 0.0013454517786273244 0.0019399732821675682 0 0.0016995869208017581 0.0018160600718997572 0 0.0018543921358790873 0.0018162058199940121 0 0.0016479470352380053 0.0018984025415884505 0 0.0016995869208017581 0.0018160600718997572 0 0.0018543921358790873 0.0018162058199940121 0 0.0019096189732641536 0.0017549966706184702 0 0.0016995869208017581 0.0018160600718997572 0 0.0019096189732641536 0.0017549966706184702 0 0.0018553862216360685 0.0017227247808396225 0 0.0016995869208017581 0.0018160600718997572 0 0.0018553862216360685 0.0017227247808396225 0 0.0016995869208017581 0.0018160600718997572 0 0.0016572013822292657 0.0017523419095546245 0 0.0016995869208017581 0.0018160600718997572 0 0.0016572013822292657 0.0017523419095546245 0 0.0015211683433908761 0.0018246303980801913 0 0.001971834888794557 0.0018852584628958943 0 0.0019834158191504654 0.0019264361338561088 0 0.0017936955894741343 0.0019317518477648882 0 0.0019197666963770826 0.001823715654462378 0 0.0017258379973200139 0.0018390302106018623 0 0.001971834888794557 0.0018852584628958943 0 0.0017936955894741343 0.0019317518477648882 0 0.0017558288179816996 0.0017664371980447202 0 0.0017258379973200139 0.0018390302106018623 0 0.0015551677921299663 0.0017968277423944478 0 0.0017936955894741343 0.0019317518477648882 0 0.0015297091999475396 0.0018027513613003672 0 0.0017558288179816996 0.0017664371980447202 0 0.0016572013822292657 0.0017523419095546245 0 0.0015297091999475396 0.0018027513613003672 0 0.0015211683433908761 0.0018246303980801913 0 0.0015297091999475396 0.0018027513613003672 0 0.0015211683433908761 0.0018246303980801913 0 0.0013513236422816315 0.0018717661836108962 0 0.0013454517786273244 0.0019399732821675682 0 0.0015211683433908761 0.0018246303980801913 0 0.0013513236422816315 0.0018717661836108962 0 0.0011432018788122293 0.0019620562020963598 0 0.0013454517786273244 0.0019399732821675682 0 0.0013513236422816315 0.0018717661836108962 0 0.0012305796586716707 0.0018729625465739818 0 0.0013513236422816315 0.0018717661836108962 0 0.0013800492695129566 0.0017794495503869277 0 0.0015297091999475396 0.0018027513613003672 0 0.0013513236422816315 0.0018717661836108962 0 0.0013800492695129566 0.0017794495503869277 0 0.0013800492695129566 0.0017794495503869277 0 0.0013021953348708595 0.0016572430051005104 0 0.0012045189875295533 0.0017652537023843124 0 0.0013800492695129566 0.0017794495503869277 0 0.0013506361957369623 0.0015235791669587261 0 0.0015404140285092609 0.0016916244787161707 0 0.0012305796586716707 0.0018729625465739818 0 0.0013800492695129566 0.0017794495503869277 0 0.0012045189875295533 0.0017652537023843124 0 0.001348584064072335 0.0017098187560045635 0 0.0014318453962236461 0.0017390513949223556 0 0.0013506361957369623 0.0015235791669587261 0 0.0015404140285092609 0.0016916244787161707 0 0.0016702242632638611 0.0015835498175187982 0 0.0021449778810721915 0.0016839582392069933 0 0.0019438344396537405 0.0016936569360225058 0 0.0020247541432938678 0.0017902123682285048 0 0.0014318453962236461 0.0017390513949223556 0 0.0018807880718886088 0.0016282801956232066 0 0.0015297091999475396 0.0018027513613003672 0 0.0015404140285092609 0.0016916244787161707 0 0.0017558288179816996 0.0017664371980447202 0 0.0015297091999475396 0.0018027513613003672 0 0.0013800492695129566 0.0017794495503869277 0 0.0015404140285092609 0.0016916244787161707 0 0.001971834888794557 0.0018852584628958943 0 0.0017558288179816996 0.0017664371980447202 0 0.0019033437159658999 0.0017193109824642492 0 0.0015404140285092609 0.0016916244787161707 0 0.0017558288179816996 0.0017664371980447202 0 0.0016702242632638611 0.0015835498175187982 0 0.0017558288179816996 0.0017664371980447202 0 0.0016702242632638611 0.0015835498175187982 0 0.0019033437159658999 0.0017193109824642492 0 0.0019438344396537405 0.0016936569360225058 0 0.0018796118415042504 0.0017693447583570453 0 0.0019033437159658999 0.0017193109824642492 0 0.0018807880718886088 0.0016282801956232066 0 0.0018629738167267795 0.0017086557309996956 0 0.0019438344396537405 0.0016936569360225058 0 0.0018796118415042504 0.0017693447583570453 0 0.0020247541432938678 0.0017902123682285048 0 0.0018796118415042504 0.0017693447583570453 0 0.0018802069053210589 0.0017368649752297195 0 0.001764454382659037 0.0017454294495554412 0 0.0018796118415042504 0.0017693447583570453 0 0.0019033437159658999 0.0017193109824642492 0 0.0018802069053210589 0.0017368649752297195 0 0.0018796118415042504 0.0017693447583570453 0 0.001764454382659037 0.0017454294495554412 0 0.0018536082622888084 0.0019229646466930367 0 0.0018796118415042504 0.0017693447583570453 0 0.001982865319621272 0.0019713858389651777 0 0.0018536082622888084 0.0019229646466930367 0 0.0018796118415042504 0.0017693447583570453 0 0.001982865319621272 0.0019713858389651777 0 0.0020247541432938678 0.0017902123682285048 0 0.001982865319621272 0.0019713858389651777 0 0.0022119595538593077 0.0018923691501733031 0 0.0020247541432938678 0.0017902123682285048 0 0.0014318453962236461 0.0017390513949223556 0 0.0015071221416141582 0.0018418679480796019 0 0.0021449778810721915 0.0016839582392069933 0 0.0022119595538593077 0.0018923691501733031 0 0.0020247541432938678 0.0017902123682285048 0 0.002411179506451457 0.0017754534221939842 0 0.0022451252539751779 0.001817891842914461 0 0.0022681338545952941 0.0017271367492313159 0 0.0023521948417658941 0.0018539019212488145 0 0.0021962359928587288 0.0019030557995273068 0 0.0022451252539751779 0.001817891842914461 0 0.0023521948417658941 0.0018539019212488145 0 0.002411179506451457 0.0017754534221939842 0 0.0022451252539751779 0.001817891842914461 0 0.0021962359928587288 0.0019030557995273068 0 0.0022451252539751779 0.001817891842914461 0 0.0021040287221846705 0.0018141495510324256 0 0.0022451252539751779 0.001817891842914461 0 0.0020539546634066406 0.0017518300258676706 0 0.0021040287221846705 0.0018141495510324256 0 0.0022451252539751779 0.001817891842914461 0 0.0020539546634066406 0.0017518300258676706 0 0.0022681338545952941 0.0017271367492313159 0 0.001971834888794557 0.0018852584628958943 0 0.0020597576133917551 0.0018642827596265178 0 0.0019033437159658999 0.0017193109824642492 0 0.0020539546634066406 0.0017518300258676706 0 0.0021040287221846705 0.0018141495510324256 0 0.0019033437159658999 0.0017193109824642492 0 0.0020597576133917551 0.0018642827596265178 0 0.0021040287221846705 0.0018141495510324256 0 0.0019033437159658999 0.0017193109824642492 0 0.0020539546634066406 0.0017518300258676706 0 0.0019033437159658999 0.0017193109824642492 0 0.0018802069053210589 0.0017368649752297195 0 0.0018802069053210589 0.0017368649752297195 0 0.001764454382659037 0.0017454294495554412 0 0.0019714271336716167 0.0016948763724410527 0 0.0019714271336716167 0.0016948763724410527 0 0.002176523087836659 0.0016281681078159896 0 0.0020446860214922615 0.0014979938639157436 0 0.001764454382659037 0.0017454294495554412 0 0.0019714271336716167 0.0016948763724410527 0 0.0020446860214922615 0.0014979938639157436 0 0.0020539546634066406 0.0017518300258676706 0 0.0018802069053210589 0.0017368649752297195 0 0.0019714271336716167 0.0016948763724410527 0 0.0020539546634066406 0.0017518300258676706 0 0.0019714271336716167 0.0016948763724410527 0 0.002176523087836659 0.0016281681078159896 0 0.0020539546634066406 0.0017518300258676706 0 0.002176523087836659 0.0016281681078159896 0 0.0022681338545952941 0.0017271367492313159 0 0.002176523087836659 0.0016281681078159896 0 0.0022546800771160573 0.0014626538964971133 0 0.0020446860214922615 0.0014979938639157436 0 0.002176523087836659 0.0016281681078159896 0 0.0023995921745074943 0.0015518151879113547 0 0.0022681338545952941 0.0017271367492313159 0 0.002176523087836659 0.0016281681078159896 0 0.0023995921745074943 0.0015518151879113547 0 0.0022546800771160573 0.0014626538964971133 0 0.0024447558327470287 0.0016836047113604625 0 0.002411179506451457 0.0017754534221939842 0 0.0022681338545952941 0.0017271367492313159 0 0.0024447558327470287 0.0016836047113604625 0 0.0023995921745074943 0.0015518151879113547 0 0.0022681338545952941 0.0017271367492313159 0 0.0025631007680520499 0.0010034648285881746 0 0.0024045871200630304 0.0012927822895836079 0 0.0023108176907976848 0.0011160347831329798 0 0.0024045871200630304 0.0012927822895836079 0 0.0022018085657211041 0.0012858777753013567 0 0.0023108176907976848 0.0011160347831329798 0 0.0023995921745074943 0.0015518151879113547 0 0.0024045871200630304 0.0012927822895836079 0 0.0022546800771160573 0.0014626538964971133 0 0.0024045871200630304 0.0012927822895836079 0 0.0022546800771160573 0.0014626538964971133 0 0.0022018085657211041 0.0012858777753013567 0 0.0022546800771160573 0.0014626538964971133 0 0.0022018085657211041 0.0012858777753013567 0 0.0020446860214922615 0.0014979938639157436 0 0.0022018085657211041 0.0012858777753013567 0 0.0020271323529536633 0.0012513281210799634 0 0.0021266804290006138 0.0010742445882579027 0 0.0022018085657211041 0.0012858777753013567 0 0.0021266804290006138 0.0010742445882579027 0 0.0023108176907976848 0.0011160347831329798 0 0.0022018085657211041 0.0012858777753013567 0 0.0020271323529536633 0.0012513281210799634 0 0.0020446860214922615 0.0014979938639157436 0 0.0020271323529536633 0.0012513281210799634 0 0.0018284728148498203 0.0013474610021591072 0 0.0019243429942275674 0.0010665258016943153 0 0.0020271323529536633 0.0012513281210799634 0 0.0020446860214922615 0.0014979938639157436 0 0.0018284728148498203 0.0013474610021591072 0 0.0017462449393141398 0.0017294220137078794 0 0.0016812717258368843 0.0017843862174184498 0 0.001764454382659037 0.0017454294495554412 0 0.0020446860214922615 0.0014979938639157436 0 0.0018284728148498203 0.0013474610021591072 0 0.001764454382659037 0.0017454294495554412 0 0.0015250900492608571 0.0021334699390455295 0 0.001727501342535606 0.002203048391412262 0 0.0015250900492608571 0.0021334699390455295 0 0.0014322112848427502 0.0024381314973511443 0 0.001727501342535606 0.002203048391412262 0 0.0016812717258368843 0.0017843862174184498 0 0.0016705334751205311 0.0015591229775082953 0 0.0014322112848427502 0.0024381314973511443 0 0.001727501342535606 0.002203048391412262 0 0.0017140154886474534 0.0025060913443779604 0 0.0015447050423418123 0.0026276857741541382 0 0.0014322112848427502 0.0024381314973511443 0 0.0017140154886474534 0.0025060913443779604 0 0.0015447050423418123 0.0026276857741541382 0 0.0013619500393771871 0.0027065947465223505 0 0.0016664374063175228 0.0028552995733016661 0 0.002183580187189105 0.0028410637151907174 0 0.0016705334751205311 0.0015591229775082953 0 0.0015447050423418123 0.0026276857741541382 0 0.0013619500393771871 0.0027065947465223505 0 0.0014322112848427502 0.0024381314973511443 0 0.0020271323529536633 0.0012513281210799634 0 0.0019243429942275674 0.0010665258016943153 0 0.0021266804290006138 0.0010742445882579027 0 0.0020085605089677607 0.00083136607128321929 0 0.0019243429942275674 0.0010665258016943153 0 0.0021266804290006138 0.0010742445882579027 0 0.0021266804290006138 0.0010742445882579027 0 0.0022718781866291286 0.00093394909055044366 0 0.0023108176907976848 0.0011160347831329798 0 0.002183580187189105 0.0028410637151907174 0 0.002313147209503198 0.0023823044344052882 0 0.0020085605089677607 0.00083136607128321929 0 0.0021266804290006138 0.0010742445882579027 0 0.0022718781866291286 0.00093394909055044366 0 0.0023684873869851985 0.0039146200241342742 0 0.0023828143043446151 0.0039519525798298299 0 0.0023722030261295267 0.003918671651038764 0 0.0023828143043446151 0.0039519525798298299 0 0.0024331256711178683 0.0039226525776710737 0 0.0023722030261295267 0.003918671651038764 0 0.0024966723113109836 0.0040146729863567258 0 0.0023828143043446151 0.0039519525798298299 0 0.0024331256711178683 0.0039226525776710737 0 0.0025631007680520499 0.0010034648285881746 0 0.0022718781866291286 0.00093394909055044366 0 0.0023108176907976848 0.0011160347831329798 0 0.0025439542434502081 0.0025177381904282659 0 0.002313147209503198 0.0023823044344052882 0 0.0019823789657176473 0.0022221932644324238 0 0.0019578212009689882 0.0024365372230223318 0 0.0021002858066086799 0.0024666800383997961 0 0.002118578862295824 0.0022042594332984475 0 0.0021002858066086799 0.0024666800383997961 0 0.0022612327657888071 0.0022254459071692342 0 0.0019823789657176473 0.0022221932644324238 0 0.002118578862295824 0.0022042594332984475 0 0.0021002858066086799 0.0024666800383997961 0 0.0022947690708307704 0.0022309358044865328 0 0.0017143403744572312 0.0024698777813321562 0 0.001982865319621272 0.0019713858389651777 0 0.0022119595538593077 0.0018923691501733031 0 0.002118578862295824 0.0022042594332984475 0 0.0022119595538593077 0.0018923691501733031 0 0.002118578862295824 0.0022042594332984475 0 0.0022772511520246707 0.0021969630393797188 0 0.001982865319621272 0.0019713858389651777 0 0.0019823789657176473 0.0022221932644324238 0 0.002118578862295824 0.0022042594332984475 0 0.001982865319621272 0.0019713858389651777 0 0.0018764190657746011 0.0021287949505498648 0 0.0018536082622888084 0.0019229646466930367 0 0.001982865319621272 0.0019713858389651777 0 0.0019823789657176473 0.0022221932644324238 0 0.0018764190657746011 0.0021287949505498648 0 0.0018764190657746011 0.0021287949505498648 0 0.0018536082622888084 0.0019229646466930367 0 0.001727501342535606 0.002203048391412262 0 0.001764454382659037 0.0017454294495554412 0 0.0018536082622888084 0.0019229646466930367 0 0.001727501342535606 0.002203048391412262 0 0.0018764190657746011 0.0021287949505498648 0 0.001727501342535606 0.002203048391412262 0 0.0018462527397130879 0.0023543493685901336 0 0.0019823789657176473 0.0022221932644324238 0 0.0018764190657746011 0.0021287949505498648 0 0.0018462527397130879 0.0023543493685901336 0 0.0019823789657176473 0.0022221932644324238 0 0.0018462527397130879 0.0023543493685901336 0 0.0019578212009689882 0.0024365372230223318 0 0.0018462527397130879 0.0023543493685901336 0 0.0017140154886474534 0.0025060913443779604 0 0.0018772914510773225 0.0025981135190959264 0 0.0018462527397130879 0.0023543493685901336 0 0.0018772914510773225 0.0025981135190959264 0 0.0019578212009689882 0.0024365372230223318 0 0.001727501342535606 0.002203048391412262 0 0.0018462527397130879 0.0023543493685901336 0 0.0017140154886474534 0.0025060913443779604 0 0.0015447050423418123 0.0026276857741541382 0 0.0017140154886474534 0.0025060913443779604 0 0.0016664374063175228 0.0028552995733016661 0 0.0017140154886474534 0.0025060913443779604 0 0.0016714877693205545 0.0028342173370510034 0 0.0017570058480381224 0.0027371950306318829 0 0.0017140154886474534 0.0025060913443779604 0 0.0017957794182586785 0.0026712294908566793 0 0.0017570058480381224 0.0027371950306318829 0 0.0016269803138104319 0.0023874363354396549 0 0.0019941715197505606 0.0031662147497696362 0 0.0018772914510773225 0.0025981135190959264 0 0.0017957794182586785 0.0026712294908566793 0 0.0018472189373627114 0.0027994420232828436 0 0.0017140154886474534 0.0025060913443779604 0 0.0018772914510773225 0.0025981135190959264 0 0.0017957794182586785 0.0026712294908566793 0 0.0018772914510773225 0.0025981135190959264 0 0.0019625850105535031 0.0027653278306366286 0 0.0018472189373627114 0.0027994420232828436 0 0.0019625850105535031 0.0027653278306366286 0 0.0019905448045152113 0.002609132168047144 0 0.0020585715319222666 0.0027399470030322415 0 0.0018772914510773225 0.0025981135190959264 0 0.0019625850105535031 0.0027653278306366286 0 0.0019905448045152113 0.002609132168047144 0 0.0018772914510773225 0.0025981135190959264 0 0.0019905448045152113 0.002609132168047144 0 0.0019578212009689882 0.0024365372230223318 0 0.0019905448045152113 0.002609132168047144 0 0.0019578212009689882 0.0024365372230223318 0 0.0021002858066086799 0.0024666800383997961 0 0.0019905448045152113 0.002609132168047144 0 0.0021002858066086799 0.0024666800383997961 0 0.0020585715319222666 0.0027399470030322415 0 0.0021002858066086799 0.0024666800383997961 0 0.0020585715319222666 0.0027399470030322415 0 0.0022369917920927714 0.0025863161064317605 0 0.0020585715319222666 0.0027399470030322415 0 0.0022369917920927714 0.0025863161064317605 0 0.0020219630218368018 0.0029745556020384224 0 0.0021806815844950603 0.002995180170792768 0 0.0020224958255422262 0.0029106048120592734 0 0.0020232667971803904 0.0032394535920100315 0 0.0017967688301905906 0.0031762747598393054 0 0.0020219630218368018 0.0029745556020384224 0 0.0020232667971803904 0.0032394535920100315 0 0.0017967688301905906 0.0031762747598393054 0 0.0019299376081307565 0.003360083331461735 0 0.0013996916990985629 0.0034138537130622921 0 0.0014495825574841158 0.0031418698669096784 0 0.0017967688301905906 0.0031762747598393054 0 0.0016217083562484606 0.0032433764240314212 0 0.0016316776440044485 0.0030722720740975814 0 0.0017967688301905906 0.0031762747598393054 0 0.0017142918056973395 0.0033499348868492903 0 0.0019299376081307565 0.003360083331461735 0 0.0017967688301905906 0.0031762747598393054 0 0.0016217083562484606 0.0032433764240314212 0 0.0017142918056973395 0.0033499348868492903 0 0.0013996916990985629 0.0034138537130622921 0 0.001355674417047184 0.0029411932217478327 0 0.0011742949401314269 0.0033438559303232956 0 0.0011547234192722923 0.0034759564333627854 0 0.0011117344307714379 0.0033977024350522987 0 0.0016217083562484606 0.0032433764240314212 0 0.0017142918056973395 0.0033499348868492903 0 0.0015964618109026558 0.0034513916705832121 0 0.0017142918056973395 0.0033499348868492903 0 0.0018175678093723222 0.0034492872831219002 0 0.0019299376081307565 0.003360083331461735 0 0.0017142918056973395 0.0033499348868492903 0 0.0018175678093723222 0.0034492872831219002 0 0.0015964618109026558 0.0034513916705832121 0 0.0010584092945987668 0.0021147107609719384 0 0.001151036305602838 0.0020397722325341005 0 0.0010094125021275306 0.001943034339147624 0 0.0013992995261630798 0.002802513918064332 0 0.001355674417047184 0.0029411932217478327 0 0.0010584092945987668 0.0021147107609719384 0 0.001151036305602838 0.0020397722325341005 0 0.001265940725901685 0.0021231209043607664 0 0.001151036305602838 0.0020397722325341005 0 0.0012741654314395708 0.0020513164543540813 0 0.001265940725901685 0.0021231209043607664 0 0.0010274993923464234 0.0022924845607329809 0 0.0010835654372174698 0.0028590956029141616 0 0.0012741654314395708 0.0020513164543540813 0 0.0012356600256102164 0.0019586402500832091 0 0.00132774429201925 0.0021335362338284983 0 0.0013436595207113305 0.0020256205900904367 0 0.001355674417047184 0.0029411932217478327 0 0.0020232667971803904 0.0032394535920100315 0 0.0019299376081307565 0.003360083331461735 0 0.0020416976322297498 0.003437767845080022 0 0.0021002858066086799 0.0024666800383997961 0 0.0022369917920927714 0.0025863161064317605 0 0.0022612327657888071 0.0022254459071692342 0 0.0021806815844950603 0.002995180170792768 0 0.0017143403744572312 0.0024698777813321562 0 0.0018175678093723222 0.0034492872831219002 0 0.0019299376081307565 0.003360083331461735 0 0.0020416976322297498 0.003437767845080022 0 0.0010584092945987668 0.0021147107609719384 0 0.00092168886132107592 0.002007407521646843 0 0.0010094125021275306 0.001943034339147624 0 0.0013992995261630798 0.002802513918064332 0 0.0017143403744572312 0.0024698777813321562 0 0.00083742609248737339 0.0019291900620055449 0 0.00092168886132107592 0.002007407521646843 0 0.0008717030819174092 0.0021141037537915834 0 0.0010584092945987668 0.0021147107609719384 0 0.00092168886132107592 0.002007407521646843 0 0.0008717030819174092 0.0021141037537915834 0 0.0015071221416141582 0.0018418679480796019 0 0.0017143403744572312 0.0024698777813321562 0 0.00083742609248737339 0.0019291900620055449 0 0.00092168886132107592 0.002007407521646843 0 0.0010094125021275306 0.001943034339147624 0 0.00083742609248737339 0.0019291900620055449 0 0.0010094125021275306 0.001943034339147624 0 0.00094897160018558142 0.0017656898976579852 0 0.00080931634141190767 0.0017540985243732076 0 0.00083742609248737339 0.0019291900620055449 0 0.00094897160018558142 0.0017656898976579852 0 0.0010643996760043891 0.0018465536204299105 0 0.0010854092199171644 0.001771308935488458 0 0.00094897160018558142 0.0017656898976579852 0 0.0010094125021275306 0.001943034339147624 0 0.0010643996760043891 0.0018465536204299105 0 0.00094897160018558142 0.0017656898976579852 0 0.001151036305602838 0.0020397722325341005 0 0.0010094125021275306 0.001943034339147624 0 0.0011142980931006451 0.0019192049137392267 0 0.0010094125021275306 0.001943034339147624 0 0.0011142980931006451 0.0019192049137392267 0 0.0010643996760043891 0.0018465536204299105 0 0.001151036305602838 0.0020397722325341005 0 0.0012741654314395708 0.0020513164543540813 0 0.0012356600256102164 0.0019586402500832091 0 0.0011142980931006451 0.0019192049137392267 0 0.0012356600256102164 0.0019586402500832091 0 0.0011274899779237639 0.0017930294039465353 0 0.001151036305602838 0.0020397722325341005 0 0.0011142980931006451 0.0019192049137392267 0 0.0012356600256102164 0.0019586402500832091 0 0.00084451167416063969 0.0027358656337217574 0 0.00088139874284998642 0.0026203764391750681 0 0.00092592052245909432 0.0026787292097381378 0 0.00084451167416063969 0.0027358656337217574 0 0.00088139874284998642 0.0026203764391750681 0 0.00082962976406858219 0.0025194521332311949 0 0.0010274993923464234 0.0022924845607329809 0 0.00098884852319798826 0.0021741952887756716 0 0.00088139874284998642 0.0026203764391750681 0 0.00093655707885857101 0.0025682965047508291 0 0.00092592052245909432 0.0026787292097381378 0 0.00088139874284998642 0.0026203764391750681 0 0.00088763918335548484 0.0025517662342583801 0 0.00093655707885857101 0.0025682965047508291 0 0.00088763918335548484 0.0025517662342583801 0 0.00082962976406858219 0.0025194521332311949 0 0.00091105695848326025 0.0024740035161385024 0 0.00088139874284998642 0.0026203764391750681 0 0.00088763918335548484 0.0025517662342583801 0 0.00082962976406858219 0.0025194521332311949 0 0.00088763918335548484 0.0025517662342583801 0 0.00091105695848326025 0.0024740035161385024 0 0.00093655707885857101 0.0025682965047508291 0 0.0011142980931006451 0.0019192049137392267 0 0.0010643996760043891 0.0018465536204299105 0 0.0011274899779237639 0.0017930294039465353 0 0.0010643996760043891 0.0018465536204299105 0 0.0011274899779237639 0.0017930294039465353 0 0.0010854092199171644 0.001771308935488458 0 0.00082962976406858219 0.0025194521332311949 0 0.00089987984726573632 0.0023641256154540921 0 0.00086957140053864834 0.0022620073851345591 0 0.00098884852319798826 0.0021741952887756716 0 0.00097078414141125709 0.0020167882629819897 0 0.0011274899779237639 0.0017930294039465353 0 0.0010854092199171644 0.001771308935488458 0 0.0010449567362857543 0.0017430300809406195 0 0.00091105695848326025 0.0024740035161385024 0 0.00097280870090770701 0.0024702796956413003 0 0.00093655707885857101 0.0025682965047508291 0 0.00082962976406858219 0.0025194521332311949 0 0.00091105695848326025 0.0024740035161385024 0 0.00089987984726573632 0.0023641256154540921 0 0.00091105695848326025 0.0024740035161385024 0 0.00089987984726573632 0.0023641256154540921 0 0.00095779200731588385 0.0023503079090838705 0 0.00091105695848326025 0.0024740035161385024 0 0.00095779200731588385 0.0023503079090838705 0 0.00097280870090770701 0.0024702796956413003 0 0.00095779200731588385 0.0023503079090838705 0 0.00093521977770694793 0.002208977368105896 0 0.00099449684298770036 0.0022545489103565157 0 0.00089987984726573632 0.0023641256154540921 0 0.00095779200731588385 0.0023503079090838705 0 0.00093521977770694793 0.002208977368105896 0 0.0010274178069705786 0.0019536810321040409 0 0.00086957140053864834 0.0022620073851345591 0 0.00093521977770694793 0.002208977368105896 0 0.00089987984726573632 0.0023641256154540921 0 0.00086957140053864834 0.0022620073851345591 0 0.00093521977770694793 0.002208977368105896 0 0.0010274178069705786 0.0019536810321040409 0 0.0010997389020047947 0.0017688578686327091 0 0.0012045189875295533 0.0017652537023843124 0 0.00102222663226694 0.0019842381264306938 0 0.00097078414141125709 0.0020167882629819897 0 0.0010274178069705786 0.0019536810321040409 0 0.0010449567362857543 0.0017430300809406195 0 0.0010997389020047947 0.0017688578686327091 0 0.0014318453962236461 0.0017390513949223556 0 0.00096154588450824351 0.0017203232983395722 0 0.0010997389020047947 0.0017688578686327091 0 0.0012045189875295533 0.0017652537023843124 0 0.0011201015013682716 0.0016821357599955981 0 0.0013021953348708595 0.0016572430051005104 0 0.0012045189875295533 0.0017652537023843124 0 0.0011201015013682716 0.0016821357599955981 0 0.0010854092199171644 0.001771308935488458 0 0.0010449567362857543 0.0017430300809406195 0 0.0011201015013682716 0.0016821357599955981 0 0.0011190922141795789 0.0017643356024975149 0 0.00096154588450824351 0.0017203232983395722 0 0.0010449567362857543 0.0017430300809406195 0 0.0010997389020047947 0.0017688578686327091 0 0.0011201015013682716 0.0016821357599955981 0 0.0010760496842629368 0.0026035321709732082 0 0.001098899414926065 0.0025812719692923868 0 0.0011218081655909949 0.0026695044759313183 0 0.0010769196526218743 0.0026670310147210372 0 0.001098899414926065 0.0025812719692923868 0 0.0011218081655909949 0.0026695044759313183 0 0.0010769196526218743 0.0026670310147210372 0 0.0010925330859429966 0.0026406895971356195 0 0.001098899414926065 0.0025812719692923868 0 0.0010940588347284109 0.0025575349827642057 0 0.0010925330859429966 0.0026406895971356195 0 0.001098899414926065 0.0025812719692923868 0 0.00097673376976436122 0.002499290871725283 0 0.0010940588347284109 0.0025575349827642057 0 0.001098899414926065 0.0025812719692923868 0 0.0010251718062869203 0.0024083576760632964 0 0.0010929791007642322 0.002553770236242381 0 0.0010820605538557329 0.0023235656729444351 0 0.001098899414926065 0.0025812719692923868 0 0.0010337493104338631 0.0024224835457283393 0 0.00095779200731588385 0.0023503079090838705 0 0.0010337493104338631 0.0024224835457283393 0 0.00099449684298770036 0.0022545489103565157 0 0.0010820605538557329 0.0023235656729444351 0 0.0010337493104338631 0.0024224835457283393 0 0.00099449684298770036 0.0022545489103565157 0 0.00095779200731588385 0.0023503079090838705 0 0.0010337493104338631 0.0024224835457283393 0 0.00097280870090770701 0.0024702796956413003 0 0.0010337493104338631 0.0024224835457283393 0 0.00100914983380913 0.0025469836501255364 0 0.00097280870090770701 0.0024702796956413003 0 0.00100914983380913 0.0025469836501255364 0 0.00097280870090770701 0.0024702796956413003 0 0.00093655707885857101 0.0025682965047508291 0 0.0010760496842629368 0.0026035321709732082 0 0.001098899414926065 0.0025812719692923868 0 0.0010337493104338631 0.0024224835457283393 0 0.0010760496842629368 0.0026035321709732082 0 0.0010337493104338631 0.0024224835457283393 0 0.00100914983380913 0.0025469836501255364 0 0.0010760496842629368 0.0026035321709732082 0 0.001008124925597051 0.0026744220903295486 0 0.0010772859484595545 0.0027353104262172966 0 0.0010760496842629368 0.0026035321709732082 0 0.00100914983380913 0.0025469836501255364 0 0.001008124925597051 0.0026744220903295486 0 0.00100914983380913 0.0025469836501255364 0 0.00093655707885857101 0.0025682965047508291 0 0.00097088108352688565 0.0026170459525158758 0 0.00100914983380913 0.0025469836501255364 0 0.001008124925597051 0.0026744220903295486 0 0.00097088108352688565 0.0026170459525158758 0 0.001008124925597051 0.0026744220903295486 0 0.00097088108352688565 0.0026170459525158758 0 0.00092592052245909432 0.0026787292097381378 0 0.00093655707885857101 0.0025682965047508291 0 0.00097088108352688565 0.0026170459525158758 0 0.00092592052245909432 0.0026787292097381378 0 0.00084451167416063969 0.0027358656337217574 0 0.00092592052245909432 0.0026787292097381378 0 0.00094601135236581011 0.0027622329681742303 0 0.00084451167416063969 0.0027358656337217574 0 0.00094601135236581011 0.0027622329681742303 0 0.00092439720608135931 0.0028563077365678282 0 0.001008124925597051 0.0026744220903295486 0 0.00092592052245909432 0.0026787292097381378 0 0.00094601135236581011 0.0027622329681742303 0 0.00094601135236581011 0.0027622329681742303 0 0.00099678726021939276 0.0028112210600799497 0 0.00092439720608135931 0.0028563077365678282 0 0.00099678726021939276 0.0028112210600799497 0 0.0010772859484595545 0.0027353104262172966 0 0.0010606514980969451 0.0028924478887577881 0 0.001008124925597051 0.0026744220903295486 0 0.00099678726021939276 0.0028112210600799497 0 0.0010772859484595545 0.0027353104262172966 0 0.001008124925597051 0.0026744220903295486 0 0.00094601135236581011 0.0027622329681742303 0 0.00099678726021939276 0.0028112210600799497 0 0.0010772859484595545 0.0027353104262172966 0 0.0011381108424350309 0.0028249495785190649 0 0.0010606514980969451 0.0028924478887577881 0 0.0010760496842629368 0.0026035321709732082 0 0.0010772859484595545 0.0027353104262172966 0 0.0011218081655909949 0.0026695044759313183 0 0.0010772859484595545 0.0027353104262172966 0 0.0011218081655909949 0.0026695044759313183 0 0.0011381108424350309 0.0028249495785190649 0 0.0011218081655909949 0.0026695044759313183 0 0.0011381108424350309 0.0028249495785190649 0 0.001172810437377145 0.0027351179469800951 0 0.0011381108424350309 0.0028249495785190649 0 0.0011243048294682252 0.0030133334259453276 0 0.00123060169306985 0.002982778835633736 0 0.0011381108424350309 0.0028249495785190649 0 0.0010606514980969451 0.0028924478887577881 0 0.0011243048294682252 0.0030133334259453276 0 0.0010606514980969451 0.0028924478887577881 0 0.0010453986011384996 0.0031033845100913592 0 0.0011243048294682252 0.0030133334259453276 0 0.0010453986011384996 0.0031033845100913592 0 0.0011243048294682252 0.0030133334259453276 0 0.0010716191477405741 0.0032800377887574565 0 0.0011243048294682252 0.0030133334259453276 0 0.0010716191477405741 0.0032800377887574565 0 0.0013073524785073092 0.0030959361333730622 0 0.0012197642239135131 0.0030278850835830612 0 0.00099358850001183608 0.0030897881474340754 0 0.00084451167416063969 0.0027358656337217574 0 0.0008811903289199501 0.0029229526691923616 0 0.00092439720608135931 0.0028563077365678282 0 0.0012741654314395708 0.0020513164543540813 0 0.0012650321828928904 0.0021376917546259964 0 0.00132774429201925 0.0021335362338284983 0 0.001355674417047184 0.0029411932217478327 0 0.0010835654372174698 0.0028590956029141616 0 0.0008811903289199501 0.0029229526691923616 0 0.00092439720608135931 0.0028563077365678282 0 0.00095403315016438577 0.0029612725676905708 0 0.0010835654372174698 0.0028590956029141616 0 0.00086886679539289536 0.0029437084349557959 0 0.0010606514980969451 0.0028924478887577881 0 0.0010453986011384996 0.0031033845100913592 0 0.00095403315016438577 0.0029612725676905708 0 0.00099678726021939276 0.0028112210600799497 0 0.0010606514980969451 0.0028924478887577881 0 0.00095403315016438577 0.0029612725676905708 0 0.00099678726021939276 0.0028112210600799497 0 0.00092439720608135931 0.0028563077365678282 0 0.00095403315016438577 0.0029612725676905708 0 0.0010453986011384996 0.0031033845100913592 0 0.00095403315016438577 0.0029612725676905708 0 0.001026905440939227 0.003331815870433511 0 0.0010835654372174698 0.0028590956029141616 0 0.00099762142316290703 0.0034636688098450131 0 0.0011169621936082178 0.0034815086451418075 0 0.0011117344307714379 0.0033977024350522987 0 0.001026905440939227 0.003331815870433511 0 0.00076319443449194386 0.0029687696576253609 0 0.00095403315016438577 0.0029612725676905708 0 0.001026905440939227 0.003331815870433511 0 0.0011547234192722923 0.0034759564333627854 0 0.0011169621936082178 0.0034815086451418075 0 0.0011117344307714379 0.0033977024350522987 0 0.0011742949401314269 0.0033438559303232956 0 0.0011117344307714379 0.0033977024350522987 0 0.001026905440939227 0.003331815870433511 0 0.001026905440939227 0.003331815870433511 0 0.0010607647716546779 0.0033673203378613292 0 0.0011259983384011582 0.0033036413927978168 0 0.0011742949401314269 0.0033438559303232956 0 0.001026905440939227 0.003331815870433511 0 0.0011259983384011582 0.0033036413927978168 0 0.0011742949401314269 0.0033438559303232956 0 0.0011259983384011582 0.0033036413927978168 0 0.0012698565048462525 0.0032930345500878327 0 0.0010862131639500499 0.0037264218614525002 0 0.00099358850001183608 0.0030897881474340754 0 0.0010716191477405741 0.0032800377887574565 0 0.0010584299052430657 0.0034851917834400983 0 0.0013073524785073092 0.0030959361333730622 0 0.001026905440939227 0.003331815870433511 0 0.0010716191477405741 0.0032800377887574565 0 0.0010607647716546779 0.0033673203378613292 0 0.0010453986011384996 0.0031033845100913592 0 0.001026905440939227 0.003331815870433511 0 0.0010716191477405741 0.0032800377887574565 0 0.0010716191477405741 0.0032800377887574565 0 0.0010607647716546779 0.0033673203378613292 0 0.0010584299052430657 0.0034851917834400983 0 0.0010607647716546779 0.0033673203378613292 0 0.0010584299052430657 0.0034851917834400983 0 0.0010571588644035751 0.0033013548193348502 0 0.0010584299052430657 0.0034851917834400983 0 0.0010571588644035751 0.0033013548193348502 0 0.00091044778776595045 0.0033509239788778768 0 0.0010571588644035751 0.0033013548193348502 0 0.00093094614524709602 0.0032139462349306275 0 0.00091044778776595045 0.0033509239788778768 0 0.0010607647716546779 0.0033673203378613292 0 0.0010571588644035751 0.0033013548193348502 0 0.0011259983384011582 0.0033036413927978168 0 0.0010571588644035751 0.0033013548193348502 0 0.0010482158353261237 0.0032056805535707008 0 0.0011133295816113692 0.0031846194685495907 0 0.0010482158353261237 0.0032056805535707008 0 0.0010648261864289502 0.0031348231574108583 0 0.0011133295816113692 0.0031846194685495907 0 0.0010571588644035751 0.0033013548193348502 0 0.0010482158353261237 0.0032056805535707008 0 0.00093094614524709602 0.0032139462349306275 0 0.0010482158353261237 0.0032056805535707008 0 0.00093094614524709602 0.0032139462349306275 0 0.0010648261864289502 0.0031348231574108583 0 0.00093876335694965008 0.0030839752813105652 0 0.0010648261864289502 0.0031348231574108583 0 0.001096848171397291 0.0031306906219969706 0 0.00093094614524709602 0.0032139462349306275 0 0.00093876335694965008 0.0030839752813105652 0 0.0010648261864289502 0.0031348231574108583 0 0.0010648261864289502 0.0031348231574108583 0 0.001096848171397291 0.0031306906219969706 0 0.0010998383031384867 0.0031122145250781674 0 0.0010648261864289502 0.0031348231574108583 0 0.0010998383031384867 0.0031122145250781674 0 0.0011133295816113692 0.0031846194685495907 0 0.001096848171397291 0.0031306906219969706 0 0.0011708239194556727 0.0032937428081119473 0 0.0010998383031384867 0.0031122145250781674 0 0.0011611504614325589 0.0032759555491511027 0 0.0012137656046644532 0.0032129215914358522 0 0.001096848171397291 0.0031306906219969706 0 0.0011708239194556727 0.0032937428081119473 0 0.00099817337673610237 0.0030132528032648068 0 0.00093876335694965008 0.0030839752813105652 0 0.001096848171397291 0.0031306906219969706 0 0.00099817337673610237 0.0030132528032648068 0 0.00095911244442851127 0.003343462336358744 0 0.0010491975684943085 0.0034838365923281823 0 0.0012180686959915581 0.0030623915661997804 0 0.0014265818535959894 0.0029282760890520375 0 0.0010688337488170814 0.0030813766062172043 0 0.0011708239194556727 0.0032937428081119473 0 0.0010998383031384867 0.0031122145250781674 0 0.0010688337488170814 0.0030813766062172043 0 0.0012180686959915581 0.0030623915661997804 0 0.0010998383031384867 0.0031122145250781674 0 0.0010688337488170814 0.0030813766062172043 0 0.0012180686959915581 0.0030623915661997804 0 0.0010998383031384867 0.0031122145250781674 0 0.0011683965659815938 0.0031338926480923399 0 0.0010998383031384867 0.0031122145250781674 0 0.0011683965659815938 0.0031338926480923399 0 0.0011133295816113692 0.0031846194685495907 0 0.0012180686959915581 0.0030623915661997804 0 0.0011683965659815938 0.0031338926480923399 0 0.001308236632893789 0.0030789326265043293 0 0.0012180686959915581 0.0030623915661997804 0 0.001308236632893789 0.0030789326265043293 0 0.0013865508789981608 0.0030129991033200684 0 0.0011683965659815938 0.0031338926480923399 0 0.001308236632893789 0.0030789326265043293 0 0.001223840698818949 0.0031749281960461056 0 0.001223840698818949 0.0031749281960461056 0 0.0011133295816113692 0.0031846194685495907 0 0.0011259983384011582 0.0033036413927978168 0 0.0011683965659815938 0.0031338926480923399 0 0.001223840698818949 0.0031749281960461056 0 0.0011133295816113692 0.0031846194685495907 0 0.0010571588644035751 0.0033013548193348502 0 0.0011133295816113692 0.0031846194685495907 0 0.0011259983384011582 0.0033036413927978168 0 0.001223840698818949 0.0031749281960461056 0 0.0011259983384011582 0.0033036413927978168 0 0.0012698565048462525 0.0032930345500878327 0 0.0017967688301905906 0.0031762747598393054 0 0.0016316776440044485 0.0030722720740975814 0 0.0017617514851965012 0.0030234613661355497 0 0.0016316776440044485 0.0030722720740975814 0 0.0017617514851965012 0.0030234613661355497 0 0.00162928604599557 0.0030324774305765731 0 0.0017617514851965012 0.0030234613661355497 0 0.00162928604599557 0.0030324774305765731 0 0.0017185588505278895 0.0029653143103966582 0 0.00162928604599557 0.0030324774305765731 0 0.0015810045888294646 0.0030147467600234426 0 0.0017185588505278895 0.0029653143103966582 0 0.001223840698818949 0.0031749281960461056 0 0.0012698565048462525 0.0032930345500878327 0 0.0014665399826155646 0.0030499067632745432 0 0.0014495825574841158 0.0031418698669096784 0 0.0014669508279910267 0.0030519966848295958 0 0.0016316776440044485 0.0030722720740975814 0 0.00162928604599557 0.0030324774305765731 0 0.0014665399826155646 0.0030499067632745432 0 0.0020219630218368018 0.0029745556020384224 0 0.0019877859848651987 0.0029402464804265706 0 0.0020169701742897318 0.0028941149695688607 0 0.0017967688301905906 0.0031762747598393054 0 0.0017617514851965012 0.0030234613661355497 0 0.0020219630218368018 0.0029745556020384224 0 0.0017617514851965012 0.0030234613661355497 0 0.0020219630218368018 0.0029745556020384224 0 0.001882747366283428 0.0029652750009777221 0 0.001882747366283428 0.0029652750009777221 0 0.0019877859848651987 0.0029402464804265706 0 0.001908717887382299 0.0028660283391131725 0 0.0017617514851965012 0.0030234613661355497 0 0.001882747366283428 0.0029652750009777221 0 0.0017185588505278895 0.0029653143103966582 0 0.0020219630218368018 0.0029745556020384224 0 0.001882747366283428 0.0029652750009777221 0 0.0019877859848651987 0.0029402464804265706 0 0.0016816185913096856 0.0030842688586676984 0 0.0017173588242961155 0.0030524123972654406 0 0.0017989649494552431 0.0030925959580129759 0 0.0017911055155004302 0.0029830374302005969 0 0.0018993010729673107 0.0030246167523533614 0 0.0019877859848651987 0.0029402464804265706 0 0.001908717887382299 0.0028660283391131725 0 0.002015925873573343 0.0029618030688002084 0 0.0016816185913096856 0.0030842688586676984 0 0.0016566827602108561 0.0030367574541618728 0 0.0015092354946695792 0.0030111165651627498 0 0.001882747366283428 0.0029652750009777221 0 0.001908717887382299 0.0028660283391131725 0 0.0017185588505278895 0.0029653143103966582 0 0.0016816185913096856 0.0030842688586676984 0 0.0016566827602108561 0.0030367574541618728 0 0.0017173588242961155 0.0030524123972654406 0 0.0016566827602108561 0.0030367574541618728 0 0.0016851846741941701 0.0030243949674287501 0 0.0016389576005636866 0.0030375857754249241 0 0.00096637208851789848 0.0033400101494065562 0 0.00080086334623683106 0.0034649022976172362 0 0.0016851846741941701 0.0030243949674287501 0 0.0016389576005636866 0.0030375857754249241 0 0.0016699657743390018 0.0030030413424952931 0 0.0016399068044353948 0.0032249576644102227 0 0.00096637208851789848 0.0033400101494065562 0 0.0016566827602108561 0.0030367574541618728 0 0.0016851846741941701 0.0030243949674287501 0 0.0017173588242961155 0.0030524123972654406 0 0.0017584302741808868 0.0030242800567024542 0 0.0017173588242961155 0.0030524123972654406 0 0.0017989649494552431 0.0030925959580129759 0 0.0016851846741941701 0.0030243949674287501 0 0.0017584302741808868 0.0030242800567024542 0 0.0017173588242961155 0.0030524123972654406 0 0.001308236632893789 0.0030789326265043293 0 0.001223840698818949 0.0031749281960461056 0 0.0014665399826155646 0.0030499067632745432 0 0.0014454746045034477 0.0030216570556405357 0 0.0015092354946695792 0.0030111165651627498 0 0.0014999054867969753 0.002989839798745582 0 0.0014454746045034477 0.0030216570556405357 0 0.0013865508789981608 0.0030129991033200684 0 0.0014999054867969753 0.002989839798745582 0 0.001308236632893789 0.0030789326265043293 0 0.0014454746045034477 0.0030216570556405357 0 0.0013865508789981608 0.0030129991033200684 0 0.001308236632893789 0.0030789326265043293 0 0.0014454746045034477 0.0030216570556405357 0 0.0014665399826155646 0.0030499067632745432 0 0.00162928604599557 0.0030324774305765731 0 0.0014665399826155646 0.0030499067632745432 0 0.0015810045888294646 0.0030147467600234426 0 0.0014665399826155646 0.0030499067632745432 0 0.0015092354946695792 0.0030111165651627498 0 0.0015810045888294646 0.0030147467600234426 0 0.0014454746045034477 0.0030216570556405357 0 0.0014665399826155646 0.0030499067632745432 0 0.0015092354946695792 0.0030111165651627498 0 0.0016566827602108561 0.0030367574541618728 0 0.0015092354946695792 0.0030111165651627498 0 0.0014999054867969753 0.002989839798745582 0 0.0015092354946695792 0.0030111165651627498 0 0.0015810045888294646 0.0030147467600234426 0 0.0017185588505278895 0.0029653143103966582 0 0.001908717887382299 0.0028660283391131725 0 0.0015092354946695792 0.0030111165651627498 0 0.0017185588505278895 0.0029653143103966582 0 0.0017911055155004302 0.0029830374302005969 0 0.0015370190527997105 0.003003852055825654 0 0.00014214037294162565 0.0036094386691548235 0 0.00053666565241857888 0.0037522873234324887 0 0.00023617487817107811 0.0039237055547653834 0 0.0016566827602108561 0.0030367574541618728 0 0.0015877024389317734 0.00298918870301233 0 0.0014999054867969753 0.002989839798745582 0 0.00096637208851789848 0.0033400101494065562 0 0.00095911244442851127 0.003343462336358744 0 0.0015877024389317734 0.00298918870301233 0 0.0014265818535959894 0.0029282760890520375 0 0.0014999054867969753 0.002989839798745582 0 0.00014214037294162565 0.0036094386691548235 0 0.00023617487817107811 0.0039237055547653834 0 -8.7692334012649109e-05 0.0040372422048480959 0 0.0012180686959915581 0.0030623915661997804 0 0.0013865508789981608 0.0030129991033200684 0 0.0014265818535959894 0.0029282760890520375 0 0.0013865508789981608 0.0030129991033200684 0 0.0014265818535959894 0.0029282760890520375 0 0.0014999054867969753 0.002989839798745582 0 0.00053666565241857888 0.0037522873234324887 0 0.00070700720730714026 0.0040482429762253771 0 0.00043989640018312021 0.004096772238368099 0 0.00070700720730714026 0.0040482429762253771 0 0.00043989640018312021 0.004096772238368099 0 0.0006246056387680972 0.0043406125309100362 0 0.00053666565241857888 0.0037522873234324887 0 0.00043989640018312021 0.004096772238368099 0 0.00023617487817107811 0.0039237055547653834 0 0.00043989640018312021 0.004096772238368099 0 0.00023617487817107811 0.0039237055547653834 0 0.00018077071695124581 0.0041677661915179741 0 0.00023617487817107811 0.0039237055547653834 0 0.00018077071695124581 0.0041677661915179741 0 -8.7692334012649109e-05 0.0040372422048480959 0 0.00043989640018312021 0.004096772238368099 0 0.00018077071695124581 0.0041677661915179741 0 0.00028782078116743515 0.0044186874267455132 0 0.00018077071695124581 0.0041677661915179741 0 0.00028782078116743515 0.0044186874267455132 0 7.1702050330938389e-06 0.0043862135776632123 0 0.00028782078116743515 0.0044186874267455132 0 0.00039626058253210079 0.0048112962816445259 0 5.3553723587759765e-05 0.0047937655812153217 0 0.00028782078116743515 0.0044186874267455132 0 7.1702050330938389e-06 0.0043862135776632123 0 5.3553723587759765e-05 0.0047937655812153217 0 0.0006246056387680972 0.0043406125309100362 0 0.00039626058253210079 0.0048112962816445259 0 0.00082461405213535928 0.0044344441662602808 0 0.00028782078116743515 0.0044186874267455132 0 0.0006246056387680972 0.0043406125309100362 0 0.00039626058253210079 0.0048112962816445259 0 0.00043989640018312021 0.004096772238368099 0 0.00028782078116743515 0.0044186874267455132 0 0.0006246056387680972 0.0043406125309100362 0 0.0017584302741808868 0.0030242800567024542 0 0.0017058482767091812 0.0029939050391729893 0 0.001725696601428982 0.0029569883331509441 0 0.0016851846741941701 0.0030243949674287501 0 0.0017584302741808868 0.0030242800567024542 0 0.0017058482767091812 0.0029939050391729893 0 0.0017058482767091812 0.0029939050391729893 0 0.0016951233267770665 0.0029916006248914885 0 0.0017023303738341431 0.0029900262631747171 0 0.0019154429969483909 0.0029660217946185755 0 0.0020218312896790359 0.0037795712971455072 0 0.0017058482767091812 0.0029939050391729893 0 0.0016699657743390018 0.0030030413424952931 0 0.0016951233267770665 0.0029916006248914885 0 0.0016851846741941701 0.0030243949674287501 0 0.0017058482767091812 0.0029939050391729893 0 0.0016699657743390018 0.0030030413424952931 0 0.00018077071695124581 0.0041677661915179741 0 -8.7692334012649109e-05 0.0040372422048480959 0 7.1702050330938389e-06 0.0043862135776632123 0 0.0016699657743390018 0.0030030413424952931 0 0.0016924467904897266 0.0029839573448996763 0 0.0016951233267770665 0.0029916006248914885 0 -8.7692334012649109e-05 0.0040372422048480959 0 7.1702050330938389e-06 0.0043862135776632123 0 -0.00035284544715867382 0.0045490379730414318 0 0.00080086334623683106 0.0034649022976172362 0 0.00070449928728908275 0.0041534967200580744 0 7.1702050330938389e-06 0.0043862135776632123 0 -0.00035284544715867382 0.0045490379730414318 0 5.3553723587759765e-05 0.0047937655812153217 0 0.00070449928728908275 0.0041534967200580744 0 -0.00016259557780009737 0.0046165803248259096 0 0.0020218312896790359 0.0037795712971455072 0 0.0023053782053133456 0.0046346975073710975 0 0.0016690365480136859 0.0042796756091045222 0 0.0014426801975163128 0.0041582454773091285 0 0.0014558941446905088 0.0047495921167828928 0 0.0034346017819608891 0.0040463111870344837 0 0.0032358556467680694 0.004562253522908454 0 0.0030395884700216758 0.0042157588476619276 0 0.00070449928728908275 0.0041534967200580744 0 0.0020218312896790359 0.0037795712971455072 0 0.0016924467904897266 0.0029839573448996763 0 0.0016951233267770665 0.0029916006248914885 0 0.0017023303738341431 0.0029900262631747171 0 0.0014426801975163128 0.0041582454773091285 0 0.0014558941446905088 0.0047495921167828928 0 0.001240024570638194 0.0047117863062038166 0 0.00070449928728908275 0.0041534967200580744 0 0.00042081526636306312 0.0049896351052465373 0 -0.0005348820687421877 0.0051084832889749642 0 -0.00020336121719060965 0.005007586505790803 0 -0.00019680446754136058 0.0054902897184230023 0 -0.00030816322839502476 0.004606508442263773 0 -0.0005348820687421877 0.0051084832889749642 0 -0.00020336121719060965 0.005007586505790803 0 -0.00030816322839502476 0.004606508442263773 0 -0.00020336121719060965 0.005007586505790803 0 5.3553723587759765e-05 0.0047937655812153217 0 -0.00020336121719060965 0.005007586505790803 0 7.4300694347429451e-05 0.0051587439504698022 0 5.3553723587759765e-05 0.0047937655812153217 0 -0.00020336121719060965 0.005007586505790803 0 7.4300694347429451e-05 0.0051587439504698022 0 -0.00019680446754136058 0.0054902897184230023 0 -0.0005348820687421877 0.0051084832889749642 0 -0.00019680446754136058 0.0054902897184230023 0 -0.00074480444639421755 0.005597448918897607 0 0.00042081526636306312 0.0049896351052465373 0 0.00061577879565069473 0.0054461786962276982 0 0.00073530352939335433 0.0055653846652905913 0 0.0009712182971701041 0.0056061869259367526 0 0.0008584199275032461 0.0055332665489914203 0 0.0014558941446905088 0.0047495921167828928 0 0.001240024570638194 0.0047117863062038166 0 0.0012447375368884739 0.0052168218165159694 0 0.00017724036266788387 0.0055443677750631384 0 0.00061577879565069473 0.0054461786962276982 0 0.00052421914755108379 0.0052617641973838935 0 0.00039626058253210079 0.0048112962816445259 0 0.00045755977291154679 0.005404306965310632 0 0.00036421655564880843 0.0048141453849419105 0 0.0006582241912038646 0.0048736303773648584 0 0.00052421914755108379 0.0052617641973838935 0 0.00039626058253210079 0.0048112962816445259 0 0.00056357207797841521 0.0053249360413419114 0 7.4300694347429451e-05 0.0051587439504698022 0 0.00039626058253210079 0.0048112962816445259 0 0.00045755977291154679 0.005404306965310632 0 7.4300694347429451e-05 0.0051587439504698022 0 0.00039626058253210079 0.0048112962816445259 0 5.3553723587759765e-05 0.0047937655812153217 0 0.00017724036266788387 0.0055443677750631384 0 0.00050326100003710635 0.0054149930998076638 0 0.00073530352939335433 0.0055653846652905913 0 0.00045755977291154679 0.005404306965310632 0 0.00056036811412929499 0.0054231753579353902 0 7.4300694347429451e-05 0.0051587439504698022 0 -0.00019680446754136058 0.0054902897184230023 0 0.00045755977291154679 0.005404306965310632 0 0.00052421914755108379 0.0052617641973838935 0 0.00045755977291154679 0.005404306965310632 0 0.0005159766181874071 0.0053733370419733221 0 0.00045755977291154679 0.005404306965310632 0 0.0005159766181874071 0.0053733370419733221 0 0.00056036811412929499 0.0054231753579353902 0 0.00052421914755108379 0.0052617641973838935 0 0.0005159766181874071 0.0053733370419733221 0 0.00056357207797841521 0.0053249360413419114 0 0.0005159766181874071 0.0053733370419733221 0 0.00056357207797841521 0.0053249360413419114 0 0.00042792207637767774 0.0053718759504843023 0 0.0006582241912038646 0.0048736303773648584 0 0.00068509380467340604 0.0048955438227134569 0 0.00056357207797841521 0.0053249360413419114 0 0.00042792207637767774 0.0053718759504843023 0 0.0003265630889968317 0.0054930762316746573 0 0.00042792207637767774 0.0053718759504843023 0 0.0003265630889968317 0.0054930762316746573 0 0.00026017927086429896 0.0053275573236708359 0 5.6721052457919933e-05 0.005515470849928256 0 0.0003265630889968317 0.0054930762316746573 0 0.00026017927086429896 0.0053275573236708359 0 5.6721052457919933e-05 0.005515470849928256 0 6.2502546545383065e-06 0.0052750811622392377 0 0.00026017927086429896 0.0053275573236708359 0 0.0015424946232431662 0.0043228755770733842 0 0.0014344363455683108 0.0040366127268991409 0 0.0018040726978693668 0.0041023902461210108 0 0.0015424946232431662 0.0043228755770733842 0 0.0011182107447367923 0.0043107199979588069 0 0.0014344363455683108 0.0040366127268991409 0 0.00094720009527887673 0.0049473431784102326 0 0.00068509380467340604 0.0048955438227134569 0 0.0011182107447367923 0.0043107199979588069 0 0.0012200533143416313 0.0039765385664939767 0 0.0010510473249120515 0.0040324351731115511 0 0.0012200533143416313 0.0039765385664939767 0 0.0012793245571923319 0.0036543742262479797 0 0.0010510473249120515 0.0040324351731115511 0 0.0012200533143416313 0.0039765385664939767 0 0.0014344363455683108 0.0040366127268991409 0 0.0012793245571923319 0.0036543742262479797 0 0.0011182107447367923 0.0043107199979588069 0 0.0012200533143416313 0.0039765385664939767 0 0.0014344363455683108 0.0040366127268991409 0 0.0014344363455683108 0.0040366127268991409 0 0.0015412625813659899 0.003638834344624415 0 0.0017133169607640726 0.0038245887648093719 0 0.0011708239194556727 0.0032937428081119473 0 0.0015571089031292578 0.003372568452671274 0 0.0012793245571923319 0.0036543742262479797 0 0.0014344363455683108 0.0040366127268991409 0 0.0015412625813659899 0.003638834344624415 0 0.0012793245571923319 0.0036543742262479797 0 0.0015571089031292578 0.003372568452671274 0 0.0015412625813659899 0.003638834344624415 0 0.0012793245571923319 0.0036543742262479797 0 0.0015571089031292578 0.003372568452671274 0 0.0015412625813659899 0.003638834344624415 0 0.0017856918395267383 0.0035491867690668859 0 0.0011708239194556727 0.0032937428081119473 0 0.0012793245571923319 0.0036543742262479797 0 0.0010688337488170814 0.0030813766062172043 0 0.0013019461018391545 0.0036453639243097546 0 0.0010491975684943085 0.0034838365923281823 0 0.00095618279366349178 0.0038668106595916274 0 0.00085720917051184851 0.0041525577818314506 0 0.0010510473249120515 0.0040324351731115511 0 0.0012793245571923319 0.0036543742262479797 0 0.00095618279366349178 0.0038668106595916274 0 0.0010510473249120515 0.0040324351731115511 0 0.00053666565241857888 0.0037522873234324887 0 0.00070700720730714026 0.0040482429762253771 0 0.00095618279366349178 0.0038668106595916274 0 0.00070700720730714026 0.0040482429762253771 0 0.00095618279366349178 0.0038668106595916274 0 0.00085720917051184851 0.0041525577818314506 0 0.00082461405213535928 0.0044344441662602808 0 0.00085720917051184851 0.0041525577818314506 0 0.0010510473249120515 0.0040324351731115511 0 0.00070700720730714026 0.0040482429762253771 0 0.0006246056387680972 0.0043406125309100362 0 0.00085720917051184851 0.0041525577818314506 0 0.0006246056387680972 0.0043406125309100362 0 0.00082461405213535928 0.0044344441662602808 0 0.00085720917051184851 0.0041525577818314506 0 0.00082461405213535928 0.0044344441662602808 0 0.0011182107447367923 0.0043107199979588069 0 0.0010510473249120515 0.0040324351731115511 0 0.0022474954508335562 0.0040650824642721661 0 0.0022013996833428005 0.004288679778066188 0 0.0021123148805461214 0.0042511964268853895 0 0.0021663497954447814 0.004449020126993811 0 0.002028025051110128 0.0046103323141857971 0 0.0023715854148899677 0.0038616223882581937 0 0.0023540727492341847 0.0039049701027294961 0 0.0023735600836204732 0.0039711472898799728 0 0.0023715854148899677 0.0038616223882581937 0 0.0023786622488714184 0.0038618167589602815 0 0.0023540727492341847 0.0039049701027294961 0 0.0021663497954447814 0.004449020126993811 0 0.0022944507470406376 0.0043495885398616803 0 0.0022463389615551355 0.0045069694392168127 0 0.0021663497954447814 0.004449020126993811 0 0.0022944507470406376 0.0043495885398616803 0 0.0022152077213528393 0.004314559673508014 0 0.0022944507470406376 0.0043495885398616803 0 0.0022152077213528393 0.004314559673508014 0 0.002287261065733319 0.0042050522307190011 0 0.0022944507470406376 0.0043495885398616803 0 0.002287261065733319 0.0042050522307190011 0 0.0024026060816601169 0.0042430232137969093 0 0.0021123148805461214 0.0042511964268853895 0 0.0022152077213528393 0.004314559673508014 0 0.002287261065733319 0.0042050522307190011 0 0.0021123148805461214 0.0042511964268853895 0 0.0021663497954447814 0.004449020126993811 0 0.0022152077213528393 0.004314559673508014 0 0.0021123148805461214 0.0042511964268853895 0 0.002287261065733319 0.0042050522307190011 0 0.0023210453261259239 0.0039420222343455958 0 0.0023055947789822006 0.0041073402994254438 0 0.0023685414124689306 0.0041006381999747019 0 0.002287261065733319 0.0042050522307190011 0 0.0023531559975600962 0.0038818422955527593 0 0.0024263533773188806 0.0041130924514237487 0 0.0023715854148899677 0.0038616223882581937 0 0.0023667333751691971 0.0038971168576452738 0 0.0023210453261259239 0.0039420222343455958 0 0.0023974919997433067 0.0039333049370097349 0 0.0023786622488714184 0.0038618167589602815 0 0.0023667333751691971 0.0038971168576452738 0 0.0022474954508335562 0.0040650824642721661 0 0.002306070369225074 0.0039554862641441781 0 0.0023715854148899677 0.0038616223882581937 0 0.0023786622488714184 0.0038618167589602815 0 0.0023667333751691971 0.0038971168576452738 0 0.0023974919997433067 0.0039333049370097349 0 0.0023667333751691971 0.0038971168576452738 0 0.0023210453261259239 0.0039420222343455958 0 0.0023974919997433067 0.0039333049370097349 0 0.0023781070047191937 0.0039310329580101357 0 0.0023210453261259239 0.0039420222343455958 0 0.0023974919997433067 0.0039333049370097349 0 0.0024331256711178683 0.0039226525776710737 0 0.0023781070047191937 0.0039310329580101357 0 0.0024331256711178683 0.0039226525776710737 0 0.0023781070047191937 0.0039310329580101357 0 0.0023722030261295267 0.003918671651038764 0 0.0023684873869851985 0.0039146200241342742 0 0.0023722030261295267 0.003918671651038764 0 0.0023977567107207028 0.0039346760247978068 0 0.0023781070047191937 0.0039310329580101357 0 0.0023722030261295267 0.003918671651038764 0 0.0023210453261259239 0.0039420222343455958 0 0.002287261065733319 0.0042050522307190011 0 0.0023210453261259239 0.0039420222343455958 0 0.0023977567107207028 0.0039346760247978068 0 0.0023722030261295267 0.003918671651038764 0 0.0023210453261259239 0.0039420222343455958 0 0.0023977567107207028 0.0039346760247978068 0 0.0023531559975600962 0.0038818422955527593 0 0.0025791141607714578 0.0038467652814454878 0 0.0025641472210333623 0.0040381366927615308 0 0.002183580187189105 0.0028410637151907174 0 0.0023685414124689306 0.0041006381999747019 0 0.0024443127401058543 0.0035421507932390721 0 0.0023531559975600962 0.0038818422955527593 0 0.0025791141607714578 0.0038467652814454878 0 0.0024443127401058543 0.0035421507932390721 0 0.0025791141607714578 0.0038467652814454878 0 0.0027910386635061611 0.0037136728444953138 0 0.002183580187189105 0.0028410637151907174 0 0.0019941715197505606 0.0031662147497696362 0 0.0025791141607714578 0.0038467652814454878 0 0.0027395951986618509 0.0040510088967313403 0 0.0027910386635061611 0.0037136728444953138 0 0.0025791141607714578 0.0038467652814454878 0 0.0027395951986618509 0.0040510088967313403 0 0.0025641472210333623 0.0040381366927615308 0 0.0027395951986618509 0.0040510088967313403 0 0.0025417672661953343 0.004191703518192349 0 0.0026812468759692442 0.0043754199903719643 0 0.0022376004658818172 0.003543307698220575 0 0.0020968607681712717 0.0038435867915521341 0 0.0027395951986618509 0.0040510088967313403 0 0.0025641472210333623 0.0040381366927615308 0 0.0025417672661953343 0.004191703518192349 0 0.0025641472210333623 0.0040381366927615308 0 0.0024263533773188806 0.0041130924514237487 0 0.0025417672661953343 0.004191703518192349 0 0.0023531559975600962 0.0038818422955527593 0 0.0025641472210333623 0.0040381366927615308 0 0.0024263533773188806 0.0041130924514237487 0 0.0024263533773188806 0.0041130924514237487 0 0.0025417672661953343 0.004191703518192349 0 0.0024026060816601169 0.0042430232137969093 0 0.002287261065733319 0.0042050522307190011 0 0.0024263533773188806 0.0041130924514237487 0 0.0024026060816601169 0.0042430232137969093 0 0.0025417672661953343 0.004191703518192349 0 0.0024026060816601169 0.0042430232137969093 0 0.0024798344014666813 0.0043422877986335449 0 0.0024798344014666813 0.0043422877986335449 0 0.0026812468759692442 0.0043754199903719643 0 0.0024685566856045772 0.0045050677580391225 0 0.0022944507470406376 0.0043495885398616803 0 0.0024026060816601169 0.0042430232137969093 0 0.0024798344014666813 0.0043422877986335449 0 0.0022944507470406376 0.0043495885398616803 0 0.0024798344014666813 0.0043422877986335449 0 0.0024685566856045772 0.0045050677580391225 0 0.0022771151021004164 0.0043489178781302186 0 0.0024621915437225928 0.0045863564701119413 0 0.0025417672661953343 0.004191703518192349 0 0.0024798344014666813 0.0043422877986335449 0 0.0026812468759692442 0.0043754199903719643 0 0.0015517625114925527 0.0033530882100468152 0 0.0018473291812134229 0.0031539352187100527 0 0.0019456185854497851 0.0035176112977893447 0 0.0016897896673325646 0.0029786163786380175 0 0.0015517625114925527 0.0033530882100468152 0 0.0018473291812134229 0.0031539352187100527 0 0.0018771617072557013 0.0031540596837753795 0 0.0021328167653712534 0.0032558117963464262 0 0.0018473291812134229 0.0031539352187100527 0 0.0024550115945526753 0.0034598243908332627 0 0.0019456185854497851 0.0035176112977893447 0 0.0018473291812134229 0.0031539352187100527 0 0.0018720694141666928 0.0030579485533974455 0 0.0018830766608890985 0.0030544640881592262 0 0.0018830766608890985 0.0030544640881592262 0 0.0018111375140922594 0.0030161477418462154 0 0.0018377119457142679 0.0029609787430852027 0 0.0018473291812134229 0.0031539352187100527 0 0.0018830766608890985 0.0030544640881592262 0 0.0018111375140922594 0.0030161477418462154 0 0.0016897896673325646 0.0029786163786380175 0 0.0018473291812134229 0.0031539352187100527 0 0.0018111375140922594 0.0030161477418462154 0 0.0016897896673325646 0.0029786163786380175 0 0.0018111375140922594 0.0030161477418462154 0 0.0017514799269466421 0.0029268394142338574 0 0.0016897896673325646 0.0029786163786380175 0 0.0017514799269466421 0.0029268394142338574 0 0.0017210416068782015 0.0028442154072167609 0 0.0022376004658818172 0.003543307698220575 0 0.0019941715197505606 0.0031662147497696362 0 0.0018111375140922594 0.0030161477418462154 0 0.0017514799269466421 0.0029268394142338574 0 0.0018377119457142679 0.0029609787430852027 0 0.0017514799269466421 0.0029268394142338574 0 0.0017497259429986405 0.0028604359944617362 0 0.0018220416726324308 0.0028816938641415273 0 0.0017514799269466421 0.0029268394142338574 0 0.0018220416726324308 0.0028816938641415273 0 0.0018377119457142679 0.0029609787430852027 0 0.0017514799269466421 0.0029268394142338574 0 0.0017210416068782015 0.0028442154072167609 0 0.0017497259429986405 0.0028604359944617362 0 0.0016714877693205545 0.0028342173370510034 0 0.0017497259429986405 0.0028604359944617362 0 0.0017570058480381224 0.0027371950306318829 0 0.0019941715197505606 0.0031662147497696362 0 0.0017296229446679121 0.0029666009375305573 0 0.0017497259429986405 0.0028604359944617362 0 0.0017570058480381224 0.0027371950306318829 0 0.0018472189373627114 0.0027994420232828436 0 0.0019625850105535031 0.0027653278306366286 0 0.0018472189373627114 0.0027994420232828436 0 0.0019243043726441698 0.0029007553427351507 0 0.0017957794182586785 0.0026712294908566793 0 0.0017570058480381224 0.0027371950306318829 0 0.0018472189373627114 0.0027994420232828436 0 0.0017497259429986405 0.0028604359944617362 0 0.0018472189373627114 0.0027994420232828436 0 0.0018220416726324308 0.0028816938641415273 0 0.0018472189373627114 0.0027994420232828436 0 0.0018220416726324308 0.0028816938641415273 0 0.0019243043726441698 0.0029007553427351507 0 0.0018830766608890985 0.0030544640881592262 0 0.0018377119457142679 0.0029609787430852027 0 0.0019243043726441698 0.0029007553427351507 0 0.0018220416726324308 0.0028816938641415273 0 0.0018377119457142679 0.0029609787430852027 0 0.0019243043726441698 0.0029007553427351507 0 0.0019625850105535031 0.0027653278306366286 0 0.0019243043726441698 0.0029007553427351507 0 0.0020169701742897318 0.0028941149695688607 0 0.0019625850105535031 0.0027653278306366286 0 0.0020585715319222666 0.0027399470030322415 0 0.0020169701742897318 0.0028941149695688607 0 0.0020585715319222666 0.0027399470030322415 0 0.0020219630218368018 0.0029745556020384224 0 0.0020169701742897318 0.0028941149695688607 0 0.0019243043726441698 0.0029007553427351507 0 0.0020169701742897318 0.0028941149695688607 0 0.002015925873573343 0.0029618030688002084 0 0.0019877859848651987 0.0029402464804265706 0 0.0020169701742897318 0.0028941149695688607 0 0.002015925873573343 0.0029618030688002084 0 0.0018797072275440572 0.0030511164569824636 0 0.0018993010729673107 0.0030246167523533614 0 0.0018830766608890985 0.0030544640881592262 0 0.0019243043726441698 0.0029007553427351507 0 0.002015925873573343 0.0029618030688002084 0 0.0018830766608890985 0.0030544640881592262 0 0.0017989649494552431 0.0030925959580129759 0 0.001832900688680835 0.0030519248677612566 0 0.0018720694141666928 0.0030579485533974455 0 0.0018830766608890985 0.0030544640881592262 0 0.001832900688680835 0.0030519248677612566 0 0.0017584302741808868 0.0030242800567024542 0 0.0017989649494552431 0.0030925959580129759 0 0.001832900688680835 0.0030519248677612566 0 0.0020218312896790359 0.0037795712971455072 0 0.002473318025302556 0.0033787864195509443 0 0.0017584302741808868 0.0030242800567024542 0 0.001832900688680835 0.0030519248677612566 0 0.0018106320409877004 0.0029941282938570272 0 0.0017584302741808868 0.0030242800567024542 0 0.001725696601428982 0.0029569883331509441 0 0.0018106320409877004 0.0029941282938570272 0 0.0024550115945526753 0.0034598243908332627 0 0.0029621134825565886 0.0037714222373333743 0 0.0024653946592329925 0.0039029448631630096 0 0.0021328167653712534 0.0032558117963464262 0 0.002473318025302556 0.0033787864195509443 0 0.0018720694141666928 0.0030579485533974455 0 0.001832900688680835 0.0030519248677612566 0 0.0018106320409877004 0.0029941282938570272 0 0.0029621134825565886 0.0037714222373333743 0 0.0026101167670882948 0.0043066204479589006 0 0.0024653946592329925 0.0039029448631630096 0 0.0029621134825565886 0.0037714222373333743 0 0.0026101167670882948 0.0043066204479589006 0 0.0030395884700216758 0.0042157588476619276 0 0.0034346017819608891 0.0040463111870344837 0 0.0029621134825565886 0.0037714222373333743 0 0.0030395884700216758 0.0042157588476619276 0 0.0032358556467680694 0.004562253522908454 0 0.0030395884700216758 0.0042157588476619276 0 0.0029015152448801729 0.0044711090460223838 0 0.0032358556467680694 0.004562253522908454 0 0.0029015152448801729 0.0044711090460223838 0 0.0027196132574562083 0.0047970098051788928 0 0.0023053782053133456 0.0046346975073710975 0 0.0016818696419664634 0.0053116327184897054 0 0.0032358556467680694 0.004562253522908454 0 0.0027196132574562083 0.0047970098051788928 0 0.0030243273242797778 0.005038913029059915 0 0.001240024570638194 0.0047117863062038166 0 0.0012447375368884739 0.0052168218165159694 0 0.0010399735711300745 0.005262436646415453 0 0.00061577879565069473 0.0054461786962276982 0 0.0016818696419664634 0.0053116327184897054 0 0.0027196132574562083 0.0047970098051788928 0 0.0023785361503180255 0.0049145942127579558 0 0.0025308146379563789 0.0050904577235243676 0 0.0027196132574562083 0.0047970098051788928 0 0.0025308146379563789 0.0050904577235243676 0 0.0030243273242797778 0.005038913029059915 0 0.0026101167670882948 0.0043066204479589006 0 0.0030395884700216758 0.0042157588476619276 0 0.0029015152448801729 0.0044711090460223838 0 0.0026101167670882948 0.0043066204479589006 0 0.0029015152448801729 0.0044711090460223838 0 0.0027196132574562083 0.0047970098051788928 0 0.0026101167670882948 0.0043066204479589006 0 0.0027196132574562083 0.0047970098051788928 0 0.0023212796066304927 0.0045306433947407306 0 0.0023212796066304927 0.0045306433947407306 0 0.0023785361503180255 0.0049145942127579558 0 0.0018687209924559442 0.0044895496791867162 0 0.0026101167670882948 0.0043066204479589006 0 0.0023212796066304927 0.0045306433947407306 0 0.002199811603440115 0.0041991884890584452 0 0.0023212796066304927 0.0045306433947407306 0 0.0018687209924559442 0.0044895496791867162 0 0.002199811603440115 0.0041991884890584452 0 0.0027196132574562083 0.0047970098051788928 0 0.0023212796066304927 0.0045306433947407306 0 0.0023785361503180255 0.0049145942127579558 0 0.002371384389405708 0.0049504175728663034 0 0.0023387761706103729 0.0050063100631496252 0 0.002362187017554859 0.0050585830343039253 0 0.0023785361503180255 0.0049145942127579558 0 0.002371384389405708 0.0049504175728663034 0 0.002362187017554859 0.0050585830343039253 0 0.0023785361503180255 0.0049145942127579558 0 0.002371384389405708 0.0049504175728663034 0 0.0023893664911871356 0.004905548536139964 0 0.002371384389405708 0.0049504175728663034 0 0.0023893664911871356 0.004905548536139964 0 0.0023639329587186023 0.0049314951891542749 0 0.0023696581211226238 0.0049136562270883305 0 0.0020822775843347221 0.0046638439418147 0 0.0018687209924559442 0.0044895496791867162 0 0.0018405569312851114 0.0040832136549577664 0 0.0014275069432146067 0.004033661208715106 0 0.0018405569312851114 0.0040832136549577664 0 0.0017504907404686275 0.0037809020872091813 0 0.0020325008137200098 0.0038902146971532721 0 0.0018405569312851114 0.0040832136549577664 0 0.002199811603440115 0.0041991884890584452 0 0.0020325008137200098 0.0038902146971532721 0 0.0018687209924559442 0.0044895496791867162 0 0.0018405569312851114 0.0040832136549577664 0 0.002199811603440115 0.0041991884890584452 0 0.002199811603440115 0.0041991884890584452 0 0.0024653946592329925 0.0039029448631630096 0 0.0020325008137200098 0.0038902146971532721 0 0.0026101167670882948 0.0043066204479589006 0 0.002199811603440115 0.0041991884890584452 0 0.0024653946592329925 0.0039029448631630096 0 0.0024550115945526753 0.0034598243908332627 0 0.0019456185854497851 0.0035176112977893447 0 0.0020325008137200098 0.0038902146971532721 0 0.0024550115945526753 0.0034598243908332627 0 0.0024653946592329925 0.0039029448631630096 0 0.0020325008137200098 0.0038902146971532721 0 0.0015517625114925527 0.0033530882100468152 0 0.0019456185854497851 0.0035176112977893447 0 0.0017504907404686275 0.0037809020872091813 0 0.0019456185854497851 0.0035176112977893447 0 0.0017504907404686275 0.0037809020872091813 0 0.0020325008137200098 0.0038902146971532721 0 0.0026812468759692442 0.0043754199903719643 0 0.0024685566856045772 0.0045050677580391225 0 0.0026260879354752039 0.0046740339220628759 0 0.0015517625114925527 0.0033530882100468152 0 0.0017504907404686275 0.0037809020872091813 0 0.0014275069432146067 0.004033661208715106 0 0.0020968607681712717 0.0038435867915521341 0 0.0022308098484850091 0.004479189736328066 0 0.0023690617412996636 0.0045850717542605477 0 0.0023282084184163294 0.0047587242533475311 0 0.0022033101571059879 0.0046397248781239846 0 0.0024621915437225928 0.0045863564701119413 0 0.0022308098484850091 0.004479189736328066 0 0.0023690617412996636 0.0045850717542605477 0 0.0023282084184163294 0.0047587242533475311 0 0.0024275023515855617 0.0047490511955946817 0 0.0023282084184163294 0.0047587242533475311 0 0.0022911551528363447 0.0048517595643566896 0 0.0022298727775392846 0.0047951357952556702 0 0.0023282084184163294 0.0047587242533475311 0 0.0023765618433570874 0.0048559815336560166 0 0.0022911551528363447 0.0048517595643566896 0 0.0022308098484850091 0.004479189736328066 0 0.0023057948869763365 0.004857257120022925 0 0.0023282084184163294 0.0047587242533475311 0 0.0024275023515855617 0.0047490511955946817 0 0.0023765618433570874 0.0048559815336560166 0 0.0023893664911871356 0.004905548536139964 0 0.002380242895658607 0.0048316566120363757 0 0.0023765618433570874 0.0048559815336560166 0 0.0020822775843347221 0.0046638439418147 0 0.0022308098484850091 0.004479189736328066 0 0.0018405569312851114 0.0040832136549577664 0 0.0017504907404686275 0.0037809020872091813 0 0.0014275069432146067 0.004033661208715106 0 0.0023893664911871356 0.004905548536139964 0 0.0023765618433570874 0.0048559815336560166 0 0.0023639329587186023 0.0049314951891542749 0 0.0023765618433570874 0.0048559815336560166 0 0.0023639329587186023 0.0049314951891542749 0 0.0023030325292470286 0.0049425429809989386 0 0.002371384389405708 0.0049504175728663034 0 0.0023639329587186023 0.0049314951891542749 0 0.0023387761706103729 0.0050063100631496252 0 0.0023639329587186023 0.0049314951891542749 0 0.0023387761706103729 0.0050063100631496252 0 0.0023030325292470286 0.0049425429809989386 0 0.0023030325292470286 0.0049425429809989386 0 0.0022143853459222779 0.0049885853593064598 0 0.0022529778511874124 0.0050559488829513876 0 0.0023387761706103729 0.0050063100631496252 0 0.0023030325292470286 0.0049425429809989386 0 0.0022529778511874124 0.0050559488829513876 0 0.0023030325292470286 0.0049425429809989386 0 0.0022911551528363447 0.0048517595643566896 0 0.0021982574010077191 0.0048927322001463989 0 0.0023765618433570874 0.0048559815336560166 0 0.0023030325292470286 0.0049425429809989386 0 0.0022911551528363447 0.0048517595643566896 0 0.0022911551528363447 0.0048517595643566896 0 0.0021982574010077191 0.0048927322001463989 0 0.0022298727775392846 0.0047951357952556702 0 0.0021982574010077191 0.0048927322001463989 0 0.0022143853459222779 0.0049885853593064598 0 0.0021061168631621948 0.0049870684141118211 0 0.0023030325292470286 0.0049425429809989386 0 0.0021982574010077191 0.0048927322001463989 0 0.0022143853459222779 0.0049885853593064598 0 0.0022143853459222779 0.0049885853593064598 0 0.002142732969866053 0.005073442601890482 0 0.0022529778511874124 0.0050559488829513876 0 0.0022143853459222779 0.0049885853593064598 0 0.0021061168631621948 0.0049870684141118211 0 0.002142732969866053 0.005073442601890482 0 0.0020491184865193504 0.0050678444718373818 0 0.0021061168631621948 0.0049870684141118211 0 0.0020202981963779541 0.0048679323297592583 0 0.0020491184865193504 0.0050678444718373818 0 0.0021061168631621948 0.0049870684141118211 0 0.002142732969866053 0.005073442601890482 0 0.0021982574010077191 0.0048927322001463989 0 0.0021061168631621948 0.0049870684141118211 0 0.0020202981963779541 0.0048679323297592583 0 0.0021982574010077191 0.0048927322001463989 0 0.0020202981963779541 0.0048679323297592583 0 0.0021325762509391975 0.004771707645391479 0 0.0020202981963779541 0.0048679323297592583 0 0.0021325762509391975 0.004771707645391479 0 0.002028025051110128 0.0046103323141857971 0 0.0022874298408044266 0.0040487766820716939 0 0.0023359371410643149 0.0041484600127478675 0 0.0023735600836204732 0.0039711472898799728 0 0.0021830593143515892 0.0045069665403203903 0 0.0022013996833428005 0.004288679778066188 0 0.0021325762509391975 0.004771707645391479 0 0.0022033101571059879 0.0046397248781239846 0 0.002028025051110128 0.0046103323141857971 0 0.0023282084184163294 0.0047587242533475311 0 0.0022298727775392846 0.0047951357952556702 0 0.0022033101571059879 0.0046397248781239846 0 0.0021982574010077191 0.0048927322001463989 0 0.0021325762509391975 0.004771707645391479 0 0.0022298727775392846 0.0047951357952556702 0 0.0021325762509391975 0.004771707645391479 0 0.0022298727775392846 0.0047951357952556702 0 0.0022033101571059879 0.0046397248781239846 0 0.0023690617412996636 0.0045850717542605477 0 0.0022033101571059879 0.0046397248781239846 0 0.0022463389615551355 0.0045069694392168127 0 0.0022944507470406376 0.0043495885398616803 0 0.0023690617412996636 0.0045850717542605477 0 0.0022463389615551355 0.0045069694392168127 0 0.0021663497954447814 0.004449020126993811 0 0.0022033101571059879 0.0046397248781239846 0 0.0022463389615551355 0.0045069694392168127 0 0.0021663497954447814 0.004449020126993811 0 0.0022033101571059879 0.0046397248781239846 0 0.002028025051110128 0.0046103323141857971 0 0.002279267853763364 0.0039369376015721408 0 0.0023540727492341847 0.0039049701027294961 0 0.0023735600836204732 0.0039711472898799728 0 0.0021630925937269809 0.0052043664743003119 0 0.0021067459138505423 0.005207896331621594 0 0.0021453130520382238 0.0052298718862753227 0 0.0021630925937269809 0.0052043664743003119 0 0.0021067459138505423 0.005207896331621594 0 0.0021815088376568557 0.0051788286375826628 0 0.0021067459138505423 0.005207896331621594 0 0.0021453130520382238 0.0052298718862753227 0 0.002065560668080679 0.0052764959881153829 0 0.0021453130520382238 0.0052298718862753227 0 0.0021506622919153758 0.0052519466577654345 0 0.002065560668080679 0.0052764959881153829 0 0.0021515417718102354 0.0052210407373236558 0 0.0021453130520382238 0.0052298718862753227 0 0.0021415185304973126 0.0051904643983699235 0 0.0021610590527220814 0.0052130328259554753 0 0.0021630925937269809 0.0052043664743003119 0 0.0021453130520382238 0.0052298718862753227 0 0.0021515417718102354 0.0052210407373236558 0 0.0021610590527220814 0.0052130328259554753 0 0.0021453130520382238 0.0052298718862753227 0 0.0021415185304973126 0.0051904643983699235 0 0.0021135353627882753 0.0051402179091374215 0 0.0021506622919153758 0.0052519466577654345 0 0.0021453130520382238 0.0052298718862753227 0 0.0021415185304973126 0.0051904643983699235 0 0.0021506622919153758 0.0052519466577654345 0 0.0021347328291777806 0.0051033481305481597 0 0.0021415185304973126 0.0051904643983699235 0 0.0021135353627882753 0.0051402179091374215 0 0.0020491184865193504 0.0050678444718373818 0 0.0021135353627882753 0.0051402179091374215 0 0.002142732969866053 0.005073442601890482 0 0.0021135353627882753 0.0051402179091374215 0 0.002142732969866053 0.005073442601890482 0 0.0021506622919153758 0.0052519466577654345 0 0.002142732969866053 0.005073442601890482 0 0.0021506622919153758 0.0052519466577654345 0 0.0022529778511874124 0.0050559488829513876 0 0.0021506622919153758 0.0052519466577654345 0 0.0019658709823109546 0.0054791067419999286 0 0.002065560668080679 0.0052764959881153829 0 0.0021366103039346029 0.0052665671341828426 0 0.0021300115340045834 0.0053007994669567512 0 0.0023387761706103729 0.0050063100631496252 0 0.0022529778511874124 0.0050559488829513876 0 0.0023172706498172544 0.0051286030132053012 0 0.0021506622919153758 0.0052519466577654345 0 0.0022529778511874124 0.0050559488829513876 0 0.0023172706498172544 0.0051286030132053012 0 0.0023387761706103729 0.0050063100631496252 0 0.0023172706498172544 0.0051286030132053012 0 0.002362187017554859 0.0050585830343039253 0 0.0021300115340045834 0.0053007994669567512 0 0.002021227297311605 0.005342979338468749 0 0.0019658709823109546 0.0054791067419999286 0 0.0018742684328209235 0.0053702600217103913 0 0.002065560668080679 0.0052764959881153829 0 0.0019658709823109546 0.0054791067419999286 0 0.0018742684328209235 0.0053702600217103913 0 0.0017149803338616537 0.0056137229482797167 0 0.0018742684328209235 0.0053702600217103913 0 0.0019662078131237894 0.0052251823092401336 0 0.0017321049021578809 0.0052797129675916706 0 0.0018742684328209235 0.0053702600217103913 0 0.002065560668080679 0.0052764959881153829 0 0.0019662078131237894 0.0052251823092401336 0 0.0021067459138505423 0.005207896331621594 0 0.0019662078131237894 0.0052251823092401336 0 0.0020191933478726147 0.0051630452948466903 0 0.0021067459138505423 0.005207896331621594 0 0.002065560668080679 0.0052764959881153829 0 0.0019662078131237894 0.0052251823092401336 0 0.0019662078131237894 0.0052251823092401336 0 0.0017321049021578809 0.0052797129675916706 0 0.001889411847565112 0.0051422131886663738 0 0.0017321049021578809 0.0052797129675916706 0 0.0015570763397402382 0.0052106491514341971 0 0.0016855124198574796 0.0051855317176646813 0 0.0017375347830684517 0.0052838959052330181 0 0.0017867472840307499 0.0051722523888742579 0 0.0017321049021578809 0.0052797129675916706 0 0.0014546363202471351 0.0053427788060347575 0 0.0015570763397402382 0.0052106491514341971 0 0.0014546363202471351 0.0053427788060347575 0 0.0016734080495351504 0.0054194460505612146 0 0.0014808520842706902 0.0054954958841287489 0 0.0017321049021578809 0.0052797129675916706 0 0.0014546363202471351 0.0053427788060347575 0 0.0016734080495351504 0.0054194460505612146 0 0.0018742684328209235 0.0053702600217103913 0 0.0017321049021578809 0.0052797129675916706 0 0.0016734080495351504 0.0054194460505612146 0 0.0018742684328209235 0.0053702600217103913 0 0.0016734080495351504 0.0054194460505612146 0 0.0017149803338616537 0.0056137229482797167 0 0.0023785361503180255 0.0049145942127579558 0 0.002362187017554859 0.0050585830343039253 0 0.0025308146379563789 0.0050904577235243676 0 0.0017149803338616537 0.0056137229482797167 0 0.0014808520842706902 0.0054954958841287489 0 0.001437656060026151 0.005698005054340728 0 0.002021227297311605 0.005342979338468749 0 0.002075789872537316 0.0053884468186893167 0 0.0016734080495351504 0.0054194460505612146 0 0.0017149803338616537 0.0056137229482797167 0 0.0014808520842706902 0.0054954958841287489 0 0.0014808520842706902 0.0054954958841287489 0 0.0013605959587650518 0.0055636348253559152 0 0.001437656060026151 0.005698005054340728 0 0.0014808520842706902 0.0054954958841287489 0 0.0013424040709484231 0.005476467999049525 0 0.0013490081880985949 0.0054036783171060405 0 0.0012563023224077014 0.0054299834533875707 0 0.0013424040709484231 0.005476467999049525 0 0.0013490081880985949 0.0054036783171060405 0 0.0012563023224077014 0.0054299834533875707 0 0.0013424040709484231 0.005476467999049525 0 0.0012442573537928682 0.0054907113619022544 0 0.0012442573537928682 0.0054907113619022544 0 0.0013605959587650518 0.0055636348253559152 0 0.001279884649892389 0.0056532383611514617 0 0.0013424040709484231 0.005476467999049525 0 0.0012442573537928682 0.0054907113619022544 0 0.0013605959587650518 0.0055636348253559152 0 0.0014808520842706902 0.0054954958841287489 0 0.0013424040709484231 0.005476467999049525 0 0.0013605959587650518 0.0055636348253559152 0 0.002075789872537316 0.0053884468186893167 0 0.0016818696419664634 0.0053116327184897054 0 0.001279884649892389 0.0056532383611514617 0 0.001437656060026151 0.005698005054340728 0 0.0011643073953341533 0.0057595118396052214 0 0.0013605959587650518 0.0055636348253559152 0 0.001279884649892389 0.0056532383611514617 0 0.001437656060026151 0.005698005054340728 0 0.0012442573537928682 0.0054907113619022544 0 0.001119910943160332 0.0057393733808182613 0 0.0011525624077431535 0.0054970280873286263 0 0.0012442573537928682 0.0054907113619022544 0 0.001279884649892389 0.0056532383611514617 0 0.0011643073953341533 0.0057595118396052214 0 0.0010895954123368256 0.0057086558951592323 0 0.0016818696419664634 0.0053116327184897054 0 0.0010235208334433094 0.0057587089784500141 0 0.001119910943160332 0.0057393733808182613 0 0.0011525624077431535 0.0054970280873286263 0 0.0009712182971701041 0.0056061869259367526 0 0.0011525624077431535 0.0054970280873286263 0 0.00097452236373981444 0.0055185012311507178 0 0.00061577879565069473 0.0054461786962276982 0 0.0012143633314538815 0.0055562089087104697 0 0.0011525624077431535 0.0054970280873286263 0 0.00097452236373981444 0.0055185012311507178 0 0.0010040184488106852 0.0054659758011947127 0 0.0012563023224077014 0.0054299834533875707 0 0.0012442573537928682 0.0054907113619022544 0 0.0011889135211938086 0.0054517205397981499 0 0.0012442573537928682 0.0054907113619022544 0 0.0011525624077431535 0.0054970280873286263 0 0.0011889135211938086 0.0054517205397981499 0 0.0011525624077431535 0.0054970280873286263 0 0.0011889135211938086 0.0054517205397981499 0 0.0011050075527669664 0.0054336591816240712 0 0.0011889135211938086 0.0054517205397981499 0 0.0011050075527669664 0.0054336591816240712 0 0.0011775601240241935 0.0054063880891495322 0 0.0012563023224077014 0.0054299834533875707 0 0.0011889135211938086 0.0054517205397981499 0 0.0011775601240241935 0.0054063880891495322 0 0.0011525624077431535 0.0054970280873286263 0 0.0011050075527669664 0.0054336591816240712 0 0.0010040184488106852 0.0054659758011947127 0 0.0011006338317178187 0.0053793106291939235 0 0.001162414058759519 0.0053395618309694613 0 0.0011775601240241935 0.0054063880891495322 0 0.0011050075527669664 0.0054336591816240712 0 0.0011006338317178187 0.0053793106291939235 0 0.0010209646781817335 0.005405248628184583 0 0.0011050075527669664 0.0054336591816240712 0 0.0011006338317178187 0.0053793106291939235 0 0.0011775601240241935 0.0054063880891495322 0 0.001162414058759519 0.0053395618309694613 0 0.0010397069526445328 0.0053440118855763987 0 0.0010924101401730043 0.0052879194103505923 0 0.0011006338317178187 0.0053793106291939235 0 0.001162414058759519 0.0053395618309694613 0 0.0010397069526445328 0.0053440118855763987 0 0.001162414058759519 0.0053395618309694613 0 0.0013068382942096044 0.0053257375363398307 0 0.001212587694998923 0.0052869671078876442 0 0.001162414058759519 0.0053395618309694613 0 0.0012437389972027705 0.0053710748619134989 0 0.0013068382942096044 0.0053257375363398307 0 0.001162414058759519 0.0053395618309694613 0 0.0012437389972027705 0.0053710748619134989 0 0.0011775601240241935 0.0054063880891495322 0 0.0012563023224077014 0.0054299834533875707 0 0.0012437389972027705 0.0053710748619134989 0 0.0011775601240241935 0.0054063880891495322 0 0.0012563023224077014 0.0054299834533875707 0 0.0012437389972027705 0.0053710748619134989 0 0.0013490081880985949 0.0054036783171060405 0 0.0014546363202471351 0.0053427788060347575 0 0.0014808520842706902 0.0054954958841287489 0 0.0013490081880985949 0.0054036783171060405 0 0.0014546363202471351 0.0053427788060347575 0 0.0013490081880985949 0.0054036783171060405 0 0.0013068382942096044 0.0053257375363398307 0 0.0012437389972027705 0.0053710748619134989 0 0.0013490081880985949 0.0054036783171060405 0 0.0013068382942096044 0.0053257375363398307 0 0.0014546363202471351 0.0053427788060347575 0 0.0013381572239117207 0.0052510486701830301 0 0.0015570763397402382 0.0052106491514341971 0 0.0014546363202471351 0.0053427788060347575 0 0.0013068382942096044 0.0053257375363398307 0 0.0013381572239117207 0.0052510486701830301 0 0.0013068382942096044 0.0053257375363398307 0 0.0013381572239117207 0.0052510486701830301 0 0.001212587694998923 0.0052869671078876442 0 0.0013381572239117207 0.0052510486701830301 0 0.0011668557816694228 0.0052377063768103988 0 0.001212587694998923 0.0052869671078876442 0 0.0011668557816694228 0.0052377063768103988 0 0.001212587694998923 0.0052869671078876442 0 0.0010924101401730043 0.0052879194103505923 0 0.001162414058759519 0.0053395618309694613 0 0.001212587694998923 0.0052869671078876442 0 0.0010924101401730043 0.0052879194103505923 0 0.0013381572239117207 0.0052510486701830301 0 0.0011668557816694228 0.0052377063768103988 0 0.0012673213996663116 0.005173254281571422 0 0.0011668557816694228 0.0052377063768103988 0 0.0012673213996663116 0.005173254281571422 0 0.0010820991106834583 0.0051888146779356303 0 0.0013381572239117207 0.0052510486701830301 0 0.0012673213996663116 0.005173254281571422 0 0.0014565598973096826 0.0051541130321798656 0 0.0013381572239117207 0.0052510486701830301 0 0.0014565598973096826 0.0051541130321798656 0 0.0015570763397402382 0.0052106491514341971 0 0.0014565598973096826 0.0051541130321798656 0 0.0013356448031246733 0.0051084013296440554 0 0.0015081310442637747 0.0050759817060450768 0 0.0012673213996663116 0.005173254281571422 0 0.0014565598973096826 0.0051541130321798656 0 0.0013356448031246733 0.0051084013296440554 0 0.0011655935986658655 0.0051328356003203747 0 0.0013356448031246733 0.0051084013296440554 0 0.0011174775161564654 0.0050786480378861906 0 0.0012673213996663116 0.005173254281571422 0 0.0011655935986658655 0.0051328356003203747 0 0.0010820991106834583 0.0051888146779356303 0 0.0012673213996663116 0.005173254281571422 0 0.0011655935986658655 0.0051328356003203747 0 0.0013356448031246733 0.0051084013296440554 0 0.0013356448031246733 0.0051084013296440554 0 0.001286324827388043 0.0050504729790611241 0 0.0011174775161564654 0.0050786480378861906 0 0.001286324827388043 0.0050504729790611241 0 0.0013646965856858604 0.0049999002571819336 0 0.0012098792320777462 0.0050406659453784766 0 0.0013646965856858604 0.0049999002571819336 0 0.0015081310442637747 0.0050759817060450768 0 0.0016533042581817331 0.0049999186238558419 0 0.001286324827388043 0.0050504729790611241 0 0.0013646965856858604 0.0049999002571819336 0 0.0015081310442637747 0.0050759817060450768 0 0.0013356448031246733 0.0051084013296440554 0 0.001286324827388043 0.0050504729790611241 0 0.0015081310442637747 0.0050759817060450768 0 0.0015081310442637747 0.0050759817060450768 0 0.0016947247663003193 0.0050721576521047329 0 0.0016222099167770925 0.0051292850663334447 0 0.0015081310442637747 0.0050759817060450768 0 0.0016533042581817331 0.0049999186238558419 0 0.0016947247663003193 0.0050721576521047329 0 0.0016947247663003193 0.0050721576521047329 0 0.0017620527877255736 0.0051131514641532634 0 0.0019417006885876422 0.0049999588542592732 0 0.0016533042581817331 0.0049999186238558419 0 0.0016947247663003193 0.0050721576521047329 0 0.0019417006885876422 0.0049999588542592732 0 0.0016947247663003193 0.0050721576521047329 0 0.0016222099167770925 0.0051292850663334447 0 0.0017620527877255736 0.0051131514641532634 0 0.0016222099167770925 0.0051292850663334447 0 0.0016855124198574796 0.0051855317176646813 0 0.0017620527877255736 0.0051131514641532634 0 0.0017867472840307499 0.0051722523888742579 0 0.0018556839344252031 0.0050879936309691683 0 0.0014565598973096826 0.0051541130321798656 0 0.0015081310442637747 0.0050759817060450768 0 0.0016222099167770925 0.0051292850663334447 0 0.0014565598973096826 0.0051541130321798656 0 0.0016222099167770925 0.0051292850663334447 0 0.0015570763397402382 0.0052106491514341971 0 0.0016222099167770925 0.0051292850663334447 0 0.0015570763397402382 0.0052106491514341971 0 0.0016855124198574796 0.0051855317176646813 0 0.0019662078131237894 0.0052251823092401336 0 0.001889411847565112 0.0051422131886663738 0 0.0020191933478726147 0.0051630452948466903 0 0.0020191933478726147 0.0051630452948466903 0 0.0019428766985891562 0.0050804315109502004 0 0.0020650423730236159 0.0051102340006726711 0 0.0020191933478726147 0.0051630452948466903 0 0.0020650423730236159 0.0051102340006726711 0 0.0021292033447863857 0.0051739575243699805 0 0.001889411847565112 0.0051422131886663738 0 0.0020191933478726147 0.0051630452948466903 0 0.0019428766985891562 0.0050804315109502004 0 0.0019428766985891562 0.0050804315109502004 0 0.0019422501490109758 0.0050000556580261507 0 0.002029562446603345 0.0050400040981474232 0 0.0018556839344252031 0.0050879936309691683 0 0.0019419150155932548 0.0049999875624030651 0 0.002018080794599432 0.0049998881591889538 0 0.0019422501490109758 0.0050000556580261507 0 0.002029562446603345 0.0050400040981474232 0 0.002029562446603345 0.0050400040981474232 0 0.0020854495967274956 0.0050534660798078187 0 0.0020947172442576096 0.0049844689123261302 0 0.0020184371077196003 0.0050000007570997242 0 0.0021692328614375503 0.0050126261619191049 0 0.0020183876820261014 0.0050000003872971077 0 0.0023024794058281351 0.0049999996597808417 0 0.002235530568785333 0.0050429077987915599 0 0.002018080794599432 0.0049998881591889538 0 0.002029562446603345 0.0050400040981474232 0 0.0020947172442576096 0.0049844689123261302 0 0.0019428766985891562 0.0050804315109502004 0 0.002029562446603345 0.0050400040981474232 0 0.0020650423730236159 0.0051102340006726711 0 0.002029562446603345 0.0050400040981474232 0 0.0020650423730236159 0.0051102340006726711 0 0.0020854495967274956 0.0050534660798078187 0 0.0020650423730236159 0.0051102340006726711 0 0.0021666283847211706 0.0050740125720719828 0 0.002218418045505629 0.0051883987621917102 0 0.0020650423730236159 0.0051102340006726711 0 0.0021666283847211706 0.0050740125720719828 0 0.0020854495967274956 0.0050534660798078187 0 0.0021666283847211706 0.0050740125720719828 0 0.0020854495967274956 0.0050534660798078187 0 0.0020947172442576096 0.0049844689123261302 0 0.0021666283847211706 0.0050740125720719828 0 0.0020947172442576096 0.0049844689123261302 0 0.0022867306161869811 0.004972689202971366 0 0.0023024794058281351 0.0049999996597808417 0 0.002235530568785333 0.0050429077987915599 0 0.0024605233291173094 0.0050776513392900985 0 0.002586481697085489 0.0049999709864779439 0 0.0023024794058281351 0.0049999996597808417 0 0.0024605233291173094 0.0050776513392900985 0 0.0021692328614375503 0.0050126261619191049 0 0.0023781060312326042 0.0050286270371526142 0 0.002409133235823719 0.0051313876900433803 0 0.0021666283847211706 0.0050740125720719828 0 0.002218418045505629 0.0051883987621917102 0 0.002409133235823719 0.0051313876900433803 0 0.0021666283847211706 0.0050740125720719828 0 0.0022867306161869811 0.004972689202971366 0 0.002218418045505629 0.0051883987621917102 0 0.0021292033447863857 0.0051739575243699805 0 0.0021815088376568557 0.0051788286375826628 0 0.0020650423730236159 0.0051102340006726711 0 0.002218418045505629 0.0051883987621917102 0 0.0021292033447863857 0.0051739575243699805 0 0.0021067459138505423 0.005207896331621594 0 0.0021292033447863857 0.0051739575243699805 0 0.0021815088376568557 0.0051788286375826628 0 0.0021067459138505423 0.005207896331621594 0 0.0020191933478726147 0.0051630452948466903 0 0.0021292033447863857 0.0051739575243699805 0 0.00038660671279348879 0.0052254555902522494 0 0.00022609471348341209 0.0052232545135585404 0 0.00040350544232411973 0.0053189320340568443 0 0.00038660671279348879 0.0052254555902522494 0 0.00040350544232411973 0.0053189320340568443 0 0.00051186488807132514 0.0053005773069221751 0 0.00038660671279348879 0.0052254555902522494 0 0.00051186488807132514 0.0053005773069221751 0 0.00052546547002043015 0.0051986721199816857 0 0.00038660671279348879 0.0052254555902522494 0 0.00022609471348341209 0.0052232545135585404 0 0.00027093753543717134 0.0051768316064050553 0 0.00022609471348341209 0.0052232545135585404 0 0.00027093753543717134 0.0051768316064050553 0 0.00011164349262624577 0.005162303914408293 0 4.0986555837441292e-06 0.0051795149550331859 0 0.00022609471348341209 0.0052232545135585404 0 0.00011164349262624577 0.005162303914408293 0 4.0986555837441292e-06 0.0051795149550331859 0 0.00011164349262624577 0.005162303914408293 0 -9.0700854078913599e-05 0.005146143170385923 0 4.0986555837441292e-06 0.0051795149550331859 0 0.00022609471348341209 0.0052232545135585404 0 9.5177544834280746e-05 0.0052280853466528361 0 0.00025225630948354889 0.0052730139269692045 0 9.5177544834280746e-05 0.0052280853466528361 0 0.00026017927086429896 0.0053275573236708359 0 0.00022609471348341209 0.0052232545135585404 0 0.00025225630948354889 0.0052730139269692045 0 9.5177544834280746e-05 0.0052280853466528361 0 9.5177544834280746e-05 0.0052280853466528361 0 6.2502546545383065e-06 0.0052750811622392377 0 0.00026017927086429896 0.0053275573236708359 0 0.00042792207637767774 0.0053718759504843023 0 0.00026017927086429896 0.0053275573236708359 0 0.00040350544232411973 0.0053189320340568443 0 0.00025225630948354889 0.0052730139269692045 0 0.00026017927086429896 0.0053275573236708359 0 0.00040350544232411973 0.0053189320340568443 0 0.00022609471348341209 0.0052232545135585404 0 0.00025225630948354889 0.0052730139269692045 0 0.00040350544232411973 0.0053189320340568443 0 0.00040350544232411973 0.0053189320340568443 0 0.00052567669499638497 0.0053657530140082165 0 0.00051186488807132514 0.0053005773069221751 0 0.0005159766181874071 0.0053733370419733221 0 0.00042792207637767774 0.0053718759504843023 0 0.00040350544232411973 0.0053189320340568443 0 0.0005159766181874071 0.0053733370419733221 0 0.00040350544232411973 0.0053189320340568443 0 0.00052567669499638497 0.0053657530140082165 0 0.0005159766181874071 0.0053733370419733221 0 0.00056036811412929499 0.0054231753579353902 0 0.00052567669499638497 0.0053657530140082165 0 0.00056036811412929499 0.0054231753579353902 0 0.00064882567623378588 0.0053598856071096906 0 0.00052567669499638497 0.0053657530140082165 0 0.00056036811412929499 0.0054231753579353902 0 0.00064882567623378588 0.0053598856071096906 0 0.00074869815207328268 0.0054549162070818271 0 0.00064882567623378588 0.0053598856071096906 0 0.00052567669499638497 0.0053657530140082165 0 0.00051186488807132514 0.0053005773069221751 0 0.0009712182971701041 0.0056061869259367526 0 0.00097452236373981444 0.0055185012311507178 0 0.0008584199275032461 0.0055332665489914203 0 0.00097452236373981444 0.0055185012311507178 0 0.0008584199275032461 0.0055332665489914203 0 0.00089697717122098734 0.0054863058168132667 0 0.00073530352939335433 0.0055653846652905913 0 0.00056036811412929499 0.0054231753579353902 0 0.00074869815207328268 0.0054549162070818271 0 0.00073530352939335433 0.0055653846652905913 0 0.0008584199275032461 0.0055332665489914203 0 0.00074869815207328268 0.0054549162070818271 0 0.0008584199275032461 0.0055332665489914203 0 0.00089697717122098734 0.0054863058168132667 0 0.00074869815207328268 0.0054549162070818271 0 0.00064882567623378588 0.0053598856071096906 0 0.00074869815207328268 0.0054549162070818271 0 0.00079697993956143426 0.0053874527913138062 0 0.00074869815207328268 0.0054549162070818271 0 0.00079697993956143426 0.0053874527913138062 0 0.00091409713647612749 0.0054202014895930271 0 0.00079697993956143426 0.0053874527913138062 0 0.00091409713647612749 0.0054202014895930271 0 0.00091849737785781285 0.0053565006493160507 0 0.00089697717122098734 0.0054863058168132667 0 0.00091409713647612749 0.0054202014895930271 0 0.0010040184488106852 0.0054659758011947127 0 0.00089697717122098734 0.0054863058168132667 0 0.00074869815207328268 0.0054549162070818271 0 0.00091409713647612749 0.0054202014895930271 0 0.0011050075527669664 0.0054336591816240712 0 0.0010209646781817335 0.005405248628184583 0 0.0010040184488106852 0.0054659758011947127 0 0.00091409713647612749 0.0054202014895930271 0 0.0010209646781817335 0.005405248628184583 0 0.0010040184488106852 0.0054659758011947127 0 0.00097452236373981444 0.0055185012311507178 0 0.00089697717122098734 0.0054863058168132667 0 0.0010040184488106852 0.0054659758011947127 0 0.0011006338317178187 0.0053793106291939235 0 0.0010209646781817335 0.005405248628184583 0 0.0010397069526445328 0.0053440118855763987 0 0.0010209646781817335 0.005405248628184583 0 0.0010397069526445328 0.0053440118855763987 0 0.00091849737785781285 0.0053565006493160507 0 0.00091409713647612749 0.0054202014895930271 0 0.0010209646781817335 0.005405248628184583 0 0.00091849737785781285 0.0053565006493160507 0 0.0010397069526445328 0.0053440118855763987 0 0.00091849737785781285 0.0053565006493160507 0 0.000960757452181699 0.0052924481838766274 0 0.00064882567623378588 0.0053598856071096906 0 0.00079697993956143426 0.0053874527913138062 0 0.00079715741640549738 0.0052968707824116367 0 0.00079697993956143426 0.0053874527913138062 0 0.00091849737785781285 0.0053565006493160507 0 0.00079715741640549738 0.0052968707824116367 0 0.00091849737785781285 0.0053565006493160507 0 0.00079715741640549738 0.0052968707824116367 0 0.000960757452181699 0.0052924481838766274 0 0.00079715741640549738 0.0052968707824116367 0 0.00078206383668774193 0.005216514906513192 0 0.00092010898303517626 0.0052167985825344147 0 0.00079715741640549738 0.0052968707824116367 0 0.000960757452181699 0.0052924481838766274 0 0.00092010898303517626 0.0052167985825344147 0 0.000960757452181699 0.0052924481838766274 0 0.0010437088545483797 0.0052440848001927051 0 0.00092010898303517626 0.0052167985825344147 0 0.0011668557816694228 0.0052377063768103988 0 0.0010437088545483797 0.0052440848001927051 0 0.0010924101401730043 0.0052879194103505923 0 0.000960757452181699 0.0052924481838766274 0 0.0010437088545483797 0.0052440848001927051 0 0.0010924101401730043 0.0052879194103505923 0 0.0010397069526445328 0.0053440118855763987 0 0.000960757452181699 0.0052924481838766274 0 0.0010924101401730043 0.0052879194103505923 0 0.00064882567623378588 0.0053598856071096906 0 0.00051186488807132514 0.0053005773069221751 0 0.00065096678091097445 0.0052534565421686712 0 0.00064882567623378588 0.0053598856071096906 0 0.00079715741640549738 0.0052968707824116367 0 0.00065096678091097445 0.0052534565421686712 0 0.00079715741640549738 0.0052968707824116367 0 0.00065096678091097445 0.0052534565421686712 0 0.00078206383668774193 0.005216514906513192 0 0.00051186488807132514 0.0053005773069221751 0 0.00065096678091097445 0.0052534565421686712 0 0.00052546547002043015 0.0051986721199816857 0 0.00065096678091097445 0.0052534565421686712 0 0.00069901456117503252 0.0051555466626607895 0 0.00052546547002043015 0.0051986721199816857 0 0.00069901456117503252 0.0051555466626607895 0 0.00055500765727129061 0.0051130343183800669 0 0.00052546547002043015 0.0051986721199816857 0 0.00069901456117503252 0.0051555466626607895 0 0.00078206383668774193 0.005216514906513192 0 0.00085038259442962922 0.0051583994439859289 0 0.00065096678091097445 0.0052534565421686712 0 0.00069901456117503252 0.0051555466626607895 0 0.00078206383668774193 0.005216514906513192 0 0.00069901456117503252 0.0051555466626607895 0 0.00085038259442962922 0.0051583994439859289 0 0.00084026684269641926 0.0050912588919415384 0 0.00069901456117503252 0.0051555466626607895 0 0.00084026684269641926 0.0050912588919415384 0 0.00074001902894925702 0.0050541041522690761 0 0.00069901456117503252 0.0051555466626607895 0 0.00074001902894925702 0.0050541041522690761 0 0.00055500765727129061 0.0051130343183800669 0 0.0010820991106834583 0.0051888146779356303 0 0.00092010898303517626 0.0052167985825344147 0 0.00098801529131273031 0.0051334054074032801 0 0.0011668557816694228 0.0052377063768103988 0 0.0010437088545483797 0.0052440848001927051 0 0.0010820991106834583 0.0051888146779356303 0 0.0010437088545483797 0.0052440848001927051 0 0.0010820991106834583 0.0051888146779356303 0 0.00092010898303517626 0.0052167985825344147 0 0.00092010898303517626 0.0052167985825344147 0 0.00085038259442962922 0.0051583994439859289 0 0.00098801529131273031 0.0051334054074032801 0 0.00078206383668774193 0.005216514906513192 0 0.00092010898303517626 0.0052167985825344147 0 0.00085038259442962922 0.0051583994439859289 0 0.00085038259442962922 0.0051583994439859289 0 0.00084026684269641926 0.0050912588919415384 0 0.00098801529131273031 0.0051334054074032801 0 0.00084026684269641926 0.0050912588919415384 0 0.00098801529131273031 0.0051334054074032801 0 0.00095177842613597733 0.0050496806048618758 0 0.0011655935986658655 0.0051328356003203747 0 0.00098801529131273031 0.0051334054074032801 0 0.0011174775161564654 0.0050786480378861906 0 0.0011655935986658655 0.0051328356003203747 0 0.0010820991106834583 0.0051888146779356303 0 0.00098801529131273031 0.0051334054074032801 0 0.0011174775161564654 0.0050786480378861906 0 0.00095177842613597733 0.0050496806048618758 0 0.0009248514863241194 0.0049319003951573057 0 0.001286324827388043 0.0050504729790611241 0 0.0011174775161564654 0.0050786480378861906 0 0.0009248514863241194 0.0049319003951573057 0 0.00098801529131273031 0.0051334054074032801 0 0.0011174775161564654 0.0050786480378861906 0 0.00095177842613597733 0.0050496806048618758 0 0.00095177842613597733 0.0050496806048618758 0 0.0008398429466301917 0.0050082988640977044 0 0.0009248514863241194 0.0049319003951573057 0 0.00084026684269641926 0.0050912588919415384 0 0.00095177842613597733 0.0050496806048618758 0 0.0008398429466301917 0.0050082988640977044 0 0.0010762547155216868 0.0049999794351001485 0 0.0010681042200006679 0.0050881593055608389 0 0.00078758033038571192 0.0050000081188965508 0 0.0010762547155216868 0.0049999794351001485 0 0.0010681042200006679 0.0050881593055608389 0 0.0012098792320777462 0.0050406659453784766 0 0.0013646965856858604 0.0049999002571819336 0 0.0010762547155216868 0.0049999794351001485 0 0.0012098792320777462 0.0050406659453784766 0 0.001286324827388043 0.0050504729790611241 0 0.0010681042200006679 0.0050881593055608389 0 0.0012098792320777462 0.0050406659453784766 0 0.0012626999808035728 0.0050523836080877942 0 0.0010030321480809336 0.0050110713009897511 0 0.00060942600229676894 0.005049207141420051 0 0.00074001902894925702 0.0050541041522690761 0 0.00055500765727129061 0.0051130343183800669 0 0.00084026684269641926 0.0050912588919415384 0 0.0008398429466301917 0.0050082988640977044 0 0.00074001902894925702 0.0050541041522690761 0 0.0008398429466301917 0.0050082988640977044 0 0.0009248514863241194 0.0049319003951573057 0 0.00078729935957159633 0.0049997542441047628 0 0.0008398429466301917 0.0050082988640977044 0 0.00074001902894925702 0.0050541041522690761 0 0.00078729935957159633 0.0049997542441047628 0 0.0010030321480809336 0.0050110713009897511 0 0.00078765451248427674 0.004999996373424213 0 0.00060942600229676894 0.005049207141420051 0 0.00078729935957159633 0.0049997542441047628 0 0.00051314139492570905 0.0049999479786611758 0 0.00060942600229676894 0.005049207141420051 0 0.00074001902894925702 0.0050541041522690761 0 0.00078729935957159633 0.0049997542441047628 0 0.00043637560168334428 0.0050699251059696708 0 0.00024032971404973583 0.0051126547641648463 0 0.00023860218362470103 0.0049999072785640638 0 0.00060942600229676894 0.005049207141420051 0 0.00051314139492570905 0.0049999479786611758 0 0.00043637560168334428 0.0050699251059696708 0 0.00051314139492570905 0.0049999479786611758 0 0.00043637560168334428 0.0050699251059696708 0 0.00023860218362470103 0.0049999072785640638 0 0.00060942600229676894 0.005049207141420051 0 0.00043637560168334428 0.0050699251059696708 0 0.00055500765727129061 0.0051130343183800669 0 0.00043637560168334428 0.0050699251059696708 0 0.00055500765727129061 0.0051130343183800669 0 0.00039963936463955523 0.0051515730774220874 0 0.00039963936463955523 0.0051515730774220874 0 0.00027093753543717134 0.0051768316064050553 0 0.00024032971404973583 0.0051126547641648463 0 0.00043637560168334428 0.0050699251059696708 0 0.00039963936463955523 0.0051515730774220874 0 0.00024032971404973583 0.0051126547641648463 0 0.00038660671279348879 0.0052254555902522494 0 0.00039963936463955523 0.0051515730774220874 0 0.00027093753543717134 0.0051768316064050553 0 0.00038660671279348879 0.0052254555902522494 0 0.00039963936463955523 0.0051515730774220874 0 0.00052546547002043015 0.0051986721199816857 0 0.00055500765727129061 0.0051130343183800669 0 0.00039963936463955523 0.0051515730774220874 0 0.00052546547002043015 0.0051986721199816857 0 0.00011164349262624577 0.005162303914408293 0 4.8658008512554777e-05 0.0051220126145089043 0 -9.0700854078913599e-05 0.005146143170385923 0 0.00027093753543717134 0.0051768316064050553 0 0.00011164349262624577 0.005162303914408293 0 0.00024032971404973583 0.0051126547641648463 0 0.00011164349262624577 0.005162303914408293 0 0.00024032971404973583 0.0051126547641648463 0 4.8658008512554777e-05 0.0051220126145089043 0 0.00024032971404973583 0.0051126547641648463 0 8.7892091445381911e-05 0.0050665364474105825 0 0.00023860218362470103 0.0049999072785640638 0 0.00024032971404973583 0.0051126547641648463 0 4.8658008512554777e-05 0.0051220126145089043 0 8.7892091445381911e-05 0.0050665364474105825 0 4.8658008512554777e-05 0.0051220126145089043 0 8.7892091445381911e-05 0.0050665364474105825 0 -9.8478963500392468e-05 0.0051051496947954944 0 8.7892091445381911e-05 0.0050665364474105825 0 0.00023860218362470103 0.0049999072785640638 0 -3.5842018584379844e-05 0.0049999281825016005 0 -3.5842018584379844e-05 0.0049999281825016005 0 -0.00031025384841455532 0.0049999354606072776 0 -0.0002432749158439703 0.005086728812127266 0 -0.0002432749158439703 0.005086728812127266 0 -9.8478963500392468e-05 0.0051051496947954944 0 -0.00019801019630834128 0.005133729646269047 0 -3.5842018584379844e-05 0.0049999281825016005 0 -0.0002432749158439703 0.005086728812127266 0 -9.8478963500392468e-05 0.0051051496947954944 0 8.7892091445381911e-05 0.0050665364474105825 0 -3.5842018584379844e-05 0.0049999281825016005 0 -9.8478963500392468e-05 0.0051051496947954944 0 -0.0005849167872249469 0.0049999269069714337 0 -0.00041744258512528288 0.0050512879543311113 0 -0.00062396775914985811 0.0050876925595146156 0 -0.00031025384841455532 0.0049999354606072776 0 -0.0005849167872249469 0.0049999269069714337 0 -0.00041744258512528288 0.0050512879543311113 0 -0.00031025384841455532 0.0049999354606072776 0 -0.0002432749158439703 0.005086728812127266 0 -0.00041744258512528288 0.0050512879543311113 0 -0.00042220479090652471 0.0050352505276597872 0 -0.00048192418960933675 0.0051083119316131615 0 -0.0002432749158439703 0.005086728812127266 0 -0.00041744258512528288 0.0050512879543311113 0 -0.00027160625836608707 0.0051258060417498528 0 -0.00041744258512528288 0.0050512879543311113 0 -0.00062396775914985811 0.0050876925595146156 0 -0.00069809505307810303 0.0051255720229078693 0 -0.00062396775914985811 0.0050876925595146156 0 -0.00069809505307810303 0.0051255720229078693 0 -0.0007117090365945047 0.0051107725384327771 0 -0.00069809505307810303 0.0051255720229078693 0 -0.00073294301296262458 0.0050869448739672106 0 -0.0007117090365945047 0.0051107725384327771 0 -0.0002432749158439703 0.005086728812127266 0 -0.00027160625836608707 0.0051258060417498528 0 -0.00019801019630834128 0.005133729646269047 0 -0.00027160625836608707 0.0051258060417498528 0 -0.00019801019630834128 0.005133729646269047 0 -0.00025442495017448884 0.0051472127561833893 0 -0.00019801019630834128 0.005133729646269047 0 -0.00020308281533744875 0.0051471131493647246 0 -0.00025442495017448884 0.0051472127561833893 0 -0.00048192418960933675 0.0051083119316131615 0 -0.00053993406754260665 0.0050549029324598281 0 -0.00069809505307810303 0.0051255720229078693 0 -0.00083027163967515263 0.0049712646942096988 0 -0.00073294301296262458 0.0050869448739672106 0 4.8658008512554777e-05 0.0051220126145089043 0 -9.8478963500392468e-05 0.0051051496947954944 0 -9.0700854078913599e-05 0.005146143170385923 0 -9.8478963500392468e-05 0.0051051496947954944 0 -0.00019801019630834128 0.005133729646269047 0 -9.0700854078913599e-05 0.005146143170385923 0 -0.00019801019630834128 0.005133729646269047 0 -9.0700854078913599e-05 0.005146143170385923 0 -0.00020308281533744875 0.0051471131493647246 0 4.0986555837441292e-06 0.0051795149550331859 0 -9.0700854078913599e-05 0.005146143170385923 0 -0.00015533022261764303 0.0051595036290163271 0 4.0986555837441292e-06 0.0051795149550331859 0 9.5177544834280746e-05 0.0052280853466528361 0 -0.00016606033742692651 0.0051648241393737835 0 4.0986555837441292e-06 0.0051795149550331859 0 -0.00015533022261764303 0.0051595036290163271 0 -0.00016606033742692651 0.0051648241393737835 0 -0.00015533022261764303 0.0051595036290163271 0 -0.00020308281533744875 0.0051471131493647246 0 -0.00026117082952623218 0.0051427533713773576 0 -0.00015533022261764303 0.0051595036290163271 0 -0.00026117082952623218 0.0051427533713773576 0 -0.00016606033742692651 0.0051648241393737835 0 -9.0700854078913599e-05 0.005146143170385923 0 -0.00015533022261764303 0.0051595036290163271 0 -0.00020308281533744875 0.0051471131493647246 0 -0.00020308281533744875 0.0051471131493647246 0 -0.00025442495017448884 0.0051472127561833893 0 -0.00026117082952623218 0.0051427533713773576 0 -0.00083027163967515263 0.0049712646942096988 0 -0.00083698463780015279 0.0047088992314224159 0 -0.00076120703636961193 0.0048780245257874283 0 -0.00025442495017448884 0.0051472127561833893 0 -0.00028416841483743931 0.0051336692194373602 0 -0.00026117082952623218 0.0051427533713773576 0 -0.00053993406754260665 0.0050549029324598281 0 -0.00055757078948773546 0.0049235039021889599 0 -0.00028416841483743931 0.0051336692194373602 0 -0.00026117082952623218 0.0051427533713773576 0 -0.00035670119028165915 0.0050958241375162264 0 -0.00055757078948773546 0.0049235039021889599 0 -0.00052194796971828054 0.0047424376814554671 0 -0.00028416841483743931 0.0051336692194373602 0 -0.00035670119028165915 0.0050958241375162264 0 -0.00033429135179007425 0.0050022829750701577 0 -0.00035670119028165915 0.0050958241375162264 0 -0.00033429135179007425 0.0050022829750701577 0 -0.00055791912008922528 0.0048237530978708565 0 -0.00035670119028165915 0.0050958241375162264 0 -0.00024820245690835842 0.0051752269105238852 0 -0.00016606033742692651 0.0051648241393737835 0 -0.00035670119028165915 0.0050958241375162264 0 -0.00024820245690835842 0.0051752269105238852 0 -0.00038732524049238615 0.0050330429985888936 0 6.2502546545383065e-06 0.0052750811622392377 0 -0.00024820245690835842 0.0051752269105238852 0 -0.00016606033742692651 0.0051648241393737835 0 6.2502546545383065e-06 0.0052750811622392377 0 -0.00024820245690835842 0.0051752269105238852 0 -0.00010355643431470742 0.0053818413965658332 0 9.5177544834280746e-05 0.0052280853466528361 0 6.2502546545383065e-06 0.0052750811622392377 0 -0.00016606033742692651 0.0051648241393737835 0 -0.00026117082952623218 0.0051427533713773576 0 -0.00035670119028165915 0.0050958241375162264 0 -0.00016606033742692651 0.0051648241393737835 0 -0.00050090819074331274 0.0046270335997606231 0 -0.00065565666674450207 0.0045547653681060601 0 -0.00060245751679870966 0.0047485309402023239 0 -0.00089369155112840773 0.0044034286891624069 0 -0.00086897769594475056 0.0043876701139293874 0 -0.0009554426285963536 0.0044237439513597123 0 -0.00089369155112840773 0.0044034286891624069 0 -0.0010435390229914267 0.0044528106685096007 0 -0.0009554426285963536 0.0044237439513597123 0 -0.00086897769594475056 0.0043876701139293874 0 -0.0007963988436302565 0.0043555882501330502 0 -0.00062575655243299983 0.0043836723343732139 0 -0.00089369155112840773 0.0044034286891624069 0 -0.00086897769594475056 0.0043876701139293874 0 -0.00062575655243299983 0.0043836723343732139 0 -0.00086897769594475056 0.0043876701139293874 0 -0.0007963988436302565 0.0043555882501330502 0 -0.00085009838619469784 0.004365385397500891 0 -0.00064862348697954195 0.0045188939722950782 0 -0.00064887982876920332 0.0044066552673098338 0 -0.00050090819074331274 0.0046270335997606231 0 -0.00065565666674450207 0.0045547653681060601 0 -0.00062575655243299983 0.0043836723343732139 0 -0.00065565666674450207 0.0045547653681060601 0 -0.00060044633603051811 0.0044167852192207877 0 -0.00062575655243299983 0.0043836723343732139 0 -0.00070678747568408648 0.0044632991838761656 0 -0.00065565666674450207 0.0045547653681060601 0 -0.00060044633603051811 0.0044167852192207877 0 -0.00083698463780015279 0.0047088992314224159 0 -0.00065565666674450207 0.0045547653681060601 0 -0.00071053557631217895 0.0047625241787544311 0 -0.00083698463780015279 0.0047088992314224159 0 -0.00070678747568408648 0.0044632991838761656 0 -0.00065565666674450207 0.0045547653681060601 0 -0.00065565666674450207 0.0045547653681060601 0 -0.00071053557631217895 0.0047625241787544311 0 -0.00060245751679870966 0.0047485309402023239 0 -0.00071053557631217895 0.0047625241787544311 0 -0.00069612017541639912 0.0049053105556231286 0 -0.00060245751679870966 0.0047485309402023239 0 -0.00083698463780015279 0.0047088992314224159 0 -0.00071053557631217895 0.0047625241787544311 0 -0.00076120703636961193 0.0048780245257874283 0 -0.00076120703636961193 0.0048780245257874283 0 -0.00069612017541639912 0.0049053105556231286 0 -0.00072684644963619683 0.0050135328788856277 0 -0.00071053557631217895 0.0047625241787544311 0 -0.00076120703636961193 0.0048780245257874283 0 -0.00069612017541639912 0.0049053105556231286 0 -0.00083027163967515263 0.0049712646942096988 0 -0.00076120703636961193 0.0048780245257874283 0 -0.00072684644963619683 0.0050135328788856277 0 -0.00069612017541639912 0.0049053105556231286 0 -0.00072684644963619683 0.0050135328788856277 0 -0.00067541853233089692 0.0049620626084033231 0 -0.00069612017541639912 0.0049053105556231286 0 -0.00062488200220343231 0.004894754831594246 0 -0.00067541853233089692 0.0049620626084033231 0 -0.00069612017541639912 0.0049053105556231286 0 -0.00062488200220343231 0.004894754831594246 0 -0.00060245751679870966 0.0047485309402023239 0 -0.00062488200220343231 0.004894754831594246 0 -0.00063542583132414061 0.0049714054248089093 0 -0.00067541853233089692 0.0049620626084033231 0 -0.00058013595174463153 0.0049072938435902802 0 -0.00056972794080568728 0.0049733124365398474 0 -0.00063542583132414061 0.0049714054248089093 0 -0.00058013595174463153 0.0049072938435902802 0 -0.00062488200220343231 0.004894754831594246 0 -0.00063542583132414061 0.0049714054248089093 0 -0.00058013595174463153 0.0049072938435902802 0 -0.00062488200220343231 0.004894754831594246 0 -0.00056755422368959761 0.004819253813798296 0 -0.00062488200220343231 0.004894754831594246 0 -0.00056755422368959761 0.004819253813798296 0 -0.00060245751679870966 0.0047485309402023239 0 -0.00056755422368959761 0.004819253813798296 0 -0.00060245751679870966 0.0047485309402023239 0 -0.00052648875098263923 0.0047371102551962739 0 -0.00050090819074331274 0.0046270335997606231 0 -0.00060245751679870966 0.0047485309402023239 0 -0.00052648875098263923 0.0047371102551962739 0 -0.00064862348697954195 0.0045188939722950782 0 -0.0010267389325008987 0.0046925691907573411 0 -0.00050090819074331274 0.0046270335997606231 0 -0.00052648875098263923 0.0047371102551962739 0 -0.00043229932700284654 0.0048474108629246639 0 -0.00089369155112840773 0.0044034286891624069 0 -0.0010458552344241926 0.004415438518933848 0 -0.0010435390229914267 0.0044528106685096007 0 -0.00056755422368959761 0.004819253813798296 0 -0.00052648875098263923 0.0047371102551962739 0 -0.00049988023336062929 0.0048155583524429222 0 -0.00052648875098263923 0.0047371102551962739 0 -0.00049988023336062929 0.0048155583524429222 0 -0.00043229932700284654 0.0048474108629246639 0 -0.0010267389325008987 0.0046925691907573411 0 -0.00092272954345261999 0.0049317108945167581 0 -0.00058013595174463153 0.0049072938435902802 0 -0.00049988023336062929 0.0048155583524429222 0 -0.00056972794080568728 0.0049733124365398474 0 -0.00051186885388999057 0.004830005735281237 0 -0.00053212543733318891 0.0049574744811973761 0 -0.00043229932700284654 0.0048474108629246639 0 -0.0004776509608050799 0.0049864735128010403 0 -0.00051235540119937183 0.0049709717856550309 0 -0.00049988023336062929 0.0048155583524429222 0 -0.00043229932700284654 0.0048474108629246639 0 -0.00051235540119937183 0.0049709717856550309 0 -0.00058013595174463153 0.0049072938435902802 0 -0.00056755422368959761 0.004819253813798296 0 -0.00049988023336062929 0.0048155583524429222 0 -0.0004776509608050799 0.0049864735128010403 0 -0.00051235540119937183 0.0049709717856550309 0 -0.00052545428024907011 0.0051286606264625062 0 -0.00056972794080568728 0.0049733124365398474 0 -0.00066626627955687948 0.0050306426313839296 0 -0.00067221221777526564 0.0050748390343027311 0 -0.0013725099218478295 0.0048672389616016302 0 -0.001344411643561985 0.004933930194513601 0 -0.0013783240176657237 0.0049921352471519265 0 -0.00053212543733318891 0.0049574744811973761 0 -0.00089814628552615161 0.005122225529506785 0 -0.00092272954345261999 0.0049317108945167581 0 -0.00089814628552615161 0.005122225529506785 0 -0.00056972794080568728 0.0049733124365398474 0 -0.00063542583132414061 0.0049714054248089093 0 -0.00066626627955687948 0.0050306426313839296 0 -0.00063542583132414061 0.0049714054248089093 0 -0.00070036159160447237 0.0050326999014882875 0 -0.00067541853233089692 0.0049620626084033231 0 -0.00063542583132414061 0.0049714054248089093 0 -0.00070036159160447237 0.0050326999014882875 0 -0.00066626627955687948 0.0050306426313839296 0 -0.00067221221777526564 0.0050748390343027311 0 -0.00079388284056957855 0.0051139970398731537 0 -0.00078919510410395768 0.0051052052297774989 0 -0.00066626627955687948 0.0050306426313839296 0 -0.00074063690344747886 0.0050839874901961474 0 -0.00067221221777526564 0.0050748390343027311 0 -0.00070036159160447237 0.0050326999014882875 0 -0.00066626627955687948 0.0050306426313839296 0 -0.00074063690344747886 0.0050839874901961474 0 -0.00074063690344747886 0.0050839874901961474 0 -0.00067221221777526564 0.0050748390343027311 0 -0.00078919510410395768 0.0051052052297774989 0 -0.00089814628552615161 0.005122225529506785 0 -0.00091936139119325319 0.0051707483402425669 0 -0.0013783240176657237 0.0049921352471519265 0 -0.0013246853460801356 0.0050405170214344007 0 -0.0013246777042206156 0.0049877139741266174 0 -0.001344411643561985 0.004933930194513601 0 -0.0013783240176657237 0.0049921352471519265 0 -0.0013246777042206156 0.0049877139741266174 0 -0.00083027163967515263 0.0049712646942096988 0 -0.00072684644963619683 0.0050135328788856277 0 -0.00073294301296262458 0.0050869448739672106 0 -0.00070036159160447237 0.0050326999014882875 0 -0.00072684644963619683 0.0050135328788856277 0 -0.00067541853233089692 0.0049620626084033231 0 -0.00070036159160447237 0.0050326999014882875 0 -0.00072684644963619683 0.0050135328788856277 0 -0.00074181872980573201 0.0050879440570148907 0 -0.00074063690344747886 0.0050839874901961474 0 -0.00074181872980573201 0.0050879440570148907 0 -0.00080181991383217058 0.0051121842668998517 0 -0.00070036159160447237 0.0050326999014882875 0 -0.00074063690344747886 0.0050839874901961474 0 -0.00074181872980573201 0.0050879440570148907 0 -0.00072684644963619683 0.0050135328788856277 0 -0.00074181872980573201 0.0050879440570148907 0 -0.00073294301296262458 0.0050869448739672106 0 -0.00074181872980573201 0.0050879440570148907 0 -0.00073294301296262458 0.0050869448739672106 0 -0.0007117090365945047 0.0051107725384327771 0 -0.0007117090365945047 0.0051107725384327771 0 -0.00080181991383217058 0.0051121842668998517 0 -0.00072174979912055634 0.0050760245748748458 0 -0.00062396775914985811 0.0050876925595146156 0 -0.0007117090365945047 0.0051107725384327771 0 -0.00072174979912055634 0.0050760245748748458 0 -0.00074181872980573201 0.0050879440570148907 0 -0.0007117090365945047 0.0051107725384327771 0 -0.00080181991383217058 0.0051121842668998517 0 -0.00080181991383217058 0.0051121842668998517 0 -0.00085920166362776654 0.0050000089716111563 0 -0.00072174979912055634 0.0050760245748748458 0 -0.00080181991383217058 0.0051121842668998517 0 -0.00085920166362776654 0.0050000089716111563 0 -0.00087367896894283224 0.0051044994777640863 0 -0.0005849167872249469 0.0049999269069714337 0 -0.00062396775914985811 0.0050876925595146156 0 -0.00072174979912055634 0.0050760245748748458 0 -0.0005849167872249469 0.0049999269069714337 0 -0.00085920166362776654 0.0050000089716111563 0 -0.00072174979912055634 0.0050760245748748458 0 -0.0010614611758817533 0.0053666595734424552 0 -0.0010681133431597561 0.0051945992947545717 0 -0.0010315415224095334 0.0052357368507257142 0 -0.00089814628552615161 0.005122225529506785 0 -0.0011958671253002294 0.0051282614299359378 0 -0.0013783240176657237 0.0049921352471519265 0 -0.0012915249561459628 0.0050735653590493774 0 -0.0013246853460801356 0.0050405170214344007 0 -0.0010681133431597561 0.0051945992947545717 0 -0.0010315415224095334 0.0052357368507257142 0 -0.00098610497869225378 0.0050798425396248554 0 -0.0012915249561459628 0.0050735653590493774 0 -0.0013031917597907622 0.0050648283820298057 0 -0.001255232414163449 0.0050524252331869629 0 -0.0012915249561459628 0.0050735653590493774 0 -0.0013031917597907622 0.0050648283820298057 0 -0.0013246853460801356 0.0050405170214344007 0 -0.00074063690344747886 0.0050839874901961474 0 -0.00080181991383217058 0.0051121842668998517 0 -0.00078919510410395768 0.0051052052297774989 0 -0.00091936139119325319 0.0051707483402425669 0 -0.00095059050946142017 0.0050787116046000632 0 -0.00079388284056957855 0.0051139970398731537 0 -0.00078919510410395768 0.0051052052297774989 0 -0.00087367896894283224 0.0051044994777640863 0 -0.00079388284056957855 0.0051139970398731537 0 -0.00087367896894283224 0.0051044994777640863 0 -0.00098610497869225378 0.0050798425396248554 0 -0.00080181991383217058 0.0051121842668998517 0 -0.00078919510410395768 0.0051052052297774989 0 -0.00087367896894283224 0.0051044994777640863 0 -0.00085920166362776654 0.0050000089716111563 0 -0.00087367896894283224 0.0051044994777640863 0 -0.00098610497869225378 0.0050798425396248554 0 -0.00085920166362776654 0.0050000089716111563 0 -0.00098610497869225378 0.0050798425396248554 0 -0.0011335370584105121 0.0049999239485564676 0 -0.0010681133431597561 0.0051945992947545717 0 -0.00098610497869225378 0.0050798425396248554 0 -0.0011335370584105121 0.0049999239485564676 0 -0.0012915249561459628 0.0050735653590493774 0 -0.0011340579481664049 0.0049999797597742313 0 -0.001255232414163449 0.0050524252331869629 0 -0.0011958671253002294 0.0051282614299359378 0 -0.0011338113188523262 0.0049999825061807163 0 -0.0011340579481664049 0.0049999797597742313 0 -0.001255232414163449 0.0050524252331869629 0 -0.001401718875327432 0.0049999330675700336 0 -0.001401718875327432 0.0049999330675700336 0 -0.0013264809565738198 0.0050636761512092669 0 -0.0013697598363757004 0.0050744144900133278 0 -0.001255232414163449 0.0050524252331869629 0 -0.001401718875327432 0.0049999330675700336 0 -0.0013264809565738198 0.0050636761512092669 0 -0.0013031917597907622 0.0050648283820298057 0 -0.001255232414163449 0.0050524252331869629 0 -0.0013264809565738198 0.0050636761512092669 0 -0.0013031917597907622 0.0050648283820298057 0 -0.0013264809565738198 0.0050636761512092669 0 -0.0013274293471164131 0.0050535884162269907 0 -0.0013264809565738198 0.0050636761512092669 0 -0.0013274293471164131 0.0050535884162269907 0 -0.0013697598363757004 0.0050744144900133278 0 -0.0013031917597907622 0.0050648283820298057 0 -0.0013246853460801356 0.0050405170214344007 0 -0.0013274293471164131 0.0050535884162269907 0 -0.0013758052531534528 0.0050645129772562544 0 -0.0013408854282594639 0.0050482390454248379 0 -0.0013288278952065247 0.0050248479947891389 0 -0.0013758052531534528 0.0050645129772562544 0 -0.0013408854282594639 0.0050482390454248379 0 -0.0013697598363757004 0.0050744144900133278 0 -0.0013274293471164131 0.0050535884162269907 0 -0.0013408854282594639 0.0050482390454248379 0 -0.0013697598363757004 0.0050744144900133278 0 -0.0013758052531534528 0.0050645129772562544 0 -0.0013697598363757004 0.0050744144900133278 0 -0.0014533547846500205 0.0050854697742638436 0 -0.001401718875327432 0.0049999330675700336 0 -0.0013697598363757004 0.0050744144900133278 0 -0.0016694281077339367 0.0049999709480135317 0 -0.0013697598363757004 0.0050744144900133278 0 -0.0016694281077339367 0.0049999709480135317 0 -0.0014533547846500205 0.0050854697742638436 0 -0.0016694281077339367 0.0049999709480135317 0 -0.0015461181887334928 0.0050830273888907308 0 -0.0014533547846500205 0.0050854697742638436 0 -0.0016694281077339367 0.0049999709480135317 0 -0.0015461181887334928 0.0050830273888907308 0 -0.0015977787464017356 0.0051308494953293416 0 -0.0016694281077339367 0.0049999709480135317 0 -0.0017946371284839617 0.0050845236667777724 0 -0.0015977787464017356 0.0051308494953293416 0 -0.0016694281077339367 0.0049999709480135317 0 -0.0017946371284839617 0.0050845236667777724 0 -0.0019376473694238388 0.004999938407168756 0 -0.0015547418558076852 0.0051234808987500853 0 -0.0014238525458507448 0.0051390399424128862 0 -0.0015977787464017356 0.0051308494953293416 0 -0.0013561227544227948 0.0050582303466695155 0 -0.0013057466515349382 0.0050418460665162942 0 -0.0017139040936800902 0.005199553454337133 0 -0.0015977787464017356 0.0051308494953293416 0 -0.0017329221356331133 0.0053912290513669289 0 -0.0017946371284839617 0.0050845236667777724 0 -0.0017139040936800902 0.005199553454337133 0 -0.0018728763206682895 0.0051888512668615827 0 -0.0017946371284839617 0.0050845236667777724 0 -0.0017139040936800902 0.005199553454337133 0 -0.0015977787464017356 0.0051308494953293416 0 -0.0015461181887334928 0.0050830273888907308 0 -0.0015977787464017356 0.0051308494953293416 0 -0.0014661035332406817 0.0050935063061482398 0 -0.0015461181887334928 0.0050830273888907308 0 -0.0014533547846500205 0.0050854697742638436 0 -0.0014661035332406817 0.0050935063061482398 0 -0.0014661035332406817 0.0050935063061482398 0 -0.0013810904120492152 0.0050634729576361287 0 -0.0013561227544227948 0.0050582303466695155 0 -0.0015977787464017356 0.0051308494953293416 0 -0.0014661035332406817 0.0050935063061482398 0 -0.0013561227544227948 0.0050582303466695155 0 -0.0013758052531534528 0.0050645129772562544 0 -0.0014533547846500205 0.0050854697742638436 0 -0.0013810904120492152 0.0050634729576361287 0 -0.0014533547846500205 0.0050854697742638436 0 -0.0014661035332406817 0.0050935063061482398 0 -0.0013810904120492152 0.0050634729576361287 0 -0.0013758052531534528 0.0050645129772562544 0 -0.0013810904120492152 0.0050634729576361287 0 -0.0013288278952065247 0.0050248479947891389 0 -0.0013810904120492152 0.0050634729576361287 0 -0.0012939806417065862 0.0049993344691817232 0 -0.0013288278952065247 0.0050248479947891389 0 -0.0013561227544227948 0.0050582303466695155 0 -0.0012939806417065862 0.0049993344691817232 0 -0.001222713134783192 0.0049662342469133855 0 -0.0013810904120492152 0.0050634729576361287 0 -0.0013561227544227948 0.0050582303466695155 0 -0.0012939806417065862 0.0049993344691817232 0 -0.0012939806417065862 0.0049993344691817232 0 -0.001222713134783192 0.0049662342469133855 0 -0.0011920207643388062 0.0048850512225036965 0 -0.0012564565035148023 0.0049351401971430972 0 -0.0012939806417065862 0.0049993344691817232 0 -0.0011920207643388062 0.0048850512225036965 0 -0.0012564565035148023 0.0049351401971430972 0 -0.0012939806417065862 0.0049993344691817232 0 -0.0013288278952065247 0.0050248479947891389 0 -0.0017139040936800902 0.005199553454337133 0 -0.0017329221356331133 0.0053912290513669289 0 -0.0017553807508654705 0.0053915424247018874 0 -0.0015977787464017356 0.0051308494953293416 0 -0.0013057466515349382 0.0050418460665162942 0 -0.001081794164791768 0.0049793246593009873 0 -0.0017221096663900678 0.0052185997602977353 0 -0.0017996106824087444 0.0054236458776677514 0 -0.0013561227544227948 0.0050582303466695155 0 -0.0013057466515349382 0.0050418460665162942 0 -0.001222713134783192 0.0049662342469133855 0 -0.0013057466515349382 0.0050418460665162942 0 -0.001222713134783192 0.0049662342469133855 0 -0.001081794164791768 0.0049793246593009873 0 -0.001222713134783192 0.0049662342469133855 0 -0.001081794164791768 0.0049793246593009873 0 -0.0011172621042403004 0.0048739584177677946 0 -0.001081794164791768 0.0049793246593009873 0 -0.00099516581571492866 0.0048011187742254225 0 -0.00083621713236862192 0.0045708812865078068 0 -0.0017329221356331133 0.0053912290513669289 0 -0.0017474600509212975 0.0053418025539485724 0 -0.0017719491729304012 0.0052810958102595005 0 -0.0014238525458507448 0.0051390399424128862 0 -0.0012512977260746674 0.0050036197459456082 0 -0.001081794164791768 0.0049793246593009873 0 -0.0011172621042403004 0.0048739584177677946 0 -0.00099516581571492866 0.0048011187742254225 0 -0.0017329221356331133 0.0053912290513669289 0 -0.0017553807508654705 0.0053915424247018874 0 -0.0017474600509212975 0.0053418025539485724 0 -0.0011172621042403004 0.0048739584177677946 0 -0.00099516581571492866 0.0048011187742254225 0 -0.001111503652929485 0.0047698068526219111 0 -0.0012564565035148023 0.0049351401971430972 0 -0.0011920207643388062 0.0048850512225036965 0 -0.001167980487374121 0.004790723056534836 0 -0.0011172621042403004 0.0048739584177677946 0 -0.0011920207643388062 0.0048850512225036965 0 -0.001111503652929485 0.0047698068526219111 0 -0.001222713134783192 0.0049662342469133855 0 -0.0011172621042403004 0.0048739584177677946 0 -0.0011920207643388062 0.0048850512225036965 0 -0.0011920207643388062 0.0048850512225036965 0 -0.001111503652929485 0.0047698068526219111 0 -0.001167980487374121 0.004790723056534836 0 -0.001167980487374121 0.004790723056534836 0 -0.001235992569204779 0.0048786856948895415 0 -0.0011907648542916847 0.0047726402804075078 0 -0.0012564565035148023 0.0049351401971430972 0 -0.001167980487374121 0.004790723056534836 0 -0.001235992569204779 0.0048786856948895415 0 -0.001235992569204779 0.0048786856948895415 0 -0.0012903924594735241 0.0048812312045034912 0 -0.0013020594401723937 0.0049850734285491714 0 -0.001235992569204779 0.0048786856948895415 0 -0.0012903924594735241 0.0048812312045034912 0 -0.0011907648542916847 0.0047726402804075078 0 -0.0012903924594735241 0.0048812312045034912 0 -0.0011848965534592508 0.0047013914944515119 0 -0.0011907648542916847 0.0047726402804075078 0 -0.0013725099218478295 0.0048672389616016302 0 -0.001344411643561985 0.004933930194513601 0 -0.0012903924594735241 0.0048812312045034912 0 -0.001344411643561985 0.004933930194513601 0 -0.0012903924594735241 0.0048812312045034912 0 -0.0013246777042206156 0.0049877139741266174 0 -0.0012903924594735241 0.0048812312045034912 0 -0.0013246777042206156 0.0049877139741266174 0 -0.0013020594401723937 0.0049850734285491714 0 -0.0013246853460801356 0.0050405170214344007 0 -0.0013274293471164131 0.0050535884162269907 0 -0.0013246777042206156 0.0049877139741266174 0 -0.0013274293471164131 0.0050535884162269907 0 -0.0013408854282594639 0.0050482390454248379 0 -0.0013020594401723937 0.0049850734285491714 0 -0.0013274293471164131 0.0050535884162269907 0 -0.0013246777042206156 0.0049877139741266174 0 -0.0013020594401723937 0.0049850734285491714 0 -0.0013408854282594639 0.0050482390454248379 0 -0.0013288278952065247 0.0050248479947891389 0 -0.0013020594401723937 0.0049850734285491714 0 -0.0012564565035148023 0.0049351401971430972 0 -0.001235992569204779 0.0048786856948895415 0 -0.0013020594401723937 0.0049850734285491714 0 -0.0012564565035148023 0.0049351401971430972 0 -0.0013288278952065247 0.0050248479947891389 0 -0.0013020594401723937 0.0049850734285491714 0 -0.0025067237579978977 0.0051937306570922302 0 -0.0025321332621348791 0.0053408801556512559 0 -0.0025014356032014083 0.0052129596831430062 0 -0.0023472332900327025 0.005225000625881571 0 -0.0024474140046395598 0.0053389284888018668 0 -0.0025014356032014083 0.0052129596831430062 0 -0.0023539106716999082 0.0051141287184875367 0 -0.0023472332900327025 0.005225000625881571 0 -0.0025067237579978977 0.0051937306570922302 0 -0.0024736818887352934 0.0050000476680668003 0 -0.0025014356032014083 0.0052129596831430062 0 -0.0024737021971461613 0.0049999920823555468 0 -0.0023539106716999082 0.0051141287184875367 0 -0.0024737021971461613 0.0049999920823555468 0 -0.0023539106716999082 0.0051141287184875367 0 -0.0022057030020871805 0.0049999981439156332 0 -0.0023539106716999082 0.0051141287184875367 0 -0.0022057030020871805 0.0049999981439156332 0 -0.0022479316909138148 0.0051414811694490518 0 -0.0022479316909138148 0.0051414811694490518 0 -0.0023472332900327025 0.005225000625881571 0 -0.0021998562352560469 0.005241084324931893 0 -0.0023539106716999082 0.0051141287184875367 0 -0.0022479316909138148 0.0051414811694490518 0 -0.0023472332900327025 0.005225000625881571 0 -0.0023472332900327025 0.005225000625881571 0 -0.0022939482288316386 0.0053119630643051622 0 -0.0024474140046395598 0.0053389284888018668 0 -0.0022939482288316386 0.0053119630643051622 0 -0.0021998562352560469 0.005241084324931893 0 -0.0021720582472673283 0.0053368569114052742 0 -0.0023472332900327025 0.005225000625881571 0 -0.0022939482288316386 0.0053119630643051622 0 -0.0021998562352560469 0.005241084324931893 0 -0.0021998562352560469 0.005241084324931893 0 -0.0020943466857619047 0.0052659217216225141 0 -0.0021720582472673283 0.0053368569114052742 0 -0.0020943466857619047 0.0052659217216225141 0 -0.0019941839979481868 0.0052423247462059291 0 -0.0020317176779195167 0.005354102243151612 0 -0.0020943466857619047 0.0052659217216225141 0 -0.0020842682259092577 0.0051385563586153387 0 -0.0019941839979481868 0.0052423247462059291 0 -0.0022479316909138148 0.0051414811694490518 0 -0.0021998562352560469 0.005241084324931893 0 -0.0020842682259092577 0.0051385563586153387 0 -0.0021998562352560469 0.005241084324931893 0 -0.0020943466857619047 0.0052659217216225141 0 -0.0020842682259092577 0.0051385563586153387 0 -0.0022057030020871805 0.0049999981439156332 0 -0.0020842682259092577 0.0051385563586153387 0 -0.0019376473694238388 0.004999938407168756 0 -0.0022057030020871805 0.0049999981439156332 0 -0.0022479316909138148 0.0051414811694490518 0 -0.0020842682259092577 0.0051385563586153387 0 -0.0020842682259092577 0.0051385563586153387 0 -0.0019358712479711389 0.0051323431838050616 0 -0.0019376473694238388 0.004999938407168756 0 -0.0017946371284839617 0.0050845236667777724 0 -0.0019358712479711389 0.0051323431838050616 0 -0.0019376473694238388 0.004999938407168756 0 -0.0017946371284839617 0.0050845236667777724 0 -0.0019358712479711389 0.0051323431838050616 0 -0.0018728763206682895 0.0051888512668615827 0 -0.0020842682259092577 0.0051385563586153387 0 -0.0019358712479711389 0.0051323431838050616 0 -0.0019941839979481868 0.0052423247462059291 0 -0.0019358712479711389 0.0051323431838050616 0 -0.0018728763206682895 0.0051888512668615827 0 -0.0019941839979481868 0.0052423247462059291 0 -0.0018728763206682895 0.0051888512668615827 0 -0.0019121596660663029 0.0052975519730163812 0 -0.0019941839979481868 0.0052423247462059291 0 -0.0019121596660663029 0.0052975519730163812 0 -0.0019941839979481868 0.0052423247462059291 0 -0.0020317176779195167 0.005354102243151612 0 -0.0017139040936800902 0.005199553454337133 0 -0.0019121596660663029 0.0052975519730163812 0 -0.0019075472815691422 0.0053969189816435491 0 -0.0017139040936800902 0.005199553454337133 0 -0.0018728763206682895 0.0051888512668615827 0 -0.0019121596660663029 0.0052975519730163812 0 -0.0017139040936800902 0.005199553454337133 0 -0.0019075472815691422 0.0053969189816435491 0 -0.0018472973193829319 0.0054987473272089795 0 -0.0019075472815691422 0.0053969189816435491 0 -0.0019968265722375795 0.0054653110131956664 0 -0.0020317176779195167 0.005354102243151612 0 -0.0019121596660663029 0.0052975519730163812 0 -0.0019075472815691422 0.0053969189816435491 0 -0.0020317176779195167 0.005354102243151612 0 -0.0019075472815691422 0.0053969189816435491 0 -0.0019968265722375795 0.0054653110131956664 0 -0.0019282274865328774 0.0054833567085188 0 -0.0019075472815691422 0.0053969189816435491 0 -0.0019282274865328774 0.0054833567085188 0 -0.0018472973193829319 0.0054987473272089795 0 -0.0018472973193829319 0.0054987473272089795 0 -0.0019600612257031354 0.0055681908052413022 0 -0.0019465739887924646 0.0057302582549267683 0 -0.0019282274865328774 0.0054833567085188 0 -0.0018472973193829319 0.0054987473272089795 0 -0.0019600612257031354 0.0055681908052413022 0 -0.0019600612257031354 0.0055681908052413022 0 -0.0020194519453295631 0.0056517931122303652 0 -0.0019465739887924646 0.0057302582549267683 0 -0.0017996106824087444 0.0054236458776677514 0 -0.0017844206546427461 0.005562886101217631 0 -0.0017553807508654705 0.0053915424247018874 0 -0.0017474600509212975 0.0053418025539485724 0 -0.0017136165427028525 0.0052950129918828701 0 -0.0019968265722375795 0.0054653110131956664 0 -0.0019282274865328774 0.0054833567085188 0 -0.0019600612257031354 0.0055681908052413022 0 -0.0019968265722375795 0.0054653110131956664 0 -0.0019600612257031354 0.0055681908052413022 0 -0.0020571146252011765 0.0055572310008157556 0 -0.0021142285642690747 0.0056420819179948348 0 -0.0022792098189236775 0.0055744245279400082 0 -0.0021310483499567649 0.0057655235216375706 0 -0.0019600612257031354 0.0055681908052413022 0 -0.0020571146252011765 0.0055572310008157556 0 -0.0020194519453295631 0.0056517931122303652 0 -0.0020571146252011765 0.0055572310008157556 0 -0.0020194519453295631 0.0056517931122303652 0 -0.0021142285642690747 0.0056420819179948348 0 -0.0020571146252011765 0.0055572310008157556 0 -0.0021653432765900179 0.0055296252400487871 0 -0.0021349440727002522 0.0054412074024713332 0 -0.0021142285642690747 0.0056420819179948348 0 -0.0021653432765900179 0.0055296252400487871 0 -0.0022792098189236775 0.0055744245279400082 0 -0.0020571146252011765 0.0055572310008157556 0 -0.0021142285642690747 0.0056420819179948348 0 -0.0021653432765900179 0.0055296252400487871 0 -0.0021653432765900179 0.0055296252400487871 0 -0.0021349440727002522 0.0054412074024713332 0 -0.0022458511864255834 0.0054254410832519501 0 -0.0019968265722375795 0.0054653110131956664 0 -0.0021349440727002522 0.0054412074024713332 0 -0.0020317176779195167 0.005354102243151612 0 -0.0019968265722375795 0.0054653110131956664 0 -0.0020571146252011765 0.0055572310008157556 0 -0.0021349440727002522 0.0054412074024713332 0 -0.0020943466857619047 0.0052659217216225141 0 -0.0020317176779195167 0.005354102243151612 0 -0.0021720582472673283 0.0053368569114052742 0 -0.0021349440727002522 0.0054412074024713332 0 -0.0020317176779195167 0.005354102243151612 0 -0.0021720582472673283 0.0053368569114052742 0 -0.0021349440727002522 0.0054412074024713332 0 -0.0021720582472673283 0.0053368569114052742 0 -0.0022458511864255834 0.0054254410832519501 0 -0.0022458511864255834 0.0054254410832519501 0 -0.0022792098189236775 0.0055744245279400082 0 -0.0024474140046395598 0.0053389284888018668 0 -0.0024097518861500525 0.0054610087219999284 0 -0.0024485470608139694 0.0053547741848938447 0 -0.0022939482288316386 0.0053119630643051622 0 -0.0021720582472673283 0.0053368569114052742 0 -0.0022458511864255834 0.0054254410832519501 0 -0.0022939482288316386 0.0053119630643051622 0 -0.0022458511864255834 0.0054254410832519501 0 -0.0024474140046395598 0.0053389284888018668 0 -0.0021653432765900179 0.0055296252400487871 0 -0.0022458511864255834 0.0054254410832519501 0 -0.0022792098189236775 0.0055744245279400082 0 -0.0025190389334165857 0.0053992377247686543 0 -0.0025169734281937639 0.0053878953595995491 0 -0.0025253557112960459 0.0053841895388366924 0 -0.0025169734281937639 0.0053878953595995491 0 -0.0025564109136980173 0.005392997107889509 0 -0.0025253557112960459 0.0053841895388366924 0 -0.0025169734281937639 0.0053878953595995491 0 -0.0025564109136980173 0.005392997107889509 0 -0.0025123584671394071 0.0053736079651891915 0 -0.002549831398755348 0.0053932794481582813 0 -0.0025321332621348791 0.0053408801556512559 0 -0.0025014356032014083 0.0052129596831430062 0 -0.0025123584671394071 0.0053736079651891915 0 -0.0024474140046395598 0.0053389284888018668 0 -0.0025190389334165857 0.0053992377247686543 0 -0.0025169734281937639 0.0053878953595995491 0 -0.0024474140046395598 0.0053389284888018668 0 -0.0025169734281937639 0.0053878953595995491 0 -0.0025123584671394071 0.0053736079651891915 0 -0.0024474140046395598 0.0053389284888018668 0 -0.0024586429680438261 0.0052864490921667 0 -0.0025253557112960459 0.0053841895388366924 0 -0.0025396457123473938 0.0052948869413423361 0 -0.0024586429680438261 0.0052864490921667 0 -0.0025396457123473938 0.0052948869413423361 0 -0.002541836809461144 0.0051895106370279326 0 -0.0025124731536596331 0.0053645451452314788 0 -0.0025298975180927962 0.0053894434845702527 0 -0.0025564109136980173 0.005392997107889509 0 -0.0025697539068112109 0.0054634046197373385 0 -0.0025253557112960459 0.0053841895388366924 0 -0.0024097518861500525 0.0054610087219999284 0 -0.0023367312640944406 0.0056410481902904579 0 -0.0025190389334165857 0.0053992377247686543 0 -0.0025253557112960459 0.0053841895388366924 0 -0.0025994673101844058 0.0053666739785392797 0 -0.0025253557112960459 0.0053841895388366924 0 -0.0025396457123473938 0.0052948869413423361 0 -0.0025994673101844058 0.0053666739785392797 0 -0.0025396457123473938 0.0052948869413423361 0 -0.0026021322467910529 0.0052606442120737319 0 -0.0025994673101844058 0.0053666739785392797 0 -0.0025396457123473938 0.0052948869413423361 0 -0.0026021322467910529 0.0052606442120737319 0 -0.002541836809461144 0.0051895106370279326 0 -0.0023367312640944406 0.0056410481902904579 0 -0.0023805899539884913 0.005142883881629483 0 -0.0026021322467910529 0.0052606442120737319 0 -0.0025994673101844058 0.0053666739785392797 0 -0.0026827621180206648 0.0052503364389570135 0 -0.0026021322467910529 0.0052606442120737319 0 -0.0026827621180206648 0.0052503364389570135 0 -0.0026707153113674381 0.0052056656874654196 0 -0.0021310483499567649 0.0057655235216375706 0 -0.0020408781977553372 0.0057473539484839261 0 -0.002017588887820285 0.0059322260948395135 0 -0.0021142285642690747 0.0056420819179948348 0 -0.0021310483499567649 0.0057655235216375706 0 -0.0020408781977553372 0.0057473539484839261 0 -0.0020194519453295631 0.0056517931122303652 0 -0.0021142285642690747 0.0056420819179948348 0 -0.0020408781977553372 0.0057473539484839261 0 -0.0020408781977553372 0.0057473539484839261 0 -0.0019465739887924646 0.0057302582549267683 0 -0.002017588887820285 0.0059322260948395135 0 -0.0020194519453295631 0.0056517931122303652 0 -0.0020408781977553372 0.0057473539484839261 0 -0.0019465739887924646 0.0057302582549267683 0 -0.0017474600509212975 0.0053418025539485724 0 -0.0017136165427028525 0.0052950129918828701 0 -0.0017719491729304012 0.0052810958102595005 0 -0.0017136165427028525 0.0052950129918828701 0 -0.0017719491729304012 0.0052810958102595005 0 -0.0017089482697080583 0.0051264160821885086 0 -0.0017136165427028525 0.0052950129918828701 0 -0.0017089482697080583 0.0051264160821885086 0 -0.0016415641202706804 0.0050454023562569806 0 -0.0017719491729304012 0.0052810958102595005 0 -0.0017089482697080583 0.0051264160821885086 0 -0.0017267500830179137 0.0049758282466298041 0 -0.00083621713236862192 0.0045708812865078068 0 -0.00072707051613310979 0.0042110529192065701 0 -0.00089776451353023267 0.0043895391223777724 0 -0.0012512977260746674 0.0050036197459456082 0 -0.0017074944728821047 0.0041677928225240263 0 -0.0017844206546427461 0.005562886101217631 0 -0.0023805899539884913 0.005142883881629483 0 -0.0017089482697080583 0.0051264160821885086 0 -0.0016415641202706804 0.0050454023562569806 0 -0.0016919266012260009 0.0050294900358620826 0 -0.0017089482697080583 0.0051264160821885086 0 -0.0016919266012260009 0.0050294900358620826 0 -0.0017267500830179137 0.0049758282466298041 0 -0.0016415641202706804 0.0050454023562569806 0 -0.0016919266012260009 0.0050294900358620826 0 -0.0016891976270557271 0.0049680072030191093 0 -0.00072707051613310979 0.0042110529192065701 0 -0.00089776451353023267 0.0043895391223777724 0 -0.00084599830263873519 0.004235072296799155 0 -0.004130708954107656 0.0029016544260837582 0 -0.0040586088760342044 0.00279529798876071 0 -0.0040919701587116657 0.0026669300446531623 0 -0.00073501614090656247 0.0041677122761316241 0 -0.00080154877793699327 0.0041284758709830638 0 -0.0007047056356574502 0.0039724795524929976 0 -0.0017074944728821047 0.0041677928225240263 0 -0.00077339587330180909 0.0041260563276344191 0 -0.0007438611914372975 0.0042093125315097986 0 -0.00080154877793699327 0.0041284758709830638 0 -0.00084599830263873519 0.004235072296799155 0 -0.0007438611914372975 0.0042093125315097986 0 -0.00073501614090656247 0.0041677122761316241 0 -0.00080154877793699327 0.0041284758709830638 0 -0.0016919266012260009 0.0050294900358620826 0 -0.0016891976270557271 0.0049680072030191093 0 -0.0017267500830179137 0.0049758282466298041 0 -0.0024726803867098431 0.0040129214940587601 0 -0.0017074944728821047 0.0041677928225240263 0 -0.0023805899539884913 0.005142883881629483 0 -0.0024726803867098431 0.0040129214940587601 0 -0.0027490851185337176 0.0043665793151819411 0 -0.0029382839579297194 0.004064191388179662 0 -0.0026497203604930425 0.0040127739825461728 0 -0.0041017367440194684 0.0029420237062663251 0 -0.0040730380155216085 0.0028929448440929376 0 -0.0040246618888467676 0.0029263433213159527 0 -0.0024726803867098431 0.0040129214940587601 0 -0.0033678017447821332 0.003658036174055294 0 -0.0041017367440194684 0.0029420237062663251 0 -0.0040730380155216085 0.0028929448440929376 0 -0.004130708954107656 0.0029016544260837582 0 -0.0017074944728821047 0.0041677928225240263 0 -0.00211200245629845 0.0037354486974398885 0 -0.0018790045427878681 0.0042112152543580051 0 -0.002073903933021184 0.0042457240065869768 0 -0.0020194123976196845 0.0040186733282793338 0 -0.0024726803867098431 0.0040129214940587601 0 -0.00211200245629845 0.0037354486974398885 0 -0.0040730380155216085 0.0028929448440929376 0 -0.004130708954107656 0.0029016544260837582 0 -0.0040586088760342044 0.00279529798876071 0 -0.0040730380155216085 0.0028929448440929376 0 -0.0040586088760342044 0.00279529798876071 0 -0.0040246618888467676 0.0029263433213159527 0 -0.00080154877793699327 0.0041284758709830638 0 -0.00081489936841663195 0.0040514447049483709 0 -0.0007047056356574502 0.0039724795524929976 0 -0.00081489936841663195 0.0040514447049483709 0 -0.00079965153513153388 0.0039646195614194656 0 -0.0007047056356574502 0.0039724795524929976 0 -0.00211200245629845 0.0037354486974398885 0 -0.0023977055004655531 0.0033061045468227904 0 -0.00079965153513153388 0.0039646195614194656 0 -0.00083921545989218839 0.0039043675423422156 0 -0.00076234061977731944 0.0038945857571932464 0 -0.00079965153513153388 0.0039646195614194656 0 -0.0007047056356574502 0.0039724795524929976 0 -0.00076234061977731944 0.0038945857571932464 0 -0.0040586088760342044 0.00279529798876071 0 -0.0039808065727302 0.0026294057299491884 0 -0.0040246618888467676 0.0029263433213159527 0 -0.0041096151554092094 0.0023333576784201789 0 -0.0033678017447821332 0.003658036174055294 0 -0.0041504984851445928 0.0023737530718392868 0 -0.0041274314974592535 0.0024214713479171249 0 -0.0041667825094295055 0.0024707684897628149 0 -0.0040586088760342044 0.00279529798876071 0 -0.0040919701587116657 0.0026669300446531623 0 -0.0039808065727302 0.0026294057299491884 0 -0.0041504984851445928 0.0023737530718392868 0 -0.0041070065384118453 0.0023871125019187481 0 -0.0041176477070578926 0.0023481446393870879 0 -0.0041504984851445928 0.0023737530718392868 0 -0.0041274314974592535 0.0024214713479171249 0 -0.0041070065384118453 0.0023871125019187481 0 -0.0026021322467910529 0.0052606442120737319 0 -0.0026707153113674381 0.0052056656874654196 0 -0.002541836809461144 0.0051895106370279326 0 -0.0041274314974592535 0.0024214713479171249 0 -0.0041667825094295055 0.0024707684897628149 0 -0.0040828808219817584 0.0024413683119486897 0 -0.0033678017447821332 0.003658036174055294 0 -0.0033288953940556255 0.0038420577204666688 0 -0.0023805899539884913 0.005142883881629483 0 -0.0033678017447821332 0.003658036174055294 0 -0.0040828808219817584 0.0024413683119486897 0 -0.0041070065384118453 0.0023871125019187481 0 -0.004079025143174899 0.0023789655994920205 0 -0.0041274314974592535 0.0024214713479171249 0 -0.0040828808219817584 0.0024413683119486897 0 -0.0041070065384118453 0.0023871125019187481 0 -0.0041070065384118453 0.0023871125019187481 0 -0.0040896809827231173 0.0023447204368452611 0 -0.0041176477070578926 0.0023481446393870879 0 -0.0041070065384118453 0.0023871125019187481 0 -0.004079025143174899 0.0023789655994920205 0 -0.0040896809827231173 0.0023447204368452611 0 -0.0040828808219817584 0.0024413683119486897 0 -0.0040509582494624831 0.0023786616405222245 0 -0.0040179725060771054 0.0024204278867264698 0 -0.0040828808219817584 0.0024413683119486897 0 -0.004079025143174899 0.0023789655994920205 0 -0.0040509582494624831 0.0023786616405222245 0 -0.004079025143174899 0.0023789655994920205 0 -0.0040509582494624831 0.0023786616405222245 0 -0.0040655584094731268 0.002342715756759638 0 -0.0024586429680438261 0.0052864490921667 0 -0.002541836809461144 0.0051895106370279326 0 -0.0024403344855861752 0.0051685501022167906 0 -0.0033288953940556255 0.0038420577204666688 0 -0.0032276204163712665 0.0037366012306644003 0 -0.0010648918882874209 0.0045673076753854321 0 -0.0010026851680678796 0.0045054147155821978 0 -0.0010084717283232532 0.0044709640862229194 0 -0.0010648918882874209 0.0045673076753854321 0 -0.0011067526812102398 0.0045659476221129583 0 -0.0011274947400206092 0.0046685461709114065 0 -0.0010648918882874209 0.0045673076753854321 0 -0.0011067526812102398 0.0045659476221129583 0 -0.0010084717283232532 0.0044709640862229194 0 -0.0010435390229914267 0.0044528106685096007 0 -0.0011067526812102398 0.0045659476221129583 0 -0.0010084717283232532 0.0044709640862229194 0 -0.0010267389325008987 0.0046925691907573411 0 -0.0010531001994178472 0.0044379129302746989 0 -0.0012343398707985614 0.0046146472387170448 0 -0.0010435390229914267 0.0044528106685096007 0 -0.0011067526812102398 0.0045659476221129583 0 -0.0010267389325008987 0.0046925691907573411 0 -0.0013345360038006639 0.0048542338409360026 0 -0.0011067526812102398 0.0045659476221129583 0 -0.0011848965534592508 0.0047013914944515119 0 -0.0011274947400206092 0.0046685461709114065 0 -0.0013438801343071609 0.0047708654455213724 0 -0.0013725099218478295 0.0048672389616016302 0 -0.0012903924594735241 0.0048812312045034912 0 -0.0012343398707985614 0.0046146472387170448 0 -0.0012903924594735241 0.0048812312045034912 0 -0.0011848965534592508 0.0047013914944515119 0 -0.0012343398707985614 0.0046146472387170448 0 -0.0011067526812102398 0.0045659476221129583 0 -0.0011848965534592508 0.0047013914944515119 0 -0.0011848965534592508 0.0047013914944515119 0 -0.0011907648542916847 0.0047726402804075078 0 -0.0011274947400206092 0.0046685461709114065 0 -0.0010648918882874209 0.0045673076753854321 0 -0.0011274947400206092 0.0046685461709114065 0 -0.0010827354640097109 0.0046513775749066014 0 -0.001167980487374121 0.004790723056534836 0 -0.0011907648542916847 0.0047726402804075078 0 -0.0011274947400206092 0.0046685461709114065 0 -0.001167980487374121 0.004790723056534836 0 -0.0011274947400206092 0.0046685461709114065 0 -0.0010827354640097109 0.0046513775749066014 0 -0.001111503652929485 0.0047698068526219111 0 -0.001167980487374121 0.004790723056534836 0 -0.0010827354640097109 0.0046513775749066014 0 -0.001111503652929485 0.0047698068526219111 0 -0.0010827354640097109 0.0046513775749066014 0 -0.0010459758693351329 0.0046565376572164814 0 -0.00099516581571492866 0.0048011187742254225 0 -0.0010314837743981545 0.0044858653147049135 0 -0.00093659094307513291 0.0045564370668893959 0 -0.00099516581571492866 0.0048011187742254225 0 -0.001111503652929485 0.0047698068526219111 0 -0.0010459758693351329 0.0046565376572164814 0 -0.00098638638655265134 0.0047811894841178343 0 -0.0010308278009418137 0.0045828738917411309 0 -0.00099516581571492866 0.0048011187742254225 0 -0.00083621713236862192 0.0045708812865078068 0 -0.00093659094307513291 0.0045564370668893959 0 -0.0010314837743981545 0.0044858653147049135 0 -0.00093659094307513291 0.0045564370668893959 0 -0.00089776451353023267 0.0043895391223777724 0 -0.00083621713236862192 0.0045708812865078068 0 -0.00093659094307513291 0.0045564370668893959 0 -0.00089776451353023267 0.0043895391223777724 0 -0.0010314837743981545 0.0044858653147049135 0 -0.00089776451353023267 0.0043895391223777724 0 -0.00096814109873889916 0.0042953506569156424 0 -0.00089776451353023267 0.0043895391223777724 0 -0.00096814109873889916 0.0042953506569156424 0 -0.00084599830263873519 0.004235072296799155 0 -0.0010314837743981545 0.0044858653147049135 0 -0.00096814109873889916 0.0042953506569156424 0 -0.0011014916138095039 0.0042393974005294245 0 -0.0010648918882874209 0.0045673076753854321 0 -0.0010827354640097109 0.0046513775749066014 0 -0.0010026851680678796 0.0045054147155821978 0 -0.0010308278009418137 0.0045828738917411309 0 -0.0010850383084701086 0.0043445742127121278 0 -0.0010827354640097109 0.0046513775749066014 0 -0.0010459758693351329 0.0046565376572164814 0 -0.0010026851680678796 0.0045054147155821978 0 -0.0011014916138095039 0.0042393974005294245 0 -0.00091893039770101414 0.0041456865992554638 0 -0.0009911839666004881 0.0040698915481253558 0 -0.0011014916138095039 0.0042393974005294245 0 -0.0010738803314565208 0.0040396697489022857 0 -0.0009911839666004881 0.0040698915481253558 0 -0.0011014916138095039 0.0042393974005294245 0 -0.0010738803314565208 0.0040396697489022857 0 -0.0011941886690292202 0.0040334724846753742 0 -0.00096814109873889916 0.0042953506569156424 0 -0.0011014916138095039 0.0042393974005294245 0 -0.00091893039770101414 0.0041456865992554638 0 -0.00080154877793699327 0.0041284758709830638 0 -0.00084599830263873519 0.004235072296799155 0 -0.00091893039770101414 0.0041456865992554638 0 -0.00096814109873889916 0.0042953506569156424 0 -0.00084599830263873519 0.004235072296799155 0 -0.00091893039770101414 0.0041456865992554638 0 -0.00080154877793699327 0.0041284758709830638 0 -0.00081489936841663195 0.0040514447049483709 0 -0.00091893039770101414 0.0041456865992554638 0 -0.00081489936841663195 0.0040514447049483709 0 -0.00079965153513153388 0.0039646195614194656 0 -0.00088228696365414045 0.0040120394177588069 0 -0.00081489936841663195 0.0040514447049483709 0 -0.00091893039770101414 0.0041456865992554638 0 -0.00088228696365414045 0.0040120394177588069 0 -0.00088228696365414045 0.0040120394177588069 0 -0.0009911839666004881 0.0040698915481253558 0 -0.00094849392717813886 0.0039642793326372444 0 -0.00091893039770101414 0.0041456865992554638 0 -0.00088228696365414045 0.0040120394177588069 0 -0.0009911839666004881 0.0040698915481253558 0 -0.00088228696365414045 0.0040120394177588069 0 -0.00094849392717813886 0.0039642793326372444 0 -0.00083921545989218839 0.0039043675423422156 0 -0.00079965153513153388 0.0039646195614194656 0 -0.00088228696365414045 0.0040120394177588069 0 -0.00083921545989218839 0.0039043675423422156 0 -0.0010738803314565208 0.0040396697489022857 0 -0.0009911839666004881 0.0040698915481253558 0 -0.00094849392717813886 0.0039642793326372444 0 -0.0010738803314565208 0.0040396697489022857 0 -0.00094849392717813886 0.0039642793326372444 0 -0.0010393615347160288 0.0039253586020938664 0 -0.0010738803314565208 0.0040396697489022857 0 -0.0010393615347160288 0.0039253586020938664 0 -0.0011941886690292202 0.0040334724846753742 0 -0.00089516491022359956 0.0044116204794340105 0 -0.00087724361317977788 0.0043860551598973981 0 -0.00075187805149851236 0.0042538601853815703 0 -0.00091106808689568912 0.0044128085397962822 0 -0.00089516491022359956 0.0044116204794340105 0 -0.00087724361317977788 0.0043860551598973981 0 -0.00093554509643638359 0.0044268050324990016 0 -0.00091106808689568912 0.0044128085397962822 0 -0.00089516491022359956 0.0044116204794340105 0 -0.00089463000953873481 0.0043792529016971954 0 -0.0008553019890848554 0.0043031386021235114 0 -0.00093554509643638359 0.0044268050324990016 0 -0.00091106808689568912 0.0044128085397962822 0 -0.00093298350037460804 0.0044213779195592063 0 -0.0010850383084701086 0.0043445742127121278 0 -0.0008553019890848554 0.0043031386021235114 0 -0.0010026851680678796 0.0045054147155821978 0 -0.00093554509643638359 0.0044268050324990016 0 -0.0010084717283232532 0.0044709640862229194 0 -0.0010026851680678796 0.0045054147155821978 0 -0.00093554509643638359 0.0044268050324990016 0 -0.00092696425639156386 0.0044169738987300663 0 -0.00093554509643638359 0.0044268050324990016 0 -0.0010084717283232532 0.0044709640862229194 0 -0.00093298350037460804 0.0044213779195592063 0 -0.0010435390229914267 0.0044528106685096007 0 -0.0010084717283232532 0.0044709640862229194 0 -0.0009554426285963536 0.0044237439513597123 0 -0.00093298350037460804 0.0044213779195592063 0 -0.0009554426285963536 0.0044237439513597123 0 -0.00090023908040378926 0.0043973795518532236 0 -0.0010084717283232532 0.0044709640862229194 0 -0.00093298350037460804 0.0044213779195592063 0 -0.0009554426285963536 0.0044237439513597123 0 -0.00086897769594475056 0.0043876701139293874 0 -0.0009554426285963536 0.0044237439513597123 0 -0.00090023908040378926 0.0043973795518532236 0 -0.00086897769594475056 0.0043876701139293874 0 -0.00090023908040378926 0.0043973795518532236 0 -0.00085009838619469784 0.004365385397500891 0 -0.00093298350037460804 0.0044213779195592063 0 -0.00090023908040378926 0.0043973795518532236 0 -0.00087724361317977788 0.0043860551598973981 0 -0.00091106808689568912 0.0044128085397962822 0 -0.00093298350037460804 0.0044213779195592063 0 -0.00087724361317977788 0.0043860551598973981 0 -0.00090023908040378926 0.0043973795518532236 0 -0.00087724361317977788 0.0043860551598973981 0 -0.00085009838619469784 0.004365385397500891 0 -0.0007963988436302565 0.0043555882501330502 0 -0.00085009838619469784 0.004365385397500891 0 -0.00079159443363165094 0.0043151593291493049 0 -0.00085009838619469784 0.004365385397500891 0 -0.00079159443363165094 0.0043151593291493049 0 -0.00075187805149851236 0.0042538601853815703 0 -0.00087724361317977788 0.0043860551598973981 0 -0.00085009838619469784 0.004365385397500891 0 -0.00075187805149851236 0.0042538601853815703 0 -0.00075187805149851236 0.0042538601853815703 0 -0.00078093235631216816 0.0041789636573626391 0 -0.0007636058283039223 0.0042657076262823355 0 -0.00079159443363165094 0.0043151593291493049 0 -0.00075187805149851236 0.0042538601853815703 0 -0.0007636058283039223 0.0042657076262823355 0 -0.00075187805149851236 0.0042538601853815703 0 -0.00078093235631216816 0.0041789636573626391 0 -0.00066925802963286555 0.0040746702831783981 0 -0.00075187805149851236 0.0042538601853815703 0 -0.00066925802963286555 0.0040746702831783981 0 -0.00058631599037684099 0.0041638027245528356 0 -0.00078093235631216816 0.0041789636573626391 0 -0.00066925802963286555 0.0040746702831783981 0 -0.00070105852661887693 0.0037917586037155612 0 -0.00066925802963286555 0.0040746702831783981 0 -0.00053683989327235322 0.0039203800919508404 0 -0.00070105852661887693 0.0037917586037155612 0 -0.00066925802963286555 0.0040746702831783981 0 -0.00053683989327235322 0.0039203800919508404 0 -0.00058631599037684099 0.0041638027245528356 0 -0.00053683989327235322 0.0039203800919508404 0 -0.00058631599037684099 0.0041638027245528356 0 -0.00039035288487076911 0.0041877563409455955 0 -0.0008553019890848554 0.0043031386021235114 0 -0.00071617557385803693 0.0043352396777901845 0 -0.00055178842816936064 0.0045476655051128138 0 -0.00056658582166054091 0.0043376599281426476 0 -0.00039035288487076911 0.0041877563409455955 0 -0.0008553019890848554 0.0043031386021235114 0 -0.00072298854244788125 0.0039782501513361528 0 -0.00055178842816936064 0.0045476655051128138 0 -0.00075187805149851236 0.0042538601853815703 0 -0.00056658582166054091 0.0043376599281426476 0 -0.00058631599037684099 0.0041638027245528356 0 -0.00056658582166054091 0.0043376599281426476 0 -0.00039035288487076911 0.0041877563409455955 0 -0.00075187805149851236 0.0042538601853815703 0 -0.00058631599037684099 0.0041638027245528356 0 -0.00056658582166054091 0.0043376599281426476 0 -0.00089890690305848898 0.00384310660364194 0 -0.0010461220499897888 0.0037685392970578185 0 -0.0007923663898103039 0.0036434916764764469 0 -0.0010393615347160288 0.0039253586020938664 0 -0.0011941886690292202 0.0040334724846753742 0 -0.0010461220499897888 0.0037685392970578185 0 -0.0010393615347160288 0.0039253586020938664 0 -0.00089890690305848898 0.00384310660364194 0 -0.0010461220499897888 0.0037685392970578185 0 -0.00094849392717813886 0.0039642793326372444 0 -0.0010393615347160288 0.0039253586020938664 0 -0.00089890690305848898 0.00384310660364194 0 -0.00092819250233307346 0.0038461030417371676 0 -0.00059121915920698021 0.0036787526753657342 0 -0.00089890690305848898 0.00384310660364194 0 -0.00079665822529422132 0.0038412057756637701 0 -0.00078395857452728877 0.0037623738920066502 0 -0.00089890690305848898 0.00384310660364194 0 -0.00083921545989218839 0.0039043675423422156 0 -0.00079665822529422132 0.0038412057756637701 0 -0.00094849392717813886 0.0039642793326372444 0 -0.00089890690305848898 0.00384310660364194 0 -0.00083921545989218839 0.0039043675423422156 0 -0.00089890690305848898 0.00384310660364194 0 -0.0007923663898103039 0.0036434916764764469 0 -0.00062178346475475399 0.0036041335812876159 0 -0.0007923663898103039 0.0036434916764764469 0 -0.00079257947607224669 0.0035000529470868512 0 -0.00067867449306045259 0.0035380347586310996 0 -0.0007923663898103039 0.0036434916764764469 0 -0.00067867449306045259 0.0035380347586310996 0 -0.00062178346475475399 0.0036041335812876159 0 -0.00072298854244788125 0.0039782501513361528 0 -0.00057157690764349472 0.0036456163411184329 0 -0.0010461220499897888 0.0037685392970578185 0 -0.0007923663898103039 0.0036434916764764469 0 -0.00079257947607224669 0.0035000529470868512 0 -0.00053683989327235322 0.0039203800919508404 0 -0.00039035288487076911 0.0041877563409455955 0 -0.00033175941332983785 0.0037405723018594196 0 -0.00033175941332983785 0.0037405723018594196 0 -0.00043361759883734339 0.0035831174361604518 0 -0.00054517739746689185 0.0036131290091755831 0 -0.00053683989327235322 0.0039203800919508404 0 -0.00033175941332983785 0.0037405723018594196 0 -0.00054517739746689185 0.0036131290091755831 0 -0.00079257947607224669 0.0035000529470868512 0 -0.00065813322980044049 0.0035009794360715777 0 -0.00050447635232493508 0.003511803318853284 0 -0.00067867449306045259 0.0035380347586310996 0 -0.00065813322980044049 0.0035009794360715777 0 -0.0006329614988155309 0.0034997805694234902 0 -0.00079257947607224669 0.0035000529470868512 0 -0.00067867449306045259 0.0035380347586310996 0 -0.00065813322980044049 0.0035009794360715777 0 -0.00065813322980044049 0.0035009794360715777 0 -0.00058934478403962608 0.0035032545901401532 0 -0.0006329614988155309 0.0034997805694234902 0 -0.00057157690764349472 0.0036456163411184329 0 -0.00051919417683006671 0.0035394437881331128 0 -0.00033175941332983785 0.0037405723018594196 0 -0.00050447635232493508 0.003511803318853284 0 -0.00043361759883734339 0.0035831174361604518 0 -0.00065813322980044049 0.0035009794360715777 0 -0.00058934478403962608 0.0035032545901401532 0 -0.00050447635232493508 0.003511803318853284 0 -0.00058934478403962608 0.0035032545901401532 0 -0.00050447635232493508 0.003511803318853284 0 -0.00061892121433872996 0.0035117935468122964 0 -0.00050447635232493508 0.003511803318853284 0 -0.00043361759883734339 0.0035831174361604518 0 -0.00045868453410675801 0.003523832093805049 0 -0.00043361759883734339 0.0035831174361604518 0 -0.00056872985002802163 0.0033425927258980618 0 -0.00045868453410675801 0.003523832093805049 0 -0.00054517739746689185 0.0036131290091755831 0 -0.00074312430243576996 0.0034819601619060234 0 -0.00056872985002802163 0.0033425927258980618 0 -0.00043361759883734339 0.0035831174361604518 0 -0.00054517739746689185 0.0036131290091755831 0 -0.00056872985002802163 0.0033425927258980618 0 -0.00054517739746689185 0.0036131290091755831 0 -0.00074312430243576996 0.0034819601619060234 0 -0.00070105852661887693 0.0037917586037155612 0 -0.00074312430243576996 0.0034819601619060234 0 -0.00070105852661887693 0.0037917586037155612 0 -0.001005511490058523 0.0035844724088123195 0 -0.00078093235631216816 0.0041789636573626391 0 -0.00070105852661887693 0.0037917586037155612 0 -0.001005511490058523 0.0035844724088123195 0 -0.00053683989327235322 0.0039203800919508404 0 -0.00054517739746689185 0.0036131290091755831 0 -0.00070105852661887693 0.0037917586037155612 0 -0.0040605620493129021 0.0022809793902896585 0 -0.0040638808133075036 0.0022485182210645505 0 -0.0040428329894519758 0.0022737697176309466 0 -0.0040605620493129021 0.0022809793902896585 0 -0.0040734903018698641 0.0022601766368411241 0 -0.0040638808133075036 0.0022485182210645505 0 -0.0040605620493129021 0.0022809793902896585 0 -0.0040486063586131112 0.0023203140341209287 0 -0.0040786469581294256 0.0022965833841250647 0 -0.0040605620493129021 0.0022809793902896585 0 -0.0040786469581294256 0.0022965833841250647 0 -0.0040734903018698641 0.0022601766368411241 0 -0.0040605620493129021 0.0022809793902896585 0 -0.0040486063586131112 0.0023203140341209287 0 -0.0040428329894519758 0.0022737697176309466 0 -0.0040509582494624831 0.0023786616405222245 0 -0.0040486063586131112 0.0023203140341209287 0 -0.0040202870637766194 0.0023694345078768822 0 -0.0040509582494624831 0.0023786616405222245 0 -0.0040486063586131112 0.0023203140341209287 0 -0.0040655584094731268 0.002342715756759638 0 -0.0040486063586131112 0.0023203140341209287 0 -0.0040655584094731268 0.002342715756759638 0 -0.0040786469581294256 0.0022965833841250647 0 -0.0040655584094731268 0.002342715756759638 0 -0.0040896809827231173 0.0023447204368452611 0 -0.0040786469581294256 0.0022965833841250647 0 -0.0040896809827231173 0.0023447204368452611 0 -0.004100309655634328 0.0023185762089374669 0 -0.0040786469581294256 0.0022965833841250647 0 -0.0041176477070578926 0.0023481446393870879 0 -0.004100309655634328 0.0023185762089374669 0 -0.0041162446699272177 0.0022866279913514916 0 -0.004079025143174899 0.0023789655994920205 0 -0.0040655584094731268 0.002342715756759638 0 -0.0040896809827231173 0.0023447204368452611 0 -0.0040896809827231173 0.0023447204368452611 0 -0.0041176477070578926 0.0023481446393870879 0 -0.004100309655634328 0.0023185762089374669 0 -0.004100309655634328 0.0023185762089374669 0 -0.0040786469581294256 0.0022965833841250647 0 -0.0041162446699272177 0.0022866279913514916 0 -0.0040527860759605305 0.0023776350251314112 0 -0.0040491129236429474 0.0022498355192517717 0 -0.0040734903018698641 0.0022601766368411241 0 -0.0041162446699272177 0.0022866279913514916 0 -0.0040536373454219459 0.0022485217437693689 0 -0.0040786469581294256 0.0022965833841250647 0 -0.0040734903018698641 0.0022601766368411241 0 -0.0041162446699272177 0.0022866279913514916 0 -0.0039811651729727178 0.0023844415406921076 0 -0.0040606385328042964 0.0024242322005128924 0 -0.0040472479837284445 0.0022756537743900979 0 -0.0024418456686998431 0.0030795787961577547 0 -0.0014592742298204181 0.0033068718876550092 0 -0.0023977055004655531 0.0033061045468227904 0 -0.0024418456686998431 0.0030795787961577547 0 -0.0040919701587116657 0.0026669300446531623 0 -0.0039808065727302 0.0026294057299491884 0 -0.0040606385328042964 0.0024242322005128924 0 -0.0039808065727302 0.0026294057299491884 0 -0.0039811651729727178 0.0023844415406921076 0 -0.0040606385328042964 0.0024242322005128924 0 -0.0041504984851445928 0.0023737530718392868 0 -0.0041176477070578926 0.0023481446393870879 0 -0.0041162446699272177 0.0022866279913514916 0 -0.0041096151554092094 0.0023333576784201789 0 -0.0040527860759605305 0.0023776350251314112 0 -0.0006945748536768884 0.0038029172046225457 0 -0.00076234061977731944 0.0038945857571932464 0 -0.00079665822529422132 0.0038412057756637701 0 -0.0007047056356574502 0.0039724795524929976 0 -0.0006945748536768884 0.0038029172046225457 0 -0.00076234061977731944 0.0038945857571932464 0 -0.00083921545989218839 0.0039043675423422156 0 -0.00076234061977731944 0.0038945857571932464 0 -0.00079665822529422132 0.0038412057756637701 0 -0.00059121915920698021 0.0036787526753657342 0 -0.0014592742298204181 0.0033068718876550092 0 -0.0006945748536768884 0.0038029172046225457 0 -0.00079665822529422132 0.0038412057756637701 0 -0.00078395857452728877 0.0037623738920066502 0 -0.0006945748536768884 0.0038029172046225457 0 -0.00078395857452728877 0.0037623738920066502 0 -0.0006739809432220761 0.0036665865440154125 0 -0.00067867449306045259 0.0035380347586310996 0 -0.00062178346475475399 0.0036041335812876159 0 -0.00064052715333708544 0.0035170716604810545 0 -0.00062178346475475399 0.0036041335812876159 0 -0.00064052715333708544 0.0035170716604810545 0 -0.00067448236190190396 0.0034760925900562982 0 -0.00067867449306045259 0.0035380347586310996 0 -0.00064052715333708544 0.0035170716604810545 0 -0.0006329614988155309 0.0034997805694234902 0 -0.00064052715333708544 0.0035170716604810545 0 -0.00065718420981802656 0.0034930790101218466 0 -0.00067448236190190396 0.0034760925900562982 0 -0.00064052715333708544 0.0035170716604810545 0 -0.00065718420981802656 0.0034930790101218466 0 -0.0006329614988155309 0.0034997805694234902 0 -0.00065718420981802656 0.0034930790101218466 0 -0.0006329614988155309 0.0034997805694234902 0 -0.00061892121433872996 0.0035117935468122964 0 -0.00050447635232493508 0.003511803318853284 0 -0.00061892121433872996 0.0035117935468122964 0 -0.00068961465399498139 0.0035756689794156208 0 -0.0015178455280682305 0.0025748210953411661 0 -0.0011605787929320325 0.0027613851190037486 0 -0.00050447635232493508 0.003511803318853284 0 -0.00068961465399498139 0.0035756689794156208 0 -0.00045868453410675801 0.003523832093805049 0 -0.00058934478403962608 0.0035032545901401532 0 -0.0006329614988155309 0.0034997805694234902 0 -0.00061892121433872996 0.0035117935468122964 0 -0.00065718420981802656 0.0034930790101218466 0 -0.00061892121433872996 0.0035117935468122964 0 -0.00068961465399498139 0.0035756689794156208 0 -0.00068961465399498139 0.0035756689794156208 0 -0.00073725119376296397 0.0034882172324191742 0 -0.00095165779512909631 0.0035533227236799331 0 -0.00065718420981802656 0.0034930790101218466 0 -0.00068961465399498139 0.0035756689794156208 0 -0.00073725119376296397 0.0034882172324191742 0 -0.0039811651729727178 0.0023844415406921076 0 -0.0040472479837284445 0.0022756537743900979 0 -0.0040536373454219459 0.0022485217437693689 0 -0.0010587104493989656 0.0033992680778789012 0 -0.0014592742298204181 0.0033068718876550092 0 -0.00065718420981802656 0.0034930790101218466 0 -0.00073725119376296397 0.0034882172324191742 0 -0.00067448236190190396 0.0034760925900562982 0 -0.0014592742298204181 0.0033068718876550092 0 -0.0031610649140108695 0.0025072939439091777 0 -0.00073725119376296397 0.0034882172324191742 0 -0.00071887441289795843 0.0034042336181997102 0 -0.00095165779512909631 0.0035533227236799331 0 -0.0040472479837284445 0.0022756537743900979 0 -0.0040536373454219459 0.0022485217437693689 0 -0.004061105654899355 0.0022219290450552912 0 -0.0040734903018698641 0.0022601766368411241 0 -0.0040536373454219459 0.0022485217437693689 0 -0.0040677032175567276 0.0022303203807011937 0 -0.0040536373454219459 0.0022485217437693689 0 -0.004061105654899355 0.0022219290450552912 0 -0.0040677032175567276 0.0022303203807011937 0 -0.0015178455280682305 0.0025748210953411661 0 -0.0031610649140108695 0.0025072939439091777 0 -0.0031610649140108695 0.0025072939439091777 0 -0.0043719861250747054 0.0021471871339188253 0 -0.0031610649140108695 0.0025072939439091777 0 -0.0040695748750699248 0.0018704021641296103 0 -0.0041148894635998391 0.0021806703782535357 0 -0.0040749714561602165 0.002187651085035448 0 -0.0040839355858907148 0.0021243509289368989 0 -0.004061105654899355 0.0022219290450552912 0 -0.0040677032175567276 0.0022303203807011937 0 -0.0040749714561602165 0.002187651085035448 0 -0.0040677032175567276 0.0022303203807011937 0 -0.0040599860547640143 0.0022218644038560866 0 -0.0040749714561602165 0.002187651085035448 0 -0.0040734903018698641 0.0022601766368411241 0 -0.0040677032175567276 0.0022303203807011937 0 -0.0040638808133075036 0.0022485182210645505 0 -0.0040677032175567276 0.0022303203807011937 0 -0.0040638808133075036 0.0022485182210645505 0 -0.0040599860547640143 0.0022218644038560866 0 -0.0040638808133075036 0.0022485182210645505 0 -0.0040428329894519758 0.0022737697176309466 0 -0.0040599860547640143 0.0022218644038560866 0 -0.0037174357887024838 0.0018975618370053325 0 -0.0038915126421997406 0.0017491255475263513 0 -0.0038831146029745748 0.0018843086371356488 0 -0.0037174357887024838 0.0018975618370053325 0 -0.0037999132062039665 0.0019363431972605192 0 -0.0038831146029745748 0.0018843086371356488 0 -0.0037174357887024838 0.0018975618370053325 0 -0.0036106130441407331 0.0019512904459017466 0 -0.0037999132062039665 0.0019363431972605192 0 -0.0037174357887024838 0.0018975618370053325 0 -0.0036797201074531501 0.0017714256210817805 0 -0.0038915126421997406 0.0017491255475263513 0 -0.0036633692475757881 0.0014404819345793718 0 -0.0036797201074531501 0.0017714256210817805 0 -0.0038915126421997406 0.0017491255475263513 0 -0.0027287029157532575 0.0015306509687104267 0 -0.0036633692475757881 0.0014404819345793718 0 -0.0033501906593790282 0.0019784885373080067 0 -0.0036633692475757881 0.0014404819345793718 0 -0.0036797201074531501 0.0017714256210817805 0 -0.0033501906593790282 0.0019784885373080067 0 -0.0037174357887024838 0.0018975618370053325 0 -0.0036797201074531501 0.0017714256210817805 0 -0.0033501906593790282 0.0019784885373080067 0 -0.0037174357887024838 0.0018975618370053325 0 -0.0033501906593790282 0.0019784885373080067 0 -0.0036106130441407331 0.0019512904459017466 0 -0.0033484214330576326 0.0019803373365387959 0 -0.0030826869823870054 0.0023272614047413114 0 -0.0033501906593790282 0.0019784885373080067 0 -0.0027316322582503281 0.0019909938487566599 0 -0.0024857831567721071 0.0027935478682229696 0 -0.0033501906593790282 0.0019784885373080067 0 -0.0036106130441407331 0.0019512904459017466 0 -0.003669476281484345 0.0019390963621852457 0 -0.0027287029157532575 0.0015306509687104267 0 -0.0033501906593790282 0.0019784885373080067 0 -0.0027316322582503281 0.0019909938487566599 0 -0.0027287029157532575 0.0015306509687104267 0 -0.0022333524804672481 0.0023108903673776794 0 -0.0019294962237095552 0.0021983440933447482 0 -0.0027287029157532575 0.0015306509687104267 0 -0.0027316322582503281 0.0019909938487566599 0 -0.0022333524804672481 0.0023108903673776794 0 -0.0027287029157532575 0.0015306509687104267 0 -0.0017065243356515875 0.002016494493651373 0 -0.0019294962237095552 0.0021983440933447482 0 -0.0022333524804672481 0.0023108903673776794 0 -0.0024857831567721071 0.0027935478682229696 0 -0.0018243036327110142 0.0027763961321947386 0 -0.0027316322582503281 0.0019909938487566599 0 -0.0022333524804672481 0.0023108903673776794 0 -0.0024857831567721071 0.0027935478682229696 0 -0.0027873285125443441 0.0024399148675014241 0 -0.0030826869823870054 0.0023272614047413114 0 -0.001850278421931414 0.0030051837888735774 0 -0.0024857831567721071 0.0027935478682229696 0 -0.0018243036327110142 0.0027763961321947386 0 -0.0037012138998874767 0.0019070688124318877 0 -0.003669476281484345 0.0019390963621852457 0 -0.0037144562724119798 0.0019234529156086503 0 -0.0037012138998874767 0.0019070688124318877 0 -0.0037144562724119798 0.0019234529156086503 0 -0.003736309372930219 0.0019140897788006656 0 -0.0036106130441407331 0.0019512904459017466 0 -0.003669476281484345 0.0019390963621852457 0 -0.0037144562724119798 0.0019234529156086503 0 -0.0036106130441407331 0.0019512904459017466 0 -0.0037144562724119798 0.0019234529156086503 0 -0.0037999132062039665 0.0019363431972605192 0 -0.0037144562724119798 0.0019234529156086503 0 -0.0038845540991476364 0.0019317127772045075 0 -0.0037971871760112755 0.0019270680001237548 0 -0.0037144562724119798 0.0019234529156086503 0 -0.0037999132062039665 0.0019363431972605192 0 -0.0038845540991476364 0.0019317127772045075 0 -0.0011866373644896626 0.0029958556325566862 0 -0.0012741860053442793 0.0025655677942020591 0 -0.0014357077102486065 0.0026000839317663572 0 -0.0011866373644896626 0.0029958556325566862 0 -0.0014357077102486065 0.0026000839317663572 0 -0.0014557229739344628 0.0027898131721650911 0 -0.0011866373644896626 0.0029958556325566862 0 -0.0012741860053442793 0.0025655677942020591 0 -0.00094376158132838299 0.0030974407984440322 0 -0.00074312430243576996 0.0034819601619060234 0 -0.00056872985002802163 0.0033425927258980618 0 -0.00094376158132838299 0.0030974407984440322 0 -0.00093955253827935617 0.0029526543240615375 0 -0.00097047675360988268 0.0030708397149147343 0 -0.0012741860053442793 0.0025655677942020591 0 -0.0015798273266337546 0.0023593142983760443 0 -0.0014357077102486065 0.0026000839317663572 0 -0.00093955253827935617 0.0029526543240615375 0 -0.0011605787929320325 0.0027613851190037486 0 -0.0012741860053442793 0.0025655677942020591 0 -0.0015798273266337546 0.0023593142983760443 0 -0.0017065243356515875 0.002016494493651373 0 -0.0015798273266337546 0.0023593142983760443 0 -0.0019294962237095552 0.0021983440933447482 0 -0.0017251801139326099 0.0024849037774331956 0 -0.0015798273266337546 0.0023593142983760443 0 -0.0017065243356515875 0.002016494493651373 0 -0.0019294962237095552 0.0021983440933447482 0 -0.0022333524804672481 0.0023108903673776794 0 -0.0019294962237095552 0.0021983440933447482 0 -0.0017251801139326099 0.0024849037774331956 0 -0.0017251801139326099 0.0024849037774331956 0 -0.0014557229739344628 0.0027898131721650911 0 -0.0018243036327110142 0.0027763961321947386 0 -0.0022333524804672481 0.0023108903673776794 0 -0.0017251801139326099 0.0024849037774331956 0 -0.0018243036327110142 0.0027763961321947386 0 -0.0015798273266337546 0.0023593142983760443 0 -0.0017251801139326099 0.0024849037774331956 0 -0.0014357077102486065 0.0026000839317663572 0 -0.0017251801139326099 0.0024849037774331956 0 -0.0014357077102486065 0.0026000839317663572 0 -0.0014557229739344628 0.0027898131721650911 0 -0.0014557229739344628 0.0027898131721650911 0 -0.0018243036327110142 0.0027763961321947386 0 -0.0015245208884727157 0.0029235936640870474 0 -0.001850278421931414 0.0030051837888735774 0 -0.0018243036327110142 0.0027763961321947386 0 -0.0015245208884727157 0.0029235936640870474 0 -0.0014557229739344628 0.0027898131721650911 0 -0.0015245208884727157 0.0029235936640870474 0 -0.0013019946206343921 0.0029099123110546497 0 -0.0015245208884727157 0.0029235936640870474 0 -0.0013019946206343921 0.0029099123110546497 0 -0.0013652848572058211 0.0028589863083106131 0 -0.0013019946206343921 0.0029099123110546497 0 -0.0012958159528524609 0.0029167622913899138 0 -0.0013652848572058211 0.0028589863083106131 0 -0.0011866373644896626 0.0029958556325566862 0 -0.0014557229739344628 0.0027898131721650911 0 -0.0013019946206343921 0.0029099123110546497 0 -0.0011866373644896626 0.0029958556325566862 0 -0.0013019946206343921 0.0029099123110546497 0 -0.0012835483685172634 0.0029276279448849766 0 -0.0013019946206343921 0.0029099123110546497 0 -0.0012835483685172634 0.0029276279448849766 0 -0.0012958159528524609 0.0029167622913899138 0 -0.0012852304511030747 0.0029260852197814931 0 -0.0012835483685172634 0.0029276279448849766 0 -0.0012958159528524609 0.0029167622913899138 0 -0.00078935601949795908 0.0036862537898984544 0 -0.0007590327861393166 0.0035558246491211366 0 -0.00097993992148902374 0.003459951439517299 0 -0.0010812461900889783 0.003138603705006801 0 -0.0011043575476077682 0.003214517397093203 0 -0.0010812461900889783 0.003138603705006801 0 -0.00063074187407961119 0.0034240351111551343 0 -0.00073008587815871924 0.0036273765753531096 0 -0.00078935601949795908 0.0036862537898984544 0 -0.00066968109791576327 0.0036630464267019022 0 -0.00073008587815871924 0.0036273765753531096 0 -0.00078935601949795908 0.0036862537898984544 0 -0.0007590327861393166 0.0035558246491211366 0 -0.00073008587815871924 0.0036273765753531096 0 -0.0007590327861393166 0.0035558246491211366 0 -0.00066735254388965712 0.0035529845745293285 0 -0.00074276632992359816 0.0034214874896283244 0 -0.00097993992148902374 0.003459951439517299 0 -0.00090064081189382709 0.0032418527331668835 0 -0.0007590327861393166 0.0035558246491211366 0 -0.00074276632992359816 0.0034214874896283244 0 -0.00097993992148902374 0.003459951439517299 0 -0.0007590327861393166 0.0035558246491211366 0 -0.00074276632992359816 0.0034214874896283244 0 -0.00066735254388965712 0.0035529845745293285 0 -0.0011951885749706833 0.0030204222417274983 0 -0.0011043575476077682 0.003214517397093203 0 -0.0011866373644896626 0.0029958556325566862 0 -0.00097993992148902374 0.003459951439517299 0 -0.00090064081189382709 0.0032418527331668835 0 -0.0011866373644896626 0.0029958556325566862 0 -0.00090064081189382709 0.0032418527331668835 0 -0.00094376158132838299 0.0030974407984440322 0 -0.00090064081189382709 0.0032418527331668835 0 -0.00080593840699959968 0.0032898117017274905 0 -0.00094376158132838299 0.0030974407984440322 0 -0.00074276632992359816 0.0034214874896283244 0 -0.00090064081189382709 0.0032418527331668835 0 -0.00080593840699959968 0.0032898117017274905 0 -0.00080593840699959968 0.0032898117017274905 0 -0.00094376158132838299 0.0030974407984440322 0 -0.000927602384068008 0.0032174369307587619 0 -0.00051159283863085232 0.003466563820230196 0 -0.00062812703655209287 0.0036236458984288972 0 -0.00080593840699959968 0.0032898117017274905 0 -0.0004813952660223223 0.0034445570999989687 0 -0.000927602384068008 0.0032174369307587619 0 -0.00053219918961537312 0.003759396742815219 0 -0.0004813952660223223 0.0034445570999989687 0 -0.00032346291197429334 0.0040254407498692864 0 -0.00074276632992359816 0.0034214874896283244 0 -0.00080593840699959968 0.0032898117017274905 0 -0.00061989950625055475 0.0034264856377792126 0 -0.00080593840699959968 0.0032898117017274905 0 -0.00061989950625055475 0.0034264856377792126 0 -0.0004813952660223223 0.0034445570999989687 0 -0.00061989950625055475 0.0034264856377792126 0 -0.0004813952660223223 0.0034445570999989687 0 -0.00051196334187848282 0.0034553728569954967 0 -0.00053219918961537312 0.003759396742815219 0 -0.0004813952660223223 0.0034445570999989687 0 -0.00047994442640651513 0.0034513679960164272 0 -0.00053219918961537312 0.003759396742815219 0 -0.00047994442640651513 0.0034513679960164272 0 -0.00050598991543737292 0.0034714764538891539 0 -0.0004813952660223223 0.0034445570999989687 0 -0.00047994442640651513 0.0034513679960164272 0 -0.00051196334187848282 0.0034553728569954967 0 -0.00047994442640651513 0.0034513679960164272 0 -0.00051196334187848282 0.0034553728569954967 0 -0.00038184025045269454 0.0034656038610838772 0 -0.00033847094410372283 0.0034585379305498024 0 -0.00027397792330673289 0.0034695699104603395 0 -0.00038184025045269454 0.0034656038610838772 0 -0.00051196334187848282 0.0034553728569954967 0 -0.00052677535532554064 0.0035542950319537 0 -0.00038184025045269454 0.0034656038610838772 0 -0.00051196334187848282 0.0034553728569954967 0 -0.00060221443609351536 0.0034849699578666598 0 -0.00052677535532554064 0.0035542950319537 0 -0.00043699599850543683 0.0035175636183294662 0 -0.00038066524140116607 0.0034626414039650513 0 -0.00074276632992359816 0.0034214874896283244 0 -0.00061989950625055475 0.0034264856377792126 0 -0.00060221443609351536 0.0034849699578666598 0 -0.00061989950625055475 0.0034264856377792126 0 -0.00051196334187848282 0.0034553728569954967 0 -0.00060221443609351536 0.0034849699578666598 0 -0.00060221443609351536 0.0034849699578666598 0 -0.00066735254388965712 0.0035529845745293285 0 -0.00052677535532554064 0.0035542950319537 0 -0.00074276632992359816 0.0034214874896283244 0 -0.00060221443609351536 0.0034849699578666598 0 -0.00066735254388965712 0.0035529845745293285 0 -0.00063074187407961119 0.0034240351111551343 0 -0.00043699599850543683 0.0035175636183294662 0 -0.00066735254388965712 0.0035529845745293285 0 -0.00066968109791576327 0.0036630464267019022 0 -0.00052677535532554064 0.0035542950319537 0 -0.00052402923807736497 0.0035247607884805422 0 -0.00035204922565472971 0.0035091053383586317 0 -0.00044864972613768017 0.0036057394134925212 0 -0.00063074187407961119 0.0034240351111551343 0 -0.000336866217359779 0.003488900471666495 0 -0.00042631476293923161 0.0035189244486485568 0 -0.00033847094410372283 0.0034585379305498024 0 -0.00035204922565472971 0.0035091053383586317 0 -0.00073008587815871924 0.0036273765753531096 0 -0.00066735254388965712 0.0035529845745293285 0 -0.00066968109791576327 0.0036630464267019022 0 -0.00033847094410372283 0.0034585379305498024 0 -0.00035204922565472971 0.0035091053383586317 0 -0.00027397792330673289 0.0034695699104603395 0 -0.00035204922565472971 0.0035091053383586317 0 -0.00027397792330673289 0.0034695699104603395 0 -0.00023211829582652814 0.0035904980315328147 0 -0.00027397792330673289 0.0034695699104603395 0 -3.5752087462742069e-06 0.0034837426149616681 0 -0.00023211829582652814 0.0035904980315328147 0 -0.00027397792330673289 0.0034695699104603395 0 -3.5752087462742069e-06 0.0034837426149616681 0 -0.00026405716802901995 0.0034672449725080415 0 -3.5752087462742069e-06 0.0034837426149616681 0 0.00030349565654183417 0.0031385553276006587 0 0.00036409358044344148 0.0034981036950459082 0 -3.5752087462742069e-06 0.0034837426149616681 0 -0.00029947382892702866 0.00348662978799781 0 -0.00026405716802901995 0.0034672449725080415 0 -1.4903188790930483e-05 0.003519636359909276 0 -1.3119105811072253e-05 0.003283828463903985 0 -0.00029947382892702866 0.00348662978799781 0 -0.00026405716802901995 0.0034672449725080415 0 -0.00037012653487365261 0.0034771446784083461 0 -0.00027397792330673289 0.0034695699104603395 0 -0.00038184025045269454 0.0034656038610838772 0 -0.00026405716802901995 0.0034672449725080415 0 -0.00038184025045269454 0.0034656038610838772 0 -0.00026405716802901995 0.0034672449725080415 0 -0.00037012653487365261 0.0034771446784083461 0 0.00091044778776595045 0.0033509239788778768 0 0.00065323284543993487 0.003296882753815076 0 0.00067134132240200971 0.0035117280155861786 0 0.00093094614524709602 0.0032139462349306275 0 0.00091044778776595045 0.0033509239788778768 0 0.00065323284543993487 0.003296882753815076 0 0.00065323284543993487 0.003296882753815076 0 0.00036409358044344148 0.0034981036950459082 0 0.00067134132240200971 0.0035117280155861786 0 0.00030349565654183417 0.0031385553276006587 0 0.00065323284543993487 0.003296882753815076 0 0.00036409358044344148 0.0034981036950459082 0 0.00030349565654183417 0.0031385553276006587 0 0.00065323284543993487 0.003296882753815076 0 0.000666814558907853 0.0031048180626905863 0 0.00093094614524709602 0.0032139462349306275 0 0.00065323284543993487 0.003296882753815076 0 0.000666814558907853 0.0031048180626905863 0 0.00093876335694965008 0.0030839752813105652 0 0.000666814558907853 0.0031048180626905863 0 0.00072703656338945523 0.0029288325647270456 0 0.00093094614524709602 0.0032139462349306275 0 0.00093876335694965008 0.0030839752813105652 0 0.000666814558907853 0.0031048180626905863 0 0.000666814558907853 0.0031048180626905863 0 0.00072703656338945523 0.0029288325647270456 0 0.00045021628007014999 0.0029259488217140235 0 0.00030349565654183417 0.0031385553276006587 0 0.000666814558907853 0.0031048180626905863 0 0.00045021628007014999 0.0029259488217140235 0 0.0014982173930083991 0.0030848071521795664 0 0.00037038757842225618 0.0034206535254898232 0 0.0018994561338435965 0.0033365559150068478 0 0.0017856918395267383 0.0035491867690668859 0 0.002164389260000346 0.0036059378800256817 0 0.0018994561338435965 0.0033365559150068478 0 0.0022218106224427647 0.0032638034549350658 0 0.002164389260000346 0.0036059378800256817 0 0.00093876335694965008 0.0030839752813105652 0 0.00099817337673610237 0.0030132528032648068 0 0.00072703656338945523 0.0029288325647270456 0 0.0015571089031292578 0.003372568452671274 0 0.0018994561338435965 0.0033365559150068478 0 0.0017856918395267383 0.0035491867690668859 0 0.0012137656046644532 0.0032129215914358522 0 0.0014982173930083991 0.0030848071521795664 0 -0.00050598991543737292 0.0034714764538891539 0 -0.00037012653487365261 0.0034771446784083461 0 -0.00027571809793192119 0.0033849661840548786 0 -0.00038184025045269454 0.0034656038610838772 0 -0.00050598991543737292 0.0034714764538891539 0 -0.00037012653487365261 0.0034771446784083461 0 -0.00047994442640651513 0.0034513679960164272 0 -0.00038184025045269454 0.0034656038610838772 0 -0.00050598991543737292 0.0034714764538891539 0 -1.3119105811072253e-05 0.003283828463903985 0 0.00037038757842225618 0.0034206535254898232 0 -0.00029947382892702866 0.00348662978799781 0 -0.00037012653487365261 0.0034771446784083461 0 -0.00027571809793192119 0.0033849661840548786 0 -0.00089867697996150208 0.0035386914178208383 0 0.00037038757842225618 0.0034206535254898232 0 -0.0009617090691423605 0.0036074124567431268 0 -0.00070528340721425636 0.0038051367169937341 0 -0.0010152022326101011 0.0039697153831198661 0 0.00037038757842225618 0.0034206535254898232 0 0.00058552290222477839 0.0037916280037204268 0 -0.00050598991543737292 0.0034714764538891539 0 -0.0009617090691423605 0.0036074124567431268 0 -0.00070528340721425636 0.0038051367169937341 0 -0.00053219918961537312 0.003759396742815219 0 -0.00050598991543737292 0.0034714764538891539 0 -0.00070528340721425636 0.0038051367169937341 0 -0.00070528340721425636 0.0038051367169937341 0 -0.00058403690342501591 0.0041072196276747096 0 -0.00078731171527232884 0.0040985048799998692 0 -0.00053219918961537312 0.003759396742815219 0 -0.00070528340721425636 0.0038051367169937341 0 -0.00058403690342501591 0.0041072196276747096 0 -0.00078731171527232884 0.0040985048799998692 0 -0.0010152022326101011 0.0039697153831198661 0 -0.0010825294204715376 0.0043185815264748699 0 -0.00070528340721425636 0.0038051367169937341 0 -0.00078731171527232884 0.0040985048799998692 0 -0.0010152022326101011 0.0039697153831198661 0 -0.00078731171527232884 0.0040985048799998692 0 -0.00067752711169975831 0.0043583678786734215 0 -0.0010825294204715376 0.0043185815264748699 0 -0.00058403690342501591 0.0041072196276747096 0 -0.00078731171527232884 0.0040985048799998692 0 -0.00067752711169975831 0.0043583678786734215 0 -0.00058403690342501591 0.0041072196276747096 0 -0.00067752711169975831 0.0043583678786734215 0 -0.00045768987376592322 0.0044775580448228481 0 0.0015412625813659899 0.003638834344624415 0 0.0017856918395267383 0.0035491867690668859 0 0.0017133169607640726 0.0038245887648093719 0 0.0017856918395267383 0.0035491867690668859 0 0.0019269692914325519 0.0037961222014864979 0 0.0017133169607640726 0.0038245887648093719 0 0.00058552290222477839 0.0037916280037204268 0 0.00052466930732846591 0.0041120434339121555 0 0.002164389260000346 0.0036059378800256817 0 0.0019269692914325519 0.0037961222014864979 0 0.0020950095377332313 0.0039919144960489997 0 0.0017856918395267383 0.0035491867690668859 0 0.002164389260000346 0.0036059378800256817 0 0.0019269692914325519 0.0037961222014864979 0 0.0019269692914325519 0.0037961222014864979 0 0.0020950095377332313 0.0039919144960489997 0 0.0018040726978693668 0.0041023902461210108 0 0.0014344363455683108 0.0040366127268991409 0 0.0018040726978693668 0.0041023902461210108 0 0.0017133169607640726 0.0038245887648093719 0 0.0019269692914325519 0.0037961222014864979 0 0.0018040726978693668 0.0041023902461210108 0 0.0017133169607640726 0.0038245887648093719 0 0.00094720009527887673 0.0049473431784102326 0 0.00017033768873460115 0.0047704040713369136 0 0.0015424946232431662 0.0043228755770733842 0 0.0018040726978693668 0.0041023902461210108 0 0.0020012263999570137 0.0043712548664528884 0 0.0020950095377332313 0.0039919144960489997 0 0.0018040726978693668 0.0041023902461210108 0 0.0020012263999570137 0.0043712548664528884 0 0.00052466930732846591 0.0041120434339121555 0 0.00017033768873460115 0.0047704040713369136 0 -0.00024820245690835842 0.0051752269105238852 0 -0.00035917948894908586 0.0050692165398760342 0 -0.00038732524049238615 0.0050330429985888936 0 -0.00037032361771629244 0.0053948339660530717 0 0.00017033768873460115 0.0047704040713369136 0 5.6721052457919933e-05 0.005515470849928256 0 -0.00029057432675340779 0.0055098399952848319 0 -0.00010355643431470742 0.0053818413965658332 0 -0.00024820245690835842 0.0051752269105238852 0 -0.00029057432675340779 0.0055098399952848319 0 -0.00010355643431470742 0.0053818413965658332 0 5.6721052457919933e-05 0.005515470849928256 0 6.2502546545383065e-06 0.0052750811622392377 0 -0.00010355643431470742 0.0053818413965658332 0 -0.00067752711169975831 0.0043583678786734215 0 -0.00055791912008922528 0.0048237530978708565 0 -0.00045768987376592322 0.0044775580448228481 0 0.00017033768873460115 0.0047704040713369136 0 -0.00094237624638847731 0.0048583978339221609 0 -0.00067752711169975831 0.0043583678786734215 0 -0.0010825294204715376 0.0043185815264748699 0 -0.00055791912008922528 0.0048237530978708565 0 -0.0010825294204715376 0.0043185815264748699 0 -0.0011639521286244345 0.0047678566588918968 0 -0.00055791912008922528 0.0048237530978708565 0 -0.00035917948894908586 0.0050692165398760342 0 -0.00038732524049238615 0.0050330429985888936 0 -0.00055791912008922528 0.0048237530978708565 0 -0.00035670119028165915 0.0050958241375162264 0 -0.00038732524049238615 0.0050330429985888936 0 -0.00055791912008922528 0.0048237530978708565 0 -0.00033429135179007425 0.0050022829750701577 0 -0.00055791912008922528 0.0048237530978708565 0 -0.00045768987376592322 0.0044775580448228481 0 -0.00070678747568408648 0.0044632991838761656 0 -0.00045768987376592322 0.0044775580448228481 0 -0.00060044633603051811 0.0044167852192207877 0 -0.00052194796971828054 0.0047424376814554671 0 -0.0004668034166743457 0.004513288700916252 0 -0.00045768987376592322 0.0044775580448228481 0 -0.00052501446246024477 0.0043611605091161409 0 -0.00060044633603051811 0.0044167852192207877 0 -0.00045768987376592322 0.0044775580448228481 0 -0.00052501446246024477 0.0043611605091161409 0 -0.00042801071044922451 0.0042270383666182312 0 -0.00052501446246024477 0.0043611605091161409 0 -0.00060044633603051811 0.0044167852192207877 0 -0.00062575655243299983 0.0043836723343732139 0 -0.00052501446246024477 0.0043611605091161409 0 -0.00062575655243299983 0.0043836723343732139 0 -0.00065244322061955252 0.004295817025390186 0 -0.00062575655243299983 0.0043836723343732139 0 -0.0007387832399596881 0.0043167388544661641 0 -0.00065244322061955252 0.004295817025390186 0 -0.0007963988436302565 0.0043555882501330502 0 -0.00062575655243299983 0.0043836723343732139 0 -0.0007387832399596881 0.0043167388544661641 0 -0.0007963988436302565 0.0043555882501330502 0 -0.00079159443363165094 0.0043151593291493049 0 -0.0007387832399596881 0.0043167388544661641 0 -0.0007387832399596881 0.0043167388544661641 0 -0.0007636058283039223 0.0042657076262823355 0 -0.00065244322061955252 0.004295817025390186 0 -0.00079159443363165094 0.0043151593291493049 0 -0.0007387832399596881 0.0043167388544661641 0 -0.0007636058283039223 0.0042657076262823355 0 -0.00076171932767871338 0.0041584759024652154 0 -0.00074278358988108517 0.0039420928165735045 0 -0.00078093235631216816 0.0041789636573626391 0 -0.00065244322061955252 0.004295817025390186 0 -0.00049622901074060637 0.0043056463058982397 0 -0.00078093235631216816 0.0041789636573626391 0 -0.0007636058283039223 0.0042657076262823355 0 -0.00065244322061955252 0.004295817025390186 0 -0.00052501446246024477 0.0043611605091161409 0 -0.00065244322061955252 0.004295817025390186 0 -0.00049622901074060637 0.0043056463058982397 0 -0.00074312430243576996 0.0034819601619060234 0 -0.00094376158132838299 0.0030974407984440322 0 -0.001005511490058523 0.0035844724088123195 0 -0.00094376158132838299 0.0030974407984440322 0 -0.001005511490058523 0.0035844724088123195 0 -0.000927602384068008 0.0032174369307587619 0 -0.00052501446246024477 0.0043611605091161409 0 -0.00049622901074060637 0.0043056463058982397 0 -0.00042801071044922451 0.0042270383666182312 0 -0.00074278358988108517 0.0039420928165735045 0 -0.00062812703655209287 0.0036236458984288972 0 -0.00049622901074060637 0.0043056463058982397 0 -0.00032346291197429334 0.0040254407498692864 0 -0.00042801071044922451 0.0042270383666182312 0 -0.00053219918961537312 0.003759396742815219 0 -0.00032346291197429334 0.0040254407498692864 0 -0.00042801071044922451 0.0042270383666182312 0 -0.00053219918961537312 0.003759396742815219 0 -0.00058403690342501591 0.0041072196276747096 0 -0.00042801071044922451 0.0042270383666182312 0 -0.00058403690342501591 0.0041072196276747096 0 -0.00045768987376592322 0.0044775580448228481 0 -0.00042801071044922451 0.0042270383666182312 0 -0.0051892778611345039 0.0039197318827168502 0 -0.0052734513628803171 0.00409733202324247 0 -0.0050000003269184464 0.0041502295551957029 0 -0.0051892778611345039 0.0039197318827168502 0 -0.0053545140689697946 0.003904960225884655 0 -0.0052734513628803171 0.00409733202324247 0 -0.0051892778611345039 0.0039197318827168502 0 -0.004999995685074898 0.0038787597097990141 0 -0.0050000003269184464 0.0041502295551957029 0 -0.0051892778611345039 0.0039197318827168502 0 -0.004999995685074898 0.0038787597097990141 0 -0.0051624546100270093 0.0036788538113955633 0 -0.0051892778611345039 0.0039197318827168502 0 -0.0053233064847538264 0.0037417727496692403 0 -0.0051624546100270093 0.0036788538113955633 0 -0.0051892778611345039 0.0039197318827168502 0 -0.0053545140689697946 0.003904960225884655 0 -0.0053233064847538264 0.0037417727496692403 0 -0.0054492961186094896 0.0038365157340133692 0 -0.0053233064847538264 0.0037417727496692403 0 -0.0054592569902456823 0.0036716970188912842 0 -0.0054492961186094896 0.0038365157340133692 0 -0.0053545140689697946 0.003904960225884655 0 -0.0053233064847538264 0.0037417727496692403 0 -0.0054492961186094896 0.0038365157340133692 0 -0.0054879582284780631 0.0039407128072836434 0 -0.0053545140689697946 0.003904960225884655 0 -0.0047494018432242139 0.0028206293519367326 0 -0.0047313525097263292 0.0028623294993965621 0 -0.0047729048268522123 0.0027563380073688821 0 -0.0049814649409827376 0.0032816972460221494 0 -0.0051550849733833417 0.0032472977217678353 0 -0.0054492961186094896 0.0038365157340133692 0 -0.0055952149655706749 0.0039085472804300135 0 -0.0054592569902456823 0.0036716970188912842 0 -0.0054492961186094896 0.0038365157340133692 0 -0.0055952149655706749 0.0039085472804300135 0 -0.0054879582284780631 0.0039407128072836434 0 -0.0047494018432242139 0.0028206293519367326 0 -0.0047186365380899519 0.0029152125739129418 0 -0.0047563569615207881 0.0028679027877629442 0 -0.0047935705625180569 0.0027629528818969734 0 -0.0049814649409827376 0.0032816972460221494 0 -0.0049690229780814258 0.0033941451330911066 0 -0.0048529555037987752 0.0033992179700741668 0 -0.0055991573946419159 0.0039476472731940484 0 -0.0055435664772741089 0.0040494726502393582 0 -0.0055046559849179135 0.0041531743448153672 0 -0.0049690229780814258 0.0033941451330911066 0 -0.0051711881982090188 0.0040708136622790393 0 -0.0055991573946419159 0.0039476472731940484 0 -0.0055952149655706749 0.0039085472804300135 0 -0.0054879582284780631 0.0039407128072836434 0 -0.0049690229780814258 0.0033941451330911066 0 -0.0049184323981899033 0.0032168700896968759 0 -0.0049690229780814258 0.0033941451330911066 0 -0.0049814649409827376 0.0032816972460221494 0 -0.0049184323981899033 0.0032168700896968759 0 -0.0049814649409827376 0.0032816972460221494 0 -0.0049886312533641581 0.0032820788923697566 0 -0.0049943089905192225 0.0032704681456940891 0 -0.00498687790369282 0.0032576607888062941 0 -0.0047278156652213769 0.0029311020640236667 0 -0.0047186365380899519 0.0029152125739129418 0 -0.0047369723123674703 0.0029109044133118849 0 -0.0055991573946419159 0.0039476472731940484 0 -0.0054879582284780631 0.0039407128072836434 0 -0.0055435664772741089 0.0040494726502393582 0 -0.0054879582284780631 0.0039407128072836434 0 -0.0055435664772741089 0.0040494726502393582 0 -0.0052734513628803171 0.00409733202324247 0 -0.0054879582284780631 0.0039407128072836434 0 -0.0053545140689697946 0.003904960225884655 0 -0.0052734513628803171 0.00409733202324247 0 -0.0055305771463615549 0.0040526588518427706 0 -0.0052738928066134233 0.0041002829444850694 0 -0.0055046559849179135 0.0041531743448153672 0 -0.0053121853280252247 0.0042436920199343349 0 -0.0052686833994339379 0.0041047906475386196 0 -0.0055435664772741089 0.0040494726502393582 0 -0.0055046559849179135 0.0041531743448153672 0 -0.0052686833994339379 0.0041047906475386196 0 -0.0049445943995052536 0.0039807105973471198 0 -0.0050398539984871649 0.0041252044678643457 0 -0.0050164772415135315 0.0038222367804077355 0 -0.0049894855392785637 0.0035128056593377154 0 -0.0048111169142325081 0.003893270089063493 0 -0.0050164772415135315 0.0038222367804077355 0 -0.0048111169142325081 0.003893270089063493 0 -0.0049445943995052536 0.0039807105973471198 0 -0.0050164772415135315 0.0038222367804077355 0 -0.0048111169142325081 0.003893270089063493 0 -0.0049445943995052536 0.0039807105973471198 0 -0.0049065797825356052 0.0041110900038497404 0 -0.0048111169142325081 0.003893270089063493 0 -0.0049065797825356052 0.0041110900038497404 0 -0.0048094404749140698 0.0042223924822161292 0 -0.0051711881982090188 0.0040708136622790393 0 -0.0050377574870015349 0.0042777934777255573 0 -0.0048111169142325081 0.003893270089063493 0 -0.0048094404749140698 0.0042223924822161292 0 -0.0046460639989205927 0.0042587151087221577 0 -0.0049333269416482264 0.0040156487549704014 0 -0.004747186646742908 0.0039321129225090741 0 -0.0049445943995052536 0.0039807105973471198 0 -0.0049065797825356052 0.0041110900038497404 0 -0.0050398539984871649 0.0041252044678643457 0 -0.0048094404749140698 0.0042223924822161292 0 -0.0046460639989205927 0.0042587151087221577 0 -0.0047499410376757806 0.0043861745097772834 0 -0.0049065797825356052 0.0041110900038497404 0 -0.0049420864756592776 0.0042716251520743924 0 -0.0050330369559925797 0.0041266097399148523 0 -0.0049065797825356052 0.0041110900038497404 0 -0.0048094404749140698 0.0042223924822161292 0 -0.0049420864756592776 0.0042716251520743924 0 -0.0053121853280252247 0.0042436920199343349 0 -0.0054090757253298883 0.0043548796955938324 0 -0.005232683622105193 0.0043844578420510621 0 -0.0055046559849179135 0.0041531743448153672 0 -0.0053121853280252247 0.0042436920199343349 0 -0.0054090757253298883 0.0043548796955938324 0 -0.0053121853280252247 0.0042436920199343349 0 -0.0051590656329855234 0.004243625806709176 0 -0.005232683622105193 0.0043844578420510621 0 -0.0053121853280252247 0.0042436920199343349 0 -0.0051590656329855234 0.004243625806709176 0 -0.0052686833994339379 0.0041047906475386196 0 -0.0051590656329855234 0.004243625806709176 0 -0.0052686833994339379 0.0041047906475386196 0 -0.004999995879989132 0.0041502431610298835 0 -0.0052738928066134233 0.0041002829444850694 0 -0.005000041314406344 0.0041502276031783591 0 -0.0051590656329855234 0.004243625806709176 0 -0.0049999972069890873 0.0043828164371111445 0 -0.005232683622105193 0.0043844578420510621 0 -0.0051590656329855234 0.004243625806709176 0 -0.004999995879989132 0.0041502431610298835 0 -0.0049999972069890873 0.0043828164371111445 0 -0.0049999972069890873 0.0043828164371111445 0 -0.0051573410750948272 0.0045827159451277393 0 -0.0049999956764345439 0.0046153920678713668 0 -0.0049999972069890873 0.0043828164371111445 0 -0.005232683622105193 0.0043844578420510621 0 -0.0051573410750948272 0.0045827159451277393 0 -0.005232683622105193 0.0043844578420510621 0 -0.0051573410750948272 0.0045827159451277393 0 -0.0053143098420939602 0.0045522956092849086 0 -0.0048024833295478696 0.0049422272889248471 0 -0.0048904745604638027 0.0048678807782659176 0 -0.0047876040914409954 0.0049793939080934905 0 -0.0050336813139631046 0.0047097257429639548 0 -0.0048604948955594416 0.0046857221182853336 0 -0.0048024833295478696 0.0049422272889248471 0 -0.0048904745604638027 0.0048678807782659176 0 -0.0048745275759663276 0.0049100987178638802 0 -0.0048024833295478696 0.0049422272889248471 0 -0.0048745275759663276 0.0049100987178638802 0 -0.004766537715463379 0.0049620991126364533 0 -0.0048904745604638027 0.0048678807782659176 0 -0.0049996985829530976 0.0046164973094688063 0 -0.0048745275759663276 0.0049100987178638802 0 -0.0050336813139631046 0.0047097257429639548 0 -0.0049999458577870554 0.0046154788302017104 0 -0.0049996985829530976 0.0046164973094688063 0 -0.0049998568426142687 0.0049996067920060963 0 -0.0048745275759663276 0.0049100987178638802 0 -0.0049998568426142687 0.0049996067920060963 0 -0.0048745275759663276 0.0049100987178638802 0 -0.0045959744730173302 0.0049998869437674282 0 -0.0048745275759663276 0.0049100987178638802 0 -0.0047196574671276607 0.0050027408180521324 0 -0.004766537715463379 0.0049620991126364533 0 -0.0045959744730173302 0.0049998869437674282 0 -0.0045110382611033353 0.0050494639770648046 0 -0.0042947978437282647 0.0049999083706246221 0 -0.0045959744730173302 0.0049998869437674282 0 -0.0047196574671276607 0.0050027408180521324 0 -0.0045110382611033353 0.0050494639770648046 0 -0.0048745275759663276 0.0049100987178638802 0 -0.0045959744730173302 0.0049998869437674282 0 -0.0047196574671276607 0.0050027408180521324 0 -0.0047196574671276607 0.0050027408180521324 0 -0.004766537715463379 0.0049620991126364533 0 -0.0047727071036718751 0.0049560777068281252 0 -0.0047173348228471568 0.005013603328493918 0 -0.0046708650861808469 0.0050805701668137646 0 -0.0047196574671276607 0.0050027408180521324 0 -0.0045110382611033353 0.0050494639770648046 0 -0.0045384602801100803 0.0052123447446097747 0 -0.0045110382611033353 0.0050494639770648046 0 -0.0045384602801100803 0.0052123447446097747 0 -0.0043881553354888575 0.0051225380002112445 0 -0.0045384602801100803 0.0052123447446097747 0 -0.0044137237120878371 0.0053316785460884187 0 -0.0043881553354888575 0.0051225380002112445 0 -0.0047997614422806466 0.0049546565992477773 0 -0.0047915914724390007 0.0049420665324672961 0 -0.0048039656273289565 0.0049407644058350117 0 -0.0047997614422806466 0.0049546565992477773 0 -0.0047727071036718751 0.0049560777068281252 0 -0.0047915914724390007 0.0049420665324672961 0 -0.0046708650861808469 0.0050805701668137646 0 -0.0045664248137690785 0.0051027334253217829 0 -0.0048604948955594416 0.0046857221182853336 0 -0.0048148947798451027 0.0047418811556317149 0 -0.0047784444271105203 0.0049516411436963609 0 -0.0047837892351777593 0.0049535213801779636 0 -0.0047915914724390007 0.0049420665324672961 0 -0.0048024833295478696 0.0049422272889248471 0 -0.004766537715463379 0.0049620991126364533 0 -0.0047784444271105203 0.0049516411436963609 0 -0.004766537715463379 0.0049620991126364533 0 -0.0047727071036718751 0.0049560777068281252 0 -0.0047784444271105203 0.0049516411436963609 0 -0.0047196574671276607 0.0050027408180521324 0 -0.0047997614422806466 0.0049546565992477773 0 -0.0047727071036718751 0.0049560777068281252 0 -0.0047727071036718751 0.0049560777068281252 0 -0.0047784444271105203 0.0049516411436963609 0 -0.0047915914724390007 0.0049420665324672961 0 -0.0048024833295478696 0.0049422272889248471 0 -0.0047784444271105203 0.0049516411436963609 0 -0.0047837892351777593 0.0049535213801779636 0 -0.0047931066025170988 0.0048633395999467645 0 -0.0048604948955594416 0.0046857221182853336 0 -0.0050377574870015349 0.0042777934777255573 0 -0.0048604948955594416 0.0046857221182853336 0 -0.0054090757253298883 0.0043548796955938324 0 -0.005232683622105193 0.0043844578420510621 0 -0.0053143098420939602 0.0045522956092849086 0 -0.0044866499714884484 0.0046059182892497505 0 -0.0047691463853905399 0.0045528628540988858 0 -0.0047499410376757806 0.0043861745097772834 0 -0.0046460639989205927 0.0042587151087221577 0 -0.0044866499714884484 0.0046059182892497505 0 -0.0047499410376757806 0.0043861745097772834 0 -0.0047691463853905399 0.0045528628540988858 0 -0.0048988002857956328 0.0043989844494084886 0 -0.0050619791925537788 0.0044976656291100302 0 -0.0048148947798451027 0.0047418811556317149 0 -0.0045664248137690785 0.0051027334253217829 0 -0.0047691463853905399 0.0045528628540988858 0 -0.0047499410376757806 0.0043861745097772834 0 -0.0048988002857956328 0.0043989844494084886 0 -0.0048094404749140698 0.0042223924822161292 0 -0.0047499410376757806 0.0043861745097772834 0 -0.0048988002857956328 0.0043989844494084886 0 -0.0048094404749140698 0.0042223924822161292 0 -0.0049420864756592776 0.0042716251520743924 0 -0.0048988002857956328 0.0043989844494084886 0 -0.0049420864756592776 0.0042716251520743924 0 -0.0048988002857956328 0.0043989844494084886 0 -0.0050619791925537788 0.0044976656291100302 0 -0.0045664248137690785 0.0051027334253217829 0 -0.0044786179368197258 0.0045182121484988206 0 -0.0045664248137690785 0.0051027334253217829 0 -0.004747186646742908 0.0039321129225090741 0 -0.0043044764508962481 0.0054470292682434751 0 -0.0041465777773730056 0.0054728477109781959 0 -0.0041818485074371454 0.0053286457555023654 0 -0.0045664248137690785 0.0051027334253217829 0 -0.0041453529088451057 0.0054610858026978874 0 -0.0049420864756592776 0.0042716251520743924 0 -0.0050619791925537788 0.0044976656291100302 0 -0.0050330369559925797 0.0041266097399148523 0 -0.0041453529088451057 0.0054610858026978874 0 -0.0040276044666163729 0.0054834055814946955 0 -0.0042282202339270596 0.0054295101823531051 0 -0.0040844634444809581 0.0055389365618450101 0 -0.0039896722688919544 0.0054917499822077246 0 -0.0044759622370746316 0.0053836674257544855 0 -0.0042282202339270596 0.0054295101823531051 0 -0.0042042898333443084 0.0056434055014840199 0 -0.0042282202339270596 0.0054295101823531051 0 -0.0040844634444809581 0.0055389365618450101 0 -0.0042042898333443084 0.0056434055014840199 0 -0.0041465777773730056 0.0054728477109781959 0 -0.0040423521612248728 0.0053167750703068421 0 -0.0039951274584671646 0.0054059527333952971 0 -0.0041465777773730056 0.0054728477109781959 0 -0.0041818485074371454 0.0053286457555023654 0 -0.0040423521612248728 0.0053167750703068421 0 -0.0045664248137690785 0.0051027334253217829 0 -0.0043157096570890299 0.0052298950881213713 0 -0.0043044764508962481 0.0054470292682434751 0 -0.0041818485074371454 0.0053286457555023654 0 -0.0042905858979746716 0.005226438396803988 0 -0.0041818485074371454 0.0053286457555023654 0 -0.0042905858979746716 0.005226438396803988 0 -0.0041240566946956726 0.0051823671373752113 0 -0.0041818485074371454 0.0053286457555023654 0 -0.0041240566946956726 0.0051823671373752113 0 -0.0040423521612248728 0.0053167750703068421 0 -0.0041240566946956726 0.0051823671373752113 0 -0.0040742261540122112 0.0049999911742861485 0 -0.0042946333602188616 0.0049999963950332809 0 -0.0043157096570890299 0.0052298950881213713 0 -0.0042946999624859658 0.004999926964892383 0 -0.0045110382611033353 0.0050494639770648046 0 -0.0043881553354888575 0.0051225380002112445 0 -0.0042947978437282647 0.0049999083706246221 0 -0.0042905858979746716 0.005226438396803988 0 -0.0041240566946956726 0.0051823671373752113 0 -0.0042946333602188616 0.0049999963950332809 0 -0.0038537697792925315 0.0049999936309891588 0 -0.0039430422787450053 0.005171975924971573 0 -0.0037442046780636496 0.0051694303957104991 0 -0.0041240566946956726 0.0051823671373752113 0 -0.0040742261540122112 0.0049999911742861485 0 -0.0039430422787450053 0.005171975924971573 0 -0.0040742261540122112 0.0049999911742861485 0 -0.0038537697792925315 0.0049999936309891588 0 -0.0039430422787450053 0.005171975924971573 0 -0.0039430422787450053 0.005171975924971573 0 -0.0038467964582664495 0.0053258665453706647 0 -0.0040423521612248728 0.0053167750703068421 0 -0.0041240566946956726 0.0051823671373752113 0 -0.0039430422787450053 0.005171975924971573 0 -0.0040423521612248728 0.0053167750703068421 0 -0.0038178351666709638 0.0053083237677294991 0 -0.0037177333286422753 0.0051526814847550123 0 -0.0039430422787450053 0.005171975924971573 0 -0.0038467964582664495 0.0053258665453706647 0 -0.0037442046780636496 0.0051694303957104991 0 -0.0038178351666709638 0.0053083237677294991 0 -0.0039153637846431255 0.0054583296110328802 0 -0.0037818982871405836 0.0052816348044702624 0 -0.0038062462666154889 0.0054327618101095093 0 -0.0036828743475492928 0.0053918727851800042 0 -0.0038467964582664495 0.0053258665453706647 0 -0.0039951274584671646 0.0054059527333952971 0 -0.0039270179490943531 0.0054691342972777628 0 -0.0038467964582664495 0.0053258665453706647 0 -0.0040423521612248728 0.0053167750703068421 0 -0.0039951274584671646 0.0054059527333952971 0 -0.0041465777773730056 0.0054728477109781959 0 -0.0039951274584671646 0.0054059527333952971 0 -0.0039896722688919544 0.0054917499822077246 0 -0.0039951274584671646 0.0054059527333952971 0 -0.0039270179490943531 0.0054691342972777628 0 -0.0039896722688919544 0.0054917499822077246 0 -0.0039386632404462404 0.0055326885780325021 0 -0.0038730758759869745 0.0055125835161380235 0 -0.0039082611885031303 0.0056105823325378551 0 -0.0039270179490943531 0.0054691342972777628 0 -0.0039386632404462404 0.0055326885780325021 0 -0.0038730758759869745 0.0055125835161380235 0 -0.0039270179490943531 0.0054691342972777628 0 -0.0039386632404462404 0.0055326885780325021 0 -0.0039896722688919544 0.0054917499822077246 0 -0.0039386632404462404 0.0055326885780325021 0 -0.0040844634444809581 0.0055389365618450101 0 -0.0039896722688919544 0.0054917499822077246 0 -0.0037818982871405836 0.0052816348044702624 0 -0.0039270179490943531 0.0054691342972777628 0 -0.0038062462666154889 0.0054327618101095093 0 -0.0038062462666154889 0.0054327618101095093 0 -0.0037835637189797301 0.0055185942559942735 0 -0.0036828743475492928 0.0053918727851800042 0 -0.0038062462666154889 0.0054327618101095093 0 -0.0038730758759869745 0.0055125835161380235 0 -0.0037835637189797301 0.0055185942559942735 0 -0.0038730758759869745 0.0055125835161380235 0 -0.0037835637189797301 0.0055185942559942735 0 -0.0039082611885031303 0.0056105823325378551 0 -0.0039270179490943531 0.0054691342972777628 0 -0.0038062462666154889 0.0054327618101095093 0 -0.0038730758759869745 0.0055125835161380235 0 -0.0037835637189797301 0.0055185942559942735 0 -0.0039082611885031303 0.0056105823325378551 0 -0.0036470474344002706 0.0055729221545265974 0 -0.0041493017313284954 0.0045170327513572176 0 -0.0042012225051799648 0.0044671370094007158 0 -0.0041014766102926989 0.0044637860206445616 0 -0.0040523865623964626 0.0050721747168338627 0 -0.0036947738360639752 0.0051434064217857752 0 -0.0036656580958131751 0.0048725642198319923 0 -0.0036947738360639752 0.0051434064217857752 0 -0.0031584813862980785 0.0051818750821974579 0 -0.0031636765029128752 0.0051167871298026264 0 -0.0033183863711000257 0.0052712298367949698 0 -0.0031584813862980785 0.0051818750821974579 0 -0.0031636765029128752 0.0051167871298026264 0 -0.0029955845630110435 0.0049303832350552825 0 -0.0036656580958131751 0.0048725642198319923 0 -0.0042697467626333502 0.0038553514910679111 0 -0.0031636765029128752 0.0051167871298026264 0 -0.0031669489214668752 0.0049876604230193484 0 -0.0029955845630110435 0.0049303832350552825 0 -0.0031669489214668752 0.0049876604230193484 0 -0.0029955845630110435 0.0049303832350552825 0 -0.0032039887825848546 0.0048878894791046339 0 -0.0031669489214668752 0.0049876604230193484 0 -0.0032039887825848546 0.0048878894791046339 0 -0.0032785496461040227 0.0049987803773428241 0 -0.0031636765029128752 0.0051167871298026264 0 -0.0031669489214668752 0.0049876604230193484 0 -0.0032785496461040227 0.0049987803773428241 0 -0.0041493017313284954 0.0045170327513572176 0 -0.0041960229262817421 0.004569231188535092 0 -0.0042482765363487957 0.0045230675257410258 0 -0.005077601762071721 0.0030640120830910419 0 -0.0049819537438544207 0.0031615726969167791 0 -0.0049222433616801908 0.0030294684565509464 0 -0.0042697467626333502 0.0038553514910679111 0 -0.0047121176928401299 0.003750588968973765 0 -0.0040844634444809581 0.0055389365618450101 0 -0.0039082611885031303 0.0056105823325378551 0 -0.0042042898333443084 0.0056434055014840199 0 -0.0042482765363487957 0.0045230675257410258 0 -0.0042012225051799648 0.0044671370094007158 0 -0.0043022413299386806 0.0044740110129814588 0 -0.0040523865623964626 0.0050721747168338627 0 -0.0044786179368197258 0.0045182121484988206 0 -0.0041493017313284954 0.0045170327513572176 0 -0.0042482765363487957 0.0045230675257410258 0 -0.0042012225051799648 0.0044671370094007158 0 -0.0039386632404462404 0.0055326885780325021 0 -0.0040844634444809581 0.0055389365618450101 0 -0.0039082611885031303 0.0056105823325378551 0 -0.0047121176928401299 0.003750588968973765 0 -0.0044786179368197258 0.0045182121484988206 0 -0.0045073120605972827 0.0047147772648184925 0 -0.0047520590649743899 0.0044730057457459281 0 -0.0044834670418432811 0.0044425968767364621 0 -0.0044786179368197258 0.0045182121484988206 0 -0.004747186646742908 0.0039321129225090741 0 -0.0048846453365264325 0.0032639037591569286 0 -0.0047112492709123618 0.0032457127243483517 0 -0.0047871557286061099 0.0031609894001331188 0 -0.0047112492709123618 0.0032457127243483517 0 -0.0047871557286061099 0.0031609894001331188 0 -0.004702080962522893 0.003102283297464121 0 -0.004747186646742908 0.0039321129225090741 0 -0.0048529555037987752 0.0033992179700741668 0 -0.0047871557286061099 0.0031609894001331188 0 -0.0047845930655742233 0.0030816435029150978 0 -0.0048641913230124947 0.0031180090613429517 0 -0.0047845930655742233 0.0030816435029150978 0 -0.0048641913230124947 0.0031180090613429517 0 -0.0048241992293576366 0.0030207484063532655 0 -0.0047845930655742233 0.0030816435029150978 0 -0.004702080962522893 0.003102283297464121 0 -0.0047431271789675012 0.0030072790490530692 0 -0.0047871557286061099 0.0031609894001331188 0 -0.0047845930655742233 0.0030816435029150978 0 -0.004702080962522893 0.003102283297464121 0 -0.0049819537438544207 0.0031615726969167791 0 -0.0048846453365264325 0.0032639037591569286 0 -0.0048641913230124947 0.0031180090613429517 0 -0.0048846453365264325 0.0032639037591569286 0 -0.0047871557286061099 0.0031609894001331188 0 -0.0048641913230124947 0.0031180090613429517 0 -0.0048641913230124947 0.0031180090613429517 0 -0.0049222433616801908 0.0030294684565509464 0 -0.0048241992293576366 0.0030207484063532655 0 -0.0049819537438544207 0.0031615726969167791 0 -0.0048641913230124947 0.0031180090613429517 0 -0.0049222433616801908 0.0030294684565509464 0 -0.0049222433616801908 0.0030294684565509464 0 -0.0048424450620110802 0.0029304019515333816 0 -0.0049486178195797849 0.0028878815259740596 0 -0.0049222433616801908 0.0030294684565509464 0 -0.0048424450620110802 0.0029304019515333816 0 -0.0048241992293576366 0.0030207484063532655 0 -0.0046970256330862133 0.0029580936741558607 0 -0.004702080962522893 0.003102283297464121 0 -0.0047431271789675012 0.0030072790490530692 0 -0.0047431271789675012 0.0030072790490530692 0 -0.0048241992293576366 0.0030207484063532655 0 -0.0047879787133529765 0.0029575990978045678 0 -0.0047845930655742233 0.0030816435029150978 0 -0.0047431271789675012 0.0030072790490530692 0 -0.0048241992293576366 0.0030207484063532655 0 -0.0048424450620110802 0.0029304019515333816 0 -0.0048241992293576366 0.0030207484063532655 0 -0.0047879787133529765 0.0029575990978045678 0 -0.0048424450620110802 0.0029304019515333816 0 -0.0047879787133529765 0.0029575990978045678 0 -0.0047763653539911206 0.0029018323099954356 0 -0.0047431271789675012 0.0030072790490530692 0 -0.0047879787133529765 0.0029575990978045678 0 -0.0047529641498251559 0.0029410417187519279 0 -0.0047879787133529765 0.0029575990978045678 0 -0.0047529641498251559 0.0029410417187519279 0 -0.0047763653539911206 0.0029018323099954356 0 -0.0047529641498251559 0.0029410417187519279 0 -0.0047369723123674703 0.0029109044133118849 0 -0.0047763653539911206 0.0029018323099954356 0 -0.0047197500443390931 0.0029358977387356415 0 -0.0047529641498251559 0.0029410417187519279 0 -0.0047369723123674703 0.0029109044133118849 0 -0.0049184323981899033 0.0032168700896968759 0 -0.0049190923698774888 0.0031561038549819207 0 -0.0046970256330862133 0.0029580936741558607 0 -0.0047049157614405292 0.0029423552240545655 0 -0.0047431271789675012 0.0030072790490530692 0 -0.0049184323981899033 0.0032168700896968759 0 -0.0047475819482298105 0.0029724728314993966 0 -0.0047197500443390931 0.0029358977387356415 0 -0.0047431271789675012 0.0030072790490530692 0 -0.0047529641498251559 0.0029410417187519279 0 -0.0047494018432242139 0.0028206293519367326 0 -0.0047920091816287032 0.0028430528019859993 0 -0.0047588389994993501 0.0027643921862398175 0 -0.0047563569615207881 0.0028679027877629442 0 -0.0047763653539911206 0.0029018323099954356 0 -0.0047920091816287032 0.0028430528019859993 0 -0.0047186365380899519 0.0029152125739129418 0 -0.0047369723123674703 0.0029109044133118849 0 -0.0047563569615207881 0.0028679027877629442 0 -0.0047369723123674703 0.0029109044133118849 0 -0.0047563569615207881 0.0028679027877629442 0 -0.0047763653539911206 0.0029018323099954356 0 -0.0048424450620110802 0.0029304019515333816 0 -0.0047763653539911206 0.0029018323099954356 0 -0.0047920091816287032 0.0028430528019859993 0 -0.0047494018432242139 0.0028206293519367326 0 -0.0047563569615207881 0.0028679027877629442 0 -0.0047920091816287032 0.0028430528019859993 0 -0.0047920091816287032 0.0028430528019859993 0 -0.0049486178195797849 0.0028878815259740596 0 -0.0048172641352783544 0.0027651362796672434 0 -0.0048424450620110802 0.0029304019515333816 0 -0.0047920091816287032 0.0028430528019859993 0 -0.0049486178195797849 0.0028878815259740596 0 -0.0048606421454143213 0.0027177386017826041 0 -0.0047598490065304732 0.0028033727722085134 0 -0.0046870921640264438 0.0028064241903076716 0 -0.0046886270111984561 0.0028117295909790277 0 -0.0046931207777743521 0.0027994856248908999 0 -0.0046886270111984561 0.0028117295909790277 0 -0.0046896119744245695 0.0028151087073696513 0 -0.0046907417465840802 0.0028023217023615812 0 -0.0046886270111984561 0.0028117295909790277 0 -0.0046907417465840802 0.0028023217023615812 0 -0.0046931207777743521 0.0027994856248908999 0 -0.0029955845630110435 0.0049303832350552825 0 -0.0032039887825848546 0.0048878894791046339 0 -0.0032591343642714102 0.0046740659954236626 0 -0.0042697467626333502 0.0038553514910679111 0 -0.0038884110687239016 0.0038212801214908307 0 -0.0046842976734879508 0.0028291206889286 0 -0.0046886270111984561 0.0028117295909790277 0 -0.0046896119744245695 0.0028151087073696513 0 -0.0046842976734879508 0.0028291206889286 0 -0.0046870921640264438 0.0028064241903076716 0 -0.0046886270111984561 0.0028117295909790277 0 -0.005077601762071721 0.0030640120830910419 0 -0.0049222433616801908 0.0030294684565509464 0 -0.0049486178195797849 0.0028878815259740596 0 -0.0042697467626333502 0.0038553514910679111 0 -0.0048606421454143213 0.0027177386017826041 0 -0.0034795864117478886 0.004760072410598907 0 -0.0036747582286915108 0.0049101199680604193 0 -0.0034213612136089143 0.0048998558273681643 0 -0.0034795864117478886 0.004760072410598907 0 -0.0036747582286915108 0.0049101199680604193 0 -0.0035270849059514052 0.0046158648781938353 0 -0.0036732760615671195 0.0052044348646900981 0 -0.0036777353083891733 0.0037385818498958515 0 -0.0034795864117478886 0.004760072410598907 0 -0.0032591343642714102 0.0046740659954236626 0 -0.0035270849059514052 0.0046158648781938353 0 -0.0032039887825848546 0.0048878894791046339 0 -0.0034213612136089143 0.0048998558273681643 0 -0.0032591343642714102 0.0046740659954236626 0 -0.0034795864117478886 0.004760072410598907 0 -0.0034213612136089143 0.0048998558273681643 0 -0.0032591343642714102 0.0046740659954236626 0 -0.0046896119744245695 0.0028151087073696513 0 -0.0046881078891294215 0.0028083497564529332 0 -0.0046907417465840802 0.0028023217023615812 0 -0.0038884110687239016 0.0038212801214908307 0 -0.0041154507701200863 0.0032776630733900533 0 -0.0032591343642714102 0.0046740659954236626 0 -0.0035270849059514052 0.0046158648781938353 0 -0.0035159013744613509 0.0044159326127674245 0 -0.0035270849059514052 0.0046158648781938353 0 -0.0036436315148621369 0.0044392928903510568 0 -0.0035159013744613509 0.0044159326127674245 0 -0.0036747582286915108 0.0049101199680604193 0 -0.0035270849059514052 0.0046158648781938353 0 -0.0036436315148621369 0.0044392928903510568 0 -0.0036777353083891733 0.0037385818498958515 0 -0.0041154507701200863 0.0032776630733900533 0 -0.0036747582286915108 0.0049101199680604193 0 -0.0036126748864365415 0.0044834942577520551 0 -0.003792644717502654 0.0046818981757345592 0 -0.0036777353083891733 0.0037385818498958515 0 -0.0039152494548283208 0.003465420333429422 0 -0.0036688990337737687 0.0025073193499957668 0 -0.003793599943906534 0.0025271114563672347 0 -0.003726004935130733 0.0024671715358906992 0 -0.003792644717502654 0.0046818981757345592 0 -0.0039897907602298209 0.004554116738045704 0 -0.0039398387919126598 0.0048035888219781515 0 -0.0036126748864365415 0.0044834942577520551 0 -0.003792644717502654 0.0046818981757345592 0 -0.0039897907602298209 0.004554116738045704 0 -0.0039897907602298209 0.004554116738045704 0 -0.0039398387919126598 0.0048035888219781515 0 -0.004152736533998733 0.004757834187745503 0 -0.0039398387919126598 0.0048035888219781515 0 -0.0041082650491736285 0.0049842301551423938 0 -0.004152736533998733 0.004757834187745503 0 -0.0036747582286915108 0.0049101199680604193 0 -0.0039398387919126598 0.0048035888219781515 0 -0.0038886994808320975 0.0049871310418834252 0 -0.0036747582286915108 0.0049101199680604193 0 -0.003792644717502654 0.0046818981757345592 0 -0.0039398387919126598 0.0048035888219781515 0 -0.0036747582286915108 0.0049101199680604193 0 -0.0038886994808320975 0.0049871310418834252 0 -0.003750528701910782 0.0050797640758942948 0 -0.0038886994808320975 0.0049871310418834252 0 -0.003750528701910782 0.0050797640758942948 0 -0.0039456866133249285 0.0051146763270471839 0 -0.0039398387919126598 0.0048035888219781515 0 -0.0038886994808320975 0.0049871310418834252 0 -0.0041082650491736285 0.0049842301551423938 0 -0.0038886994808320975 0.0049871310418834252 0 -0.0041082650491736285 0.0049842301551423938 0 -0.0039456866133249285 0.0051146763270471839 0 -0.0041082650491736285 0.0049842301551423938 0 -0.0039456866133249285 0.0051146763270471839 0 -0.0040621003456726432 0.0051660642030223868 0 -0.0041082650491736285 0.0049842301551423938 0 -0.0040621003456726432 0.0051660642030223868 0 -0.0041823252346207254 0.005165572512191954 0 -0.0039666689857630272 0.0054158334138386865 0 -0.0038200771310876367 0.0053225696507533012 0 -0.0042268969479956212 0.0053752093986104985 0 -0.0038609431616519253 0.0052930562758196865 0 -0.0042078931220564907 0.0053713795275268251 0 -0.0040621003456726432 0.0051660642030223868 0 -0.0038817573932784458 0.005255985954211664 0 -0.0041449410109141204 0.0052768945601254008 0 -0.0038817573932784458 0.005255985954211664 0 -0.0041449410109141204 0.0052768945601254008 0 -0.0042268969479956212 0.0053752093986104985 0 -0.0039456866133249285 0.0051146763270471839 0 -0.0040621003456726432 0.0051660642030223868 0 -0.0038817573932784458 0.005255985954211664 0 -0.0039666689857630272 0.0054158334138386865 0 -0.0038200771310876367 0.0053225696507533012 0 -0.0038023457404473254 0.0054815069129625109 0 -0.0034559164657877155 0.0053783300931103161 0 -0.003618569067188751 0.0054836160615200635 0 -0.0038609431616519253 0.0052930562758196865 0 -0.0034995649723905632 0.0052157519004213792 0 -0.003750528701910782 0.0050797640758942948 0 -0.0038817573932784458 0.005255985954211664 0 -0.0035414340388598103 0.0051712451264663752 0 -0.0038200771310876367 0.0053225696507533012 0 -0.0034755408327628089 0.005376903126734894 0 -0.0038023457404473254 0.0054815069129625109 0 -0.003750528701910782 0.0050797640758942948 0 -0.0039456866133249285 0.0051146763270471839 0 -0.0038817573932784458 0.005255985954211664 0 -0.0038200771310876367 0.0053225696507533012 0 -0.0034755408327628089 0.005376903126734894 0 -0.0034717341839678945 0.0052718738254654719 0 -0.0034755408327628089 0.005376903126734894 0 -0.0034728742593896438 0.0054158134852794401 0 -0.0034234936774441556 0.0054328998920094079 0 -0.0034755408327628089 0.005376903126734894 0 -0.0033058582942813663 0.0054001313683880873 0 -0.0034728742593896438 0.0054158134852794401 0 -0.0034755408327628089 0.005376903126734894 0 -0.0034717341839678945 0.0052718738254654719 0 -0.0033183863711000257 0.0052712298367949698 0 -0.003750528701910782 0.0050797640758942948 0 -0.0035414340388598103 0.0051712451264663752 0 -0.0035587750827098192 0.0050213272356090695 0 -0.0036747582286915108 0.0049101199680604193 0 -0.0034213612136089143 0.0048998558273681643 0 -0.0035587750827098192 0.0050213272356090695 0 -0.0035414340388598103 0.0051712451264663752 0 -0.0035587750827098192 0.0050213272356090695 0 -0.0033948972892235696 0.0050399062403901195 0 -0.0036747582286915108 0.0049101199680604193 0 -0.003750528701910782 0.0050797640758942948 0 -0.0035587750827098192 0.0050213272356090695 0 -0.0031636765029128752 0.0051167871298026264 0 -0.0035414340388598103 0.0051712451264663752 0 -0.0033948972892235696 0.0050399062403901195 0 -0.0031766668079608157 0.0051246752053009754 0 -0.0034995649723905632 0.0052157519004213792 0 -0.0032039887825848546 0.0048878894791046339 0 -0.0034213612136089143 0.0048998558273681643 0 -0.0032785496461040227 0.0049987803773428241 0 -0.0034213612136089143 0.0048998558273681643 0 -0.0032785496461040227 0.0049987803773428241 0 -0.0033948972892235696 0.0050399062403901195 0 -0.0034213612136089143 0.0048998558273681643 0 -0.0035587750827098192 0.0050213272356090695 0 -0.0033948972892235696 0.0050399062403901195 0 -0.0031636765029128752 0.0051167871298026264 0 -0.0032785496461040227 0.0049987803773428241 0 -0.0033948972892235696 0.0050399062403901195 0 -0.0031636765029128752 0.0051167871298026264 0 -0.0034717341839678945 0.0052718738254654719 0 -0.0033183863711000257 0.0052712298367949698 0 -0.0031584813862980785 0.0051818750821974579 0 -0.0033183863711000257 0.0052712298367949698 0 -0.0033058582942813663 0.0054001313683880873 0 -0.0036947738360639752 0.0051434064217857752 0 -0.0033826158710973842 0.0054322909522553251 0 -0.0034755408327628089 0.005376903126734894 0 -0.0033183863711000257 0.0052712298367949698 0 -0.0033058582942813663 0.0054001313683880873 0 -0.0036470474344002706 0.0055729221545265974 0 -0.0035337097734917176 0.0053998764969417955 0 -0.0036828743475492928 0.0053918727851800042 0 -0.0037835637189797301 0.0055185942559942735 0 -0.0036470474344002706 0.0055729221545265974 0 -0.0036828743475492928 0.0053918727851800042 0 -0.0035581641294777184 0.0054358917954179182 0 -0.0035337097734917176 0.0053998764969417955 0 -0.0034728742593896438 0.0054158134852794401 0 -0.0036947738360639752 0.0051434064217857752 0 -0.0035853282077309111 0.005478549452157238 0 -0.0034728742593896438 0.0054158134852794401 0 -0.0034724444950140006 0.0053972336833850096 0 -0.0034234936774441556 0.0054328998920094079 0 -0.0035337097734917176 0.0053998764969417955 0 -0.0034728742593896438 0.0054158134852794401 0 -0.0034724444950140006 0.0053972336833850096 0 -0.0035337097734917176 0.0053998764969417955 0 -0.0034724444950140006 0.0053972336833850096 0 -0.003483474232552239 0.0053413768009918121 0 -0.0034724444950140006 0.0053972336833850096 0 -0.003430036142441363 0.0053751563316794815 0 -0.0034234936774441556 0.0054328998920094079 0 -0.0034724444950140006 0.0053972336833850096 0 -0.003483474232552239 0.0053413768009918121 0 -0.003430036142441363 0.0053751563316794815 0 -0.0035584972985621128 0.0052548298611493679 0 -0.003483474232552239 0.0053413768009918121 0 -0.0034010682625000687 0.0052836448417930794 0 -0.0035337097734917176 0.0053998764969417955 0 -0.0035584972985621128 0.0052548298611493679 0 -0.003483474232552239 0.0053413768009918121 0 -0.003483474232552239 0.0053413768009918121 0 -0.0034010682625000687 0.0052836448417930794 0 -0.003430036142441363 0.0053751563316794815 0 -0.0037818982871405836 0.0052816348044702624 0 -0.0036828743475492928 0.0053918727851800042 0 -0.0035584972985621128 0.0052548298611493679 0 -0.0035337097734917176 0.0053998764969417955 0 -0.0036828743475492928 0.0053918727851800042 0 -0.0035584972985621128 0.0052548298611493679 0 -0.0035584972985621128 0.0052548298611493679 0 -0.0036904143175717987 0.0051423240023344072 0 -0.0034867035182846316 0.0051401407839263931 0 -0.0037818982871405836 0.0052816348044702624 0 -0.0035584972985621128 0.0052548298611493679 0 -0.0036904143175717987 0.0051423240023344072 0 -0.0035584972985621128 0.0052548298611493679 0 -0.0034867035182846316 0.0051401407839263931 0 -0.0034010682625000687 0.0052836448417930794 0 -0.0034867035182846316 0.0051401407839263931 0 -0.0036332082434160878 0.0049999756165910849 0 -0.0033436556321937566 0.0049999993562961868 0 -0.0036904143175717987 0.0051423240023344072 0 -0.0034867035182846316 0.0051401407839263931 0 -0.0036332082434160878 0.0049999756165910849 0 -0.0037177333286422753 0.0051526814847550123 0 -0.003633322231967947 0.0050000327715996424 0 -0.0038537697792925315 0.0049999936309891588 0 -0.0037442046780636496 0.0051694303957104991 0 -0.0036333232262242238 0.0049999965507169734 0 -0.0032081279526393848 0.0051116453761707271 0 -0.0033436556321937566 0.0049999993562961868 0 -0.0030539876806873517 0.0049999137265805899 0 -0.0032081279526393848 0.0051116453761707271 0 -0.0033436556321937566 0.0049999993562961868 0 -0.0033425177298453831 0.0051554401003860986 0 -0.0034867035182846316 0.0051401407839263931 0 -0.0033436556321937566 0.0049999993562961868 0 -0.0033425177298453831 0.0051554401003860986 0 -0.0033425177298453831 0.0051554401003860986 0 -0.0032820755035075002 0.0052468173432917665 0 -0.0034010682625000687 0.0052836448417930794 0 -0.0034867035182846316 0.0051401407839263931 0 -0.0033425177298453831 0.0051554401003860986 0 -0.0034010682625000687 0.0052836448417930794 0 -0.0032081279526393848 0.0051116453761707271 0 -0.0031565796772666833 0.0052498484386623769 0 -0.0030630432189911166 0.0051345215736952558 0 -0.0032081279526393848 0.0051116453761707271 0 -0.0032820755035075002 0.0052468173432917665 0 -0.0031565796772666833 0.0052498484386623769 0 -0.0032081279526393848 0.0051116453761707271 0 -0.0033425177298453831 0.0051554401003860986 0 -0.0032820755035075002 0.0052468173432917665 0 -0.0031565796772666833 0.0052498484386623769 0 -0.0032294065875410637 0.0052961236598734161 0 -0.0032127988980136446 0.0053562481151825971 0 -0.0032820755035075002 0.0052468173432917665 0 -0.0031565796772666833 0.0052498484386623769 0 -0.0032294065875410637 0.0052961236598734161 0 -0.0031565796772666833 0.0052498484386623769 0 -0.0032127988980136446 0.0053562481151825971 0 -0.0031397523763593304 0.005404479244858768 0 -0.0032820755035075002 0.0052468173432917665 0 -0.0032294065875410637 0.0052961236598734161 0 -0.0032943895493142065 0.005345271708285239 0 -0.0032294065875410637 0.0052961236598734161 0 -0.0032943895493142065 0.005345271708285239 0 -0.0032127988980136446 0.0053562481151825971 0 -0.0032820755035075002 0.0052468173432917665 0 -0.0032943895493142065 0.005345271708285239 0 -0.0034010682625000687 0.0052836448417930794 0 -0.0032943895493142065 0.005345271708285239 0 -0.0034010682625000687 0.0052836448417930794 0 -0.0033750780997861092 0.0053875252539075137 0 -0.0034010682625000687 0.0052836448417930794 0 -0.003430036142441363 0.0053751563316794815 0 -0.0033750780997861092 0.0053875252539075137 0 -0.0032943895493142065 0.005345271708285239 0 -0.0033750780997861092 0.0053875252539075137 0 -0.0033694972540000393 0.0054641963370395128 0 -0.0034755408327628089 0.005376903126734894 0 -0.0033694972540000393 0.0054641963370395128 0 -0.0034234936774441556 0.0054328998920094079 0 -0.003430036142441363 0.0053751563316794815 0 -0.0033750780997861092 0.0053875252539075137 0 -0.0034234936774441556 0.0054328998920094079 0 -0.0033750780997861092 0.0053875252539075137 0 -0.0033694972540000393 0.0054641963370395128 0 -0.0034234936774441556 0.0054328998920094079 0 -0.0032127988980136446 0.0053562481151825971 0 -0.0033694972540000393 0.0054641963370395128 0 -0.0031397523763593304 0.005404479244858768 0 -0.0032943895493142065 0.005345271708285239 0 -0.0032127988980136446 0.0053562481151825971 0 -0.0033694972540000393 0.0054641963370395128 0 -0.003618569067188751 0.0054836160615200635 0 -0.0034834991654591808 0.0054371268489542121 0 -0.0039666689857630272 0.0054158334138386865 0 -0.0040246230902548355 0.0054752660078898731 0 -0.0042268969479956212 0.0053752093986104985 0 -0.0038023457404473254 0.0054815069129625109 0 -0.0040246230902548355 0.0054752660078898731 0 -0.0041670056799531707 0.0056314629874706455 0 -0.0039666689857630272 0.0054158334138386865 0 -0.0038023457404473254 0.0054815069129625109 0 -0.0040246230902548355 0.0054752660078898731 0 -0.0041670056799531707 0.0056314629874706455 0 -0.0042268969479956212 0.0053752093986104985 0 -0.0042494163553106088 0.0053476668824504652 0 -0.0034834991654591808 0.0054371268489542121 0 -0.0038354566210798339 0.0053192402275396219 0 -0.0033850426183656577 0.0054141364659760901 0 -0.0034130391334088891 0.0053569540242033673 0 -0.0034036249453776981 0.0053527065793035128 0 -0.0040246230902548355 0.0054752660078898731 0 -0.0041670056799531707 0.0056314629874706455 0 -0.0042268969479956212 0.0053752093986104985 0 -0.0030795487923704697 0.0053498832802176058 0 -0.0031033195375082148 0.0054023194506057359 0 -0.0033850426183656577 0.0054141364659760901 0 -0.0034038250510891126 0.0054225111449017604 0 -0.0034130391334088891 0.0053569540242033673 0 -0.0034834991654591808 0.0054371268489542121 0 -0.0030795487923704697 0.0053498832802176058 0 -0.0027590476826710314 0.0053619083740269998 0 -0.0028164365119496908 0.0053379731903661796 0 -0.0028082180245231499 0.0053994437528447469 0 -0.0027590476826710314 0.0053619083740269998 0 -0.0028164365119496908 0.0053379731903661796 0 -0.0027573030968680921 0.0052995769898660453 0 -0.0030795487923704697 0.0053498832802176058 0 -0.0027084762126366306 0.0053058310648666767 0 -0.0029282388900892919 0.0053157387063787935 0 -0.0030242463314373849 0.0054445222093324258 0 -0.0027573030968680921 0.0052995769898660453 0 -0.0029282388900892919 0.0053157387063787935 0 -0.0030448312552725136 0.0052696081324139022 0 -0.0028903214453944578 0.005248268968261886 0 -0.0029282388900892919 0.0053157387063787935 0 -0.0028903214453944578 0.005248268968261886 0 -0.0027573030968680921 0.0052995769898660453 0 -0.0031565796772666833 0.0052498484386623769 0 -0.0030933325365478316 0.0054843995592228816 0 -0.0030448312552725136 0.0052696081324139022 0 -0.0030933325365478316 0.0054843995592228816 0 -0.003028105723697677 0.0054562526472203198 0 -0.0030448312552725136 0.0052696081324139022 0 -0.0031135428554722434 0.0052933764850587204 0 -0.0034834991654591808 0.0054371268489542121 0 -0.0030795487923704697 0.0053498832802176058 0 -0.0030423756013648441 0.0053250497472298059 0 -0.0029282388900892919 0.0053157387063787935 0 -0.0030242463314373849 0.0054445222093324258 0 -0.0030448312552725136 0.0052696081324139022 0 -0.0031565796772666833 0.0052498484386623769 0 -0.0030630432189911166 0.0051345215736952558 0 -0.0030448312552725136 0.0052696081324139022 0 -0.0030448312552725136 0.0052696081324139022 0 -0.0028903214453944578 0.005248268968261886 0 -0.0029496841338476254 0.0051998574556980431 0 -0.0030630432189911166 0.0051345215736952558 0 -0.0030448312552725136 0.0052696081324139022 0 -0.0029496841338476254 0.0051998574556980431 0 -0.0028903214453944578 0.005248268968261886 0 -0.0029496841338476254 0.0051998574556980431 0 -0.0028046627023014885 0.005151329235119813 0 -0.0030630432189911166 0.0051345215736952558 0 -0.0029496841338476254 0.0051998574556980431 0 -0.0028046627023014885 0.005151329235119813 0 -0.0028903214453944578 0.005248268968261886 0 -0.0028046627023014885 0.005151329235119813 0 -0.0027573030968680921 0.0052995769898660453 0 -0.0028090307150696447 0.0051636634227029228 0 -0.0030539061230569135 0.0050000250612239451 0 -0.0028151182200309146 0.00517355071643216 0 -0.0030539471317403608 0.0049999999273590305 0 -0.00276378645830336 0.0049999916865102337 0 -0.0032081279526393848 0.0051116453761707271 0 -0.0030630432189911166 0.0051345215736952558 0 -0.0030539876806873517 0.0049999137265805899 0 -0.0030630432189911166 0.0051345215736952558 0 -0.0028046627023014885 0.005151329235119813 0 -0.0030539876806873517 0.0049999137265805899 0 -0.0025150156116256787 0.005180677059896271 0 -0.0024737438638336396 0.0049999938320919278 0 -0.0025836038982306798 0.0051046160685029604 0 -0.0024737438638336396 0.0049999938320919278 0 -0.0025836038982306798 0.0051046160685029604 0 -0.00276378645830336 0.0049999916865102337 0 -0.0025836038982306798 0.0051046160685029604 0 -0.00276378645830336 0.0049999916865102337 0 -0.0026595849723254085 0.0051834741949985308 0 -0.0028151182200309146 0.00517355071643216 0 -0.00276378645830336 0.0049999916865102337 0 -0.0026595849723254085 0.0051834741949985308 0 -0.0028046627023014885 0.005151329235119813 0 -0.0026146991163683532 0.0052984764437499334 0 -0.0027573030968680921 0.0052995769898660453 0 -0.0028090307150696447 0.0051636634227029228 0 -0.0026254744892177041 0.0052931076020430639 0 -0.0028151182200309146 0.00517355071643216 0 -0.0026595849723254085 0.0051834741949985308 0 -0.0026146991163683532 0.0052984764437499334 0 -0.0025150156116256787 0.005180677059896271 0 -0.0025836038982306798 0.0051046160685029604 0 -0.0025874147841740522 0.0052295065192339875 0 -0.0026595849723254085 0.0051834741949985308 0 -0.0025874147841740522 0.0052295065192339875 0 -0.0026146991163683532 0.0052984764437499334 0 -0.0025836038982306798 0.0051046160685029604 0 -0.0026595849723254085 0.0051834741949985308 0 -0.0025874147841740522 0.0052295065192339875 0 -0.0025150156116256787 0.005180677059896271 0 -0.002550596837609696 0.0053138766043810742 0 -0.0025874147841740522 0.0052295065192339875 0 -0.002550596837609696 0.0053138766043810742 0 -0.0025874147841740522 0.0052295065192339875 0 -0.0026146991163683532 0.0052984764437499334 0 -0.002550596837609696 0.0053138766043810742 0 -0.0026146991163683532 0.0052984764437499334 0 -0.0025991493489477594 0.0053461533513806912 0 -0.0026146991163683532 0.0052984764437499334 0 -0.0027573030968680921 0.0052995769898660453 0 -0.0026564951575049878 0.0053714306901970999 0 -0.0027590476826710314 0.0053619083740269998 0 -0.0027573030968680921 0.0052995769898660453 0 -0.0026564951575049878 0.0053714306901970999 0 -0.0027590476826710314 0.0053619083740269998 0 -0.0026564951575049878 0.0053714306901970999 0 -0.002690757996600806 0.0054310009913196462 0 -0.0026146991163683532 0.0052984764437499334 0 -0.0026564951575049878 0.0053714306901970999 0 -0.0025991493489477594 0.0053461533513806912 0 -0.0025564109136980173 0.005392997107889509 0 -0.002550596837609696 0.0053138766043810742 0 -0.0025991493489477594 0.0053461533513806912 0 -0.0025564109136980173 0.005392997107889509 0 -0.0026564951575049878 0.0053714306901970999 0 -0.0025991493489477594 0.0053461533513806912 0 -0.0025564109136980173 0.005392997107889509 0 -0.0025697539068112109 0.0054634046197373385 0 -0.0026256812647985177 0.005431566003338318 0 -0.0025564109136980173 0.005392997107889509 0 -0.0026564951575049878 0.0053714306901970999 0 -0.0026256812647985177 0.005431566003338318 0 -0.0025697539068112109 0.0054634046197373385 0 -0.0026675209003357257 0.0054752562131260788 0 -0.0026476637417035508 0.0055247657916615029 0 -0.0025124731536596331 0.0053645451452314788 0 -0.0025203403177250666 0.0054594657983180412 0 -0.0025697539068112109 0.0054634046197373385 0 -0.0026256812647985177 0.005431566003338318 0 -0.0026675209003357257 0.0054752562131260788 0 -0.0026675209003357257 0.0054752562131260788 0 -0.0027376584411121668 0.0054666497758209297 0 -0.0027173469132829348 0.0055159586805867454 0 -0.0026675209003357257 0.0054752562131260788 0 -0.0026476637417035508 0.0055247657916615029 0 -0.0027173469132829348 0.0055159586805867454 0 -0.0026675209003357257 0.0054752562131260788 0 -0.002690757996600806 0.0054310009913196462 0 -0.0027376584411121668 0.0054666497758209297 0 -0.0026564951575049878 0.0053714306901970999 0 -0.0026256812647985177 0.005431566003338318 0 -0.002690757996600806 0.0054310009913196462 0 -0.0026256812647985177 0.005431566003338318 0 -0.0026675209003357257 0.0054752562131260788 0 -0.002690757996600806 0.0054310009913196462 0 -0.0027590476826710314 0.0053619083740269998 0 -0.002690757996600806 0.0054310009913196462 0 -0.002759692828026131 0.0054245956138931611 0 -0.0027590476826710314 0.0053619083740269998 0 -0.002759692828026131 0.0054245956138931611 0 -0.0028082180245231499 0.0053994437528447469 0 -0.002759692828026131 0.0054245956138931611 0 -0.0028082180245231499 0.0053994437528447469 0 -0.0027974538813766016 0.005465514804039371 0 -0.002690757996600806 0.0054310009913196462 0 -0.002759692828026131 0.0054245956138931611 0 -0.0027376584411121668 0.0054666497758209297 0 -0.0042494163553106088 0.0053476668824504652 0 -0.0041823252346207254 0.005165572512191954 0 -0.0043211069848710848 0.005090549747151174 0 -0.0031033195375082148 0.0054023194506057359 0 -0.0035028652440247587 0.0053006287884321416 0 -0.0038354566210798339 0.0053192402275396219 0 -0.0035028652440247587 0.0053006287884321416 0 -0.0034130391334088891 0.0053569540242033673 0 -0.0034036249453776981 0.0053527065793035128 0 -0.0034223275702413005 0.005291619787255228 0 -0.0041449410109141204 0.0052768945601254008 0 -0.0042268969479956212 0.0053752093986104985 0 -0.0042494163553106088 0.0053476668824504652 0 -0.0040621003456726432 0.0051660642030223868 0 -0.0041449410109141204 0.0052768945601254008 0 -0.0041823252346207254 0.005165572512191954 0 -0.0041449410109141204 0.0052768945601254008 0 -0.0042494163553106088 0.0053476668824504652 0 -0.0041823252346207254 0.005165572512191954 0 -0.0035028652440247587 0.0053006287884321416 0 -0.0039152672217762649 0.0049533944118618873 0 -0.0041082650491736285 0.0049842301551423938 0 -0.0043211069848710848 0.005090549747151174 0 -0.0043443897422230674 0.0048536449893401921 0 -0.0041082650491736285 0.0049842301551423938 0 -0.0041823252346207254 0.005165572512191954 0 -0.0043211069848710848 0.005090549747151174 0 -0.0027376584411121668 0.0054666497758209297 0 -0.0027778601707192452 0.0055208737836371377 0 -0.0027173469132829348 0.0055159586805867454 0 -0.0035028652440247587 0.0053006287884321416 0 -0.0031646776260102669 0.0053609767902124258 0 -0.0027974538813766016 0.005465514804039371 0 -0.0027376584411121668 0.0054666497758209297 0 -0.0027778601707192452 0.0055208737836371377 0 -0.0034648416396717875 0.0054931761582004352 0 -0.0036148394697725905 0.004931551541896906 0 -0.0035217549240694861 0.0049148894434987876 0 -0.002759692828026131 0.0054245956138931611 0 -0.0027974538813766016 0.005465514804039371 0 -0.0027376584411121668 0.0054666497758209297 0 -0.0027778601707192452 0.0055208737836371377 0 -0.0027454596438889886 0.0055409370908721346 0 -0.0027624030331894374 0.0055693682610140731 0 -0.0027778601707192452 0.0055208737836371377 0 -0.0027454596438889886 0.0055409370908721346 0 -0.0027173469132829348 0.0055159586805867454 0 -0.0036148394697725905 0.004931551541896906 0 -0.0035217549240694861 0.0049148894434987876 0 -0.0035828560745573292 0.0043154582273027082 0 -0.0031646776260102669 0.0053609767902124258 0 -0.0033241658837662451 0.0043315566168964448 0 -0.0036148394697725905 0.004931551541896906 0 -0.0035828560745573292 0.0043154582273027082 0 -0.0037717626754858341 0.0043491280105159664 0 -0.0039152672217762649 0.0049533944118618873 0 -0.0039528812654335962 0.0039570655412502565 0 -0.0041082650491736285 0.0049842301551423938 0 -0.0043443897422230674 0.0048536449893401921 0 -0.004152736533998733 0.004757834187745503 0 -0.0043443897422230674 0.0048536449893401921 0 -0.004152736533998733 0.004757834187745503 0 -0.0043656770236949107 0.0046195306203953203 0 -0.0039152494548283208 0.003465420333429422 0 -0.0039528812654335962 0.0039570655412502565 0 -0.0039897907602298209 0.004554116738045704 0 -0.004152736533998733 0.004757834187745503 0 -0.0043656770236949107 0.0046195306203953203 0 -0.003793599943906534 0.0025271114563672347 0 -0.0039240473891519944 0.0025584356606407018 0 -0.003837468678259035 0.0024626232062620462 0 -0.0027454596438889886 0.0055409370908721346 0 -0.0027624030331894374 0.0055693682610140731 0 -0.0027187708560881163 0.0055665180183071868 0 -0.0036920935730810549 0.0029609885730230382 0 -0.0030990719636463057 0.0042991630224146525 0 -0.0033241658837662451 0.0043315566168964448 0 -0.0030990719636463057 0.0042991630224146525 0 -0.0034374910204654744 0.0039063851880046701 0 -0.0034318768706954193 0.0039273945532485388 0 -0.0033949953039233657 0.0039011142125281433 0 -0.0039528812654335962 0.0039570655412502565 0 -0.0033241658837662451 0.0043315566168964448 0 -0.0033241658837662451 0.0043315566168964448 0 -0.0036920935730810549 0.0029609885730230382 0 -0.0034717537482619899 0.0036859772259538064 0 -0.003759879904539255 0.0037370200494896357 0 -0.003657905722892792 0.0034624394876228361 0 -0.0039528812654335962 0.0039570655412502565 0 -0.0037985267208800271 0.0026628867128777895 0 -0.0039240473891519944 0.0025584356606407018 0 -0.0039304761188519825 0.0024971343671753459 0 -0.0039014578335553052 0.0024693640511888899 0 -0.003759879904539255 0.0037370200494896357 0 -0.003657905722892792 0.0034624394876228361 0 -0.0038630005072494747 0.0033578135323178515 0 -0.0034717537482619899 0.0036859772259538064 0 -0.003657905722892792 0.0034624394876228361 0 -0.0035369484598720535 0.0030688650952998935 0 -0.003657905722892792 0.0034624394876228361 0 -0.0038630005072494747 0.0033578135323178515 0 -0.0035369484598720535 0.0030688650952998935 0 -0.0036920935730810549 0.0029609885730230382 0 -0.0037985267208800271 0.0026628867128777895 0 -0.0039157022491382405 0.0023832330158547192 0 -0.0039473749836958765 0.0023819481013418772 0 -0.003959097957215346 0.0023513315925838213 0 -0.0039157022491382405 0.0023832330158547192 0 -0.0039473749836958765 0.0023819481013418772 0 -0.0039500256551309254 0.0024131233316095476 0 -0.0039473749836958765 0.0023819481013418772 0 -0.0039684595527589251 0.002376986765908912 0 -0.003959097957215346 0.0023513315925838213 0 -0.0039473749836958765 0.0023819481013418772 0 -0.0039500256551309254 0.0024131233316095476 0 -0.0039684595527589251 0.002376986765908912 0 -0.0039500256551309254 0.0024131233316095476 0 -0.0039910328213744045 0.0023889999325189658 0 -0.0040179725060771054 0.0024204278867264698 0 -0.0039500256551309254 0.0024131233316095476 0 -0.0039684595527589251 0.002376986765908912 0 -0.0039910328213744045 0.0023889999325189658 0 -0.0039684595527589251 0.002376986765908912 0 -0.0039910328213744045 0.0023889999325189658 0 -0.0039941776800463133 0.0023489911559144957 0 -0.0040202870637766194 0.0023694345078768822 0 -0.0039910328213744045 0.0023889999325189658 0 -0.0039941776800463133 0.0023489911559144957 0 -0.0040509582494624831 0.0023786616405222245 0 -0.0040202870637766194 0.0023694345078768822 0 -0.0040179725060771054 0.0024204278867264698 0 -0.0040202870637766194 0.0023694345078768822 0 -0.0039910328213744045 0.0023889999325189658 0 -0.0040179725060771054 0.0024204278867264698 0 -0.0023608979240797552 0.0051440791858373535 0 -0.0024072047332776392 0.0052091842886518259 0 -0.0024403344855861752 0.0051685501022167906 0 -0.0024586429680438261 0.0052864490921667 0 -0.0024072047332776392 0.0052091842886518259 0 -0.0024403344855861752 0.0051685501022167906 0 -0.0027187708560881163 0.0055665180183071868 0 -0.0026476637417035508 0.0055247657916615029 0 -0.0027173469132829348 0.0055159586805867454 0 -0.0030990719636463057 0.0042991630224146525 0 -0.0032276204163712665 0.0037366012306644003 0 -0.0030990719636463057 0.0042991630224146525 0 -0.0025203403177250666 0.0054594657983180412 0 -0.0027454596438889886 0.0055409370908721346 0 -0.0027187708560881163 0.0055665180183071868 0 -0.0027173469132829348 0.0055159586805867454 0 -0.004003230178898488 0.0022468730494786672 0 -0.0039741115587071437 0.0023122898817977489 0 -0.0039807693846147588 0.0022855114339549142 0 -0.0039481378319825471 0.0023035068211569878 0 -0.0039880128214225463 0.0022575058063235994 0 -0.0040068174961596969 0.0022858049115510879 0 -0.0039807693846147588 0.0022855114339549142 0 -0.0039805229706041017 0.0023174156238750915 0 -0.0039807693846147588 0.0022855114339549142 0 -0.0039805229706041017 0.0023174156238750915 0 -0.0039481378319825471 0.0023035068211569878 0 -0.0039807693846147588 0.0022855114339549142 0 -0.0039987330207954998 0.0022657681675360814 0 -0.0039880128214225463 0.0022575058063235994 0 -0.0040068174961596969 0.0022858049115510879 0 -0.0039987330207954998 0.0022657681675360814 0 -0.0040343299536527407 0.0022280091201931974 0 -0.0040068174961596969 0.0022858049115510879 0 -0.0039807693846147588 0.0022855114339549142 0 -0.0039987330207954998 0.0022657681675360814 0 -0.0040068174961596969 0.0022858049115510879 0 -0.0040428329894519758 0.0022737697176309466 0 -0.0040343299536527407 0.0022280091201931974 0 -0.0040068174961596969 0.0022858049115510879 0 -0.0040428329894519758 0.0022737697176309466 0 -0.004019467646718562 0.0023174083534366861 0 -0.0040486063586131112 0.0023203140341209287 0 -0.0040428329894519758 0.0022737697176309466 0 -0.004019467646718562 0.0023174083534366861 0 -0.0040486063586131112 0.0023203140341209287 0 -0.0040202870637766194 0.0023694345078768822 0 -0.004019467646718562 0.0023174083534366861 0 -0.0040202870637766194 0.0023694345078768822 0 -0.004019467646718562 0.0023174083534366861 0 -0.0039941776800463133 0.0023489911559144957 0 -0.0039941776800463133 0.0023489911559144957 0 -0.0039805229706041017 0.0023174156238750915 0 -0.003959097957215346 0.0023513315925838213 0 -0.0039684595527589251 0.002376986765908912 0 -0.0039941776800463133 0.0023489911559144957 0 -0.003959097957215346 0.0023513315925838213 0 -0.0040068174961596969 0.0022858049115510879 0 -0.004019467646718562 0.0023174083534366861 0 -0.0039805229706041017 0.0023174156238750915 0 -0.004019467646718562 0.0023174083534366861 0 -0.0039941776800463133 0.0023489911559144957 0 -0.0039805229706041017 0.0023174156238750915 0 -0.0039805229706041017 0.0023174156238750915 0 -0.003959097957215346 0.0023513315925838213 0 -0.0039481378319825471 0.0023035068211569878 0 -0.0036920935730810549 0.0029609885730230382 0 -0.004003230178898488 0.0022468730494786672 0 -0.0039563933609402767 0.0025349277918418857 0 -0.003921099962781358 0.0025030940521706896 0 -0.0039297877741916939 0.0024352231310426492 0 -0.0039157022491382405 0.0023832330158547192 0 -0.003959097957215346 0.0023513315925838213 0 -0.0039481378319825471 0.0023035068211569878 0 -0.0039563933609402767 0.0025349277918418857 0 -0.0039297877741916939 0.0024352231310426492 0 -0.0039887777714779481 0.0024056980742517254 0 -0.0039272918966900792 0.0024929745622620202 0 -0.0039297877741916939 0.0024352231310426492 0 -0.0039014578335553052 0.0024693640511888899 0 -0.0037985267208800271 0.0026628867128777895 0 -0.0038946695022449036 0.0024231273974903043 0 -0.0037985267208800271 0.0026628867128777895 0 -0.0038273666135427852 0.002580153767839031 0 -0.0039297877741916939 0.0024352231310426492 0 -0.0038967639526908487 0.0024114127462887902 0 -0.0039410511274441699 0.0023865984873490788 0 -0.0039297877741916939 0.0024352231310426492 0 -0.0039887777714779481 0.0024056980742517254 0 -0.0039410511274441699 0.0023865984873490788 0 -0.0038967639526908487 0.0024114127462887902 0 -0.0038506558975342784 0.0023644058262283591 0 -0.003837468678259035 0.0024626232062620462 0 -0.0039240473891519944 0.0025584356606407018 0 -0.0039014578335553052 0.0024693640511888899 0 -0.003837468678259035 0.0024626232062620462 0 -0.0039297877741916939 0.0024352231310426492 0 -0.0039014578335553052 0.0024693640511888899 0 -0.0038967639526908487 0.0024114127462887902 0 -0.0039014578335553052 0.0024693640511888899 0 -0.0038967639526908487 0.0024114127462887902 0 -0.003837468678259035 0.0024626232062620462 0 -0.0038506558975342784 0.0023644058262283591 0 -0.0039243269181254556 0.0023460191496552547 0 -0.0039425468283370456 0.0022762980046915899 0 -0.0038967639526908487 0.0024114127462887902 0 -0.0038506558975342784 0.0023644058262283591 0 -0.0039243269181254556 0.0023460191496552547 0 -0.0039887777714779481 0.0024056980742517254 0 -0.0039550699057274864 0.0023220126417308165 0 -0.0039880128214225463 0.0022575058063235994 0 -0.0039887777714779481 0.0024056980742517254 0 -0.0039410511274441699 0.0023865984873490788 0 -0.0039550699057274864 0.0023220126417308165 0 -0.0038967639526908487 0.0024114127462887902 0 -0.0039410511274441699 0.0023865984873490788 0 -0.0039243269181254556 0.0023460191496552547 0 -0.0039410511274441699 0.0023865984873490788 0 -0.0039243269181254556 0.0023460191496552547 0 -0.0039550699057274864 0.0023220126417308165 0 -0.0039550699057274864 0.0023220126417308165 0 -0.0039425468283370456 0.0022762980046915899 0 -0.0039880128214225463 0.0022575058063235994 0 -0.0039243269181254556 0.0023460191496552547 0 -0.0039550699057274864 0.0023220126417308165 0 -0.0039425468283370456 0.0022762980046915899 0 -0.0038506558975342784 0.0023644058262283591 0 -0.0039425468283370456 0.0022762980046915899 0 -0.003824754080980403 0.0022696911061547897 0 -0.0039959183440994289 0.0022113403862325811 0 -0.0039376594119180089 0.0021920219747514087 0 -0.0040449247024475004 0.0021440112603590684 0 -0.0040510831488471694 0.0021237463401070824 0 -0.0040300229991660583 0.002111921359536661 0 -0.0040510831488471694 0.0021237463401070824 0 -0.0040459537675008751 0.0020829618540503187 0 -0.0040300229991660583 0.002111921359536661 0 -0.0040449247024475004 0.0021440112603590684 0 -0.0040510831488471694 0.0021237463401070824 0 -0.0040462013582188323 0.0021620970081797333 0 -0.0040510831488471694 0.0021237463401070824 0 -0.0040561417522655824 0.0021397539463605757 0 -0.0040668105105630984 0.0020901049131365405 0 -0.0040561417522655824 0.0021397539463605757 0 -0.0040552390952819477 0.0021785854722862234 0 -0.0040689011360500313 0.0021283967711298742 0 -0.0040561417522655824 0.0021397539463605757 0 -0.0040462013582188323 0.0021620970081797333 0 -0.0040552390952819477 0.0021785854722862234 0 -0.0040510831488471694 0.0021237463401070824 0 -0.0040561417522655824 0.0021397539463605757 0 -0.0040462013582188323 0.0021620970081797333 0 -0.0039425468283370456 0.0022762980046915899 0 -0.0039880128214225463 0.0022575058063235994 0 -0.0040343299536527407 0.0022280091201931974 0 -0.0039959183440994289 0.0022113403862325811 0 -0.0040415001077172222 0.0022278683624147493 0 -0.0040449247024475004 0.0021440112603590684 0 -0.0040462013582188323 0.0021620970081797333 0 -0.0040343299536527407 0.0022280091201931974 0 -0.0040462013582188323 0.0021620970081797333 0 -0.0040343299536527407 0.0022280091201931974 0 -0.0040552390952819477 0.0021785854722862234 0 -0.0039987330207954998 0.0022657681675360814 0 -0.0039880128214225463 0.0022575058063235994 0 -0.0040343299536527407 0.0022280091201931974 0 -0.0040428329894519758 0.0022737697176309466 0 -0.0040599860547640143 0.0022218644038560866 0 -0.0040343299536527407 0.0022280091201931974 0 -0.0040599860547640143 0.0022218644038560866 0 -0.0040343299536527407 0.0022280091201931974 0 -0.0040552390952819477 0.0021785854722862234 0 -0.0040599860547640143 0.0022218644038560866 0 -0.0040749714561602165 0.002187651085035448 0 -0.0040552390952819477 0.0021785854722862234 0 -0.0040749714561602165 0.002187651085035448 0 -0.0040552390952819477 0.0021785854722862234 0 -0.0040689011360500313 0.0021283967711298742 0 -0.0040749714561602165 0.002187651085035448 0 -0.0040839355858907148 0.0021243509289368989 0 -0.0040689011360500313 0.0021283967711298742 0 -0.0040839355858907148 0.0021243509289368989 0 -0.0040689011360500313 0.0021283967711298742 0 -0.004088268254171335 0.0020553463963240122 0 -0.0040695748750699248 0.0018704021641296103 0 -0.0040248479913464075 0.0019567162186654614 0 -0.0040689011360500313 0.0021283967711298742 0 -0.004088268254171335 0.0020553463963240122 0 -0.0040668105105630984 0.0020901049131365405 0 -0.0040561417522655824 0.0021397539463605757 0 -0.0040689011360500313 0.0021283967711298742 0 -0.0040668105105630984 0.0020901049131365405 0 -0.0039910183733965696 0.0018586847989235837 0 -0.0038831146029745748 0.0018843086371356488 0 -0.0039765016003437412 0.0019337590525546943 0 -0.0038915126421997406 0.0017491255475263513 0 -0.0039910183733965696 0.0018586847989235837 0 -0.0038831146029745748 0.0018843086371356488 0 -0.0037999132062039665 0.0019363431972605192 0 -0.0038831146029745748 0.0018843086371356488 0 -0.0039765016003437412 0.0019337590525546943 0 -0.0039910183733965696 0.0018586847989235837 0 -0.0039765016003437412 0.0019337590525546943 0 -0.0040795963318602056 0.0019570856155706395 0 -0.0039765016003437412 0.0019337590525546943 0 -0.0040944916270245907 0.0019294918877365266 0 -0.0040045478591644017 0.0019312763868905751 0 -0.0037999132062039665 0.0019363431972605192 0 -0.0039765016003437412 0.0019337590525546943 0 -0.0038845540991476364 0.0019317127772045075 0 -0.0039765016003437412 0.0019337590525546943 0 -0.0040045478591644017 0.0019312763868905751 0 -0.0038845540991476364 0.0019317127772045075 0 -0.0041163454794900297 0.0019417123029294235 0 -0.0040795963318602056 0.0019570856155706395 0 -0.0040944916270245907 0.0019294918877365266 0 -0.0039765016003437412 0.0019337590525546943 0 -0.0040795963318602056 0.0019570856155706395 0 -0.0040944916270245907 0.0019294918877365266 0 -0.0041163454794900297 0.0019417123029294235 0 -0.0040795963318602056 0.0019570856155706395 0 -0.0040661296635709525 0.001983543849202447 0 -0.0040795963318602056 0.0019570856155706395 0 -0.0040537345040453096 0.002029160978924081 0 -0.0040661296635709525 0.001983543849202447 0 -0.0040795963318602056 0.0019570856155706395 0 -0.0040537345040453096 0.002029160978924081 0 -0.0040668105105630984 0.0020901049131365405 0 -0.0040248479913464075 0.0019567162186654614 0 -0.0040741576308576189 0.0019570793339962096 0 -0.004088268254171335 0.0020553463963240122 0 -0.0040795963318602056 0.0019570856155706395 0 -0.0040668105105630984 0.0020901049131365405 0 -0.0040510831488471694 0.0021237463401070824 0 -0.0040668105105630984 0.0020901049131365405 0 -0.0040459537675008751 0.0020829618540503187 0 -0.0040537345040453096 0.002029160978924081 0 -0.0040668105105630984 0.0020901049131365405 0 -0.0040459537675008751 0.0020829618540503187 0 -0.0040537345040453096 0.002029160978924081 0 -0.0040459537675008751 0.0020829618540503187 0 -0.0040297306043266031 0.0020467984503617833 0 -0.0040297306043266031 0.0020467984503617833 0 -0.0040068554576943851 0.0020682558932595524 0 -0.0040300229991660583 0.002111921359536661 0 -0.0040459537675008751 0.0020829618540503187 0 -0.0040297306043266031 0.0020467984503617833 0 -0.0040300229991660583 0.002111921359536661 0 -0.0040297306043266031 0.0020467984503617833 0 -0.0040068554576943851 0.0020682558932595524 0 -0.0039806147273498509 0.0020457487775812039 0 -0.0040297306043266031 0.0020467984503617833 0 -0.004012448135728105 0.0019909202314827394 0 -0.0039806147273498509 0.0020457487775812039 0 -0.0040297306043266031 0.0020467984503617833 0 -0.0040661296635709525 0.001983543849202447 0 -0.004012448135728105 0.0019909202314827394 0 -0.0040537345040453096 0.002029160978924081 0 -0.0040297306043266031 0.0020467984503617833 0 -0.0040661296635709525 0.001983543849202447 0 -0.0040661296635709525 0.001983543849202447 0 -0.004012448135728105 0.0019909202314827394 0 -0.0040757624374822632 0.0019411204603065242 0 -0.0044992238964838699 0.0021509529198090955 0 -0.0045151972077515264 0.0020178812687568861 0 -0.0049913683764678503 0.0022980593611892693 0 -0.0049686278884578071 0.0020785596213999755 0 -0.0049164277315575907 0.0021401762144777807 0 -0.0041163454794900297 0.0019417123029294235 0 -0.0040661296635709525 0.001983543849202447 0 -0.0040757624374822632 0.0019411204603065242 0 -0.0048353644838374015 0.0021713228065131929 0 -0.0049164277315575907 0.0021401762144777807 0 -0.0048741826567276275 0.0023088785890037588 0 -0.0048353644838374015 0.0021713228065131929 0 -0.0048741826567276275 0.0023088785890037588 0 -0.0047752983110939499 0.0023110978427315072 0 -0.0049913683764678503 0.0022980593611892693 0 -0.0048741826567276275 0.0023088785890037588 0 -0.0049444577516717398 0.0025100134794542876 0 -0.0049913683764678503 0.0022980593611892693 0 -0.0049164277315575907 0.0021401762144777807 0 -0.0048741826567276275 0.0023088785890037588 0 -0.0048741826567276275 0.0023088785890037588 0 -0.0048219250615203994 0.0024241183091794774 0 -0.0047752983110939499 0.0023110978427315072 0 -0.0048741826567276275 0.0023088785890037588 0 -0.0048219250615203994 0.0024241183091794774 0 -0.0049444577516717398 0.0025100134794542876 0 -0.0048219250615203994 0.0024241183091794774 0 -0.0049444577516717398 0.0025100134794542876 0 -0.0048222699919548149 0.0025523810248445442 0 -0.0044992238964838699 0.0021509529198090955 0 -0.0044427589879548297 0.0022624688608417877 0 -0.0039806147273498509 0.0020457487775812039 0 -0.0039846853483877284 0.0020751259296494318 0 -0.003964892591807611 0.0020871843056666701 0 -0.0040068554576943851 0.0020682558932595524 0 -0.0039806147273498509 0.0020457487775812039 0 -0.0039846853483877284 0.0020751259296494318 0 -0.0044427589879548297 0.0022624688608417877 0 -0.0046001143295599138 0.0025172591975647822 0 -0.0049444577516717398 0.0025100134794542876 0 -0.0048222699919548149 0.0025523810248445442 0 -0.004869418458686184 0.0026814664320045025 0 -0.0046848678806847991 0.0028024157189836703 0 -0.0046858371643371585 0.0028012964218844393 0 -0.0046917351062080326 0.0028030147378211526 0 -0.0046001143295599138 0.0025172591975647822 0 -0.0047228028017564346 0.0028060784031162149 0 -0.0046001143295599138 0.0025172591975647822 0 -0.004107213326723049 0.0024887359591307728 0 -0.0046848678806847991 0.0028024157189836703 0 -0.0046858371643371585 0.0028012964218844393 0 -0.0046816680541109709 0.0028014015189885329 0 -0.0046858371643371585 0.0028012964218844393 0 -0.0046888503924974638 0.0027992242192586281 0 -0.0046827741703995042 0.0027989363984701875 0 -0.0046858371643371585 0.0028012964218844393 0 -0.0046888503924974638 0.0027992242192586281 0 -0.0046917351062080326 0.0028030147378211526 0 -0.004107213326723049 0.0024887359591307728 0 -0.0042013777209803371 0.0025716212203827854 0 -0.0036912549999596591 0.0022939012346478139 0 -0.0037336523979159702 0.0023251693116045588 0 -0.0036622093336574043 0.0023481700574139452 0 -0.0036912549999596591 0.0022939012346478139 0 -0.0036563182382739019 0.0022446076835418811 0 -0.0036622093336574043 0.0023481700574139452 0 -0.0046858371643371585 0.0028012964218844393 0 -0.0046816680541109709 0.0028014015189885329 0 -0.0046827741703995042 0.0027989363984701875 0 -0.004107213326723049 0.0024887359591307728 0 -0.0038147717403547166 0.0021769883525518383 0 -0.0036912549999596591 0.0022939012346478139 0 -0.0036563182382739019 0.0022446076835418811 0 -0.0037140209369069294 0.002255995350938273 0 -0.0039846853483877284 0.0020751259296494318 0 -0.003964892591807611 0.0020871843056666701 0 -0.0039799551707409443 0.0020886024190929888 0 -0.0039846853483877284 0.0020751259296494318 0 -0.0039799551707409443 0.0020886024190929888 0 -0.0039993223850460693 0.0020934214190783842 0 -0.0040068554576943851 0.0020682558932595524 0 -0.0039846853483877284 0.0020751259296494318 0 -0.0039993223850460693 0.0020934214190783842 0 -0.0040068554576943851 0.0020682558932595524 0 -0.0039993223850460693 0.0020934214190783842 0 -0.0040300229991660583 0.002111921359536661 0 -0.0038147717403547166 0.0021769883525518383 0 -0.0039376594119180089 0.0021920219747514087 0 -0.0038506558975342784 0.0023644058262283591 0 -0.003824754080980403 0.0022696911061547897 0 -0.003785029312675168 0.0023603616828135267 0 -0.003824754080980403 0.0022696911061547897 0 -0.0037336523979159702 0.0023251693116045588 0 -0.003785029312675168 0.0023603616828135267 0 -0.0036912549999596591 0.0022939012346478139 0 -0.0037140209369069294 0.002255995350938273 0 -0.0037336523979159702 0.0023251693116045588 0 -0.0037140209369069294 0.002255995350938273 0 -0.003824754080980403 0.0022696911061547897 0 -0.0037336523979159702 0.0023251693116045588 0 -0.0037150231820924284 0.0024102282973150094 0 -0.003785029312675168 0.0023603616828135267 0 -0.0037861168419415572 0.0024280692915036629 0 -0.0037336523979159702 0.0023251693116045588 0 -0.0037150231820924284 0.0024102282973150094 0 -0.003785029312675168 0.0023603616828135267 0 -0.0037336523979159702 0.0023251693116045588 0 -0.0037150231820924284 0.0024102282973150094 0 -0.0036622093336574043 0.0023481700574139452 0 -0.0038506558975342784 0.0023644058262283591 0 -0.003785029312675168 0.0023603616828135267 0 -0.0037861168419415572 0.0024280692915036629 0 -0.003793599943906534 0.0025271114563672347 0 -0.0037861168419415572 0.0024280692915036629 0 -0.003837468678259035 0.0024626232062620462 0 -0.0038506558975342784 0.0023644058262283591 0 -0.0037861168419415572 0.0024280692915036629 0 -0.003837468678259035 0.0024626232062620462 0 -0.003793599943906534 0.0025271114563672347 0 -0.0037861168419415572 0.0024280692915036629 0 -0.003726004935130733 0.0024671715358906992 0 -0.0037150231820924284 0.0024102282973150094 0 -0.0037861168419415572 0.0024280692915036629 0 -0.003726004935130733 0.0024671715358906992 0 -0.0037150231820924284 0.0024102282973150094 0 -0.003726004935130733 0.0024671715358906992 0 -0.0036632054633645951 0.00246477276745818 0 -0.0036777353083891733 0.0037385818498958515 0 -0.0039447832046638921 0.0026904647897376304 0 -0.0036688990337737687 0.0025073193499957668 0 -0.003726004935130733 0.0024671715358906992 0 -0.0036632054633645951 0.00246477276745818 0 -0.0037347541556453953 0.0024602661972505471 0 -0.0039447832046638921 0.0026904647897376304 0 -0.0039020858309307205 0.0033015282546071801 0 -0.0038891931387015841 0.003194481643389977 0 -0.0038003191706725351 0.0032830315275494712 0 -0.0046810153853943407 0.0027975580521755737 0 -0.0046829483836195313 0.0027982132023072598 0 -0.004686946053525134 0.002798493379097594 0 -0.0039447832046638921 0.0026904647897376304 0 -0.0041154507701200863 0.0032776630733900533 0 -0.0041154507701200863 0.0032776630733900533 0 -0.0048203008406222953 0.0028726272423819045 0 -0.0046829483836195313 0.0027982132023072598 0 -0.0046907417465840802 0.0028023217023615812 0 -0.004686946053525134 0.002798493379097594 0 -0.0046907417465840802 0.0028023217023615812 0 -0.004686946053525134 0.002798493379097594 0 -0.0046941450985528909 0.0027970898402444985 0 -0.004686946053525134 0.002798493379097594 0 -0.0046888503924974638 0.0027992242192586281 0 -0.0046827741703995042 0.0027989363984701875 0 -0.004686946053525134 0.002798493379097594 0 -0.0046888503924974638 0.0027992242192586281 0 -0.0046941450985528909 0.0027970898402444985 0 -0.0046810153853943407 0.0027975580521755737 0 -0.004686946053525134 0.002798493379097594 0 -0.0046827741703995042 0.0027989363984701875 0 -0.0039447832046638921 0.0026904647897376304 0 -0.0042013777209803371 0.0025716212203827854 0 -0.0037150231820924284 0.0024102282973150094 0 -0.0036730719464399559 0.0024549256144879082 0 -0.0036622093336574043 0.0023481700574139452 0 -0.0047054903744587883 0.0027959624132782319 0 -0.0046908768558127159 0.0027872381375603343 0 -0.0047062325109510309 0.0027698376812189608 0 -0.0047054903744587883 0.0027959624132782319 0 -0.0046931207777743521 0.0027994856248908999 0 -0.0046908768558127159 0.0027872381375603343 0 -0.0046888503924974638 0.0027992242192586281 0 -0.0047054903744587883 0.0027959624132782319 0 -0.0046917351062080326 0.0028030147378211526 0 -0.0046888503924974638 0.0027992242192586281 0 -0.0047054903744587883 0.0027959624132782319 0 -0.0046941450985528909 0.0027970898402444985 0 -0.0046907417465840802 0.0028023217023615812 0 -0.0046941450985528909 0.0027970898402444985 0 -0.0046931207777743521 0.0027994856248908999 0 -0.0047054903744587883 0.0027959624132782319 0 -0.0046941450985528909 0.0027970898402444985 0 -0.0046931207777743521 0.0027994856248908999 0 -0.0046870921640264438 0.0028064241903076716 0 -0.0046931207777743521 0.0027994856248908999 0 -0.0046961320834460595 0.0027850082452217551 0 -0.0046931207777743521 0.0027994856248908999 0 -0.0046961320834460595 0.0027850082452217551 0 -0.0046908768558127159 0.0027872381375603343 0 -0.0047920091816287032 0.0028430528019859993 0 -0.0048172641352783544 0.0027651362796672434 0 -0.0047588389994993501 0.0027643921862398175 0 -0.0048172641352783544 0.0027651362796672434 0 -0.0047588389994993501 0.0027643921862398175 0 -0.0047303261212399755 0.0027768448376178545 0 -0.0047598490065304732 0.0028033727722085134 0 -0.004735096627371072 0.0027710135539175816 0 -0.0046961320834460595 0.0027850082452217551 0 -0.0047303261212399755 0.0027768448376178545 0 -0.0046908768558127159 0.0027872381375603343 0 -0.0047303261212399755 0.0027768448376178545 0 -0.0046908768558127159 0.0027872381375603343 0 -0.0046799030452397651 0.0027796605241883648 0 -0.0047303261212399755 0.0027768448376178545 0 -0.0046711514659436709 0.0028017968494521441 0 -0.0047251130424433704 0.0028232868270662232 0 -0.0047303261212399755 0.0027768448376178545 0 -0.0046799030452397651 0.0027796605241883648 0 -0.0046711514659436709 0.0028017968494521441 0 -0.0046711514659436709 0.0028017968494521441 0 -0.0046470721625671832 0.0028365623611992874 0 -0.0046442486469009704 0.0027375164058779824 0 -0.0046711514659436709 0.0028017968494521441 0 -0.0046649280643516582 0.0027208054562791661 0 -0.0046442486469009704 0.0027375164058779824 0 -0.0046711514659436709 0.0028017968494521441 0 -0.0046470721625671832 0.0028365623611992874 0 -0.0047251130424433704 0.0028232868270662232 0 -0.0046799030452397651 0.0027796605241883648 0 -0.004693247237514791 0.0027212855342450297 0 -0.0046649280643516582 0.0027208054562791661 0 -0.0046799030452397651 0.0027796605241883648 0 -0.0046711514659436709 0.0028017968494521441 0 -0.0046649280643516582 0.0027208054562791661 0 -0.004693247237514791 0.0027212855342450297 0 -0.0047062325109510309 0.0027698376812189608 0 -0.0047434210939874284 0.0026773231535126177 0 -0.0046799030452397651 0.0027796605241883648 0 -0.004693247237514791 0.0027212855342450297 0 -0.0047062325109510309 0.0027698376812189608 0 -0.0046908768558127159 0.0027872381375603343 0 -0.0046799030452397651 0.0027796605241883648 0 -0.0047062325109510309 0.0027698376812189608 0 -0.0047054903744587883 0.0027959624132782319 0 -0.0047062325109510309 0.0027698376812189608 0 -0.0047644689280994038 0.0027630371432210005 0 -0.0047152362316177886 0.0027856096750823564 0 -0.0047228028017564346 0.0028060784031162149 0 -0.0046001143295599138 0.0025172591975647822 0 -0.0048470581184017567 0.0027140177133981695 0 -0.0047062325109510309 0.0027698376812189608 0 -0.0047644689280994038 0.0027630371432210005 0 -0.0047434210939874284 0.0026773231535126177 0 -0.0048067235343970212 0.0026983917565295578 0 -0.0047644689280994038 0.0027630371432210005 0 -0.0047434210939874284 0.0026773231535126177 0 -0.0048222699919548149 0.0025523810248445442 0 -0.004869418458686184 0.0026814664320045025 0 -0.0047434210939874284 0.0026773231535126177 0 -0.0048222699919548149 0.0025523810248445442 0 -0.0047434210939874284 0.0026773231535126177 0 -0.0046881103189900884 0.0026096675224872704 0 -0.004693247237514791 0.0027212855342450297 0 -0.0047434210939874284 0.0026773231535126177 0 -0.0046881103189900884 0.0026096675224872704 0 -0.0046881103189900884 0.0026096675224872704 0 -0.0046646437025541672 0.0024778269801770769 0 -0.0047444884781058204 0.0024440470117728826 0 -0.0048222699919548149 0.0025523810248445442 0 -0.0046881103189900884 0.0026096675224872704 0 -0.0047444884781058204 0.0024440470117728826 0 -0.0048219250615203994 0.0024241183091794774 0 -0.0048222699919548149 0.0025523810248445442 0 -0.0047444884781058204 0.0024440470117728826 0 -0.0047444884781058204 0.0024440470117728826 0 -0.0047752983110939499 0.0023110978427315072 0 -0.0046776832282250597 0.0023277140876487778 0 -0.0048219250615203994 0.0024241183091794774 0 -0.0047444884781058204 0.0024440470117728826 0 -0.0047752983110939499 0.0023110978427315072 0 -0.0046646437025541672 0.0024778269801770769 0 -0.0047444884781058204 0.0024440470117728826 0 -0.0046776832282250597 0.0023277140876487778 0 -0.0046671480514636973 0.0022256827895583658 0 -0.0045552834293982637 0.0022669066795283324 0 -0.0046820404895760413 0.0021236293646622784 0 -0.0046776832282250597 0.0023277140876487778 0 -0.0046671480514636973 0.0022256827895583658 0 -0.0045552834293982637 0.0022669066795283324 0 -0.0046776832282250597 0.0023277140876487778 0 -0.0046671480514636973 0.0022256827895583658 0 -0.0047431354334941962 0.0021926174975968591 0 -0.0048353644838374015 0.0021713228065131929 0 -0.0047752983110939499 0.0023110978427315072 0 -0.0047431354334941962 0.0021926174975968591 0 -0.0047752983110939499 0.0023110978427315072 0 -0.0046776832282250597 0.0023277140876487778 0 -0.0047431354334941962 0.0021926174975968591 0 -0.005566550540006987 0.0024778498784625673 0 -0.005705805850027103 0.0025305735729290011 0 -0.0056524221117698762 0.0024387814709299909 0 -0.0055401529031571034 0.0025766673496973444 0 -0.005566550540006987 0.0024778498784625673 0 -0.005705805850027103 0.0025305735729290011 0 -0.0046776832282250597 0.0023277140876487778 0 -0.0045552834293982637 0.0022669066795283324 0 -0.0045633444367850296 0.0024049191700463149 0 -0.0046646437025541672 0.0024778269801770769 0 -0.0046776832282250597 0.0023277140876487778 0 -0.0045633444367850296 0.0024049191700463149 0 -0.0049600997263450118 0.0023747039631860471 0 -0.0046225186937101708 0.0024725043023048955 0 -0.0046428994144036631 0.002538275695849078 0 -0.0045894152580763081 0.0025410568086023529 0 -0.0046121060188609973 0.002591523313316222 0 -0.0046469302380344486 0.0024879321126555368 0 -0.0046428994144036631 0.002538275695849078 0 -0.0045894152580763081 0.0025410568086023529 0 -0.0049600997263450118 0.0023747039631860471 0 -0.0050876681061667942 0.0026084275999129001 0 -0.0055401529031571034 0.0025766673496973444 0 -0.005705805850027103 0.0025305735729290011 0 -0.005561345045661286 0.0026768859838568497 0 -0.0046121060188609973 0.002591523313316222 0 -0.0046237242892939465 0.0025758091249290039 0 -0.0046378431939275338 0.0026496477473622994 0 -0.0046121060188609973 0.002591523313316222 0 -0.0046378431939275338 0.0026496477473622994 0 -0.004606478302781004 0.0026665061057368233 0 -0.0046881103189900884 0.0026096675224872704 0 -0.0046646437025541672 0.0024778269801770769 0 -0.0046237242892939465 0.0025758091249290039 0 -0.0046881103189900884 0.0026096675224872704 0 -0.0046237242892939465 0.0025758091249290039 0 -0.0046378431939275338 0.0026496477473622994 0 -0.0046646437025541672 0.0024778269801770769 0 -0.0045633444367850296 0.0024049191700463149 0 -0.0046237242892939465 0.0025758091249290039 0 -0.0046428994144036631 0.002538275695849078 0 -0.0046121060188609973 0.002591523313316222 0 -0.0046237242892939465 0.0025758091249290039 0 -0.0046225186937101708 0.0024725043023048955 0 -0.0046169850732196392 0.0025523276990228501 0 -0.0046881103189900884 0.0026096675224872704 0 -0.0046378431939275338 0.0026496477473622994 0 -0.0046649280643516582 0.0027208054562791661 0 -0.004693247237514791 0.0027212855342450297 0 -0.0046881103189900884 0.0026096675224872704 0 -0.0046649280643516582 0.0027208054562791661 0 -0.0046378431939275338 0.0026496477473622994 0 -0.0046649280643516582 0.0027208054562791661 0 -0.0046442486469009704 0.0027375164058779824 0 -0.0046015651653662408 0.0027199931173107796 0 -0.004606478302781004 0.0026665061057368233 0 -0.0046442486469009704 0.0027375164058779824 0 -0.0046378431939275338 0.0026496477473622994 0 -0.004606478302781004 0.0026665061057368233 0 -0.0046442486469009704 0.0027375164058779824 0 -0.0046470721625671832 0.0028365623611992874 0 -0.0046015651653662408 0.0027199931173107796 0 -0.0046442486469009704 0.0027375164058779824 0 -0.004886496203430837 0.0030468367411699312 0 -0.0048086964110150504 0.003126986413329019 0 -0.0047420479257325758 0.002882911100427309 0 -0.0045235261642071504 0.0028210189665237597 0 -0.0050674254172098192 0.0028325486903225594 0 -0.0046470721625671832 0.0028365623611992874 0 -0.0048086964110150504 0.003126986413329019 0 -0.0047420479257325758 0.002882911100427309 0 -0.0046015651653662408 0.0027199931173107796 0 -0.004606478302781004 0.0026665061057368233 0 -0.0044809678290556572 0.0026309185508438596 0 -0.0046470721625671832 0.0028365623611992874 0 -0.0046015651653662408 0.0027199931173107796 0 -0.0044809678290556572 0.0026309185508438596 0 -0.005082012389199116 0.0030155317455882575 0 -0.0047321188502598066 0.0029104484805207889 0 -0.0050467146453207282 0.0030635460489308892 0 -0.005082012389199116 0.0030155317455882575 0 -0.0049256943382597505 0.0031822769074413425 0 -0.0049305070158203578 0.002985940869038028 0 -0.0047420479257325758 0.002882911100427309 0 -0.0050627346836639858 0.0030464846425572985 0 -0.0049256943382597505 0.0031822769074413425 0 -0.0049305070158203578 0.002985940869038028 0 -0.005082012389199116 0.0030155317455882575 0 -0.0050674254172098192 0.0028325486903225594 0 -0.0050627346836639858 0.0030464846425572985 0 -0.0051368385758791815 0.0030111655072127155 0 -0.0051149960496267187 0.0029852322086505153 0 -0.0053568882455065003 0.0029234090982087897 0 -0.0054129203513049069 0.0028659396065447056 0 -0.0052497665496181517 0.0027950366356491387 0 -0.0054129203513049069 0.0028659396065447056 0 -0.005289182489359355 0.0026685809162848555 0 -0.0052497665496181517 0.0027950366356491387 0 -0.0051368385758791815 0.0030111655072127155 0 -0.005149794981737209 0.0029016380058892329 0 -0.0051149960496267187 0.0029852322086505153 0 -0.0050674254172098192 0.0028325486903225594 0 -0.0053500927475965713 0.0026601684838974131 0 -0.005082012389199116 0.0030155317455882575 0 -0.0052123252509847437 0.0028457947222520672 0 -0.0046121060188609973 0.002591523313316222 0 -0.004606478302781004 0.0026665061057368233 0 -0.0044809678290556572 0.0026309185508438596 0 -0.0050876681061667942 0.0026084275999129001 0 -0.0050674254172098192 0.0028325486903225594 0 -0.0045894152580763081 0.0025410568086023529 0 -0.0046121060188609973 0.002591523313316222 0 -0.0044809678290556572 0.0026309185508438596 0 -0.005561345045661286 0.0026768859838568497 0 -0.0054209312772424325 0.0028187012249851883 0 -0.0054233554484177087 0.0026673913893419622 0 -0.0055401529031571034 0.0025766673496973444 0 -0.0054233554484177087 0.0026673913893419622 0 -0.0054471031268131867 0.0025291404888497381 0 -0.0055401529031571034 0.0025766673496973444 0 -0.005561345045661286 0.0026768859838568497 0 -0.0054233554484177087 0.0026673913893419622 0 -0.0054209312772424325 0.0028187012249851883 0 -0.0054233554484177087 0.0026673913893419622 0 -0.0052911475191793665 0.0026214714669654253 0 -0.0054233554484177087 0.0026673913893419622 0 -0.0052911475191793665 0.0026214714669654253 0 -0.0053693987013880579 0.0025746454879284654 0 -0.0053173427917395776 0.0024814367511800852 0 -0.0053693987013880579 0.0025746454879284654 0 -0.0054471031268131867 0.0025291404888497381 0 -0.0053173427917395776 0.0024814367511800852 0 -0.0054471031268131867 0.0025291404888497381 0 -0.0054069155475816224 0.0024119655856262271 0 -0.0052911475191793665 0.0026214714669654253 0 -0.0053173427917395776 0.0024814367511800852 0 -0.0053693987013880579 0.0025746454879284654 0 -0.0054233554484177087 0.0026673913893419622 0 -0.0053693987013880579 0.0025746454879284654 0 -0.0054471031268131867 0.0025291404888497381 0 -0.0054471031268131867 0.0025291404888497381 0 -0.0054863748906981355 0.0024455061864777782 0 -0.0054069155475816224 0.0024119655856262271 0 -0.005566550540006987 0.0024778498784625673 0 -0.0054471031268131867 0.0025291404888497381 0 -0.0054863748906981355 0.0024455061864777782 0 -0.0055401529031571034 0.0025766673496973444 0 -0.005566550540006987 0.0024778498784625673 0 -0.0054471031268131867 0.0025291404888497381 0 -0.0050000240455821687 0.0025214731195376014 0 -0.0051112133682704895 0.0026829561035832785 0 -0.0049999954971144799 0.0025213778028993017 0 -0.0051293460735004686 0.0026609871552067499 0 -0.0051505549335026917 0.0024401259540695643 0 -0.005289182489359355 0.0026685809162848555 0 -0.0051293460735004686 0.0026609871552067499 0 -0.0051505549335026917 0.0024401259540695643 0 -0.0053500927475965713 0.0026601684838974131 0 -0.005134332332848374 0.0024368462525527785 0 -0.0052911475191793665 0.0026214714669654253 0 -0.0053173427917395776 0.0024814367511800852 0 -0.0051505549335026917 0.0024401259540695643 0 -0.005289182489359355 0.0026685809162848555 0 -0.0051293460735004686 0.0026609871552067499 0 -0.0052497665496181517 0.0027950366356491387 0 -0.0051099735251135996 0.0027117984545310574 0 -0.0050773946786392462 0.0028965568010524672 0 -0.005149794981737209 0.0029016380058892329 0 -0.0051112133682704895 0.0026829561035832785 0 -0.0052123252509847437 0.0028457947222520672 0 -0.0050000144427880394 0.0025214428968878158 0 -0.0051099735251135996 0.0027117984545310574 0 -0.0049999350092661248 0.002792993658393601 0 -0.0051099735251135996 0.0027117984545310574 0 -0.0049999350092661248 0.002792993658393601 0 -0.0050773946786392462 0.0028965568010524672 0 -0.0049999350092661248 0.002792993658393601 0 -0.0050773946786392462 0.0028965568010524672 0 -0.0050000086696396148 0.0030642877744708947 0 -0.005149794981737209 0.0029016380058892329 0 -0.0051042351432704722 0.0030076034874611762 0 -0.0051149960496267187 0.0029852322086505153 0 -0.0050773946786392462 0.0028965568010524672 0 -0.005149794981737209 0.0029016380058892329 0 -0.0051042351432704722 0.0030076034874611762 0 -0.0050627346836639858 0.0030464846425572985 0 -0.0051042351432704722 0.0030076034874611762 0 -0.0051149960496267187 0.0029852322086505153 0 -0.0050627346836639858 0.0030464846425572985 0 -0.0051042351432704722 0.0030076034874611762 0 -0.0051327945189558266 0.0030951496008115608 0 -0.0051042351432704722 0.0030076034874611762 0 -0.0050000086696396148 0.0030642877744708947 0 -0.0051327945189558266 0.0030951496008115608 0 -0.0050773946786392462 0.0028965568010524672 0 -0.0051042351432704722 0.0030076034874611762 0 -0.0050000086696396148 0.0030642877744708947 0 -0.0050000086696396148 0.0030642877744708947 0 -0.0049999356427453297 0.0033357123409991649 0 -0.0051327945189558266 0.0030951496008115608 0 -0.0049999356427453297 0.0033357123409991649 0 -0.0051327945189558266 0.0030951496008115608 0 -0.0051203924859138964 0.0034436853637427305 0 -0.0051327945189558266 0.0030951496008115608 0 -0.0050123850326961854 0.0029892996293320426 0 -0.0049307934524860705 0.0027665193653915511 0 -0.0051327945189558266 0.0030951496008115608 0 -0.00532908755352288 0.0034254061240085423 0 -0.0051203924859138964 0.0034436853637427305 0 -0.0051353131074284722 0.0030962480152622596 0 -0.0051205085908991258 0.0030956774492168415 0 -0.0050627346836639858 0.0030464846425572985 0 -0.0051327945189558266 0.0030951496008115608 0 -0.0050123850326961854 0.0029892996293320426 0 -0.0050627346836639858 0.0030464846425572985 0 -0.0049305070158203578 0.002985940869038028 0 -0.0050123850326961854 0.0029892996293320426 0 -0.0049305070158203578 0.002985940869038028 0 -0.0048421554082744662 0.0028917234274601351 0 -0.0050123850326961854 0.0029892996293320426 0 -0.0048421554082744662 0.0028917234274601351 0 -0.0050123850326961854 0.0029892996293320426 0 -0.0048949796884771917 0.0028618995796304068 0 -0.0046470721625671832 0.0028365623611992874 0 -0.0047420479257325758 0.002882911100427309 0 -0.0047251130424433704 0.0028232868270662232 0 -0.0049305070158203578 0.002985940869038028 0 -0.0048421554082744662 0.0028917234274601351 0 -0.0047420479257325758 0.002882911100427309 0 -0.0048421554082744662 0.0028917234274601351 0 -0.0047420479257325758 0.002882911100427309 0 -0.0047251130424433704 0.0028232868270662232 0 -0.0047303261212399755 0.0027768448376178545 0 -0.0047251130424433704 0.0028232868270662232 0 -0.0048028393056080941 0.0027827760737099325 0 -0.0048421554082744662 0.0028917234274601351 0 -0.0047251130424433704 0.0028232868270662232 0 -0.0048028393056080941 0.0027827760737099325 0 -0.0050123850326961854 0.0029892996293320426 0 -0.0048949796884771917 0.0028618995796304068 0 -0.0049307934524860705 0.0027665193653915511 0 -0.0048421554082744662 0.0028917234274601351 0 -0.0048028393056080941 0.0027827760737099325 0 -0.0048949796884771917 0.0028618995796304068 0 -0.0048028393056080941 0.0027827760737099325 0 -0.0048949796884771917 0.0028618995796304068 0 -0.0049307934524860705 0.0027665193653915511 0 -0.0051205085908991258 0.0030956774492168415 0 -0.0051550849733833417 0.0032472977217678353 0 -0.0048028393056080941 0.0027827760737099325 0 -0.0049307934524860705 0.0027665193653915511 0 -0.0047729048268522123 0.0027563380073688821 0 -0.0047588389994993501 0.0027643921862398175 0 -0.0048028393056080941 0.0027827760737099325 0 -0.0047729048268522123 0.0027563380073688821 0 -0.0047588389994993501 0.0027643921862398175 0 -0.0047303261212399755 0.0027768448376178545 0 -0.0048028393056080941 0.0027827760737099325 0 -0.0047494018432242139 0.0028206293519367326 0 -0.0047588389994993501 0.0027643921862398175 0 -0.0047729048268522123 0.0027563380073688821 0 -0.00532908755352288 0.0034254061240085423 0 -0.0053233064847538264 0.0037417727496692403 0 -0.0054592569902456823 0.0036716970188912842 0 -0.00532908755352288 0.0034254061240085423 0 -0.0053233064847538264 0.0037417727496692403 0 -0.0051624546100270093 0.0036788538113955633 0 -0.004999995685074898 0.0038787597097990141 0 -0.0051624546100270093 0.0036788538113955633 0 -0.0050000037188331669 0.0036073185692835968 0 -0.0049999356427453297 0.0033357123409991649 0 -0.0050000037188331669 0.0036073185692835968 0 -0.0051203924859138964 0.0034436853637427305 0 -0.0051624546100270093 0.0036788538113955633 0 -0.0050000037188331669 0.0036073185692835968 0 -0.0051203924859138964 0.0034436853637427305 0 -0.00532908755352288 0.0034254061240085423 0 -0.0051624546100270093 0.0036788538113955633 0 -0.0051203924859138964 0.0034436853637427305 0 -0.0051866056853130922 0.0014082314131596879 0 -0.0052105495198438269 0.0015510561502266344 0 -0.0051258142933959553 0.0015795077235233514 0 -0.0050969811902360426 0.0012448214706402576 0 -0.0051637371146092074 0.0012439945436178376 0 -0.0051570799138665356 0.0013206066058187903 0 -0.0051360763091018976 0.001324114253899828 0 -0.0052428026670508568 0.0014522747076174756 0 -0.0051866056853130922 0.0014082314131596879 0 -0.0052105495198438269 0.0015510561502266344 0 -0.0053082491839609161 0.0015697053969797683 0 -0.0051866056853130922 0.0014082314131596879 0 -0.0049999865593474205 0.0014314693418379966 0 -0.0051258142933959553 0.0015795077235233514 0 -0.0051360763091018976 0.001324114253899828 0 -0.0050546552015593672 0.0012362833333093366 0 -0.0049999865593474205 0.0014314693418379966 0 -0.0050459570187482931 0.0012307421149828687 0 -0.0049999662431963032 0.0011342665276066132 0 -0.0051866056853130922 0.0014082314131596879 0 -0.0049999865593474205 0.0014314693418379966 0 -0.0050459570187482931 0.0012307421149828687 0 -0.0050969811902360426 0.0012448214706402576 0 -0.0050459570187482931 0.0012307421149828687 0 -0.0051206253064192842 0.0011556075783825772 0 -0.0050969811902360426 0.0012448214706402576 0 -0.0051575624839871612 0.0011824190175507999 0 -0.0051206253064192842 0.0011556075783825772 0 -0.0050969811902360426 0.0012448214706402576 0 -0.0051575624839871612 0.0011824190175507999 0 -0.0051637371146092074 0.0012439945436178376 0 -0.0052151874791640501 0.0011513162869933042 0 -0.0052395509475463035 0.0012385236295473041 0 -0.0051637371146092074 0.0012439945436178376 0 -0.0051575624839871612 0.0011824190175507999 0 -0.0052151874791640501 0.0011513162869933042 0 -0.0051637371146092074 0.0012439945436178376 0 -0.0052151874791640501 0.0011513162869933042 0 -0.0052395509475463035 0.0012385236295473041 0 -0.0053100554239219932 0.0012010320665296927 0 -0.0052701036011337634 0.0012797921070947071 0 -0.005329883005360035 0.0013251483542377044 0 -0.0053100554239219932 0.0012010320665296927 0 -0.0052395509475463035 0.0012385236295473041 0 -0.0052701036011337634 0.0012797921070947071 0 -0.0053100554239219932 0.0012010320665296927 0 -0.0052395509475463035 0.0012385236295473041 0 -0.0052701036011337634 0.0012797921070947071 0 -0.005223758212705586 0.0012875633924826829 0 -0.0052701036011337634 0.0012797921070947071 0 -0.005223758212705586 0.0012875633924826829 0 -0.005248454926878963 0.001346167880279245 0 -0.0052701036011337634 0.0012797921070947071 0 -0.005248454926878963 0.001346167880279245 0 -0.005329883005360035 0.0013251483542377044 0 -0.0052395509475463035 0.0012385236295473041 0 -0.0051637371146092074 0.0012439945436178376 0 -0.005223758212705586 0.0012875633924826829 0 -0.005223758212705586 0.0012875633924826829 0 -0.0051885065837323132 0.0013212834014228207 0 -0.005248454926878963 0.001346167880279245 0 -0.0051637371146092074 0.0012439945436178376 0 -0.005223758212705586 0.0012875633924826829 0 -0.0051885065837323132 0.0013212834014228207 0 -0.0051637371146092074 0.0012439945436178376 0 -0.0051570799138665356 0.0013206066058187903 0 -0.0051994879150207649 0.0013236770575326096 0 -0.005170615704367814 0.0012620351037162171 0 -0.0051838947673667236 0.0012991990562558717 0 -0.0051885065837323132 0.0013212834014228207 0 -0.005248454926878963 0.001346167880279245 0 -0.0052176708303003552 0.0014050218325611936 0 -0.0051570799138665356 0.0013206066058187903 0 -0.0051994879150207649 0.0013236770575326096 0 -0.0052337656723421807 0.0014168446368026508 0 -0.0051838947673667236 0.0012991990562558717 0 -0.0052534154249654101 0.001560031734267937 0 -0.0053082491839609161 0.0015697053969797683 0 -0.0053007464692324743 0.0016952122951249032 0 -0.005352578372224138 0.0017103701320662604 0 -0.0053082491839609161 0.0015697053969797683 0 -0.005352578372224138 0.0017103701320662604 0 -0.0054284066257124621 0.0017254087864916122 0 -0.0052428026670508568 0.0014522747076174756 0 -0.0052534154249654101 0.001560031734267937 0 -0.005248454926878963 0.001346167880279245 0 -0.0052404793005716502 0.0014325420938770814 0 -0.0052176708303003552 0.0014050218325611936 0 -0.005248454926878963 0.001346167880279245 0 -0.0052404793005716502 0.0014325420938770814 0 -0.005329883005360035 0.0013251483542377044 0 -0.0051592318589354412 0.0016809328101493942 0 -0.0049208881509690402 0.0014327407287251849 0 -0.0046016308616510376 0.0017622717935711146 0 -0.0047153088057261426 0.0017647186103805737 0 -0.0046992966973362126 0.001645665061954819 0 -0.0046016308616510376 0.0017622717935711146 0 -0.0047004112155447954 0.0018854208319813604 0 -0.0047153088057261426 0.0017647186103805737 0 -0.0053373306872212933 0.0016732180194961154 0 -0.0053188583231154381 0.0016950952284348793 0 -0.0054110345624650931 0.0019247393729941173 0 -0.0054483826853076768 0.0017971972387409347 0 -0.0054136265766284901 0.0018383369476075557 0 -0.0055101229273779896 0.001988862571540846 0 -0.0051592318589354412 0.0016809328101493942 0 -0.005122938800932347 0.0019039714335416544 0 -0.0052895668140766107 0.0017132868681469079 0 -0.0052534154249654101 0.001560031734267937 0 -0.0051592318589354412 0.0016809328101493942 0 -0.0052534154249654101 0.001560031734267937 0 -0.0053089584725027747 0.0016605506843509134 0 -0.0052831791619143056 0.0016909028996059305 0 -0.0052403138158379874 0.0015802563374484634 0 -0.0051592318589354412 0.0016809328101493942 0 -0.0052895668140766107 0.0017132868681469079 0 -0.0053007464692324743 0.0016952122951249032 0 -0.005352578372224138 0.0017103701320662604 0 -0.0053315424426236286 0.0017813876022840754 0 -0.0053315424426236286 0.0017813876022840754 0 -0.0053937620504814193 0.0017800948308570224 0 -0.0053607231450692027 0.001836669992401285 0 -0.005352578372224138 0.0017103701320662604 0 -0.0053315424426236286 0.0017813876022840754 0 -0.0053937620504814193 0.0017800948308570224 0 -0.005352578372224138 0.0017103701320662604 0 -0.0054284066257124621 0.0017254087864916122 0 -0.0053937620504814193 0.0017800948308570224 0 -0.005453130180576248 0.0017935290066909877 0 -0.0054284066257124621 0.0017254087864916122 0 -0.0053937620504814193 0.0017800948308570224 0 -0.0053937620504814193 0.0017800948308570224 0 -0.0054136265766284901 0.0018383369476075557 0 -0.0053607231450692027 0.001836669992401285 0 -0.0052895668140766107 0.0017132868681469079 0 -0.0053282061513239276 0.0017420553243535153 0 -0.005453130180576248 0.0017935290066909877 0 -0.0053937620504814193 0.0017800948308570224 0 -0.0054136265766284901 0.0018383369476075557 0 -0.0054136265766284901 0.0018383369476075557 0 -0.0053607231450692027 0.001836669992401285 0 -0.0053688441558144648 0.0019006477219752297 0 -0.0053607231450692027 0.001836669992401285 0 -0.0053688441558144648 0.0019006477219752297 0 -0.0052917601123184596 0.0018862746138027656 0 -0.0053315424426236286 0.0017813876022840754 0 -0.0053607231450692027 0.001836669992401285 0 -0.0052917601123184596 0.0018862746138027656 0 -0.0053315424426236286 0.0017813876022840754 0 -0.005245505826140166 0.0017706983646860418 0 -0.0052917601123184596 0.0018862746138027656 0 -0.0051499170386345456 0.0018511170707331164 0 -0.005245505826140166 0.0017706983646860418 0 -0.0052917601123184596 0.0018862746138027656 0 -0.0051499170386345456 0.0018511170707331164 0 -0.005245505826140166 0.0017706983646860418 0 -0.005148671324661922 0.0017153326408391298 0 -0.0053007464692324743 0.0016952122951249032 0 -0.0053315424426236286 0.0017813876022840754 0 -0.005245505826140166 0.0017706983646860418 0 -0.0053007464692324743 0.0016952122951249032 0 -0.005245505826140166 0.0017706983646860418 0 -0.0052210716298453736 0.0016458399771754294 0 -0.005245505826140166 0.0017706983646860418 0 -0.005148671324661922 0.0017153326408391298 0 -0.0052210716298453736 0.0016458399771754294 0 -0.005148671324661922 0.0017153326408391298 0 -0.0052210716298453736 0.0016458399771754294 0 -0.0051258142933959553 0.0015795077235233514 0 -0.0052105495198438269 0.0015510561502266344 0 -0.0052210716298453736 0.0016458399771754294 0 -0.0051258142933959553 0.0015795077235233514 0 -0.0052105495198438269 0.0015510561502266344 0 -0.0053082491839609161 0.0015697053969797683 0 -0.0052210716298453736 0.0016458399771754294 0 -0.0053082491839609161 0.0015697053969797683 0 -0.0053007464692324743 0.0016952122951249032 0 -0.0052210716298453736 0.0016458399771754294 0 -0.0049999865593474205 0.0014314693418379966 0 -0.0051258142933959553 0.0015795077235233514 0 -0.0049999947936831823 0.0017286171962893255 0 -0.005148671324661922 0.0017153326408391298 0 -0.0051258142933959553 0.0015795077235233514 0 -0.0049999947936831823 0.0017286171962893255 0 -0.0051499170386345456 0.0018511170707331164 0 -0.005148671324661922 0.0017153326408391298 0 -0.0049999947936831823 0.0017286171962893255 0 -0.0051499170386345456 0.0018511170707331164 0 -0.0049999947936831823 0.0017286171962893255 0 -0.0049999930578801498 0.0020256889016730811 0 -0.0051499170386345456 0.0018511170707331164 0 -0.0049999930578801498 0.0020256889016730811 0 -0.0051921298660032008 0.0019844880577325631 0 -0.0051499170386345456 0.0018511170707331164 0 -0.0051921298660032008 0.0019844880577325631 0 -0.0052917601123184596 0.0018862746138027656 0 -0.0051921298660032008 0.0019844880577325631 0 -0.0053275273908507887 0.0020238248706678122 0 -0.0052917601123184596 0.0018862746138027656 0 -0.0051921298660032008 0.0019844880577325631 0 -0.00518721996113824 0.0021322277026914831 0 -0.0053275273908507887 0.0020238248706678122 0 -0.0049999930578801498 0.0020256889016730811 0 -0.0051921298660032008 0.0019844880577325631 0 -0.00518721996113824 0.0021322277026914831 0 -0.0049999958271587271 0.0020257269650353934 0 -0.0051912041216256415 0.0021554780411367938 0 -0.0049999966477227292 0.0022735860719426144 0 -0.005000037932387842 0.0020257397597626546 0 -0.0051872135167928676 0.0021432682243460802 0 -0.0051912041216256415 0.0021554780411367938 0 -0.0049999966477227292 0.0022735860719426144 0 -0.0051377921758019229 0.0022981910810034533 0 -0.0049999966477227292 0.0022735860719426144 0 -0.0051377921758019229 0.0022981910810034533 0 -0.0051505549335026917 0.0024401259540695643 0 -0.0051912041216256415 0.0021554780411367938 0 -0.0051377921758019229 0.0022981910810034533 0 -0.0052581635166973756 0.0023523742073696839 0 -0.0051912041216256415 0.0021554780411367938 0 -0.0052581635166973756 0.0023523742073696839 0 -0.0053610611038495204 0.0022713051987189822 0 -0.0051872135167928676 0.0021432682243460802 0 -0.0053653340042846059 0.0022591610698772342 0 -0.0053173427917395776 0.0024814367511800852 0 -0.0052581635166973756 0.0023523742073696839 0 -0.0051505549335026917 0.0024401259540695643 0 -0.0051377921758019229 0.0022981910810034533 0 -0.0052581635166973756 0.0023523742073696839 0 -0.0051505549335026917 0.0024401259540695643 0 -0.0049999954971144799 0.0025213778028993017 0 -0.0049999966477227292 0.0022735860719426144 0 -0.0051505549335026917 0.0024401259540695643 0 -0.0055259425587415555 0.0023615625984908569 0 -0.0054069155475816224 0.0024119655856262271 0 -0.0053610611038495204 0.0022713051987189822 0 -0.005566550540006987 0.0024778498784625673 0 -0.0055259425587415555 0.0023615625984908569 0 -0.0054863748906981355 0.0024455061864777782 0 -0.0055259425587415555 0.0023615625984908569 0 -0.0054863748906981355 0.0024455061864777782 0 -0.0054069155475816224 0.0024119655856262271 0 -0.0053173427917395776 0.0024814367511800852 0 -0.0052581635166973756 0.0023523742073696839 0 -0.0054069155475816224 0.0024119655856262271 0 -0.0052581635166973756 0.0023523742073696839 0 -0.0054069155475816224 0.0024119655856262271 0 -0.0053610611038495204 0.0022713051987189822 0 -0.0055259425587415555 0.0023615625984908569 0 -0.0053641303436871464 0.0022445854186563274 0 -0.0055638859575974425 0.0021784460636794763 0 -0.0055165962233191621 0.0023547344576521504 0 -0.0053653340042846059 0.0022591610698772342 0 -0.0054690530808555876 0.0019653908256004921 0 -0.0055341839054948083 0.0021623091437444316 0 -0.0054110345624650931 0.0019247393729941173 0 -0.0055364389373406516 0.0019033779133387555 0 -0.0055055934058666758 0.0021494576833027898 0 -0.0053641303436871464 0.0022445854186563274 0 -0.0054354515557415118 0.0020800541679331088 0 -0.0055638859575974425 0.0021784460636794763 0 -0.0054354515557415118 0.0020800541679331088 0 -0.0055101229273779896 0.001988862571540846 0 -0.0055638859575974425 0.0021784460636794763 0 -0.0053641303436871464 0.0022445854186563274 0 -0.0054354515557415118 0.0020800541679331088 0 -0.0053275273908507887 0.0020238248706678122 0 -0.00518721996113824 0.0021322277026914831 0 -0.0053641303436871464 0.0022445854186563274 0 -0.0053275273908507887 0.0020238248706678122 0 -0.0053275273908507887 0.0020238248706678122 0 -0.005411161151650485 0.0019585263092645792 0 -0.0053688441558144648 0.0019006477219752297 0 -0.0054354515557415118 0.0020800541679331088 0 -0.0053275273908507887 0.0020238248706678122 0 -0.005411161151650485 0.0019585263092645792 0 -0.0054136265766284901 0.0018383369476075557 0 -0.005411161151650485 0.0019585263092645792 0 -0.0053688441558144648 0.0019006477219752297 0 -0.0053275273908507887 0.0020238248706678122 0 -0.0053688441558144648 0.0019006477219752297 0 -0.0052917601123184596 0.0018862746138027656 0 -0.0052895668140766107 0.0017132868681469079 0 -0.0054690530808555876 0.0019653908256004921 0 -0.0053373306872212933 0.0016732180194961154 0 -0.0054110345624650931 0.0019247393729941173 0 -0.0055364389373406516 0.0019033779133387555 0 -0.0054354515557415118 0.0020800541679331088 0 -0.005411161151650485 0.0019585263092645792 0 -0.0055101229273779896 0.001988862571540846 0 -0.0054136265766284901 0.0018383369476075557 0 -0.005411161151650485 0.0019585263092645792 0 -0.0055101229273779896 0.001988862571540846 0 -0.0047004112155447954 0.0018854208319813604 0 -0.0048097049388572373 0.0018472392697553655 0 -0.0047153088057261426 0.0017647186103805737 0 -0.0048167307508484112 0.0018193037853490132 0 -0.0048249608446851834 0.0018984853207917008 0 -0.004882065533710957 0.0018525317657674819 0 -0.0047004112155447954 0.0018854208319813604 0 -0.0048097049388572373 0.0018472392697553655 0 -0.004811095926323174 0.0020128010228820737 0 -0.004783425797899565 0.0018078239285699647 0 -0.0050688410204435186 0.0020549723361487473 0 -0.0055364389373406516 0.0019033779133387555 0 -0.0057287873797867463 0.0021288295470293862 0 -0.0055055934058666758 0.0021494576833027898 0 -0.005122938800932347 0.0019039714335416544 0 -0.0050688410204435186 0.0020549723361487473 0 -0.0055259425587415555 0.0023615625984908569 0 -0.0055638859575974425 0.0021784460636794763 0 -0.0056082650307501848 0.0023598363853856463 0 -0.0057287873797867463 0.0021288295470293862 0 -0.0055055934058666758 0.0021494576833027898 0 -0.0056501268453463408 0.0022392260333791822 0 -0.0055341839054948083 0.0021623091437444316 0 -0.0056020603638548896 0.0023422258437347508 0 -0.0055055934058666758 0.0021494576833027898 0 -0.0056501268453463408 0.0022392260333791822 0 -0.0056082650307501848 0.0023598363853856463 0 -0.0057287873797867463 0.0021288295470293862 0 -0.0056501268453463408 0.0022392260333791822 0 -0.0057190964731287097 0.0023487489792370156 0 -0.0049902861197547478 0.0021327743415289857 0 -0.0049881838703319066 0.0021991435328492601 0 -0.0050462588977001994 0.0022008355477834934 0 -0.0050688410204435186 0.0020549723361487473 0 -0.0053916900816836279 0.0022895868731974563 0 -0.0050688410204435186 0.0020549723361487473 0 -0.0047888556717859453 0.002091946230300094 0 -0.0049862528097062648 0.0022659591731354779 0 -0.0049881838703319066 0.0021991435328492601 0 -0.0050462588977001994 0.0022008355477834934 0 -0.005705805850027103 0.0025305735729290011 0 -0.0057190964731287097 0.0023487489792370156 0 -0.0056524221117698762 0.0024387814709299909 0 -0.0049600997263450118 0.0023747039631860471 0 -0.0047888556717859453 0.002091946230300094 0 -0.0049600997263450118 0.0023747039631860471 0 -0.0053916900816836279 0.0022895868731974563 0 -0.005566550540006987 0.0024778498784625673 0 -0.0056524221117698762 0.0024387814709299909 0 -0.0056082650307501848 0.0023598363853856463 0 -0.005566550540006987 0.0024778498784625673 0 -0.0055259425587415555 0.0023615625984908569 0 -0.0056082650307501848 0.0023598363853856463 0 -0.0057190964731287097 0.0023487489792370156 0 -0.0056524221117698762 0.0024387814709299909 0 -0.0056082650307501848 0.0023598363853856463 0 -0.0056501268453463408 0.0022392260333791822 0 -0.0057190964731287097 0.0023487489792370156 0 -0.0056082650307501848 0.0023598363853856463 0 -0.0047431354334941962 0.0021926174975968591 0 -0.0046524401546828836 0.0020753745789847838 0 -0.0048076202882110725 0.0020645408859592839 0 -0.0048353644838374015 0.0021713228065131929 0 -0.0047431354334941962 0.0021926174975968591 0 -0.0048076202882110725 0.0020645408859592839 0 -0.004716863877784392 0.002166525631659753 0 -0.0047888556717859453 0.002091946230300094 0 -0.0046671480514636973 0.0022256827895583658 0 -0.0047431354334941962 0.0021926174975968591 0 -0.0046820404895760413 0.0021236293646622784 0 -0.0048249608446851834 0.0018984853207917008 0 -0.0048748909028353323 0.001950305816153648 0 -0.0048746325962986609 0.0019003985241928317 0 -0.0048748909028353323 0.001950305816153648 0 -0.0048746325962986609 0.0019003985241928317 0 -0.0049133722162107473 0.0019009846121928614 0 -0.0046524401546828836 0.0020753745789847838 0 -0.0047745769139459458 0.0019560228743336402 0 -0.0048076202882110725 0.0020645408859592839 0 -0.0047888556717859453 0.002091946230300094 0 -0.0048450061806902985 0.0019197791051854423 0 -0.0049133722162107473 0.0019009846121928614 0 -0.004882065533710957 0.0018525317657674819 0 -0.0049251881898824791 0.0018417202286850731 0 -0.0048746325962986609 0.0019003985241928317 0 -0.0049133722162107473 0.0019009846121928614 0 -0.004882065533710957 0.0018525317657674819 0 -0.0048249608446851834 0.0018984853207917008 0 -0.0048746325962986609 0.0019003985241928317 0 -0.004882065533710957 0.0018525317657674819 0 -0.0048167307508484112 0.0018193037853490132 0 -0.004882065533710957 0.0018525317657674819 0 -0.0048708620683585264 0.0017608443639355214 0 -0.004882065533710957 0.0018525317657674819 0 -0.0049251881898824791 0.0018417202286850731 0 -0.0049316221890761888 0.00178076431508877 0 -0.0049316221890761888 0.00178076431508877 0 -0.0049993055868471263 0.0016740412117067353 0 -0.0049550556380382835 0.0018211207938109795 0 -0.0049251881898824791 0.0018417202286850731 0 -0.0049316221890761888 0.00178076431508877 0 -0.0049550556380382835 0.0018211207938109795 0 -0.0049316221890761888 0.00178076431508877 0 -0.0049993055868471263 0.0016740412117067353 0 -0.0049155163212828649 0.0016766452641606092 0 -0.0049155163212828649 0.0016766452641606092 0 -0.0048708620683585264 0.0017608443639355214 0 -0.004809514433023015 0.0016805074441453498 0 -0.0049316221890761888 0.00178076431508877 0 -0.0049155163212828649 0.0016766452641606092 0 -0.0048708620683585264 0.0017608443639355214 0 -0.004882065533710957 0.0018525317657674819 0 -0.0049316221890761888 0.00178076431508877 0 -0.0048708620683585264 0.0017608443639355214 0 -0.0048167307508484112 0.0018193037853490132 0 -0.0048708620683585264 0.0017608443639355214 0 -0.004809514433023015 0.0016805074441453498 0 -0.004783425797899565 0.0018078239285699647 0 -0.0048174315323727601 0.0016985868190939077 0 -0.0048097049388572373 0.0018472392697553655 0 -0.0047153088057261426 0.0017647186103805737 0 -0.004809514433023015 0.0016805074441453498 0 -0.0047153088057261426 0.0017647186103805737 0 -0.0046705620563333361 0.0016241213358583126 0 -0.004809514433023015 0.0016805074441453498 0 -0.0046938401870076423 0.0018161478065494849 0 -0.0049208881509690402 0.0014327407287251849 0 -0.0046705620563333361 0.0016241213358583126 0 -0.004809514433023015 0.0016805074441453498 0 -0.0048514656162931841 0.001576436490841169 0 -0.0049155163212828649 0.0016766452641606092 0 -0.004809514433023015 0.0016805074441453498 0 -0.0048514656162931841 0.001576436490841169 0 -0.0048514656162931841 0.001576436490841169 0 -0.0047722107743159844 0.0014631196132982459 0 -0.0049508616976071318 0.001432631437075865 0 -0.0046705620563333361 0.0016241213358583126 0 -0.0048514656162931841 0.001576436490841169 0 -0.0047722107743159844 0.0014631196132982459 0 -0.0050937275902954498 0.0011450755861479773 0 -0.0050971096804390071 0.0011460885461133049 0 -0.0050928533380815147 0.0011388128063072203 0 -0.0049208881509690402 0.0014327407287251849 0 -0.0049347806517599348 0.0012956974365786265 0 -0.0049208881509690402 0.0014327407287251849 0 -0.005224021225055304 0.0011382022046183141 0 -0.0050971096804390071 0.0011460885461133049 0 -0.0050928533380815147 0.0011388128063072203 0 -0.0051071897451368383 0.0011504104409462287 0 -0.0050928533380815147 0.0011388128063072203 0 -0.0050299747159976383 0.0012159628064546898 0 -0.0051071897451368383 0.0011504104409462287 0 -0.0047722107743159844 0.0014631196132982459 0 -0.0049508616976071318 0.001432631437075865 0 -0.0050299747159976383 0.0012159628064546898 0 -0.0049347806517599348 0.0012956974365786265 0 -0.0050190157743517493 0.0012231974533688074 0 -0.0049508616976071318 0.001432631437075865 0 -0.0050428034280326798 0.0013507627549774598 0 -0.0049909853706997217 0.0015280838955812671 0 -0.0049508616976071318 0.001432631437075865 0 -0.0050428034280326798 0.0013507627549774598 0 -0.0050299747159976383 0.0012159628064546898 0 -0.0050428034280326798 0.0013507627549774598 0 -0.0049909853706997217 0.0015280838955812671 0 -0.0051141366046116576 0.0014219395808379466 0 -0.0049993055868471263 0.0016740412117067353 0 -0.0049909853706997217 0.0015280838955812671 0 -0.0051141366046116576 0.0014219395808379466 0 -0.0049993055868471263 0.0016740412117067353 0 -0.0049155163212828649 0.0016766452641606092 0 -0.0049909853706997217 0.0015280838955812671 0 -0.0048514656162931841 0.001576436490841169 0 -0.0049508616976071318 0.001432631437075865 0 -0.0049909853706997217 0.0015280838955812671 0 -0.0049155163212828649 0.0016766452641606092 0 -0.0048514656162931841 0.001576436490841169 0 -0.0049909853706997217 0.0015280838955812671 0 -0.0049923100216407107 0.0017420429751639286 0 -0.0050434980585944483 0.0016710853882117374 0 -0.0049787802895118272 0.0017671137127618008 0 -0.0049993055868471263 0.0016740412117067353 0 -0.0050667444460337262 0.0016520952670837621 0 -0.0051141366046116576 0.0014219395808379466 0 -0.0050266435620053883 0.0016930487886391834 0 -0.0050829444513126086 0.0015215953602964825 0 -0.0049923100216407107 0.0017420429751639286 0 -0.0050553599853210771 0.0016232981091216395 0 -0.0050434980585944483 0.0016710853882117374 0 -0.0050553599853210771 0.0016232981091216395 0 -0.0050434980585944483 0.0016710853882117374 0 -0.0051037079152496867 0.0015664767597399318 0 -0.0050434980585944483 0.0016710853882117374 0 -0.0049841956317535525 0.0017349217476164435 0 -0.0050009069880433523 0.0017124147390319209 0 -0.0050434980585944483 0.0016710853882117374 0 -0.0049841956317535525 0.0017349217476164435 0 -0.0049787802895118272 0.0017671137127618008 0 -0.0049841956317535525 0.0017349217476164435 0 -0.0049473719179912801 0.0017634402552341845 0 -0.0050009069880433523 0.0017124147390319209 0 -0.0049841956317535525 0.0017349217476164435 0 -0.0049473719179912801 0.0017634402552341845 0 -0.0049456385398311273 0.0017858673190415827 0 -0.0049473719179912801 0.0017634402552341845 0 -0.0049104932436447252 0.0018075100972891943 0 -0.0049456385398311273 0.0017858673190415827 0 -0.0049473719179912801 0.0017634402552341845 0 -0.0049104932436447252 0.0018075100972891943 0 -0.0049166478668752267 0.0017926062107422461 0 -0.0049456385398311273 0.0017858673190415827 0 -0.0048878740386602802 0.0018424593861992792 0 -0.0049171348441524008 0.0018356449655942666 0 -0.0049104932436447252 0.0018075100972891943 0 -0.0049456385398311273 0.0017858673190415827 0 -0.0048878740386602802 0.0018424593861992792 0 -0.0049456385398311273 0.0017858673190415827 0 -0.0049787802895118272 0.0017671137127618008 0 -0.0049171348441524008 0.0018356449655942666 0 -0.0049841956317535525 0.0017349217476164435 0 -0.0049456385398311273 0.0017858673190415827 0 -0.0049787802895118272 0.0017671137127618008 0 -0.0049171348441524008 0.0018356449655942666 0 -0.0049030207164291852 0.0018651111007838385 0 -0.0049621533265583285 0.0018125703975980056 0 -0.0049787802895118272 0.0017671137127618008 0 -0.0049171348441524008 0.0018356449655942666 0 -0.0049621533265583285 0.0018125703975980056 0 -0.0048878740386602802 0.0018424593861992792 0 -0.0049171348441524008 0.0018356449655942666 0 -0.0048470047589736021 0.0018830515468676477 0 -0.0049171348441524008 0.0018356449655942666 0 -0.0048616789753938294 0.0018808547857479879 0 -0.0048470047589736021 0.0018830515468676477 0 -0.0049171348441524008 0.0018356449655942666 0 -0.0049030207164291852 0.0018651111007838385 0 -0.0048616789753938294 0.0018808547857479879 0 -0.0049030207164291852 0.0018651111007838385 0 -0.0048616789753938294 0.0018808547857479879 0 -0.0048347842236993325 0.001883333708398118 0 -0.0048616789753938294 0.0018808547857479879 0 -0.0048347842236993325 0.001883333708398118 0 -0.0047807974963780184 0.0019139886038640145 0 -0.0049030207164291852 0.0018651111007838385 0 -0.0049621533265583285 0.0018125703975980056 0 -0.00490398270234268 0.0019150247862348437 0 -0.0049621533265583285 0.0018125703975980056 0 -0.0049550556380382835 0.0018211207938109795 0 -0.00490398270234268 0.0019150247862348437 0 -0.0050266435620053883 0.0016930487886391834 0 -0.0049763870098930418 0.0017921319799539797 0 -0.0050667444460337262 0.0016520952670837621 0 -0.0049621533265583285 0.0018125703975980056 0 -0.0049550556380382835 0.0018211207938109795 0 -0.0049923100216407107 0.0017420429751639286 0 -0.0049787802895118272 0.0017671137127618008 0 -0.0049621533265583285 0.0018125703975980056 0 -0.0049993055868471263 0.0016740412117067353 0 -0.0050667444460337262 0.0016520952670837621 0 -0.0049550556380382835 0.0018211207938109795 0 -0.0049251881898824791 0.0018417202286850731 0 -0.0049550556380382835 0.0018211207938109795 0 -0.0049130770274816169 0.0018768763223381787 0 -0.0049550556380382835 0.0018211207938109795 0 -0.0049130770274816169 0.0018768763223381787 0 -0.00490398270234268 0.0019150247862348437 0 -0.0049130770274816169 0.0018768763223381787 0 -0.0049054696031890759 0.0019503450147387571 0 -0.00490398270234268 0.0019150247862348437 0 -0.0049130770274816169 0.0018768763223381787 0 -0.0048757937693740911 0.001968882355148902 0 -0.0049054696031890759 0.0019503450147387571 0 -0.0047745769139459458 0.0019560228743336402 0 -0.0049130770274816169 0.0018768763223381787 0 -0.0048757937693740911 0.001968882355148902 0 -0.0049133722162107473 0.0019009846121928614 0 -0.0049251881898824791 0.0018417202286850731 0 -0.0049130770274816169 0.0018768763223381787 0 -0.0048450061806902985 0.0019197791051854423 0 -0.004903048257592052 0.0018846283735053358 0 -0.0047745769139459458 0.0019560228743336402 0 -0.0048757937693740911 0.001968882355148902 0 -0.0048076202882110725 0.0020645408859592839 0 -0.0048757937693740911 0.001968882355148902 0 -0.0048868600234219656 0.0020450735664456249 0 -0.0048076202882110725 0.0020645408859592839 0 -0.0048757937693740911 0.001968882355148902 0 -0.0048868600234219656 0.0020450735664456249 0 -0.0049054696031890759 0.0019503450147387571 0 -0.0048868600234219656 0.0020450735664456249 0 -0.0049164447903927815 0.0020071033882150561 0 -0.0049054696031890759 0.0019503450147387571 0 -0.0048353644838374015 0.0021713228065131929 0 -0.0049164277315575907 0.0021401762144777807 0 -0.0048868600234219656 0.0020450735664456249 0 -0.0049164277315575907 0.0021401762144777807 0 -0.0048868600234219656 0.0020450735664456249 0 -0.0049164447903927815 0.0020071033882150561 0 -0.0048353644838374015 0.0021713228065131929 0 -0.0048868600234219656 0.0020450735664456249 0 -0.0048076202882110725 0.0020645408859592839 0 -0.0049686278884578071 0.0020785596213999755 0 -0.0049164447903927815 0.0020071033882150561 0 -0.004823468542178546 0.0019099213801299928 0 -0.0045151972077515264 0.0020178812687568861 0 -0.0044930877635033411 0.00194460620763873 0 -0.0041163454794900297 0.0019417123029294235 0 -0.0040757624374822632 0.0019411204603065242 0 -0.0041834121521737381 0.0019237394483574107 0 -0.0049686278884578071 0.0020785596213999755 0 -0.0049164277315575907 0.0021401762144777807 0 -0.0049164447903927815 0.0020071033882150561 0 -0.0049164447903927815 0.0020071033882150561 0 -0.0049054696031890759 0.0019503450147387571 0 -0.004823468542178546 0.0019099213801299928 0 -0.0049054696031890759 0.0019503450147387571 0 -0.004823468542178546 0.0019099213801299928 0 -0.0047311720515077083 0.0019651252170522046 0 -0.0047311720515077083 0.0019651252170522046 0 -0.00490398270234268 0.0019150247862348437 0 -0.0045516142021949733 0.0020770432440784204 0 -0.0049054696031890759 0.0019503450147387571 0 -0.0047311720515077083 0.0019651252170522046 0 -0.00490398270234268 0.0019150247862348437 0 -0.0048707994590948787 0.0019209761576529699 0 -0.0046507000475242161 0.0019205982118540412 0 -0.00490398270234268 0.0019150247862348437 0 -0.0048347842236993325 0.001883333708398118 0 -0.0047726486715791959 0.001778111759331668 0 -0.0049030207164291852 0.0018651111007838385 0 -0.00490398270234268 0.0019150247862348437 0 -0.0048347842236993325 0.001883333708398118 0 -0.0048347842236993325 0.001883333708398118 0 -0.0047439023767510708 0.0018634669134781155 0 -0.0047726486715791959 0.001778111759331668 0 -0.0048347842236993325 0.001883333708398118 0 -0.0047439023767510708 0.0018634669134781155 0 -0.004697644517146448 0.001911273154544289 0 -0.0047439023767510708 0.0018634669134781155 0 -0.0046450620460724186 0.0018379604739855377 0 -0.004697644517146448 0.001911273154544289 0 -0.0047439023767510708 0.0018634669134781155 0 -0.0046450620460724186 0.0018379604739855377 0 -0.0047726486715791959 0.001778111759331668 0 -0.0045349787314396357 0.0018707352528062359 0 -0.0042451926508288778 0.001971255098013624 0 -0.0045554438200014593 0.0019485512328759912 0 -0.0045349787314396357 0.0018707352528062359 0 -0.0043958875106074515 0.0017373263661757425 0 -0.0042451926508288778 0.001971255098013624 0 -0.0045349787314396357 0.0018707352528062359 0 -0.0045554438200014593 0.0019485512328759912 0 -0.004697644517146448 0.001911273154544289 0 -0.0046450620460724186 0.0018379604739855377 0 -0.0045349787314396357 0.0018707352528062359 0 -0.004697644517146448 0.001911273154544289 0 -0.0046450620460724186 0.0018379604739855377 0 -0.0045349787314396357 0.0018707352528062359 0 -0.0043958875106074515 0.0017373263661757425 0 -0.0046450620460724186 0.0018379604739855377 0 -0.0043958875106074515 0.0017373263661757425 0 -0.0047726486715791959 0.001778111759331668 0 -0.0042586558767030878 0.0018822401211846191 0 -0.0046507000475242161 0.0019205982118540412 0 -0.0040989021968666555 0.0020119532193516622 0 -0.0045516142021949733 0.0020770432440784204 0 -0.00443381791180298 0.0020133633515126833 0 -0.0047311720515077083 0.0019651252170522046 0 -0.0045516142021949733 0.0020770432440784204 0 -0.00443381791180298 0.0020133633515126833 0 -0.0041834121521737381 0.0019237394483574107 0 -0.00443381791180298 0.0020133633515126833 0 -0.0042077282680821329 0.0019293265875975005 0 -0.0044930877635033411 0.00194460620763873 0 -0.0044242915859238688 0.0020307705934244418 0 -0.004823468542178546 0.0019099213801299928 0 -0.0047311720515077083 0.0019651252170522046 0 -0.00443381791180298 0.0020133633515126833 0 -0.0040989021968666555 0.0020119532193516622 0 -0.0042077282680821329 0.0019293265875975005 0 -0.0040696589828879163 0.0019346875700237982 0 -0.0040989021968666555 0.0020119532193516622 0 -0.00443381791180298 0.0020133633515126833 0 -0.0042077282680821329 0.0019293265875975005 0 -0.0042077282680821329 0.0019293265875975005 0 -0.0040944916270245907 0.0019294918877365266 0 -0.0041563975896512471 0.0019345274453803397 0 -0.0042077282680821329 0.0019293265875975005 0 -0.0040944916270245907 0.0019294918877365266 0 -0.0040696589828879163 0.0019346875700237982 0 -0.0041163454794900297 0.0019417123029294235 0 -0.0041834121521737381 0.0019237394483574107 0 -0.0041563975896512471 0.0019345274453803397 0 -0.0041163454794900297 0.0019417123029294235 0 -0.0040944916270245907 0.0019294918877365266 0 -0.0041563975896512471 0.0019345274453803397 0 -0.0041834121521737381 0.0019237394483574107 0 -0.0042077282680821329 0.0019293265875975005 0 -0.0041563975896512471 0.0019345274453803397 0 -0.0040045478591644017 0.0019312763868905751 0 -0.0040089376469586279 0.001895400580848678 0 -0.0038845540991476364 0.0019317127772045075 0 -0.0040944916270245907 0.0019294918877365266 0 -0.0040045478591644017 0.0019312763868905751 0 -0.0040696589828879163 0.0019346875700237982 0 -0.0040989021968666555 0.0020119532193516622 0 -0.0040696589828879163 0.0019346875700237982 0 -0.0040089376469586279 0.001895400580848678 0 -0.0040045478591644017 0.0019312763868905751 0 -0.0040696589828879163 0.0019346875700237982 0 -0.0040089376469586279 0.001895400580848678 0 -0.0042586558767030878 0.0018822401211846191 0 -0.0040424616230000949 0.0018882071322907242 0 -0.0040089376469586279 0.001895400580848678 0 -0.0041457044106690526 0.0018919071619768052 0 -0.0039769988463953781 0.0019781157664951953 0 -0.0043958875106074515 0.0017373263661757425 0 -0.0041457044106690526 0.0018919071619768052 0 -0.0042451926508288778 0.001971255098013624 0 -0.0043958875106074515 0.0017373263661757425 0 -0.0040089376469586279 0.001895400580848678 0 -0.0041457044106690526 0.0018919071619768052 0 -0.0042451926508288778 0.001971255098013624 0 -0.0040552599285558081 0.0020864193355242702 0 -0.0039769988463953781 0.0019781157664951953 0 -0.0041457044106690526 0.0018919071619768052 0 -0.0042451926508288778 0.001971255098013624 0 -0.0039769988463953781 0.0019781157664951953 0 -0.0040552599285558081 0.0020864193355242702 0 -0.004053193925267695 0.0021421482434479666 0 -0.0039619803116855423 0.0021352742109809328 0 -0.0041821313354649002 0.0021074500198711267 0 -0.004144479545405721 0.0021498348197372496 0 -0.0041133594313865684 0.0021565797585508524 0 -0.0040552599285558081 0.0020864193355242702 0 -0.004053193925267695 0.0021421482434479666 0 -0.0041821313354649002 0.0021074500198711267 0 -0.004053193925267695 0.0021421482434479666 0 -0.0041821313354649002 0.0021074500198711267 0 -0.0041133594313865684 0.0021565797585508524 0 -0.0042451926508288778 0.001971255098013624 0 -0.0045554438200014593 0.0019485512328759912 0 -0.0046656848613898195 0.0019763714297377582 0 -0.0042508430648854094 0.0019183930337706475 0 -0.0044277191554501077 0.0020913479392258801 0 -0.0042451926508288778 0.001971255098013624 0 -0.0040552599285558081 0.0020864193355242702 0 -0.0041821313354649002 0.0021074500198711267 0 -0.0045554438200014593 0.0019485512328759912 0 -0.0046946260231827382 0.0019464024159749124 0 -0.0046656848613898195 0.0019763714297377582 0 -0.0045554438200014593 0.0019485512328759912 0 -0.0046946260231827382 0.0019464024159749124 0 -0.004697644517146448 0.001911273154544289 0 -0.0048347842236993325 0.001883333708398118 0 -0.004697644517146448 0.001911273154544289 0 -0.0047807974963780184 0.0019139886038640145 0 -0.0046946260231827382 0.0019464024159749124 0 -0.004697644517146448 0.001911273154544289 0 -0.0047807974963780184 0.0019139886038640145 0 -0.0046946260231827382 0.0019464024159749124 0 -0.0047807974963780184 0.0019139886038640145 0 -0.0047751479883248417 0.0019206129371490764 0 -0.0048616789753938294 0.0018808547857479879 0 -0.0047807974963780184 0.0019139886038640145 0 -0.0048470047589736021 0.0018830515468676477 0 -0.0047807974963780184 0.0019139886038640145 0 -0.0047751479883248417 0.0019206129371490764 0 -0.0048470047589736021 0.0018830515468676477 0 -0.0048878740386602802 0.0018424593861992792 0 -0.0048470047589736021 0.0018830515468676477 0 -0.0048448044409544009 0.0018782244914752023 0 -0.0047751479883248417 0.0019206129371490764 0 -0.0048470047589736021 0.0018830515468676477 0 -0.0048448044409544009 0.0018782244914752023 0 -0.0047751479883248417 0.0019206129371490764 0 -0.0046656848613898195 0.0019763714297377582 0 -0.0048461598046739265 0.0018791895633319077 0 -0.0044277191554501077 0.0020913479392258801 0 -0.0044430479890678019 0.0017090529708599616 0 -0.0046946260231827382 0.0019464024159749124 0 -0.0047751479883248417 0.0019206129371490764 0 -0.0046656848613898195 0.0019763714297377582 0 -0.0046656848613898195 0.0019763714297377582 0 -0.004852067097030865 0.0018760390734443579 0 -0.0048461598046739265 0.0018791895633319077 0 -0.0041821313354649002 0.0021074500198711267 0 -0.004144479545405721 0.0021498348197372496 0 -0.0041497605162656636 0.0021596313165269088 0 -0.0044430479890678019 0.0017090529708599616 0 -0.0045652853088884796 0.0017064726449900942 0 -0.004144479545405721 0.0021498348197372496 0 -0.0041497605162656636 0.0021596313165269088 0 -0.0041348607606010741 0.0021577276137402669 0 -0.0047751479883248417 0.0019206129371490764 0 -0.0048448044409544009 0.0018782244914752023 0 -0.0048461598046739265 0.0018791895633319077 0 -0.0048878740386602802 0.0018424593861992792 0 -0.0048448044409544009 0.0018782244914752023 0 -0.0048703006263344567 0.0018496368735077191 0 -0.0048448044409544009 0.0018782244914752023 0 -0.0048461598046739265 0.0018791895633319077 0 -0.0048703006263344567 0.0018496368735077191 0 -0.0048461598046739265 0.0018791895633319077 0 -0.0048808417539646411 0.0018311015181139399 0 -0.0048703006263344567 0.0018496368735077191 0 -0.0048790254164248611 0.0018472782768096058 0 -0.0048461598046739265 0.0018791895633319077 0 -0.0048808417539646411 0.0018311015181139399 0 -0.0049104932436447252 0.0018075100972891943 0 -0.0048703006263344567 0.0018496368735077191 0 -0.0048969163583310422 0.0018132736654724868 0 -0.0049104932436447252 0.0018075100972891943 0 -0.0048878740386602802 0.0018424593861992792 0 -0.0048703006263344567 0.0018496368735077191 0 -0.0048808417539646411 0.0018311015181139399 0 -0.0048703006263344567 0.0018496368735077191 0 -0.0048969163583310422 0.0018132736654724868 0 -0.0048790254164248611 0.0018472782768096058 0 -0.0048808417539646411 0.0018311015181139399 0 -0.0049060462494405098 0.0017947766772555879 0 -0.0049473719179912801 0.0017634402552341845 0 -0.0049166478668752267 0.0017926062107422461 0 -0.0049060462494405098 0.0017947766772555879 0 -0.0044430479890678019 0.0017090529708599616 0 -0.0044781629311620502 0.00095506518162660531 0 -0.0049104932436447252 0.0018075100972891943 0 -0.0048969163583310422 0.0018132736654724868 0 -0.0049166478668752267 0.0017926062107422461 0 -0.0048969163583310422 0.0018132736654724868 0 -0.0049166478668752267 0.0017926062107422461 0 -0.0049060462494405098 0.0017947766772555879 0 -0.0048808417539646411 0.0018311015181139399 0 -0.0048969163583310422 0.0018132736654724868 0 -0.0049060462494405098 0.0017947766772555879 0 -0.0044781629311620502 0.00095506518162660531 0 -0.0040726503009518916 0.00067114804213927568 0 -0.0041461436790549561 0.00054872228556481308 0 -0.004220761283780885 0.00071269730054126384 0 -0.0041178242155470845 0.00066197652487716213 0 -0.0041497605162656636 0.0021596313165269088 0 -0.0041296469038590829 0.0021477222663203316 0 -0.0041348607606010741 0.0021577276137402669 0 -0.0044430479890678019 0.0017090529708599616 0 -0.0040595715698218552 0.001350503072393151 0 -0.0041461436790549561 0.00054872228556481308 0 -0.0041178242155470845 0.00066197652487716213 0 -0.0039971693350401216 0.00071375175032407272 0 -0.0042288034542167412 0.00069965110223346207 0 -0.0041178242155470845 0.00066197652487716213 0 -0.004104097669635447 0.00079837628035215799 0 -0.0041178242155470845 0.00066197652487716213 0 -0.0039971693350401216 0.00071375175032407272 0 -0.004104097669635447 0.00079837628035215799 0 -0.0041296469038590829 0.0021477222663203316 0 -0.0041427784025428703 0.0021529733868192531 0 -0.0041348607606010741 0.0021577276137402669 0 -0.0040070893337402309 0.0021945053815361098 0 -0.0039700456731115493 0.0021780489593338902 0 -0.0039678728252187621 0.0021985720609019837 0 -0.0040406718781380224 0.002202158844029448 0 -0.0040070893337402309 0.0021945053815361098 0 -0.0040056720493659931 0.0022129801068266298 0 -0.0040070893337402309 0.0021945053815361098 0 -0.0040056720493659931 0.0022129801068266298 0 -0.0039678728252187621 0.0021985720609019837 0 -0.0040070893337402309 0.0021945053815361098 0 -0.0040353204301643115 0.0021781313496328121 0 -0.0039700456731115493 0.0021780489593338902 0 -0.0040406718781380224 0.002202158844029448 0 -0.0040070893337402309 0.0021945053815361098 0 -0.0040353204301643115 0.0021781313496328121 0 -0.004053193925267695 0.0021421482434479666 0 -0.0040353204301643115 0.0021781313496328121 0 -0.0039700456731115493 0.0021780489593338902 0 -0.004053193925267695 0.0021421482434479666 0 -0.0040353204301643115 0.0021781313496328121 0 -0.0041133594313865684 0.0021565797585508524 0 -0.0040406718781380224 0.002202158844029448 0 -0.0040353204301643115 0.0021781313496328121 0 -0.0041133594313865684 0.0021565797585508524 0 -0.0041427784025428703 0.0021529733868192531 0 -0.0041133594313865684 0.0021565797585508524 0 -0.0041348607606010741 0.0021577276137402669 0 -0.0040901268541387115 0.0022585615558816797 0 -0.0041145085115302559 0.0021193612410840487 0 -0.004144479545405721 0.0021498348197372496 0 -0.0041133594313865684 0.0021565797585508524 0 -0.0041348607606010741 0.0021577276137402669 0 -0.0038210602811123216 0.0010120673487303612 0 -0.0038443831657240424 0.00089782809998636081 0 -0.0040140713303234172 0.0009854272503548628 0 -0.0037814825495909119 0.0012926218542168779 0 -0.0039964221879331156 0.00095315659225319043 0 -0.0038443831657240424 0.00089782809998636081 0 -0.0039891164089589804 0.00084909578522545325 0 -0.0040140713303234172 0.0009854272503548628 0 -0.0039879026627928525 0.0022882839070303132 0 -0.0040191827997780464 0.0022404488470970639 0 -0.0039868066410115467 0.0022336247645786569 0 -0.0037814825495909119 0.0012926218542168779 0 -0.0037696792518722389 0.0017808757655155328 0 -0.0039879026627928525 0.0022882839070303132 0 -0.0039868066410115467 0.0022336247645786569 0 -0.0039480206354106451 0.002239030659950552 0 -0.0038939121091212106 0.001656867036159475 0 -0.0038778726862540736 0.0016589912709530827 0 -0.0038996644705104415 0.001633984073027116 0 -0.0037696792518722389 0.0017808757655155328 0 -0.0039932175372022691 0.0017518483424121603 0 -0.0037814825495909119 0.0012926218542168779 0 -0.0039932175372022691 0.0017518483424121603 0 -0.0040406718781380224 0.002202158844029448 0 -0.0040191827997780464 0.0022404488470970639 0 -0.0040056720493659931 0.0022129801068266298 0 -0.0040191827997780464 0.0022404488470970639 0 -0.0039868066410115467 0.0022336247645786569 0 -0.0040056720493659931 0.0022129801068266298 0 -0.0039868066410115467 0.0022336247645786569 0 -0.0040056720493659931 0.0022129801068266298 0 -0.0039678728252187621 0.0021985720609019837 0 -0.0040595715698218552 0.001350503072393151 0 -0.0039932175372022691 0.0017518483424121603 0 -0.0039971693350401216 0.00071375175032407272 0 -0.0038443831657240424 0.00089782809998636081 0 -0.0039891164089589804 0.00084909578522545325 0 -0.0041296469038590829 0.0021477222663203316 0 -0.0041427784025428703 0.0021529733868192531 0 -0.004149892785362679 0.0021037567271437181 0 -0.0040901268541387115 0.0022585615558816797 0 -0.0039932175372022691 0.0017518483424121603 0 -0.0039971693350401216 0.00071375175032407272 0 -0.0039891164089589804 0.00084909578522545325 0 -0.004104097669635447 0.00079837628035215799 0 -0.0039891164089589804 0.00084909578522545325 0 -0.004104097669635447 0.00079837628035215799 0 -0.0040140713303234172 0.0009854272503548628 0 -0.0042288034542167412 0.00069965110223346207 0 -0.004104097669635447 0.00079837628035215799 0 -0.0041882688955629391 0.00093275551477630585 0 -0.0042288034542167412 0.00069965110223346207 0 -0.0041882688955629391 0.00093275551477630585 0 -0.0043721200070504784 0.00093193878265746975 0 -0.0044781629311620502 0.00095506518162660531 0 -0.0043754802469349163 0.00087951057757988367 0 -0.0041882688955629391 0.00093275551477630585 0 -0.0042511812692261385 0.0011180128164687106 0 -0.0043721200070504784 0.00093193878265746975 0 -0.0041882688955629391 0.00093275551477630585 0 -0.0040140713303234172 0.0009854272503548628 0 -0.0042511812692261385 0.0011180128164687106 0 -0.004104097669635447 0.00079837628035215799 0 -0.0041882688955629391 0.00093275551477630585 0 -0.0040140713303234172 0.0009854272503548628 0 -0.0040140713303234172 0.0009854272503548628 0 -0.0042511812692261385 0.0011180128164687106 0 -0.0040484207813448088 0.001260789764308117 0 -0.0040140713303234172 0.0009854272503548628 0 -0.0040484207813448088 0.001260789764308117 0 -0.0038603767619229739 0.0011561162873348432 0 -0.0042511812692261385 0.0011180128164687106 0 -0.004301183426622758 0.0014120824766058592 0 -0.004552192712996353 0.0012242811378876482 0 -0.0042511812692261385 0.0011180128164687106 0 -0.004301183426622758 0.0014120824766058592 0 -0.0040484207813448088 0.001260789764308117 0 -0.004301183426622758 0.0014120824766058592 0 -0.0040484207813448088 0.001260789764308117 0 -0.0039688197900096559 0.0015846432439650215 0 -0.0040484207813448088 0.001260789764308117 0 -0.0037781179972589882 0.0013455846514838987 0 -0.0038603767619229739 0.0011561162873348432 0 -0.0040484207813448088 0.001260789764308117 0 -0.0037781179972589882 0.0013455846514838987 0 -0.0039688197900096559 0.0015846432439650215 0 -0.0037148508591628437 0.0010043049436864247 0 -0.0040140713303234172 0.0009854272503548628 0 -0.0038603767619229739 0.0011561162873348432 0 -0.0037781179972589882 0.0013455846514838987 0 -0.0038603767619229739 0.0011561162873348432 0 -0.0036643868342300071 0.0012158061824096816 0 -0.0035798276830610542 0.0015602163826091107 0 -0.0036114282126781584 0.0015573696644095882 0 -0.0035907364685036436 0.0014955231579637171 0 -0.0037814825495909119 0.0012926218542168779 0 -0.0036284617401666449 0.0013611148763447158 0 -0.0036114282126781584 0.0015573696644095882 0 -0.0035907364685036436 0.0014955231579637171 0 -0.0036702036021566188 0.0014852208966069545 0 -0.0037148508591628437 0.0010043049436864247 0 -0.0038603767619229739 0.0011561162873348432 0 -0.0036643868342300071 0.0012158061824096816 0 -0.0037781179972589882 0.0013455846514838987 0 -0.0036643868342300071 0.0012158061824096816 0 -0.0036015087475410636 0.0014278133699490362 0 -0.0035907364685036436 0.0014955231579637171 0 -0.0036015087475410636 0.0014278133699490362 0 -0.0036702036021566188 0.0014852208966069545 0 -0.0036284617401666449 0.0013611148763447158 0 -0.0036075030111769849 0.0014195305286995924 0 -0.0037781179972589882 0.0013455846514838987 0 -0.0036042303274158522 0.0014333134898571131 0 -0.0036015087475410636 0.0014278133699490362 0 -0.0036042303274158522 0.0014333134898571131 0 -0.003544582101542227 0.0013229557608258787 0 -0.0036428442312646586 0.0013739767935820961 0 -0.0036042303274158522 0.0014333134898571131 0 -0.0036015087475410636 0.0014278133699490362 0 -0.0036428442312646586 0.0013739767935820961 0 -0.0037781179972589882 0.0013455846514838987 0 -0.0036042303274158522 0.0014333134898571131 0 -0.0039688197900096559 0.0015846432439650215 0 -0.0036042303274158522 0.0014333134898571131 0 -0.003544582101542227 0.0013229557608258787 0 -0.0034433623938715401 0.0013464643514210194 0 -0.0036120194427385461 0.0014350895148760158 0 -0.0037050016133783211 0.0014643208732069935 0 -0.003544582101542227 0.0013229557608258787 0 -0.0034838442566309993 0.0012469361518603161 0 -0.0034433623938715401 0.0013464643514210194 0 -0.003544582101542227 0.0013229557608258787 0 -0.0035770489537620422 0.0012384855863274997 0 -0.0036428442312646586 0.0013739767935820961 0 -0.003544582101542227 0.0013229557608258787 0 -0.0035770489537620422 0.0012384855863274997 0 -0.0034838442566309993 0.0012469361518603161 0 -0.0035824920526008022 0.0012582085991912019 0 -0.0036210822028104623 0.0013481698576991814 0 -0.0035770489537620422 0.0012384855863274997 0 -0.0035376377132875876 0.0011562919643850153 0 -0.0036423613969688374 0.0011758184102401029 0 -0.0035770489537620422 0.0012384855863274997 0 -0.0034838442566309993 0.0012469361518603161 0 -0.0035376377132875876 0.0011562919643850153 0 -0.0034838442566309993 0.0012469361518603161 0 -0.0034222745513986215 0.0011650400384713218 0 -0.0035376377132875876 0.0011562919643850153 0 -0.0034222745513986215 0.0011650400384713218 0 -0.0035376377132875876 0.0011562919643850153 0 -0.0034752986694560925 0.0010064786655415677 0 -0.0034222745513986215 0.0011650400384713218 0 -0.0033200367195276663 0.0010652307193587734 0 -0.0034752986694560925 0.0010064786655415677 0 -0.0035376377132875876 0.0011562919643850153 0 -0.0036064937130306359 0.0010763978621825222 0 -0.0034752986694560925 0.0010064786655415677 0 -0.0032435457084464196 0.0011340328745069865 0 -0.0033200367195276663 0.0010652307193587734 0 -0.003186783785690699 0.0010445580235576154 0 -0.0034222745513986215 0.0011650400384713218 0 -0.0032435457084464196 0.0011340328745069865 0 -0.0033200367195276663 0.0010652307193587734 0 -0.0034008346444812992 0.0011688977701272718 0 -0.0033669721325022169 0.0011731694987758671 0 -0.0034222745513986215 0.0011650400384713218 0 -0.0033827620191158344 0.0012256926394688078 0 -0.003401144850738321 0.0012416014602184681 0 -0.0034838442566309993 0.0012469361518603161 0 -0.0034222745513986215 0.0011650400384713218 0 -0.003401144850738321 0.0012416014602184681 0 -0.0033827620191158344 0.0012256926394688078 0 -0.003401144850738321 0.0012416014602184681 0 -0.0033842312509349583 0.0012413713965261136 0 -0.003401144850738321 0.0012416014602184681 0 -0.0033842312509349583 0.0012413713965261136 0 -0.0033793052096523996 0.0012648754233500941 0 -0.003401144850738321 0.0012416014602184681 0 -0.0033793052096523996 0.0012648754233500941 0 -0.0034433623938715401 0.0013464643514210194 0 -0.0034838442566309993 0.0012469361518603161 0 -0.003401144850738321 0.0012416014602184681 0 -0.0034433623938715401 0.0013464643514210194 0 -0.0038566754354010897 0.0014813170992267228 0 -0.0037050016133783211 0.0014643208732069935 0 -0.004301183426622758 0.0014120824766058592 0 -0.0043020361340607473 0.001707066158827092 0 -0.0039688197900096559 0.0015846432439650215 0 -0.004301183426622758 0.0014120824766058592 0 -0.0043020361340607473 0.001707066158827092 0 -0.0045410785686472287 0.0015919527765780514 0 -0.0045410785686472287 0.0015919527765780514 0 -0.0047759317512914932 0.0014873040045984482 0 -0.0048370185186212876 0.001695395550920228 0 -0.0045410785686472287 0.0015919527765780514 0 -0.0046313109696533858 0.0018246932987485177 0 -0.0048370185186212876 0.001695395550920228 0 -0.0033842312509349583 0.0012413713965261136 0 -0.0033793052096523996 0.0012648754233500941 0 -0.0034123842233969729 0.0012257906036999612 0 -0.0038566754354010897 0.0014813170992267228 0 -0.0039494296630982638 0.0015928177889935724 0 -0.0043020361340607473 0.001707066158827092 0 -0.0045410785686472287 0.0015919527765780514 0 -0.0046313109696533858 0.0018246932987485177 0 -0.0033669721325022169 0.0011731694987758671 0 -0.0030557852595079903 0.0012289460469939214 0 -0.0033842312509349583 0.0012413713965261136 0 -0.0034123842233969729 0.0012257906036999612 0 -0.003405453222432952 0.0012602642313037666 0 -0.0033827620191158344 0.0012256926394688078 0 -0.0033842312509349583 0.0012413713965261136 0 -0.003405453222432952 0.0012602642313037666 0 -0.0034123842233969729 0.0012257906036999612 0 -0.003405453222432952 0.0012602642313037666 0 -0.0034531111228143984 0.0012472923577803293 0 -0.0030557852595079903 0.0012289460469939214 0 -0.0042230276886971504 0.00076288592111176871 0 -0.0039494296630982638 0.0015928177889935724 0 -0.0046994041341903194 0.00096316556686622777 0 -0.0034123842233969729 0.0012257906036999612 0 -0.0034531111228143984 0.0012472923577803293 0 -0.0035133202062555516 0.0012388325139760683 0 -0.003405453222432952 0.0012602642313037666 0 -0.0034531111228143984 0.0012472923577803293 0 -0.0034995038062155346 0.0012672787036471288 0 -0.0031039085434135601 0.001037651098835909 0 -0.0030163267126907234 0.0011048303181350433 0 -0.0030584903932155904 0.00097398264743650521 0 -0.0031144865899480224 0.0011088538502778559 0 -0.0031039085434135601 0.001037651098835909 0 -0.0030163267126907234 0.0011048303181350433 0 -0.0031144865899480224 0.0011088538502778559 0 -0.0031039085434135601 0.001037651098835909 0 -0.003186783785690699 0.0010445580235576154 0 -0.0032435457084464196 0.0011340328745069865 0 -0.0031144865899480224 0.0011088538502778559 0 -0.003186783785690699 0.0010445580235576154 0 -0.0055552714561783343 0.00021932802869956673 0 -0.0056748466897449659 0.00031781469862914534 0 -0.0055709976958913995 0.00025490866051170602 0 -0.0056525443462830732 0.0003866371425292852 0 -0.0055328397171925964 0.00037971550586108146 0 -0.0055709976958913995 0.00025490866051170602 0 -0.0055983295041743255 0.00020543372367991551 0 -0.0056165550331603829 0.00012801349378041069 0 -0.0055709976958913995 0.00025490866051170602 0 -0.0056015940895655144 0.00023972814897531196 0 -0.0056091225691971888 0.00024311422324729283 0 -0.0055709976958913995 0.00025490866051170602 0 -0.0056015940895655144 0.00023972814897531196 0 -0.0055983295041743255 0.00020543372367991551 0 -0.0056015940895655144 0.00023972814897531196 0 -0.0056025418842696141 0.00024569825111723446 0 -0.0056191619799557391 0.000263876688485559 0 -0.0056025418842696141 0.00024569825111723446 0 -0.0056043674404132196 0.00025494294225268324 0 -0.0055919241038791343 0.00024840433507601834 0 -0.0056015940895655144 0.00023972814897531196 0 -0.0056025418842696141 0.00024569825111723446 0 -0.0055976182477666635 0.00023110865278250313 0 -0.0056025418842696141 0.00024569825111723446 0 -0.0055976182477666635 0.00023110865278250313 0 -0.0055919241038791343 0.00024840433507601834 0 -0.0056015940895655144 0.00023972814897531196 0 -0.0055976182477666635 0.00023110865278250313 0 -0.0055983295041743255 0.00020543372367991551 0 -0.0042230276886971504 0.00076288592111176871 0 -0.0042361647093667803 0.00075269624326306113 0 -0.0055141144624897597 0.00022434266238318312 0 -0.0055328397171925964 0.00037971550586108146 0 -0.0053828505891683745 0.00040255224845967138 0 -0.0055709976958913995 0.00025490866051170602 0 -0.0055141144624897597 0.00022434266238318312 0 -0.0055328397171925964 0.00037971550586108146 0 -0.0044858351832376166 0.00080901210832675979 0 -0.0046593925264254545 0.00045275388983411288 0 -0.0054493791331285679 0.00076562055393659576 0 -0.0042230276886971504 0.00076288592111176871 0 -0.0046994041341903194 0.00096316556686622777 0 -0.0034531111228143984 0.0012472923577803293 0 -0.0034995038062155346 0.0012672787036471288 0 -0.0035133202062555516 0.0012388325139760683 0 -0.0058254531198166579 0.00034035202185772639 0 -0.0056587077223834983 0.00037358506273871896 0 -0.005732201394325692 0.00055492015729873749 0 -0.0042230276886971504 0.00076288592111176871 0 -0.0056493127342544863 0.00052560138901568988 0 -0.0055709976958913995 0.00025490866051170602 0 -0.0055141144624897597 0.00022434266238318312 0 -0.0056091225691971888 0.00024311422324729283 0 -0.0046994041341903194 0.00096316556686622777 0 -0.0056493127342544863 0.00052560138901568988 0 -0.0058254531198166579 0.00034035202185772639 0 -0.0056691622563868676 0.00026949468064253594 0 -0.0056587077223834983 0.00037358506273871896 0 -0.0056691622563868676 0.00026949468064253594 0 -0.0056334106429388577 0.00031536889450719169 0 -0.0056587077223834983 0.00037358506273871896 0 -0.0056025418842696141 0.00024569825111723446 0 -0.0056191619799557391 0.000263876688485559 0 -0.0056043674404132196 0.00025494294225268324 0 -0.0056191619799557391 0.000263876688485559 0 -0.005604931447885029 0.0002846076958088729 0 -0.0055978165166850015 0.00026434958294094312 0 -0.0056043674404132196 0.00025494294225268324 0 -0.0055978165166850015 0.00026434958294094312 0 -0.0055919241038791343 0.00024840433507601834 0 -0.0056191619799557391 0.000263876688485559 0 -0.0056043674404132196 0.00025494294225268324 0 -0.0055978165166850015 0.00026434958294094312 0 -0.0056015940895655144 0.00023972814897531196 0 -0.0056191619799557391 0.000263876688485559 0 -0.0056091225691971888 0.00024311422324729283 0 -0.0056403575402113586 0.00049893345513093057 0 -0.0056493127342544863 0.00052560138901568988 0 -0.0056191619799557391 0.000263876688485559 0 -0.0056691622563868676 0.00026949468064253594 0 -0.0056334106429388577 0.00031536889450719169 0 -0.0056191619799557391 0.000263876688485559 0 -0.005604931447885029 0.0002846076958088729 0 -0.0056334106429388577 0.00031536889450719169 0 -0.005604931447885029 0.0002846076958088729 0 -0.0056334106429388577 0.00031536889450719169 0 -0.005596847767717076 0.00032433808446159969 0 -0.0056334106429388577 0.00031536889450719169 0 -0.0056587077223834983 0.00037358506273871896 0 -0.005596847767717076 0.00032433808446159969 0 -0.0046994041341903194 0.00096316556686622777 0 -0.0054564324119656237 0.0011201652280108494 0 -0.0056587077223834983 0.00037358506273871896 0 -0.005732201394325692 0.00055492015729873749 0 -0.0056044905527011966 0.00047836417783678469 0 -0.005732201394325692 0.00055492015729873749 0 -0.00554414523376239 0.00063263757577197927 0 -0.0056044905527011966 0.00047836417783678469 0 -0.0046313109696533858 0.0018246932987485177 0 -0.0049549913868612164 0.001941796836638902 0 -0.0048370185186212876 0.001695395550920228 0 -0.0049549913868612164 0.001941796836638902 0 -0.0050807669673072669 0.001697651103092632 0 -0.0048370185186212876 0.001695395550920228 0 -0.0047759317512914932 0.0014873040045984482 0 -0.0048370185186212876 0.001695395550920228 0 -0.0049985935693066365 0.0015062972054063811 0 -0.0050807669673072669 0.001697651103092632 0 -0.0048370185186212876 0.001695395550920228 0 -0.0049985935693066365 0.0015062972054063811 0 -0.0054564324119656237 0.0011201652280108494 0 -0.0053970139331510954 0.0011268497348462844 0 -0.0050807669673072669 0.001697651103092632 0 -0.0049985935693066365 0.0015062972054063811 0 -0.0052070320753770981 0.0014469932076474649 0 -0.005732201394325692 0.00055492015729873749 0 -0.0056166164866204215 0.00080712152005535777 0 -0.00554414523376239 0.00063263757577197927 0 -0.0052070320753770981 0.0014469932076474649 0 -0.005098886821352411 0.001233035688227234 0 -0.0053255583697537226 0.0011412512179642261 0 -0.0049985935693066365 0.0015062972054063811 0 -0.0052070320753770981 0.0014469932076474649 0 -0.005098886821352411 0.001233035688227234 0 -0.005098886821352411 0.001233035688227234 0 -0.0049523223738679205 0.00095847256053966832 0 -0.0052529011790733325 0.0011687413851130593 0 -0.005098886821352411 0.001233035688227234 0 -0.0048308081502618774 0.0012408509152259269 0 -0.0049523223738679205 0.00095847256053966832 0 -0.0049985935693066365 0.0015062972054063811 0 -0.005098886821352411 0.001233035688227234 0 -0.0048308081502618774 0.0012408509152259269 0 -0.0047759317512914932 0.0014873040045984482 0 -0.0049985935693066365 0.0015062972054063811 0 -0.0048308081502618774 0.0012408509152259269 0 -0.0045410785686472287 0.0015919527765780514 0 -0.0047759317512914932 0.0014873040045984482 0 -0.004552192712996353 0.0012242811378876482 0 -0.0047759317512914932 0.0014873040045984482 0 -0.0048308081502618774 0.0012408509152259269 0 -0.004552192712996353 0.0012242811378876482 0 -0.004301183426622758 0.0014120824766058592 0 -0.0045410785686472287 0.0015919527765780514 0 -0.004552192712996353 0.0012242811378876482 0 -0.004552192712996353 0.0012242811378876482 0 -0.0046725263308473814 0.0010356085814992374 0 -0.0044492909143136784 0.00094143624892447395 0 -0.0045587391129808339 0.0012384740807849313 0 -0.0043754802469349163 0.00087951057757988367 0 -0.0042511812692261385 0.0011180128164687106 0 -0.004552192712996353 0.0012242811378876482 0 -0.0043721200070504784 0.00093193878265746975 0 -0.0048308081502618774 0.0012408509152259269 0 -0.0046725263308473814 0.0010356085814992374 0 -0.0049523223738679205 0.00095847256053966832 0 -0.0048308081502618774 0.0012408509152259269 0 -0.004552192712996353 0.0012242811378876482 0 -0.0046725263308473814 0.0010356085814992374 0 -0.0046725263308473814 0.0010356085814992374 0 -0.0046230764081945487 0.00080996146347993867 0 -0.0049523223738679205 0.00095847256053966832 0 -0.0048475909921413202 0.0013042928741474218 0 -0.0050203364548239062 0.0012289615263206422 0 -0.0046725263308473814 0.0010356085814992374 0 -0.0044492909143136784 0.00094143624892447395 0 -0.0046230764081945487 0.00080996146347993867 0 -0.0044781629311620502 0.00095506518162660531 0 -0.0048475909921413202 0.0013042928741474218 0 -0.0043333027286960113 0.00067948429543322785 0 -0.0044492909143136784 0.00094143624892447395 0 -0.0046230764081945487 0.00080996146347993867 0 -0.0049473719179912801 0.0017634402552341845 0 -0.0049060462494405098 0.0017947766772555879 0 -0.0050009069880433523 0.0017124147390319209 0 -0.0050434980585944483 0.0016710853882117374 0 -0.0050009069880433523 0.0017124147390319209 0 -0.0051277597709651762 0.0015440353960975825 0 -0.0050434980585944483 0.0016710853882117374 0 -0.0051037079152496867 0.0015664767597399318 0 -0.0051277597709651762 0.0015440353960975825 0 -0.0050553599853210771 0.0016232981091216395 0 -0.0051037079152496867 0.0015664767597399318 0 -0.0051620411074975508 0.0014361635822936767 0 -0.0050203364548239062 0.0012289615263206422 0 -0.0052190024409110329 0.0011848448282697499 0 -0.0051037079152496867 0.0015664767597399318 0 -0.0051620411074975508 0.0014361635822936767 0 -0.0051277597709651762 0.0015440353960975825 0 -0.0051620411074975508 0.0014361635822936767 0 -0.0051277597709651762 0.0015440353960975825 0 -0.0052529011790733325 0.0011687413851130593 0 -0.0051914685679788665 0.0012499977636506348 0 -0.0051103870642660492 0.0014197369584771741 0 -0.0051752194120671712 0.0010966054823814567 0 -0.0051141103545371356 0.0013016845648640175 0 -0.0051545816875478972 0.0011276802704804636 0 -0.0051020545726524775 0.0011841809073699049 0 -0.0051179596086192965 0.001130033065197102 0 -0.0051752194120671712 0.0010966054823814567 0 -0.0051620411074975508 0.0014361635822936767 0 -0.0051914685679788665 0.0012499977636506348 0 -0.0052529011790733325 0.0011687413851130593 0 -0.0051620411074975508 0.0014361635822936767 0 -0.0051914685679788665 0.0012499977636506348 0 -0.0051103870642660492 0.0014197369584771741 0 -0.0050428034280326798 0.0013507627549774598 0 -0.0051141366046116576 0.0014219395808379466 0 -0.0051020545726524775 0.0011841809073699049 0 -0.0050829444513126086 0.0015215953602964825 0 -0.0051141103545371356 0.0013016845648640175 0 -0.0050553599853210771 0.0016232981091216395 0 -0.0051620411074975508 0.0014361635822936767 0 -0.0051103870642660492 0.0014197369584771741 0 -0.0051020545726524775 0.0011841809073699049 0 -0.0050299747159976383 0.0012159628064546898 0 -0.0051179596086192965 0.001130033065197102 0 -0.0050428034280326798 0.0013507627549774598 0 -0.0051020545726524775 0.0011841809073699049 0 -0.0050299747159976383 0.0012159628064546898 0 -0.0050299747159976383 0.0012159628064546898 0 -0.0051071897451368383 0.0011504104409462287 0 -0.0051179596086192965 0.001130033065197102 0 -0.0051071897451368383 0.0011504104409462287 0 -0.0051316055631582735 0.0010737210773769472 0 -0.0050894164036191444 0.0011076885658239909 0 -0.0050971096804390071 0.0011460885461133049 0 -0.0051071897451368383 0.0011504104409462287 0 -0.0050894164036191444 0.0011076885658239909 0 -0.0051316055631582735 0.0010737210773769472 0 -0.0051439732022787532 0.0010049201815376749 0 -0.0051627175370152645 0.00098989840363977863 0 -0.0051316055631582735 0.0010737210773769472 0 -0.0051439732022787532 0.0010049201815376749 0 -0.0050894164036191444 0.0011076885658239909 0 -0.0051316055631582735 0.0010737210773769472 0 -0.0051179596086192965 0.001130033065197102 0 -0.0051627175370152645 0.00098989840363977863 0 -0.0051071897451368383 0.0011504104409462287 0 -0.0051316055631582735 0.0010737210773769472 0 -0.0051179596086192965 0.001130033065197102 0 -0.0051179596086192965 0.001130033065197102 0 -0.0051627175370152645 0.00098989840363977863 0 -0.0051752194120671712 0.0010966054823814567 0 -0.0051627175370152645 0.00098989840363977863 0 -0.0052051246158781499 0.00092682233105169007 0 -0.0051752194120671712 0.0010966054823814567 0 -0.0051439732022787532 0.0010049201815376749 0 -0.0051627175370152645 0.00098989840363977863 0 -0.0051536081254528786 0.0009243099963115902 0 -0.0051627175370152645 0.00098989840363977863 0 -0.0051536081254528786 0.0009243099963115902 0 -0.0051785151853710179 0.00084300698157493341 0 -0.0051536081254528786 0.0009243099963115902 0 -0.0051785151853710179 0.00084300698157493341 0 -0.0051336985060266354 0.00073252904457669563 0 -0.0051785151853710179 0.00084300698157493341 0 -0.0052178610039071245 0.00074345481641820285 0 -0.0051731920588995554 0.00066043519703420863 0 -0.0051785151853710179 0.00084300698157493341 0 -0.0051731920588995554 0.00066043519703420863 0 -0.0051336985060266354 0.00073252904457669563 0 -0.0051627175370152645 0.00098989840363977863 0 -0.0051785151853710179 0.00084300698157493341 0 -0.0052051246158781499 0.00092682233105169007 0 -0.0051785151853710179 0.00084300698157493341 0 -0.0052051246158781499 0.00092682233105169007 0 -0.0052178610039071245 0.00074345481641820285 0 -0.0052051246158781499 0.00092682233105169007 0 -0.0052527779925226944 0.00080991869257071212 0 -0.0052178610039071245 0.00074345481641820285 0 -0.0052051246158781499 0.00092682233105169007 0 -0.0052527779925226944 0.00080991869257071212 0 -0.0052562690604386333 0.0010176038177072369 0 -0.0052527779925226944 0.00080991869257071212 0 -0.0053120253147782839 0.00085525309056382244 0 -0.0052562690604386333 0.0010176038177072369 0 -0.0053120253147782839 0.00085525309056382244 0 -0.0052562690604386333 0.0010176038177072369 0 -0.0053984479105293201 0.00088602248032706922 0 -0.0052051246158781499 0.00092682233105169007 0 -0.0052562690604386333 0.0010176038177072369 0 -0.0051752194120671712 0.0010966054823814567 0 -0.0051914685679788665 0.0012499977636506348 0 -0.0051752194120671712 0.0010966054823814567 0 -0.0052428981385109277 0.0011395594880963303 0 -0.0052562690604386333 0.0010176038177072369 0 -0.0051752194120671712 0.0010966054823814567 0 -0.0052428981385109277 0.0011395594880963303 0 -0.005098886821352411 0.001233035688227234 0 -0.0052529011790733325 0.0011687413851130593 0 -0.0053255583697537226 0.0011412512179642261 0 -0.0051914685679788665 0.0012499977636506348 0 -0.0052529011790733325 0.0011687413851130593 0 -0.0052428981385109277 0.0011395594880963303 0 -0.0052529011790733325 0.0011687413851130593 0 -0.0052428981385109277 0.0011395594880963303 0 -0.0053255583697537226 0.0011412512179642261 0 -0.0052562690604386333 0.0010176038177072369 0 -0.0052428981385109277 0.0011395594880963303 0 -0.0053255583697537226 0.0011412512179642261 0 -0.0053970139331510954 0.0011268497348462844 0 -0.0053492750606016397 0.0011375258703707216 0 -0.0056166164866204215 0.00080712152005535777 0 -0.0053255583697537226 0.0011412512179642261 0 -0.0053984479105293201 0.00088602248032706922 0 -0.0052562690604386333 0.0010176038177072369 0 -0.0053255583697537226 0.0011412512179642261 0 -0.0053984479105293201 0.00088602248032706922 0 -0.0053984479105293201 0.00088602248032706922 0 -0.00554414523376239 0.00063263757577197927 0 -0.0053858428855356501 0.00065709866526340974 0 -0.0056166164866204215 0.00080712152005535777 0 -0.0053984479105293201 0.00088602248032706922 0 -0.00554414523376239 0.00063263757577197927 0 -0.0052527779925226944 0.00080991869257071212 0 -0.0053858428855356501 0.00065709866526340974 0 -0.0052842663687267914 0.00064134622115392709 0 -0.0053120253147782839 0.00085525309056382244 0 -0.0053984479105293201 0.00088602248032706922 0 -0.0053858428855356501 0.00065709866526340974 0 -0.0052527779925226944 0.00080991869257071212 0 -0.0053120253147782839 0.00085525309056382244 0 -0.0053858428855356501 0.00065709866526340974 0 -0.0053858428855356501 0.00065709866526340974 0 -0.0053907499585343077 0.00050857399353441729 0 -0.0052842663687267914 0.00064134622115392709 0 -0.0053858428855356501 0.00065709866526340974 0 -0.0053907499585343077 0.00050857399353441729 0 -0.0055133470644822208 0.00047848744694602098 0 -0.0053907499585343077 0.00050857399353441729 0 -0.0055133470644822208 0.00047848744694602098 0 -0.0054725756463168632 0.00036939916162503889 0 -0.0053907499585343077 0.00050857399353441729 0 -0.0054725756463168632 0.00036939916162503889 0 -0.0053689650943061114 0.00042111207489055493 0 -0.0053907499585343077 0.00050857399353441729 0 -0.0053689650943061114 0.00042111207489055493 0 -0.0053042870891644315 0.00050489461260267441 0 -0.00554414523376239 0.00063263757577197927 0 -0.0055133470644822208 0.00047848744694602098 0 -0.0056044905527011966 0.00047836417783678469 0 -0.00554414523376239 0.00063263757577197927 0 -0.0053858428855356501 0.00065709866526340974 0 -0.0055133470644822208 0.00047848744694602098 0 -0.0055133470644822208 0.00047848744694602098 0 -0.0056044905527011966 0.00047836417783678469 0 -0.0055636292926249742 0.00038150998870878551 0 -0.0056587077223834983 0.00037358506273871896 0 -0.0056044905527011966 0.00047836417783678469 0 -0.0055636292926249742 0.00038150998870878551 0 -0.0056587077223834983 0.00037358506273871896 0 -0.0055636292926249742 0.00038150998870878551 0 -0.005596847767717076 0.00032433808446159969 0 -0.0055636292926249742 0.00038150998870878551 0 -0.005596847767717076 0.00032433808446159969 0 -0.0055503235686838832 0.00030994659937410456 0 -0.005596847767717076 0.00032433808446159969 0 -0.0055503235686838832 0.00030994659937410456 0 -0.0055848526715633869 0.00028819599316983363 0 -0.005604931447885029 0.0002846076958088729 0 -0.005596847767717076 0.00032433808446159969 0 -0.0055848526715633869 0.00028819599316983363 0 -0.0055503235686838832 0.00030994659937410456 0 -0.0055751676034366043 0.00026388110164644836 0 -0.0055848526715633869 0.00028819599316983363 0 -0.0055503235686838832 0.00030994659937410456 0 -0.0055751676034366043 0.00026388110164644836 0 -0.0055454244057720377 0.00025883440439551132 0 -0.0055751676034366043 0.00026388110164644836 0 -0.0055978165166850015 0.00026434958294094312 0 -0.0055848526715633869 0.00028819599316983363 0 -0.0055751676034366043 0.00026388110164644836 0 -0.0055978165166850015 0.00026434958294094312 0 -0.0055919241038791343 0.00024840433507601834 0 -0.005604931447885029 0.0002846076958088729 0 -0.0055978165166850015 0.00026434958294094312 0 -0.0055848526715633869 0.00028819599316983363 0 -0.0055503235686838832 0.00030994659937410456 0 -0.0054925101581647356 0.00028262685284191494 0 -0.0055454244057720377 0.00025883440439551132 0 -0.0055503235686838832 0.00030994659937410456 0 -0.0054725756463168632 0.00036939916162503889 0 -0.0054925101581647356 0.00028262685284191494 0 -0.0055133470644822208 0.00047848744694602098 0 -0.0055636292926249742 0.00038150998870878551 0 -0.0054725756463168632 0.00036939916162503889 0 -0.0055636292926249742 0.00038150998870878551 0 -0.0055503235686838832 0.00030994659937410456 0 -0.0054725756463168632 0.00036939916162503889 0 -0.0054725756463168632 0.00036939916162503889 0 -0.0053689650943061114 0.00042111207489055493 0 -0.0053999616441116165 0.00030561088952807918 0 -0.0053999616441116165 0.00030561088952807918 0 -0.0054925101581647356 0.00028262685284191494 0 -0.0054582998305780679 0.00023042660578337671 0 -0.0054725756463168632 0.00036939916162503889 0 -0.0053999616441116165 0.00030561088952807918 0 -0.0054925101581647356 0.00028262685284191494 0 -0.0054925101581647356 0.00028262685284191494 0 -0.0054582998305780679 0.00023042660578337671 0 -0.0055227989096914539 0.00021669895451703738 0 -0.0053999616441116165 0.00030561088952807918 0 -0.0054582998305780679 0.00023042660578337671 0 -0.00539989986151025 0.00019489833560275998 0 -0.0054582998305780679 0.00023042660578337671 0 -0.0054772898704997831 0.00016158699828173058 0 -0.00539989986151025 0.00019489833560275998 0 -0.0054772898704997831 0.00016158699828173058 0 -0.00539989986151025 0.00019489833560275998 0 -0.0054194485576532538 7.9606378874915284e-05 0 -0.0054582998305780679 0.00023042660578337671 0 -0.0054772898704997831 0.00016158699828173058 0 -0.0055227989096914539 0.00021669895451703738 0 -0.0054772898704997831 0.00016158699828173058 0 -0.0055540191248106708 0.00016693742138344827 0 -0.0055227989096914539 0.00021669895451703738 0 -0.0055540191248106708 0.00016693742138344827 0 -0.0055711533945309224 0.00022659007354951482 0 -0.0055227989096914539 0.00021669895451703738 0 -0.0055983295041743255 0.00020543372367991551 0 -0.0055540191248106708 0.00016693742138344827 0 -0.0056165550331603829 0.00012801349378041069 0 -0.0055983295041743255 0.00020543372367991551 0 -0.0055540191248106708 0.00016693742138344827 0 -0.0055711533945309224 0.00022659007354951482 0 -0.0055976182477666635 0.00023110865278250313 0 -0.0055983295041743255 0.00020543372367991551 0 -0.0055711533945309224 0.00022659007354951482 0 -0.0055976182477666635 0.00023110865278250313 0 -0.0055711533945309224 0.00022659007354951482 0 -0.0055919241038791343 0.00024840433507601834 0 -0.0055751676034366043 0.00026388110164644836 0 -0.0055711533945309224 0.00022659007354951482 0 -0.0055919241038791343 0.00024840433507601834 0 -0.0055751676034366043 0.00026388110164644836 0 -0.0055711533945309224 0.00022659007354951482 0 -0.0055454244057720377 0.00025883440439551132 0 -0.0055711533945309224 0.00022659007354951482 0 -0.0055227989096914539 0.00021669895451703738 0 -0.0055454244057720377 0.00025883440439551132 0 -0.0054925101581647356 0.00028262685284191494 0 -0.0055227989096914539 0.00021669895451703738 0 -0.0055454244057720377 0.00025883440439551132 0 -0.0052694772484584733 0.00015051900700361885 0 -0.0053138337393101838 0.00023656137889305578 0 -0.00521522055168338 0.00026422706246272078 0 -0.0052694772484584733 0.00015051900700361885 0 -0.0053138337393101838 0.00023656137889305578 0 -0.0053376844602451914 0.00011336811419557884 0 -0.00539989986151025 0.00019489833560275998 0 -0.0053138337393101838 0.00023656137889305578 0 -0.0053376844602451914 0.00011336811419557884 0 -0.0053999616441116165 0.00030561088952807918 0 -0.00539989986151025 0.00019489833560275998 0 -0.0053138337393101838 0.00023656137889305578 0 -0.0053999616441116165 0.00030561088952807918 0 -0.0053138337393101838 0.00023656137889305578 0 -0.0052811638980614327 0.00039061724147302653 0 -0.0053689650943061114 0.00042111207489055493 0 -0.0053999616441116165 0.00030561088952807918 0 -0.0052811638980614327 0.00039061724147302653 0 -0.0053138337393101838 0.00023656137889305578 0 -0.0052811638980614327 0.00039061724147302653 0 -0.00521522055168338 0.00026422706246272078 0 -0.0052811638980614327 0.00039061724147302653 0 -0.0051800289128938887 0.00044332329177641241 0 -0.00521522055168338 0.00026422706246272078 0 -0.0052811638980614327 0.00039061724147302653 0 -0.0052313686820601325 0.00056025181839627924 0 -0.0051800289128938887 0.00044332329177641241 0 -0.0052313686820601325 0.00056025181839627924 0 -0.0051731920588995554 0.00066043519703420863 0 -0.0051800289128938887 0.00044332329177641241 0 -0.0052811638980614327 0.00039061724147302653 0 -0.0052313686820601325 0.00056025181839627924 0 -0.0053042870891644315 0.00050489461260267441 0 -0.0053689650943061114 0.00042111207489055493 0 -0.0052811638980614327 0.00039061724147302653 0 -0.0053042870891644315 0.00050489461260267441 0 -0.0052313686820601325 0.00056025181839627924 0 -0.0053042870891644315 0.00050489461260267441 0 -0.0052842663687267914 0.00064134622115392709 0 -0.0053907499585343077 0.00050857399353441729 0 -0.0053042870891644315 0.00050489461260267441 0 -0.0052842663687267914 0.00064134622115392709 0 -0.0052313686820601325 0.00056025181839627924 0 -0.0052842663687267914 0.00064134622115392709 0 -0.0052178610039071245 0.00074345481641820285 0 -0.0052527779925226944 0.00080991869257071212 0 -0.0052842663687267914 0.00064134622115392709 0 -0.0052178610039071245 0.00074345481641820285 0 -0.0052313686820601325 0.00056025181839627924 0 -0.0052178610039071245 0.00074345481641820285 0 -0.0051731920588995554 0.00066043519703420863 0 -0.0051731920588995554 0.00066043519703420863 0 -0.0051093425083230002 0.00057448683713521458 0 -0.0051800289128938887 0.00044332329177641241 0 -0.0051093425083230002 0.00057448683713521458 0 -0.0050393126563096444 0.00067519418569963454 0 -0.0051336985060266354 0.00073252904457669563 0 -0.0051731920588995554 0.00066043519703420863 0 -0.0051093425083230002 0.00057448683713521458 0 -0.0051336985060266354 0.00073252904457669563 0 -0.00507428054657009 0.00052916657781584126 0 -0.0051283933067961434 0.0007401272263625893 0 -0.0051093425083230002 0.00057448683713521458 0 -0.0050548107436395717 0.00049302303112671426 0 -0.0050393126563096444 0.00067519418569963454 0 -0.0050548107436395717 0.00049302303112671426 0 -0.0050070697482088042 0.00047462113520508101 0 -0.0050393126563096444 0.00067519418569963454 0 -0.0051093425083230002 0.00057448683713521458 0 -0.0050548107436395717 0.00049302303112671426 0 -0.0050969168120151131 0.00040163740909919581 0 -0.0050548107436395717 0.00049302303112671426 0 -0.0050969168120151131 0.00040163740909919581 0 -0.0050472909026330103 0.00032699846879640393 0 -0.0050969168120151131 0.00040163740909919581 0 -0.0051800289128938887 0.00044332329177641241 0 -0.0051511584244656149 0.00031929346415619976 0 -0.0051093425083230002 0.00057448683713521458 0 -0.0050969168120151131 0.00040163740909919581 0 -0.0051800289128938887 0.00044332329177641241 0 -0.00521522055168338 0.00026422706246272078 0 -0.0051511584244656149 0.00031929346415619976 0 -0.005137687911312654 0.00020013131985965047 0 -0.0051800289128938887 0.00044332329177641241 0 -0.00521522055168338 0.00026422706246272078 0 -0.0051511584244656149 0.00031929346415619976 0 -0.0050969168120151131 0.00040163740909919581 0 -0.0050968932334472909 0.00028971627714946774 0 -0.0050472909026330103 0.00032699846879640393 0 -0.0050969168120151131 0.00040163740909919581 0 -0.0051511584244656149 0.00031929346415619976 0 -0.0050968932334472909 0.00028971627714946774 0 -0.0050968932334472909 0.00028971627714946774 0 -0.005137687911312654 0.00020013131985965047 0 -0.0050871399627207565 0.00014188142799250109 0 -0.0051511584244656149 0.00031929346415619976 0 -0.0050968932334472909 0.00028971627714946774 0 -0.005137687911312654 0.00020013131985965047 0 -0.005137687911312654 0.00020013131985965047 0 -0.0050871399627207565 0.00014188142799250109 0 -0.0051556412687740341 6.933264167854074e-05 0 -0.005137687911312654 0.00020013131985965047 0 -0.0052056804665899046 0.00010888451637478374 0 -0.0051556412687740341 6.933264167854074e-05 0 -0.0052694772484584733 0.00015051900700361885 0 -0.00521522055168338 0.00026422706246272078 0 -0.0052056804665899046 0.00010888451637478374 0 -0.00521522055168338 0.00026422706246272078 0 -0.005137687911312654 0.00020013131985965047 0 -0.0052056804665899046 0.00010888451637478374 0 -0.0050871399627207565 0.00014188142799250109 0 -0.0050347028289572512 0.00020247429482569726 0 -0.0049999088374229565 -5.4036947196650333e-05 0 -0.0050347028289572512 0.00020247429482569726 0 -0.0049999313023300334 0.00024309327469757979 0 -0.0049999088374229565 -5.4036947196650333e-05 0 -0.0050968932334472909 0.00028971627714946774 0 -0.0050871399627207565 0.00014188142799250109 0 -0.0050472909026330103 0.00032699846879640393 0 -0.0050871399627207565 0.00014188142799250109 0 -0.0050472909026330103 0.00032699846879640393 0 -0.0050347028289572512 0.00020247429482569726 0 -0.0050472909026330103 0.00032699846879640393 0 -0.0050347028289572512 0.00020247429482569726 0 -0.0050225192947764303 0.00033125915993072186 0 -0.0050347028289572512 0.00020247429482569726 0 -0.0049999313023300334 0.00024309327469757979 0 -0.0050225192947764303 0.00033125915993072186 0 -0.0049999313023300334 0.00024309327469757979 0 -0.0049999243500637065 0.00036712560203484889 0 -0.0050225192947764303 0.00033125915993072186 0 -0.0049999243500637065 0.00036712560203484889 0 -0.0050225192947764303 0.00033125915993072186 0 -0.0050070697482088042 0.00047462113520508101 0 -0.0049984187012816336 0.00038454041411618888 0 -0.00507428054657009 0.00052916657781584126 0 -0.0050472909026330103 0.00032699846879640393 0 -0.0050225192947764303 0.00033125915993072186 0 -0.0050070697482088042 0.00047462113520508101 0 -0.0050548107436395717 0.00049302303112671426 0 -0.0050472909026330103 0.00032699846879640393 0 -0.0050070697482088042 0.00047462113520508101 0 -0.0050000164318897327 0.00036727936050570572 0 -0.0051481990602456149 0.00058035894275376481 0 -0.0049999556149919761 0.00054022414601959654 0 -0.0051481990602456149 0.00058035894275376481 0 -0.0049999556149919761 0.00054022414601959654 0 -0.0051287602898563373 0.00077284070155304158 0 -0.0049999556149919761 0.00054022414601959654 0 -0.0049999514018298549 0.00083732087757073018 0 -0.0051287602898563373 0.00077284070155304158 0 -0.0049999514018298549 0.00083732087757073018 0 -0.0051287602898563373 0.00077284070155304158 0 -0.005100729090111682 0.00095852793073324919 0 -0.0051287602898563373 0.00077284070155304158 0 -0.0051778654650553443 0.00091714870027273835 0 -0.005100729090111682 0.00095852793073324919 0 -0.0051481990602456149 0.00058035894275376481 0 -0.0051287602898563373 0.00077284070155304158 0 -0.0052181111042194145 0.00080026078705579555 0 -0.0051287602898563373 0.00077284070155304158 0 -0.0052181111042194145 0.00080026078705579555 0 -0.0051778654650553443 0.00091714870027273835 0 -0.0051536081254528786 0.0009243099963115902 0 -0.0050393126563096444 0.00067519418569963454 0 -0.0051336985060266354 0.00073252904457669563 0 -0.0051625498252397877 0.00089875100942177146 0 -0.0051283933067961434 0.0007401272263625893 0 -0.0051536081254528786 0.0009243099963115902 0 -0.0052181111042194145 0.00080026078705579555 0 -0.0051745600580667432 0.00094816322778221271 0 -0.0051439732022787532 0.0010049201815376749 0 -0.0051536081254528786 0.0009243099963115902 0 -0.0051745600580667432 0.00094816322778221271 0 -0.0052181111042194145 0.00080026078705579555 0 -0.0051745600580667432 0.00094816322778221271 0 -0.0051778654650553443 0.00091714870027273835 0 -0.0051778654650553443 0.00091714870027273835 0 -0.0051972313801986192 0.0010279172085198344 0 -0.0051507274685423524 0.001031388774527105 0 -0.0051745600580667432 0.00094816322778221271 0 -0.0051778654650553443 0.00091714870027273835 0 -0.0051972313801986192 0.0010279172085198344 0 -0.0051439732022787532 0.0010049201815376749 0 -0.0051745600580667432 0.00094816322778221271 0 -0.0050894164036191444 0.0011076885658239909 0 -0.0051745600580667432 0.00094816322778221271 0 -0.0051972313801986192 0.0010279172085198344 0 -0.0052750733107567284 0.0010635759213112391 0 -0.0051745006547799528 0.00096863794640432866 0 -0.0051841243122021608 0.0010937879738412879 0 -0.005224021225055304 0.0011382022046183141 0 -0.0051841243122021608 0.0010937879738412879 0 -0.0052151874791640501 0.0011513162869933042 0 -0.0053100554239219932 0.0012010320665296927 0 -0.0052750733107567284 0.0010635759213112391 0 -0.0052151874791640501 0.0011513162869933042 0 -0.0051972313801986192 0.0010279172085198344 0 -0.0052750733107567284 0.0010635759213112391 0 -0.0052151874791640501 0.0011513162869933042 0 -0.0051972313801986192 0.0010279172085198344 0 -0.0051698288907746212 0.0011101905218098324 0 -0.0051972313801986192 0.0010279172085198344 0 -0.0051698288907746212 0.0011101905218098324 0 -0.0051507274685423524 0.001031388774527105 0 -0.0051575624839871612 0.0011824190175507999 0 -0.0052151874791640501 0.0011513162869933042 0 -0.0051698288907746212 0.0011101905218098324 0 -0.0051698288907746212 0.0011101905218098324 0 -0.0051206253064192842 0.0011556075783825772 0 -0.0051507274685423524 0.001031388774527105 0 -0.0051206253064192842 0.0011556075783825772 0 -0.0050889147585991799 0.0010883826804472467 0 -0.0051507274685423524 0.001031388774527105 0 -0.0051575624839871612 0.0011824190175507999 0 -0.0051698288907746212 0.0011101905218098324 0 -0.0051206253064192842 0.0011556075783825772 0 -0.0050459570187482931 0.0012307421149828687 0 -0.0051206253064192842 0.0011556075783825772 0 -0.0050889147585991799 0.0010883826804472467 0 -0.0050459570187482931 0.0012307421149828687 0 -0.0049999662431963032 0.0011342665276066132 0 -0.0050889147585991799 0.0010883826804472467 0 -0.0049999662431963032 0.0011342665276066132 0 -0.0050889147585991799 0.0010883826804472467 0 -0.005100729090111682 0.00095852793073324919 0 -0.0049999514018298549 0.00083732087757073018 0 -0.0049999662431963032 0.0011342665276066132 0 -0.005100729090111682 0.00095852793073324919 0 -0.0051778654650553443 0.00091714870027273835 0 -0.005100729090111682 0.00095852793073324919 0 -0.0051507274685423524 0.001031388774527105 0 -0.0050889147585991799 0.0010883826804472467 0 -0.005100729090111682 0.00095852793073324919 0 -0.0051507274685423524 0.001031388774527105 0 -0.0002291026070180643 0.0029156578267281142 0 -0.00049139812498787464 0.0028999290620342131 0 -0.00050587751545808838 0.003109539714612536 0 -0.0002291026070180643 0.0029156578267281142 0 -0.00021699574698146111 0.0027293520275222891 0 -0.00049139812498787464 0.0028999290620342131 0 -0.0002291026070180643 0.0029156578267281142 0 -3.1285940858137204e-05 0.0028168892110195846 0 -0.00021699574698146111 0.0027293520275222891 0 -0.0002291026070180643 0.0029156578267281142 0 -3.1285940858137204e-05 0.0028168892110195846 0 4.5912602136918041e-05 0.0029981527922061909 0 -2.5511544679555941e-05 0.0026030021369016312 0 -0.00021699574698146111 0.0027293520275222891 0 -0.00033276828180647865 0.0025202240904568206 0 -3.1285940858137204e-05 0.0028168892110195846 0 -2.5511544679555941e-05 0.0026030021369016312 0 -0.00021699574698146111 0.0027293520275222891 0 -0.00021699574698146111 0.0027293520275222891 0 -0.00045407989332244924 0.0027236005293436579 0 -0.00033276828180647865 0.0025202240904568206 0 -0.00021699574698146111 0.0027293520275222891 0 -0.00045407989332244924 0.0027236005293436579 0 -0.00049139812498787464 0.0028999290620342131 0 -0.00045407989332244924 0.0027236005293436579 0 -0.00063084337446493591 0.0028166824625358222 0 -0.00062062410497356712 0.0026389515928979821 0 -0.00063084337446493591 0.0028166824625358222 0 -0.00082294252307506992 0.0027713983183340471 0 -0.00072929320017396562 0.0029534674381717784 0 -0.00082294252307506992 0.0027713983183340471 0 -0.00090042981267177407 0.0026403198985999032 0 -0.00062062410497356712 0.0026389515928979821 0 -0.00063084337446493591 0.0028166824625358222 0 -0.00082294252307506992 0.0027713983183340471 0 -0.00062062410497356712 0.0026389515928979821 0 -0.00045407989332244924 0.0027236005293436579 0 -0.00063084337446493591 0.0028166824625358222 0 -0.00049139812498787464 0.0028999290620342131 0 -0.00082294252307506992 0.0027713983183340471 0 -0.00099243574382964312 0.0028727516583783065 0 -0.0010696756219161403 0.0026931237824683392 0 -0.00082294252307506992 0.0027713983183340471 0 -0.00090042981267177407 0.0026403198985999032 0 -0.0010696756219161403 0.0026931237824683392 0 -0.00082294252307506992 0.0027713983183340471 0 -0.00099243574382964312 0.0028727516583783065 0 -0.00072929320017396562 0.0029534674381717784 0 -0.00099243574382964312 0.0028727516583783065 0 -0.00072929320017396562 0.0029534674381717784 0 -0.0009583589413968849 0.003109372202349307 0 -0.00074944966662627058 0.0029536429587780199 0 -0.0010371587137764304 0.0029970502147566086 0 -0.00072929320017396562 0.0029534674381717784 0 -0.0008929957308565806 0.003034668701934167 0 -0.00082356062824771533 0.0030874262500258597 0 -0.00063084337446493591 0.0028166824625358222 0 -0.00049139812498787464 0.0028999290620342131 0 -0.00072929320017396562 0.0029534674381717784 0 -0.00049139812498787464 0.0028999290620342131 0 -0.00072929320017396562 0.0029534674381717784 0 -0.00066820640237121856 0.0030564677188827695 0 -0.00049139812498787464 0.0028999290620342131 0 -0.00050587751545808838 0.003109539714612536 0 -0.00066820640237121856 0.0030564677188827695 0 -0.00066820640237121856 0.0030564677188827695 0 -0.00071532509423038375 0.0032181846451337921 0 -0.00082356062824771533 0.0030874262500258597 0 -0.00072929320017396562 0.0029534674381717784 0 -0.00066820640237121856 0.0030564677188827695 0 -0.00082356062824771533 0.0030874262500258597 0 -0.00050587751545808838 0.003109539714612536 0 -0.00066820640237121856 0.0030564677188827695 0 -0.00071532509423038375 0.0032181846451337921 0 -0.00071532509423038375 0.0032181846451337921 0 -0.00082356062824771533 0.0030874262500258597 0 -0.0010189542279330822 0.0030986381210822891 0 -0.00094887343364466177 0.0029853574146399228 0 -0.00082356062824771533 0.0030874262500258597 0 -0.0010189542279330822 0.0030986381210822891 0 -0.00094887343364466177 0.0029853574146399228 0 -0.0010189542279330822 0.0030986381210822891 0 -0.0010512563465542705 0.0030478293003806489 0 -0.0010371587137764304 0.0029970502147566086 0 -0.0017170628231448302 0.0028577002741397199 0 -0.0010371587137764304 0.0029970502147566086 0 -0.00087951052988612718 0.0030821037098912748 0 -0.00071532509423038375 0.0032181846451337921 0 -0.00058865478418875417 0.003410012206627365 0 -0.0010977317909014171 0.0034204891627329002 0 -0.00081035489499693344 0.0026044489325756843 0 -0.0012462581548173921 0.0026908469148208751 0 -0.00096321001005344868 0.0018166489843416975 0 -0.0016492221558186979 0.0017959364597902698 0 -0.0016489463715652776 0.0019043744199950649 0 -0.00071532509423038375 0.0032181846451337921 0 -0.0010189542279330822 0.0030986381210822891 0 -0.0010977317909014171 0.0034204891627329002 0 -0.00096321001005344868 0.0018166489843416975 0 -0.0016489463715652776 0.0019043744199950649 0 -0.00094579045722592038 0.0020108312648720005 0 -0.00050587751545808838 0.003109539714612536 0 -0.00071532509423038375 0.0032181846451337921 0 -0.00058865478418875417 0.003410012206627365 0 -0.00096321001005344868 0.0018166489843416975 0 -0.00031057939101909488 0.0018416734070009373 0 -0.00094579045722592038 0.0020108312648720005 0 -0.00058865478418875417 0.003410012206627365 0 -0.00028413426680736913 0.0031606826334985736 0 -0.00010292912189634099 0.00338584107879608 0 -0.00081035489499693344 0.0026044489325756843 0 -0.00018913759769585036 0.0025920710667122673 0 -0.0002291026070180643 0.0029156578267281142 0 -0.00050587751545808838 0.003109539714612536 0 -0.00028413426680736913 0.0031606826334985736 0 -0.00050587751545808838 0.003109539714612536 0 -0.00058865478418875417 0.003410012206627365 0 -0.00028413426680736913 0.0031606826334985736 0 -0.00028413426680736913 0.0031606826334985736 0 4.5912602136918041e-05 0.0029981527922061909 0 -0.00010292912189634099 0.00338584107879608 0 -0.0002291026070180643 0.0029156578267281142 0 -0.00028413426680736913 0.0031606826334985736 0 4.5912602136918041e-05 0.0029981527922061909 0 -0.00010292912189634099 0.00338584107879608 0 0.00053683365148424254 0.0033204045329544812 0 0.00048336696420431485 0.0029616351348779016 0 -0.00018913759769585036 0.0025920710667122673 0 0.00036916161692580299 0.0027512756113440722 0 0.00070638673976686651 0.0029050819097256797 0 0.00074641793583648229 0.0028902412034306798 0 0.00069878731976874748 0.0029085717318502314 0 0.00070638673976686651 0.0029050819097256797 0 0.00074641793583648229 0.0028902412034306798 0 0.00073101920761065888 0.0029004788026639233 0 0.00074641793583648229 0.0028902412034306798 0 0.00069878731976874748 0.0029085717318502314 0 0.00080157928309681462 0.002848891236507094 0 0.00069878731976874748 0.0029085717318502314 0 0.00071266552451775564 0.0028937411935741034 0 0.00080157928309681462 0.002848891236507094 0 0.00069878731976874748 0.0029085717318502314 0 0.00071266552451775564 0.0028937411935741034 0 0.00048336696420431485 0.0029616351348779016 0 0.00036916161692580299 0.0027512756113440722 0 0.0005230632017846588 0.0030673870351251688 0 0.00070638673976686651 0.0029050819097256797 0 0.00069878731976874748 0.0029085717318502314 0 0.00048336696420431485 0.0029616351348779016 0 0.00071266552451775564 0.0028937411935741034 0 0.0007447194822309401 0.0027096319180753212 0 0.00055578175120560346 0.0026700717517945524 0 0.00071266552451775564 0.0028937411935741034 0 0.00048336696420431485 0.0029616351348779016 0 0.00026176799103604521 0.0028427515595617295 0 0.00071266552451775564 0.0028937411935741034 0 0.0007447194822309401 0.0027096319180753212 0 0.00083656001984994512 0.0027746210828808742 0 0.00068696266343717873 0.002913664333571494 0 0.00042214513437402294 0.0027624451831928126 0 4.5912602136918041e-05 0.0029981527922061909 0 -0.00010292912189634099 0.00338584107879608 0 0.00048336696420431485 0.0029616351348779016 0 4.5912602136918041e-05 0.0029981527922061909 0 0.00048336696420431485 0.0029616351348779016 0 0.00026176799103604521 0.0028427515595617295 0 0.0010769196526218743 0.0026670310147210372 0 0.0010925330859429966 0.0026406895971356195 0 0.0010258441034714095 0.0027225312560515656 0 0.0010985907351673354 0.0026573065051594116 0 0.0010925330859429966 0.0026406895971356195 0 0.0010258441034714095 0.0027225312560515656 0 0.0010258441034714095 0.0027225312560515656 0 0.00094316484266539343 0.0027800315200927485 0 0.00098977228909804637 0.0027583117452477613 0 0.0010258441034714095 0.0027225312560515656 0 0.00090420790101578387 0.0027846241508809894 0 0.00096560594036728808 0.0027066526086257231 0 0.00094316484266539343 0.0027800315200927485 0 0.00085882925933929079 0.0028264134260407711 0 0.00092274836294569307 0.0028102770008525055 0 0.0010258441034714095 0.0027225312560515656 0 0.00090420790101578387 0.0027846241508809894 0 0.00094316484266539343 0.0027800315200927485 0 0.00090420790101578387 0.0027846241508809894 0 0.00094316484266539343 0.0027800315200927485 0 0.00085882925933929079 0.0028264134260407711 0 0.00074641793583648229 0.0028902412034306798 0 0.00085882925933929079 0.0028264134260407711 0 0.00092274836294569307 0.0028102770008525055 0 0.00074641793583648229 0.0028902412034306798 0 0.00085882925933929079 0.0028264134260407711 0 0.00080157928309681462 0.002848891236507094 0 0.00090420790101578387 0.0027846241508809894 0 0.00085882925933929079 0.0028264134260407711 0 0.00080157928309681462 0.002848891236507094 0 0.00090420790101578387 0.0027846241508809894 0 0.00080157928309681462 0.002848891236507094 0 0.00083656001984994512 0.0027746210828808742 0 0.00071266552451775564 0.0028937411935741034 0 0.00080157928309681462 0.002848891236507094 0 0.00083656001984994512 0.0027746210828808742 0 0.0007447194822309401 0.0027096319180753212 0 0.00083656001984994512 0.0027746210828808742 0 0.00096560594036728808 0.0027066526086257231 0 0.00090420790101578387 0.0027846241508809894 0 0.00083656001984994512 0.0027746210828808742 0 0.00096560594036728808 0.0027066526086257231 0 0.0010769196526218743 0.0026670310147210372 0 0.0011218081655909949 0.0026695044759313183 0 0.00096560594036728808 0.0027066526086257231 0 0.0010769196526218743 0.0026670310147210372 0 0.0010258441034714095 0.0027225312560515656 0 0.00096560594036728808 0.0027066526086257231 0 0.0011218081655909949 0.0026695044759313183 0 0.00096560594036728808 0.0027066526086257231 0 0.001172810437377145 0.0027351179469800951 0 0.00095977177176853146 0.0027653447121049508 0 0.0010637835434346857 0.0025385872505369915 0 0.0007447194822309401 0.0027096319180753212 0 0.00096560594036728808 0.0027066526086257231 0 0.00074596645576748563 0.0026016813824951616 0 0.00096560594036728808 0.0027066526086257231 0 0.00091083792130704515 0.0025356084299475051 0 0.00074596645576748563 0.0026016813824951616 0 0.00091083792130704515 0.0025356084299475051 0 0.00074596645576748563 0.0026016813824951616 0 0.00071103127632896523 0.0024670843512274217 0 0.00091083792130704515 0.0025356084299475051 0 0.00071103127632896523 0.0024670843512274217 0 0.00084864766154001375 0.0024082592539062422 0 -3.1285940858137204e-05 0.0028168892110195846 0 4.5912602136918041e-05 0.0029981527922061909 0 0.00026176799103604521 0.0028427515595617295 0 0.0007447194822309401 0.0027096319180753212 0 0.00055578175120560346 0.0026700717517945524 0 0.00074596645576748563 0.0026016813824951616 0 0.00055578175120560346 0.0026700717517945524 0 0.00074596645576748563 0.0026016813824951616 0 0.00056078234633698992 0.0025327880409195102 0 0.00074596645576748563 0.0026016813824951616 0 0.00056078234633698992 0.0025327880409195102 0 0.00071103127632896523 0.0024670843512274217 0 -3.1285940858137204e-05 0.0028168892110195846 0 -2.5511544679555941e-05 0.0026030021369016312 0 0.00026176799103604521 0.0028427515595617295 0 0.00012441379015204002 0.0025524217408032729 0 0.00042214513437402294 0.0027624451831928126 0 0.00029412287677767695 0.0025301870563640872 0 0.00055578175120560346 0.0026700717517945524 0 0.00056078234633698992 0.0025327880409195102 0 0.00029412287677767695 0.0025301870563640872 0 0.00056078234633698992 0.0025327880409195102 0 0.00053125185079824268 0.0023640285199076649 0 0.00029412287677767695 0.0025301870563640872 0 0.00026390116385819446 0.0023283269922951418 0 0.00053125185079824268 0.0023640285199076649 0 0.00056078234633698992 0.0025327880409195102 0 0.00053125185079824268 0.0023640285199076649 0 0.00071103127632896523 0.0024670843512274217 0 0.00053125185079824268 0.0023640285199076649 0 0.00071103127632896523 0.0024670843512274217 0 0.00067972207378901603 0.0023661036834141543 0 0.00067972207378901603 0.0023661036834141543 0 0.00060292001259036599 0.0023124579335019107 0 0.00072644171906405101 0.0023004778062580269 0 0.00053125185079824268 0.0023640285199076649 0 0.00067972207378901603 0.0023661036834141543 0 0.00060292001259036599 0.0023124579335019107 0 0.00053125185079824268 0.0023640285199076649 0 0.00054433704781566277 0.0022941644243771064 0 0.00060292001259036599 0.0023124579335019107 0 0.00056660806558160917 0.0022361481643678096 0 0.00054717813868774905 0.0022707574654097654 0 0.00072644171906405101 0.0023004778062580269 0 5.6265651023207237e-05 0.0040367390470258209 0 0.00045437962115646939 0.0041144560573037215 0 0.00028050452546300194 0.003943474114788066 0 0.00031200550019572627 0.0031536020085011786 0 0.00061101134428069126 0.0031982925858400468 0 0.00060292001259036599 0.0023124579335019107 0 0.00052619913989019544 0.002225042543160543 0 0.00072644171906405101 0.0023004778062580269 0 0.00056660806558160917 0.0022361481643678096 0 0.00072644171906405101 0.0023004778062580269 0 0.00077744207967774708 0.0022578310243994014 0 0.00054433704781566277 0.0022941644243771064 0 0.00060292001259036599 0.0023124579335019107 0 0.00052619913989019544 0.002225042543160543 0 0.00056063126920495934 0.0022481660836064028 0 0.00069657822225839094 0.0022935325950292143 0 5.6265651023207237e-05 0.0040367390470258209 0 0.00012056485185716965 0.0039393383102748654 0 0.00028050452546300194 0.003943474114788066 0 0.00056660806558160917 0.0022361481643678096 0 0.00054717813868774905 0.0022707574654097654 0 0.00034364624895675985 0.002226479139079873 0 0.00053125185079824268 0.0023640285199076649 0 0.00054433704781566277 0.0022941644243771064 0 0.00032292561440110177 0.0021651050312844968 0 0.0005213446240930345 0.0022698555211502678 0 0.00013275951810590029 0.0024495910849174352 0 0.00026390116385819446 0.0023283269922951418 0 0.00053125185079824268 0.0023640285199076649 0 0.0001651434193287361 0.0021083642710096806 0 0.00056660806558160917 0.0022361481643678096 0 0.00032408873577008108 0.002209909606578039 0 0.00034364624895675985 0.002226479139079873 0 0.00056063126920495934 0.0022481660836064028 0 0.00013275951810590029 0.0024495910849174352 0 0.00031200550019572627 0.0031536020085011786 0 7.5531102947012317e-05 0.0028062807235416467 0 0.00054433704781566277 0.0022941644243771064 0 0.00052619913989019544 0.002225042543160543 0 0.00032292561440110177 0.0021651050312844968 0 0.0011381108424350309 0.0028249495785190649 0 0.001172810437377145 0.0027351179469800951 0 0.00123060169306985 0.002982778835633736 0 0.00079177806535827991 0.0023438389724727763 0 0.00084864766154001375 0.0024082592539062422 0 0.00096485748452960476 0.002302492948343672 0 0.00091083792130704515 0.0025356084299475051 0 0.00084864766154001375 0.0024082592539062422 0 0.00096485748452960476 0.002302492948343672 0 0.0010637835434346857 0.0025385872505369915 0 0.00099358850001183608 0.0030897881474340754 0 0.00071103127632896523 0.0024670843512274217 0 0.00079177806535827991 0.0023438389724727763 0 0.00084864766154001375 0.0024082592539062422 0 0.00067972207378901603 0.0023661036834141543 0 0.00079177806535827991 0.0023438389724727763 0 0.00072644171906405101 0.0023004778062580269 0 0.00071103127632896523 0.0024670843512274217 0 0.00067972207378901603 0.0023661036834141543 0 0.00079177806535827991 0.0023438389724727763 0 0.00079177806535827991 0.0023438389724727763 0 0.00077744207967774708 0.0022578310243994014 0 0.00096485748452960476 0.002302492948343672 0 0.00079177806535827991 0.0023438389724727763 0 0.00072644171906405101 0.0023004778062580269 0 0.00077744207967774708 0.0022578310243994014 0 0.00045437962115646939 0.0041144560573037215 0 0.00046422693032130679 0.003925354909612047 0 0.00028050452546300194 0.003943474114788066 0 0.00045437962115646939 0.0041144560573037215 0 0.00069906969411608999 0.0039924735230873198 0 0.00046422693032130679 0.003925354909612047 0 0.00045437962115646939 0.0041144560573037215 0 0.00092190278122458041 0.0042110024060098509 0 0.00069906969411608999 0.0039924735230873198 0 0.00061101134428069126 0.0031982925858400468 0 0.00099358850001183608 0.0030897881474340754 0 0.0010584299052430657 0.0034851917834400983 0 0.00069906969411608999 0.0039924735230873198 0 0.00063226892656355587 0.0037585857229783947 0 0.0010584299052430657 0.0034851917834400983 0 0.00092190278122458041 0.0042110024060098509 0 0.00069906969411608999 0.0039924735230873198 0 0.00063226892656355587 0.0037585857229783947 0 0.0003477093988262971 0.0037565957483397714 0 0.00067134132240200971 0.0035117280155861786 0 0.00069906969411608999 0.0039924735230873198 0 0.00063226892656355587 0.0037585857229783947 0 0.00046422693032130679 0.003925354909612047 0 0.00046422693032130679 0.003925354909612047 0 0.0003477093988262971 0.0037565957483397714 0 0.00028050452546300194 0.003943474114788066 0 0.00063226892656355587 0.0037585857229783947 0 0.00046422693032130679 0.003925354909612047 0 0.0003477093988262971 0.0037565957483397714 0 0.0003477093988262971 0.0037565957483397714 0 0.00036409358044344148 0.0034981036950459082 0 0.00067134132240200971 0.0035117280155861786 0 0.0010584299052430657 0.0034851917834400983 0 0.00063226892656355587 0.0037585857229783947 0 0.00067134132240200971 0.0035117280155861786 0 0.0010584299052430657 0.0034851917834400983 0 0.00091044778776595045 0.0033509239788778768 0 0.00067134132240200971 0.0035117280155861786 0 5.6265651023207237e-05 0.0040367390470258209 0 -7.1384421262076728e-05 0.0039000761011920601 0 -0.00027512917636427213 0.0039448637168100539 0 -7.1384421262076728e-05 0.0039000761011920601 0 9.0831191294077189e-05 0.0038464721529944345 0 -8.9263646331710499e-05 0.0037301172624309652 0 -0.00017543704578782697 0.0038340635703667638 0 -7.1384421262076728e-05 0.0039000761011920601 0 -8.9263646331710499e-05 0.0037301172624309652 0 -0.00017543704578782697 0.0038340635703667638 0 -8.9263646331710499e-05 0.0037301172624309652 0 -0.0002650631660848167 0.0037631588787983001 0 -0.00017543704578782697 0.0038340635703667638 0 -7.1384421262076728e-05 0.0039000761011920601 0 -0.00027512917636427213 0.0039448637168100539 0 5.6265651023207237e-05 0.0040367390470258209 0 -7.1384421262076728e-05 0.0039000761011920601 0 5.5533919309546997e-05 0.0039337498100866335 0 -7.1384421262076728e-05 0.0039000761011920601 0 5.5533919309546997e-05 0.0039337498100866335 0 9.0831191294077189e-05 0.0038464721529944345 0 0.00012056485185716965 0.0039393383102748654 0 9.0831191294077189e-05 0.0038464721529944345 0 0.00028050452546300194 0.003943474114788066 0 5.6265651023207237e-05 0.0040367390470258209 0 5.5533919309546997e-05 0.0039337498100866335 0 0.00012056485185716965 0.0039393383102748654 0 5.5533919309546997e-05 0.0039337498100866335 0 0.00012056485185716965 0.0039393383102748654 0 9.0831191294077189e-05 0.0038464721529944345 0 0.0003477093988262971 0.0037565957483397714 0 9.0831191294077189e-05 0.0038464721529944345 0 0.00028050452546300194 0.003943474114788066 0 0.0003477093988262971 0.0037565957483397714 0 9.0831191294077189e-05 0.0038464721529944345 0 0.00013353787695185998 0.0036685818840719222 0 9.0831191294077189e-05 0.0038464721529944345 0 0.00013353787695185998 0.0036685818840719222 0 -8.9263646331710499e-05 0.0037301172624309652 0 0.0003477093988262971 0.0037565957483397714 0 0.00036409358044344148 0.0034981036950459082 0 0.00013353787695185998 0.0036685818840719222 0 -3.5752087462742069e-06 0.0034837426149616681 0 0.00013353787695185998 0.0036685818840719222 0 -8.9263646331710499e-05 0.0037301172624309652 0 -3.5752087462742069e-06 0.0034837426149616681 0 0.00036409358044344148 0.0034981036950459082 0 0.00013353787695185998 0.0036685818840719222 0 -3.5752087462742069e-06 0.0034837426149616681 0 -8.9263646331710499e-05 0.0037301172624309652 0 -0.00023211829582652814 0.0035904980315328147 0 -8.9263646331710499e-05 0.0037301172624309652 0 -0.00023211829582652814 0.0035904980315328147 0 -0.0002650631660848167 0.0037631588787983001 0 -0.00035204922565472971 0.0035091053383586317 0 -0.00023211829582652814 0.0035904980315328147 0 -0.00034295452386110589 0.0036446481191569438 0 -0.00035204922565472971 0.0035091053383586317 0 -0.00034295452386110589 0.0036446481191569438 0 -0.00044864972613768017 0.0036057394134925212 0 -0.00034295452386110589 0.0036446481191569438 0 -0.00044230638666664494 0.0037494726703697682 0 -0.0002650631660848167 0.0037631588787983001 0 -0.00023211829582652814 0.0035904980315328147 0 -0.00034295452386110589 0.0036446481191569438 0 -0.0002650631660848167 0.0037631588787983001 0 -0.00041971865890247183 0.0028395220792803645 0 -0.00060558934633481816 0.0029345288641221099 0 -0.00063127239046519663 0.0026392396667571003 0 -0.00052402923807736497 0.0035247607884805422 0 -0.00044864972613768017 0.0036057394134925212 0 -0.00059732661431403803 0.0035887559440597305 0 -0.00063074187407961119 0.0034240351111551343 0 -0.00082233515078067548 0.003128294590919691 0 -0.00034295452386110589 0.0036446481191569438 0 -0.00044864972613768017 0.0036057394134925212 0 -0.00044230638666664494 0.0037494726703697682 0 -0.00044864972613768017 0.0036057394134925212 0 -0.00044230638666664494 0.0037494726703697682 0 -0.00059732661431403803 0.0035887559440597305 0 -0.00039552143634843137 0.003365486264003206 0 -0.00082233515078067548 0.003128294590919691 0 -0.00041971865890247183 0.0028395220792803645 0 -0.00033676057448005567 0.0030163024939887243 0 -0.00060558934633481816 0.0029345288641221099 0 -0.00018382566876039329 0.0024365074253914027 0 -0.00051862117930209176 0.0024887243482605349 0 -0.00030924112929836637 0.0020736540269039225 0 -0.00012697093647978704 0.0020738681631286464 0 -0.00049451314655517883 0.0020344483824676169 0 -0.00027370073127935715 0.0022277965997589714 0 -0.00018382566876039329 0.0024365074253914027 0 -0.00030924112929836637 0.0020736540269039225 0 -0.00058380089859020928 0.0022101018756974164 0 -0.00049451314655517883 0.0020344483824676169 0 -0.00044230638666664494 0.0037494726703697682 0 -0.0002650631660848167 0.0037631588787983001 0 -0.00027512917636427213 0.0039448637168100539 0 -0.00041971865890247183 0.0028395220792803645 0 -0.00033676057448005567 0.0030163024939887243 0 -0.00020593208348918188 0.0030387398742712343 0 -0.00039552143634843137 0.003365486264003206 0 7.5531102947012317e-05 0.0028062807235416467 0 -0.00018382566876039329 0.0024365074253914027 0 0.00013275951810590029 0.0024495910849174352 0 -0.00018382566876039329 0.0024365074253914027 0 7.5531102947012317e-05 0.0028062807235416467 0 -0.00017307829251655242 0.0024591515928872642 0 0.00011113100044969055 0.0025103840193708964 0 0.00016630824241185894 0.0025634292459829284 0 -0.00017543704578782697 0.0038340635703667638 0 -0.0002650631660848167 0.0037631588787983001 0 -0.00027512917636427213 0.0039448637168100539 0 0.0001651434193287361 0.0021083642710096806 0 0.00010646833754610013 0.0022904926701753266 0 9.394149517117998e-06 0.0021730466673841524 0 7.5531102947012317e-05 0.0028062807235416467 0 0.00013275951810590029 0.0024495910849174352 0 0.00026390116385819446 0.0023283269922951418 0 0.0001651434193287361 0.0021083642710096806 0 0.00010646833754610013 0.0022904926701753266 0 0.00010646833754610013 0.0022904926701753266 0 9.394149517117998e-06 0.0021730466673841524 0 -0.00017574505884977468 0.0022607578819677943 0 -9.0845859544021356e-05 0.0020605791319881247 0 0.0001651434193287361 0.0021083642710096806 0 9.394149517117998e-06 0.0021730466673841524 0 -9.0845859544021356e-05 0.0020605791319881247 0 9.394149517117998e-06 0.0021730466673841524 0 -0.00017574505884977468 0.0022607578819677943 0 -0.00030924112929836637 0.0020736540269039225 0 -0.00017574505884977468 0.0022607578819677943 0 -0.0003791051718657551 0.0022456208165529054 0 -0.00030924112929836637 0.0020736540269039225 0 -9.0845859544021356e-05 0.0020605791319881247 0 -0.00017574505884977468 0.0022607578819677943 0 -0.00017574505884977468 0.0022607578819677943 0 -0.00037636114311604275 0.0023717383079123601 0 -0.00033276828180647865 0.0025202240904568206 0 -0.0003791051718657551 0.0022456208165529054 0 -0.00049383186668420739 0.0023434451471685208 0 -0.00058380089859020928 0.0022101018756974164 0 -0.00030924112929836637 0.0020736540269039225 0 -0.0003791051718657551 0.0022456208165529054 0 -0.00058380089859020928 0.0022101018756974164 0 -0.00037636114311604275 0.0023717383079123601 0 -0.00054220624365107701 0.0024738449888651636 0 -0.00049383186668420739 0.0023434451471685208 0 -0.0003791051718657551 0.0022456208165529054 0 -0.00037636114311604275 0.0023717383079123601 0 -0.00049383186668420739 0.0023434451471685208 0 -0.00017574505884977468 0.0022607578819677943 0 -0.0003791051718657551 0.0022456208165529054 0 -0.00037636114311604275 0.0023717383079123601 0 -0.00037636114311604275 0.0023717383079123601 0 -0.00033276828180647865 0.0025202240904568206 0 -0.00054220624365107701 0.0024738449888651636 0 -0.00045407989332244924 0.0027236005293436579 0 -0.00033276828180647865 0.0025202240904568206 0 -0.00062062410497356712 0.0026389515928979821 0 0.00012441379015204002 0.0025524217408032729 0 -0.00015699897248155388 0.0022571133986002321 0 0.00029412287677767695 0.0025301870563640872 0 0.00010646833754610013 0.0022904926701753266 0 -0.00017574505884977468 0.0022607578819677943 0 -2.5511544679555941e-05 0.0026030021369016312 0 -0.00017574505884977468 0.0022607578819677943 0 -0.00033276828180647865 0.0025202240904568206 0 0.00029412287677767695 0.0025301870563640872 0 0.00026390116385819446 0.0023283269922951418 0 0.00010646833754610013 0.0022904926701753266 0 -0.00075400039192350982 0.0025453752275558308 0 -0.00071317286235300929 0.0024142617211901697 0 -0.00099317227688447548 0.0025406344907284765 0 -0.00090042981267177407 0.0026403198985999032 0 -0.00075400039192350982 0.0025453752275558308 0 -0.00099317227688447548 0.0025406344907284765 0 -0.00090042981267177407 0.0026403198985999032 0 -0.00099317227688447548 0.0025406344907284765 0 -0.0010696756219161403 0.0026931237824683392 0 -0.00090042981267177407 0.0026403198985999032 0 -0.00062062410497356712 0.0026389515928979821 0 -0.00075400039192350982 0.0025453752275558308 0 -0.00062062410497356712 0.0026389515928979821 0 -0.00054220624365107701 0.0024738449888651636 0 -0.00075400039192350982 0.0025453752275558308 0 -0.00033276828180647865 0.0025202240904568206 0 -0.00062062410497356712 0.0026389515928979821 0 -0.00054220624365107701 0.0024738449888651636 0 -0.00054220624365107701 0.0024738449888651636 0 -0.00075400039192350982 0.0025453752275558308 0 -0.00071317286235300929 0.0024142617211901697 0 -0.00054220624365107701 0.0024738449888651636 0 -0.00071317286235300929 0.0024142617211901697 0 -0.00049383186668420739 0.0023434451471685208 0 -0.00071317286235300929 0.0024142617211901697 0 -0.00049383186668420739 0.0023434451471685208 0 -0.00058380089859020928 0.0022101018756974164 0 -0.00071317286235300929 0.0024142617211901697 0 -0.00058380089859020928 0.0022101018756974164 0 -0.00089207091783014003 0.0023437216010316641 0 -0.00089207091783014003 0.0023437216010316641 0 -0.00099317227688447548 0.0025406344907284765 0 -0.001259898512461664 0.0024943849041712822 0 -0.00071317286235300929 0.0024142617211901697 0 -0.00089207091783014003 0.0023437216010316641 0 -0.00099317227688447548 0.0025406344907284765 0 -0.0011000279836601951 0.0025781773575310261 0 -0.0012517812231493174 0.0024084726548778122 0 -0.00089207091783014003 0.0023437216010316641 0 -0.00088230159916437149 0.0019635351302651404 0 -0.001259898512461664 0.0024943849041712822 0 -0.0014932799149651433 0.0026786448033035647 0 -0.0013833764799824446 0.0027139514996629404 0 -0.001259898512461664 0.0024943849041712822 0 -0.0011000279836601951 0.0025781773575310261 0 -0.0013826308576812849 0.0026095597593024859 0 -0.0011000279836601951 0.0025781773575310261 0 -0.00051862117930209176 0.0024887243482605349 0 -0.00058380089859020928 0.0022101018756974164 0 -0.00089207091783014003 0.0023437216010316641 0 -0.00088230159916437149 0.0019635351302651404 0 -0.00058380089859020928 0.0022101018756974164 0 -0.00088230159916437149 0.0019635351302651404 0 -0.00049451314655517883 0.0020344483824676169 0 -0.0014250591118528681 0.0027581895808642476 0 -0.0014018115359748222 0.0027089445731941692 0 -0.0014335515240698343 0.0027490578882605325 0 -0.0011000279836601951 0.0025781773575310261 0 -0.00082233515078067548 0.003128294590919691 0 -0.00087230427865163753 0.0028513305091842668 0 -0.00060558934633481816 0.0029345288641221099 0 -0.00063127239046519663 0.0026392396667571003 0 -0.00090455678215468243 0.0032606745100762684 0 -0.00073970141504161072 0.0032366248366957496 0 -0.00083886928433479313 0.0033242713048639719 0 -0.0010812461900889783 0.003138603705006801 0 -0.00082233515078067548 0.003128294590919691 0 -0.0014250591118528681 0.0027581895808642476 0 -0.0014018115359748222 0.0027089445731941692 0 -0.0013685391795226281 0.0027498392167566946 0 -0.0010812461900889783 0.003138603705006801 0 -0.001388122680424857 0.0028030115937253495 0 -0.0014018115359748222 0.0027089445731941692 0 -0.0013833764799824446 0.0027139514996629404 0 -0.0013685391795226281 0.0027498392167566946 0 -0.001388122680424857 0.0028030115937253495 0 -0.0013297073872231772 0.0028592315002615525 0 -0.0013833764799824446 0.0027139514996629404 0 -0.0013685391795226281 0.0027498392167566946 0 -0.0013316415787478963 0.0027175172658541503 0 -0.0013685391795226281 0.0027498392167566946 0 -0.0013316415787478963 0.0027175172658541503 0 -0.0013652848572058211 0.0028589863083106131 0 -0.0013833764799824446 0.0027139514996629404 0 -0.0013316415787478963 0.0027175172658541503 0 -0.001259898512461664 0.0024943849041712822 0 -0.0013316415787478963 0.0027175172658541503 0 -0.001259898512461664 0.0024943849041712822 0 -0.0013291181838938153 0.0026509545096818645 0 -0.0013316415787478963 0.0027175172658541503 0 -0.0013652848572058211 0.0028589863083106131 0 -0.0013771616895787776 0.002791565197486193 0 -0.0013316415787478963 0.0027175172658541503 0 -0.0013771616895787776 0.002791565197486193 0 -0.0013291181838938153 0.0026509545096818645 0 -0.0015245208884727157 0.0029235936640870474 0 -0.0013652848572058211 0.0028589863083106131 0 -0.0014730002848968228 0.0029076134412188586 0 -0.001850278421931414 0.0030051837888735774 0 -0.0015245208884727157 0.0029235936640870474 0 -0.0014730002848968228 0.0029076134412188586 0 -0.0027873285125443441 0.0024399148675014241 0 -0.0025663704919390881 0.0024025857143801566 0 -0.0013652848572058211 0.0028589863083106131 0 -0.0014730002848968228 0.0029076134412188586 0 -0.0013771616895787776 0.002791565197486193 0 -0.0014730002848968228 0.0029076134412188586 0 -0.0013771616895787776 0.002791565197486193 0 -0.001346258491201802 0.0026864640299701986 0 -0.0025663704919390881 0.0024025857143801566 0 -0.0024439109192572819 0.002336436616457797 0 -0.0013771616895787776 0.002791565197486193 0 -0.001346258491201802 0.0026864640299701986 0 -0.0013291181838938153 0.0026509545096818645 0 -0.0036402596820433292 0.0019117715700355151 0 -0.003509984063286968 0.0019964505250907646 0 -0.0036815324325545299 0.0020133378241662327 0 -0.0036318321025135985 0.0020865112413569905 0 -0.0035201204409717468 0.0020517964294925993 0 -0.0036815324325545299 0.0020133378241662327 0 -0.0035108757336428146 0.0021276999318084141 0 -0.0036729591774282075 0.0020168755669078991 0 -0.003509984063286968 0.0019964505250907646 0 -0.0035562049917454959 0.0021655476763024367 0 -0.0036815324325545299 0.0020133378241662327 0 -0.0024439109192572819 0.002336436616457797 0 -0.0022674199226069948 0.0025046431869279072 0 -0.003509984063286968 0.0019964505250907646 0 -0.0035562049917454959 0.0021655476763024367 0 -0.0033054934304147785 0.0022187447540386366 0 -0.001346258491201802 0.0026864640299701986 0 -0.0013243249522426886 0.0026872801007673812 0 -0.0013082015662912233 0.0026486775664197183 0 -0.0013082015662912233 0.0026486775664197183 0 -0.0012455434408041896 0.0026716338948683644 0 -0.0012462901607717609 0.0025984652498042501 0 -0.0013243249522426886 0.0026872801007673812 0 -0.0013082015662912233 0.0026486775664197183 0 -0.0012455434408041896 0.0026716338948683644 0 -0.00099317227688447548 0.0025406344907284765 0 -0.0010696756219161403 0.0026931237824683392 0 -0.0012462901607717609 0.0025984652498042501 0 -0.0012455434408041896 0.0026716338948683644 0 -0.0010696756219161403 0.0026931237824683392 0 -0.0012462901607717609 0.0025984652498042501 0 -0.001259898512461664 0.0024943849041712822 0 -0.0012462901607717609 0.0025984652498042501 0 -0.0013291181838938153 0.0026509545096818645 0 -0.00099317227688447548 0.0025406344907284765 0 -0.001259898512461664 0.0024943849041712822 0 -0.0012462901607717609 0.0025984652498042501 0 -0.001346258491201802 0.0026864640299701986 0 -0.0013082015662912233 0.0026486775664197183 0 -0.0013291181838938153 0.0026509545096818645 0 -0.0013082015662912233 0.0026486775664197183 0 -0.0012462901607717609 0.0025984652498042501 0 -0.0013291181838938153 0.0026509545096818645 0 -0.0040089376469586279 0.001895400580848678 0 -0.003885985580668072 0.0019276427337200728 0 -0.0038845540991476364 0.0019317127772045075 0 -0.003885985580668072 0.0019276427337200728 0 -0.0038845540991476364 0.0019317127772045075 0 -0.0037971871760112755 0.0019270680001237548 0 -0.003885985580668072 0.0019276427337200728 0 -0.0037971871760112755 0.0019270680001237548 0 -0.0038015006914752514 0.0019358501650260716 0 -0.003885985580668072 0.0019276427337200728 0 -0.0038015006914752514 0.0019358501650260716 0 -0.0038365871315162868 0.0019767193599311362 0 -0.0038015006914752514 0.0019358501650260716 0 -0.0037417106804412113 0.0019504120941691769 0 -0.0038365871315162868 0.0019767193599311362 0 -0.0038015006914752514 0.0019358501650260716 0 -0.003736309372930219 0.0019140897788006656 0 -0.0037417106804412113 0.0019504120941691769 0 -0.0037971871760112755 0.0019270680001237548 0 -0.0038015006914752514 0.0019358501650260716 0 -0.003736309372930219 0.0019140897788006656 0 -0.0037144562724119798 0.0019234529156086503 0 -0.0037971871760112755 0.0019270680001237548 0 -0.003736309372930219 0.0019140897788006656 0 -0.0037012138998874767 0.0019070688124318877 0 -0.0036402596820433292 0.0019117715700355151 0 -0.003736309372930219 0.0019140897788006656 0 -0.0036402596820433292 0.0019117715700355151 0 -0.0037417106804412113 0.0019504120941691769 0 -0.0036815324325545299 0.0020133378241662327 0 -0.0036402596820433292 0.0019117715700355151 0 -0.003736309372930219 0.0019140897788006656 0 -0.0037417106804412113 0.0019504120941691769 0 -0.0037417106804412113 0.0019504120941691769 0 -0.0036815324325545299 0.0020133378241662327 0 -0.0037643807875676087 0.0020073551786905616 0 -0.0036815324325545299 0.0020133378241662327 0 -0.0037366771146993142 0.0020827437393247223 0 -0.0037643807875676087 0.0020073551786905616 0 -0.0036318321025135985 0.0020865112413569905 0 -0.0036815324325545299 0.0020133378241662327 0 -0.0037366771146993142 0.0020827437393247223 0 -0.0037366771146993142 0.0020827437393247223 0 -0.0038232863001263747 0.0020466410606072185 0 -0.0037643807875676087 0.0020073551786905616 0 -0.0038232863001263747 0.0020466410606072185 0 -0.0037643807875676087 0.0020073551786905616 0 -0.0038365871315162868 0.0019767193599311362 0 -0.0037417106804412113 0.0019504120941691769 0 -0.0037643807875676087 0.0020073551786905616 0 -0.0038365871315162868 0.0019767193599311362 0 -0.0038365871315162868 0.0019767193599311362 0 -0.0038873606751997228 0.0020214601110903965 0 -0.0039769988463953781 0.0019781157664951953 0 -0.0038232863001263747 0.0020466410606072185 0 -0.0038873606751997228 0.0020214601110903965 0 -0.003906614526451118 0.0020840036350458892 0 -0.0038232863001263747 0.0020466410606072185 0 -0.0038365871315162868 0.0019767193599311362 0 -0.0038873606751997228 0.0020214601110903965 0 -0.0038873606751997228 0.0020214601110903965 0 -0.0039769988463953781 0.0019781157664951953 0 -0.003906614526451118 0.0020840036350458892 0 -0.003885985580668072 0.0019276427337200728 0 -0.0038365871315162868 0.0019767193599311362 0 -0.0039769988463953781 0.0019781157664951953 0 -0.0040089376469586279 0.001895400580848678 0 -0.003885985580668072 0.0019276427337200728 0 -0.0039769988463953781 0.0019781157664951953 0 -0.0040552599285558081 0.0020864193355242702 0 -0.0039619803116855423 0.0021352742109809328 0 -0.003906614526451118 0.0020840036350458892 0 -0.0040552599285558081 0.0020864193355242702 0 -0.0039769988463953781 0.0019781157664951953 0 -0.003906614526451118 0.0020840036350458892 0 -0.0038232863001263747 0.0020466410606072185 0 -0.003906614526451118 0.0020840036350458892 0 -0.0038079527763999156 0.0021161396843311182 0 -0.003906614526451118 0.0020840036350458892 0 -0.0038736053771556969 0.0021589732439546436 0 -0.0038079527763999156 0.0021161396843311182 0 -0.0039619803116855423 0.0021352742109809328 0 -0.003906614526451118 0.0020840036350458892 0 -0.0038736053771556969 0.0021589732439546436 0 -0.0038037124505247771 0.0021552588947513474 0 -0.0038079527763999156 0.0021161396843311182 0 -0.0037531505562210556 0.0021521497987132547 0 -0.0038736053771556969 0.0021589732439546436 0 -0.0038037124505247771 0.0021552588947513474 0 -0.0038091785816813562 0.0021989267333397586 0 -0.0038736053771556969 0.0021589732439546436 0 -0.0038037124505247771 0.0021552588947513474 0 -0.0038079527763999156 0.0021161396843311182 0 -0.0038037124505247771 0.0021552588947513474 0 -0.0037531505562210556 0.0021521497987132547 0 -0.0038091785816813562 0.0021989267333397586 0 -0.0037366771146993142 0.0020827437393247223 0 -0.0038232863001263747 0.0020466410606072185 0 -0.0038079527763999156 0.0021161396843311182 0 -0.0037366771146993142 0.0020827437393247223 0 -0.0037210091946941657 0.0023324163211240197 0 -0.0036378860377026777 0.0022210800448147034 0 -0.0037366771146993142 0.0020827437393247223 0 -0.0038079527763999156 0.0021161396843311182 0 -0.0037531505562210556 0.0021521497987132547 0 -0.0037411462684153718 0.002077653731986432 0 -0.0037285454786995867 0.0022726585552138821 0 -0.0036318321025135985 0.0020865112413569905 0 -0.0037366771146993142 0.0020827437393247223 0 -0.0036378860377026777 0.0022210800448147034 0 -0.0037210091946941657 0.0023324163211240197 0 -0.0036378860377026777 0.0022210800448147034 0 -0.0036364700640536059 0.0023518781052896645 0 -0.0037531505562210556 0.0021521497987132547 0 -0.0037428020100377817 0.0022483666214348917 0 -0.0038091785816813562 0.0021989267333397586 0 -0.0037210091946941657 0.0023324163211240197 0 -0.0036784386518278296 0.0025247328380594465 0 -0.0036893427957733252 0.0025514820834763334 0 -0.0037210091946941657 0.0023324163211240197 0 -0.0036784386518278296 0.0025247328380594465 0 -0.0036621607318158933 0.0024858359682607793 0 -0.0037210091946941657 0.0023324163211240197 0 -0.0036194085618616555 0.0024307567990061174 0 -0.0036621607318158933 0.0024858359682607793 0 -0.0037285454786995867 0.0022726585552138821 0 -0.0037534640977422732 0.0022609538706790961 0 -0.0037534640977422732 0.0022609538706790961 0 -0.0038017079831961565 0.002201701915937247 0 -0.0036784386518278296 0.0025247328380594465 0 -0.0036696750389273868 0.0025656971823105256 0 -0.0036621607318158933 0.0024858359682607793 0 -0.003955240682066619 0.0021860423362007474 0 -0.003941670937931077 0.002179958877866298 0 -0.0038921935344256847 0.0021688888944537588 0 -0.0036784386518278296 0.0025247328380594465 0 -0.0036776492106401493 0.0025445104296937956 0 -0.0036696750389273868 0.0025656971823105256 0 -0.0036784386518278296 0.0025247328380594465 0 -0.0036776492106401493 0.0025445104296937956 0 -0.0036893427957733252 0.0025514820834763334 0 -0.003955240682066619 0.0021860423362007474 0 -0.0039539431455531378 0.0021745918662569321 0 -0.003941670937931077 0.002179958877866298 0 -0.0037866695642149186 0.0020865616630411647 0 -0.0038776887017000676 0.0020988224570615481 0 -0.0037206536677586222 0.0022284775134743789 0 -0.0037557176264855019 0.0022025824385408718 0 -0.0037149281201967611 0.0021610849530144514 0 -0.0037534640977422732 0.0022609538706790961 0 -0.0037866695642149186 0.0020865616630411647 0 -0.0037534640977422732 0.0022609538706790961 0 -0.003643723000684889 0.002256390127449165 0 -0.0036776492106401493 0.0025445104296937956 0 -0.0036893427957733252 0.0025514820834763334 0 -0.0036696750389273868 0.0025656971823105256 0 -0.0037866695642149186 0.0020865616630411647 0 -0.0038277328595422962 0.002050659589560847 0 -0.003643723000684889 0.002256390127449165 0 -0.0037243275985970412 0.0020296029150606142 0 -0.0038403468487224128 0.0020683794118640047 0 -0.0038233793165412277 0.0020805899752898514 0 -0.00382774119035702 0.0020330130812109574 0 -0.0037243275985970412 0.0020296029150606142 0 -0.0038277328595422962 0.002050659589560847 0 -0.0037557176264855019 0.0022025824385408718 0 -0.0037355079865232107 0.0021461832531372679 0 -0.0037149281201967611 0.0021610849530144514 0 -0.0037243275985970412 0.0020296029150606142 0 -0.0037866695642149186 0.0020865616630411647 0 -0.0039631690714971371 0.0021699795874818707 0 -0.0039468353922408727 0.0021637567642666337 0 -0.003941670937931077 0.002179958877866298 0 -0.0039631690714971371 0.0021699795874818707 0 -0.0039659198586673777 0.0021597832913909385 0 -0.0039468353922408727 0.0021637567642666337 0 -0.0036786707890539509 0.0018482146705273523 0 -0.00365432560246232 0.0017800680272391 0 -0.0038146170616318409 0.0017493812687638336 0 -0.0039659198586673777 0.0021597832913909385 0 -0.0039414699670892754 0.0021518298921894556 0 -0.0039468353922408727 0.0021637567642666337 0 -0.0039414699670892754 0.0021518298921894556 0 -0.003931623292765825 0.002162301652345937 0 -0.0039158130436141945 0.0021507133042999119 0 -0.0039414699670892754 0.0021518298921894556 0 -0.0039468353922408727 0.0021637567642666337 0 -0.003931623292765825 0.002162301652345937 0 -0.0039468353922408727 0.0021637567642666337 0 -0.003931623292765825 0.002162301652345937 0 -0.003941670937931077 0.002179958877866298 0 -0.003931623292765825 0.002162301652345937 0 -0.003941670937931077 0.002179958877866298 0 -0.0039137063809643151 0.0021697109994694443 0 -0.003941670937931077 0.002179958877866298 0 -0.0039137063809643151 0.0021697109994694443 0 -0.0038921935344256847 0.0021688888944537588 0 -0.0037534640977422732 0.0022609538706790961 0 -0.0038986066037227695 0.0021917338922909204 0 -0.003931623292765825 0.002162301652345937 0 -0.0039137063809643151 0.0021697109994694443 0 -0.0039158130436141945 0.0021507133042999119 0 -0.0039137063809643151 0.0021697109994694443 0 -0.0038886822389793975 0.0021711569519974622 0 -0.0039158130436141945 0.0021507133042999119 0 -0.0039137063809643151 0.0021697109994694443 0 -0.0038921935344256847 0.0021688888944537588 0 -0.0038886822389793975 0.0021711569519974622 0 -0.0037387259316099368 0.0022512130999423766 0 -0.0038534383644577464 0.0022289884734618009 0 -0.0038091785816813562 0.0021989267333397586 0 -0.0038736053771556969 0.0021589732439546436 0 -0.0038534383644577464 0.0022289884734618009 0 -0.0038091785816813562 0.0021989267333397586 0 -0.0038736053771556969 0.0021589732439546436 0 -0.0038534383644577464 0.0022289884734618009 0 -0.0039700456731115493 0.0021780489593338902 0 -0.0038986066037227695 0.0021917338922909204 0 -0.0039510084957556802 0.0021827424213569078 0 -0.0038886822389793975 0.0021711569519974622 0 -0.0039700456731115493 0.0021780489593338902 0 -0.0038741675720003442 0.0021707813497312089 0 -0.0038921935344256847 0.0021688888944537588 0 -0.0038886822389793975 0.0021711569519974622 0 -0.0039700456731115493 0.0021780489593338902 0 -0.0039700456731115493 0.0021780489593338902 0 -0.0039678728252187621 0.0021985720609019837 0 -0.0038741675720003442 0.0021707813497312089 0 -0.004053193925267695 0.0021421482434479666 0 -0.0039619803116855423 0.0021352742109809328 0 -0.0039700456731115493 0.0021780489593338902 0 -0.0039619803116855423 0.0021352742109809328 0 -0.0038736053771556969 0.0021589732439546436 0 -0.0039700456731115493 0.0021780489593338902 0 -0.003269489039304047 0.0023206223955784754 0 -0.0030820752040039011 0.0023072853101671243 0 -0.0033045881585077835 0.0021621758113217569 0 -0.003269489039304047 0.0023206223955784754 0 -0.0033045881585077835 0.0021621758113217569 0 -0.0034137019991741899 0.0022742518942419424 0 -0.003269489039304047 0.0023206223955784754 0 -0.0033569363282514131 0.0024169496213966328 0 -0.0031833163918454609 0.0024421637744470774 0 -0.003269489039304047 0.0023206223955784754 0 -0.0030820752040039011 0.0023072853101671243 0 -0.0031833163918454609 0.0024421637744470774 0 -0.00099243574382964312 0.0028727516583783065 0 -0.0009583589413968849 0.003109372202349307 0 -0.0011836686807347283 0.0029431753217466273 0 -0.0030820752040039011 0.0023072853101671243 0 -0.0031833163918454609 0.0024421637744470774 0 -0.0029621803949261933 0.0024852628558407869 0 -0.0023749929029725949 0.0025740558995615169 0 -0.0017170628231448302 0.0028577002741397199 0 -0.0010371587137764304 0.0029970502147566086 0 -0.0023749929029725949 0.0025740558995615169 0 -0.0014819595223748959 0.0029426718362670686 0 -0.0021132697215293385 0.0024702647168123809 0 -0.0017172050145574907 0.0030930633654525654 0 -0.0013243249522426886 0.0026872801007673812 0 -0.0011836686807347283 0.0029431753217466273 0 -0.0011717140019764695 0.0027719636941832587 0 -0.00099243574382964312 0.0028727516583783065 0 -0.0010696756219161403 0.0026931237824683392 0 -0.0011717140019764695 0.0027719636941832587 0 -0.00099243574382964312 0.0028727516583783065 0 -0.0011836686807347283 0.0029431753217466273 0 -0.0011717140019764695 0.0027719636941832587 0 -0.0012455434408041896 0.0026716338948683644 0 -0.0010696756219161403 0.0026931237824683392 0 -0.0011717140019764695 0.0027719636941832587 0 -0.0033054934304147785 0.0022187447540386366 0 -0.003064732592461537 0.0025434998701684484 0 -0.0033466377956895932 0.0023484875613293682 0 -0.0023749929029725949 0.0025740558995615169 0 -0.0034393781686558487 0.0021941648018235452 0 -0.0022674199226069948 0.0025046431869279072 0 -0.0023749929029725949 0.0025740558995615169 0 -0.0013243249522426886 0.0026872801007673812 0 -0.0012455434408041896 0.0026716338948683644 0 -0.0011717140019764695 0.0027719636941832587 0 -0.0035201204409717468 0.0020517964294925993 0 -0.0033045881585077835 0.0021621758113217569 0 -0.0034438241400061654 0.0021647161779910851 0 -0.0035108757336428146 0.0021276999318084141 0 -0.0034393781686558487 0.0021941648018235452 0 -0.0035562049917454959 0.0021655476763024367 0 -0.0033054934304147785 0.0022187447540386366 0 -0.0033466377956895932 0.0023484875613293682 0 -0.0035201204409717468 0.0020517964294925993 0 -0.0034438241400061654 0.0021647161779910851 0 -0.0035339342245290849 0.0021773159786195166 0 -0.0034438241400061654 0.0021647161779910851 0 -0.0035339342245290849 0.0021773159786195166 0 -0.0034137019991741899 0.0022742518942419424 0 -0.0033045881585077835 0.0021621758113217569 0 -0.0034438241400061654 0.0021647161779910851 0 -0.0034137019991741899 0.0022742518942419424 0 -0.0036318321025135985 0.0020865112413569905 0 -0.0035339342245290849 0.0021773159786195166 0 -0.0036378860377026777 0.0022210800448147034 0 -0.0036318321025135985 0.0020865112413569905 0 -0.0035201204409717468 0.0020517964294925993 0 -0.0035339342245290849 0.0021773159786195166 0 -0.0035339342245290849 0.0021773159786195166 0 -0.0036378860377026777 0.0022210800448147034 0 -0.0035644026589322507 0.0023038381174764343 0 -0.0036378860377026777 0.0022210800448147034 0 -0.0035644026589322507 0.0023038381174764343 0 -0.0036364700640536059 0.0023518781052896645 0 -0.0035656453486692151 0.0023047737138171963 0 -0.0036377228083593126 0.0025022571234000774 0 -0.0035644026589322507 0.0023038381174764343 0 -0.0035213459402363935 0.0023860629932209577 0 -0.0034463965023763155 0.0023611966088696854 0 -0.0035644026589322507 0.0023038381174764343 0 -0.0036194937725730547 0.0024691154346126181 0 -0.0035882895128420437 0.0024301743449487621 0 -0.0035644026589322507 0.0023038381174764343 0 -0.0035213459402363935 0.0023860629932209577 0 -0.0035882895128420437 0.0024301743449487621 0 -0.0035644026589322507 0.0023038381174764343 0 -0.0036364700640536059 0.0023518781052896645 0 -0.0036194085618616555 0.0024307567990061174 0 -0.0037210091946941657 0.0023324163211240197 0 -0.0036364700640536059 0.0023518781052896645 0 -0.0036194085618616555 0.0024307567990061174 0 -0.0035339342245290849 0.0021773159786195166 0 -0.0035644026589322507 0.0023038381174764343 0 -0.0034137019991741899 0.0022742518942419424 0 -0.0035644026589322507 0.0023038381174764343 0 -0.0034137019991741899 0.0022742518942419424 0 -0.0034463965023763155 0.0023611966088696854 0 -0.0034463965023763155 0.0023611966088696854 0 -0.0033569363282514131 0.0024169496213966328 0 -0.0034539933525289893 0.0024333500056499357 0 -0.0035213459402363935 0.0023860629932209577 0 -0.0034463965023763155 0.0023611966088696854 0 -0.0034539933525289893 0.0024333500056499357 0 -0.0034137019991741899 0.0022742518942419424 0 -0.0034463965023763155 0.0023611966088696854 0 -0.0033569363282514131 0.0024169496213966328 0 -0.003269489039304047 0.0023206223955784754 0 -0.0034137019991741899 0.0022742518942419424 0 -0.0033569363282514131 0.0024169496213966328 0 -0.0033569363282514131 0.0024169496213966328 0 -0.0034539933525289893 0.0024333500056499357 0 -0.0034219647239071014 0.0025173118108442328 0 -0.0033569363282514131 0.0024169496213966328 0 -0.0034219647239071014 0.0025173118108442328 0 -0.0033205897549917116 0.002553653655456658 0 -0.0035213459402363935 0.0023860629932209577 0 -0.0034539933525289893 0.0024333500056499357 0 -0.0035209043804423591 0.0024965391258842361 0 -0.0034539933525289893 0.0024333500056499357 0 -0.0034219647239071014 0.0025173118108442328 0 -0.0035209043804423591 0.0024965391258842361 0 -0.0034219647239071014 0.0025173118108442328 0 -0.0034962820249889296 0.0025719876813951586 0 -0.0035209043804423591 0.0024965391258842361 0 -0.0034219647239071014 0.0025173118108442328 0 -0.0034962820249889296 0.0025719876813951586 0 -0.0034216802330285997 0.0026174985988146491 0 -0.0034219647239071014 0.0025173118108442328 0 -0.0034216802330285997 0.0026174985988146491 0 -0.0033205897549917116 0.002553653655456658 0 -0.0036194937725730547 0.0024691154346126181 0 -0.0035882895128420437 0.0024301743449487621 0 -0.0036197728985352473 0.002622951877784727 0 -0.0035209043804423591 0.0024965391258842361 0 -0.0035882895128420437 0.0024301743449487621 0 -0.0036233531093861041 0.0026614926847185931 0 -0.003643723000684889 0.002256390127449165 0 -0.0036377228083593126 0.0025022571234000774 0 -0.0036696750389273868 0.0025656971823105256 0 -0.0036194085618616555 0.0024307567990061174 0 -0.0036621607318158933 0.0024858359682607793 0 -0.0036142789130452894 0.0025738328464324305 0 -0.0035297394204828274 0.0023085863797284493 0 -0.0035213459402363935 0.0023860629932209577 0 -0.0035209043804423591 0.0024965391258842361 0 -0.0035882895128420437 0.0024301743449487621 0 -0.0034962820249889296 0.0025719876813951586 0 -0.0035209043804423591 0.0024965391258842361 0 -0.0036233531093861041 0.0026614926847185931 0 -0.0035297394204828274 0.0023085863797284493 0 -0.0031312594833186676 0.0020109292915350334 0 -0.0036763770040508193 0.0026263045873789093 0 -0.0036194937725730547 0.0024691154346126181 0 -0.0036197728985352473 0.002622951877784727 0 -0.0034047651140754012 0.0017396226379554007 0 -0.0033243671576204279 0.0017831245007562074 0 -0.0031047508734687655 0.0017940684652315993 0 -0.0034962820249889296 0.0025719876813951586 0 -0.0036233531093861041 0.0026614926847185931 0 -0.0034216802330285997 0.0026174985988146491 0 -0.0035657897977362809 0.0021614297971405978 0 -0.0034672206442895506 0.0021540817710854073 0 -0.0034781123678878172 0.0022248178924703229 0 -0.003643723000684889 0.002256390127449165 0 -0.0035297394204828274 0.0023085863797284493 0 -0.0035297394204828274 0.0023085863797284493 0 -0.0034919680164038117 0.0018763526620964659 0 -0.0034919680164038117 0.0018763526620964659 0 -0.0032986793728977904 0.00079980872143823191 0 -0.0033243671576204279 0.0017831245007562074 0 -0.0034155315033008136 0.0018041583709540185 0 -0.0032468429581468607 0.001925000451390172 0 -0.0033556750801064898 0.0013930992032674234 0 -0.003339596930679182 0.0012884347580513205 0 -0.0036193334853451601 0.0011947266248167733 0 -0.0034047651140754012 0.0017396226379554007 0 -0.0033243671576204279 0.0017831245007562074 0 -0.0034155315033008136 0.0018041583709540185 0 -0.0034919680164038117 0.0018763526620964659 0 -0.0035717234770363412 0.0015598425215253738 0 -0.0037243275985970412 0.0020296029150606142 0 -0.0035717234770363412 0.0015598425215253738 0 -0.0035741605756061021 0.0019263147873952538 0 -0.0036236290341482946 0.0019261444419918054 0 -0.0036185811148771218 0.0018930562549930568 0 -0.0035846437916806587 0.0019558318895533918 0 -0.0035741605756061021 0.0019263147873952538 0 -0.0036236290341482946 0.0019261444419918054 0 -0.003643723000684889 0.002256390127449165 0 -0.0034919680164038117 0.0018763526620964659 0 -0.0036233531093861041 0.0026614926847185931 0 -0.0034216802330285997 0.0026174985988146491 0 -0.0033871448708025931 0.0027015715552106976 0 -0.0034216802330285997 0.0026174985988146491 0 -0.0033361921015479133 0.0027035666049288983 0 -0.0033205897549917116 0.002553653655456658 0 -0.0034216802330285997 0.0026174985988146491 0 -0.0033871448708025931 0.0027015715552106976 0 -0.0033361921015479133 0.0027035666049288983 0 -0.0032843419721217699 0.0018091934380496041 0 -0.0031312594833186676 0.0020109292915350334 0 -0.0033243671576204279 0.0017831245007562074 0 -0.0030954227674537403 0.001786862285119683 0 -0.0032468429581468607 0.001925000451390172 0 -0.0025897964101846594 0.0019907612462444625 0 -0.0032986793728977904 0.00079980872143823191 0 -0.0030954227674537403 0.001786862285119683 0 -0.0030281620575218944 0.0017891856269599434 0 -0.0032468429581468607 0.001925000451390172 0 -0.0029073856572928228 -6.8806195360908065e-05 0 -0.0029473917585199957 0.00019599452799119878 0 -0.003279253595399113 0.00017366119494943377 0 -0.0031312594833186676 0.0020109292915350334 0 -0.0025897964101846594 0.0019907612462444625 0 -0.0029073856572928228 -6.8806195360908065e-05 0 -0.002116937918371468 4.046748322112625e-05 0 -0.0026871627854416912 0.00021429477366491817 0 -0.0025897964101846594 0.0019907612462444625 0 -0.0012462581548173921 0.0026908469148208751 0 -0.0025897964101846594 0.0019907612462444625 0 -0.0019114399778014911 0.00080540167568013876 0 -0.0016931591091609494 0.0033981159404918955 0 -0.0013687142242285477 0.00320946031209173 0 -0.0010977317909014171 0.0034204891627329002 0 -0.0025897964101846594 0.0019907612462444625 0 -0.0023587012487786422 0.0029824140738007755 0 -0.0033361921015479133 0.0027035666049288983 0 -0.0033205897549917116 0.002553653655456658 0 -0.0031541645511940957 0.0025975154621307502 0 -0.0033205897549917116 0.002553653655456658 0 -0.0031541645511940957 0.0025975154621307502 0 -0.0031833163918454609 0.0024421637744470774 0 -0.0033569363282514131 0.0024169496213966328 0 -0.0033205897549917116 0.002553653655456658 0 -0.0031833163918454609 0.0024421637744470774 0 -0.0031541645511940957 0.0025975154621307502 0 -0.0031833163918454609 0.0024421637744470774 0 -0.0029621803949261933 0.0024852628558407869 0 -0.0013687142242285477 0.00320946031209173 0 -0.0010189542279330822 0.0030986381210822891 0 -0.0010554312784284458 0.0030417773061728864 0 -0.0015734576394022452 0.0029947671515450185 0 -0.0017170628231448302 0.0028577002741397199 0 -0.0023587012487786422 0.0029824140738007755 0 -0.0017170628231448302 0.0028577002741397199 0 -0.002380869769536418 0.0017883288479049134 0 -0.0016492221558186979 0.0017959364597902698 0 -0.0016489463715652776 0.0019043744199950649 0 -0.0013687142242285477 0.00320946031209173 0 -0.0010189542279330822 0.0030986381210822891 0 -0.0010977317909014171 0.0034204891627329002 0 -0.002116937918371468 4.046748322112625e-05 0 -0.0020112919726159167 0.00057302623449713235 0 -0.0024612673600271501 0.0004000606582077686 0 -0.002116937918371468 4.046748322112625e-05 0 -0.0024612673600271501 0.0004000606582077686 0 -0.0026871627854416912 0.00021429477366491817 0 -0.0020112919726159167 0.00057302623449713235 0 -0.0025044750237259179 0.000748053139654864 0 -0.0023045177985664576 0.0010121780158283957 0 -0.0020112919726159167 0.00057302623449713235 0 -0.0023045177985664576 0.0010121780158283957 0 -0.0017950817659477135 0.0009683614692872905 0 -0.0020112919726159167 0.00057302623449713235 0 -0.0025044750237259179 0.000748053139654864 0 -0.0024612673600271501 0.0004000606582077686 0 -0.0028885387557989568 0.00054323705840418884 0 -0.0023279058823867057 0.0010083143305449553 0 -0.0025044750237259179 0.000748053139654864 0 -0.0028186072857976454 0.00062971702638520155 0 -0.0023045177985664576 0.0010121780158283957 0 -0.0025044750237259179 0.000748053139654864 0 -0.0024612673600271501 0.0004000606582077686 0 -0.0028936394220887653 0.00045312152207871659 0 -0.0029033614013486866 0.00085206261895583277 0 -0.002945817778424501 0.00057746900476317623 0 -0.0023045177985664576 0.0010121780158283957 0 -0.0025044750237259179 0.000748053139654864 0 -0.0028186072857976454 0.00062971702638520155 0 -0.0028762003983032873 0.00048008907849893343 0 -0.0029033614013486866 0.00085206261895583277 0 -0.002945817778424501 0.00057746900476317623 0 -0.0030626021460688131 0.00068632193442915161 0 -0.0025290630749941014 0.00072945117807961019 0 -0.0029210997089799901 0.00043296890235851917 0 -0.0024612673600271501 0.0004000606582077686 0 -0.0026871627854416912 0.00021429477366491817 0 -0.0028936394220887653 0.00045312152207871659 0 -0.0026871627854416912 0.00021429477366491817 0 -0.0029473917585199957 0.00019599452799119878 0 -0.0028936394220887653 0.00045312152207871659 0 -0.0029073856572928228 -6.8806195360908065e-05 0 -0.0026871627854416912 0.00021429477366491817 0 -0.0029473917585199957 0.00019599452799119878 0 -0.0028885387557989568 0.00054323705840418884 0 -0.0034786867360009645 0.00073572466742658372 0 -0.0028186072857976454 0.00062971702638520155 0 -0.0028762003983032873 0.00048008907849893343 0 -0.0033241628018220938 0.00027858395085895142 0 -0.002945817778424501 0.00057746900476317623 0 -0.0035027365836363782 0.0002111563364465248 0 -0.0032355470310180489 0.00058109183237955748 0 -0.0032393006287406534 0.00022416115834466904 0 -0.0028762003983032873 0.00048008907849893343 0 -0.0033241628018220938 0.00027858395085895142 0 -0.0029473917585199957 0.00019599452799119878 0 -0.003279253595399113 0.00017366119494943377 0 -0.0028936394220887653 0.00045312152207871659 0 -0.0032986793728977904 0.00079980872143823191 0 -0.0029210997089799901 0.00043296890235851917 0 -0.0035027365836363782 0.0002111563364465248 0 -0.003409951013225145 0.00051679412835543099 0 -0.0032355470310180489 0.00058109183237955748 0 -0.0034786867360009645 0.00073572466742658372 0 -0.0036573961638309907 0.0011113007631730902 0 -0.00365432560246232 0.0017800680272391 0 -0.0038146170616318409 0.0017493812687638336 0 -0.0037715404110310979 0.0014625153646440814 0 -0.0035717234770363412 0.0015598425215253738 0 -0.0036573961638309907 0.0011113007631730902 0 -0.0035779095371925324 0.0011450095782178475 0 -0.0036207875709493662 0.0011124988296103598 0 -0.0035685279682499777 0.00107909617354418 0 -0.003339596930679182 0.0012884347580513205 0 -0.0036193334853451601 0.0011947266248167733 0 -0.0035376907203510965 0.0011424730999135015 0 -0.0035717234770363412 0.0015598425215253738 0 -0.0034786867360009645 0.00073572466742658372 0 -0.0032986793728977904 0.00079980872143823191 0 -0.0034786867360009645 0.00073572466742658372 0 -0.0035027365836363782 0.0002111563364465248 0 -0.0035760941242517904 0.0004770057025733128 0 -0.003409951013225145 0.00051679412835543099 0 -0.0035027365836363782 0.0002111563364465248 0 -0.0035760941242517904 0.0004770057025733128 0 -0.003775042813674934 0.00038793388640482327 0 -0.0035760941242517904 0.0004770057025733128 0 -0.003775042813674934 0.00038793388640482327 0 -0.0036490636295353654 0.00062370403978075474 0 -0.0036573961638309907 0.0011113007631730902 0 -0.0038829322452424157 0.0016250398983755376 0 -0.003775042813674934 0.00038793388640482327 0 -0.0036490636295353654 0.00062370403978075474 0 -0.0038397861729572505 0.00081938649153323942 0 -0.0036573961638309907 0.0011113007631730902 0 -0.003867137313582362 0.0012729291866200182 0 -0.0036490636295353654 0.00062370403978075474 0 -0.0035062776206008081 0.00062907969084798022 0 -0.0035385096453441874 0.00080314446313489599 0 -0.0035760941242517904 0.0004770057025733128 0 -0.0036490636295353654 0.00062370403978075474 0 -0.0035062776206008081 0.00062907969084798022 0 -0.0035760941242517904 0.0004770057025733128 0 -0.003409951013225145 0.00051679412835543099 0 -0.0035062776206008081 0.00062907969084798022 0 -0.003409951013225145 0.00051679412835543099 0 -0.0035062776206008081 0.00062907969084798022 0 -0.0033575756182653671 0.00072502578050045129 0 -0.0035062776206008081 0.00062907969084798022 0 -0.0035385096453441874 0.00080314446313489599 0 -0.0033575756182653671 0.00072502578050045129 0 -0.0036490636295353654 0.00062370403978075474 0 -0.0035385096453441874 0.00080314446313489599 0 -0.0038397861729572505 0.00081938649153323942 0 -0.0035385096453441874 0.00080314446313489599 0 -0.0036228819183932431 0.0010144823876732743 0 -0.0038397861729572505 0.00081938649153323942 0 -0.002945817778424501 0.00057746900476317623 0 -0.0030626021460688131 0.00068632193442915161 0 -0.0032355470310180489 0.00058109183237955748 0 -0.0030626021460688131 0.00068632193442915161 0 -0.0032355470310180489 0.00058109183237955748 0 -0.0031577480228301789 0.00078144027525107866 0 -0.003409951013225145 0.00051679412835543099 0 -0.0032355470310180489 0.00058109183237955748 0 -0.0033575756182653671 0.00072502578050045129 0 -0.0032355470310180489 0.00058109183237955748 0 -0.0033575756182653671 0.00072502578050045129 0 -0.0031577480228301789 0.00078144027525107866 0 -0.0035385096453441874 0.00080314446313489599 0 -0.0033575756182653671 0.00072502578050045129 0 -0.0033409751172860788 0.00098024990332357034 0 -0.0033575756182653671 0.00072502578050045129 0 -0.0031577480228301789 0.00078144027525107866 0 -0.0033409751172860788 0.00098024990332357034 0 -0.0029033614013486866 0.00085206261895583277 0 -0.0031577480228301789 0.00078144027525107866 0 -0.0030649832030461579 0.00099479725917133366 0 -0.0031577480228301789 0.00078144027525107866 0 -0.0030649832030461579 0.00099479725917133366 0 -0.0033409751172860788 0.00098024990332357034 0 -0.0029033614013486866 0.00085206261895583277 0 -0.0030626021460688131 0.00068632193442915161 0 -0.0031577480228301789 0.00078144027525107866 0 -0.0030649832030461579 0.00099479725917133366 0 -0.0031001817932893362 0.0012725775949551153 0 -0.0028083961011762574 0.0010865568749028715 0 -0.0030649832030461579 0.00099479725917133366 0 -0.0033409751172860788 0.00098024990332357034 0 -0.0031001817932893362 0.0012725775949551153 0 -0.0033409751172860788 0.00098024990332357034 0 -0.0031001817932893362 0.0012725775949551153 0 -0.0035018819326940284 0.001257917540080758 0 -0.0036228819183932431 0.0010144823876732743 0 -0.0037810494341784825 0.0012450610533737696 0 -0.0038397861729572505 0.00081938649153323942 0 -0.0038048076883714387 0.0010805403079904847 0 -0.003867137313582362 0.0012729291866200182 0 -0.0033409751172860788 0.00098024990332357034 0 -0.0036228819183932431 0.0010144823876732743 0 -0.0035018819326940284 0.001257917540080758 0 -0.0035385096453441874 0.00080314446313489599 0 -0.0033409751172860788 0.00098024990332357034 0 -0.0036228819183932431 0.0010144823876732743 0 -0.0036228819183932431 0.0010144823876732743 0 -0.0035018819326940284 0.001257917540080758 0 -0.0036378900153465339 0.0011816184832458608 0 -0.0035018819326940284 0.001257917540080758 0 -0.0036378900153465339 0.0011816184832458608 0 -0.0037396553010105664 0.001334801497288985 0 -0.0036228819183932431 0.0010144823876732743 0 -0.0036378900153465339 0.0011816184832458608 0 -0.0037810494341784825 0.0012450610533737696 0 -0.0037810494341784825 0.0012450610533737696 0 -0.0037396553010105664 0.001334801497288985 0 -0.0038547041093739309 0.0013139424231939161 0 -0.0036378900153465339 0.0011816184832458608 0 -0.0037810494341784825 0.0012450610533737696 0 -0.0037396553010105664 0.001334801497288985 0 -0.0036333951714248641 0.0014250910834541764 0 -0.0033432758011983483 0.0016256144002958506 0 -0.0038818833918135968 0.0014455843519331189 0 -0.0039419595851141655 0.0013937992086060344 0 -0.0038818833918135968 0.0014455843519331189 0 -0.0039159028915759777 0.0013983731695855998 0 -0.0036363903985709763 0.0015010499718565572 0 -0.0038466845977044701 0.0014625398162145468 0 -0.0036333951714248641 0.0014250910834541764 0 -0.0037396553010105664 0.001334801497288985 0 -0.0038818833918135968 0.0014455843519331189 0 -0.0035018819326940284 0.001257917540080758 0 -0.0036333951714248641 0.0014250910834541764 0 -0.0033432758011983483 0.0016256144002958506 0 -0.0035018819326940284 0.001257917540080758 0 -0.0036333951714248641 0.0014250910834541764 0 -0.0037396553010105664 0.001334801497288985 0 -0.0031001817932893362 0.0012725775949551153 0 -0.0033432758011983483 0.0016256144002958506 0 -0.0026507225600122209 0.0016665131085445402 0 -0.0036363903985709763 0.0015010499718565572 0 -0.0032804718115278598 0.0015024879999327009 0 -0.0031001817932893362 0.0012725775949551153 0 -0.0035018819326940284 0.001257917540080758 0 -0.0033432758011983483 0.0016256144002958506 0 -0.0031001817932893362 0.0012725775949551153 0 -0.0026507225600122209 0.0016665131085445402 0 -0.0025619767466894205 0.0012971493886671634 0 -0.0039419595851141655 0.0013937992086060344 0 -0.0039653379167963266 0.0013462622709744197 0 -0.0039642896559710268 0.0013482729783592525 0 -0.0039653379167963266 0.0013462622709744197 0 -0.003967451240001656 0.0013324382997879948 0 -0.0039451023495782611 0.001308321868985202 0 -0.0032804718115278598 0.0015024879999327009 0 -0.0030396260370136609 0.0014980088835159157 0 -0.0026507225600122209 0.0016665131085445402 0 -0.0021193611410340652 0.0013190904238861534 0 -0.0019386385024489643 0.0016580805522593588 0 -0.0026507225600122209 0.0016665131085445402 0 -0.0021193611410340652 0.0013190904238861534 0 -0.0025619767466894205 0.0012971493886671634 0 -0.0021193611410340652 0.0013190904238861534 0 -0.0023045177985664576 0.0010121780158283957 0 -0.0025619767466894205 0.0012971493886671634 0 -0.0021193611410340652 0.0013190904238861534 0 -0.0023045177985664576 0.0010121780158283957 0 -0.0017950817659477135 0.0009683614692872905 0 -0.0023045177985664576 0.0010121780158283957 0 -0.0028083961011762574 0.0010865568749028715 0 -0.0025619767466894205 0.0012971493886671634 0 -0.0031001817932893362 0.0012725775949551153 0 -0.0028083961011762574 0.0010865568749028715 0 -0.0025619767466894205 0.0012971493886671634 0 -0.0029033614013486866 0.00085206261895583277 0 -0.0023045177985664576 0.0010121780158283957 0 -0.0028083961011762574 0.0010865568749028715 0 -0.0029033614013486866 0.00085206261895583277 0 -0.0030649832030461579 0.00099479725917133366 0 -0.0028083961011762574 0.0010865568749028715 0 -0.0039480206354106451 0.002239030659950552 0 -0.0038741675720003442 0.0021707813497312089 0 -0.0039096999926868572 0.002305755808710854 0 -0.0039879026627928525 0.0022882839070303132 0 -0.0039480206354106451 0.002239030659950552 0 -0.0039096999926868572 0.002305755808710854 0 -0.0037696792518722389 0.0017808757655155328 0 -0.0037430783772781787 0.0020152256191919697 0 -0.0039868066410115467 0.0022336247645786569 0 -0.0039480206354106451 0.002239030659950552 0 -0.0039678728252187621 0.0021985720609019837 0 -0.0039480206354106451 0.002239030659950552 0 -0.0039678728252187621 0.0021985720609019837 0 -0.0038741675720003442 0.0021707813497312089 0 -0.0038886822389793975 0.0021711569519974622 0 -0.0038741675720003442 0.0021707813497312089 0 -0.0038899489569446674 0.0021411072445237456 0 -0.0038741675720003442 0.0021707813497312089 0 -0.0038716354078255711 0.0020817413740724525 0 -0.0038899489569446674 0.0021411072445237456 0 -0.0039003818531979082 0.0022308326451987845 0 -0.0037430783772781787 0.0020152256191919697 0 -0.0038741675720003442 0.0021707813497312089 0 -0.0038716354078255711 0.0020817413740724525 0 -0.0037741321788852841 0.0020080959393009561 0 -0.0038393036010498788 0.0020025722540974395 0 -0.0038716354078255711 0.0020817413740724525 0 -0.0037741321788852841 0.0020080959393009561 0 -0.0038393036010498788 0.0020025722540974395 0 -0.0038707860772664465 0.0020148239381579179 0 -0.0038716354078255711 0.0020817413740724525 0 -0.0038393036010498788 0.0020025722540974395 0 -0.0038707860772664465 0.0020148239381579179 0 -0.0038733232064217466 0.0019749238840989784 0 -0.0038707860772664465 0.0020148239381579179 0 -0.0038982672007389294 0.0019799162890817095 0 -0.0038947223062307944 0.0020519872882732173 0 -0.0038707860772664465 0.0020148239381579179 0 -0.0038733232064217466 0.0019749238840989784 0 -0.0038982672007389294 0.0019799162890817095 0 -0.0038733232064217466 0.0019749238840989784 0 -0.0038982672007389294 0.0019799162890817095 0 -0.0038866707695206387 0.0019523840390935545 0 -0.0038947223062307944 0.0020519872882732173 0 -0.0039243333098594908 0.0020776512656052225 0 -0.0039077580002532973 0.0021077972477591294 0 -0.0038982672007389294 0.0019799162890817095 0 -0.0038947223062307944 0.0020519872882732173 0 -0.0039243333098594908 0.0020776512656052225 0 -0.0038947223062307944 0.0020519872882732173 0 -0.0038716354078255711 0.0020817413740724525 0 -0.0039077580002532973 0.0021077972477591294 0 -0.0038707860772664465 0.0020148239381579179 0 -0.0038947223062307944 0.0020519872882732173 0 -0.0038716354078255711 0.0020817413740724525 0 -0.0038716354078255711 0.0020817413740724525 0 -0.0038899489569446674 0.0021411072445237456 0 -0.0039077580002532973 0.0021077972477591294 0 -0.0038899489569446674 0.0021411072445237456 0 -0.0039158130436141945 0.0021507133042999119 0 -0.0039077580002532973 0.0021077972477591294 0 -0.0038886822389793975 0.0021711569519974622 0 -0.0038899489569446674 0.0021411072445237456 0 -0.0039158130436141945 0.0021507133042999119 0 -0.0039158130436141945 0.0021507133042999119 0 -0.0039077580002532973 0.0021077972477591294 0 -0.0039460671187869648 0.0021216342326607876 0 -0.0039243333098594908 0.0020776512656052225 0 -0.0039077580002532973 0.0021077972477591294 0 -0.0039460671187869648 0.0021216342326607876 0 -0.0039243333098594908 0.0020776512656052225 0 -0.0039460671187869648 0.0021216342326607876 0 -0.0039678894045251942 0.0020896067766838413 0 -0.0039659198586673777 0.0021597832913909385 0 -0.0039460671187869648 0.0021216342326607876 0 -0.0039678894045251942 0.0020896067766838413 0 -0.00365432560246232 0.0017800680272391 0 -0.0037715404110310979 0.0014625153646440814 0 -0.0036883158726680673 0.0014090315318214476 0 -0.0038277328595422962 0.002050659589560847 0 -0.0039839598992518852 0.0020844235074748522 0 -0.004013678437895107 0.0021276801803202703 0 -0.0040131646100867299 0.0020485307785498915 0 -0.0039814776600030476 0.0020429022031210786 0 -0.004013678437895107 0.0021276801803202703 0 -0.0040221342646158537 0.0020542904410680378 0 -0.0040131646100867299 0.0020485307785498915 0 -0.0038277328595422962 0.002050659589560847 0 -0.0038829322452424157 0.0016250398983755376 0 -0.0039414699670892754 0.0021518298921894556 0 -0.0039158130436141945 0.0021507133042999119 0 -0.0039460671187869648 0.0021216342326607876 0 -0.0039659198586673777 0.0021597832913909385 0 -0.0039414699670892754 0.0021518298921894556 0 -0.0039460671187869648 0.0021216342326607876 0 -0.0038829322452424157 0.0016250398983755376 0 -0.0039347297513189433 0.0016783710063513883 0 -0.0039814776600030476 0.0020429022031210786 0 -0.0039686632825182812 0.0019721008607407556 0 -0.0039123235944503974 0.0019228002771127719 0 -0.0038982672007389294 0.0019799162890817095 0 -0.0039678894045251942 0.0020896067766838413 0 -0.0039123235944503974 0.0019228002771127719 0 -0.0040243363487516871 0.0020566073720084967 0 -0.0040131646100867299 0.0020485307785498915 0 -0.004009023238138224 0.0020212532971288135 0 -0.0039839598992518852 0.0020844235074748522 0 -0.0039157873033976139 0.0019250246762202836 0 -0.0038829322452424157 0.0016250398983755376 0 -0.003867137313582362 0.0012729291866200182 0 -0.0040243363487516871 0.0020566073720084967 0 -0.004009023238138224 0.0020212532971288135 0 -0.0040512001992824729 0.0019754393872222034 0 -0.0038387994731515305 0.0013836420993143335 0 -0.0038192339604401736 0.0013709594041717398 0 -0.00382796462544164 0.0012958905080171109 0 -0.0040131646100867299 0.0020485307785498915 0 -0.004009023238138224 0.0020212532971288135 0 -0.0039814776600030476 0.0020429022031210786 0 -0.0038982672007389294 0.0019799162890817095 0 -0.0039243333098594908 0.0020776512656052225 0 -0.0039678894045251942 0.0020896067766838413 0 -0.004009023238138224 0.0020212532971288135 0 -0.0039814776600030476 0.0020429022031210786 0 -0.0039686632825182812 0.0019721008607407556 0 -0.004009023238138224 0.0020212532971288135 0 -0.0039686632825182812 0.0019721008607407556 0 -0.0040512001992824729 0.0019754393872222034 0 -0.0039686632825182812 0.0019721008607407556 0 -0.0040512001992824729 0.0019754393872222034 0 -0.0039682031349675007 0.0019191325567653168 0 -0.0037810494341784825 0.0012450610533737696 0 -0.0038141530576823353 0.00095004510674387443 0 -0.0038547041093739309 0.0013139424231939161 0 -0.003867137313582362 0.0012729291866200182 0 -0.0039519317762426948 0.001570583416578969 0 -0.0040512001992824729 0.0019754393872222034 0 -0.0039848564312933675 0.0018610773502766372 0 -0.0040465547723734507 0.0017625809069879564 0 -0.0040512001992824729 0.0019754393872222034 0 -0.0039682031349675007 0.0019191325567653168 0 -0.0039848564312933675 0.0018610773502766372 0 -0.0039686632825182812 0.0019721008607407556 0 -0.0039682031349675007 0.0019191325567653168 0 -0.0039456134432771083 0.0019155391093835881 0 -0.0039686632825182812 0.0019721008607407556 0 -0.0039456134432771083 0.0019155391093835881 0 -0.0039123235944503974 0.0019228002771127719 0 -0.0039682031349675007 0.0019191325567653168 0 -0.0039456134432771083 0.0019155391093835881 0 -0.003960654082357809 0.0018898783561456635 0 -0.0039456134432771083 0.0019155391093835881 0 -0.0039372363471088532 0.0018754854723698415 0 -0.0039123235944503974 0.0019228002771127719 0 -0.0039456134432771083 0.0019155391093835881 0 -0.0039372363471088532 0.0018754854723698415 0 -0.003960654082357809 0.0018898783561456635 0 -0.0039682031349675007 0.0019191325567653168 0 -0.0039848564312933675 0.0018610773502766372 0 -0.003960654082357809 0.0018898783561456635 0 -0.0039372363471088532 0.0018754854723698415 0 -0.0039848564312933675 0.0018610773502766372 0 -0.003960654082357809 0.0018898783561456635 0 -0.0039372363471088532 0.0018754854723698415 0 -0.0039848564312933675 0.0018610773502766372 0 -0.003939025510160522 0.0018188250062116309 0 -0.0039848564312933675 0.0018610773502766372 0 -0.003939025510160522 0.0018188250062116309 0 -0.0039826900139374004 0.0017946889749424638 0 -0.0039372363471088532 0.0018754854723698415 0 -0.003939025510160522 0.0018188250062116309 0 -0.0038934587450724059 0.0018612240185838398 0 -0.003939025510160522 0.0018188250062116309 0 -0.003945107472840801 0.0017402493958200435 0 -0.0038761489236228243 0.0017765787774166363 0 -0.003939025510160522 0.0018188250062116309 0 -0.0039826900139374004 0.0017946889749424638 0 -0.003945107472840801 0.0017402493958200435 0 -0.0039826900139374004 0.0017946889749424638 0 -0.0040465547723734507 0.0017625809069879564 0 -0.003945107472840801 0.0017402493958200435 0 -0.0039848564312933675 0.0018610773502766372 0 -0.0039826900139374004 0.0017946889749424638 0 -0.0040465547723734507 0.0017625809069879564 0 -0.0040465547723734507 0.0017625809069879564 0 -0.0039338451160361764 0.0016271407521167469 0 -0.0039149440252161417 0.0014791840470183243 0 -0.0038547041093739309 0.0013139424231939161 0 -0.0038818833918135968 0.0014455843519331189 0 -0.0039149440252161417 0.0014791840470183243 0 -0.0037396553010105664 0.001334801497288985 0 -0.0038547041093739309 0.0013139424231939161 0 -0.0038818833918135968 0.0014455843519331189 0 -0.0040465547723734507 0.0017625809069879564 0 -0.0039338451160361764 0.0016271407521167469 0 -0.003945107472840801 0.0017402493958200435 0 -0.0039519317762426948 0.001570583416578969 0 -0.0039233365401016912 0.0014827127757545552 0 -0.0038921931752163561 0.0015525463746934559 0 -0.0039338451160361764 0.0016271407521167469 0 -0.0039149440252161417 0.0014791840470183243 0 -0.0038921931752163561 0.0015525463746934559 0 -0.0038765233767265456 0.0015989659623594917 0 -0.0038463885825159891 0.0015147332418247604 0 -0.0038921931752163561 0.0015525463746934559 0 -0.0039338451160361764 0.0016271407521167469 0 -0.0038765233767265456 0.0015989659623594917 0 -0.0039338451160361764 0.0016271407521167469 0 -0.0038765233767265456 0.0015989659623594917 0 -0.0038910908674012292 0.0016755747610288048 0 -0.0039338451160361764 0.0016271407521167469 0 -0.0038910908674012292 0.0016755747610288048 0 -0.003945107472840801 0.0017402493958200435 0 -0.0038910908674012292 0.0016755747610288048 0 -0.003945107472840801 0.0017402493958200435 0 -0.0038761489236228243 0.0017765787774166363 0 -0.0038021569013430632 0.001732838488625162 0 -0.003823318115859608 0.0016425935887785055 0 -0.0038761489236228243 0.0017765787774166363 0 -0.0038910908674012292 0.0016755747610288048 0 -0.003823318115859608 0.0016425935887785055 0 -0.0038761489236228243 0.0017765787774166363 0 -0.0038765233767265456 0.0015989659623594917 0 -0.0038910908674012292 0.0016755747610288048 0 -0.003823318115859608 0.0016425935887785055 0 -0.003823318115859608 0.0016425935887785055 0 -0.0037460216989466662 0.0015380873351195363 0 -0.0038463885825159891 0.0015147332418247604 0 -0.0038765233767265456 0.0015989659623594917 0 -0.003823318115859608 0.0016425935887785055 0 -0.0038463885825159891 0.0015147332418247604 0 -0.003823318115859608 0.0016425935887785055 0 -0.0037460216989466662 0.0015380873351195363 0 -0.0037087582528060768 0.0016698745585240311 0 -0.0038021569013430632 0.001732838488625162 0 -0.0037087582528060768 0.0016698745585240311 0 -0.0037121090639300317 0.0018186205218701495 0 -0.0038021569013430632 0.001732838488625162 0 -0.003823318115859608 0.0016425935887785055 0 -0.0037087582528060768 0.0016698745585240311 0 -0.0037121090639300317 0.0018186205218701495 0 -0.00383356322797289 0.0018221612969661718 0 -0.0038738159792462601 0.0019283707773618275 0 -0.0038021569013430632 0.001732838488625162 0 -0.0037121090639300317 0.0018186205218701495 0 -0.00383356322797289 0.0018221612969661718 0 -0.0038021569013430632 0.001732838488625162 0 -0.0038761489236228243 0.0017765787774166363 0 -0.00383356322797289 0.0018221612969661718 0 -0.0038761489236228243 0.0017765787774166363 0 -0.0038934587450724059 0.0018612240185838398 0 -0.00383356322797289 0.0018221612969661718 0 -0.003939025510160522 0.0018188250062116309 0 -0.0038761489236228243 0.0017765787774166363 0 -0.0038934587450724059 0.0018612240185838398 0 -0.0038934587450724059 0.0018612240185838398 0 -0.00383356322797289 0.0018221612969661718 0 -0.0038738159792462601 0.0019283707773618275 0 -0.0039372363471088532 0.0018754854723698415 0 -0.0038934587450724059 0.0018612240185838398 0 -0.0039123235944503974 0.0019228002771127719 0 -0.0038934587450724059 0.0018612240185838398 0 -0.0038738159792462601 0.0019283707773618275 0 -0.0039123235944503974 0.0019228002771127719 0 -0.0038982672007389294 0.0019799162890817095 0 -0.0039123235944503974 0.0019228002771127719 0 -0.0038866707695206387 0.0019523840390935545 0 -0.0038738159792462601 0.0019283707773618275 0 -0.0039123235944503974 0.0019228002771127719 0 -0.0038866707695206387 0.0019523840390935545 0 -0.0038733232064217466 0.0019749238840989784 0 -0.0038738159792462601 0.0019283707773618275 0 -0.0038866707695206387 0.0019523840390935545 0 -0.0038393036010498788 0.0020025722540974395 0 -0.0038733232064217466 0.0019749238840989784 0 -0.0038738159792462601 0.0019283707773618275 0 -0.0038061259992076316 0.0019274993687737353 0 -0.0037430783772781787 0.0020152256191919697 0 -0.0037121090639300317 0.0018186205218701495 0 -0.0038738159792462601 0.0019283707773618275 0 -0.0034259266325238017 0.0019644268871969045 0 -0.0037121090639300317 0.0018186205218701495 0 -0.0036146323756198941 0.001769209809411601 0 -0.0034259266325238017 0.0019644268871969045 0 -0.0038393036010498788 0.0020025722540974395 0 -0.0038738159792462601 0.0019283707773618275 0 -0.0037741321788852841 0.0020080959393009561 0 -0.0034903245421403577 0.0017699887384275874 0 -0.0036146323756198941 0.001769209809411601 0 -0.0034259266325238017 0.0019644268871969045 0 -0.0037087582528060768 0.0016698745585240311 0 -0.0037121090639300317 0.0018186205218701495 0 -0.0036146323756198941 0.001769209809411601 0 -0.0037087582528060768 0.0016698745585240311 0 -0.0036146323756198941 0.001769209809411601 0 -0.0035485395917422701 0.0015330028749820082 0 -0.0034903245421403577 0.0017699887384275874 0 -0.0036146323756198941 0.001769209809411601 0 -0.0035485395917422701 0.0015330028749820082 0 -0.0037460216989466662 0.0015380873351195363 0 -0.0037087582528060768 0.0016698745585240311 0 -0.0035485395917422701 0.0015330028749820082 0 -0.0036802350636413799 0.0014153000739463124 0 -0.0036280017956861264 0.001482318446073657 0 -0.003599368417847216 0.0013709389801410657 0 -0.0036092911086418157 0.0015931190945263599 0 -0.0036210822028104623 0.0013481698576991814 0 -0.0034903245421403577 0.0017699887384275874 0 -0.0035485395917422701 0.0015330028749820082 0 -0.0033744878095374104 0.0017352905695829023 0 -0.0036015087475410636 0.0014278133699490362 0 -0.0036702036021566188 0.0014852208966069545 0 -0.0036428442312646586 0.0013739767935820961 0 -0.0036053556717979972 0.0014857812777743585 0 -0.0036092911086418157 0.0015931190945263599 0 -0.0036735565848134287 0.0018074051350257842 0 -0.0037168274724775634 0.001750825087907049 0 -0.003730489006735567 0.0018010574393830842 0 -0.0037696792518722389 0.0017808757655155328 0 -0.0036092911086418157 0.0015931190945263599 0 -0.0036092911086418157 0.0015931190945263599 0 -0.0037430783772781787 0.0020152256191919697 0 -0.0034903245421403577 0.0017699887384275874 0 -0.0033744878095374104 0.0017352905695829023 0 -0.0034259266325238017 0.0019644268871969045 0 -0.0036608443914962065 0.0012891117735879603 0 -0.003599368417847216 0.0013709389801410657 0 -0.003660548810952569 0.0013593684502912343 0 -0.0035770489537620422 0.0012384855863274997 0 -0.0036608443914962065 0.0012891117735879603 0 -0.003599368417847216 0.0013709389801410657 0 -0.0036802350636413799 0.0014153000739463124 0 -0.003599368417847216 0.0013709389801410657 0 -0.003660548810952569 0.0013593684502912343 0 -0.0036802350636413799 0.0014153000739463124 0 -0.003660548810952569 0.0013593684502912343 0 -0.0037230253647708585 0.0013635190954653235 0 -0.0037460216989466662 0.0015380873351195363 0 -0.0035485395917422701 0.0015330028749820082 0 -0.0037230253647708585 0.0013635190954653235 0 -0.0036053556717979972 0.0014857812777743585 0 -0.003711252730312769 0.0013703574308240993 0 -0.0036608443914962065 0.0012891117735879603 0 -0.003660548810952569 0.0013593684502912343 0 -0.0037230253647708585 0.0013635190954653235 0 -0.0036608443914962065 0.0012891117735879603 0 -0.0037556265524934253 0.0012697565532116847 0 -0.0037230253647708585 0.0013635190954653235 0 -0.0037556265524934253 0.0012697565532116847 0 -0.0037230253647708585 0.0013635190954653235 0 -0.0038327851030532292 0.0012975243753880646 0 -0.0037230253647708585 0.0013635190954653235 0 -0.0038411988437809853 0.0013990513435976179 0 -0.0038327851030532292 0.0012975243753880646 0 -0.0037230253647708585 0.0013635190954653235 0 -0.0037898926592214101 0.001451409913136272 0 -0.0038411988437809853 0.0013990513435976179 0 -0.0037460216989466662 0.0015380873351195363 0 -0.0037230253647708585 0.0013635190954653235 0 -0.0037898926592214101 0.001451409913136272 0 -0.0037460216989466662 0.0015380873351195363 0 -0.0037898926592214101 0.001451409913136272 0 -0.0038463885825159891 0.0015147332418247604 0 -0.0037898926592214101 0.001451409913136272 0 -0.0038463885825159891 0.0015147332418247604 0 -0.0038411988437809853 0.0013990513435976179 0 -0.0038921931752163561 0.0015525463746934559 0 -0.0038463885825159891 0.0015147332418247604 0 -0.0039149440252161417 0.0014791840470183243 0 -0.0038463885825159891 0.0015147332418247604 0 -0.0038411988437809853 0.0013990513435976179 0 -0.0039149440252161417 0.0014791840470183243 0 -0.0038818833918135968 0.0014455843519331189 0 -0.0039149440252161417 0.0014791840470183243 0 -0.0039159028915759777 0.0013983731695855998 0 -0.0039149440252161417 0.0014791840470183243 0 -0.0038955351168360052 0.00136564453393303 0 -0.0039159028915759777 0.0013983731695855998 0 -0.0038411988437809853 0.0013990513435976179 0 -0.0039149440252161417 0.0014791840470183243 0 -0.0038955351168360052 0.00136564453393303 0 -0.0038411988437809853 0.0013990513435976179 0 -0.0038955351168360052 0.00136564453393303 0 -0.0038327851030532292 0.0012975243753880646 0 -0.0038955351168360052 0.00136564453393303 0 -0.0038327851030532292 0.0012975243753880646 0 -0.0038923282321862139 0.0012954872651332367 0 -0.0038327851030532292 0.0012975243753880646 0 -0.0038645292272613666 0.001215504286487438 0 -0.0038923282321862139 0.0012954872651332367 0 -0.0038327851030532292 0.0012975243753880646 0 -0.0038645292272613666 0.001215504286487438 0 -0.0038017824543233338 0.0012150755564136258 0 -0.0038645292272613666 0.001215504286487438 0 -0.0038184766224435324 0.0011133997005485449 0 -0.0038017824543233338 0.0012150755564136258 0 -0.0038645292272613666 0.001215504286487438 0 -0.0038184766224435324 0.0011133997005485449 0 -0.0038668760536100018 0.0011502781203410228 0 -0.0038184766224435324 0.0011133997005485449 0 -0.0037342360815666195 0.0011865374405710238 0 -0.0037196134953457055 0.0010904833217204597 0 -0.0038184766224435324 0.0011133997005485449 0 -0.0038017824543233338 0.0012150755564136258 0 -0.0037342360815666195 0.0011865374405710238 0 -0.0037556265524934253 0.0012697565532116847 0 -0.0038017824543233338 0.0012150755564136258 0 -0.0037342360815666195 0.0011865374405710238 0 -0.0037556265524934253 0.0012697565532116847 0 -0.0038327851030532292 0.0012975243753880646 0 -0.0038017824543233338 0.0012150755564136258 0 -0.0036608443914962065 0.0012891117735879603 0 -0.0037342360815666195 0.0011865374405710238 0 -0.0036423613969688374 0.0011758184102401029 0 -0.0036608443914962065 0.0012891117735879603 0 -0.0037556265524934253 0.0012697565532116847 0 -0.0037342360815666195 0.0011865374405710238 0 -0.0037342360815666195 0.0011865374405710238 0 -0.0037196134953457055 0.0010904833217204597 0 -0.0036423613969688374 0.0011758184102401029 0 -0.0035376377132875876 0.0011562919643850153 0 -0.0036064937130306359 0.0010763978621825222 0 -0.0036423613969688374 0.0011758184102401029 0 -0.0037196134953457055 0.0010904833217204597 0 -0.0036064937130306359 0.0010763978621825222 0 -0.0036423613969688374 0.0011758184102401029 0 -0.0035770489537620422 0.0012384855863274997 0 -0.0036608443914962065 0.0012891117735879603 0 -0.0036423613969688374 0.0011758184102401029 0 -0.003979544870002006 0.001304671561216845 0 -0.0039590764668457961 0.001318668302284969 0 -0.0039620862516991278 0.0012591123414297154 0 -0.0039724913762335416 0.0013285344611584456 0 -0.003979544870002006 0.001304671561216845 0 -0.0039759435169790672 0.0013251596295055464 0 -0.0039724913762335416 0.0013285344611584456 0 -0.0039642896559710268 0.0013482729783592525 0 -0.0039590764668457961 0.001318668302284969 0 -0.0039724913762335416 0.0013285344611584456 0 -0.003979544870002006 0.001304671561216845 0 -0.0039590764668457961 0.001318668302284969 0 -0.003979544870002006 0.001304671561216845 0 -0.0039823088031994648 0.0013144772807034367 0 -0.0039759435169790672 0.0013251596295055464 0 -0.003979544870002006 0.001304671561216845 0 -0.0039823088031994648 0.0013144772807034367 0 -0.0039876054907337479 0.0012950190300874138 0 -0.0037700008377887883 0.0013437365601394872 0 -0.0037195562904581299 0.0013290444222591614 0 -0.0039823088031994648 0.0013144772807034367 0 -0.0039770029994794544 0.0013238754527351952 0 -0.0039879726703156634 0.0013112381179618028 0 -0.0039823088031994648 0.0013144772807034367 0 -0.0039752915300602584 0.0013236185714375814 0 -0.0039759435169790672 0.0013251596295055464 0 -0.0039823088031994648 0.0013144772807034367 0 -0.0039770029994794544 0.0013238754527351952 0 -0.0039752915300602584 0.0013236185714375814 0 -0.0039752915300602584 0.0013236185714375814 0 -0.0039759435169790672 0.0013251596295055464 0 -0.0039623450304721169 0.0013286620486299065 0 -0.0039770029994794544 0.0013238754527351952 0 -0.0039752915300602584 0.0013236185714375814 0 -0.0039623450304721169 0.0013286620486299065 0 -0.003967451240001656 0.0013324382997879948 0 -0.0039623450304721169 0.0013286620486299065 0 -0.0039419728334914549 0.0013224419545287088 0 -0.0039724913762335416 0.0013285344611584456 0 -0.0039759435169790672 0.0013251596295055464 0 -0.003967451240001656 0.0013324382997879948 0 -0.0039759435169790672 0.0013251596295055464 0 -0.003967451240001656 0.0013324382997879948 0 -0.0039623450304721169 0.0013286620486299065 0 -0.0039724913762335416 0.0013285344611584456 0 -0.003967451240001656 0.0013324382997879948 0 -0.0039642896559710268 0.0013482729783592525 0 -0.0039653379167963266 0.0013462622709744197 0 -0.003967451240001656 0.0013324382997879948 0 -0.0039642896559710268 0.0013482729783592525 0 -0.0039419595851141655 0.0013937992086060344 0 -0.0039441254643263843 0.0013600027372759936 0 -0.0039159028915759777 0.0013983731695855998 0 -0.0039419595851141655 0.0013937992086060344 0 -0.0039642896559710268 0.0013482729783592525 0 -0.0039441254643263843 0.0013600027372759936 0 -0.0039642896559710268 0.0013482729783592525 0 -0.0039441254643263843 0.0013600027372759936 0 -0.0039590764668457961 0.001318668302284969 0 -0.0039441254643263843 0.0013600027372759936 0 -0.0039159028915759777 0.0013983731695855998 0 -0.0039257546793871985 0.0013295622997182605 0 -0.0038955351168360052 0.00136564453393303 0 -0.0039159028915759777 0.0013983731695855998 0 -0.0039257546793871985 0.0013295622997182605 0 -0.0038955351168360052 0.00136564453393303 0 -0.0039257546793871985 0.0013295622997182605 0 -0.0038923282321862139 0.0012954872651332367 0 -0.0039257546793871985 0.0013295622997182605 0 -0.0038923282321862139 0.0012954872651332367 0 -0.0039249495629216247 0.0012658212284927658 0 -0.0039257546793871985 0.0013295622997182605 0 -0.0039590764668457961 0.001318668302284969 0 -0.0039249495629216247 0.0012658212284927658 0 -0.0039441254643263843 0.0013600027372759936 0 -0.0039257546793871985 0.0013295622997182605 0 -0.0039590764668457961 0.001318668302284969 0 -0.0039249495629216247 0.0012658212284927658 0 -0.0039145015712397308 0.0011851063528084704 0 -0.0039620862516991278 0.0012591123414297154 0 -0.0039590764668457961 0.001318668302284969 0 -0.0039249495629216247 0.0012658212284927658 0 -0.0039620862516991278 0.0012591123414297154 0 -0.0038645292272613666 0.001215504286487438 0 -0.0038923282321862139 0.0012954872651332367 0 -0.0039249495629216247 0.0012658212284927658 0 -0.0038645292272613666 0.001215504286487438 0 -0.0039249495629216247 0.0012658212284927658 0 -0.0039145015712397308 0.0011851063528084704 0 -0.0038645292272613666 0.001215504286487438 0 -0.0038668760536100018 0.0011502781203410228 0 -0.0039145015712397308 0.0011851063528084704 0 -0.0038668760536100018 0.0011502781203410228 0 -0.0039145015712397308 0.0011851063528084704 0 -0.003870544649107085 0.0010901430953405111 0 -0.0039145015712397308 0.0011851063528084704 0 -0.0039821793360291392 0.0011826579311977057 0 -0.0039331280577353141 0.0011256791949240874 0 -0.0039145015712397308 0.0011851063528084704 0 -0.0039821793360291392 0.0011826579311977057 0 -0.0039620862516991278 0.0012591123414297154 0 -0.0039821793360291392 0.0011826579311977057 0 -0.0040281517177721887 0.0011671413464154339 0 -0.0040080654539129349 0.0011301543345321628 0 -0.0039821793360291392 0.0011826579311977057 0 -0.0040325993966843282 0.0012311652132228363 0 -0.0040281517177721887 0.0011671413464154339 0 -0.0039740511019766131 0.0011844717578387591 0 -0.0040329812769539387 0.0012650023498190156 0 -0.0039821793360291392 0.0011826579311977057 0 -0.0039620862516991278 0.0012591123414297154 0 -0.0039819487822186908 0.0012740450698880545 0 -0.0039821793360291392 0.0011826579311977057 0 -0.0039819487822186908 0.0012740450698880545 0 -0.0040007605914107016 0.0012560407730642636 0 -0.0039819487822186908 0.0012740450698880545 0 -0.0039876054907337479 0.0012950190300874138 0 -0.0040007605914107016 0.0012560407730642636 0 -0.003979544870002006 0.001304671561216845 0 -0.0039819487822186908 0.0012740450698880545 0 -0.0039876054907337479 0.0012950190300874138 0 -0.003979544870002006 0.001304671561216845 0 -0.0039620862516991278 0.0012591123414297154 0 -0.0039819487822186908 0.0012740450698880545 0 -0.0040728375990797122 0.0012712911808643358 0 -0.0040589499362115424 0.0012270862426254092 0 -0.0040622614939890573 0.0012140403785700173 0 -0.0025838570028250706 0.0015094009260936412 0 -0.0026004000182861592 0.001581211745206043 0 -0.0025452174965412658 0.0015350171382963217 0 -0.0037195562904581299 0.0013290444222591614 0 -0.0034671308558106087 0.0013603547924657495 0 -0.0039823088031994648 0.0013144772807034367 0 -0.0039879726703156634 0.0013112381179618028 0 -0.0039876054907337479 0.0012950190300874138 0 -0.0039879726703156634 0.0013112381179618028 0 -0.0039876054907337479 0.0012950190300874138 0 -0.0040007605914107016 0.0012560407730642636 0 -0.0037195562904581299 0.0013290444222591614 0 -0.0040329812769539387 0.0012650023498190156 0 -0.0040325993966843282 0.0012311652132228363 0 -0.0040589499362115424 0.0012270862426254092 0 -0.0040658072365551282 0.0012117227265149313 0 -0.0040728375990797122 0.0012712911808643358 0 -0.0040325993966843282 0.0012311652132228363 0 -0.0040589499362115424 0.0012270862426254092 0 -0.0033428937922738268 0.0013999091923593446 0 -0.0033711530879187001 0.0012956163403152106 0 -0.003326968629034476 0.0011792204727306597 0 -0.0040658072365551282 0.0012117227265149313 0 -0.0040281517177721887 0.0011671413464154339 0 -0.004047479081916109 0.0010788518696185452 0 -0.0026004000182861592 0.001581211745206043 0 -0.0025864142098824291 0.0016296053909241365 0 -0.0025452174965412658 0.0015350171382963217 0 -0.0035742013301317001 0.0012567732579107384 0 -0.0034671308558106087 0.0013603547924657495 0 -0.0040325993966843282 0.0012311652132228363 0 -0.0040658072365551282 0.0012117227265149313 0 -0.0040281517177721887 0.0011671413464154339 0 -0.0034671308558106087 0.0013603547924657495 0 -0.0025159134824473827 0.0015634833409739711 0 -0.00050752126732171005 0.0020347726102363656 0 -0.00045109340553159443 0.0020046104828077343 0 -0.000548384139643834 0.0019268852300853444 0 -0.000575915809533988 0.0020452917563323972 0 -0.00050752126732171005 0.0020347726102363656 0 -0.000548384139643834 0.0019268852300853444 0 -0.0025159134824473827 0.0015634833409739711 0 -0.0013758569574792907 0.0017126716725396525 0 -0.00050752126732171005 0.0020347726102363656 0 -0.00045109340553159443 0.0020046104828077343 0 -0.00044069337116313753 0.0020687025261455811 0 -0.00039896401598138079 0.0020399258709499607 0 -0.00045109340553159443 0.0020046104828077343 0 -0.00044069337116313753 0.0020687025261455811 0 -0.00039896401598138079 0.0020399258709499607 0 -0.00045109340553159443 0.0020046104828077343 0 -0.00038511194836805904 0.0019972465516750592 0 -0.00045109340553159443 0.0020046104828077343 0 -0.00041235270202635529 0.0019330861908626493 0 -0.00038511194836805904 0.0019972465516750592 0 -0.00041235270202635529 0.0019330861908626493 0 -0.000548384139643834 0.0019268852300853444 0 -0.00046906778802540522 0.0018656000245478254 0 -0.00045109340553159443 0.0020046104828077343 0 -0.00041235270202635529 0.0019330861908626493 0 -0.000548384139643834 0.0019268852300853444 0 -0.00019658270995316529 0.0020549288209512017 0 -0.00024401274629486135 0.0020189172636108392 0 -0.00014509236370298617 0.0020445854635095973 0 -0.00024401274629486135 0.0020189172636108392 0 -0.00018421087048220571 0.0019604875690441845 0 -0.00014509236370298617 0.0020445854635095973 0 -0.00019658270995316529 0.0020549288209512017 0 -0.00024401274629486135 0.0020189172636108392 0 -0.00023773189202377302 0.002079764730877902 0 -0.00019658270995316529 0.0020549288209512017 0 -0.00016301826277286905 0.0020754921120618827 0 -0.00023773189202377302 0.002079764730877902 0 -0.00024401274629486135 0.0020189172636108392 0 -0.00029404557206713037 0.0020690727130357896 0 -0.00023773189202377302 0.002079764730877902 0 -0.00024401274629486135 0.0020189172636108392 0 -0.000334407916535388 0.0020343676810556021 0 -0.0003249178819208896 0.0019690796030500668 0 -0.00029404557206713037 0.0020690727130357896 0 -0.000334407916535388 0.0020343676810556021 0 -0.00036351518191861832 0.0020858517828479884 0 -0.00024401274629486135 0.0020189172636108392 0 -0.00029404557206713037 0.0020690727130357896 0 -0.000334407916535388 0.0020343676810556021 0 -0.00039896401598138079 0.0020399258709499607 0 -0.000334407916535388 0.0020343676810556021 0 -0.00036351518191861832 0.0020858517828479884 0 -0.000334407916535388 0.0020343676810556021 0 -0.00038511194836805904 0.0019972465516750592 0 -0.0003249178819208896 0.0019690796030500668 0 -0.00039896401598138079 0.0020399258709499607 0 -0.000334407916535388 0.0020343676810556021 0 -0.00038511194836805904 0.0019972465516750592 0 -0.00041235270202635529 0.0019330861908626493 0 -0.00038511194836805904 0.0019972465516750592 0 -0.0003249178819208896 0.0019690796030500668 0 -0.00041235270202635529 0.0019330861908626493 0 -0.0003209192265549267 0.0018872618290699536 0 -0.0003249178819208896 0.0019690796030500668 0 -0.0003209192265549267 0.0018872618290699536 0 -0.0003249178819208896 0.0019690796030500668 0 -0.00025789988041899852 0.0019449699679543486 0 -0.00024401274629486135 0.0020189172636108392 0 -0.0003249178819208896 0.0019690796030500668 0 -0.00025789988041899852 0.0019449699679543486 0 -0.00024401274629486135 0.0020189172636108392 0 -0.00025789988041899852 0.0019449699679543486 0 -0.00018421087048220571 0.0019604875690441845 0 -0.0003209192265549267 0.0018872618290699536 0 -0.00025789988041899852 0.0019449699679543486 0 -0.00021887866236332618 0.0018717677577726616 0 -0.00025789988041899852 0.0019449699679543486 0 -0.00018421087048220571 0.0019604875690441845 0 -0.00021887866236332618 0.0018717677577726616 0 -0.00013321966377709542 0.001899930357290038 0 -0.00018421087048220571 0.0019604875690441845 0 -9.5421824224853265e-05 0.0019407443928972335 0 -0.00013321966377709542 0.001899930357290038 0 -0.00018421087048220571 0.0019604875690441845 0 -0.00021887866236332618 0.0018717677577726616 0 -0.00021384762800817571 0.0017974721065729625 0 -0.0001909501589802796 0.0017234529654736445 0 -0.00011590828245141989 0.0018395169054019978 0 -0.00021384762800817571 0.0017974721065729625 0 -0.00021887866236332618 0.0018717677577726616 0 -0.00011590828245141989 0.0018395169054019978 0 -0.00013321966377709542 0.001899930357290038 0 -0.00021887866236332618 0.0018717677577726616 0 -0.00011590828245141989 0.0018395169054019978 0 -0.00021384762800817571 0.0017974721065729625 0 -0.00021887866236332618 0.0018717677577726616 0 -0.0003048134240419826 0.0017741499284493918 0 -0.00041235270202635529 0.0019330861908626493 0 -0.0003209192265549267 0.0018872618290699536 0 -0.00039224190884964543 0.0018175967145260914 0 -0.0003209192265549267 0.0018872618290699536 0 -0.0003048134240419826 0.0017741499284493918 0 -0.00039224190884964543 0.0018175967145260914 0 -0.0003209192265549267 0.0018872618290699536 0 -0.00021887866236332618 0.0018717677577726616 0 -0.0003048134240419826 0.0017741499284493918 0 -0.00030652783884721789 0.0016724905157682161 0 -0.00043294393501789881 0.0016697815208438116 0 -0.00032322900527739741 0.0015983204169339096 0 -0.0003048134240419826 0.0017741499284493918 0 -0.00030652783884721789 0.0016724905157682161 0 -0.00043294393501789881 0.0016697815208438116 0 -0.0003048134240419826 0.0017741499284493918 0 -0.00039224190884964543 0.0018175967145260914 0 -0.00043294393501789881 0.0016697815208438116 0 -0.00021384762800817571 0.0017974721065729625 0 -0.0003048134240419826 0.0017741499284493918 0 -0.0001909501589802796 0.0017234529654736445 0 -0.0003048134240419826 0.0017741499284493918 0 -0.00030652783884721789 0.0016724905157682161 0 -0.0001909501589802796 0.0017234529654736445 0 -0.00030652783884721789 0.0016724905157682161 0 -0.0001909501589802796 0.0017234529654736445 0 -0.00021761848175430863 0.0016162402268286515 0 -0.0013758569574792907 0.0017126716725396525 0 -0.0022690175648625759 0.001622442784183405 0 -0.0039770029994794544 0.0013238754527351952 0 -0.0039817326141635984 0.0013249758659861493 0 -0.0039305693287324276 0.0013368587912284122 0 -0.0037195562904581299 0.0013290444222591614 0 -0.0022690175648625759 0.001622442784183405 0 -0.0025838570028250706 0.0015094009260936412 0 -0.0025452174965412658 0.0015350171382963217 0 -0.0025015740939379311 0.001439206577121407 0 -0.0039770029994794544 0.0013238754527351952 0 -0.0039305693287324276 0.0013368587912284122 0 -0.0039623450304721169 0.0013286620486299065 0 -0.000548384139643834 0.0019268852300853444 0 -0.00051863072001499301 0.0017809877962872409 0 -0.00046906778802540522 0.0018656000245478254 0 -0.00041235270202635529 0.0019330861908626493 0 -0.00039224190884964543 0.0018175967145260914 0 -0.00046906778802540522 0.0018656000245478254 0 -0.00039224190884964543 0.0018175967145260914 0 -0.00051863072001499301 0.0017809877962872409 0 -0.00046906778802540522 0.0018656000245478254 0 -0.00039224190884964543 0.0018175967145260914 0 -0.00051863072001499301 0.0017809877962872409 0 -0.00043294393501789881 0.0016697815208438116 0 -0.0039305693287324276 0.0013368587912284122 0 -0.0039419728334914549 0.0013224419545287088 0 -0.003883936513419227 0.0012967284636552123 0 -0.0022690175648625759 0.001622442784183405 0 -0.0020762085755161967 0.0013419455147147088 0 -0.0022690175648625759 0.001622442784183405 0 -0.00083836395516106988 0.0015558513481079346 0 -0.0018647245202081152 0.0019347837853620794 0 -0.0014547688424091493 0.0015448861563654478 0 -0.0015607248354565372 0.0011887941505889946 0 -0.003967451240001656 0.0013324382997879948 0 -0.0039419728334914549 0.0013224419545287088 0 -0.0039451023495782611 0.001308321868985202 0 -0.0039305693287324276 0.0013368587912284122 0 -0.0039623450304721169 0.0013286620486299065 0 -0.0039419728334914549 0.0013224419545287088 0 -0.0030396260370136609 0.0014980088835159157 0 -0.0020762085755161967 0.0013419455147147088 0 -0.0039419728334914549 0.0013224419545287088 0 -0.0039451023495782611 0.001308321868985202 0 -0.003883936513419227 0.0012967284636552123 0 -0.0019386385024489643 0.0016580805522593588 0 -0.0014708312634520257 0.0013107452814916138 0 -0.0012319418952912399 0.0016295173112355335 0 -0.0021193611410340652 0.0013190904238861534 0 -0.0019386385024489643 0.0016580805522593588 0 -0.0014708312634520257 0.0013107452814916138 0 -0.0021193611410340652 0.0013190904238861534 0 -0.0017950817659477135 0.0009683614692872905 0 -0.0014708312634520257 0.0013107452814916138 0 -0.0017950817659477135 0.0009683614692872905 0 -0.0014708312634520257 0.0013107452814916138 0 -0.0013412353457392418 0.00093738808508005351 0 -0.0011644025017498005 0.0010979100781913565 0 -0.00095002051547999321 0.0011417658263078042 0 -0.00099413848759998869 0.0008489591920500223 0 -0.0011644025017498005 0.0010979100781913565 0 -0.0010637150875219146 0.001256079420605756 0 -0.00095002051547999321 0.0011417658263078042 0 -0.0011644025017498005 0.0010979100781913565 0 -0.0014708312634520257 0.0013107452814916138 0 -0.0013412353457392418 0.00093738808508005351 0 -0.0014708312634520257 0.0013107452814916138 0 -0.0010637150875219146 0.001256079420605756 0 -0.0012319418952912399 0.0016295173112355335 0 -0.0010637150875219146 0.001256079420605756 0 -0.0012198203598836237 0.0016464176642265688 0 -0.0009143840391756114 0.0013318955442260939 0 -0.0012430528391874087 0.0012494041266992422 0 -0.0020762085755161967 0.0013419455147147088 0 -0.0011644025017498005 0.0010979100781913565 0 -0.0014708312634520257 0.0013107452814916138 0 -0.0010637150875219146 0.001256079420605756 0 -0.0014547688424091493 0.0015448861563654478 0 -0.0015607248354565372 0.0011887941505889946 0 -0.0010441722797875478 0.001154152912341962 0 -0.00083836395516106988 0.0015558513481079346 0 -0.00063594232498539224 0.0013937805921664418 0 -0.00043294393501789881 0.0016697815208438116 0 -0.00035692221449586293 0.0015561989232195576 0 -0.00032322900527739741 0.0015983204169339096 0 -0.0012198203598836237 0.0016464176642265688 0 -0.00064783184407407146 0.0015990744683600062 0 -0.00076772955994445374 0.0014352357714262865 0 -0.0020762085755161967 0.0013419455147147088 0 -0.00063594232498539224 0.0013937805921664418 0 -0.00064783184407407146 0.0015990744683600062 0 -0.00047206861353871513 0.0014366122446332389 0 -0.00061975509472591065 0.0014276058039096983 0 -0.00064783184407407146 0.0015990744683600062 0 -0.00076772955994445374 0.0014352357714262865 0 -0.00061975509472591065 0.0014276058039096983 0 -0.0012198203598836237 0.0016464176642265688 0 -0.0009143840391756114 0.0013318955442260939 0 -0.00076772955994445374 0.0014352357714262865 0 -0.00030652783884721789 0.0016724905157682161 0 -0.00021761848175430863 0.0016162402268286515 0 -0.00032322900527739741 0.0015983204169339096 0 -0.00021761848175430863 0.0016162402268286515 0 -0.00032322900527739741 0.0015983204169339096 0 -0.00034185429806605713 0.0015347088491953025 0 -0.00035692221449586293 0.0015561989232195576 0 -0.00032322900527739741 0.0015983204169339096 0 -0.00034185429806605713 0.0015347088491953025 0 -0.00064783184407407146 0.0015990744683600062 0 -0.00034185429806605713 0.0015347088491953025 0 -0.00047206861353871513 0.0014366122446332389 0 -0.00063594232498539224 0.0013937805921664418 0 -0.00040296144441498931 0.001464571324384745 0 -0.00034185429806605713 0.0015347088491953025 0 -0.00029235591003237368 0.0013780285362948869 0 -0.00047206861353871513 0.0014366122446332389 0 -0.00021761848175430863 0.0016162402268286515 0 -0.00034185429806605713 0.0015347088491953025 0 -0.00019423918788284976 0.0015060787683646251 0 -0.00034185429806605713 0.0015347088491953025 0 -0.00019423918788284976 0.0015060787683646251 0 -0.00029235591003237368 0.0013780285362948869 0 -0.00019423918788284976 0.0015060787683646251 0 -0.00029235591003237368 0.0013780285362948869 0 -5.4774965050731393e-05 0.0013743241104688824 0 -0.00029235591003237368 0.0013780285362948869 0 -0.00021941557028815482 0.0010762711939994089 0 -5.4774965050731393e-05 0.0013743241104688824 0 -0.00029235591003237368 0.0013780285362948869 0 -0.00047206861353871513 0.0014366122446332389 0 -0.00058793659814628983 0.0013016040256277239 0 -0.00029235591003237368 0.0013780285362948869 0 -0.00058793659814628983 0.0013016040256277239 0 -0.00021941557028815482 0.0010762711939994089 0 -0.00092091460120598658 0.0011555408396086129 0 -0.00021754430513400619 0.00097017629849652383 0 -0.00058793659814628983 0.0013016040256277239 0 -0.00095002051547999321 0.0011417658263078042 0 -0.00021941557028815482 0.0010762711939994089 0 -0.0009143840391756114 0.0013318955442260939 0 -0.00058793659814628983 0.0013016040256277239 0 -0.00095002051547999321 0.0011417658263078042 0 -0.0010637150875219146 0.001256079420605756 0 -0.0009143840391756114 0.0013318955442260939 0 -0.00095002051547999321 0.0011417658263078042 0 -0.0009143840391756114 0.0013318955442260939 0 -0.00076772955994445374 0.0014352357714262865 0 -0.00058793659814628983 0.0013016040256277239 0 -0.00076772955994445374 0.0014352357714262865 0 -0.00061975509472591065 0.0014276058039096983 0 -0.00058793659814628983 0.0013016040256277239 0 -0.00047206861353871513 0.0014366122446332389 0 -0.00061975509472591065 0.0014276058039096983 0 -0.00058793659814628983 0.0013016040256277239 0 -0.00099413848759998869 0.0008489591920500223 0 -0.00080065732905442734 0.00057006544687627613 0 -0.00021412588230120826 0.00094871407094422816 0 -0.00095002051547999321 0.0011417658263078042 0 -0.00099413848759998869 0.0008489591920500223 0 -0.00021412588230120826 0.00094871407094422816 0 -0.00099413848759998869 0.0008489591920500223 0 -0.00080065732905442734 0.00057006544687627613 0 -0.0011774323155644612 0.00063727782629385984 0 -0.00080065732905442734 0.00057006544687627613 0 -0.00021412588230120826 0.00094871407094422816 0 -0.00035548877006648307 0.00032028438569948109 0 -0.00031057939101909488 0.0018416734070009373 0 -0.00027731691561508961 0.0021168270082607935 0 -0.00094579045722592038 0.0020108312648720005 0 -0.00033299374273676046 0.0011341445555418273 0 -0.0010771757709849403 0.001123700682232159 0 -0.00080065732905442734 0.00057006544687627613 0 -0.00035548877006648307 0.00032028438569948109 0 -0.001232956119413366 0.00016023682258566093 0 -0.00080065732905442734 0.00057006544687627613 0 -0.001232956119413366 0.00016023682258566093 0 -0.0011774323155644612 0.00063727782629385984 0 -0.001232956119413366 0.00016023682258566093 0 -0.0011774323155644612 0.00063727782629385984 0 -0.0015256623346817375 0.00067264223611849801 0 -0.0020112919726159167 0.00057302623449713235 0 -0.001232956119413366 0.00016023682258566093 0 -0.0015256623346817375 0.00067264223611849801 0 -0.002116937918371468 4.046748322112625e-05 0 -0.0020112919726159167 0.00057302623449713235 0 -0.001232956119413366 0.00016023682258566093 0 -0.0019114399778014911 0.00080540167568013876 0 -0.0010771757709849403 0.001123700682232159 0 -0.0020112919726159167 0.00057302623449713235 0 -0.0017950817659477135 0.0009683614692872905 0 -0.0015256623346817375 0.00067264223611849801 0 -0.0017950817659477135 0.0009683614692872905 0 -0.0013412353457392418 0.00093738808508005351 0 -0.0015256623346817375 0.00067264223611849801 0 -0.0013412353457392418 0.00093738808508005351 0 -0.0011774323155644612 0.00063727782629385984 0 -0.0015256623346817375 0.00067264223611849801 0 -0.0011644025017498005 0.0010979100781913565 0 -0.00099413848759998869 0.0008489591920500223 0 -0.0013412353457392418 0.00093738808508005351 0 -0.00099413848759998869 0.0008489591920500223 0 -0.0013412353457392418 0.00093738808508005351 0 -0.0011774323155644612 0.00063727782629385984 0 0.00036491534236717801 0.0014320690536062926 0 0.00029661863992957467 0.0015301193610927277 0 0.00018962234184171725 0.0014792680520837407 0 0.00064636422757882966 0.0022192878169178271 0 0.00032624009051597578 0.0012083565841028647 0 0.00036491534236717801 0.0014320690536062926 0 0.00029661863992957467 0.0015301193610927277 0 0.00038800638639310597 0.0015121203199067498 0 0.00038800638639310597 0.0015121203199067498 0 0.00045525224486950554 0.0015128549916177967 0 0.00042148918306724283 0.0014386789734803661 0 0.00038800638639310597 0.0015121203199067498 0 0.00045525224486950554 0.0015128549916177967 0 0.00045561381277690053 0.0015685437569269195 0 0.00055959984071014227 0.0015325228886961305 0 0.00045525224486950554 0.0015128549916177967 0 0.00045561381277690053 0.0015685437569269195 0 0.00084212111177902596 0.0018931114914724023 0 0.0008703585684074871 0.0022483901557618395 0 0.00055959984071014227 0.0015325228886961305 0 0.00045525224486950554 0.0015128549916177967 0 0.00042148918306724283 0.0014386789734803661 0 0.0012552241649118692 0.0023894872033187625 0 0.0008703585684074871 0.0022483901557618395 0 0.0011700397053510643 0.0023238309267061795 0 0.0012119090349030288 0.0024663088551621138 0 0.001282574557618043 0.0024875537985741027 0 0.0011371335617778333 0.0026046461875221852 0 0.0012119090349030288 0.0024663088551621138 0 0.0013623777531668064 0.0024896049330799621 0 0.00036491534236717801 0.0014320690536062926 0 0.00038800638639310597 0.0015121203199067498 0 0.00042148918306724283 0.0014386789734803661 0 0.0008703585684074871 0.0022483901557618395 0 0.0009389748341528003 0.002513617975700537 0 0.00064636422757882966 0.0022192878169178271 0 0.0009389748341528003 0.002513617975700537 0 0.0007372195998836947 0.0022528366307017693 0 0.00094057129298678681 0.0022852265196036657 0 0.00086285195181149083 0.0022193656180764985 0 0.00064636422757882966 0.0022192878169178271 0 0.0008703585684074871 0.0022483901557618395 0 0.0010385157597692404 0.0027792317292990539 0 0.001012172873011084 0.0027575671238688473 0 0.00092274836294569307 0.0028102770008525055 0 0.0010385157597692404 0.0027792317292990539 0 0.0010502177657496527 0.0027314075708919686 0 0.001012172873011084 0.0027575671238688473 0 0.0010385157597692404 0.0027792317292990539 0 0.0010502177657496527 0.0027314075708919686 0 0.0010843254795720211 0.0026845693791369132 0 0.0011371335617778333 0.0026046461875221852 0 0.0013623777531668064 0.0024896049330799621 0 0.0014150291665042333 0.002535233919826812 0 0.0011371335617778333 0.0026046461875221852 0 0.0010985907351673354 0.0026573065051594116 0 0.0010843254795720211 0.0026845693791369132 0 0.0011371335617778333 0.0026046461875221852 0 0.0010385157597692404 0.0027792317292990539 0 0.0010843254795720211 0.0026845693791369132 0 0.0012009593033380373 0.0025955755160601353 0 0.0009389748341528003 0.002513617975700537 0 0.0010502177657496527 0.0027314075708919686 0 0.0010843254795720211 0.0026845693791369132 0 0.0010489884591306888 0.0027168454578333067 0 0.0010985907351673354 0.0026573065051594116 0 0.0010843254795720211 0.0026845693791369132 0 0.0010489884591306888 0.0027168454578333067 0 0.0010985907351673354 0.0026573065051594116 0 0.0010258441034714095 0.0027225312560515656 0 0.0010489884591306888 0.0027168454578333067 0 0.0010258441034714095 0.0027225312560515656 0 0.0010489884591306888 0.0027168454578333067 0 0.00098977228909804637 0.0027583117452477613 0 0.001012172873011084 0.0027575671238688473 0 0.0010489884591306888 0.0027168454578333067 0 0.00098977228909804637 0.0027583117452477613 0 0.0010502177657496527 0.0027314075708919686 0 0.001012172873011084 0.0027575671238688473 0 0.0010489884591306888 0.0027168454578333067 0 0.00094316484266539343 0.0027800315200927485 0 0.00098977228909804637 0.0027583117452477613 0 0.00092274836294569307 0.0028102770008525055 0 0.00074641793583648229 0.0028902412034306798 0 0.00073679140717609806 0.0028945885336864904 0 0.00073923896011322831 0.0028951495927936025 0 0.00075377468067442885 0.0029753824548699056 0 0.0009389748341528003 0.002513617975700537 0 0.00074641793583648229 0.0028902412034306798 0 0.0010385157597692404 0.0027792317292990539 0 0.00092274836294569307 0.0028102770008525055 0 0.00073814418565469272 0.0028931933963619008 0 0.00073923896011322831 0.0028951495927936025 0 0.00073537895962407732 0.0028971748736696676 0 0.00064636422757882966 0.0022192878169178271 0 0.00045310003371203735 0.0018965186594132393 0 0.00073814418565469272 0.0028931933963619008 0 0.00073679140717609806 0.0028945885336864904 0 0.00073923896011322831 0.0028951495927936025 0 0.001012172873011084 0.0027575671238688473 0 0.00098977228909804637 0.0027583117452477613 0 0.00092274836294569307 0.0028102770008525055 0 0.00074641793583648229 0.0028902412034306798 0 0.00073923896011322831 0.0028951495927936025 0 0.00073101920761065888 0.0029004788026639233 0 0.00036916161692580299 0.0027512756113440722 0 0.00045310003371203735 0.0018965186594132393 0 0.00070638673976686651 0.0029050819097256797 0 0.00073101920761065888 0.0029004788026639233 0 0.00073537895962407732 0.0028971748736696676 0 0.00073923896011322831 0.0028951495927936025 0 0.00073101920761065888 0.0029004788026639233 0 0.00073537895962407732 0.0028971748736696676 0 -0.00033299374273676046 0.0011341445555418273 0 0.00045310003371203735 0.0018965186594132393 0 -0.00031057939101909488 0.0018416734070009373 0 0.00032275821111943549 0.0018654247304967372 0 -0.00027731691561508961 0.0021168270082607935 0 0.00032275821111943549 0.0018654247304967372 0 -0.00027731691561508961 0.0021168270082607935 0 0.00037180342342376304 0.0022234314118723419 0 -0.00021754430513400619 0.00097017629849652383 0 0.00032624009051597578 0.0012083565841028647 0 -0.00021941557028815482 0.0010762711939994089 0 0.00019543723385515778 0.0010169434248503471 0 5.8127194749841932e-05 0.001220402670495966 0 -0.00021412588230120826 0.00094871407094422816 0 -0.00035548877006648307 0.00032028438569948109 0 0.00048815241295204018 0.00047570658670320219 0 -0.00021412588230120826 0.00094871407094422816 0 0.00048815241295204018 0.00047570658670320219 0 0.0005264642424932344 0.00076375195695901356 0 0.00057184731920428237 0.0018130954365191579 0 0.00040705046923197451 0.0017822434790986902 0 0.00041612104173482364 0.0018487678099575896 0 0.00045310003371203735 0.0018965186594132393 0 0.00032624009051597578 0.0012083565841028647 0 0.00029661863992957467 0.0015301193610927277 0 0.00018962234184171725 0.0014792680520837407 0 0.0002147637924938048 0.0016554927597967446 0 0.00022191927660096509 0.0014005837218620714 0 5.8127194749841932e-05 0.001220402670495966 0 -5.4774965050731393e-05 0.0013743241104688824 0 0.00019543723385515778 0.0010169434248503471 0 0.00022191927660096509 0.0014005837218620714 0 5.8127194749841932e-05 0.001220402670495966 0 0.00032624009051597578 0.0012083565841028647 0 0.00020300041740371901 0.0015345419278768972 0 -0.00021941557028815482 0.0010762711939994089 0 5.8127194749841932e-05 0.001220402670495966 0 -5.4774965050731393e-05 0.0013743241104688824 0 -0.00019423918788284976 0.0015060787683646251 0 -5.4774965050731393e-05 0.0013743241104688824 0 -4.3451968573374399e-05 0.0016210496059125463 0 0.00022191927660096509 0.0014005837218620714 0 -5.4774965050731393e-05 0.0013743241104688824 0 -4.3451968573374399e-05 0.0016210496059125463 0 -0.00021761848175430863 0.0016162402268286515 0 -0.00019423918788284976 0.0015060787683646251 0 -4.3451968573374399e-05 0.0016210496059125463 0 0.00020300041740371901 0.0015345419278768972 0 0.00022237366600373303 0.0017457326979180778 0 0.00022191927660096509 0.0014005837218620714 0 -4.3451968573374399e-05 0.0016210496059125463 0 0.00021458421571021033 0.0017666532080670035 0 0.0002147637924938048 0.0016554927597967446 0 0.00031729679414329648 0.0017159544000009406 0 0.00021458421571021033 0.0017666532080670035 0 0.0002147637924938048 0.0016554927597967446 0 0.00031729679414329648 0.0017159544000009406 0 0.00037162097713827055 0.0016108516569275865 0 0.00031729679414329648 0.0017159544000009406 0 0.00041652344966906725 0.0017828033995984653 0 0.00033691682824777601 0.0018133743792645867 0 0.00029661863992957467 0.0015301193610927277 0 0.0002147637924938048 0.0016554927597967446 0 0.00037162097713827055 0.0016108516569275865 0 0.00029661863992957467 0.0015301193610927277 0 0.00038800638639310597 0.0015121203199067498 0 0.00037162097713827055 0.0016108516569275865 0 0.00038800638639310597 0.0015121203199067498 0 0.00045561381277690053 0.0015685437569269195 0 0.00037162097713827055 0.0016108516569275865 0 0.00045561381277690053 0.0015685437569269195 0 0.00037162097713827055 0.0016108516569275865 0 0.00043531683384863613 0.0016944440682885296 0 0.00055542630359045597 0.0016820980248021271 0 0.00045561381277690053 0.0015685437569269195 0 0.00043531683384863613 0.0016944440682885296 0 0.00031729679414329648 0.0017159544000009406 0 0.00037162097713827055 0.0016108516569275865 0 0.00043531683384863613 0.0016944440682885296 0 0.00031729679414329648 0.0017159544000009406 0 0.00043531683384863613 0.0016944440682885296 0 0.00041652344966906725 0.0017828033995984653 0 0.00052015134045013092 0.0018049961920463817 0 0.00043531683384863613 0.0016944440682885296 0 0.00041652344966906725 0.0017828033995984653 0 0.0005761298675737536 0.0019139254390678892 0 0.00045200856124326253 0.0018529840079756451 0 0.00038524925530175537 0.0019153938224394048 0 0.00052015134045013092 0.0018049961920463817 0 0.00041652344966906725 0.0017828033995984653 0 0.00045200856124326253 0.0018529840079756451 0 0.00080200589935053724 0.0019051389084515041 0 0.0007608497829538816 0.001844970748531912 0 0.00071869507313899702 0.0017870808329693737 0 0.00069522331218518343 0.00190786911158668 0 0.00054485458136219048 0.0018563642937029327 0 0.00045200856124326253 0.0018529840079756451 0 0.00033691682824777601 0.0018133743792645867 0 0.00038524925530175537 0.0019153938224394048 0 0.00041652344966906725 0.0017828033995984653 0 0.00045200856124326253 0.0018529840079756451 0 0.00033691682824777601 0.0018133743792645867 0 0.00033691682824777601 0.0018133743792645867 0 0.00024509135688557888 0.0018601255091225484 0 0.00038524925530175537 0.0019153938224394048 0 0.00031729679414329648 0.0017159544000009406 0 0.00033691682824777601 0.0018133743792645867 0 0.00021458421571021033 0.0017666532080670035 0 0.00033691682824777601 0.0018133743792645867 0 0.00024509135688557888 0.0018601255091225484 0 0.00021458421571021033 0.0017666532080670035 0 0.00054485458136219048 0.0018563642937029327 0 0.00029686330765287168 0.0018755453372720466 0 0.00071869507313899702 0.0017870808329693737 0 0.00042918641008923305 0.0017814736817774581 0 0.00065417615907478667 0.0018676579005832354 0 0.00024509135688557888 0.0018601255091225484 0 0.00038524925530175537 0.0019153938224394048 0 0.00017699507891736651 0.001958376124222466 0 0.00075900952024631559 0.0018405560494792002 0 0.00071869507313899702 0.0017870808329693737 0 0.00065417615907478667 0.0018676579005832354 0 0.00075900952024631559 0.0018405560494792002 0 0.0007608497829538816 0.001844970748531912 0 0.00071869507313899702 0.0017870808329693737 0 -0.0001909501589802796 0.0017234529654736445 0 -4.3451968573374399e-05 0.0016210496059125463 0 5.2049812595016194e-05 0.0018240814660348988 0 -0.0001909501589802796 0.0017234529654736445 0 -0.00021761848175430863 0.0016162402268286515 0 -4.3451968573374399e-05 0.0016210496059125463 0 0.00024509135688557888 0.0018601255091225484 0 0.00021458421571021033 0.0017666532080670035 0 5.2049812595016194e-05 0.0018240814660348988 0 -4.3451968573374399e-05 0.0016210496059125463 0 0.00021458421571021033 0.0017666532080670035 0 5.2049812595016194e-05 0.0018240814660348988 0 0.00024509135688557888 0.0018601255091225484 0 5.2049812595016194e-05 0.0018240814660348988 0 0.00017699507891736651 0.001958376124222466 0 5.2049812595016194e-05 0.0018240814660348988 0 1.2610131463476221e-05 0.0019120765711380481 0 0.00017699507891736651 0.001958376124222466 0 -0.0001909501589802796 0.0017234529654736445 0 5.2049812595016194e-05 0.0018240814660348988 0 -0.00011590828245141989 0.0018395169054019978 0 5.2049812595016194e-05 0.0018240814660348988 0 1.2610131463476221e-05 0.0019120765711380481 0 -0.00011590828245141989 0.0018395169054019978 0 -0.00013321966377709542 0.001899930357290038 0 1.2610131463476221e-05 0.0019120765711380481 0 -0.00011590828245141989 0.0018395169054019978 0 -9.5421824224853265e-05 0.0019407443928972335 0 -1.2022312546659568e-05 0.0019624187288371257 0 -0.00014509236370298617 0.0020445854635095973 0 -0.00018421087048220571 0.0019604875690441845 0 -9.5421824224853265e-05 0.0019407443928972335 0 -0.00014509236370298617 0.0020445854635095973 0 -0.00013321966377709542 0.001899930357290038 0 1.2610131463476221e-05 0.0019120765711380481 0 -9.5421824224853265e-05 0.0019407443928972335 0 1.2610131463476221e-05 0.0019120765711380481 0 -9.5421824224853265e-05 0.0019407443928972335 0 -1.2022312546659568e-05 0.0019624187288371257 0 1.7457858313216625e-05 0.0019629867358626767 0 0.00029686330765287168 0.0018755453372720466 0 1.2610131463476221e-05 0.0019120765711380481 0 -1.2022312546659568e-05 0.0019624187288371257 0 0.00017699507891736651 0.001958376124222466 0 -1.2022312546659568e-05 0.0019624187288371257 0 0.00042918641008923305 0.0017814736817774581 0 0.00041912390516736015 0.0021322266933420965 0 0.00019218268886681266 0.0020759179731550947 0 -0.00012778670705469679 0.002043059227707698 0 -2.876641278866559e-05 0.002029360067063132 0 -0.00016301826277286905 0.0020754921120618827 0 -0.00014509236370298617 0.0020445854635095973 0 -1.2022312546659568e-05 0.0019624187288371257 0 0.00041912390516736015 0.0021322266933420965 0 -0.00014509236370298617 0.0020445854635095973 0 -0.00019658270995316529 0.0020549288209512017 0 -0.00016301826277286905 0.0020754921120618827 0 -0.00014509236370298617 0.0020445854635095973 0 0.00079751931149661941 0.0018956718592813033 0 0.00065417615907478667 0.0018676579005832354 0 0.00071441142309119671 0.001967400576378443 0 0.00079751931149661941 0.0018956718592813033 0 0.00075900952024631559 0.0018405560494792002 0 0.00065417615907478667 0.0018676579005832354 0 0.00042918641008923305 0.0017814736817774581 0 0.00041912390516736015 0.0021322266933420965 0 0.00065417615907478667 0.0018676579005832354 0 0.00019218268886681266 0.0020759179731550947 0 0.00044526242147200376 0.0020429692520865872 0 0.00041912390516736015 0.0021322266933420965 0 0.00065417615907478667 0.0018676579005832354 0 0.00071441142309119671 0.001967400576378443 0 0.00041912390516736015 0.0021322266933420965 0 0.00071441142309119671 0.001967400576378443 0 0.00076851404426576096 0.0020402817803421825 0 0.00079751931149661941 0.0018956718592813033 0 0.00083751507666817858 0.001936376776958181 0 0.00071441142309119671 0.001967400576378443 0 0.00083751507666817858 0.001936376776958181 0 0.00071441142309119671 0.001967400576378443 0 0.00076851404426576096 0.0020402817803421825 0 0.00017568148668170894 0.0020503914781754584 0 0.00015695167638523077 0.002186104700627889 0 0.00024015872314243699 0.0021443823126397902 0 0.00017568148668170894 0.0020503914781754584 0 4.5568736387056572e-05 0.0021442306056397489 0 0.00015695167638523077 0.002186104700627889 0 -2.876641278866559e-05 0.002029360067063132 0 0.00017568148668170894 0.0020503914781754584 0 4.5568736387056572e-05 0.0021442306056397489 0 4.5568736387056572e-05 0.0021442306056397489 0 0.00015695167638523077 0.002186104700627889 0 3.2655351167005216e-05 0.0022886567310361327 0 4.5568736387056572e-05 0.0021442306056397489 0 -9.4461558905291313e-05 0.0021717748250134694 0 3.2655351167005216e-05 0.0022886567310361327 0 0.00015695167638523077 0.002186104700627889 0 0.00015904696729639731 0.0022836438653792905 0 3.2655351167005216e-05 0.0022886567310361327 0 0.00015695167638523077 0.002186104700627889 0 0.00015904696729639731 0.0022836438653792905 0 0.0002724119514683051 0.0022497481958942936 0 -2.876641278866559e-05 0.002029360067063132 0 -0.00016301826277286905 0.0020754921120618827 0 -0.00014371903533488354 0.0021196346158049019 0 -0.00014371903533488354 0.0021196346158049019 0 -0.00020392881682635585 0.0021027290296904079 0 -0.00020989857576955736 0.0021332299016414789 0 -0.00014371903533488354 0.0021196346158049019 0 -0.00016499898656313411 0.0021877294148511151 0 -0.00020989857576955736 0.0021332299016414789 0 -0.00016301826277286905 0.0020754921120618827 0 -0.00014371903533488354 0.0021196346158049019 0 -0.00020392881682635585 0.0021027290296904079 0 -2.876641278866559e-05 0.002029360067063132 0 4.5568736387056572e-05 0.0021442306056397489 0 -9.4461558905291313e-05 0.0021717748250134694 0 -2.876641278866559e-05 0.002029360067063132 0 -0.00014371903533488354 0.0021196346158049019 0 -9.4461558905291313e-05 0.0021717748250134694 0 -8.0065274782849374e-05 0.0021711003289647882 0 -4.5968185474947634e-05 0.0022970865393559599 0 -9.4461558905291313e-05 0.0021717748250134694 0 -0.00016499898656313411 0.0021877294148511151 0 -0.0001092139007534962 0.0022572121828205987 0 -0.00014371903533488354 0.0021196346158049019 0 -9.4461558905291313e-05 0.0021717748250134694 0 -0.00016499898656313411 0.0021877294148511151 0 -0.00016499898656313411 0.0021877294148511151 0 -0.0001092139007534962 0.0022572121828205987 0 -0.00019453213960153498 0.0022512360263458537 0 -0.0001092139007534962 0.0022572121828205987 0 -0.00014928189954202962 0.0023099494389846546 0 -0.00019453213960153498 0.0022512360263458537 0 -0.0001092139007534962 0.0022572121828205987 0 -3.855963574021835e-05 0.0022305970630723156 0 -3.8372998833199444e-05 0.0022830449052272331 0 -9.4461558905291313e-05 0.0021717748250134694 0 -0.0001092139007534962 0.0022572121828205987 0 -3.855963574021835e-05 0.0022305970630723156 0 -3.8372998833199444e-05 0.0022830449052272331 0 -5.3397789086518455e-05 0.0023327738638414916 0 -0.00010385000553542837 0.002327618265433921 0 -0.0001092139007534962 0.0022572121828205987 0 -3.8372998833199444e-05 0.0022830449052272331 0 -0.00010385000553542837 0.002327618265433921 0 -0.0001092139007534962 0.0022572121828205987 0 -0.00014928189954202962 0.0023099494389846546 0 -0.00010385000553542837 0.002327618265433921 0 -0.00031478021331185897 0.0021518058466987646 0 -0.00029948256379094899 0.0021130954119324722 0 0.00015904696729639731 0.0022836438653792905 0 3.2655351167005216e-05 0.0022886567310361327 0 0.00017366652104362876 0.0024067416747082259 0 -4.5968185474947634e-05 0.0022970865393559599 0 0.00044713557836607609 0.0019914137566912431 0 0.00015904696729639731 0.0022836438653792905 0 0.00017366652104362876 0.0024067416747082259 0 0.0002724119514683051 0.0022497481958942936 0 -3.855963574021835e-05 0.0022305970630723156 0 -3.8372998833199444e-05 0.0022830449052272331 0 2.9455993299928978e-05 0.0022843642596682254 0 0.00036245029800315958 0.0017481309536822205 0 2.2648024295798443e-05 0.0019452539359289661 0 -3.8372998833199444e-05 0.0022830449052272331 0 1.7847538277246652e-05 0.0022917146735774909 0 -5.3397789086518455e-05 0.0023327738638414916 0 0.00077363597086938169 0.0013290448624671404 0 0.00076408266269800446 0.0013352982558587254 0 0.0007668488033207504 0.0012776355952445941 0 -3.8372998833199444e-05 0.0022830449052272331 0 1.7847538277246652e-05 0.0022917146735774909 0 2.9455993299928978e-05 0.0022843642596682254 0 0.00036245029800315958 0.0017481309536822205 0 0.00044713557836607609 0.0019914137566912431 0 0.00097459154558691356 0.00089455903401602986 0 0.00069463860920095707 0.00094736927693038259 0 0.00076408266269800446 0.0013352982558587254 0 0.0007668488033207504 0.0012776355952445941 0 0.00072007874493305044 0.0012901922364301345 0 0.00077363597086938169 0.0013290448624671404 0 0.0007668488033207504 0.0012776355952445941 0 0.00081581354862827007 0.0012632595222636042 0 0.0011191969399145533 0.00052638884009885835 0 0.0011332148310447341 0.00047626894677677695 0 0.0011759548772475059 0.00051051336824959107 0 0.0011191969399145533 0.00052638884009885835 0 0.0011332148310447341 0.00047626894677677695 0 0.0010845877161000689 0.00050656941470002151 0 0.0011332148310447341 0.00047626894677677695 0 0.001084786204875305 0.000463768534667226 0 0.0010845877161000689 0.00050656941470002151 0 0.0011332148310447341 0.00047626894677677695 0 0.0011173292318543717 0.00042532776738081241 0 0.0011573145010174792 0.00042795078396282155 0 0.0011332148310447341 0.00047626894677677695 0 0.0011173292318543717 0.00042532776738081241 0 0.001084786204875305 0.000463768534667226 0 0.0011332148310447341 0.00047626894677677695 0 0.001177660767336472 0.00044798073611570447 0 0.0011759548772475059 0.00051051336824959107 0 0.00069463860920095707 0.00094736927693038259 0 0.00050788376680562441 0.00023597039022610128 0 0.001177660767336472 0.00044798073611570447 0 0.0011759548772475059 0.00051051336824959107 0 0.0012334869726680878 0.00041392346039728064 0 0.0011332148310447341 0.00047626894677677695 0 0.001177660767336472 0.00044798073611570447 0 0.0011573145010174792 0.00042795078396282155 0 0.00027321900468441947 0.0013703067994128113 0 0.00017002045093206805 0.0014249559834920099 0 0.00019973740498904503 0.0014668681290294229 0 0.00036245029800315958 0.0017481309536822205 0 0.00069463860920095707 0.00094736927693038259 0 -5.3397789086518455e-05 0.0023327738638414916 0 -0.00010385000553542837 0.002327618265433921 0 -0.00011953048519194745 0.0023655435250691378 0 0.00069463860920095707 0.00094736927693038259 0 -0.00029893583185692136 0.00085893311057080271 0 2.2648024295798443e-05 0.0019452539359289661 0 -0.00020889657095238062 0.0014585754724484503 0 0.00017002045093206805 0.0014249559834920099 0 0.00019973740498904503 0.0014668681290294229 0 6.1314038125977936e-05 0.0014947600232981077 0 0.00017002045093206805 0.0014249559834920099 0 5.7188830683390314e-05 0.0014850751891263354 0 6.1314038125977936e-05 0.0014947600232981077 0 -0.00031478021331185897 0.0021518058466987646 0 -0.00020889657095238062 0.0014585754724484503 0 -0.00014928189954202962 0.0023099494389846546 0 -0.00010385000553542837 0.002327618265433921 0 -0.00011953048519194745 0.0023655435250691378 0 -0.00049876028103688355 0.0018173624429776809 0 -0.00047144103288223439 0.0016682968227934149 0 -0.00059806293851195804 0.0015840648961930181 0 -0.00049876028103688355 0.0018173624429776809 0 -0.00047144103288223439 0.0016682968227934149 0 -0.00035633034223168708 0.0017407468247153351 0 -0.00047144103288223439 0.0016682968227934149 0 -0.00049608529973533199 0.0015877962010589269 0 -0.00059806293851195804 0.0015840648961930181 0 -0.00047144103288223439 0.0016682968227934149 0 -0.00049608529973533199 0.0015877962010589269 0 -0.00040590978554620104 0.0016115004666970526 0 -0.00046517560931372558 0.001527771438900897 0 -0.00049608529973533199 0.0015877962010589269 0 -0.00040590978554620104 0.0016115004666970526 0 -0.00046517560931372558 0.001527771438900897 0 -0.0005403784571447191 0.0015463193177896297 0 -0.00037805672806763221 0.0014384168201678502 0 -0.00046517560931372558 0.001527771438900897 0 -0.00049608529973533199 0.0015877962010589269 0 -0.00054147748691074475 0.0015477023888709667 0 -0.00054141766957128642 0.0012655695008145303 0 -0.00049836324875223109 0.0010786631055269981 0 -0.00090382915499983749 -0.0003320109777072944 0 -0.00076980519795620019 -0.00036237239563511535 0 -0.00086608134610260219 -5.1607672276976481e-05 0 -0.00049608529973533199 0.0015877962010589269 0 -0.00054147748691074475 0.0015477023888709667 0 -0.00059806293851195804 0.0015840648961930181 0 -0.00054618927945393741 0.0011538275782725749 0 -8.5554765490414099e-05 0.00086573000955005714 0 -2.003332448840108e-05 0.0010286044363678522 0 -0.00049836324875223109 0.0010786631055269981 0 -0.00029893583185692136 0.00085893311057080271 0 -0.00049836324875223109 0.0010786631055269981 0 -0.00020889657095238062 0.0014585754724484503 0 -0.00020889657095238062 0.0014585754724484503 0 -0.00029893583185692136 0.00085893311057080271 0 -0.00090382915499983749 -0.0003320109777072944 0 -0.0010284978732325234 -6.3098154308437526e-05 0 -0.00086608134610260219 -5.1607672276976481e-05 0 -0.00049836324875223109 0.0010786631055269981 0 -0.00078595021124559165 0.0006283957522564774 0 -0.00090382915499983749 -0.0003320109777072944 0 -0.0010284978732325234 -6.3098154308437526e-05 0 -0.0012625349320743474 -0.00012437369565595029 0 -0.00076980519795620019 -0.00036237239563511535 0 -0.00059406950778008514 6.1271626658263085e-05 0 -0.00086608134610260219 -5.1607672276976481e-05 0 -0.00029893583185692136 0.00085893311057080271 0 0.00050788376680562441 0.00023597039022610128 0 0.00032687670394282274 0.00067048906769249638 0 0.00032774691960119198 0.00066735964053733267 0 0.00032819301931266947 0.00066072046290963863 0 0.0012334869726680878 0.00041392346039728064 0 0.0012070601993081048 0.00039314425947879967 0 0.0011885533484712343 0.00041121309306456252 0 0.00050788376680562441 0.00023597039022610128 0 0.0001433697277204861 0.00044373018004983348 0 0.0012313228466786831 0.00041182783632846457 0 0.0012766976770033009 0.00034391262574734596 0 0.0012349529714890722 0.00037068109094223918 0 0.00050788376680562441 0.00023597039022610128 0 0.00070148158125151838 0.00040907114795802599 0 0.0012313228466786831 0.00041182783632846457 0 0.001226971840036177 0.00039679334184288109 0 0.0012349529714890722 0.00037068109094223918 0 0.0012200237844101024 0.00038234509118555853 0 0.001226971840036177 0.00039679334184288109 0 0.0012349529714890722 0.00037068109094223918 0 0.0012200237844101024 0.00038234509118555853 0 0.0012070601993081048 0.00039314425947879967 0 0.0012107889053151258 0.00036866543706253206 0 0.0012200237844101024 0.00038234509118555853 0 0.0012070601993081048 0.00039314425947879967 0 0.001226971840036177 0.00039679334184288109 0 0.0012334869726680878 0.00041392346039728064 0 0.0012070601993081048 0.00039314425947879967 0 0.001226971840036177 0.00039679334184288109 0 -0.00059406950778008514 6.1271626658263085e-05 0 -0.00088424183469560476 0.00020537745640965938 0 -0.00092053028990753051 0.00049268087439509529 0 -0.0010284978732325234 -6.3098154308437526e-05 0 -0.0010323435617907851 0.00015903430959392491 0 -0.0012464381050821005 0.0001237473031660037 0 -0.0010284978732325234 -6.3098154308437526e-05 0 -0.00086608134610260219 -5.1607672276976481e-05 0 -0.0010323435617907851 0.00015903430959392491 0 -0.00059406950778008514 6.1271626658263085e-05 0 -0.00086608134610260219 -5.1607672276976481e-05 0 -0.00088424183469560476 0.00020537745640965938 0 -0.00086608134610260219 -5.1607672276976481e-05 0 -0.00088424183469560476 0.00020537745640965938 0 -0.0010323435617907851 0.00015903430959392491 0 -0.0010323435617907851 0.00015903430959392491 0 -0.0010040972880671849 0.00035933721108401658 0 -0.0011649017004578071 0.00031830201126944357 0 -0.00088424183469560476 0.00020537745640965938 0 -0.0010323435617907851 0.00015903430959392491 0 -0.0010040972880671849 0.00035933721108401658 0 -0.00092053028990753051 0.00049268087439509529 0 -0.0010511877930174708 0.00050701851992855109 0 -0.0010942484347996049 0.00072918305067221458 0 -0.0010040972880671849 0.00035933721108401658 0 -0.0010511877930174708 0.00050701851992855109 0 -0.0011649017004578071 0.00031830201126944357 0 -0.0010040972880671849 0.00035933721108401658 0 -0.00092053028990753051 0.00049268087439509529 0 -0.0010511877930174708 0.00050701851992855109 0 -0.00088424183469560476 0.00020537745640965938 0 -0.0010040972880671849 0.00035933721108401658 0 -0.00092053028990753051 0.00049268087439509529 0 0.0012692071089555502 0.00031633237316734642 0 0.0012766976770033009 0.00034391262574734596 0 0.0012923441880383275 0.00029823897054464144 0 0.0012692071089555502 0.00031633237316734642 0 0.0012766976770033009 0.00034391262574734596 0 0.0012471119909120464 0.00033449954497093365 0 0.001223776761270423 0.00034908322509829962 0 0.0012107889053151258 0.00036866543706253206 0 0.0011982344533639055 0.0003415161245289131 0 0.001223776761270423 0.00034908322509829962 0 0.0012107889053151258 0.00036866543706253206 0 0.0012349529714890722 0.00037068109094223918 0 0.0012200237844101024 0.00038234509118555853 0 0.0012107889053151258 0.00036866543706253206 0 0.0012349529714890722 0.00037068109094223918 0 0.0012766976770033009 0.00034391262574734596 0 0.0012349529714890722 0.00037068109094223918 0 0.0012471119909120464 0.00033449954497093365 0 0.001223776761270423 0.00034908322509829962 0 0.0012349529714890722 0.00037068109094223918 0 0.0012471119909120464 0.00033449954497093365 0 0.001223776761270423 0.00034908322509829962 0 0.0012471119909120464 0.00033449954497093365 0 0.0012247997232561992 0.00032014053745233834 0 0.0012692071089555502 0.00031633237316734642 0 0.0012471119909120464 0.00033449954497093365 0 0.0012515774221285685 0.00030475996241932115 0 0.0012471119909120464 0.00033449954497093365 0 0.0012247997232561992 0.00032014053745233834 0 0.0012515774221285685 0.00030475996241932115 0 0.0012247997232561992 0.00032014053745233834 0 0.0011982344533639055 0.0003415161245289131 0 0.0011996840391866462 0.00031017750058362882 0 0.001223776761270423 0.00034908322509829962 0 0.0012247997232561992 0.00032014053745233834 0 0.0011982344533639055 0.0003415161245289131 0 0.0011982344533639055 0.0003415161245289131 0 0.001167080285639473 0.00032612297957873733 0 0.0011996840391866462 0.00031017750058362882 0 0.0011982344533639055 0.0003415161245289131 0 0.0011858205721407445 0.00037046214629725285 0 0.001167080285639473 0.00032612297957873733 0 0.0012107889053151258 0.00036866543706253206 0 0.0011982344533639055 0.0003415161245289131 0 0.0011858205721407445 0.00037046214629725285 0 0.0011858205721407445 0.00037046214629725285 0 0.0011590518997760565 0.00036075571413459183 0 0.001167080285639473 0.00032612297957873733 0 0.001167080285639473 0.00032612297957873733 0 0.0011339499282328963 0.00034771520866186401 0 0.0011419564989116299 0.00029190402438662786 0 0.0011339499282328963 0.00034771520866186401 0 0.0010957594185408101 0.00035256106839036969 0 0.0011067835717562323 0.0002989073404496522 0 0.0011339499282328963 0.00034771520866186401 0 0.0011419564989116299 0.00029190402438662786 0 0.0011067835717562323 0.0002989073404496522 0 0.0011339499282328963 0.00034771520866186401 0 0.0011149315600968393 0.00038473492128429936 0 0.0010957594185408101 0.00035256106839036969 0 0.0011590518997760565 0.00036075571413459183 0 0.0011339499282328963 0.00034771520866186401 0 0.0011450466187658908 0.00038889536243628031 0 0.0011339499282328963 0.00034771520866186401 0 0.0011450466187658908 0.00038889536243628031 0 0.0011149315600968393 0.00038473492128429936 0 0.0011590518997760565 0.00036075571413459183 0 0.001167080285639473 0.00032612297957873733 0 0.0011339499282328963 0.00034771520866186401 0 0.0011149315600968393 0.00038473492128429936 0 0.0011173292318543717 0.00042532776738081241 0 0.0010821239876209025 0.00040844687971972288 0 0.0011450466187658908 0.00038889536243628031 0 0.0011149315600968393 0.00038473492128429936 0 0.0011173292318543717 0.00042532776738081241 0 0.0011450466187658908 0.00038889536243628031 0 0.0011173292318543717 0.00042532776738081241 0 0.0011573145010174792 0.00042795078396282155 0 0.001177660767336472 0.00044798073611570447 0 0.0011573145010174792 0.00042795078396282155 0 0.0011885533484712343 0.00041121309306456252 0 0.0011573145010174792 0.00042795078396282155 0 0.0011885533484712343 0.00041121309306456252 0 0.0011696327612044993 0.00039427517705321587 0 0.001177660767336472 0.00044798073611570447 0 0.0012334869726680878 0.00041392346039728064 0 0.0011885533484712343 0.00041121309306456252 0 0.0011858205721407445 0.00037046214629725285 0 0.0011885533484712343 0.00041121309306456252 0 0.0011696327612044993 0.00039427517705321587 0 0.0012070601993081048 0.00039314425947879967 0 0.0011858205721407445 0.00037046214629725285 0 0.0011885533484712343 0.00041121309306456252 0 0.0012070601993081048 0.00039314425947879967 0 0.0012107889053151258 0.00036866543706253206 0 0.0011858205721407445 0.00037046214629725285 0 0.0011590518997760565 0.00036075571413459183 0 0.0011450466187658908 0.00038889536243628031 0 0.0011696327612044993 0.00039427517705321587 0 0.0011858205721407445 0.00037046214629725285 0 0.0011590518997760565 0.00036075571413459183 0 0.0011696327612044993 0.00039427517705321587 0 0.0011450466187658908 0.00038889536243628031 0 0.0011573145010174792 0.00042795078396282155 0 0.0011696327612044993 0.00039427517705321587 0 -0.0024989353433733643 0.00048911979342715481 0 -0.0023918886446254203 0.00027932774286340171 0 -0.0023318731918387948 0.00050446776451768904 0 -0.0017619432347730371 0.0012325453624993932 0 -0.0018937249087275431 0.00053970409583336079 0 -0.0012565422372862968 0.0010916129312051495 0 -0.0013172959139276462 0.001066388854207456 0 -0.0013344994701822291 0.0011064230481541153 0 -0.0012565422372862968 0.0010916129312051495 0 -0.0012856547157941824 0.00098718779112753159 0 -0.0013172959139276462 0.001066388854207456 0 -0.0017619432347730371 0.0012325453624993932 0 -0.0031759671169582422 0.00074103310246736163 0 -0.0033459113815569874 0.00096971536534167543 0 -0.0033791318297679575 0.00097794903609287488 0 -0.0033908563697790661 0.00095635497845724781 0 -0.0033459113815569874 0.00096971536534167543 0 -0.0033791318297679575 0.00097794903609287488 0 -0.0033790290841400985 0.0010027680094349168 0 -0.0024989353433733643 0.00048911979342715481 0 -0.0023918886446254203 0.00027932774286340171 0 -0.0026885825542147506 0.00051876828036543754 0 -0.0033791318297679575 0.00097794903609287488 0 -0.0033908563697790661 0.00095635497845724781 0 -0.0034041086084796311 0.00098451984476039781 0 -0.0033791318297679575 0.00097794903609287488 0 -0.0033790290841400985 0.0010027680094349168 0 -0.0034041086084796311 0.00098451984476039781 0 -0.0024989353433733643 0.00048911979342715481 0 -0.0026885825542147506 0.00051876828036543754 0 -0.0025845352595450185 0.00065856983445833686 0 -0.0026885825542147506 0.00051876828036543754 0 -0.0027890038513975163 0.00069546024088847623 0 -0.0025845352595450185 0.00065856983445833686 0 -0.0027890038513975163 0.00069546024088847623 0 -0.0025845352595450185 0.00065856983445833686 0 -0.0028599016741080096 0.00082449899437323881 0 -0.0025716330948461711 0.00062267237682074562 0 -0.0028141261409381953 0.00079019479567868746 0 -0.002491130915181319 0.00055001089339342518 0 -0.0022110852076464016 0.00059841504428921664 0 -0.002389231080942343 0.00075525212166317648 0 -0.002491130915181319 0.00055001089339342518 0 -0.0022110852076464016 0.00059841504428921664 0 -0.0020704576886851648 0.00027697402874581945 0 -0.0025716330948461711 0.00062267237682074562 0 -0.0018937249087275431 0.00053970409583336079 0 -0.0024989353433733643 0.00048911979342715481 0 -0.0025845352595450185 0.00065856983445833686 0 -0.0023318731918387948 0.00050446776451768904 0 -0.0022110852076464016 0.00059841504428921664 0 -0.0020704576886851648 0.00027697402874581945 0 -0.0020114651311133091 0.00048841931608377387 0 -0.0020642305786744198 0.00027544847424869633 0 -0.0020114651311133091 0.00048841931608377387 0 -0.001861696608956673 0.00033547245074634863 0 -0.0018937249087275431 0.00053970409583336079 0 -0.001974850885509792 0.00041194513431991905 0 -0.0020114651311133091 0.00048841931608377387 0 -0.0018530445179913654 0.00071649070928483515 0 -0.0020651062602910922 0.00070536281515362316 0 -0.0022110852076464016 0.00059841504428921664 0 -0.0020114651311133091 0.00048841931608377387 0 -0.0020651062602910922 0.00070536281515362316 0 -0.0016971138605652101 0.00047097209798126563 0 -0.001861696608956673 0.00033547245074634863 0 -0.001668231710718284 3.2286473910032706e-05 0 -0.0020114651311133091 0.00048841931608377387 0 -0.0016971138605652101 0.00047097209798126563 0 -0.0018530445179913654 0.00071649070928483515 0 -0.0016197796913215135 0.00067780068436269693 0 -0.0016971138605652101 0.00047097209798126563 0 -0.0018530445179913654 0.00071649070928483515 0 -0.0016197796913215135 0.00067780068436269693 0 -0.0016971138605652101 0.00047097209798126563 0 -0.0014736307443890871 0.00050563879877889046 0 -0.0020114651311133091 0.00048841931608377387 0 -0.0016971138605652101 0.00047097209798126563 0 -0.001861696608956673 0.00033547245074634863 0 -0.0010511877930174708 0.00050701851992855109 0 -0.0013860095837565662 0.00062365898307319828 0 -0.0012893946700815446 0.00045705625490245863 0 -0.0010511877930174708 0.00050701851992855109 0 -0.0013860095837565662 0.00062365898307319828 0 -0.0013797665261641512 0.00079514337894991886 0 -0.0016197796913215135 0.00067780068436269693 0 -0.0013860095837565662 0.00062365898307319828 0 -0.0014736307443890871 0.00050563879877889046 0 -0.0016197796913215135 0.00067780068436269693 0 -0.0013860095837565662 0.00062365898307319828 0 -0.0014917888285591499 0.00074699876047186356 0 -0.0013860095837565662 0.00062365898307319828 0 -0.0014736307443890871 0.00050563879877889046 0 -0.0012893946700815446 0.00045705625490245863 0 -0.0016971138605652101 0.00047097209798126563 0 -0.0014736307443890871 0.00050563879877889046 0 -0.0013777415722003462 0.0003078408358809456 0 -0.0014736307443890871 0.00050563879877889046 0 -0.0013777415722003462 0.0003078408358809456 0 -0.0012893946700815446 0.00045705625490245863 0 -0.0010511877930174708 0.00050701851992855109 0 -0.0011649017004578071 0.00031830201126944357 0 -0.0012893946700815446 0.00045705625490245863 0 -0.0013777415722003462 0.0003078408358809456 0 -0.0011649017004578071 0.00031830201126944357 0 -0.0012893946700815446 0.00045705625490245863 0 -0.0012464381050821005 0.0001237473031660037 0 -0.0016413109981804721 8.7286514247699617e-05 0 -0.0012625349320743474 -0.00012437369565595029 0 -0.0013777415722003462 0.0003078408358809456 0 -0.0012464381050821005 0.0001237473031660037 0 -0.0016413109981804721 8.7286514247699617e-05 0 -0.0013777415722003462 0.0003078408358809456 0 -0.0011649017004578071 0.00031830201126944357 0 -0.0012464381050821005 0.0001237473031660037 0 -0.0010323435617907851 0.00015903430959392491 0 -0.0011649017004578071 0.00031830201126944357 0 -0.0012464381050821005 0.0001237473031660037 0 -0.0011681311680927439 0.00070702764504625257 0 -0.00078595021124559165 0.0006283957522564774 0 -0.0010284978732325234 -6.3098154308437526e-05 0 -0.0012464381050821005 0.0001237473031660037 0 -0.0012625349320743474 -0.00012437369565595029 0 -0.0016480289974809246 0.00023447759095776823 0 -0.0011681311680927439 0.00070702764504625257 0 -0.0016971138605652101 0.00047097209798126563 0 -0.0013777415722003462 0.0003078408358809456 0 -0.0016413109981804721 8.7286514247699617e-05 0 -0.0018937249087275431 0.00053970409583336079 0 -0.0011681311680927439 0.00070702764504625257 0 -0.0020642305786744198 0.00027544847424869633 0 -0.001861696608956673 0.00033547245074634863 0 -0.001668231710718284 3.2286473910032706e-05 0 -0.0012856547157941824 0.00098718779112753159 0 -0.0013819479361727096 0.0010517163921287943 0 -0.0013172959139276462 0.001066388854207456 0 -0.0013819479361727096 0.0010517163921287943 0 -0.0013172959139276462 0.001066388854207456 0 -0.0013344994701822291 0.0011064230481541153 0 -0.0017619432347730371 0.0012325453624993932 0 -0.00067701683619662216 0.0016979725133131778 0 -0.00044699960255639167 0.002200832289192657 0 -0.0004330508184241076 0.0022126259405938304 0 -0.00043526082293950764 0.0022124800698533099 0 -0.0013819479361727096 0.0010517163921287943 0 -0.0013344994701822291 0.0011064230481541153 0 -0.001386747021378009 0.0012156072566109498 0 -0.0011681311680927439 0.00070702764504625257 0 -0.00067701683619662216 0.0016979725133131778 0 -0.0002137671819773795 0.0013249341138717224 0 -0.00022190491669103591 0.0015863119449668203 0 -0.0002825005229046183 0.0015266065218284388 0 -0.0012565422372862968 0.0010916129312051495 0 -0.0013344994701822291 0.0011064230481541153 0 -0.001386747021378009 0.0012156072566109498 0 -0.00022190491669103591 0.0015863119449668203 0 -0.0002825005229046183 0.0015266065218284388 0 -0.00022526543585814501 0.0016419916721478679 0 -0.0002137671819773795 0.0013249341138717224 0 -0.0002825005229046183 0.0015266065218284388 0 -0.00034117924433746085 0.0014990215266140246 0 -0.00037805672806763221 0.0014384168201678502 0 -0.00034117924433746085 0.0014990215266140246 0 -0.00038615095698231266 0.0015293130155597699 0 -0.00046517560931372558 0.001527771438900897 0 -0.00037805672806763221 0.0014384168201678502 0 -0.00038615095698231266 0.0015293130155597699 0 -0.0002137671819773795 0.0013249341138717224 0 -0.00037805672806763221 0.0014384168201678502 0 -0.00034117924433746085 0.0014990215266140246 0 -0.0002825005229046183 0.0015266065218284388 0 -0.00029356193374417011 0.0015970204149152517 0 -0.00022526543585814501 0.0016419916721478679 0 -0.0002825005229046183 0.0015266065218284388 0 -0.00034030039904173838 0.001570620374280762 0 -0.00029356193374417011 0.0015970204149152517 0 -0.0002825005229046183 0.0015266065218284388 0 -0.00034030039904173838 0.001570620374280762 0 -0.00034117924433746085 0.0014990215266140246 0 -0.00034030039904173838 0.001570620374280762 0 -0.00034117924433746085 0.0014990215266140246 0 -0.00038615095698231266 0.0015293130155597699 0 -0.00034030039904173838 0.001570620374280762 0 -0.00038615095698231266 0.0015293130155597699 0 -0.00040590978554620104 0.0016115004666970526 0 -0.00046517560931372558 0.001527771438900897 0 -0.00038615095698231266 0.0015293130155597699 0 -0.00040590978554620104 0.0016115004666970526 0 -0.00040590978554620104 0.0016115004666970526 0 -0.00032092061946027998 0.0016399476120176116 0 -0.00035633034223168708 0.0017407468247153351 0 -0.00047144103288223439 0.0016682968227934149 0 -0.00040590978554620104 0.0016115004666970526 0 -0.00035633034223168708 0.0017407468247153351 0 -0.00034030039904173838 0.001570620374280762 0 -0.00040590978554620104 0.0016115004666970526 0 -0.00032092061946027998 0.0016399476120176116 0 -0.00032092061946027998 0.0016399476120176116 0 -0.00029356193374417011 0.0015970204149152517 0 -0.00022526543585814501 0.0016419916721478679 0 -0.00032092061946027998 0.0016399476120176116 0 -0.00035633034223168708 0.0017407468247153351 0 -0.00022526543585814501 0.0016419916721478679 0 -0.00034030039904173838 0.001570620374280762 0 -0.00032092061946027998 0.0016399476120176116 0 -0.00029356193374417011 0.0015970204149152517 0 -0.00042956775471094701 0.0022143213748448964 0 -0.00043526082293950764 0.0022124800698533099 0 -0.00042531670061180942 0.0022156681943225863 0 -0.0004330508184241076 0.0022126259405938304 0 -0.00042956775471094701 0.0022143213748448964 0 -0.00043526082293950764 0.0022124800698533099 0 -0.00067701683619662216 0.0016979725133131778 0 -0.00048104324427277199 0.0018907446881701927 0 -0.00044147421599761793 0.0022137246395664669 0 -0.00043526082293950764 0.0022124800698533099 0 -0.00042531670061180942 0.0022156681943225863 0 -0.00044699960255639167 0.002200832289192657 0 -0.00044147421599761793 0.0022137246395664669 0 -0.00043526082293950764 0.0022124800698533099 0 -0.0017619432347730371 0.0012325453624993932 0 -0.001912039869428106 0.0016510432036032539 0 -0.0033459113815569874 0.00096971536534167543 0 -0.003372029463707476 0.00094298422377330111 0 -0.0033908563697790661 0.00095635497845724781 0 -0.003372029463707476 0.00094298422377330111 0 -0.0033908563697790661 0.00095635497845724781 0 -0.0033979397374534382 0.00093591759745152649 0 -0.001912039869428106 0.0016510432036032539 0 -0.0019349661840103686 0.0015587177029438984 0 -0.003372029463707476 0.00094298422377330111 0 -0.0033876845300510059 0.00094867873371894704 0 -0.0033979397374534382 0.00093591759745152649 0 -0.00044147421599761793 0.0022137246395664669 0 -0.00042531670061180942 0.0022156681943225863 0 -0.00046313518525648722 0.0022087148547784013 0 -0.00042531670061180942 0.0022156681943225863 0 -0.00041858399272630983 0.0022064192693434809 0 -0.00046313518525648722 0.0022087148547784013 0 -0.00040419641450106753 0.0021858902195398882 0 -0.00046313518525648722 0.0022087148547784013 0 -0.00044964307970081339 0.002161443915456856 0 -0.00041858399272630983 0.0022064192693434809 0 -0.00040419641450106753 0.0021858902195398882 0 -0.00046313518525648722 0.0022087148547784013 0 -0.0033876845300510059 0.00094867873371894704 0 -0.0033899121664808284 0.00099245140909654103 0 -0.0033799887468664086 0.00096914462416048525 0 -0.00046313518525648722 0.0022087148547784013 0 -0.00051416588953229279 0.0021491006407092258 0 -0.00044964307970081339 0.002161443915456856 0 -0.0019349661840103686 0.0015587177029438984 0 -0.0018890774764526782 0.0015855270679718879 0 -0.00035633034223168708 0.0017407468247153351 0 -0.00037146010660841464 0.001882324096275468 0 -0.00025442137600637118 0.0019400352611954473 0 -0.00035633034223168708 0.0017407468247153351 0 -0.00022526543585814501 0.0016419916721478679 0 -0.00025442137600637118 0.0019400352611954473 0 -0.00049876028103688355 0.0018173624429776809 0 -0.00037146010660841464 0.001882324096275468 0 -0.00038859044240700596 0.0020217358624300802 0 -0.00049876028103688355 0.0018173624429776809 0 -0.00035633034223168708 0.0017407468247153351 0 -0.00037146010660841464 0.001882324096275468 0 -0.00042956775471094701 0.0022143213748448964 0 -0.00042531670061180942 0.0022156681943225863 0 -0.00038868185539427764 0.0022137761232902814 0 -0.00048104324427277199 0.0018907446881701927 0 -0.00029912779792009843 0.0020793423045304986 0 -0.00042531670061180942 0.0022156681943225863 0 -0.00041858399272630983 0.0022064192693434809 0 -0.00038868185539427764 0.0022137761232902814 0 -0.00040419641450106753 0.0021858902195398882 0 -0.00038868185539427764 0.0022137761232902814 0 -0.00035802818110751037 0.0021665484344006395 0 -0.00041858399272630983 0.0022064192693434809 0 -0.00040419641450106753 0.0021858902195398882 0 -0.00038868185539427764 0.0022137761232902814 0 -0.00029912779792009843 0.0020793423045304986 0 -0.0003004390428351985 0.0021376612860259272 0 -0.00025442137600637118 0.0019400352611954473 0 -0.00038859044240700596 0.0020217358624300802 0 -0.00028943636408547017 0.002149820769576081 0 -0.00037146010660841464 0.001882324096275468 0 -0.00025442137600637118 0.0019400352611954473 0 -0.00038859044240700596 0.0020217358624300802 0 -0.00029948256379094899 0.0021130954119324722 0 -0.00028503478950558448 0.0021548171217629221 0 -0.00038859044240700596 0.0020217358624300802 0 -0.00028536654680995317 0.0021539173335095728 0 -0.00028943636408547017 0.002149820769576081 0 -0.00016499898656313411 0.0021877294148511151 0 -0.00019453213960153498 0.0022512360263458537 0 -0.00028536654680995317 0.0021539173335095728 0 -0.00016499898656313411 0.0021877294148511151 0 -0.00028536654680995317 0.0021539173335095728 0 -0.00020989857576955736 0.0021332299016414789 0 -0.00028536654680995317 0.0021539173335095728 0 -0.00028943636408547017 0.002149820769576081 0 -0.00029288229893405308 0.0021346920173739513 0 -0.00038868185539427764 0.0022137761232902814 0 -0.00028943636408547017 0.002149820769576081 0 -0.00035802818110751037 0.0021665484344006395 0 -0.00028943636408547017 0.002149820769576081 0 -0.00032368117710587844 0.0021350446070817269 0 -0.00035802818110751037 0.0021665484344006395 0 -0.00028943636408547017 0.002149820769576081 0 -0.00032368117710587844 0.0021350446070817269 0 -0.00029288229893405308 0.0021346920173739513 0 -0.00040419641450106753 0.0021858902195398882 0 -0.00035802818110751037 0.0021665484344006395 0 -0.00039965085683400889 0.0021537546633844957 0 -0.00035802818110751037 0.0021665484344006395 0 -0.00036162688022976536 0.0021285684297492335 0 -0.00039965085683400889 0.0021537546633844957 0 -0.00032368117710587844 0.0021350446070817269 0 -0.00035802818110751037 0.0021665484344006395 0 -0.00036162688022976536 0.0021285684297492335 0 -0.00036162688022976536 0.0021285684297492335 0 -0.00036351518191861832 0.0020858517828479884 0 -0.00042021295166073258 0.0021174926276266047 0 -0.00036162688022976536 0.0021285684297492335 0 -0.00036351518191861832 0.0020858517828479884 0 -0.00030519182692632512 0.0021087681931555319 0 -0.00029404557206713037 0.0020690727130357896 0 -0.00036351518191861832 0.0020858517828479884 0 -0.00030519182692632512 0.0021087681931555319 0 -0.00032368117710587844 0.0021350446070817269 0 -0.00036162688022976536 0.0021285684297492335 0 -0.00030519182692632512 0.0021087681931555319 0 -0.00032368117710587844 0.0021350446070817269 0 -0.00030519182692632512 0.0021087681931555319 0 -0.00029288229893405308 0.0021346920173739513 0 -0.00030519182692632512 0.0021087681931555319 0 -0.00029288229893405308 0.0021346920173739513 0 -0.00025824367728763701 0.0021165558575538617 0 -0.00028536654680995317 0.0021539173335095728 0 -0.00029288229893405308 0.0021346920173739513 0 -0.00025824367728763701 0.0021165558575538617 0 -0.00029404557206713037 0.0020690727130357896 0 -0.00030519182692632512 0.0021087681931555319 0 -0.00023773189202377302 0.002079764730877902 0 -0.00030519182692632512 0.0021087681931555319 0 -0.00025824367728763701 0.0021165558575538617 0 -0.00023773189202377302 0.002079764730877902 0 -0.00016301826277286905 0.0020754921120618827 0 -0.00023773189202377302 0.002079764730877902 0 -0.00020392881682635585 0.0021027290296904079 0 -0.00025824367728763701 0.0021165558575538617 0 -0.00023773189202377302 0.002079764730877902 0 -0.00020392881682635585 0.0021027290296904079 0 -0.00025824367728763701 0.0021165558575538617 0 -0.00020392881682635585 0.0021027290296904079 0 -0.00020989857576955736 0.0021332299016414789 0 -0.00028536654680995317 0.0021539173335095728 0 -0.00025824367728763701 0.0021165558575538617 0 -0.00020989857576955736 0.0021332299016414789 0 -0.00051416588953229279 0.0021491006407092258 0 -0.00044964307970081339 0.002161443915456856 0 -0.00050006842321073479 0.0020912280768378751 0 -0.00040419641450106753 0.0021858902195398882 0 -0.00044964307970081339 0.002161443915456856 0 -0.00039965085683400889 0.0021537546633844957 0 -0.00044964307970081339 0.002161443915456856 0 -0.00039965085683400889 0.0021537546633844957 0 -0.00042021295166073258 0.0021174926276266047 0 -0.00036162688022976536 0.0021285684297492335 0 -0.00039965085683400889 0.0021537546633844957 0 -0.00042021295166073258 0.0021174926276266047 0 -0.00044964307970081339 0.002161443915456856 0 -0.00042021295166073258 0.0021174926276266047 0 -0.00050006842321073479 0.0020912280768378751 0 -0.00036351518191861832 0.0020858517828479884 0 -0.00042021295166073258 0.0021174926276266047 0 -0.00044069337116313753 0.0020687025261455811 0 -0.00039896401598138079 0.0020399258709499607 0 -0.00036351518191861832 0.0020858517828479884 0 -0.00044069337116313753 0.0020687025261455811 0 -0.00042021295166073258 0.0021174926276266047 0 -0.00044069337116313753 0.0020687025261455811 0 -0.00050006842321073479 0.0020912280768378751 0 -0.000575915809533988 0.0020452917563323972 0 -0.00051416588953229279 0.0021491006407092258 0 -0.00050006842321073479 0.0020912280768378751 0 -0.0025159134824473827 0.0015634833409739711 0 -0.0018890774764526782 0.0015855270679718879 0 -0.00050752126732171005 0.0020347726102363656 0 -0.00044069337116313753 0.0020687025261455811 0 -0.00050006842321073479 0.0020912280768378751 0 -0.000575915809533988 0.0020452917563323972 0 -0.00050752126732171005 0.0020347726102363656 0 -0.00050006842321073479 0.0020912280768378751 0 -0.0025159134824473827 0.0015634833409739711 0 -0.0033558379974223135 0.0010538765152555681 0 -0.0033692995785693162 0.0010683200495503267 0 -0.0033899121664808284 0.00099245140909654103 0 -0.0033701775818726957 0.0010434364518316726 0 -0.0033692995785693162 0.0010683200495503267 0 -0.0033701775818726957 0.0010434364518316726 0 -0.0033548590708837771 0.0010288765328312567 0 -0.0033428937922738268 0.0013999091923593446 0 -0.0032870385617969787 0.0011392914288771772 0 -0.003326968629034476 0.0011792204727306597 0 -0.0034671308558106087 0.0013603547924657495 0 -0.0036055609073942368 0.0010251037883862095 0 -0.0036055609073942368 0.0010251037883862095 0 -0.0033558379974223135 0.0010538765152555681 0 -0.0033701775818726957 0.0010434364518316726 0 -0.0033609251298672765 0.0010267729987918281 0 -0.00337283663047143 0.0010025590424460188 0 -0.0033587971838676726 0.0010479634299063528 0 -0.0033558379974223135 0.0010538765152555681 0 -0.0033568456399368377 0.001007698080741162 0 -0.0033623842689195476 0.0009922146715437459 0 -0.0033696623390266087 0.00095928876540228624 0 -0.0036055609073942368 0.0010251037883862095 0 -0.0034761138859025634 0.00084442532656998155 0 -0.0033899121664808284 0.00099245140909654103 0 -0.0033701775818726957 0.0010434364518316726 0 -0.00337283663047143 0.0010025590424460188 0 -0.0033568456399368377 0.001007698080741162 0 -0.0033623621539574044 0.0010168148002565071 0 -0.0033623842689195476 0.0009922146715437459 0 -0.0033609251298672765 0.0010267729987918281 0 -0.00337283663047143 0.0010025590424460188 0 -0.0033623842689195476 0.0009922146715437459 0 -0.0033558379974223135 0.0010538765152555681 0 -0.0033533286085124648 0.00099596296033668688 0 -0.0033623842689195476 0.0009922146715437459 0 -0.0033799887468664086 0.00096914462416048525 0 -0.0033696623390266087 0.00095928876540228624 0 -0.0033899121664808284 0.00099245140909654103 0 -0.00337283663047143 0.0010025590424460188 0 -0.0033799887468664086 0.00096914462416048525 0 -0.00337283663047143 0.0010025590424460188 0 -0.0033623842689195476 0.0009922146715437459 0 -0.0033799887468664086 0.00096914462416048525 0 -0.004047479081916109 0.0010788518696185452 0 -0.0039777556219410008 0.0010026682419695897 0 -0.0039730212074648519 0.001092864993786449 0 -0.0036050633330232782 0.00075270152688885019 0 -0.0036324934892285558 0.00077377965230865104 0 -0.0036112675422593724 0.00078968683450419226 0 -0.0036055609073942368 0.0010251037883862095 0 -0.0038273101691118768 0.00088957021123934081 0 -0.0039821793360291392 0.0011826579311977057 0 -0.0039730212074648519 0.001092864993786449 0 -0.0040080654539129349 0.0011301543345321628 0 -0.004047479081916109 0.0010788518696185452 0 -0.0039730212074648519 0.001092864993786449 0 -0.0040080654539129349 0.0011301543345321628 0 -0.0040281517177721887 0.0011671413464154339 0 -0.004047479081916109 0.0010788518696185452 0 -0.0040080654539129349 0.0011301543345321628 0 -0.0039821793360291392 0.0011826579311977057 0 -0.0039730212074648519 0.001092864993786449 0 -0.0039331280577353141 0.0011256791949240874 0 -0.0039730212074648519 0.001092864993786449 0 -0.0039331280577353141 0.0011256791949240874 0 -0.0039108054438277452 0.0010429818199200686 0 -0.0039145015712397308 0.0011851063528084704 0 -0.0039331280577353141 0.0011256791949240874 0 -0.003870544649107085 0.0010901430953405111 0 -0.0039331280577353141 0.0011256791949240874 0 -0.003870544649107085 0.0010901430953405111 0 -0.0039108054438277452 0.0010429818199200686 0 -0.003870544649107085 0.0010901430953405111 0 -0.0038293742257351601 0.00099756172716480287 0 -0.0039108054438277452 0.0010429818199200686 0 -0.003870544649107085 0.0010901430953405111 0 -0.0038293742257351601 0.00099756172716480287 0 -0.0038087342981956407 0.0010324881652648442 0 -0.0039777556219410008 0.0010026682419695897 0 -0.0039730212074648519 0.001092864993786449 0 -0.0039108054438277452 0.0010429818199200686 0 -0.0038273101691118768 0.00088957021123934081 0 -0.0037823412370097346 0.00086659366885992527 0 -0.0036324934892285558 0.00077377965230865104 0 -0.0036778317591945478 0.00079957245187007794 0 -0.0036391837071418579 0.00081089235768577674 0 -0.0039777556219410008 0.0010026682419695897 0 -0.0039108054438277452 0.0010429818199200686 0 -0.0038935781636093886 0.00092932940808056956 0 -0.0038293742257351601 0.00099756172716480287 0 -0.0039108054438277452 0.0010429818199200686 0 -0.0038935781636093886 0.00092932940808056956 0 -0.0038293742257351601 0.00099756172716480287 0 -0.0038935781636093886 0.00092932940808056956 0 -0.0037895918725080863 0.00091836687087026175 0 -0.0038935781636093886 0.00092932940808056956 0 -0.0037895918725080863 0.00091836687087026175 0 -0.0037601448032557995 0.00086444165343875392 0 -0.0037823412370097346 0.00086659366885992527 0 -0.0037681755833423791 0.00086534609770103565 0 -0.0036778317591945478 0.00079957245187007794 0 -0.0037601448032557995 0.00086444165343875392 0 -0.0036617987553876088 0.00085488548809578536 0 -0.0036778317591945478 0.00079957245187007794 0 -0.0036617987553876088 0.00085488548809578536 0 -0.0036391837071418579 0.00081089235768577674 0 -0.0036174887822795912 0.0008492060289437051 0 -0.0036391837071418579 0.00081089235768577674 0 -0.0036112675422593724 0.00078968683450419226 0 -0.0034029182793850659 0.00093408384562627803 0 -0.0033874029212862737 0.00094552679950440899 0 -0.0033696623390266087 0.00095928876540228624 0 -0.0035130612056094423 0.00090081263356024178 0 -0.0034761138859025634 0.00084442532656998155 0 -0.0036617987553876088 0.00085488548809578536 0 -0.0036174887822795912 0.0008492060289437051 0 -0.0036391837071418579 0.00081089235768577674 0 -0.0034029182793850659 0.00093408384562627803 0 -0.0033874029212862737 0.00094552679950440899 0 -0.0033979397374534382 0.00093591759745152649 0 -0.0033876845300510059 0.00094867873371894704 0 -0.0033874029212862737 0.00094552679950440899 0 -0.0033979397374534382 0.00093591759745152649 0 -0.0033876845300510059 0.00094867873371894704 0 -0.0033874029212862737 0.00094552679950440899 0 -0.0033799887468664086 0.00096914462416048525 0 -0.0033874029212862737 0.00094552679950440899 0 -0.0033799887468664086 0.00096914462416048525 0 -0.0033696623390266087 0.00095928876540228624 0 -0.0036324934892285558 0.00077377965230865104 0 -0.0036391837071418579 0.00081089235768577674 0 -0.0036112675422593724 0.00078968683450419226 0 -0.0036441292001433956 0.00095914565709999649 0 -0.0037173259143573668 0.0008199697241742834 0 -0.0035557370636129597 0.00084665809225951776 0 -0.0037196134953457055 0.0010904833217204597 0 -0.0036064937130306359 0.0010763978621825222 0 -0.0036441292001433956 0.00095914565709999649 0 -0.0037196134953457055 0.0010904833217204597 0 -0.0036441292001433956 0.00095914565709999649 0 -0.0037934831941222697 0.0010229596971394811 0 -0.0036441292001433956 0.00095914565709999649 0 -0.0037934831941222697 0.0010229596971394811 0 -0.0037173259143573668 0.0008199697241742834 0 -0.0037934831941222697 0.0010229596971394811 0 -0.0039604926668683812 0.00077345754761253362 0 -0.0037173259143573668 0.0008199697241742834 0 -0.0037934831941222697 0.0010229596971394811 0 -0.0038087342981956407 0.0010324881652648442 0 -0.0037561157407837767 0.00095628871444916293 0 -0.0037997393388370356 0.0010095780932936787 0 -0.0038583694700707032 0.0008614542301041484 0 -0.0038184766224435324 0.0011133997005485449 0 -0.0037934831941222697 0.0010229596971394811 0 -0.0038087342981956407 0.0010324881652648442 0 -0.0038184766224435324 0.0011133997005485449 0 -0.0037196134953457055 0.0010904833217204597 0 -0.0037934831941222697 0.0010229596971394811 0 -0.0038184766224435324 0.0011133997005485449 0 -0.003870544649107085 0.0010901430953405111 0 -0.0038087342981956407 0.0010324881652648442 0 -0.0038184766224435324 0.0011133997005485449 0 -0.0038668760536100018 0.0011502781203410228 0 -0.003870544649107085 0.0010901430953405111 0 -0.0038293742257351601 0.00099756172716480287 0 -0.0038087342981956407 0.0010324881652648442 0 -0.0037561157407837767 0.00095628871444916293 0 -0.0038293742257351601 0.00099756172716480287 0 -0.0037895918725080863 0.00091836687087026175 0 -0.0037561157407837767 0.00095628871444916293 0 -0.0037895918725080863 0.00091836687087026175 0 -0.0037601448032557995 0.00086444165343875392 0 -0.0037480234796389558 0.00086369386049488087 0 -0.0038583694700707032 0.0008614542301041484 0 -0.0039156577572854821 0.00069284420178916423 0 -0.0037895918725080863 0.00091836687087026175 0 -0.0037561157407837767 0.00095628871444916293 0 -0.0037480234796389558 0.00086369386049488087 0 -0.0039604926668683812 0.00077345754761253362 0 -0.0039016830983887416 0.00052442793064754769 0 -0.0040828353824874887 0.00052277477029651423 0 -0.0039604926668683812 0.00077345754761253362 0 -0.0037857001297597337 0.00065511087064373764 0 -0.0039016830983887416 0.00052442793064754769 0 -0.0039604926668683812 0.00077345754761253362 0 -0.0037173259143573668 0.0008199697241742834 0 -0.0037857001297597337 0.00065511087064373764 0 -0.0037857001297597337 0.00065511087064373764 0 -0.0037402214062942619 0.0004917674685961783 0 -0.0039016830983887416 0.00052442793064754769 0 -0.0037857001297597337 0.00065511087064373764 0 -0.0036034893322902314 0.00064377716622931699 0 -0.0037402214062942619 0.0004917674685961783 0 -0.0037173259143573668 0.0008199697241742834 0 -0.0037857001297597337 0.00065511087064373764 0 -0.0036034893322902314 0.00064377716622931699 0 -0.0037173259143573668 0.0008199697241742834 0 -0.0036034893322902314 0.00064377716622931699 0 -0.0035557370636129597 0.00084665809225951776 0 -0.0037082286579277388 0.00030422166854318883 0 -0.0036114966039584068 0.0004495452053816039 0 -0.0035624101389071842 0.00030299906436196333 0 -0.0036034893322902314 0.00064377716622931699 0 -0.0036114966039584068 0.0004495452053816039 0 -0.0037402214062942619 0.0004917674685961783 0 -0.0037082286579277388 0.00030422166854318883 0 -0.0036114966039584068 0.0004495452053816039 0 -0.0037402214062942619 0.0004917674685961783 0 -0.0037402214062942619 0.0004917674685961783 0 -0.003843403879409399 0.00036690663167440822 0 -0.0039016830983887416 0.00052442793064754769 0 -0.0037082286579277388 0.00030422166854318883 0 -0.003843403879409399 0.00036690663167440822 0 -0.0038472636263826615 0.00016992590790090026 0 -0.0037082286579277388 0.00030422166854318883 0 -0.0037402214062942619 0.0004917674685961783 0 -0.003843403879409399 0.00036690663167440822 0 -0.003843403879409399 0.00036690663167440822 0 -0.0040060548316821192 0.00034086144845959615 0 -0.0038472636263826615 0.00016992590790090026 0 -0.0040060548316821192 0.00034086144845959615 0 -0.0039016830983887416 0.00052442793064754769 0 -0.0040828353824874887 0.00052277477029651423 0 -0.003843403879409399 0.00036690663167440822 0 -0.0040060548316821192 0.00034086144845959615 0 -0.0039016830983887416 0.00052442793064754769 0 -0.0037480234796389558 0.00086369386049488087 0 -0.0037192834329359851 0.00087885975555641773 0 -0.0036903788038472967 0.00091124883596181011 0 -0.0037601448032557995 0.00086444165343875392 0 -0.0037480234796389558 0.00086369386049488087 0 -0.0037192834329359851 0.00087885975555641773 0 -0.0039156577572854821 0.00069284420178916423 0 -0.0039434948765352772 0.00057840501878963179 0 -0.0040060548316821192 0.00034086144845959615 0 -0.0040259615991326053 0.0001358301739876886 0 -0.0041977774623042034 0.00025701204067068555 0 -0.0040060548316821192 0.00034086144845959615 0 -0.0040828353824874887 0.00052277477029651423 0 -0.0041977774623042034 0.00025701204067068555 0 -0.0040259615991326053 0.0001358301739876886 0 -0.0041977774623042034 0.00025701204067068555 0 -0.0043110121352721385 -7.6102782454239771e-05 0 -0.0041001379774539323 -0.00010379833260267402 0 -0.0043110121352721385 -7.6102782454239771e-05 0 -0.0041298311892961886 -0.00030535075979412651 0 -0.0040259615991326053 0.0001358301739876886 0 -0.0041001379774539323 -0.00010379833260267402 0 -0.0043110121352721385 -7.6102782454239771e-05 0 -0.0040259615991326053 0.0001358301739876886 0 -0.0041001379774539323 -0.00010379833260267402 0 -0.0038863548244481524 -0.00016686055732607484 0 -0.0040203685906338195 0.00012138925197373384 0 -0.0039092937188774639 -9.2868001095145329e-05 0 -0.0040060548316821192 0.00034086144845959615 0 -0.0040259615991326053 0.0001358301739876886 0 -0.0038472636263826615 0.00016992590790090026 0 -0.0040259615991326053 0.0001358301739876886 0 -0.0039235197331476479 -2.9271955191816646e-05 0 -0.0038472636263826615 0.00016992590790090026 0 -0.0038472636263826615 0.00016992590790090026 0 -0.0037695800786473905 -1.0937198630167382e-05 0 -0.0036746634120324883 0.00013584040868490791 0 -0.0039235197331476479 -2.9271955191816646e-05 0 -0.0038472636263826615 0.00016992590790090026 0 -0.0037695800786473905 -1.0937198630167382e-05 0 -0.0037695800786473905 -1.0937198630167382e-05 0 -0.0036746634120324883 0.00013584040868490791 0 -0.0036180564501994777 -8.4584861741776409e-05 0 -0.0037082286579277388 0.00030422166854318883 0 -0.0038472636263826615 0.00016992590790090026 0 -0.0036746634120324883 0.00013584040868490791 0 -0.0037082286579277388 0.00030422166854318883 0 -0.0036746634120324883 0.00013584040868490791 0 -0.0035624101389071842 0.00030299906436196333 0 -0.0034521145824303909 0.00093112791799904247 0 -0.0034177036985958663 0.00094600123648593611 0 -0.0034291119733538245 0.00096487015130833538 0 -0.0033908563697790661 0.00095635497845724781 0 -0.0034177036985958663 0.00094600123648593611 0 -0.0033979397374534382 0.00093591759745152649 0 -0.0034521145824303909 0.00093112791799904247 0 -0.0034177036985958663 0.00094600123648593611 0 -0.0033979397374534382 0.00093591759745152649 0 -0.0033908563697790661 0.00095635497845724781 0 -0.0034177036985958663 0.00094600123648593611 0 -0.0034291119733538245 0.00096487015130833538 0 -0.0034029182793850659 0.00093408384562627803 0 -0.0034521145824303909 0.00093112791799904247 0 -0.0033979397374534382 0.00093591759745152649 0 -0.0035130612056094423 0.00090081263356024178 0 -0.0035317969932215829 0.00091878692284560397 0 -0.0036617987553876088 0.00085488548809578536 0 -0.0036174887822795912 0.0008492060289437051 0 -0.0036102840426784828 0.0008938160920237188 0 -0.0036617987553876088 0.00085488548809578536 0 -0.0036102840426784828 0.0008938160920237188 0 -0.0036788420907223084 0.00088733325668044949 0 -0.0037601448032557995 0.00086444165343875392 0 -0.0036788420907223084 0.00088733325668044949 0 -0.0037192834329359851 0.00087885975555641773 0 -0.0037601448032557995 0.00086444165343875392 0 -0.0036617987553876088 0.00085488548809578536 0 -0.0036788420907223084 0.00088733325668044949 0 -0.0036788420907223084 0.00088733325668044949 0 -0.0037192834329359851 0.00087885975555641773 0 -0.0036903788038472967 0.00091124883596181011 0 -0.0036788420907223084 0.00088733325668044949 0 -0.0036903788038472967 0.00091124883596181011 0 -0.0036507251050262209 0.00090439689518120999 0 -0.0036102840426784828 0.0008938160920237188 0 -0.0036507251050262209 0.00090439689518120999 0 -0.0036229029764285963 0.00092508807566602706 0 -0.0036102840426784828 0.0008938160920237188 0 -0.0036788420907223084 0.00088733325668044949 0 -0.0036507251050262209 0.00090439689518120999 0 -0.0036229029764285963 0.00092508807566602706 0 -0.0035503735394906547 0.00096204842190480326 0 -0.0035160444696737854 0.001025899674284067 0 -0.0036005732098604616 0.00092435696560435785 0 -0.0035258418724655586 0.00094291278730857517 0 -0.0036102840426784828 0.0008938160920237188 0 -0.0036229029764285963 0.00092508807566602706 0 -0.0035503735394906547 0.00096204842190480326 0 -0.0039434948765352772 0.00057840501878963179 0 -0.0039573995446253807 0.00042273451105416618 0 -0.0036903788038472967 0.00091124883596181011 0 -0.0036507251050262209 0.00090439689518120999 0 -0.0036229029764285963 0.00092508807566602706 0 -0.0036903788038472967 0.00091124883596181011 0 -0.0036229029764285963 0.00092508807566602706 0 -0.0036060957750115555 0.00091852612930272621 0 -0.0036060957750115555 0.00091852612930272621 0 -0.0035975886584669985 0.0008993608243811781 0 -0.003594729654819519 0.00092318509074019181 0 -0.0036229029764285963 0.00092508807566602706 0 -0.0035975886584669985 0.0008993608243811781 0 -0.0035339628222413864 0.00084755432807427243 0 -0.0036229029764285963 0.00092508807566602706 0 -0.0036060957750115555 0.00091852612930272621 0 -0.0035975886584669985 0.0008993608243811781 0 -0.0035975886584669985 0.0008993608243811781 0 -0.0035339628222413864 0.00084755432807427243 0 -0.003594729654819519 0.00092318509074019181 0 -0.0035339628222413864 0.00084755432807427243 0 -0.0034358007375769905 0.0009073551268589141 0 -0.003594729654819519 0.00092318509074019181 0 -0.0034584180041841422 0.0010280832518725473 0 -0.0035160444696737854 0.001025899674284067 0 -0.0034355117273874016 0.0010686232717295777 0 -0.0035339628222413864 0.00084755432807427243 0 -0.0032705886918608399 0.0009077199962899933 0 -0.0034358007375769905 0.0009073551268589141 0 -0.0035258418724655586 0.00094291278730857517 0 -0.003236654125624397 0.00089737429173350068 0 -0.0034584180041841422 0.0010280832518725473 0 -0.0035160444696737854 0.001025899674284067 0 -0.0034729176666530169 0.00097419093491095225 0 -0.0035317969932215829 0.00091878692284560397 0 -0.0035502761977315705 0.0009685376918038965 0 -0.0035503735394906547 0.00096204842190480326 0 -0.0035160444696737854 0.001025899674284067 0 -0.0034729176666530169 0.00097419093491095225 0 -0.0034521145824303909 0.00093112791799904247 0 -0.0035503735394906547 0.00096204842190480326 0 -0.0034729176666530169 0.00097419093491095225 0 -0.0034521145824303909 0.00093112791799904247 0 -0.0034729176666530169 0.00097419093491095225 0 -0.0034291119733538245 0.00096487015130833538 0 -0.0033908563697790661 0.00095635497845724781 0 -0.0034291119733538245 0.00096487015130833538 0 -0.0034041086084796311 0.00098451984476039781 0 -0.0034729176666530169 0.00097419093491095225 0 -0.0034291119733538245 0.00096487015130833538 0 -0.0034278660643701992 0.0010016653742233933 0 -0.0034291119733538245 0.00096487015130833538 0 -0.0034041086084796311 0.00098451984476039781 0 -0.0034278660643701992 0.0010016653742233933 0 -0.0033790290841400985 0.0010027680094349168 0 -0.0034041086084796311 0.00098451984476039781 0 -0.0034278660643701992 0.0010016653742233933 0 -0.0026885825542147506 0.00051876828036543754 0 -0.0027890038513975163 0.00069546024088847623 0 -0.0030354307914871848 0.00077742751281726719 0 -0.0033790290841400985 0.0010027680094349168 0 -0.0034238748761788039 0.0010253389990871426 0 -0.0034278660643701992 0.0010016653742233933 0 -0.0031759671169582422 0.00074103310246736163 0 -0.003236654125624397 0.00089737429173350068 0 -0.0033790290841400985 0.0010027680094349168 0 -0.0034238748761788039 0.0010253389990871426 0 -0.0034355117273874016 0.0010686232717295777 0 -0.0034584180041841422 0.0010280832518725473 0 -0.0034729176666530169 0.00097419093491095225 0 -0.0034278660643701992 0.0010016653742233933 0 -0.0034584180041841422 0.0010280832518725473 0 -0.0034238748761788039 0.0010253389990871426 0 -0.0034278660643701992 0.0010016653742233933 0 -0.0034584180041841422 0.0010280832518725473 0 -0.0034238748761788039 0.0010253389990871426 0 -0.0034355117273874016 0.0010686232717295777 0 -0.0027890038513975163 0.00069546024088847623 0 -0.0028599016741080096 0.00082449899437323881 0 -0.0030354307914871848 0.00077742751281726719 0 -0.0028599016741080096 0.00082449899437323881 0 -0.0030354307914871848 0.00077742751281726719 0 -0.0027090356201540664 0.0010422122644621798 0 -0.0031937840497142807 0.00084685894878897157 0 -0.0032036021557647308 0.0010024756114158186 0 -0.0030679203598267006 0.001063004624233745 0 -0.003236654125624397 0.00089737429173350068 0 -0.0032753846559849921 0.00093090753428194423 0 -0.0031937840497142807 0.00084685894878897157 0 -0.0032036021557647308 0.0010024756114158186 0 -0.0033147204739982748 0.00097006008464218965 0 -0.0032036021557647308 0.0010024756114158186 0 -0.0032804840437678459 0.0011477498173053375 0 -0.0033147204739982748 0.00097006008464218965 0 -0.0032036021557647308 0.0010024756114158186 0 -0.0030679203598267006 0.001063004624233745 0 -0.0032804840437678459 0.0011477498173053375 0 -0.003236654125624397 0.00089737429173350068 0 -0.0027249725415765683 0.0010754323955760054 0 -0.0031937840497142807 0.00084685894878897157 0 -0.0030679203598267006 0.001063004624233745 0 -0.0027890908611442121 0.0010838322889365768 0 -0.0030679203598267006 0.001063004624233745 0 -0.0029975140485703393 0.0013550390407904198 0 -0.0027890908611442121 0.0010838322889365768 0 -0.0029975140485703393 0.0013550390407904198 0 -0.0034034704464492339 0.0013002788467915923 0 -0.0032804840437678459 0.0011477498173053375 0 -0.0029975140485703393 0.0013550390407904198 0 -0.0034034704464492339 0.0013002788467915923 0 -0.0031066888624972015 0.0017812941110840854 0 -0.0030679203598267006 0.001063004624233745 0 -0.0029975140485703393 0.0013550390407904198 0 -0.0032804840437678459 0.0011477498173053375 0 -0.0034358007375769905 0.0009073551268589141 0 -0.0033147204739982748 0.00097006008464218965 0 -0.003594729654819519 0.00092318509074019181 0 -0.0035648089200154562 0.0010239894443928022 0 -0.0035893217109423973 0.00094854257399219993 0 -0.0032804840437678459 0.0011477498173053375 0 -0.0033147204739982748 0.00097006008464218965 0 -0.003594729654819519 0.00092318509074019181 0 -0.0034034704464492339 0.0013002788467915923 0 -0.0032804840437678459 0.0011477498173053375 0 -0.003594729654819519 0.00092318509074019181 0 -0.0032705886918608399 0.0009077199962899933 0 -0.0034358007375769905 0.0009073551268589141 0 -0.0033147204739982748 0.00097006008464218965 0 -0.0036971916713520094 0.00082196542254348395 0 -0.003594729654819519 0.00092318509074019181 0 -0.0035618815281769473 0.00085578852033297887 0 -0.0036060957750115555 0.00091852612930272621 0 -0.003594729654819519 0.00092318509074019181 0 -0.0035618815281769473 0.00085578852033297887 0 -0.0043110121352721385 -7.6102782454239771e-05 0 -0.004378711603664937 -0.00038410711180066249 0 -0.0041298311892961886 -0.00030535075979412651 0 -0.0039573995446253807 0.00042273451105416618 0 -0.0039768967347472654 0.00021881797694396675 0 -0.004378711603664937 -0.00038410711180066249 0 -0.0042506899528087904 -0.00060649247744021197 0 -0.0041294928332047528 -0.00050399311994379816 0 -0.004378711603664937 -0.00038410711180066249 0 -0.0041298311892961886 -0.00030535075979412651 0 -0.0041294928332047528 -0.00050399311994379816 0 -0.0036971916713520094 0.00082196542254348395 0 -0.0035618815281769473 0.00085578852033297887 0 -0.003613455320200304 0.00063338246312353002 0 -0.004378711603664937 -0.00038410711180066249 0 -0.0044374908105904972 -0.00064437837823843344 0 -0.0042506899528087904 -0.00060649247744021197 0 -0.0039768967347472654 0.00021881797694396675 0 -0.0040110375629108675 6.7877236014287541e-05 0 -0.0042506899528087904 -0.00060649247744021197 0 -0.0042445464748631125 -0.00079558110520357964 0 -0.0040672425336067469 -0.00069175331343343549 0 -0.0044374908105904972 -0.00064437837823843344 0 -0.0042445464748631125 -0.00079558110520357964 0 -0.0043920643136353323 -0.00082365926236517833 0 -0.0044374908105904972 -0.00064437837823843344 0 -0.0042506899528087904 -0.00060649247744021197 0 -0.0042445464748631125 -0.00079558110520357964 0 -0.0040110375629108675 6.7877236014287541e-05 0 -0.0041446594934128342 -0.00058761512131124988 0 -0.0044374908105904972 -0.00064437837823843344 0 -0.0045183769355691102 -0.00089779191451602454 0 -0.0043920643136353323 -0.00082365926236517833 0 -0.003613455320200304 0.00063338246312353002 0 -0.0037558342297346094 0.00053825172923315 0 -0.0036956071955889626 0.00038769649657709833 0 -0.003613455320200304 0.00063338246312353002 0 -0.0037558342297346094 0.00053825172923315 0 -0.0038045349336898551 0.00065468984236062404 0 -0.0033880063708425384 0.0013812344846592559 0 -0.0035205329266987094 0.00044059668747618153 0 -0.0037558342297346094 0.00053825172923315 0 -0.0038045349336898551 0.00065468984236062404 0 -0.0039117131982480619 0.00047505152042416138 0 -0.0031066888624972015 0.0017812941110840854 0 -0.0027523148731542031 0.0019750365772492153 0 -0.0028150224743748839 0.0022033688675541395 0 -0.0029975140485703393 0.0013550390407904198 0 -0.0031066888624972015 0.0017812941110840854 0 -0.0026256859797921437 0.001774828310721887 0 -0.0035648089200154562 0.0010239894443928022 0 -0.0033880063708425384 0.0013812344846592559 0 -0.0036971916713520094 0.00082196542254348395 0 -0.003613455320200304 0.00063338246312353002 0 -0.0038045349336898551 0.00065468984236062404 0 -0.0038237121373185814 -0.00022042517510556661 0 -0.0036108693218309396 -0.00025742197794544021 0 -0.0036180564501994777 -8.4584861741776409e-05 0 -0.0038237121373185814 -0.00022042517510556661 0 -0.0037178756165219613 -0.00042210389891860894 0 -0.0036108693218309396 -0.00025742197794544021 0 -0.0037695800786473905 -1.0937198630167382e-05 0 -0.0038237121373185814 -0.00022042517510556661 0 -0.0036180564501994777 -8.4584861741776409e-05 0 -0.0039235197331476479 -2.9271955191816646e-05 0 -0.0037695800786473905 -1.0937198630167382e-05 0 -0.0038237121373185814 -0.00022042517510556661 0 -0.0039092937188774639 -9.2868001095145329e-05 0 -0.0038109039574753902 -0.00032582929654368639 0 -0.0038109039574753902 -0.00032582929654368639 0 -0.0037161182253264949 -0.00051464052552747139 0 -0.0038863548244481524 -0.00016686055732607484 0 -0.0037936852657454688 -0.00042687301502053492 0 -0.0039817177300055561 -0.00049815809810009799 0 -0.0038863548244481524 -0.00016686055732607484 0 -0.0039817177300055561 -0.00049815809810009799 0 -0.0041298311892961886 -0.00030535075979412651 0 -0.0041001379774539323 -0.00010379833260267402 0 -0.0038863548244481524 -0.00016686055732607484 0 -0.0041298311892961886 -0.00030535075979412651 0 -0.0039817177300055561 -0.00049815809810009799 0 -0.0041298311892961886 -0.00030535075979412651 0 -0.0041294928332047528 -0.00050399311994379816 0 -0.0042506899528087904 -0.00060649247744021197 0 -0.0041294928332047528 -0.00050399311994379816 0 -0.0040672425336067469 -0.00069175331343343549 0 -0.0039817177300055561 -0.00049815809810009799 0 -0.0041294928332047528 -0.00050399311994379816 0 -0.0040672425336067469 -0.00069175331343343549 0 -0.0042445464748631125 -0.00079558110520357964 0 -0.0040672425336067469 -0.00069175331343343549 0 -0.0040807408204536211 -0.00091478988007254213 0 -0.0040672425336067469 -0.00069175331343343549 0 -0.0038978773806193916 -0.00069066906589617197 0 -0.0039190163466497462 -0.00090098117821037725 0 -0.0037936852657454688 -0.00042687301502053492 0 -0.0039817177300055561 -0.00049815809810009799 0 -0.0038978773806193916 -0.00069066906589617197 0 -0.0039817177300055561 -0.00049815809810009799 0 -0.0040672425336067469 -0.00069175331343343549 0 -0.0038978773806193916 -0.00069066906589617197 0 -0.0037936852657454688 -0.00042687301502053492 0 -0.0038978773806193916 -0.00069066906589617197 0 -0.0037369813768604347 -0.00065788681153602588 0 -0.0038978773806193916 -0.00069066906589617197 0 -0.0038371116991764375 -0.00082418425529032691 0 -0.0039190163466497462 -0.00090098117821037725 0 -0.0038978773806193916 -0.00069066906589617197 0 -0.0038371116991764375 -0.00082418425529032691 0 -0.0037369813768604347 -0.00065788681153602588 0 -0.0037161182253264949 -0.00051464052552747139 0 -0.0038131287914679847 -0.00089650762666234891 0 -0.0038371116991764375 -0.00082418425529032691 0 -0.0037369813768604347 -0.00065788681153602588 0 -0.0037906307622315402 -0.00086824920905304796 0 -0.0037369813768604347 -0.00065788681153602588 0 -0.0037906307622315402 -0.00086824920905304796 0 -0.0037026116377399249 -0.00085419534089744426 0 -0.0038613548500205743 -0.0009457137961948229 0 -0.0038456660485126186 -0.00097068731825484926 0 -0.0039458913554988855 -0.00090338074613600396 0 -0.0038613548500205743 -0.0009457137961948229 0 -0.0038456660485126186 -0.00097068731825484926 0 -0.0038314074806536165 -0.00093927338124792398 0 -0.0038487589523837564 -0.00100649521411881 0 -0.0038131287914679847 -0.00089650762666234891 0 -0.0038456660485126186 -0.00097068731825484926 0 -0.0037906307622315402 -0.00086824920905304796 0 -0.0037026116377399249 -0.00085419534089744426 0 -0.0038456660485126186 -0.00097068731825484926 0 -0.0037906307622315402 -0.00086824920905304796 0 -0.0038314074806536165 -0.00093927338124792398 0 -0.0038371116991764375 -0.00082418425529032691 0 -0.0038314074806536165 -0.00093927338124792398 0 -0.0039190163466497462 -0.00090098117821037725 0 -0.0038314074806536165 -0.00093927338124792398 0 -0.0038297939152971377 -0.00098049891275298388 0 -0.0039190163466497462 -0.00090098117821037725 0 -0.0038371116991764375 -0.00082418425529032691 0 -0.0037906307622315402 -0.00086824920905304796 0 -0.0038314074806536165 -0.00093927338124792398 0 -0.0038297939152971377 -0.00098049891275298388 0 -0.0039099359383162413 -0.0010401647877267179 0 -0.0039190163466497462 -0.00090098117821037725 0 -0.0038613548500205743 -0.0009457137961948229 0 -0.0038314074806536165 -0.00093927338124792398 0 -0.0038297939152971377 -0.00098049891275298388 0 -0.0039099359383162413 -0.0010401647877267179 0 -0.0039190163466497462 -0.00090098117821037725 0 -0.0040005446455807199 -0.0010200477929684837 0 -0.0039190163466497462 -0.00090098117821037725 0 -0.0040807408204536211 -0.00091478988007254213 0 -0.0040005446455807199 -0.0010200477929684837 0 -0.0040672425336067469 -0.00069175331343343549 0 -0.0039190163466497462 -0.00090098117821037725 0 -0.0040807408204536211 -0.00091478988007254213 0 -0.0040807408204536211 -0.00091478988007254213 0 -0.0040005446455807199 -0.0010200477929684837 0 -0.0041066562633719139 -0.0010465245318091539 0 -0.0040005446455807199 -0.0010200477929684837 0 -0.0041066562633719139 -0.0010465245318091539 0 -0.0040424724856827129 -0.0011288140151168658 0 -0.0040005446455807199 -0.0010200477929684837 0 -0.0040424724856827129 -0.0011288140151168658 0 -0.0039301388599112998 -0.0011422130269966341 0 -0.0040424724856827129 -0.0011288140151168658 0 -0.0039968110076875549 -0.0012304837076199703 0 -0.0039301388599112998 -0.0011422130269966341 0 -0.0041066562633719139 -0.0010465245318091539 0 -0.0040424724856827129 -0.0011288140151168658 0 -0.0041404623777772306 -0.0011357768628289396 0 -0.0040424724856827129 -0.0011288140151168658 0 -0.0041404623777772306 -0.0011357768628289396 0 -0.0041075761490168075 -0.0012072746921885373 0 -0.0040424724856827129 -0.0011288140151168658 0 -0.0039968110076875549 -0.0012304837076199703 0 -0.0041075761490168075 -0.0012072746921885373 0 -0.0038484312622771343 -0.0015270184309546125 0 -0.0037837892823059179 -0.0014152842240751115 0 -0.003798839913439358 -0.0015342942311525653 0 -0.0041061468290290309 -0.0013098472967276995 0 -0.0039968110076875549 -0.0012304837076199703 0 -0.0037837892823059179 -0.0014152842240751115 0 -0.0039090530668603775 -0.0014122512137104267 0 -0.003804889371291721 -0.0014109565239354724 0 -0.0041061468290290309 -0.0013098472967276995 0 -0.0039968110076875549 -0.0012304837076199703 0 -0.0041075761490168075 -0.0012072746921885373 0 -0.0039807929477186903 -0.0012469762065352216 0 -0.0037944991856536155 -0.00132857528842297 0 -0.0039968110076875549 -0.0012304837076199703 0 -0.0038849122632757284 -0.0012413195073880392 0 -0.0039301388599112998 -0.0011422130269966341 0 -0.0039968110076875549 -0.0012304837076199703 0 -0.0037837892823059179 -0.0014152842240751115 0 -0.0036507715455815211 -0.0014367627541578612 0 -0.0037837892823059179 -0.0014152842240751115 0 -0.003688157299536417 -0.0015013964901475201 0 -0.0037437501794304671 -0.0015236206513920239 0 -0.0037837892823059179 -0.0014152842240751115 0 -0.0036507715455815211 -0.0014367627541578612 0 -0.003688157299536417 -0.0015013964901475201 0 -0.0038849122632757284 -0.0012413195073880392 0 -0.0039301388599112998 -0.0011422130269966341 0 -0.003832818382423974 -0.0011389567344042644 0 -0.0039099359383162413 -0.0010401647877267179 0 -0.0040005446455807199 -0.0010200477929684837 0 -0.0039301388599112998 -0.0011422130269966341 0 -0.0039099359383162413 -0.0010401647877267179 0 -0.0039301388599112998 -0.0011422130269966341 0 -0.003832818382423974 -0.0011389567344042644 0 -0.003832818382423974 -0.0011389567344042644 0 -0.0037899142924897292 -0.0012070665589852419 0 -0.0037022988552956244 -0.0011653343541008774 0 -0.0038297939152971377 -0.00098049891275298388 0 -0.0039099359383162413 -0.0010401647877267179 0 -0.003832818382423974 -0.0011389567344042644 0 -0.0038297939152971377 -0.00098049891275298388 0 -0.003832818382423974 -0.0011389567344042644 0 -0.0037022988552956244 -0.0011653343541008774 0 -0.0036507715455815211 -0.0014367627541578612 0 -0.0035546150574922129 -0.0015203934490722892 0 -0.0036193852767077038 -0.0015297360926085067 0 -0.0038849122632757284 -0.0012413195073880392 0 -0.0037899142924897292 -0.0012070665589852419 0 -0.0037375779362211 -0.0012803069328330644 0 -0.0037944991856536155 -0.00132857528842297 0 -0.0035833804942836289 -0.0014209496798200188 0 -0.0038849122632757284 -0.0012413195073880392 0 -0.003832818382423974 -0.0011389567344042644 0 -0.0037899142924897292 -0.0012070665589852419 0 -0.0036507715455815211 -0.0014367627541578612 0 -0.0036193852767077038 -0.0015297360926085067 0 -0.003688157299536417 -0.0015013964901475201 0 -0.0037899142924897292 -0.0012070665589852419 0 -0.0037375779362211 -0.0012803069328330644 0 -0.0037022988552956244 -0.0011653343541008774 0 -0.0037375779362211 -0.0012803069328330644 0 -0.0037022988552956244 -0.0011653343541008774 0 -0.0035992714512170947 -0.0013170464690007678 0 -0.0038613548500205743 -0.0009457137961948229 0 -0.0038297939152971377 -0.00098049891275298388 0 -0.0038872823744872408 -0.00081598603764220597 0 -0.0038200030711742954 -0.00099622967056380517 0 -0.0038061973717208662 -0.00093857115134676143 0 -0.0038613548500205743 -0.0009457137961948229 0 -0.0038872823744872408 -0.00081598603764220597 0 -0.0039458913554988855 -0.00090338074613600396 0 -0.0042943420381960111 -0.0010507149462295245 0 -0.0042673425494378541 -0.0010395921143816879 0 -0.0042565342546650141 -0.0010752993619386278 0 -0.0042943420381960111 -0.0010507149462295245 0 -0.0042565342546650141 -0.0010752993619386278 0 -0.0042965722457588848 -0.0011156982666777745 0 -0.004338336014620592 -0.0010803536775350149 0 -0.0043356432449153815 -0.001029128851947356 0 -0.0044047038783914614 -0.001042694089732545 0 -0.0042943420381960111 -0.0010507149462295245 0 -0.004338336014620592 -0.0010803536775350149 0 -0.0042965722457588848 -0.0011156982666777745 0 -0.0042943420381960111 -0.0010507149462295245 0 -0.004338336014620592 -0.0010803536775350149 0 -0.0043356432449153815 -0.001029128851947356 0 -0.0043356432449153815 -0.001029128851947356 0 -0.0042731760071920456 -0.0010031534699684137 0 -0.0043612904083362184 -0.00096251658470017647 0 -0.0041446594934128342 -0.00058761512131124988 0 -0.0035205329266987094 0.00044059668747618153 0 -0.0037558342297346094 0.00053825172923315 0 -0.0036956071955889626 0.00038769649657709833 0 -0.0039117131982480619 0.00047505152042416138 0 -0.0042943420381960111 -0.0010507149462295245 0 -0.0043356432449153815 -0.001029128851947356 0 -0.0042731760071920456 -0.0010031534699684137 0 -0.0042943420381960111 -0.0010507149462295245 0 -0.0042673425494378541 -0.0010395921143816879 0 -0.0042824889381955361 -0.0010111986577978976 0 -0.004325040888185608 -0.0011168422725012733 0 -0.0041446594934128342 -0.00058761512131124988 0 -0.0041446594934128342 -0.00058761512131124988 0 -0.0043109985741648909 -0.00097571306555396765 0 -0.0042673425494378541 -0.0010395921143816879 0 -0.0042824889381955361 -0.0010111986577978976 0 -0.0042337655930115752 -0.0010227555129964721 0 -0.0042445464748631125 -0.00079558110520357964 0 -0.0043920643136353323 -0.00082365926236517833 0 -0.0043665278747324907 -0.00095715695916217766 0 -0.0045183769355691102 -0.00089779191451602454 0 -0.0043920643136353323 -0.00082365926236517833 0 -0.0043665278747324907 -0.00095715695916217766 0 -0.0042445464748631125 -0.00079558110520357964 0 -0.0040807408204536211 -0.00091478988007254213 0 -0.0041862426122409062 -0.0010153344759598869 0 -0.0042445464748631125 -0.00079558110520357964 0 -0.0043665278747324907 -0.00095715695916217766 0 -0.0041862426122409062 -0.0010153344759598869 0 -0.0041066562633719139 -0.0010465245318091539 0 -0.0041862426122409062 -0.0010153344759598869 0 -0.0042050056193227514 -0.0010909465273387805 0 -0.0040807408204536211 -0.00091478988007254213 0 -0.0041066562633719139 -0.0010465245318091539 0 -0.0041862426122409062 -0.0010153344759598869 0 -0.0042337655930115752 -0.0010227555129964721 0 -0.0041862426122409062 -0.0010153344759598869 0 -0.0042050056193227514 -0.0010909465273387805 0 -0.0042337655930115752 -0.0010227555129964721 0 -0.0042565342546650141 -0.0010752993619386278 0 -0.0042050056193227514 -0.0010909465273387805 0 -0.0042673425494378541 -0.0010395921143816879 0 -0.0042337655930115752 -0.0010227555129964721 0 -0.0042565342546650141 -0.0010752993619386278 0 -0.0043109985741648909 -0.00097571306555396765 0 -0.0041951727457730991 -0.0010175317331439578 0 -0.0042565342546650141 -0.0010752993619386278 0 -0.0042499120458435839 -0.0011380628795349126 0 -0.0042050056193227514 -0.0010909465273387805 0 -0.0042499120458435839 -0.0011380628795349126 0 -0.0042050056193227514 -0.0010909465273387805 0 -0.0041925399083230404 -0.0011904811446561551 0 -0.0042499120458435839 -0.0011380628795349126 0 -0.0041925399083230404 -0.0011904811446561551 0 -0.004269060623208764 -0.0011924303435889767 0 -0.0041066562633719139 -0.0010465245318091539 0 -0.0042050056193227514 -0.0010909465273387805 0 -0.0041404623777772306 -0.0011357768628289396 0 -0.0042050056193227514 -0.0010909465273387805 0 -0.0041404623777772306 -0.0011357768628289396 0 -0.0041925399083230404 -0.0011904811446561551 0 -0.0041404623777772306 -0.0011357768628289396 0 -0.0041075761490168075 -0.0012072746921885373 0 -0.0041925399083230404 -0.0011904811446561551 0 -0.0039090530668603775 -0.0014122512137104267 0 -0.0043097569678931576 -0.0014206256160916109 0 -0.0041061468290290309 -0.0013098472967276995 0 -0.0041075761490168075 -0.0012072746921885373 0 -0.0041925399083230404 -0.0011904811446561551 0 -0.0041061468290290309 -0.0013098472967276995 0 -0.0041925399083230404 -0.0011904811446561551 0 -0.0042096965816103326 -0.0012736659764508631 0 -0.0041925399083230404 -0.0011904811446561551 0 -0.004269060623208764 -0.0011924303435889767 0 -0.0042096965816103326 -0.0012736659764508631 0 -0.004269060623208764 -0.0011924303435889767 0 -0.0042869459992085444 -0.0012751094100584566 0 -0.0042096965816103326 -0.0012736659764508631 0 -0.004269060623208764 -0.0011924303435889767 0 -0.0043509387110921283 -0.0011542086704343054 0 -0.0042869459992085444 -0.0012751094100584566 0 -0.0042499120458435839 -0.0011380628795349126 0 -0.004269060623208764 -0.0011924303435889767 0 -0.0042965722457588848 -0.0011156982666777745 0 -0.004269060623208764 -0.0011924303435889767 0 -0.0042965722457588848 -0.0011156982666777745 0 -0.0043509387110921283 -0.0011542086704343054 0 -0.0042565342546650141 -0.0010752993619386278 0 -0.0042499120458435839 -0.0011380628795349126 0 -0.0042965722457588848 -0.0011156982666777745 0 -0.004338336014620592 -0.0010803536775350149 0 -0.0042965722457588848 -0.0011156982666777745 0 -0.0043509387110921283 -0.0011542086704343054 0 -0.002370154052729142 -0.001639895152840941 0 -0.0023578794897680571 -0.0017981988816529579 0 -0.0024853415331253194 -0.0017163937739360132 0 -0.0023578794897680571 -0.0017981988816529579 0 -0.0024853415331253194 -0.0017163937739360132 0 -0.0023774003478565582 -0.0019331700587498608 0 -0.002370154052729142 -0.001639895152840941 0 -0.0023578794897680571 -0.0017981988816529579 0 -0.0022008143147839703 -0.0019022151148995676 0 -0.0034948464477707192 -0.0013307159420910949 0 -0.0028302024933539709 -0.0018734980085388766 0 -0.0013672479767384597 -0.0027145357684846189 0 -0.0013539550320454921 -0.0026842588561723532 0 -0.0013307133226060047 -0.0027319503003763366 0 -0.0013672479767384597 -0.0027145357684846189 0 -0.0013539550320454921 -0.0026842588561723532 0 -0.001396902222828706 -0.0027086220530929826 0 -0.001957536973905587 -0.0021563641831602513 0 -0.001540593069628216 -0.0023595173693097262 0 -0.0013539550320454921 -0.0026842588561723532 0 -0.001396902222828706 -0.0027086220530929826 0 -0.0013944616088907801 -0.0026784813193567372 0 -0.001396902222828706 -0.0027086220530929826 0 -0.0013944616088907801 -0.0026784813193567372 0 -0.001409789299653251 -0.0027081029529030286 0 -0.0013539550320454921 -0.0026842588561723532 0 -0.0013944616088907801 -0.0026784813193567372 0 -0.0013608587702259329 -0.002638103147356261 0 -0.0013944616088907801 -0.0026784813193567372 0 -0.0013608587702259329 -0.002638103147356261 0 -0.0013887910673816076 -0.0026307017070507084 0 -0.001957536973905587 -0.0021563641831602513 0 -0.0020022136323871128 -0.0022010926880070454 0 -0.002370154052729142 -0.001639895152840941 0 -0.0025030677931067342 -0.0015477750257885453 0 -0.0025467897711449177 -0.0013524230299268259 0 -0.0024853415331253194 -0.0017163937739360132 0 -0.0025030677931067342 -0.0015477750257885453 0 -0.0025949086340187606 -0.0014835516623130868 0 -0.002370154052729142 -0.001639895152840941 0 -0.0024853415331253194 -0.0017163937739360132 0 -0.0025030677931067342 -0.0015477750257885453 0 -0.004338336014620592 -0.0010803536775350149 0 -0.0043509387110921283 -0.0011542086704343054 0 -0.0044047038783914614 -0.001042694089732545 0 -0.0025030677931067342 -0.0015477750257885453 0 -0.0025467897711449177 -0.0013524230299268259 0 -0.0025828727041772798 -0.0014160470622302862 0 -0.0034948464477707192 -0.0013307159420910949 0 -0.0031263670857294952 -0.0011108416550556915 0 -0.0031263670857294952 -0.0011108416550556915 0 -0.0029282325325670658 -0.0011887151230292137 0 -0.0025030677931067342 -0.0015477750257885453 0 -0.0025949086340187606 -0.0014835516623130868 0 -0.0025828727041772798 -0.0014160470622302862 0 -0.0013608587702259329 -0.002638103147356261 0 -0.0013887910673816076 -0.0026307017070507084 0 -0.0013769988285269161 -0.0025600844108387209 0 -0.0020022136323871128 -0.0022010926880070454 0 -0.0013633135944960597 -0.00096353103813489899 0 -0.0013887910673816076 -0.0026307017070507084 0 -0.0013769988285269161 -0.0025600844108387209 0 -0.001407549392937871 -0.002599655333000848 0 -0.0025949086340187606 -0.0014835516623130868 0 -0.0025828727041772798 -0.0014160470622302862 0 -0.0027116293055466007 -0.0012119465474417458 0 -0.0025369569808736006 -0.001339889088534317 0 -0.0025828727041772798 -0.0014160470622302862 0 -0.0027116293055466007 -0.0012119465474417458 0 -0.0025369569808736006 -0.001339889088534317 0 -0.0027116293055466007 -0.0012119465474417458 0 -0.0026523875509128049 -0.0011509261660911927 0 -0.0029390156054219601 -0.00026436280834785602 0 -0.0031779340344639229 9.3528593906143316e-05 0 -0.0029603445838393143 0.0003119539445965954 0 -0.0031263670857294952 -0.0011108416550556915 0 -0.0021687359251438046 0.00021036160582736446 0 -0.00063164285713100449 -0.00093497753948000529 0 -0.00064413835318157041 -0.00090952299518789472 0 -0.00071635319095180816 -0.0010324817619396655 0 -0.0013633135944960597 -0.00096353103813489899 0 -0.0021687359251438046 0.00021036160582736446 0 -0.0015612749916254054 8.7555618139449184e-05 0 -0.0015765328650161124 0.00011940955447069686 0 -0.0015074680118030812 0.00014431346054700816 0 -0.0013633135944960597 -0.00096353103813489899 0 -0.00077282098964180613 -2.1407148744647035e-05 0 -0.00077282098964180613 -2.1407148744647035e-05 0 -0.0017683355365494585 0.0011867870533728317 0 -0.0015765328650161124 0.00011940955447069686 0 -0.0015343252326815377 0.00018481648120738679 0 -0.0015074680118030812 0.00014431346054700816 0 -0.0017683355365494585 0.0011867870533728317 0 -0.0021687359251438046 0.00021036160582736446 0 -0.0029390156054219601 -0.00026436280834785602 0 -0.0029603445838393143 0.0003119539445965954 0 -0.0026685190016160227 0.00020242597281627206 0 -0.0043356432449153815 -0.001029128851947356 0 -0.0044047038783914614 -0.001042694089732545 0 -0.0043612904083362184 -0.00096251658470017647 0 -0.0031263670857294952 -0.0011108416550556915 0 -0.0035205329266987094 0.00044059668747618153 0 0.001460657436035848 -0.00016294539266853159 0 0.001357780031655687 -0.00013429487972328803 0 0.0013861570324400748 -0.00024580397807339788 0 0.001357780031655687 -0.00013429487972328803 0 0.0013861570324400748 -0.00024580397807339788 0 0.0013013521653788352 -0.00019193255701298906 0 0.001357780031655687 -0.00013429487972328803 0 0.0013273468127396411 -3.8109504004259101e-05 0 0.0014145673588974051 -4.851273714613634e-05 0 0.001460657436035848 -0.00016294539266853159 0 0.001357780031655687 -0.00013429487972328803 0 0.0014145673588974051 -4.851273714613634e-05 0 0.0016164758327801333 -0.00011630660950920401 0 0.0015162887483463163 -7.1208241172421945e-05 0 0.0015619975542900707 -0.00023172277787333973 0 0.001460657436035848 -0.00016294539266853159 0 0.0015162887483463163 -7.1208241172421945e-05 0 0.0015619975542900707 -0.00023172277787333973 0 0.001460657436035848 -0.00016294539266853159 0 0.0015162887483463163 -7.1208241172421945e-05 0 0.0014145673588974051 -4.851273714613634e-05 0 -0.00077282098964180613 -2.1407148744647035e-05 0 -0.0003345002743928819 -0.0013766913805089329 0 -0.0013633135944960597 -0.00096353103813489899 0 -0.0003345002743928819 -0.0013766913805089329 0 0.001460657436035848 -0.00016294539266853159 0 0.0015619975542900707 -0.00023172277787333973 0 0.0014544840511757343 -0.00028921883584857535 0 -0.0003345002743928819 -0.0013766913805089329 0 0.00035873512704354593 -0.0012199325355987153 0 0.0015619975542900707 -0.00023172277787333973 0 0.0014544840511757343 -0.00028921883584857535 0 0.0014500426770001698 -0.00046757236702219982 0 -0.0003345002743928819 -0.0013766913805089329 0 -0.0013447487913754599 -0.0026788922859350248 0 -0.001407549392937871 -0.002599655333000848 0 -0.0014188802443779744 -0.0026916595576486082 0 -0.0014034663667175516 -0.0026564997268703323 0 -0.0013887910673816076 -0.0026307017070507084 0 -0.001407549392937871 -0.002599655333000848 0 -0.0014034663667175516 -0.0026564997268703323 0 -0.00055219178828184361 -0.0017120518284019207 0 -0.0010407320780275765 -0.0021878749293302285 0 -0.00098992442376837119 -0.0023066103210762023 0 0.0014544840511757343 -0.00028921883584857535 0 0.001408285011135048 -0.00035874049703235101 0 0.0014500426770001698 -0.00046757236702219982 0 0.0014544840511757343 -0.00028921883584857535 0 0.0013861570324400748 -0.00024580397807339788 0 0.001408285011135048 -0.00035874049703235101 0 0.001460657436035848 -0.00016294539266853159 0 0.0014544840511757343 -0.00028921883584857535 0 0.0013861570324400748 -0.00024580397807339788 0 0.0013861570324400748 -0.00024580397807339788 0 0.0012848918328294827 -0.00027212135927307093 0 0.0013291630614097238 -0.00037677231033454408 0 0.0013861570324400748 -0.00024580397807339788 0 0.001408285011135048 -0.00035874049703235101 0 0.0013291630614097238 -0.00037677231033454408 0 0.001408285011135048 -0.00035874049703235101 0 0.001378908273092625 -0.00042158951665898224 0 0.0014500426770001698 -0.00046757236702219982 0 0.001408285011135048 -0.00035874049703235101 0 0.001378908273092625 -0.00042158951665898224 0 0.0013291630614097238 -0.00037677231033454408 0 0.0014500426770001698 -0.00046757236702219982 0 0.0013227475373642388 -0.00049107307445893974 0 0.001242983543050802 -0.00061813629360557413 0 0.00035873512704354593 -0.0012199325355987153 0 -0.00013349055072967112 -0.0017476166454941015 0 -0.0010407320780275765 -0.0021878749293302285 0 -0.00098992442376837119 -0.0023066103210762023 0 -0.0013889816836450549 -0.0025650168616098297 0 0.001378908273092625 -0.00042158951665898224 0 0.0013227475373642388 -0.00049107307445893974 0 0.0013291630614097238 -0.00037677231033454408 0 0.001378908273092625 -0.00042158951665898224 0 0.0014500426770001698 -0.00046757236702219982 0 0.0013227475373642388 -0.00049107307445893974 0 -0.0014188802443779744 -0.0026916595576486082 0 -0.0014104837906062232 -0.0026926056834206133 0 -0.0013986969858254296 -0.002695292972439354 0 -0.0014188802443779744 -0.0026916595576486082 0 -0.0014104837906062232 -0.0026926056834206133 0 -0.0014083793599032495 -0.0026816264664449785 0 -0.0013944616088907801 -0.0026784813193567372 0 -0.0013887910673816076 -0.0026307017070507084 0 -0.0014034663667175516 -0.0026564997268703323 0 -0.0013944616088907801 -0.0026784813193567372 0 -0.0014034663667175516 -0.0026564997268703323 0 -0.0014083793599032495 -0.0026816264664449785 0 -0.0014188802443779744 -0.0026916595576486082 0 -0.0014034663667175516 -0.0026564997268703323 0 -0.0014083793599032495 -0.0026816264664449785 0 -0.0014104837906062232 -0.0026926056834206133 0 -0.0014083793599032495 -0.0026816264664449785 0 -0.00140889422190317 -0.002694561725205291 0 -0.0013944616088907801 -0.0026784813193567372 0 -0.0014083793599032495 -0.0026816264664449785 0 -0.00140889422190317 -0.002694561725205291 0 -0.0013944616088907801 -0.0026784813193567372 0 -0.00140889422190317 -0.002694561725205291 0 -0.001409789299653251 -0.0027081029529030286 0 -0.001409789299653251 -0.0027081029529030286 0 -0.0013995117258292519 -0.0027022981605495152 0 -0.0014203636468565716 -0.0027292233419946668 0 -0.00140889422190317 -0.002694561725205291 0 -0.001409789299653251 -0.0027081029529030286 0 -0.0013995117258292519 -0.0027022981605495152 0 -0.001396902222828706 -0.0027086220530929826 0 -0.001409789299653251 -0.0027081029529030286 0 -0.0014203636468565716 -0.0027292233419946668 0 -0.0014188802443779744 -0.0026916595576486082 0 -0.0013986969858254296 -0.002695292972439354 0 -0.00134742864237682 -0.0026890218308750894 0 -0.0013447487913754599 -0.0026788922859350248 0 -0.001276625616762006 -0.0025952628894468262 0 -0.00140889422190317 -0.002694561725205291 0 -0.0013986969858254296 -0.002695292972439354 0 -0.0013995117258292519 -0.0027022981605495152 0 -0.0014104837906062232 -0.0026926056834206133 0 -0.00140889422190317 -0.002694561725205291 0 -0.0013986969858254296 -0.002695292972439354 0 -0.0013986969858254296 -0.002695292972439354 0 -0.0013995117258292519 -0.0027022981605495152 0 -0.0013785198387400799 -0.0026963943038674 0 -0.0013986969858254296 -0.002695292972439354 0 -0.0013785198387400799 -0.0026963943038674 0 -0.00134742864237682 -0.0026890218308750894 0 -0.00098992442376837119 -0.0023066103210762023 0 -0.00134742864237682 -0.0026890218308750894 0 -0.0013889816836450549 -0.0025650168616098297 0 -0.00134742864237682 -0.0026890218308750894 0 -0.0013889816836450549 -0.0025650168616098297 0 -0.0013736729883296658 -0.0026975738735784908 0 0.0011943907598408979 -0.00085400442931708926 0 0.00078504936112990507 -0.00085411570868829047 0 0.00083609408257765382 -0.0012428536170752439 0 0.0011943907598408979 -0.00085400442931708926 0 0.00078504936112990507 -0.00085411570868829047 0 0.0010358716729983264 -0.0006297843799959571 0 -0.00013349055072967112 -0.0017476166454941015 0 -0.00024135471868569591 -0.0018737010502069252 0 0.00078504936112990507 -0.00085411570868829047 0 0.00059610123845219639 -0.001079201313615126 0 0.00083609408257765382 -0.0012428536170752439 0 0.0010358716729983264 -0.0006297843799959571 0 0.00064661168619087708 -0.00046826567434604904 0 0.001140602256424636 -0.00041057859635188821 0 0.00078504936112990507 -0.00085411570868829047 0 0.0010358716729983264 -0.0006297843799959571 0 0.00064661168619087708 -0.00046826567434604904 0 0.0014500426770001698 -0.00046757236702219982 0 0.0011943907598408979 -0.00085400442931708926 0 0.001242983543050802 -0.00061813629360557413 0 0.0010358716729983264 -0.0006297843799959571 0 0.001225536795947207 -0.00050821014658996785 0 0.001140602256424636 -0.00041057859635188821 0 0.0010358716729983264 -0.0006297843799959571 0 0.001225536795947207 -0.00050821014658996785 0 0.001242983543050802 -0.00061813629360557413 0 0.0013227475373642388 -0.00049107307445893974 0 0.001225536795947207 -0.00050821014658996785 0 0.0013291630614097238 -0.00037677231033454408 0 0.0013227475373642388 -0.00049107307445893974 0 0.001225536795947207 -0.00050821014658996785 0 0.001242983543050802 -0.00061813629360557413 0 0.0011943907598408979 -0.00085400442931708926 0 0.0010358716729983264 -0.0006297843799959571 0 0.001242983543050802 -0.00061813629360557413 0 0.00011019136220347915 -0.00080605303468397492 0 0.00019235302777510782 -0.0010294560634705582 0 0.00044861153334644911 -0.00090512474278523598 0 0.00011019136220347915 -0.00080605303468397492 0 0.00019235302777510782 -0.0010294560634705582 0 -9.2342090019236271e-06 -0.0010628224652902258 0 0.00019235302777510782 -0.0010294560634705582 0 9.525738119947681e-05 -0.0012220178516154886 0 -9.2342090019236271e-06 -0.0010628224652902258 0 0.00019235302777510782 -0.0010294560634705582 0 0.00044861153334644911 -0.00090512474278523598 0 0.00036597917913232415 -0.0011905994004313674 0 0.00078504936112990507 -0.00085411570868829047 0 0.00044861153334644911 -0.00090512474278523598 0 0.00059610123845219639 -0.001079201313615126 0 0.00044861153334644911 -0.00090512474278523598 0 0.00059610123845219639 -0.001079201313615126 0 0.00036597917913232415 -0.0011905994004313674 0 0.00078504936112990507 -0.00085411570868829047 0 0.00044861153334644911 -0.00090512474278523598 0 0.00064661168619087708 -0.00046826567434604904 0 0.00050550764484457789 -0.00048368842542564618 0 0.00094555272093685102 -0.00034240289185764346 0 0.0011110860796330882 -0.0002744244771423173 0 0.0011975304105750655 -0.00020186120860388721 0 0.0010984158379401499 -0.00019790599396010773 0 0.00011019136220347915 -0.00080605303468397492 0 0.00044861153334644911 -0.00090512474278523598 0 0.00064661168619087708 -0.00046826567434604904 0 0.0011975304105750655 -0.00020186120860388721 0 0.0011742251541217001 -0.00012702873189505552 0 0.0010984158379401499 -0.00019790599396010773 0 0.0011975304105750655 -0.00020186120860388721 0 0.0011742251541217001 -0.00012702873189505552 0 0.0012164918159702528 -0.00013893516938748074 0 0.0011742251541217001 -0.00012702873189505552 0 0.0012164918159702528 -0.00013893516938748074 0 0.0012284187678838641 -6.8054364987997517e-05 0 0.0011742251541217001 -0.00012702873189505552 0 0.0011611519274462719 -3.867786179694704e-05 0 0.0011076863894347966 -0.00010989398163213125 0 0.0011742251541217001 -0.00012702873189505552 0 0.0010984158379401499 -0.00019790599396010773 0 0.0011076863894347966 -0.00010989398163213125 0 0.0012194045440884328 -0.0001811762847651519 0 0.0012848918328294827 -0.00027212135927307093 0 0.001140602256424636 -0.00041057859635188821 0 0.0012194045440884328 -0.0001811762847651519 0 0.0012848918328294827 -0.00027212135927307093 0 0.0013013521653788352 -0.00019193255701298906 0 0.0013861570324400748 -0.00024580397807339788 0 0.0012848918328294827 -0.00027212135927307093 0 0.0013013521653788352 -0.00019193255701298906 0 0.0012848918328294827 -0.00027212135927307093 0 0.0013291630614097238 -0.00037677231033454408 0 0.001140602256424636 -0.00041057859635188821 0 0.001225536795947207 -0.00050821014658996785 0 0.0013291630614097238 -0.00037677231033454408 0 0.001140602256424636 -0.00041057859635188821 0 0.0011975304105750655 -0.00020186120860388721 0 0.0012194045440884328 -0.0001811762847651519 0 0.0012164918159702528 -0.00013893516938748074 0 0.00094555272093685102 -0.00034240289185764346 0 0.0011948770612038423 -0.00018652066704547918 0 0.00064661168619087708 -0.00046826567434604904 0 0.0012194045440884328 -0.0001811762847651519 0 0.001140602256424636 -0.00041057859635188821 0 0.0012611653658544685 -0.00012542554461646548 0 0.0012049133737454189 -1.6967619354925347e-05 0 0.0012164918159702528 -0.00013893516938748074 0 0.0012581097724613608 -0.00013545553190398002 0 0.0012284187678838641 -6.8054364987997517e-05 0 0.0012194045440884328 -0.0001811762847651519 0 0.0012164918159702528 -0.00013893516938748074 0 0.0012581097724613608 -0.00013545553190398002 0 0.0012194045440884328 -0.0001811762847651519 0 0.0012581097724613608 -0.00013545553190398002 0 0.0013013521653788352 -0.00019193255701298906 0 0.001357780031655687 -0.00013429487972328803 0 0.0012581097724613608 -0.00013545553190398002 0 0.0013013521653788352 -0.00019193255701298906 0 0.001357780031655687 -0.00013429487972328803 0 0.0012581097724613608 -0.00013545553190398002 0 0.0013273468127396411 -3.8109504004259101e-05 0 0.0012581097724613608 -0.00013545553190398002 0 0.0012736806248149913 4.0997873669627198e-05 0 0.0011769543876540692 3.896728464733759e-05 0 0.0012581097724613608 -0.00013545553190398002 0 0.0013273468127396411 -3.8109504004259101e-05 0 0.0012736806248149913 4.0997873669627198e-05 0 0.0013273468127396411 -3.8109504004259101e-05 0 0.0012736806248149913 4.0997873669627198e-05 0 0.0013649045225243529 8.6424906673224398e-05 0 0.0012736806248149913 4.0997873669627198e-05 0 0.0011769543876540692 3.896728464733759e-05 0 0.0012296287652365037 0.00011023271978709506 0 0.0011769543876540692 3.896728464733759e-05 0 0.0012296287652365037 0.00011023271978709506 0 0.0011806266410492711 0.00015995703086573969 0 0.0012296287652365037 0.00011023271978709506 0 0.0011806266410492711 0.00015995703086573969 0 0.0012275858678051476 0.00019205378484944618 0 0.0012296287652365037 0.00011023271978709506 0 0.0012928640060594744 0.00016049384417055469 0 0.0012275858678051476 0.00019205378484944618 0 0.0012736806248149913 4.0997873669627198e-05 0 0.0012928640060594744 0.00016049384417055469 0 0.0013649045225243529 8.6424906673224398e-05 0 0.0012928640060594744 0.00016049384417055469 0 0.0013353924581875178 0.00021151405014593086 0 0.0013649045225243529 8.6424906673224398e-05 0 0.0012736806248149913 4.0997873669627198e-05 0 0.0012296287652365037 0.00011023271978709506 0 0.0012928640060594744 0.00016049384417055469 0 0.0011611519274462719 -3.867786179694704e-05 0 0.0010911855787539197 -1.6310057338566507e-05 0 0.0011263645075061147 6.676434067948118e-05 0 0.0011611519274462719 -3.867786179694704e-05 0 0.0010911855787539197 -1.6310057338566507e-05 0 0.0011076863894347966 -0.00010989398163213125 0 0.0011742251541217001 -0.00012702873189505552 0 0.0012284187678838641 -6.8054364987997517e-05 0 0.0011611519274462719 -3.867786179694704e-05 0 0.0012284187678838641 -6.8054364987997517e-05 0 0.0011611519274462719 -3.867786179694704e-05 0 0.0011955535417266898 4.9811866777405548e-05 0 0.0012049133737454189 -1.6967619354925347e-05 0 0.0011594055684004852 0.00010534805130054245 0 0.0011769543876540692 3.896728464733759e-05 0 0.0011806266410492711 0.00015995703086573969 0 0.0011297208027735497 0.00015736240337605348 0 0.0011955535417266898 4.9811866777405548e-05 0 0.0011008337772205206 0.00021439234419923681 0 0.0011263645075061147 6.676434067948118e-05 0 0.0011611519274462719 -3.867786179694704e-05 0 0.0011955535417266898 4.9811866777405548e-05 0 0.0011263645075061147 6.676434067948118e-05 0 0.0011594055684004852 0.00010534805130054245 0 0.0010997877995737777 0.00020568868283328705 0 0.0011297208027735497 0.00015736240337605348 0 0.0011415077527974886 0.00021255299891817807 0 0.0011008337772205206 0.00021439234419923681 0 0.0011415077527974886 0.00021255299891817807 0 0.0011232645448160808 0.00025273441272312153 0 0.0011008337772205206 0.00021439234419923681 0 0.0011415077527974886 0.00021255299891817807 0 0.0011522499391370391 0.00025324075037557858 0 0.0011232645448160808 0.00025273441272312153 0 0.0011806266410492711 0.00015995703086573969 0 0.0011415077527974886 0.00021255299891817807 0 0.0011893742503985305 0.00023361985902768063 0 0.0011415077527974886 0.00021255299891817807 0 0.0011893742503985305 0.00023361985902768063 0 0.0011522499391370391 0.00025324075037557858 0 0.0011806266410492711 0.00015995703086573969 0 0.0011297208027735497 0.00015736240337605348 0 0.0011415077527974886 0.00021255299891817807 0 0.0011893742503985305 0.00023361985902768063 0 0.0011770389143903348 0.00028271617519351841 0 0.0012163251591898281 0.00028123729301737793 0 0.001167080285639473 0.00032612297957873733 0 0.0011770389143903348 0.00028271617519351841 0 0.0011996840391866462 0.00031017750058362882 0 0.0011770389143903348 0.00028271617519351841 0 0.0011996840391866462 0.00031017750058362882 0 0.0012163251591898281 0.00028123729301737793 0 0.0011770389143903348 0.00028271617519351841 0 0.0011522499391370391 0.00025324075037557858 0 0.0011419564989116299 0.00029190402438662786 0 0.001167080285639473 0.00032612297957873733 0 0.0011770389143903348 0.00028271617519351841 0 0.0011419564989116299 0.00029190402438662786 0 0.0011893742503985305 0.00023361985902768063 0 0.0011770389143903348 0.00028271617519351841 0 0.0011522499391370391 0.00025324075037557858 0 0.0011522499391370391 0.00025324075037557858 0 0.0011419564989116299 0.00029190402438662786 0 0.0011232645448160808 0.00025273441272312153 0 0.0011419564989116299 0.00029190402438662786 0 0.0011232645448160808 0.00025273441272312153 0 0.0011067835717562323 0.0002989073404496522 0 0.0012927344368174256 0.0002650235464574602 0 0.001339497907160845 0.00027433359743632706 0 0.0013353924581875178 0.00021151405014593086 0 0.0012705123750173101 0.00022527803849310067 0 0.0012927344368174256 0.0002650235464574602 0 0.0013353924581875178 0.00021151405014593086 0 0.0012928640060594744 0.00016049384417055469 0 0.0012705123750173101 0.00022527803849310067 0 0.0013353924581875178 0.00021151405014593086 0 0.0012928640060594744 0.00016049384417055469 0 0.0012705123750173101 0.00022527803849310067 0 0.0012275858678051476 0.00019205378484944618 0 0.0011806266410492711 0.00015995703086573969 0 0.0011893742503985305 0.00023361985902768063 0 0.0012275858678051476 0.00019205378484944618 0 0.0011893742503985305 0.00023361985902768063 0 0.0012275858678051476 0.00019205378484944618 0 0.0012286836517673286 0.00024293201030644042 0 0.0012705123750173101 0.00022527803849310067 0 0.0012286836517673286 0.00024293201030644042 0 0.0012562579973567974 0.00026976695612472844 0 0.0012705123750173101 0.00022527803849310067 0 0.0012275858678051476 0.00019205378484944618 0 0.0012286836517673286 0.00024293201030644042 0 0.0012286836517673286 0.00024293201030644042 0 0.0012562579973567974 0.00026976695612472844 0 0.0012163251591898281 0.00028123729301737793 0 0.0011893742503985305 0.00023361985902768063 0 0.0012286836517673286 0.00024293201030644042 0 0.0012163251591898281 0.00028123729301737793 0 0.0012247997232561992 0.00032014053745233834 0 0.0011996840391866462 0.00031017750058362882 0 0.0012163251591898281 0.00028123729301737793 0 0.0012247997232561992 0.00032014053745233834 0 0.0012163251591898281 0.00028123729301737793 0 0.0012515774221285685 0.00030475996241932115 0 0.0012562579973567974 0.00026976695612472844 0 0.0012163251591898281 0.00028123729301737793 0 0.0012515774221285685 0.00030475996241932115 0 0.0001433697277204861 0.00044373018004983348 0 0.00021964608305190925 0.00041659186386761905 0 0.0012766976770033009 0.00034391262574734596 0 0.0012923441880383275 0.00029823897054464144 0 0.001339497907160845 0.00027433359743632706 0 0.0012692071089555502 0.00031633237316734642 0 0.0012515774221285685 0.00030475996241932115 0 0.0012722432511155129 0.0002911171799954379 0 0.0012562579973567974 0.00026976695612472844 0 0.0012515774221285685 0.00030475996241932115 0 0.0012722432511155129 0.0002911171799954379 0 0.0012692071089555502 0.00031633237316734642 0 0.0012722432511155129 0.0002911171799954379 0 0.0012923441880383275 0.00029823897054464144 0 0.0012705123750173101 0.00022527803849310067 0 0.0012562579973567974 0.00026976695612472844 0 0.0012927344368174256 0.0002650235464574602 0 0.0012562579973567974 0.00026976695612472844 0 0.0012722432511155129 0.0002911171799954379 0 0.0012927344368174256 0.0002650235464574602 0 0.0012722432511155129 0.0002911171799954379 0 0.0012927344368174256 0.0002650235464574602 0 0.0012923441880383275 0.00029823897054464144 0 0.0012927344368174256 0.0002650235464574602 0 0.0012923441880383275 0.00029823897054464144 0 0.001339497907160845 0.00027433359743632706 0 -0.0010340934345359275 0.00048837187001466277 0 -0.0013135079959703483 0.0009832227303861042 0 -0.0010511877930174708 0.00050701851992855109 0 -0.0013797665261641512 0.00079514337894991886 0 -0.0013109820950555427 0.0010130578359435238 0 -0.0010511877930174708 0.00050701851992855109 0 -0.0011257584791467873 0.00073344580035812103 0 -0.0010942484347996049 0.00072918305067221458 0 -0.0013860095837565662 0.00062365898307319828 0 -0.0014917888285591499 0.00074699876047186356 0 -0.0013797665261641512 0.00079514337894991886 0 -0.0013797665261641512 0.00079514337894991886 0 -0.0014562502493275769 0.00097278417241991036 0 -0.0015815871900591273 0.00089187992754821417 0 -0.0014917888285591499 0.00074699876047186356 0 -0.0013797665261641512 0.00079514337894991886 0 -0.0015815871900591273 0.00089187992754821417 0 -0.0014562502493275769 0.00097278417241991036 0 -0.0015660421466398323 0.0011946809559830289 0 -0.0015815871900591273 0.00089187992754821417 0 -0.0013797665261641512 0.00079514337894991886 0 -0.0014562502493275769 0.00097278417241991036 0 -0.0013109820950555427 0.0010130578359435238 0 -0.0014562502493275769 0.00097278417241991036 0 -0.0013109820950555427 0.0010130578359435238 0 -0.0015660421466398323 0.0011946809559830289 0 0.00021964608305190925 0.00041659186386761905 0 -0.00047110342914828175 0.00078473536192911065 0 -0.0013135079959703483 0.0009832227303861042 0 -0.00047110342914828175 0.00078473536192911065 0 0.001339497907160845 0.00027433359743632706 0 0.0013353924581875178 0.00021151405014593086 0 0.0014323481909863905 0.00018208926266070414 0 -0.0013109820950555427 0.0010130578359435238 0 -0.001566896461194595 0.001499473189734475 0 -0.0015660421466398323 0.0011946809559830289 0 -0.0011257584791467873 0.00073344580035812103 0 -0.0010942484347996049 0.00072918305067221458 0 -0.0011715607226461546 0.00085231796722256333 0 -0.0019292441992965175 0.0013952382205292923 0 -0.0018358690889438635 0.0009750265868051863 0 -0.002119343012622444 0.0010945777145051163 0 -0.0019292441992965175 0.0013952382205292923 0 -0.0015660421466398323 0.0011946809559830289 0 -0.0018358690889438635 0.0009750265868051863 0 -0.0019292441992965175 0.0013952382205292923 0 -0.001566896461194595 0.001499473189734475 0 -0.0015660421466398323 0.0011946809559830289 0 -0.0018358690889438635 0.0009750265868051863 0 -0.0017227503886570554 0.00081552570866507096 0 -0.0015815871900591273 0.00089187992754821417 0 -0.0015660421466398323 0.0011946809559830289 0 -0.0018358690889438635 0.0009750265868051863 0 -0.0015815871900591273 0.00089187992754821417 0 -0.0016197796913215135 0.00067780068436269693 0 -0.0014917888285591499 0.00074699876047186356 0 -0.0015815871900591273 0.00089187992754821417 0 -0.0016197796913215135 0.00067780068436269693 0 -0.0017227503886570554 0.00081552570866507096 0 -0.0015815871900591273 0.00089187992754821417 0 -0.0016197796913215135 0.00067780068436269693 0 -0.0017227503886570554 0.00081552570866507096 0 -0.0018530445179913654 0.00071649070928483515 0 -0.0018358690889438635 0.0009750265868051863 0 -0.0017227503886570554 0.00081552570866507096 0 -0.0018530445179913654 0.00071649070928483515 0 -0.0018358690889438635 0.0009750265868051863 0 -0.0018530445179913654 0.00071649070928483515 0 -0.0020244841580815344 0.00088390792378226213 0 -0.0022110852076464016 0.00059841504428921664 0 -0.0020651062602910922 0.00070536281515362316 0 -0.0022230310610628912 0.00083648706467595254 0 -0.0018530445179913654 0.00071649070928483515 0 -0.0020651062602910922 0.00070536281515362316 0 -0.0020244841580815344 0.00088390792378226213 0 -0.0020651062602910922 0.00070536281515362316 0 -0.0020244841580815344 0.00088390792378226213 0 -0.0022230310610628912 0.00083648706467595254 0 -0.002389231080942343 0.00075525212166317648 0 -0.0022230310610628912 0.00083648706467595254 0 -0.0023989880508195611 0.00098424539564606855 0 -0.0022110852076464016 0.00059841504428921664 0 -0.002389231080942343 0.00075525212166317648 0 -0.0022230310610628912 0.00083648706467595254 0 -0.0022230310610628912 0.00083648706467595254 0 -0.0023989880508195611 0.00098424539564606855 0 -0.002119343012622444 0.0010945777145051163 0 -0.0020244841580815344 0.00088390792378226213 0 -0.0022230310610628912 0.00083648706467595254 0 -0.002119343012622444 0.0010945777145051163 0 -0.0018358690889438635 0.0009750265868051863 0 -0.0020244841580815344 0.00088390792378226213 0 -0.002119343012622444 0.0010945777145051163 0 -0.002491130915181319 0.00055001089339342518 0 -0.0028599016741080096 0.00082449899437323881 0 -0.002585257354167795 0.00083374585056279228 0 -0.0028599016741080096 0.00082449899437323881 0 -0.002585257354167795 0.00083374585056279228 0 -0.0027090356201540664 0.0010422122644621798 0 -0.002389231080942343 0.00075525212166317648 0 -0.0023989880508195611 0.00098424539564606855 0 -0.002585257354167795 0.00083374585056279228 0 -0.002491130915181319 0.00055001089339342518 0 -0.002389231080942343 0.00075525212166317648 0 -0.002585257354167795 0.00083374585056279228 0 -0.0023989880508195611 0.00098424539564606855 0 -0.002585257354167795 0.00083374585056279228 0 -0.0027090356201540664 0.0010422122644621798 0 -0.0029975140485703393 0.0013550390407904198 0 -0.0026765138918531978 0.0013568790523443039 0 -0.0026256859797921437 0.001774828310721887 0 -0.0026765138918531978 0.0013568790523443039 0 -0.002334718021692446 0.0013564229313966299 0 -0.0026256859797921437 0.001774828310721887 0 -0.0029975140485703393 0.0013550390407904198 0 -0.0027890908611442121 0.0010838322889365768 0 -0.0026765138918531978 0.0013568790523443039 0 -0.0023989880508195611 0.00098424539564606855 0 -0.0027090356201540664 0.0010422122644621798 0 -0.002334718021692446 0.0013564229313966299 0 -0.0027249725415765683 0.0010754323955760054 0 -0.0023765617524115564 0.0013312654126409903 0 -0.0027890908611442121 0.0010838322889365768 0 -0.0026765138918531978 0.0013568790523443039 0 -0.002334718021692446 0.0013564229313966299 0 -0.0019292441992965175 0.0013952382205292923 0 -0.002119343012622444 0.0010945777145051163 0 -0.002334718021692446 0.0013564229313966299 0 -0.0023989880508195611 0.00098424539564606855 0 -0.002119343012622444 0.0010945777145051163 0 -0.002334718021692446 0.0013564229313966299 0 -0.0019292441992965175 0.0013952382205292923 0 -0.002334718021692446 0.0013564229313966299 0 -0.0021900754341345223 0.0016995434639780046 0 -0.0019292441992965175 0.0013952382205292923 0 -0.0021900754341345223 0.0016995434639780046 0 -0.001876522099211099 0.0019311253775851846 0 -0.002334718021692446 0.0013564229313966299 0 -0.0021900754341345223 0.0016995434639780046 0 -0.0026256859797921437 0.001774828310721887 0 -0.0021900754341345223 0.0016995434639780046 0 -0.0026256859797921437 0.001774828310721887 0 -0.0022167722337634163 0.0019459511430904722 0 -0.0021900754341345223 0.0016995434639780046 0 -0.0022167722337634163 0.0019459511430904722 0 -0.001876522099211099 0.0019311253775851846 0 -0.0031066888624972015 0.0017812941110840854 0 -0.0026256859797921437 0.001774828310721887 0 -0.0027523148731542031 0.0019750365772492153 0 -0.0026256859797921437 0.001774828310721887 0 -0.0027523148731542031 0.0019750365772492153 0 -0.0025603559979308832 0.0020951695489581398 0 -0.0026256859797921437 0.001774828310721887 0 -0.0025603559979308832 0.0020951695489581398 0 -0.0024652825063721574 0.0020528806004586294 0 -0.0027314833205462994 0.0013755563776752298 0 -0.0026881442553373307 0.0015250916760516902 0 -0.0027314833205462994 0.0013755563776752298 0 -0.0035205329266987094 0.00044059668747618153 0 -0.0027523148731542031 0.0019750365772492153 0 -0.0025603559979308832 0.0020951695489581398 0 -0.0028150224743748839 0.0022033688675541395 0 -0.0021827117461556832 0.0023802406378450685 0 -0.0026256859797921437 0.001774828310721887 0 -0.0022167722337634163 0.0019459511430904722 0 -0.0023445515181040851 0.0021880422190347941 0 -0.0026256859797921437 0.001774828310721887 0 -0.0024652825063721574 0.0020528806004586294 0 -0.0017683355365494585 0.0011867870533728317 0 -0.0026557142110326384 0.0021509192736469964 0 -0.0017683355365494585 0.0011867870533728317 0 -0.0013335500996496518 0.0014638860495294166 0 -0.0021827117461556832 0.0023802406378450685 0 -0.0022167722337634163 0.0019459511430904722 0 -0.001876522099211099 0.0019311253775851846 0 -0.00068404801362488034 0.00081969971583730188 0 -0.00069616190599805408 0.0008046510768822629 0 -0.00064054793156784618 0.00076469123505327455 0 -0.0023862587983926611 0.0022459704943616271 0 -0.002553485066079051 0.0020827326078992256 0 -0.0024652825063721574 0.0020528806004586294 0 -0.0021687359251438046 0.00021036160582736446 0 -0.0027314833205462994 0.0013755563776752298 0 -0.0023445515181040851 0.0021880422190347941 0 -0.0023862587983926611 0.0022459704943616271 0 -0.0024652825063721574 0.0020528806004586294 0 0.0016164758327801333 -0.00011630660950920401 0 0.0015162887483463163 -7.1208241172421945e-05 0 0.0015250270266772873 4.8752923512249451e-05 0 -0.00069616190599805408 0.0008046510768822629 0 -0.00064054793156784618 0.00076469123505327455 0 -0.00064662361429254785 0.00075682973810799767 0 -0.00077282098964180613 -2.1407148744647035e-05 0 0.00062059022245428825 0.0002970546125853087 0 0.0015162887483463163 -7.1208241172421945e-05 0 0.0015250270266772873 4.8752923512249451e-05 0 0.0014145673588974051 -4.851273714613634e-05 0 0.0013273468127396411 -3.8109504004259101e-05 0 0.0014145673588974051 -4.851273714613634e-05 0 0.0013649045225243529 8.6424906673224398e-05 0 0.0015250270266772873 4.8752923512249451e-05 0 0.0014145673588974051 -4.851273714613634e-05 0 0.0013649045225243529 8.6424906673224398e-05 0 0.0014323481909863905 0.00018208926266070414 0 0.0015250270266772873 4.8752923512249451e-05 0 0.0013649045225243529 8.6424906673224398e-05 0 0.0013353924581875178 0.00021151405014593086 0 0.0014323481909863905 0.00018208926266070414 0 0.0013649045225243529 8.6424906673224398e-05 0 -0.00047110342914828175 0.00078473536192911065 0 -0.0013335500996496518 0.0014638860495294166 0 -0.00058803235022149845 0.00071075475480111686 0 -0.00064054793156784618 0.00076469123505327455 0 -0.00064662361429254785 0.00075682973810799767 0 -0.0019292441992965175 0.0013952382205292923 0 -0.001566896461194595 0.001499473189734475 0 -0.001876522099211099 0.0019311253775851846 0 -0.00047110342914828175 0.00078473536192911065 0 0.00062059022245428825 0.0002970546125853087 0 -0.0052651678830626901 -0.00099959474322279594 0 -0.0051353566014081739 -0.0010785058384141562 0 -0.0051438374787353899 -0.00087571309168349768 0 -0.0052651678830626901 -0.00099959474322279594 0 -0.0051353566014081739 -0.0010785058384141562 0 -0.0052797694836705525 -0.0011384828710487595 0 -0.0052651678830626901 -0.00099959474322279594 0 -0.0052797694836705525 -0.0011384828710487595 0 -0.00532950466622625 -0.0010598241523719504 0 -0.0050000060812366107 -0.00094545179648417368 0 -0.0051353566014081739 -0.0010785058384141562 0 -0.0051438374787353899 -0.00087571309168349768 0 -0.0050000060812366107 -0.00094545179648417368 0 -0.0051353566014081739 -0.0010785058384141562 0 -0.0049999952739720171 -0.0012425518241526543 0 -0.0051353566014081739 -0.0010785058384141562 0 -0.0049999952739720171 -0.0012425518241526543 0 -0.005193716410847221 -0.0012479877395000524 0 -0.0051353566014081739 -0.0010785058384141562 0 -0.005193716410847221 -0.0012479877395000524 0 -0.0052797694836705525 -0.0011384828710487595 0 -0.005193716410847221 -0.0012479877395000524 0 -0.0052797694836705525 -0.0011384828710487595 0 -0.0053179682292624009 -0.0012458508263970707 0 -0.0052797694836705525 -0.0011384828710487595 0 -0.0053179682292624009 -0.0012458508263970707 0 -0.0053458918553328759 -0.0011705476780455224 0 -0.0053179682292624009 -0.0012458508263970707 0 -0.0054170833896276145 -0.0011898328502326706 0 -0.0053458918553328759 -0.0011705476780455224 0 -0.0054170833896276145 -0.0011898328502326706 0 -0.0053686738887830073 -0.0011078729008703206 0 -0.0054231721570528364 -0.0010410601168069687 0 -0.005307860331145396 -0.0015373773401420028 0 -0.0052970107507259627 -0.0015412121164384365 0 -0.0053195947298223297 -0.0015184522283463611 0 -0.0052797694836705525 -0.0011384828710487595 0 -0.0053686738887830073 -0.0011078729008703206 0 -0.00532950466622625 -0.0010598241523719504 0 -0.0054170833896276145 -0.0011898328502326706 0 -0.0053458918553328759 -0.0011705476780455224 0 -0.0053686738887830073 -0.0011078729008703206 0 -0.0052797694836705525 -0.0011384828710487595 0 -0.0053458918553328759 -0.0011705476780455224 0 -0.0053686738887830073 -0.0011078729008703206 0 -0.0053703461782482016 -0.0015647959619394202 0 -0.0053712367171960236 -0.0015310581884617558 0 -0.0053966729042730548 -0.0015416954711290204 0 -0.0053703461782482016 -0.0015647959619394202 0 -0.0053355702118773789 -0.0015454319456615565 0 -0.0053397988089963011 -0.0015788690128651262 0 -0.0053703461782482016 -0.0015647959619394202 0 -0.0053355702118773789 -0.0015454319456615565 0 -0.0053712367171960236 -0.0015310581884617558 0 -0.005307860331145396 -0.0015373773401420028 0 -0.0053248907317874012 -0.0015704176892009515 0 -0.0053153674157101604 -0.0016213336107212416 0 -0.0053355702118773789 -0.0015454319456615565 0 -0.0053397988089963011 -0.0015788690128651262 0 -0.0053248907317874012 -0.0015704176892009515 0 -0.005307860331145396 -0.0015373773401420028 0 -0.0053355702118773789 -0.0015454319456615565 0 -0.0053248907317874012 -0.0015704176892009515 0 -0.0052970107507259627 -0.0015412121164384365 0 -0.0053195947298223297 -0.0015184522283463611 0 -0.0053226253981107736 -0.0014833486876291136 0 -0.005307860331145396 -0.0015373773401420028 0 -0.0053195947298223297 -0.0015184522283463611 0 -0.0053265881344182224 -0.0015301221523819999 0 -0.005307860331145396 -0.0015373773401420028 0 -0.0053355702118773789 -0.0015454319456615565 0 -0.0053265881344182224 -0.0015301221523819999 0 -0.0053434969697781186 -0.0015191020691332298 0 -0.0053334282737639415 -0.0015021923032958909 0 -0.0053481935579025404 -0.0014881425852093222 0 -0.0053195947298223297 -0.0015184522283463611 0 -0.0053434969697781186 -0.0015191020691332298 0 -0.0053334282737639415 -0.0015021923032958909 0 -0.0053195947298223297 -0.0015184522283463611 0 -0.0053434969697781186 -0.0015191020691332298 0 -0.0053265881344182224 -0.0015301221523819999 0 -0.0053355702118773789 -0.0015454319456615565 0 -0.0053434969697781186 -0.0015191020691332298 0 -0.0053265881344182224 -0.0015301221523819999 0 -0.0053355702118773789 -0.0015454319456615565 0 -0.0053434969697781186 -0.0015191020691332298 0 -0.0053712367171960236 -0.0015310581884617558 0 -0.0053434969697781186 -0.0015191020691332298 0 -0.0053712367171960236 -0.0015310581884617558 0 -0.0053778093774948087 -0.0014973226934836964 0 -0.0053614019301261072 -0.0013766691708349205 0 -0.005380604910797609 -0.0011134059748723042 0 -0.0054170833896276145 -0.0011898328502326706 0 -0.0054988037629218143 -0.00095246131189775376 0 -0.005513655071123745 -0.00093444452797946352 0 -0.0052970107507259627 -0.0015412121164384365 0 -0.0053226253981107736 -0.0014833486876291136 0 -0.0053282491387888252 -0.0014297415160849805 0 -0.0053639453126395611 -0.0014706872764056089 0 -0.0053778093774948087 -0.0014973226934836964 0 -0.0053852566426327965 -0.0014690564006040151 0 -0.0053639453126395611 -0.0014706872764056089 0 -0.0053778093774948087 -0.0014973226934836964 0 -0.0053481935579025404 -0.0014881425852093222 0 -0.0053434969697781186 -0.0015191020691332298 0 -0.0053778093774948087 -0.0014973226934836964 0 -0.0053481935579025404 -0.0014881425852093222 0 -0.0053639453126395611 -0.0014706872764056089 0 -0.0053481935579025404 -0.0014881425852093222 0 -0.0053463491600740298 -0.0014626354324567758 0 -0.0053226253981107736 -0.0014833486876291136 0 -0.005335789864077593 -0.0014545231431807287 0 -0.0053463491600740298 -0.0014626354324567758 0 -0.0053481935579025404 -0.0014881425852093222 0 -0.0053226253981107736 -0.0014833486876291136 0 -0.0053463491600740298 -0.0014626354324567758 0 -0.0053334282737639415 -0.0015021923032958909 0 -0.0053481935579025404 -0.0014881425852093222 0 -0.0053226253981107736 -0.0014833486876291136 0 -0.0053195947298223297 -0.0015184522283463611 0 -0.0053334282737639415 -0.0015021923032958909 0 -0.0053226253981107736 -0.0014833486876291136 0 -0.0053226253981107736 -0.0014833486876291136 0 -0.005335789864077593 -0.0014545231431807287 0 -0.0053282491387888252 -0.0014297415160849805 0 -0.0054988037629218143 -0.00095246131189775376 0 -0.005453602979544594 -0.00097461515168745943 0 -0.005453043906592115 -0.00093365076964458944 0 -0.0054988037629218143 -0.00095246131189775376 0 -0.005453043906592115 -0.00093365076964458944 0 -0.005513859532615145 -0.00093407608671523725 0 -0.005335789864077593 -0.0014545231431807287 0 -0.0053465529009958683 -0.0014419336158423167 0 -0.0053282491387888252 -0.0014297415160849805 0 -0.0054053736415966055 -0.0010826053264370277 0 -0.005380604910797609 -0.0011134059748723042 0 -0.005335789864077593 -0.0014545231431807287 0 -0.0053463491600740298 -0.0014626354324567758 0 -0.0053465529009958683 -0.0014419336158423167 0 -0.0053639453126395611 -0.0014706872764056089 0 -0.0053463491600740298 -0.0014626354324567758 0 -0.0053685296166711477 -0.0014477275552939562 0 -0.0053463491600740298 -0.0014626354324567758 0 -0.0053465529009958683 -0.0014419336158423167 0 -0.0053685296166711477 -0.0014477275552939562 0 -0.0053465529009958683 -0.0014419336158423167 0 -0.0053685296166711477 -0.0014477275552939562 0 -0.005360385276672615 -0.0014223013198418025 0 -0.0053465529009958683 -0.0014419336158423167 0 -0.005360385276672615 -0.0014223013198418025 0 -0.0053282491387888252 -0.0014297415160849805 0 -0.0053685296166711477 -0.0014477275552939562 0 -0.0053785462576355324 -0.001429110200101374 0 -0.005360385276672615 -0.0014223013198418025 0 -0.0053639453126395611 -0.0014706872764056089 0 -0.0053685296166711477 -0.0014477275552939562 0 -0.0053852566426327965 -0.0014690564006040151 0 -0.0054170833896276145 -0.0011898328502326706 0 -0.0054988037629218143 -0.00095246131189775376 0 -0.0054231721570528364 -0.0010410601168069687 0 -0.0052651678830626901 -0.00099959474322279594 0 -0.00532950466622625 -0.0010598241523719504 0 -0.0053523299270117125 -0.0010021667940218948 0 -0.00532950466622625 -0.0010598241523719504 0 -0.0053868888848169847 -0.0010380679620136464 0 -0.0053523299270117125 -0.0010021667940218948 0 -0.0053686738887830073 -0.0011078729008703206 0 -0.00532950466622625 -0.0010598241523719504 0 -0.0053868888848169847 -0.0010380679620136464 0 -0.0053686738887830073 -0.0011078729008703206 0 -0.0053868888848169847 -0.0010380679620136464 0 -0.0054231721570528364 -0.0010410601168069687 0 -0.0053868888848169847 -0.0010380679620136464 0 -0.0054231721570528364 -0.0010410601168069687 0 -0.0054139348399390094 -0.00098339622356278925 0 -0.0054988037629218143 -0.00095246131189775376 0 -0.0054231721570528364 -0.0010410601168069687 0 -0.005453602979544594 -0.00097461515168745943 0 -0.0054139348399390094 -0.00098339622356278925 0 -0.0053687020103423593 -0.00092344691111918918 0 -0.005453043906592115 -0.00093365076964458944 0 -0.0054231721570528364 -0.0010410601168069687 0 -0.0054139348399390094 -0.00098339622356278925 0 -0.005453602979544594 -0.00097461515168745943 0 -0.0054139348399390094 -0.00098339622356278925 0 -0.005453602979544594 -0.00097461515168745943 0 -0.005453043906592115 -0.00093365076964458944 0 -0.0052651678830626901 -0.00099959474322279594 0 -0.0053523299270117125 -0.0010021667940218948 0 -0.0053687020103423593 -0.00092344691111918918 0 -0.0054139348399390094 -0.00098339622356278925 0 -0.0053523299270117125 -0.0010021667940218948 0 -0.0053687020103423593 -0.00092344691111918918 0 -0.0053868888848169847 -0.0010380679620136464 0 -0.0054139348399390094 -0.00098339622356278925 0 -0.0053523299270117125 -0.0010021667940218948 0 -0.0053687020103423593 -0.00092344691111918918 0 -0.0053821043410443659 -0.00079198574692075023 0 -0.0052645673686861046 -0.00085699504779991359 0 -0.0054121237819802302 -0.00079709517491669587 0 -0.005392727125727856 -0.00090293742445483882 0 -0.0053687020103423593 -0.00092344691111918918 0 -0.005453043906592115 -0.00093365076964458944 0 -0.0054261469935030339 -0.00088381861734962268 0 -0.0053687020103423593 -0.00092344691111918918 0 -0.0054261469935030339 -0.00088381861734962268 0 -0.0053821043410443659 -0.00079198574692075023 0 -0.005453043906592115 -0.00093365076964458944 0 -0.0054261469935030339 -0.00088381861734962268 0 -0.0054818003484680853 -0.00088012917726136835 0 -0.0054261469935030339 -0.00088381861734962268 0 -0.0053821043410443659 -0.00079198574692075023 0 -0.0054818003484680853 -0.00088012917726136835 0 -0.0053821043410443659 -0.00079198574692075023 0 -0.0054818003484680853 -0.00088012917726136835 0 -0.0055457380804226587 -0.00085018055767748619 0 -0.0054024114327233634 -0.0007872009228873573 0 -0.0055870075380151747 -0.00084904410812445727 0 -0.0056030627658146268 -0.00080768302245493907 0 -0.005417414510566692 -0.00099609762755376529 0 -0.0053538455729917663 -0.0010736088433841854 0 -0.0053869390565623315 -0.00098579968005030544 0 -0.005360385276672615 -0.0014223013198418025 0 -0.0053581116296209938 -0.001389474085992941 0 -0.0053852420874952681 -0.0013992848758332954 0 -0.0052378599009184007 -0.00093783859048298258 0 -0.0052125469052140081 -0.0011515086362841348 0 -0.0052290198130525009 -0.0010777257508476693 0 -0.0052281472216111685 -0.0010787289106646311 0 -0.0052258845817885835 -0.0010771086662988694 0 -0.0052915389106091637 -0.0010059034408350061 0 -0.0052125469052140081 -0.0011515086362841348 0 -0.0053785462576355324 -0.001429110200101374 0 -0.005360385276672615 -0.0014223013198418025 0 -0.0053852420874952681 -0.0013992848758332954 0 -0.005360385276672615 -0.0014223013198418025 0 -0.0053581116296209938 -0.001389474085992941 0 -0.0053282491387888252 -0.0014297415160849805 0 -0.0052915389106091637 -0.0010059034408350061 0 -0.005380604910797609 -0.0011134059748723042 0 -0.005380604910797609 -0.0011134059748723042 0 -0.005392727125727856 -0.00090293742445483882 0 -0.005513859532615145 -0.00093407608671523725 0 -0.0054818003484680853 -0.00088012917726136835 0 -0.0055457380804226587 -0.00085018055767748619 0 -0.005453043906592115 -0.00093365076964458944 0 -0.005513859532615145 -0.00093407608671523725 0 -0.0054818003484680853 -0.00088012917726136835 0 -0.0052915389106091637 -0.0010059034408350061 0 -0.005392727125727856 -0.00090293742445483882 0 -0.0053147665819917572 -0.00089647604496561261 0 -0.0053188361167896669 -0.00090689611225593591 0 -0.0053076555566383757 -0.00090494521152713076 0 -0.0053147665819917572 -0.00089647604496561261 0 -0.0053284872775059659 -0.00090100298767387197 0 -0.0053188361167896669 -0.00090689611225593591 0 -0.0053188361167896669 -0.00090689611225593591 0 -0.0053218889933498601 -0.00091786607738893059 0 -0.0053076555566383757 -0.00090494521152713076 0 -0.0053177969490299975 -0.00071100290842203732 0 -0.0052378599009184007 -0.00093783859048298258 0 -0.005392727125727856 -0.00090293742445483882 0 -0.0053177969490299975 -0.00071100290842203732 0 -0.0053284872775059659 -0.00090100298767387197 0 -0.0053188361167896669 -0.00090689611225593591 0 -0.0053218889933498601 -0.00091786607738893059 0 -0.0052915389106091637 -0.0010059034408350061 0 -0.0052378599009184007 -0.00093783859048298258 0 -0.0052480110993744847 -0.00042521152848629725 0 -0.0052361631528070624 -0.00038269594242526658 0 -0.0051837411531004112 -0.00036303656507290244 0 -0.0053177969490299975 -0.00071100290842203732 0 -0.0053005643676815673 -0.0004787214184834696 0 -0.0052356529119306815 -0.00046462262136631499 0 -0.0052546888479155377 -0.00048227135821087838 0 -0.0052706450920245078 -0.0003694212935816909 0 -0.0052480110993744847 -0.00042521152848629725 0 -0.0052361631528070624 -0.00038269594242526658 0 -0.0052706450920245078 -0.0003694212935816909 0 -0.0053177969490299975 -0.00071100290842203732 0 -0.0052998058624690947 -0.0003181858418746303 0 -0.0052304982171613211 -0.00035870577560220981 0 -0.0052361631528070624 -0.00038269594242526658 0 -0.0051837411531004112 -0.00036303656507290244 0 -0.0052304982171613211 -0.00035870577560220981 0 -0.0052361631528070624 -0.00038269594242526658 0 -0.0052706450920245078 -0.0003694212935816909 0 -0.0054024114327233634 -0.0007872009228873573 0 -0.0054010629087838258 -0.00061057489604314627 0 -0.0052091587058797888 -0.0007311324780509646 0 -0.0054024114327233634 -0.0007872009228873573 0 -0.0056030627658146268 -0.00080768302245493907 0 -0.0054010629087838258 -0.00061057489604314627 0 -0.0054121237819802302 -0.00079709517491669587 0 -0.0052220640040971716 -0.00073442021577523292 0 -0.0053821043410443659 -0.00079198574692075023 0 -0.0052091587058797888 -0.0007311324780509646 0 -0.0052645673686861046 -0.00085699504779991359 0 -0.0052091587058797888 -0.0007311324780509646 0 -0.0052645673686861046 -0.00085699504779991359 0 -0.0051438374787353899 -0.00087571309168349768 0 -0.0052651678830626901 -0.00099959474322279594 0 -0.0052645673686861046 -0.00085699504779991359 0 -0.0051438374787353899 -0.00087571309168349768 0 -0.0052651678830626901 -0.00099959474322279594 0 -0.0053687020103423593 -0.00092344691111918918 0 -0.0052645673686861046 -0.00085699504779991359 0 -0.0050000060812366107 -0.00094545179648417368 0 -0.0051438374787353899 -0.00087571309168349768 0 -0.0049999444106823693 -0.00064825590961424485 0 -0.0052091587058797888 -0.0007311324780509646 0 -0.0051438374787353899 -0.00087571309168349768 0 -0.0049999444106823693 -0.00064825590961424485 0 -0.0052091587058797888 -0.0007311324780509646 0 -0.0049999444106823693 -0.00064825590961424485 0 -0.00514906661127077 -0.00038733876412791224 0 -0.0049999444106823693 -0.00064825590961424485 0 -0.00514906661127077 -0.00038733876412791224 0 -0.0049999626567574264 -0.00035107176804594374 0 -0.0053005643676815673 -0.0004787214184834696 0 -0.0051562736781339165 -0.00039052882878265824 0 -0.0051837411531004112 -0.00036303656507290244 0 -0.00514906661127077 -0.00038733876412791224 0 -0.0051768641154353052 -0.00028332668191314669 0 -0.0054010629087838258 -0.00061057489604314627 0 -0.0052091587058797888 -0.0007311324780509646 0 -0.00514906661127077 -0.00038733876412791224 0 -0.00514906661127077 -0.00038733876412791224 0 -0.0050984681278653512 -0.00023286807457651001 0 -0.0051768641154353052 -0.00028332668191314669 0 -0.00514906661127077 -0.00038733876412791224 0 -0.0049999626567574264 -0.00035107176804594374 0 -0.0050984681278653512 -0.00023286807457651001 0 -0.0049999626567574264 -0.00035107176804594374 0 -0.0050984681278653512 -0.00023286807457651001 0 -0.0049999088374229565 -5.4036947196650333e-05 0 -0.0050984681278653512 -0.00023286807457651001 0 -0.0051323953974058102 -7.546384072904509e-05 0 -0.0051768641154353052 -0.00028332668191314669 0 -0.0050984681278653512 -0.00023286807457651001 0 -0.0051323953974058102 -7.546384072904509e-05 0 -0.0049999088374229565 -5.4036947196650333e-05 0 -0.0050871399627207565 0.00014188142799250109 0 -0.0051323953974058102 -7.546384072904509e-05 0 -0.0049999088374229565 -5.4036947196650333e-05 0 -0.0052056804665899046 0.00010888451637478374 0 -0.0052147528282115978 -2.7311531134406262e-05 0 -0.0052798219942496822 3.3157976073511371e-05 0 -0.0052056804665899046 0.00010888451637478374 0 -0.0052147528282115978 -2.7311531134406262e-05 0 -0.0051556412687740341 6.933264167854074e-05 0 -0.0051323953974058102 -7.546384072904509e-05 0 -0.0052147528282115978 -2.7311531134406262e-05 0 -0.0051556412687740341 6.933264167854074e-05 0 -0.0050871399627207565 0.00014188142799250109 0 -0.0051323953974058102 -7.546384072904509e-05 0 -0.0051556412687740341 6.933264167854074e-05 0 -0.0051323953974058102 -7.546384072904509e-05 0 -0.0052304280134419573 -0.00017796837819726924 0 -0.0051768641154353052 -0.00028332668191314669 0 -0.0051323953974058102 -7.546384072904509e-05 0 -0.0052147528282115978 -2.7311531134406262e-05 0 -0.0052304280134419573 -0.00017796837819726924 0 -0.0052147528282115978 -2.7311531134406262e-05 0 -0.0052304280134419573 -0.00017796837819726924 0 -0.005312880308380355 -0.00011327975076791868 0 -0.0052304280134419573 -0.00017796837819726924 0 -0.005225376419523255 -0.00030960146694401758 0 -0.0052975466709939386 -0.00026010375650900363 0 -0.0052304280134419573 -0.00017796837819726924 0 -0.0051768641154353052 -0.00028332668191314669 0 -0.005225376419523255 -0.00030960146694401758 0 -0.0051837411531004112 -0.00036303656507290244 0 -0.0051768641154353052 -0.00028332668191314669 0 -0.005225376419523255 -0.00030960146694401758 0 -0.0052706450920245078 -0.0003694212935816909 0 -0.005225376419523255 -0.00030960146694401758 0 -0.0052975466709939386 -0.00026010375650900363 0 -0.0052304982171613211 -0.00035870577560220981 0 -0.0051837411531004112 -0.00036303656507290244 0 -0.005225376419523255 -0.00030960146694401758 0 -0.0052304982171613211 -0.00035870577560220981 0 -0.0052706450920245078 -0.0003694212935816909 0 -0.005225376419523255 -0.00030960146694401758 0 -0.0052706450920245078 -0.0003694212935816909 0 -0.0052975466709939386 -0.00026010375650900363 0 -0.0053458460175099497 -0.0003590303679858828 0 -0.0052975466709939386 -0.00026010375650900363 0 -0.005431101156858493 -0.00022928974223347326 0 -0.0053458460175099497 -0.0003590303679858828 0 -0.0050493955939345039 -0.00076102471482670435 0 -0.0050148856035560421 -0.00077643644282831311 0 -0.0046498700262259732 -0.0012917112437536441 0 -0.0046419637084300393 -0.0012288594404051474 0 -0.0047345167399844993 -0.0012186163196707843 0 -0.005431101156858493 -0.00022928974223347326 0 -0.005312880308380355 -0.00011327975076791868 0 -0.0054084843805076071 -9.0620759965545392e-05 0 -0.0052975466709939386 -0.00026010375650900363 0 -0.005431101156858493 -0.00022928974223347326 0 -0.005312880308380355 -0.00011327975076791868 0 -0.0052304280134419573 -0.00017796837819726924 0 -0.0052975466709939386 -0.00026010375650900363 0 -0.005312880308380355 -0.00011327975076791868 0 -0.0052147528282115978 -2.7311531134406262e-05 0 -0.005312880308380355 -0.00011327975076791868 0 -0.0052798219942496822 3.3157976073511371e-05 0 -0.005312880308380355 -0.00011327975076791868 0 -0.0053649197490995794 2.6517961346794436e-06 0 -0.0052798219942496822 3.3157976073511371e-05 0 -0.005312880308380355 -0.00011327975076791868 0 -0.0054084843805076071 -9.0620759965545392e-05 0 -0.0053649197490995794 2.6517961346794436e-06 0 -0.0054084843805076071 -9.0620759965545392e-05 0 -0.0053649197490995794 2.6517961346794436e-06 0 -0.0054406428546972174 -4.1134895975250943e-06 0 -0.0053649197490995794 2.6517961346794436e-06 0 -0.0054194485576532538 7.9606378874915284e-05 0 -0.0054406428546972174 -4.1134895975250943e-06 0 -0.00539989986151025 0.00019489833560275998 0 -0.0054194485576532538 7.9606378874915284e-05 0 -0.0053376844602451914 0.00011336811419557884 0 -0.0053649197490995794 2.6517961346794436e-06 0 -0.0054194485576532538 7.9606378874915284e-05 0 -0.0053376844602451914 0.00011336811419557884 0 -0.0052694772484584733 0.00015051900700361885 0 -0.0053376844602451914 0.00011336811419557884 0 -0.0052798219942496822 3.3157976073511371e-05 0 -0.0052694772484584733 0.00015051900700361885 0 -0.0052056804665899046 0.00010888451637478374 0 -0.0052798219942496822 3.3157976073511371e-05 0 -0.0053649197490995794 2.6517961346794436e-06 0 -0.0053376844602451914 0.00011336811419557884 0 -0.0052798219942496822 3.3157976073511371e-05 0 -0.0056165550331603829 0.00012801349378041069 0 -0.0055068953402250646 7.0815287534939671e-05 0 -0.0055642173060243827 2.8879929670309867e-06 0 -0.0055540191248106708 0.00016693742138344827 0 -0.0056165550331603829 0.00012801349378041069 0 -0.0055068953402250646 7.0815287534939671e-05 0 -0.0056748466897449659 0.00031781469862914534 0 -0.005144009360448891 -0.00018544906231380081 0 -0.0054772898704997831 0.00016158699828173058 0 -0.0055540191248106708 0.00016693742138344827 0 -0.0055068953402250646 7.0815287534939671e-05 0 -0.0054772898704997831 0.00016158699828173058 0 -0.0054194485576532538 7.9606378874915284e-05 0 -0.0055068953402250646 7.0815287534939671e-05 0 -0.0054194485576532538 7.9606378874915284e-05 0 -0.0055068953402250646 7.0815287534939671e-05 0 -0.0054406428546972174 -4.1134895975250943e-06 0 -0.0055068953402250646 7.0815287534939671e-05 0 -0.0054406428546972174 -4.1134895975250943e-06 0 -0.005524719677345219 -7.1414948552000148e-05 0 -0.0054084843805076071 -9.0620759965545392e-05 0 -0.0054406428546972174 -4.1134895975250943e-06 0 -0.005524719677345219 -7.1414948552000148e-05 0 -0.0045826180533122419 -0.0013430803337301498 0 -0.0045625448946516774 -0.0013625238537885004 0 -0.0045370046087671138 -0.001322685569410181 0 -0.0056525443462830732 0.0003866371425292852 0 -0.0057104540926062996 0.00045949237792405114 0 -0.0055824301902530713 0.00050660509103472677 0 -0.0055068953402250646 7.0815287534939671e-05 0 -0.005524719677345219 -7.1414948552000148e-05 0 -0.0055642173060243827 2.8879929670309867e-06 0 -0.0045625448946516774 -0.0013625238537885004 0 -0.0045370046087671138 -0.001322685569410181 0 -0.0044967663391466753 -0.0013429684081595601 0 -0.005144009360448891 -0.00018544906231380081 0 -0.0050159436151146876 -0.00042927852002080951 0 -0.0050085833046636871 -0.00069137079919886395 0 -0.005144009360448891 -0.00018544906231380081 0 -0.0045370046087671138 -0.001322685569410181 0 -0.0045752307923827493 -0.0012995522766661319 0 -0.004531032419375784 -0.0012785996347188899 0 -0.0045826180533122419 -0.0013430803337301498 0 -0.0045370046087671138 -0.001322685569410181 0 -0.0045752307923827493 -0.0012995522766661319 0 -0.0046498700262259732 -0.0012917112437536441 0 -0.0045826180533122419 -0.0013430803337301498 0 -0.0045752307923827493 -0.0012995522766661319 0 -0.0050493955939345039 -0.00076102471482670435 0 -0.0050085833046636871 -0.00069137079919886395 0 -0.005431101156858493 -0.00022928974223347326 0 -0.0054084843805076071 -9.0620759965545392e-05 0 -0.005524719677345219 -7.1414948552000148e-05 0 -0.0046498700262259732 -0.0012917112437536441 0 -0.0045802417418888478 -0.0012559838295182716 0 -0.0046419637084300393 -0.0012288594404051474 0 -0.0046498700262259732 -0.0012917112437536441 0 -0.0045752307923827493 -0.0012995522766661319 0 -0.0045802417418888478 -0.0012559838295182716 0 -0.0045802417418888478 -0.0012559838295182716 0 -0.0046419637084300393 -0.0012288594404051474 0 -0.0045854955352463995 -0.0012089508518847087 0 -0.0045802417418888478 -0.0012559838295182716 0 -0.004531032419375784 -0.0012785996347188899 0 -0.0044923001576412814 -0.0012267378384952338 0 -0.0045752307923827493 -0.0012995522766661319 0 -0.0045802417418888478 -0.0012559838295182716 0 -0.004531032419375784 -0.0012785996347188899 0 -0.0045802417418888478 -0.0012559838295182716 0 -0.0045854955352463995 -0.0012089508518847087 0 -0.0044923001576412814 -0.0012267378384952338 0 -0.0045794678869857395 -0.0011592662835470174 0 -0.0045854955352463995 -0.0012089508518847087 0 -0.0044923001576412814 -0.0012267378384952338 0 -0.0045505480723949552 -0.0011793500015283376 0 -0.0044861564235160077 -0.0012191842182856948 0 -0.0045794678869857395 -0.0011592662835470174 0 -0.0045505245970775049 -0.0011025013855813497 0 -0.0044923001576412814 -0.0012267378384952338 0 -0.0045794678869857395 -0.0011592662835470174 0 -0.0045505245970775049 -0.0011025013855813497 0 -0.004619124485352703 -0.0011158741295845809 0 -0.0045794678869857395 -0.0011592662835470174 0 -0.004619124485352703 -0.0011158741295845809 0 -0.0046309456690902502 -0.0011722388689788051 0 -0.004619124485352703 -0.0011158741295845809 0 -0.0046309456690902502 -0.0011722388689788051 0 -0.0046755849535573771 -0.0011370977164374429 0 -0.0045794678869857395 -0.0011592662835470174 0 -0.0046309456690902502 -0.0011722388689788051 0 -0.0045854955352463995 -0.0012089508518847087 0 -0.0046419637084300393 -0.0012288594404051474 0 -0.0046309456690902502 -0.0011722388689788051 0 -0.0045854955352463995 -0.0012089508518847087 0 -0.0046419637084300393 -0.0012288594404051474 0 -0.0046831251123658664 -0.0011824285420523231 0 -0.0047345167399844993 -0.0012186163196707843 0 -0.0046831251123658664 -0.0011824285420523231 0 -0.0047345167399844993 -0.0012186163196707843 0 -0.0047349969351913133 -0.0011505328902130442 0 -0.0046419637084300393 -0.0012288594404051474 0 -0.0046309456690902502 -0.0011722388689788051 0 -0.0046831251123658664 -0.0011824285420523231 0 -0.0046309456690902502 -0.0011722388689788051 0 -0.0046831251123658664 -0.0011824285420523231 0 -0.0046755849535573771 -0.0011370977164374429 0 -0.0052546888479155377 -0.00048227135821087838 0 -0.0052706450920245078 -0.0003694212935816909 0 -0.0053458460175099497 -0.0003590303679858828 0 -0.0052378599009184007 -0.00093783859048298258 0 -0.0050148856035560421 -0.00077643644282831311 0 -0.0048183133693493465 -0.0011301697233469037 0 -0.0047345167399844993 -0.0012186163196707843 0 -0.0047349969351913133 -0.0011505328902130442 0 -0.0052125469052140081 -0.0011515086362841348 0 -0.0050795129387062 -0.0012293776664247908 0 -0.0048183133693493465 -0.0011301697233469037 0 -0.0047349969351913133 -0.0011505328902130442 0 -0.0047990658337662643 -0.0011131306105751793 0 -0.0047990658337662643 -0.0011131306105751793 0 -0.0047249316102102789 -0.0011208299979940922 0 -0.0046907940936719251 -0.0010822501754732541 0 -0.0047349969351913133 -0.0011505328902130442 0 -0.0047990658337662643 -0.0011131306105751793 0 -0.0047249316102102789 -0.0011208299979940922 0 -0.0053785462576355324 -0.001429110200101374 0 -0.0053852420874952681 -0.0013992848758332954 0 -0.0053981785363893427 -0.0014494399935523514 0 -0.0046831251123658664 -0.0011824285420523231 0 -0.0047349969351913133 -0.0011505328902130442 0 -0.0046755849535573771 -0.0011370977164374429 0 -0.0047349969351913133 -0.0011505328902130442 0 -0.0046755849535573771 -0.0011370977164374429 0 -0.0047249316102102789 -0.0011208299979940922 0 -0.0046755849535573771 -0.0011370977164374429 0 -0.0047249316102102789 -0.0011208299979940922 0 -0.0046907940936719251 -0.0010822501754732541 0 -0.004619124485352703 -0.0011158741295845809 0 -0.0046755849535573771 -0.0011370977164374429 0 -0.0046907940936719251 -0.0010822501754732541 0 -0.0053966851131354108 -0.0014318012119009735 0 -0.0055202628170490983 -0.0015309872512521414 0 -0.0055207283891610002 -0.0014636902975263464 0 -0.0054621771050019198 -0.0013834963926151764 0 -0.0053966851131354108 -0.0014318012119009735 0 -0.0055207283891610002 -0.0014636902975263464 0 -0.0054570362202061556 -0.0014689348850944126 0 -0.0054495114887820007 -0.0015016280894977775 0 -0.0054762342553675743 -0.0015189789858481907 0 -0.0054588426794553212 -0.0014833656570859637 0 -0.0054984645190839353 -0.0015121346973279888 0 -0.0052716413852460378 -0.0013129716475044765 0 -0.0054621771050019198 -0.0013834963926151764 0 -0.0053966851131354108 -0.0014318012119009735 0 -0.0053852420874952681 -0.0013992848758332954 0 -0.0053981785363893427 -0.0014494399935523514 0 -0.0054570362202061556 -0.0014689348850944126 0 -0.0053685296166711477 -0.0014477275552939562 0 -0.0053981785363893427 -0.0014494399935523514 0 -0.0053852566426327965 -0.0014690564006040151 0 -0.0053981785363893427 -0.0014494399935523514 0 -0.0054135820939398022 -0.0014820016402830902 0 -0.0053852566426327965 -0.0014690564006040151 0 -0.0053685296166711477 -0.0014477275552939562 0 -0.0053785462576355324 -0.001429110200101374 0 -0.0053981785363893427 -0.0014494399935523514 0 -0.0053981785363893427 -0.0014494399935523514 0 -0.0054570362202061556 -0.0014689348850944126 0 -0.0054135820939398022 -0.0014820016402830902 0 -0.0052125469052140081 -0.0011515086362841348 0 -0.0054588426794553212 -0.0014833656570859637 0 -0.0054570362202061556 -0.0014689348850944126 0 -0.0054495114887820007 -0.0015016280894977775 0 -0.0054135820939398022 -0.0014820016402830902 0 -0.0054495114887820007 -0.0015016280894977775 0 -0.0054135820939398022 -0.0014820016402830902 0 -0.0054277369656518647 -0.0015089489074947102 0 -0.0054135820939398022 -0.0014820016402830902 0 -0.0054024117717878534 -0.0015159559739505546 0 -0.0054277369656518647 -0.0015089489074947102 0 -0.0053778093774948087 -0.0014973226934836964 0 -0.0054135820939398022 -0.0014820016402830902 0 -0.0054024117717878534 -0.0015159559739505546 0 -0.0053778093774948087 -0.0014973226934836964 0 -0.0054135820939398022 -0.0014820016402830902 0 -0.0053852566426327965 -0.0014690564006040151 0 -0.0053712367171960236 -0.0015310581884617558 0 -0.0053966729042730548 -0.0015416954711290204 0 -0.0054024117717878534 -0.0015159559739505546 0 -0.0053712367171960236 -0.0015310581884617558 0 -0.0053778093774948087 -0.0014973226934836964 0 -0.0054024117717878534 -0.0015159559739505546 0 -0.0054024117717878534 -0.0015159559739505546 0 -0.0054235578191921636 -0.001537433436672317 0 -0.0054277369656518647 -0.0015089489074947102 0 -0.0053966729042730548 -0.0015416954711290204 0 -0.0054024117717878534 -0.0015159559739505546 0 -0.0054235578191921636 -0.001537433436672317 0 -0.0054235578191921636 -0.001537433436672317 0 -0.0054277369656518647 -0.0015089489074947102 0 -0.0054580634987585188 -0.0015356994809644896 0 -0.0054495114887820007 -0.0015016280894977775 0 -0.0054277369656518647 -0.0015089489074947102 0 -0.0054580634987585188 -0.0015356994809644896 0 -0.0054377445917897929 -0.0015601199509888233 0 -0.0054580634987585188 -0.0015356994809644896 0 -0.0054596895362843453 -0.0015699228745477526 0 -0.0054235578191921636 -0.001537433436672317 0 -0.0054377445917897929 -0.0015601199509888233 0 -0.0054580634987585188 -0.0015356994809644896 0 -0.0054377445917897929 -0.0015601199509888233 0 -0.0054596895362843453 -0.0015699228745477526 0 -0.0054371171307932321 -0.0015926934379065754 0 -0.0054377445917897929 -0.0015601199509888233 0 -0.0054086666851207044 -0.0015689592326779487 0 -0.0054371171307932321 -0.0015926934379065754 0 -0.0054235578191921636 -0.001537433436672317 0 -0.0054377445917897929 -0.0015601199509888233 0 -0.0054086666851207044 -0.0015689592326779487 0 -0.0053703461782482016 -0.0015647959619394202 0 -0.0053966729042730548 -0.0015416954711290204 0 -0.0054086666851207044 -0.0015689592326779487 0 -0.0053703461782482016 -0.0015647959619394202 0 -0.0054086666851207044 -0.0015689592326779487 0 -0.0053832314409339201 -0.001591549587478583 0 -0.0053966729042730548 -0.0015416954711290204 0 -0.0054235578191921636 -0.001537433436672317 0 -0.0054086666851207044 -0.0015689592326779487 0 -0.0055202628170490983 -0.0015309872512521414 0 -0.0054762342553675743 -0.0015189789858481907 0 -0.0054900220069245406 -0.00156400949792782 0 -0.0054762342553675743 -0.0015189789858481907 0 -0.0054580634987585188 -0.0015356994809644896 0 -0.0054900220069245406 -0.00156400949792782 0 -0.0054570362202061556 -0.0014689348850944126 0 -0.0055202628170490983 -0.0015309872512521414 0 -0.0054762342553675743 -0.0015189789858481907 0 -0.0054495114887820007 -0.0015016280894977775 0 -0.0054762342553675743 -0.0015189789858481907 0 -0.0054580634987585188 -0.0015356994809644896 0 -0.0054580634987585188 -0.0015356994809644896 0 -0.0054596895362843453 -0.0015699228745477526 0 -0.0054900220069245406 -0.00156400949792782 0 -0.0054596895362843453 -0.0015699228745477526 0 -0.0054900220069245406 -0.00156400949792782 0 -0.0054748564996457624 -0.0015984122349803921 0 -0.0055202628170490983 -0.0015309872512521414 0 -0.0054900220069245406 -0.00156400949792782 0 -0.0055232872803118475 -0.0015754200562185215 0 -0.0055232872803118475 -0.0015754200562185215 0 -0.0055840516906751469 -0.0015223429284938245 0 -0.0055208580485314688 -0.0016437205688433758 0 -0.0055202628170490983 -0.0015309872512521414 0 -0.0055232872803118475 -0.0015754200562185215 0 -0.0055840516906751469 -0.0015223429284938245 0 -0.0055202628170490983 -0.0015309872512521414 0 -0.0055840516906751469 -0.0015223429284938245 0 -0.0055207283891610002 -0.0014636902975263464 0 -0.0045102615627479982 -0.0012067135473803261 0 -0.0044952791054036489 -0.0011985321961446079 0 -0.0045101956782638069 -0.0011931103568209073 0 -0.0044952791054036489 -0.0011985321961446079 0 -0.0044788154393841989 -0.0012041510356264049 0 -0.004487168372904686 -0.0011906576980275445 0 -0.0044952791054036489 -0.0011985321961446079 0 -0.004490074136351694 -0.001210373725285043 0 -0.0044788154393841989 -0.0012041510356264049 0 -0.0045102615627479982 -0.0012067135473803261 0 -0.0044952791054036489 -0.0011985321961446079 0 -0.004490074136351694 -0.001210373725285043 0 -0.0045102615627479982 -0.0012067135473803261 0 -0.004490074136351694 -0.001210373725285043 0 -0.0044991503732184392 -0.001215687727903703 0 -0.0044880101840662073 -0.0012233773978161337 0 -0.004490074136351694 -0.001210373725285043 0 -0.004476775254009328 -0.0012148065788246812 0 -0.0044880101840662073 -0.0012233773978161337 0 -0.004490074136351694 -0.001210373725285043 0 -0.0044991503732184392 -0.001215687727903703 0 -0.004490074136351694 -0.001210373725285043 0 -0.004476775254009328 -0.0012148065788246812 0 -0.0044788154393841989 -0.0012041510356264049 0 -0.0045505480723949552 -0.0011793500015283376 0 -0.0049076306985881869 -0.0013422432144143944 0 -0.0050795129387062 -0.0012293776664247908 0 -0.0049076306985881869 -0.0013422432144143944 0 -0.0045505245970775049 -0.0011025013855813497 0 -0.004619124485352703 -0.0011158741295845809 0 -0.0045833397409736163 -0.0010481233801445037 0 -0.0054621771050019198 -0.0013834963926151764 0 -0.0055207283891610002 -0.0014636902975263464 0 -0.0056246985219082684 -0.0014478286457949617 0 -0.004619124485352703 -0.0011158741295845809 0 -0.0046907940936719251 -0.0010822501754732541 0 -0.0045833397409736163 -0.0010481233801445037 0 -0.0050172080963512894 -0.0013212161369647653 0 -0.0049076306985881869 -0.0013422432144143944 0 -0.0055840516906751469 -0.0015223429284938245 0 -0.0055207283891610002 -0.0014636902975263464 0 -0.0056246985219082684 -0.0014478286457949617 0 -0.0044291061598893539 -0.001220739939429385 0 -0.0044558953549350194 -0.0012095991821537398 0 -0.0044299361350293807 -0.0012075897816538925 0 -0.0044291061598893539 -0.001220739939429385 0 -0.0044558953549350194 -0.0012095991821537398 0 -0.0044682719240214455 -0.0012218098291004501 0 -0.0044880101840662073 -0.0012233773978161337 0 -0.004476775254009328 -0.0012148065788246812 0 -0.0044682719240214455 -0.0012218098291004501 0 -0.0044558953549350194 -0.0012095991821537398 0 -0.004476775254009328 -0.0012148065788246812 0 -0.0044682719240214455 -0.0012218098291004501 0 -0.0044558953549350194 -0.0012095991821537398 0 -0.004476775254009328 -0.0012148065788246812 0 -0.0044788154393841989 -0.0012041510356264049 0 -0.0044558953549350194 -0.0012095991821537398 0 -0.0044788154393841989 -0.0012041510356264049 0 -0.0044657137367746938 -0.0011970116249111669 0 -0.0044788154393841989 -0.0012041510356264049 0 -0.0044657137367746938 -0.0011970116249111669 0 -0.004487168372904686 -0.0011906576980275445 0 -0.0044657137367746938 -0.0011970116249111669 0 -0.004442459720159172 -0.0011979150218383657 0 -0.0044582054308348789 -0.0011882228031053392 0 -0.0044558953549350194 -0.0012095991821537398 0 -0.0044657137367746938 -0.0011970116249111669 0 -0.004442459720159172 -0.0011979150218383657 0 -0.0044558953549350194 -0.0012095991821537398 0 -0.0044299361350293807 -0.0012075897816538925 0 -0.004442459720159172 -0.0011979150218383657 0 -0.0044299361350293807 -0.0012075897816538925 0 -0.004442459720159172 -0.0011979150218383657 0 -0.0044166824195517249 -0.0011971304641606492 0 -0.0044166824195517249 -0.0011971304641606492 0 -0.0043998507921688022 -0.0012115889057358218 0 -0.0043799604584526921 -0.0011982470092796686 0 -0.0044299361350293807 -0.0012075897816538925 0 -0.0044166824195517249 -0.0011971304641606492 0 -0.0043998507921688022 -0.0012115889057358218 0 -0.0043998507921688022 -0.0012115889057358218 0 -0.0043532247059866816 -0.0012160641238687167 0 -0.0043799604584526921 -0.0011982470092796686 0 -0.0043532247059866816 -0.0012160641238687167 0 -0.0043799604584526921 -0.0011982470092796686 0 -0.0043204100459153048 -0.0011936826501233095 0 -0.0043998507921688022 -0.0012115889057358218 0 -0.0043532247059866816 -0.0012160641238687167 0 -0.0043823982471931045 -0.0012260244223646706 0 -0.0043532247059866816 -0.0012160641238687167 0 -0.0043823982471931045 -0.0012260244223646706 0 -0.0043424922153382653 -0.0012341331793135793 0 -0.0044291061598893539 -0.001220739939429385 0 -0.0044299361350293807 -0.0012075897816538925 0 -0.0043998507921688022 -0.0012115889057358218 0 -0.0044291061598893539 -0.001220739939429385 0 -0.0043998507921688022 -0.0012115889057358218 0 -0.0043823982471931045 -0.0012260244223646706 0 -0.0044291061598893539 -0.001220739939429385 0 -0.0043823982471931045 -0.0012260244223646706 0 -0.0043983888153103215 -0.0012404350455295849 0 -0.0044291061598893539 -0.001220739939429385 0 -0.0043983888153103215 -0.0012404350455295849 0 -0.0044508842354464744 -0.0012339289982689671 0 -0.0043823982471931045 -0.0012260244223646706 0 -0.0043983888153103215 -0.0012404350455295849 0 -0.0043424922153382653 -0.0012341331793135793 0 -0.0043983888153103215 -0.0012404350455295849 0 -0.0043697911598362853 -0.0012547674631120393 0 -0.0043424922153382653 -0.0012341331793135793 0 -0.0043983888153103215 -0.0012404350455295849 0 -0.004401422747339563 -0.0012660939971183764 0 -0.0043697911598362853 -0.0012547674631120393 0 -0.0043983888153103215 -0.0012404350455295849 0 -0.0044508842354464744 -0.0012339289982689671 0 -0.0044291827859863769 -0.0012597596603571217 0 -0.0043983888153103215 -0.0012404350455295849 0 -0.0044291827859863769 -0.0012597596603571217 0 -0.004401422747339563 -0.0012660939971183764 0 -0.0044291061598893539 -0.001220739939429385 0 -0.0044508842354464744 -0.0012339289982689671 0 -0.0044682719240214455 -0.0012218098291004501 0 -0.0044880101840662073 -0.0012233773978161337 0 -0.0044682719240214455 -0.0012218098291004501 0 -0.0044923001576412814 -0.0012267378384952338 0 -0.0044508842354464744 -0.0012339289982689671 0 -0.0044923001576412814 -0.0012267378384952338 0 -0.0044677543408989983 -0.0012828607740549508 0 -0.0044508842354464744 -0.0012339289982689671 0 -0.0044682719240214455 -0.0012218098291004501 0 -0.0044923001576412814 -0.0012267378384952338 0 -0.004531032419375784 -0.0012785996347188899 0 -0.0044923001576412814 -0.0012267378384952338 0 -0.0044677543408989983 -0.0012828607740549508 0 -0.0044291827859863769 -0.0012597596603571217 0 -0.0044677543408989983 -0.0012828607740549508 0 -0.0044231903952933662 -0.0012851246888644257 0 -0.0044508842354464744 -0.0012339289982689671 0 -0.0044291827859863769 -0.0012597596603571217 0 -0.0044677543408989983 -0.0012828607740549508 0 -0.0044677543408989983 -0.0012828607740549508 0 -0.0044967663391466753 -0.0013429684081595601 0 -0.0044387765461011159 -0.0013194369288556393 0 -0.0044677543408989983 -0.0012828607740549508 0 -0.0044387765461011159 -0.0013194369288556393 0 -0.0044231903952933662 -0.0012851246888644257 0 -0.0045370046087671138 -0.001322685569410181 0 -0.004531032419375784 -0.0012785996347188899 0 -0.0044677543408989983 -0.0012828607740549508 0 -0.0045370046087671138 -0.001322685569410181 0 -0.0044677543408989983 -0.0012828607740549508 0 -0.0044967663391466753 -0.0013429684081595601 0 -0.0050159436151146876 -0.00042927852002080951 0 -0.0050973323797429831 -0.00044613794105994724 0 -0.0055824301902530713 0.00050660509103472677 0 -0.005431408347531484 0.00055702094502102961 0 -0.0055328397171925964 0.00037971550586108146 0 -0.005431408347531484 0.00055702094502102961 0 -0.0055328397171925964 0.00037971550586108146 0 -0.0053828505891683745 0.00040255224845967138 0 -0.0056525443462830732 0.0003866371425292852 0 -0.0055824301902530713 0.00050660509103472677 0 -0.0055328397171925964 0.00037971550586108146 0 -0.0031039085434135601 0.001037651098835909 0 -0.003186783785690699 0.0010445580235576154 0 -0.0031655682853590559 0.00093832398845047947 0 -0.0031039085434135601 0.001037651098835909 0 -0.0031655682853590559 0.00093832398845047947 0 -0.0030584903932155904 0.00097398264743650521 0 -0.0042361647093667803 0.00075269624326306113 0 -0.004057879642176518 0.0002654200229383507 0 -0.005431408347531484 0.00055702094502102961 0 -0.0053828505891683745 0.00040255224845967138 0 -0.0052599353664017287 0.00060055013802245397 0 -0.0031655682853590559 0.00093832398845047947 0 -0.0030584903932155904 0.00097398264743650521 0 -0.0031139651505489078 0.0008096109441524859 0 -0.0031655682853590559 0.00093832398845047947 0 -0.003179387845273567 0.00084242493409214135 0 -0.0031139651505489078 0.0008096109441524859 0 -0.003179387845273567 0.00084242493409214135 0 -0.0031139651505489078 0.0008096109441524859 0 -0.0031940562186329765 0.00077505319642310439 0 -0.0030276935370433713 0.00076072490678182145 0 -0.0031037699188702027 0.00056074595908345987 0 -0.0031387163141027726 0.00073286528864806061 0 -0.004057879642176518 0.0002654200229383507 0 -0.0029934147392237441 0.00079883439721632613 0 -0.0044387765461011159 -0.0013194369288556393 0 -0.0043915962137640856 -0.0012949348051630937 0 -0.0044231903952933662 -0.0012851246888644257 0 -0.0050973323797429831 -0.00044613794105994724 0 -0.004057879642176518 0.0002654200229383507 0 -0.0043915962137640856 -0.0012949348051630937 0 -0.0044231903952933662 -0.0012851246888644257 0 -0.004401422747339563 -0.0012660939971183764 0 -0.0044291827859863769 -0.0012597596603571217 0 -0.0044231903952933662 -0.0012851246888644257 0 -0.004401422747339563 -0.0012660939971183764 0 -0.004057879642176518 0.0002654200229383507 0 -0.00370319507422146 -0.00044764840956661715 0 -0.0043915962137640856 -0.0012949348051630937 0 -0.004401422747339563 -0.0012660939971183764 0 -0.0043697911598362853 -0.0012547674631120393 0 -0.0031037699188702027 0.00056074595908345987 0 -0.0032138979342891246 0.00059496282222912418 0 -0.0031387163141027726 0.00073286528864806061 0 -0.0032138979342891246 0.00059496282222912418 0 -0.0033435517303356615 0.00055034937168270837 0 -0.0032747091400246835 0.00071802677987750239 0 -0.0033435517303356615 0.00055034937168270837 0 -0.0032747091400246835 0.00071802677987750239 0 -0.0033895819500338355 0.00071102146908777345 0 -0.0032747091400246835 0.00071802677987750239 0 -0.0034044156112673515 0.00084281039401692807 0 -0.0033895819500338355 0.00071102146908777345 0 -0.0032747091400246835 0.00071802677987750239 0 -0.0032458037883896142 0.00084714936857726729 0 -0.0034044156112673515 0.00084281039401692807 0 -0.0032138979342891246 0.00059496282222912418 0 -0.0032747091400246835 0.00071802677987750239 0 -0.0031387163141027726 0.00073286528864806061 0 -0.0033226497825408342 0.00070651229259524422 0 -0.0029934147392237441 0.00079883439721632613 0 -0.0032747091400246835 0.00071802677987750239 0 -0.0031940562186329765 0.00077505319642310439 0 -0.0032458037883896142 0.00084714936857726729 0 -0.003179387845273567 0.00084242493409214135 0 -0.0031940562186329765 0.00077505319642310439 0 -0.0032458037883896142 0.00084714936857726729 0 -0.0031655682853590559 0.00093832398845047947 0 -0.0032458037883896142 0.00084714936857726729 0 -0.0033001416568966195 0.00095008145713701474 0 -0.0031655682853590559 0.00093832398845047947 0 -0.003179387845273567 0.00084242493409214135 0 -0.0032458037883896142 0.00084714936857726729 0 -0.0032458037883896142 0.00084714936857726729 0 -0.0033001416568966195 0.00095008145713701474 0 -0.0034044156112673515 0.00084281039401692807 0 -0.0033200367195276663 0.0010652307193587734 0 -0.0033001416568966195 0.00095008145713701474 0 -0.0034752986694560925 0.0010064786655415677 0 -0.003186783785690699 0.0010445580235576154 0 -0.0031655682853590559 0.00093832398845047947 0 -0.0033001416568966195 0.00095008145713701474 0 -0.0033200367195276663 0.0010652307193587734 0 -0.003186783785690699 0.0010445580235576154 0 -0.0033001416568966195 0.00095008145713701474 0 -0.0036064937130306359 0.0010763978621825222 0 -0.0036441292001433956 0.00095914565709999649 0 -0.0034752986694560925 0.0010064786655415677 0 -0.0033001416568966195 0.00095008145713701474 0 -0.0034752986694560925 0.0010064786655415677 0 -0.0034044156112673515 0.00084281039401692807 0 -0.0034752986694560925 0.0010064786655415677 0 -0.0034044156112673515 0.00084281039401692807 0 -0.0035557370636129597 0.00084665809225951776 0 -0.0036441292001433956 0.00095914565709999649 0 -0.0034752986694560925 0.0010064786655415677 0 -0.0035557370636129597 0.00084665809225951776 0 -0.0036034893322902314 0.00064377716622931699 0 -0.0035557370636129597 0.00084665809225951776 0 -0.0034838188078849578 0.00074342957269755549 0 -0.0034044156112673515 0.00084281039401692807 0 -0.0034838188078849578 0.00074342957269755549 0 -0.0033895819500338355 0.00071102146908777345 0 -0.0034044156112673515 0.00084281039401692807 0 -0.0035557370636129597 0.00084665809225951776 0 -0.0034838188078849578 0.00074342957269755549 0 -0.0034838188078849578 0.00074342957269755549 0 -0.0033895819500338355 0.00071102146908777345 0 -0.0034574313442857054 0.00062772608485746123 0 -0.0033435517303356615 0.00055034937168270837 0 -0.0034574313442857054 0.00062772608485746123 0 -0.0034913018140625553 0.00048953633482521372 0 -0.0033435517303356615 0.00055034937168270837 0 -0.0033895819500338355 0.00071102146908777345 0 -0.0034574313442857054 0.00062772608485746123 0 -0.0036034893322902314 0.00064377716622931699 0 -0.0034838188078849578 0.00074342957269755549 0 -0.0034574313442857054 0.00062772608485746123 0 -0.0036034893322902314 0.00064377716622931699 0 -0.0034574313442857054 0.00062772608485746123 0 -0.0034913018140625553 0.00048953633482521372 0 -0.0036034893322902314 0.00064377716622931699 0 -0.0036114966039584068 0.0004495452053816039 0 -0.0034913018140625553 0.00048953633482521372 0 -0.0036114966039584068 0.0004495452053816039 0 -0.0034913018140625553 0.00048953633482521372 0 -0.0035624101389071842 0.00030299906436196333 0 -0.0035624101389071842 0.00030299906436196333 0 -0.003396092009183106 0.00036184538195623185 0 -0.0034857721493436714 0.00010955578958311946 0 -0.0034913018140625553 0.00048953633482521372 0 -0.0035624101389071842 0.00030299906436196333 0 -0.003396092009183106 0.00036184538195623185 0 -0.0033435517303356615 0.00055034937168270837 0 -0.0034913018140625553 0.00048953633482521372 0 -0.003396092009183106 0.00036184538195623185 0 -0.0033435517303356615 0.00055034937168270837 0 -0.003396092009183106 0.00036184538195623185 0 -0.0031856063689338341 0.00033033640028151819 0 -0.0032138979342891246 0.00059496282222912418 0 -0.0033435517303356615 0.00055034937168270837 0 -0.0031856063689338341 0.00033033640028151819 0 -0.00370319507422146 -0.00044764840956661715 0 -0.0037652392463233516 -0.00043259985382965979 0 -0.0031037699188702027 0.00056074595908345987 0 -0.0032138979342891246 0.00059496282222912418 0 -0.0031856063689338341 0.00033033640028151819 0 -0.003396092009183106 0.00036184538195623185 0 -0.0031856063689338341 0.00033033640028151819 0 -0.0032786034340506068 9.1432866815425849e-05 0 -0.0037652392463233516 -0.00043259985382965979 0 -0.0037873999394252289 -0.00056567771943381634 0 -0.0043532247059866816 -0.0012160641238687167 0 -0.0043424922153382653 -0.0012341331793135793 0 -0.004296898571362142 -0.0012179604053470397 0 -0.0043532247059866816 -0.0012160641238687167 0 -0.004296898571362142 -0.0012179604053470397 0 -0.0043204100459153048 -0.0011936826501233095 0 -0.0037873999394252289 -0.00056567771943381634 0 -0.0038042529276217352 -0.00066672439532569649 0 -0.0032786034340506068 9.1432866815425849e-05 0 -0.0034857721493436714 0.00010955578958311946 0 -0.0033814805775065869 -0.00014671263209518193 0 -0.0036746634120324883 0.00013584040868490791 0 -0.0034857721493436714 0.00010955578958311946 0 -0.0036180564501994777 -8.4584861741776409e-05 0 -0.0036746634120324883 0.00013584040868490791 0 -0.0035624101389071842 0.00030299906436196333 0 -0.0034857721493436714 0.00010955578958311946 0 -0.003396092009183106 0.00036184538195623185 0 -0.0032786034340506068 9.1432866815425849e-05 0 -0.0034857721493436714 0.00010955578958311946 0 -0.0038042529276217352 -0.00066672439532569649 0 -0.0038161818118983728 -0.00074621376784538387 0 -0.0042287478311189841 -0.0011876346621037092 0 -0.0042600375039032554 -0.001151074078868142 0 -0.0041432525138198348 -0.0011342362708962439 0 -0.0036108693218309396 -0.00025742197794544021 0 -0.0033814805775065869 -0.00014671263209518193 0 -0.0034896190385414996 -0.00038464834352080308 0 -0.0034857721493436714 0.00010955578958311946 0 -0.0036180564501994777 -8.4584861741776409e-05 0 -0.0033814805775065869 -0.00014671263209518193 0 -0.0036108693218309396 -0.00025742197794544021 0 -0.0036180564501994777 -8.4584861741776409e-05 0 -0.0033814805775065869 -0.00014671263209518193 0 -0.004296898571362142 -0.0012179604053470397 0 -0.0042287478311189841 -0.0011876346621037092 0 -0.0043204100459153048 -0.0011936826501233095 0 -0.0043204100459153048 -0.0011936826501233095 0 -0.0043336777886853854 -0.0011637865366196441 0 -0.0043635668721612245 -0.0011807464427239364 0 -0.0043336777886853854 -0.0011637865366196441 0 -0.0042600375039032554 -0.001151074078868142 0 -0.0043037964914671113 -0.0011345880844505032 0 -0.0043204100459153048 -0.0011936826501233095 0 -0.0043336777886853854 -0.0011637865366196441 0 -0.0042600375039032554 -0.001151074078868142 0 -0.0043336777886853854 -0.0011637865366196441 0 -0.0043037964914671113 -0.0011345880844505032 0 -0.004358616846817551 -0.0011399305669519166 0 -0.0042287478311189841 -0.0011876346621037092 0 -0.0043204100459153048 -0.0011936826501233095 0 -0.0042600375039032554 -0.001151074078868142 0 -0.0042600375039032554 -0.001151074078868142 0 -0.004204470629579655 -0.0011120951058211626 0 -0.0042706362603478782 -0.0010999045900159717 0 -0.0043037964914671113 -0.0011345880844505032 0 -0.0042706362603478782 -0.0010999045900159717 0 -0.0043332911180863415 -0.0011085851291903941 0 -0.0042600375039032554 -0.001151074078868142 0 -0.0043037964914671113 -0.0011345880844505032 0 -0.0042706362603478782 -0.0010999045900159717 0 -0.0042706362603478782 -0.0010999045900159717 0 -0.0042263391900867657 -0.0010504985238691483 0 -0.0042854757734792394 -0.0010453300407030281 0 -0.0043201122722081311 -0.0010730664307601889 0 -0.0042854757734792394 -0.0010453300407030281 0 -0.0043543060386994435 -0.0010443240342883305 0 -0.0042706362603478782 -0.0010999045900159717 0 -0.0043201122722081311 -0.0010730664307601889 0 -0.0043332911180863415 -0.0011085851291903941 0 -0.0042706362603478782 -0.0010999045900159717 0 -0.0043201122722081311 -0.0010730664307601889 0 -0.0042854757734792394 -0.0010453300407030281 0 -0.004204470629579655 -0.0011120951058211626 0 -0.0041669448832392505 -0.0010665108889529493 0 -0.0042263391900867657 -0.0010504985238691483 0 -0.004204470629579655 -0.0011120951058211626 0 -0.0042706362603478782 -0.0010999045900159717 0 -0.0042263391900867657 -0.0010504985238691483 0 -0.004204470629579655 -0.0011120951058211626 0 -0.0041669448832392505 -0.0010665108889529493 0 -0.0041432525138198348 -0.0011342362708962439 0 -0.0041669448832392505 -0.0010665108889529493 0 -0.0041432525138198348 -0.0011342362708962439 0 -0.0041034322092708079 -0.0010554117503869343 0 -0.0042600375039032554 -0.001151074078868142 0 -0.004204470629579655 -0.0011120951058211626 0 -0.0041432525138198348 -0.0011342362708962439 0 -0.0037178756165219613 -0.00042210389891860894 0 -0.0036108693218309396 -0.00025742197794544021 0 -0.0034896190385414996 -0.00038464834352080308 0 -0.0038161818118983728 -0.00074621376784538387 0 -0.0038131287914679847 -0.00089650762666234891 0 -0.0041432525138198348 -0.0011342362708962439 0 -0.0040534353180875417 -0.0010574695921584613 0 -0.0041034322092708079 -0.0010554117503869343 0 -0.0037178756165219613 -0.00042210389891860894 0 -0.0034896190385414996 -0.00038464834352080308 0 -0.0036049180988915771 -0.0006268015063427986 0 -0.0038131287914679847 -0.00089650762666234891 0 -0.0039908768983959843 -0.0010346654820683687 0 -0.0040534353180875417 -0.0010574695921584613 0 -0.0041034322092708079 -0.0010554117503869343 0 -0.0040443189978992457 -0.0010203920575569162 0 -0.0041034322092708079 -0.0010554117503869343 0 -0.0040443189978992457 -0.0010203920575569162 0 -0.0041181258250408189 -0.0010184492072289146 0 -0.0038456660485126186 -0.00097068731825484926 0 -0.0039470863087675244 -0.0011819471114378804 0 -0.0040443189978992457 -0.0010203920575569162 0 -0.0041669448832392505 -0.0010665108889529493 0 -0.0041181258250408189 -0.0010184492072289146 0 -0.0041790045483096035 -0.0010219101958450849 0 -0.0041669448832392505 -0.0010665108889529493 0 -0.0041034322092708079 -0.0010554117503869343 0 -0.0041181258250408189 -0.0010184492072289146 0 -0.0041181258250408189 -0.0010184492072289146 0 -0.0041790045483096035 -0.0010219101958450849 0 -0.0041522202188868877 -0.00095877222918235732 0 -0.0041181258250408189 -0.0010184492072289146 0 -0.0041522202188868877 -0.00095877222918235732 0 -0.0040427516397379109 -0.00094309776419859682 0 -0.0041522202188868877 -0.00095877222918235732 0 -0.0040427516397379109 -0.00094309776419859682 0 -0.0040891382237020213 -0.00089203772467854432 0 -0.0038456660485126186 -0.00097068731825484926 0 -0.0040427516397379109 -0.00094309776419859682 0 -0.0039458913554988855 -0.00090338074613600396 0 -0.0040427516397379109 -0.00094309776419859682 0 -0.0039458913554988855 -0.00090338074613600396 0 -0.0040891382237020213 -0.00089203772467854432 0 -0.0038456660485126186 -0.00097068731825484926 0 -0.0040443189978992457 -0.0010203920575569162 0 -0.0040427516397379109 -0.00094309776419859682 0 -0.0040443189978992457 -0.0010203920575569162 0 -0.0041181258250408189 -0.0010184492072289146 0 -0.0040427516397379109 -0.00094309776419859682 0 -0.0039458913554988855 -0.00090338074613600396 0 -0.0040089652197845809 -0.00080380684495925015 0 -0.0040891382237020213 -0.00089203772467854432 0 -0.0038872823744872408 -0.00081598603764220597 0 -0.0039458913554988855 -0.00090338074613600396 0 -0.0040089652197845809 -0.00080380684495925015 0 -0.0041675206231141289 -0.00088167659684536715 0 -0.0040891382237020213 -0.00089203772467854432 0 -0.0041506954178008419 -0.00084599408373306787 0 -0.0040909388265826935 -0.00090203934204432688 0 -0.0041361675213019942 -0.00076468150810147519 0 -0.0041522202188868877 -0.00095877222918235732 0 -0.0041675206231141289 -0.00088167659684536715 0 -0.0040891382237020213 -0.00089203772467854432 0 -0.0040089652197845809 -0.00080380684495925015 0 -0.0040891382237020213 -0.00089203772467854432 0 -0.0041115827646333401 -0.00075275678097964016 0 -0.0041506954178008419 -0.00084599408373306787 0 -0.0041975524647953075 -0.00083115562792361662 0 -0.0041781243780438151 -0.00079298922774784968 0 -0.0041675206231141289 -0.00088167659684536715 0 -0.0041506954178008419 -0.00084599408373306787 0 -0.0042298814528273204 -0.00086697412391620093 0 -0.0038872823744872408 -0.00081598603764220597 0 -0.0040089652197845809 -0.00080380684495925015 0 -0.0040134253313979257 -0.00065638582276476701 0 -0.0040089652197845809 -0.00080380684495925015 0 -0.0041115827646333401 -0.00075275678097964016 0 -0.0040134253313979257 -0.00065638582276476701 0 -0.0038061973717208662 -0.00093857115134676143 0 -0.0038490544971069118 -0.0012625533614806874 0 -0.0042298814528273204 -0.00086697412391620093 0 -0.0043128018619250363 -0.00088542071046554364 0 -0.0042946303622593551 -0.00085426422251814072 0 -0.0043715465183668933 -0.0010198563821283853 0 -0.0043012335193607157 -0.00087253245254904769 0 -0.0044341179893061453 -0.0011711567912763975 0 -0.0044712867677274342 -0.00095384880130312648 0 -0.0042946303622593551 -0.00085426422251814072 0 -0.0042298814528273204 -0.00086697412391620093 0 -0.0042342864969860932 -0.00082926955187394269 0 -0.0042946303622593551 -0.00085426422251814072 0 -0.0041506954178008419 -0.00084599408373306787 0 -0.0041975524647953075 -0.00083115562792361662 0 -0.0042298814528273204 -0.00086697412391620093 0 -0.0041975524647953075 -0.00083115562792361662 0 -0.0042298814528273204 -0.00086697412391620093 0 -0.0042342864969860932 -0.00082926955187394269 0 -0.0041522202188868877 -0.00095877222918235732 0 -0.0041675206231141289 -0.00088167659684536715 0 -0.0042183175203566632 -0.00092299409593447012 0 -0.0041675206231141289 -0.00088167659684536715 0 -0.0042298814528273204 -0.00086697412391620093 0 -0.0042183175203566632 -0.00092299409593447012 0 -0.0042298814528273204 -0.00086697412391620093 0 -0.0042183175203566632 -0.00092299409593447012 0 -0.0042616830038914397 -0.00090550778691538599 0 -0.0042183175203566632 -0.00092299409593447012 0 -0.0042616830038914397 -0.00090550778691538599 0 -0.0042860635142407677 -0.0009512665196231636 0 -0.0042616830038914397 -0.00090550778691538599 0 -0.0042860635142407677 -0.0009512665196231636 0 -0.0043128018619250363 -0.00088542071046554364 0 -0.0042298814528273204 -0.00086697412391620093 0 -0.0042616830038914397 -0.00090550778691538599 0 -0.0043128018619250363 -0.00088542071046554364 0 -0.0042860635142407677 -0.0009512665196231636 0 -0.0042303192645344921 -0.00099684293227719593 0 -0.0043204263432615264 -0.0010027379860597782 0 -0.0041522202188868877 -0.00095877222918235732 0 -0.0042183175203566632 -0.00092299409593447012 0 -0.0042303192645344921 -0.00099684293227719593 0 -0.0042183175203566632 -0.00092299409593447012 0 -0.0042860635142407677 -0.0009512665196231636 0 -0.0042303192645344921 -0.00099684293227719593 0 -0.0041790045483096035 -0.0010219101958450849 0 -0.0041522202188868877 -0.00095877222918235732 0 -0.0042303192645344921 -0.00099684293227719593 0 -0.0041790045483096035 -0.0010219101958450849 0 -0.0042303192645344921 -0.00099684293227719593 0 -0.0042263391900867657 -0.0010504985238691483 0 -0.0042303192645344921 -0.00099684293227719593 0 -0.0042263391900867657 -0.0010504985238691483 0 -0.0042854757734792394 -0.0010453300407030281 0 -0.0041669448832392505 -0.0010665108889529493 0 -0.0041790045483096035 -0.0010219101958450849 0 -0.0042263391900867657 -0.0010504985238691483 0 -0.0042303192645344921 -0.00099684293227719593 0 -0.0042854757734792394 -0.0010453300407030281 0 -0.0043204263432615264 -0.0010027379860597782 0 -0.0042854757734792394 -0.0010453300407030281 0 -0.0043204263432615264 -0.0010027379860597782 0 -0.0043543060386994435 -0.0010443240342883305 0 -0.0043204263432615264 -0.0010027379860597782 0 -0.0043990948307355759 -0.0010250438201230155 0 -0.0043578180247219912 -0.00095337067582096065 0 -0.0043204263432615264 -0.0010027379860597782 0 -0.0043543060386994435 -0.0010443240342883305 0 -0.0043990948307355759 -0.0010250438201230155 0 -0.0043736872163751273 -0.0010792340094646249 0 -0.0045340198659300111 -0.0012273158747872657 0 -0.0047402780604578389 -0.0017632523487848076 0 -0.004798488002066381 -0.001488471069851411 0 -0.0049648550353118236 -0.0016619027965537882 0 -0.0044843775594194295 -0.0011473905666468478 0 -0.0044650444441208048 -0.0011609429396557084 0 -0.0044638943794689532 -0.0011352530061869213 0 -0.0043543060386994435 -0.0010443240342883305 0 -0.004412935503076588 -0.0010142850256143203 0 -0.0044018733883311352 -0.0010869082898840136 0 -0.0045340198659300111 -0.0012273158747872657 0 -0.0049993531497523344 -0.0016803084508180521 0 -0.0045340198659300111 -0.0012273158747872657 0 -0.0044860912637736273 -0.0012447325395621715 0 -0.0047402780604578389 -0.0017632523487848076 0 -0.004798488002066381 -0.001488471069851411 0 -0.0045896718157648099 -0.0014729332033177078 0 -0.0042860635142407677 -0.0009512665196231636 0 -0.0043204263432615264 -0.0010027379860597782 0 -0.0043578180247219912 -0.00095337067582096065 0 -0.0045896718157648099 -0.0014729332033177078 0 -0.0044341179893061453 -0.0011711567912763975 0 -0.004705222897905763 -0.0011979331447748416 0 -0.0042860635142407677 -0.0009512665196231636 0 -0.0043578180247219912 -0.00095337067582096065 0 -0.0043128018619250363 -0.00088542071046554364 0 -0.0044860912637736273 -0.0012447325395621715 0 -0.0043715465183668933 -0.0010198563821283853 0 -0.004798488002066381 -0.001488471069851411 0 -0.004705222897905763 -0.0011979331447748416 0 -0.0049905378885423428 -0.0013391832321077636 0 -0.004798488002066381 -0.001488471069851411 0 -0.0045896718157648099 -0.0014729332033177078 0 -0.004705222897905763 -0.0011979331447748416 0 -0.004705222897905763 -0.0011979331447748416 0 -0.00501658835700672 -0.001013227036614896 0 -0.0046448987862330038 -0.00085971778005762697 0 -0.0054103974748753204 -0.0023558585990660708 0 -0.0050004031679423923 -0.0020493432667563162 0 -0.004705222897905763 -0.0011979331447748416 0 -0.0044712867677274342 -0.00095384880130312648 0 -0.0046448987862330038 -0.00085971778005762697 0 -0.0044341179893061453 -0.0011711567912763975 0 -0.004705222897905763 -0.0011979331447748416 0 -0.0044712867677274342 -0.00095384880130312648 0 -0.0057181798251233519 -0.0026820743649439258 0 -0.0056676899538505229 -0.0027266838562085755 0 -0.0056543147529040678 -0.0026353897250945757 0 -0.0057181798251233519 -0.0026820743649439258 0 -0.0056676899538505229 -0.0027266838562085755 0 -0.0057240613367772839 -0.0027710649551206299 0 -0.0057181798251233519 -0.0026820743649439258 0 -0.0057827509012946445 -0.0027039983204727169 0 -0.005790727933238914 -0.002586008244798146 0 -0.0057181798251233519 -0.0026820743649439258 0 -0.005790905206182459 -0.0027112069982946517 0 -0.0057240613367772839 -0.0027710649551206299 0 -0.0058507410622853431 -0.0026969666911442949 0 -0.0054103974748753204 -0.0023558585990660708 0 -0.004705222897905763 -0.0011979331447748416 0 -0.00501658835700672 -0.001013227036614896 0 -0.0049905378885423428 -0.0013391832321077636 0 -0.0054103974748753204 -0.0023558585990660708 0 -0.0054154817971432644 -0.0019366248985606676 0 -0.0057181798251233519 -0.0026820743649439258 0 -0.005790727933238914 -0.002586008244798146 0 -0.0057158702881168182 -0.0025921675486417568 0 -0.005790727933238914 -0.002586008244798146 0 -0.0057158702881168182 -0.0025921675486417568 0 -0.0057420228824974521 -0.0025428130882579106 0 -0.0057158702881168182 -0.0025921675486417568 0 -0.005669562055838879 -0.0025333195902175532 0 -0.0056543147529040678 -0.0026353897250945757 0 -0.0057181798251233519 -0.0026820743649439258 0 -0.0057158702881168182 -0.0025921675486417568 0 -0.0056543147529040678 -0.0026353897250945757 0 -0.0051831251852014317 -0.0018131494025469929 0 -0.0049993531497523344 -0.0016803084508180521 0 -0.0046582663615447797 -0.0010559042215504582 0 -0.0045849951208146063 -0.0011421259105004599 0 -0.0044633420050073343 -0.0011493474570980885 0 -0.005669562055838879 -0.0025333195902175532 0 -0.0057420228824974521 -0.0025428130882579106 0 -0.0057927784878590988 -0.0024596408041728493 0 -0.0057158702881168182 -0.0025921675486417568 0 -0.005669562055838879 -0.0025333195902175532 0 -0.0057420228824974521 -0.0025428130882579106 0 -0.0046582663615447797 -0.0010559042215504582 0 -0.0045849951208146063 -0.0011421259105004599 0 -0.0048063256752956295 -0.0012307339642183765 0 -0.0054154817971432644 -0.0019366248985606676 0 -0.0049993531497523344 -0.0016803084508180521 0 -0.005790727933238914 -0.002586008244798146 0 -0.0057420228824974521 -0.0025428130882579106 0 -0.0057927784878590988 -0.0024596408041728493 0 -0.004798488002066381 -0.001488471069851411 0 -0.0049905378885423428 -0.0013391832321077636 0 -0.0049648550353118236 -0.0016619027965537882 0 -0.0045849951208146063 -0.0011421259105004599 0 -0.0044633420050073343 -0.0011493474570980885 0 -0.0045091700239829951 -0.0011595073752308622 0 -0.0045091700239829951 -0.0011595073752308622 0 -0.0045175592344275373 -0.0011586129146487234 0 -0.0044920118296732396 -0.0011594613515453519 0 -0.0049993531497523344 -0.0016803084508180521 0 -0.0045027996472721743 -0.001072559366930998 0 -0.0044633420050073343 -0.0011493474570980885 0 -0.0045091700239829951 -0.0011595073752308622 0 -0.0044920118296732396 -0.0011594613515453519 0 -0.0045849951208146063 -0.0011421259105004599 0 -0.0045091700239829951 -0.0011595073752308622 0 -0.0045175592344275373 -0.0011586129146487234 0 -0.0045810837670593558 -0.0011561515575682277 0 -0.0046916912790792003 -0.0013729811878923194 0 -0.0045849951208146063 -0.0011421259105004599 0 -0.0045175592344275373 -0.0011586129146487234 0 -0.0045063838213876203 -0.0011552443820028579 0 -0.0044962593977788158 -0.0011494631661102131 0 -0.0044975429813123658 -0.0011564508744425547 0 -0.0045063838213876203 -0.0011552443820028579 0 -0.0045175592344275373 -0.0011586129146487234 0 -0.0044962593977788158 -0.0011494631661102131 0 -0.0045063838213876203 -0.0011552443820028579 0 -0.0045175592344275373 -0.0011586129146487234 0 -0.0044962593977788158 -0.0011494631661102131 0 -0.0044851712279344791 -0.0011451329929429146 0 -0.0044962593977788158 -0.0011494631661102131 0 -0.0044836240074226123 -0.0011546978712269019 0 -0.0044975429813123658 -0.0011564508744425547 0 -0.0044962593977788158 -0.0011494631661102131 0 -0.0044836240074226123 -0.0011546978712269019 0 -0.0044779248427740401 -0.001145942799289249 0 -0.0044836240074226123 -0.0011546978712269019 0 -0.0044855838890042231 -0.0011650529190536751 0 -0.0044975429813123658 -0.0011564508744425547 0 -0.0044583182097862814 -0.0011467770997632871 0 -0.0044650850593689331 -0.0011550986498151806 0 -0.0044448718670280496 -0.0011564555128669889 0 -0.0044583182097862814 -0.0011467770997632871 0 -0.0044514084117207638 -0.0011371574242561508 0 -0.0044354023987676532 -0.0011452966635923749 0 -0.0044583182097862814 -0.0011467770997632871 0 -0.0044354023987676532 -0.0011452966635923749 0 -0.0044448718670280496 -0.0011564555128669889 0 -0.0044836240074226123 -0.0011546978712269019 0 -0.0044650850593689331 -0.0011550986498151806 0 -0.0044779248427740401 -0.001145942799289249 0 -0.0044583182097862814 -0.0011467770997632871 0 -0.0044650850593689331 -0.0011550986498151806 0 -0.0044779248427740401 -0.001145942799289249 0 -0.0044779248427740401 -0.001145942799289249 0 -0.004470115173056846 -0.0011384355691226645 0 -0.0044851712279344791 -0.0011451329929429146 0 -0.0044962593977788158 -0.0011494631661102131 0 -0.0044779248427740401 -0.001145942799289249 0 -0.0044851712279344791 -0.0011451329929429146 0 -0.004470115173056846 -0.0011384355691226645 0 -0.0044667382385118835 -0.0011291540277658572 0 -0.0044851712279344791 -0.0011451329929429146 0 -0.0044583182097862814 -0.0011467770997632871 0 -0.0044779248427740401 -0.001145942799289249 0 -0.004470115173056846 -0.0011384355691226645 0 -0.0044583182097862814 -0.0011467770997632871 0 -0.004470115173056846 -0.0011384355691226645 0 -0.0044514084117207638 -0.0011371574242561508 0 -0.0044667382385118835 -0.0011291540277658572 0 -0.0044514084117207638 -0.0011371574242561508 0 -0.0044479242684587117 -0.0011288901895341031 0 -0.0044667382385118835 -0.0011291540277658572 0 -0.0044628742168187135 -0.0011240247456452657 0 -0.0044479242684587117 -0.0011288901895341031 0 -0.004470115173056846 -0.0011384355691226645 0 -0.0044667382385118835 -0.0011291540277658572 0 -0.0044514084117207638 -0.0011371574242561508 0 -0.0044667382385118835 -0.0011291540277658572 0 -0.0044628742168187135 -0.0011240247456452657 0 -0.0044638943794689532 -0.0011352530061869213 0 -0.0044714307783424723 -0.0011573936112128109 0 -0.0045027996472721743 -0.001072559366930998 0 -0.0044667382385118835 -0.0011291540277658572 0 -0.0044851712279344791 -0.0011451329929429146 0 -0.0044920118296732396 -0.0011594613515453519 0 -0.0045175592344275373 -0.0011586129146487234 0 -0.0044851712279344791 -0.0011451329929429146 0 -0.0044920118296732396 -0.0011594613515453519 0 -0.0045340198659300111 -0.0012273158747872657 0 -0.0044303525643958636 -0.001060719217326528 0 -0.0044843775594194295 -0.0011473905666468478 0 -0.0044628742168187135 -0.0011240247456452657 0 -0.0044638943794689532 -0.0011352530061869213 0 -0.004412935503076588 -0.0010142850256143203 0 -0.0044628742168187135 -0.0011240247456452657 0 -0.0044018733883311352 -0.0010869082898840136 0 -0.0044018733883311352 -0.0010869082898840136 0 -0.0044271931631357569 -0.0011118978500229333 0 -0.0043896852028335312 -0.0011159990698111795 0 -0.0044628742168187135 -0.0011240247456452657 0 -0.0044018733883311352 -0.0010869082898840136 0 -0.0044271931631357569 -0.0011118978500229333 0 -0.0044628742168187135 -0.0011240247456452657 0 -0.0044271931631357569 -0.0011118978500229333 0 -0.0044415861504176896 -0.0011238754411923156 0 -0.0043201122722081311 -0.0010730664307601889 0 -0.0043543060386994435 -0.0010443240342883305 0 -0.0043594094954208492 -0.0010861089201226327 0 -0.0043543060386994435 -0.0010443240342883305 0 -0.0044018733883311352 -0.0010869082898840136 0 -0.0043594094954208492 -0.0010861089201226327 0 -0.0044018733883311352 -0.0010869082898840136 0 -0.0043594094954208492 -0.0010861089201226327 0 -0.0043896852028335312 -0.0011159990698111795 0 -0.0043594094954208492 -0.0010861089201226327 0 -0.0043332911180863415 -0.0011085851291903941 0 -0.0043896852028335312 -0.0011159990698111795 0 -0.0043201122722081311 -0.0010730664307601889 0 -0.0043594094954208492 -0.0010861089201226327 0 -0.0043332911180863415 -0.0011085851291903941 0 -0.0043332911180863415 -0.0011085851291903941 0 -0.004358616846817551 -0.0011399305669519166 0 -0.0043896852028335312 -0.0011159990698111795 0 -0.004358616846817551 -0.0011399305669519166 0 -0.0043896852028335312 -0.0011159990698111795 0 -0.0044001976535443504 -0.001141865804652601 0 -0.004358616846817551 -0.0011399305669519166 0 -0.0044001976535443504 -0.001141865804652601 0 -0.0043896677205961677 -0.0011647002145476737 0 -0.0043037964914671113 -0.0011345880844505032 0 -0.0043332911180863415 -0.0011085851291903941 0 -0.004358616846817551 -0.0011399305669519166 0 -0.004428675281382021 -0.0011306931261703432 0 -0.0044514084117207638 -0.0011371574242561508 0 -0.0044354023987676532 -0.0011452966635923749 0 -0.004428675281382021 -0.0011306931261703432 0 -0.0044514084117207638 -0.0011371574242561508 0 -0.0044479242684587117 -0.0011288901895341031 0 -0.0044628742168187135 -0.0011240247456452657 0 -0.0044479242684587117 -0.0011288901895341031 0 -0.0044415861504176896 -0.0011238754411923156 0 -0.004428675281382021 -0.0011306931261703432 0 -0.0044479242684587117 -0.0011288901895341031 0 -0.0044415861504176896 -0.0011238754411923156 0 -0.0044271931631357569 -0.0011118978500229333 0 -0.004428675281382021 -0.0011306931261703432 0 -0.0044415861504176896 -0.0011238754411923156 0 -0.004428675281382021 -0.0011306931261703432 0 -0.0043896852028335312 -0.0011159990698111795 0 -0.0044001976535443504 -0.001141865804652601 0 -0.0044271931631357569 -0.0011118978500229333 0 -0.004428675281382021 -0.0011306931261703432 0 -0.0043896852028335312 -0.0011159990698111795 0 -0.004428675281382021 -0.0011306931261703432 0 -0.0044001976535443504 -0.001141865804652601 0 -0.0044354023987676532 -0.0011452966635923749 0 -0.0044001976535443504 -0.001141865804652601 0 -0.0044354023987676532 -0.0011452966635923749 0 -0.0044228728616189329 -0.0011550955486638525 0 -0.0044354023987676532 -0.0011452966635923749 0 -0.0044228728616189329 -0.0011550955486638525 0 -0.0044448718670280496 -0.0011564555128669889 0 -0.0044228728616189329 -0.0011550955486638525 0 -0.0044312714108336228 -0.001167871601043903 0 -0.0044448718670280496 -0.0011564555128669889 0 -0.0044001976535443504 -0.001141865804652601 0 -0.0044228728616189329 -0.0011550955486638525 0 -0.0043896677205961677 -0.0011647002145476737 0 -0.0044228728616189329 -0.0011550955486638525 0 -0.0044312714108336228 -0.001167871601043903 0 -0.0043896677205961677 -0.0011647002145476737 0 -0.0044312714108336228 -0.001167871601043903 0 -0.0043896677205961677 -0.0011647002145476737 0 -0.0044097390848941509 -0.0011783753524452908 0 -0.0044312714108336228 -0.001167871601043903 0 -0.0044097390848941509 -0.0011783753524452908 0 -0.0044415508296551066 -0.0011752923444173541 0 -0.0043896677205961677 -0.0011647002145476737 0 -0.0043635668721612245 -0.0011807464427239364 0 -0.0044097390848941509 -0.0011783753524452908 0 -0.0043336777886853854 -0.0011637865366196441 0 -0.004358616846817551 -0.0011399305669519166 0 -0.0043896677205961677 -0.0011647002145476737 0 -0.0043336777886853854 -0.0011637865366196441 0 -0.0043896677205961677 -0.0011647002145476737 0 -0.0043635668721612245 -0.0011807464427239364 0 -0.0043799604584526921 -0.0011982470092796686 0 -0.0043204100459153048 -0.0011936826501233095 0 -0.0043635668721612245 -0.0011807464427239364 0 -0.0043799604584526921 -0.0011982470092796686 0 -0.0043635668721612245 -0.0011807464427239364 0 -0.0044097390848941509 -0.0011783753524452908 0 -0.0044097390848941509 -0.0011783753524452908 0 -0.0044327588550605842 -0.0011849365252626614 0 -0.0044415508296551066 -0.0011752923444173541 0 -0.0044166824195517249 -0.0011971304641606492 0 -0.0043799604584526921 -0.0011982470092796686 0 -0.0044097390848941509 -0.0011783753524452908 0 -0.0044166824195517249 -0.0011971304641606492 0 -0.0044097390848941509 -0.0011783753524452908 0 -0.0044327588550605842 -0.0011849365252626614 0 -0.004442459720159172 -0.0011979150218383657 0 -0.0044327588550605842 -0.0011849365252626614 0 -0.0044582054308348789 -0.0011882228031053392 0 -0.004442459720159172 -0.0011979150218383657 0 -0.0044166824195517249 -0.0011971304641606492 0 -0.0044327588550605842 -0.0011849365252626614 0 -0.0044327588550605842 -0.0011849365252626614 0 -0.0044570711266614304 -0.0011774458048401993 0 -0.0044415508296551066 -0.0011752923444173541 0 -0.0044570711266614304 -0.0011774458048401993 0 -0.0044582054308348789 -0.0011882228031053392 0 -0.004472897022825658 -0.0011765312861635557 0 -0.0044327588550605842 -0.0011849365252626614 0 -0.0044570711266614304 -0.0011774458048401993 0 -0.0044582054308348789 -0.0011882228031053392 0 -0.0044657137367746938 -0.0011970116249111669 0 -0.0044582054308348789 -0.0011882228031053392 0 -0.0044742112193538117 -0.001186280477383716 0 -0.0044657137367746938 -0.0011970116249111669 0 -0.0044742112193538117 -0.001186280477383716 0 -0.004487168372904686 -0.0011906576980275445 0 -0.0044742112193538117 -0.001186280477383716 0 -0.0044889748816476132 -0.0011774158084122634 0 -0.004487168372904686 -0.0011906576980275445 0 -0.0044742112193538117 -0.001186280477383716 0 -0.004472897022825658 -0.0011765312861635557 0 -0.0044889748816476132 -0.0011774158084122634 0 -0.0044582054308348789 -0.0011882228031053392 0 -0.0044742112193538117 -0.001186280477383716 0 -0.004472897022825658 -0.0011765312861635557 0 -0.0044570711266614304 -0.0011774458048401993 0 -0.004472897022825658 -0.0011765312861635557 0 -0.0044702526474622462 -0.0011656483387719055 0 -0.004472897022825658 -0.0011765312861635557 0 -0.0044855838890042231 -0.0011650529190536751 0 -0.0044702526474622462 -0.0011656483387719055 0 -0.004472897022825658 -0.0011765312861635557 0 -0.0044855838890042231 -0.0011650529190536751 0 -0.0044889748816476132 -0.0011774158084122634 0 -0.0044855838890042231 -0.0011650529190536751 0 -0.0044972512006599104 -0.00116640728195948 0 -0.0044975429813123658 -0.0011564508744425547 0 -0.0044836240074226123 -0.0011546978712269019 0 -0.0044855838890042231 -0.0011650529190536751 0 -0.0044702526474622462 -0.0011656483387719055 0 -0.0044836240074226123 -0.0011546978712269019 0 -0.0044650850593689331 -0.0011550986498151806 0 -0.0044702526474622462 -0.0011656483387719055 0 -0.0044650850593689331 -0.0011550986498151806 0 -0.0044702526474622462 -0.0011656483387719055 0 -0.0044531210212492515 -0.0011663105946459495 0 -0.0044650850593689331 -0.0011550986498151806 0 -0.0044531210212492515 -0.0011663105946459495 0 -0.0044448718670280496 -0.0011564555128669889 0 -0.0044312714108336228 -0.001167871601043903 0 -0.0044531210212492515 -0.0011663105946459495 0 -0.0044448718670280496 -0.0011564555128669889 0 -0.0044570711266614304 -0.0011774458048401993 0 -0.0044531210212492515 -0.0011663105946459495 0 -0.0044415508296551066 -0.0011752923444173541 0 -0.0044312714108336228 -0.001167871601043903 0 -0.0044531210212492515 -0.0011663105946459495 0 -0.0044415508296551066 -0.0011752923444173541 0 -0.0044570711266614304 -0.0011774458048401993 0 -0.0044702526474622462 -0.0011656483387719055 0 -0.0044531210212492515 -0.0011663105946459495 0 -0.0052217452224442382 -0.001591968479580375 0 -0.0047953060194180072 -0.0015659115719710778 0 -0.0045133993544297958 -0.0011753555934233466 0 -0.0045302135846355925 -0.0011850527147187384 0 -0.0045105004985413642 -0.0011610823977985432 0 -0.0053493336591733604 -0.0021766756225208542 0 -0.00533725661652849 -0.0019609047753456612 0 -0.0051644718856471558 -0.0019676912540494283 0 -0.0045133993544297958 -0.0011753555934233466 0 -0.004503705014395289 -0.0011743629367988635 0 -0.0045107327664954781 -0.0011853898716478522 0 -0.0045133993544297958 -0.0011753555934233466 0 -0.004503705014395289 -0.0011743629367988635 0 -0.0045105004985413642 -0.0011610823977985432 0 -0.0044972512006599104 -0.00116640728195948 0 -0.004503705014395289 -0.0011743629367988635 0 -0.0045105004985413642 -0.0011610823977985432 0 -0.0044972512006599104 -0.00116640728195948 0 -0.004503705014395289 -0.0011743629367988635 0 -0.0044889748816476132 -0.0011774158084122634 0 -0.0044855838890042231 -0.0011650529190536751 0 -0.0044972512006599104 -0.00116640728195948 0 -0.0044889748816476132 -0.0011774158084122634 0 -0.004503705014395289 -0.0011743629367988635 0 -0.0044990164257220728 -0.0011839902732910777 0 -0.0044889748816476132 -0.0011774158084122634 0 -0.004503705014395289 -0.0011743629367988635 0 -0.0044990164257220728 -0.0011839902732910777 0 -0.0045107327664954781 -0.0011853898716478522 0 -0.0044990164257220728 -0.0011839902732910777 0 -0.0044889748816476132 -0.0011774158084122634 0 -0.004487168372904686 -0.0011906576980275445 0 -0.0044990164257220728 -0.0011839902732910777 0 -0.004487168372904686 -0.0011906576980275445 0 -0.0045005340570178172 -0.0011902707693958088 0 -0.0044990164257220728 -0.0011839902732910777 0 -0.0045005340570178172 -0.0011902707693958088 0 -0.0045107327664954781 -0.0011853898716478522 0 -0.0044952791054036489 -0.0011985321961446079 0 -0.004487168372904686 -0.0011906576980275445 0 -0.0045005340570178172 -0.0011902707693958088 0 -0.0044952791054036489 -0.0011985321961446079 0 -0.0045005340570178172 -0.0011902707693958088 0 -0.0045101956782638069 -0.0011931103568209073 0 -0.0050172080963512894 -0.0013212161369647653 0 -0.0052217452224442382 -0.001591968479580375 0 -0.0045102615627479982 -0.0012067135473803261 0 -0.0045101956782638069 -0.0011931103568209073 0 -0.0045302135846355925 -0.0011850527147187384 0 -0.0045005340570178172 -0.0011902707693958088 0 -0.0045101956782638069 -0.0011931103568209073 0 -0.0045107327664954781 -0.0011853898716478522 0 -0.0045133993544297958 -0.0011753555934233466 0 -0.0045107327664954781 -0.0011853898716478522 0 -0.0045302135846355925 -0.0011850527147187384 0 -0.0045101956782638069 -0.0011931103568209073 0 -0.0045107327664954781 -0.0011853898716478522 0 -0.0045302135846355925 -0.0011850527147187384 0 -0.0055232872803118475 -0.0015754200562185215 0 -0.0055069709618082467 -0.0016143095311567013 0 -0.0055208580485314688 -0.0016437205688433758 0 -0.0054900220069245406 -0.00156400949792782 0 -0.0055232872803118475 -0.0015754200562185215 0 -0.0055069709618082467 -0.0016143095311567013 0 -0.0055069709618082467 -0.0016143095311567013 0 -0.0054748564996457624 -0.0015984122349803921 0 -0.0054745115199049477 -0.0016519674361853206 0 -0.0054900220069245406 -0.00156400949792782 0 -0.0055069709618082467 -0.0016143095311567013 0 -0.0054748564996457624 -0.0015984122349803921 0 -0.0054748564996457624 -0.0015984122349803921 0 -0.0054745115199049477 -0.0016519674361853206 0 -0.0054499555599625037 -0.0016247498480893253 0 -0.0055069709618082467 -0.0016143095311567013 0 -0.0054745115199049477 -0.0016519674361853206 0 -0.005530225997237021 -0.001645757705265441 0 -0.0053660699992025577 -0.0016761935748199122 0 -0.0052217452224442382 -0.001591968479580375 0 -0.0053832314409339201 -0.001591549587478583 0 -0.0054074288457780359 -0.001598361877104028 0 -0.0053895328754474617 -0.001634044856820868 0 -0.0054086666851207044 -0.0015689592326779487 0 -0.0053832314409339201 -0.001591549587478583 0 -0.0054074288457780359 -0.001598361877104028 0 -0.0054086666851207044 -0.0015689592326779487 0 -0.0054074288457780359 -0.001598361877104028 0 -0.0054371171307932321 -0.0015926934379065754 0 -0.0054074288457780359 -0.001598361877104028 0 -0.0054209749951815997 -0.0016223073415474007 0 -0.0053895328754474617 -0.001634044856820868 0 -0.0054209749951815997 -0.0016223073415474007 0 -0.0054371171307932321 -0.0015926934379065754 0 -0.0054499555599625037 -0.0016247498480893253 0 -0.0054074288457780359 -0.001598361877104028 0 -0.0054209749951815997 -0.0016223073415474007 0 -0.0054371171307932321 -0.0015926934379065754 0 -0.0054596895362843453 -0.0015699228745477526 0 -0.0054748564996457624 -0.0015984122349803921 0 -0.0054371171307932321 -0.0015926934379065754 0 -0.0054748564996457624 -0.0015984122349803921 0 -0.0054371171307932321 -0.0015926934379065754 0 -0.0054499555599625037 -0.0016247498480893253 0 -0.0054745115199049477 -0.0016519674361853206 0 -0.0054499555599625037 -0.0016247498480893253 0 -0.00542824753050823 -0.0016530735593227612 0 -0.0054745115199049477 -0.0016519674361853206 0 -0.00542824753050823 -0.0016530735593227612 0 -0.0054436777611544061 -0.0016986980875148068 0 -0.0054209749951815997 -0.0016223073415474007 0 -0.0054499555599625037 -0.0016247498480893253 0 -0.00542824753050823 -0.0016530735593227612 0 -0.00542824753050823 -0.0016530735593227612 0 -0.0053895328754474617 -0.001634044856820868 0 -0.0053901179985879604 -0.0016884612545924305 0 -0.0054209749951815997 -0.0016223073415474007 0 -0.00542824753050823 -0.0016530735593227612 0 -0.0053895328754474617 -0.001634044856820868 0 -0.00542824753050823 -0.0016530735593227612 0 -0.0053901179985879604 -0.0016884612545924305 0 -0.0054436777611544061 -0.0016986980875148068 0 -0.0053901179985879604 -0.0016884612545924305 0 -0.0054436777611544061 -0.0016986980875148068 0 -0.0054190116986990956 -0.0017556987582902741 0 -0.0054436777611544061 -0.0016986980875148068 0 -0.0054190116986990956 -0.0017556987582902741 0 -0.0054943839709688256 -0.0017403632010263191 0 -0.0053901179985879604 -0.0016884612545924305 0 -0.0054190116986990956 -0.0017556987582902741 0 -0.0053689532192454275 -0.0017468924779442232 0 -0.0052217452224442382 -0.001591968479580375 0 -0.005445875139045514 -0.0019045787834955977 0 -0.0053493336591733604 -0.0021766756225208542 0 -0.0054327650391969512 -0.0020007824060347891 0 -0.00533725661652849 -0.0019609047753456612 0 -0.0054745115199049477 -0.0016519674361853206 0 -0.005530225997237021 -0.001645757705265441 0 -0.0054943839709688256 -0.0017403632010263191 0 -0.0054745115199049477 -0.0016519674361853206 0 -0.0054436777611544061 -0.0016986980875148068 0 -0.0054943839709688256 -0.0017403632010263191 0 -0.005445875139045514 -0.0019045787834955977 0 -0.0054518123899965311 -0.0018507697362418096 0 -0.0054327650391969512 -0.0020007824060347891 0 -0.00533725661652849 -0.0019609047753456612 0 -0.0054065917353511425 -0.0018547088466037938 0 -0.0054327650391969512 -0.0020007824060347891 0 -0.0054065917353511425 -0.0018547088466037938 0 -0.0054409414937660779 -0.0018520975517658659 0 -0.00533725661652849 -0.0019609047753456612 0 -0.0053748760554102847 -0.001827066018151715 0 -0.0054065917353511425 -0.0018547088466037938 0 -0.0054065917353511425 -0.0018547088466037938 0 -0.0054409414937660779 -0.0018520975517658659 0 -0.0054308812579381893 -0.0018735156610461266 0 -0.0054190116986990956 -0.0017556987582902741 0 -0.0054943839709688256 -0.0017403632010263191 0 -0.0054409414937660779 -0.0018520975517658659 0 -0.0054190116986990956 -0.0017556987582902741 0 -0.0054409414937660779 -0.0018520975517658659 0 -0.0053921387294499894 -0.0018149111955139503 0 -0.0054190116986990956 -0.0017556987582902741 0 -0.0053921387294499894 -0.0018149111955139503 0 -0.0053689532192454275 -0.0017468924779442232 0 -0.0054409414937660779 -0.0018520975517658659 0 -0.0053921387294499894 -0.0018149111955139503 0 -0.0053928251142215094 -0.0018519026730237826 0 -0.0054100123560218028 -0.0018602222591813072 0 -0.0053998870042740905 -0.00188467343608536 0 -0.0054409414937660779 -0.0018520975517658659 0 -0.0054308812579381893 -0.0018735156610461266 0 -0.0053928251142215094 -0.0018519026730237826 0 -0.0053804218381790078 -0.0018960995015184095 0 -0.0054238143306606377 -0.0018894604812117438 0 -0.0054111198379407982 -0.0019444591113492087 0 -0.0053804218381790078 -0.0018960995015184095 0 -0.0054111198379407982 -0.0019444591113492087 0 -0.0053620187035225203 -0.0019639988222935174 0 -0.0053748760554102847 -0.001827066018151715 0 -0.0054238143306606377 -0.0018894604812117438 0 -0.0054981733142879189 -0.0019635813486599085 0 -0.0054065917353511425 -0.0018547088466037938 0 -0.0053804218381790078 -0.0018960995015184095 0 -0.0054238143306606377 -0.0018894604812117438 0 -0.0053920491301343515 -0.001819815617420993 0 -0.0054500702664203237 -0.0017280200285748294 0 -0.0053748760554102847 -0.001827066018151715 0 -0.0054065917353511425 -0.0018547088466037938 0 -0.0054238143306606377 -0.0018894604812117438 0 -0.0054238143306606377 -0.0018894604812117438 0 -0.0054981733142879189 -0.0019635813486599085 0 -0.0054111198379407982 -0.0019444591113492087 0 -0.0051711444426397251 -0.0016265019278712154 0 -0.0051644718856471558 -0.0019676912540494283 0 -0.0048581218945550819 -0.0016078311416443565 0 -0.0053748760554102847 -0.001827066018151715 0 -0.0051711444426397251 -0.0016265019278712154 0 -0.0054245682263230951 -0.0014286872976042799 0 -0.0053748760554102847 -0.001827066018151715 0 -0.0051711444426397251 -0.0016265019278712154 0 -0.0051644718856471558 -0.0019676912540494283 0 -0.00533725661652849 -0.0019609047753456612 0 -0.0053748760554102847 -0.001827066018151715 0 -0.0051644718856471558 -0.0019676912540494283 0 -0.0044972512006599104 -0.00116640728195948 0 -0.0045105004985413642 -0.0011610823977985432 0 -0.0044975429813123658 -0.0011564508744425547 0 -0.0045105004985413642 -0.0011610823977985432 0 -0.0044975429813123658 -0.0011564508744425547 0 -0.0045063838213876203 -0.0011552443820028579 0 -0.0047953060194180072 -0.0015659115719710778 0 -0.0046916912790792003 -0.0013729811878923194 0 -0.0045849951208146063 -0.0011421259105004599 0 -0.0048581218945550819 -0.0016078311416443565 0 -0.0048063256752956295 -0.0012307339642183765 0 -0.0051711444426397251 -0.0016265019278712154 0 -0.0048581218945550819 -0.0016078311416443565 0 -0.0050524742626434586 -0.0012454049114778683 0 -0.0048581218945550819 -0.0016078311416443565 0 -0.0048063256752956295 -0.0012307339642183765 0 -0.0050524742626434586 -0.0012454049114778683 0 -0.0050524742626434586 -0.0012454049114778683 0 -0.0054775391428545095 -0.0010486051367954578 0 -0.0054245682263230951 -0.0014286872976042799 0 -0.0051711444426397251 -0.0016265019278712154 0 -0.0050524742626434586 -0.0012454049114778683 0 -0.0054245682263230951 -0.0014286872976042799 0 -0.0050524742626434586 -0.0012454049114778683 0 -0.0051297936622584648 -0.00086294647538081258 0 -0.0054775391428545095 -0.0010486051367954578 0 -0.0051831251852014317 -0.0018131494025469929 0 -0.005364039318587698 -0.0016830132389852662 0 -0.0046582663615447797 -0.0010559042215504582 0 -0.0050524742626434586 -0.0012454049114778683 0 -0.0051297936622584648 -0.00086294647538081258 0 -0.0046582663615447797 -0.0010559042215504582 0 -0.0048063256752956295 -0.0012307339642183765 0 -0.0050524742626434586 -0.0012454049114778683 0 -0.005669562055838879 -0.0025333195902175532 0 -0.0056543147529040678 -0.0026353897250945757 0 -0.0055587240636118668 -0.0026046660004706477 0 -0.0056543147529040678 -0.0026353897250945757 0 -0.0055587240636118668 -0.0026046660004706477 0 -0.0056057042438102458 -0.0027008044440237472 0 -0.0055587240636118668 -0.0026046660004706477 0 -0.0055375712438283558 -0.0026812807236980523 0 -0.0056057042438102458 -0.0027008044440237472 0 -0.0055587240636118668 -0.0026046660004706477 0 -0.0055375712438283558 -0.0026812807236980523 0 -0.0054563913650524879 -0.0026675790249861514 0 -0.0055375712438283558 -0.0026812807236980523 0 -0.0056057042438102458 -0.0027008044440237472 0 -0.0055308328521499316 -0.0027518448239483816 0 -0.0056057042438102458 -0.0027008044440237472 0 -0.0056181671381594746 -0.0027779063137296678 0 -0.0055308328521499316 -0.0027518448239483816 0 -0.0056676899538505229 -0.0027266838562085755 0 -0.0056543147529040678 -0.0026353897250945757 0 -0.0056057042438102458 -0.0027008044440237472 0 -0.0056676899538505229 -0.0027266838562085755 0 -0.0056057042438102458 -0.0027008044440237472 0 -0.0056181671381594746 -0.0027779063137296678 0 -0.0055783084804945666 -0.0023795229937791443 0 -0.005382148094032705 -0.002472926444686949 0 -0.0055383634478493454 -0.0026011316332994537 0 -0.0055244608531128687 -0.0023703347874554984 0 -0.0054105578550983253 -0.0023553747073026769 0 -0.005382148094032705 -0.002472926444686949 0 -0.0054401446411698326 -0.0020405068288968341 0 -0.0053947575854019127 -0.0025053325821195252 0 -0.0055375712438283558 -0.0026812807236980523 0 -0.0054563913650524879 -0.0026675790249861514 0 -0.0055308328521499316 -0.0027518448239483816 0 -0.0054563913650524879 -0.0026675790249861514 0 -0.0054513989352957294 -0.0027710072244307659 0 -0.0055308328521499316 -0.0027518448239483816 0 -0.0054401446411698326 -0.0020405068288968341 0 -0.0054853013649586654 -0.002780824746730528 0 -0.005364039318587698 -0.0016830132389852662 0 -0.0054401446411698326 -0.0020405068288968341 0 -0.0051297936622584648 -0.00086294647538081258 0 -0.0055371545676499347 -0.0006985761486447635 0 -0.0054775391428545095 -0.0010486051367954578 0 -0.0054401446411698326 -0.0020405068288968341 0 -0.0055205367684318099 -0.0015049455819115395 0 -0.0055244608531128687 -0.0023703347874554984 0 -0.0053934378535605435 -0.0022240812803305905 0 -0.0055293493746944901 -0.0021607349625630875 0 -0.0055244608531128687 -0.0023703347874554984 0 -0.0054105578550983253 -0.0023553747073026769 0 -0.0053934378535605435 -0.0022240812803305905 0 -0.0054105578550983253 -0.0023553747073026769 0 -0.0053934378535605435 -0.0022240812803305905 0 -0.0053116251817533428 -0.0023800495805429557 0 -0.0053934378535605435 -0.0022240812803305905 0 -0.0055293493746944901 -0.0021607349625630875 0 -0.0053960061281289329 -0.0020460596819335168 0 -0.0053934378535605435 -0.0022240812803305905 0 -0.0053960061281289329 -0.0020460596819335168 0 -0.0053053342600638976 -0.0021111181374342514 0 -0.0055205367684318099 -0.0015049455819115395 0 -0.0054500702664203237 -0.0017280200285748294 0 -0.0055293493746944901 -0.0021607349625630875 0 -0.0054981733142879189 -0.0019635813486599085 0 -0.0053960061281289329 -0.0020460596819335168 0 -0.0054981733142879189 -0.0019635813486599085 0 -0.0053960061281289329 -0.0020460596819335168 0 -0.0054111198379407982 -0.0019444591113492087 0 -0.0053960061281289329 -0.0020460596819335168 0 -0.0054111198379407982 -0.0019444591113492087 0 -0.0053620187035225203 -0.0019639988222935174 0 -0.0052496904718622841 -0.0019761748949711755 0 -0.005203879229571353 -0.002101323097847445 0 -0.0053053342600638976 -0.0021111181374342514 0 -0.0053960061281289329 -0.0020460596819335168 0 -0.0052496904718622841 -0.0019761748949711755 0 -0.0053053342600638976 -0.0021111181374342514 0 -0.0053960061281289329 -0.0020460596819335168 0 -0.0053620187035225203 -0.0019639988222935174 0 -0.0052496904718622841 -0.0019761748949711755 0 -0.005327164647493071 -0.0019489943659591507 0 -0.0052282232378034095 -0.0020133776186245572 0 -0.005253599783826641 -0.0018582357448733906 0 -0.0053118746403310897 -0.002018376530029091 0 -0.0052297672777396522 -0.0018681246966576887 0 -0.0053324639231814089 -0.0017461354790427629 0 -0.0052853245628574717 -0.0019637881011150835 0 -0.0051761883401841013 -0.0020437094911289326 0 -0.0051761883401841013 -0.0020437094911289326 0 -0.005305085655938388 -0.0017971442478332536 0 -0.0052496904718622841 -0.0019761748949711755 0 -0.0050882057522671862 -0.002077509101627678 0 -0.005203879229571353 -0.002101323097847445 0 -0.0051761883401841013 -0.0020437094911289326 0 -0.005074387915623777 -0.0022088756160708045 0 -0.0050882057522671862 -0.002077509101627678 0 -0.0051441294734300503 -0.0021615051749051192 0 -0.0050620065207399624 -0.0022130207135031489 0 -0.0050882057522671862 -0.002077509101627678 0 -0.005203879229571353 -0.002101323097847445 0 -0.0051441294734300503 -0.0021615051749051192 0 -0.005203879229571353 -0.002101323097847445 0 -0.0051441294734300503 -0.0021615051749051192 0 -0.0052492267076122501 -0.0021952775815891022 0 -0.0051441294734300503 -0.0021615051749051192 0 -0.0052492267076122501 -0.0021952775815891022 0 -0.0051622950666289401 -0.0022427663207028967 0 -0.0051441294734300503 -0.0021615051749051192 0 -0.0051622950666289401 -0.0022427663207028967 0 -0.0050620065207399624 -0.0022130207135031489 0 -0.0053934378535605435 -0.0022240812803305905 0 -0.0053053342600638976 -0.0021111181374342514 0 -0.0052492267076122501 -0.0021952775815891022 0 -0.005203879229571353 -0.002101323097847445 0 -0.0053053342600638976 -0.0021111181374342514 0 -0.0052492267076122501 -0.0021952775815891022 0 -0.0053934378535605435 -0.0022240812803305905 0 -0.0052492267076122501 -0.0021952775815891022 0 -0.0053116251817533428 -0.0023800495805429557 0 -0.0052492267076122501 -0.0021952775815891022 0 -0.0053116251817533428 -0.0023800495805429557 0 -0.0051622950666289401 -0.0022427663207028967 0 -0.0053043558122332912 -0.0023751595510777602 0 -0.0051333815962251103 -0.0023097755827732633 0 -0.0053116251817533428 -0.0023800495805429557 0 -0.0051622950666289401 -0.0022427663207028967 0 -0.0050796170978699099 -0.0022897311045298185 0 -0.0053116251817533428 -0.0023800495805429557 0 -0.0052054542738551451 -0.0023313934171788971 0 -0.0052389310174307899 -0.0024424243257896361 0 -0.0051622950666289401 -0.0022427663207028967 0 -0.0050796170978699099 -0.0022897311045298185 0 -0.0050620065207399624 -0.0022130207135031489 0 -0.0052389310174307899 -0.0024424243257896361 0 -0.0053059644943675103 -0.0025316374633165229 0 -0.0052082366008804329 -0.0025818083826584493 0 -0.0052054542738551451 -0.0023313934171788971 0 -0.0052389310174307899 -0.0024424243257896361 0 -0.0051681875554778871 -0.002436191309247689 0 -0.0052389310174307899 -0.0024424243257896361 0 -0.0051681875554778871 -0.002436191309247689 0 -0.0052082366008804329 -0.0025818083826584493 0 -0.0053116251817533428 -0.0023800495805429557 0 -0.0053059644943675103 -0.0025316374633165229 0 -0.005382148094032705 -0.002472926444686949 0 -0.0053116251817533428 -0.0023800495805429557 0 -0.0052389310174307899 -0.0024424243257896361 0 -0.0053059644943675103 -0.0025316374633165229 0 -0.0053059644943675103 -0.0025316374633165229 0 -0.005382148094032705 -0.002472926444686949 0 -0.0054059270303473527 -0.0026144625347672558 0 -0.0054105578550983253 -0.0023553747073026769 0 -0.0053116251817533428 -0.0023800495805429557 0 -0.005382148094032705 -0.002472926444686949 0 -0.0049999601780949697 -0.0024868961813377462 0 -0.0050621075232230306 -0.0023363474103726086 0 -0.0049999727952829273 -0.0022416911123746778 0 -0.0049999601780949697 -0.0024868961813377462 0 -0.0051007376503148794 -0.0024122247728162642 0 -0.0050621075232230306 -0.0023363474103726086 0 -0.0049999601780949697 -0.0024868961813377462 0 -0.0051007376503148794 -0.0024122247728162642 0 -0.0051065304633189862 -0.0025550854961762983 0 -0.0051681875554778871 -0.002436191309247689 0 -0.0051065304633189862 -0.0025550854961762983 0 -0.0052082366008804329 -0.0025818083826584493 0 -0.0051007376503148794 -0.0024122247728162642 0 -0.0051681875554778871 -0.002436191309247689 0 -0.0051065304633189862 -0.0025550854961762983 0 -0.0051007376503148794 -0.0024122247728162642 0 -0.0051681875554778871 -0.002436191309247689 0 -0.005123018704741889 -0.0023434454291453694 0 -0.0050796170978699099 -0.0022897311045298185 0 -0.0048847995213785033 -0.0022136803008428398 0 -0.0050620065207399624 -0.0022130207135031489 0 -0.0051333815962251103 -0.0023097755827732633 0 -0.0050354214683255511 -0.0021940904609007348 0 -0.0052054542738551451 -0.0023313934171788971 0 -0.005123018704741889 -0.0023434454291453694 0 -0.0050713146211329762 -0.0022334826439718144 0 -0.0052054542738551451 -0.0023313934171788971 0 -0.0051681875554778871 -0.002436191309247689 0 -0.005123018704741889 -0.0023434454291453694 0 -0.005123018704741889 -0.0023434454291453694 0 -0.0050621075232230306 -0.0023363474103726086 0 -0.0050713146211329762 -0.0022334826439718144 0 -0.0051007376503148794 -0.0024122247728162642 0 -0.005123018704741889 -0.0023434454291453694 0 -0.0050621075232230306 -0.0023363474103726086 0 -0.0050000390282057905 -0.0022415018481713464 0 -0.0050354214683255511 -0.0021940904609007348 0 -0.0050621075232230306 -0.0023363474103726086 0 -0.0049999727952829273 -0.0022416911123746778 0 -0.0050713146211329762 -0.0022334826439718144 0 -0.0049999998002576342 -0.002241526679437042 0 -0.0049999994922189416 -0.0021339045415866703 0 -0.0051054820691389885 -0.0021724332461717662 0 -0.0049999932188818375 -0.0021338776498633031 0 -0.0051022091020397186 -0.002166873031936049 0 -0.0051087258298156413 -0.0019854806059187557 0 -0.005000053552543517 -0.0021339456542295563 0 -0.0050354214683255511 -0.0021940904609007348 0 -0.0051022091020397186 -0.002166873031936049 0 -0.0051883264260606824 -0.0020092451583185534 0 -0.0051087258298156413 -0.0019854806059187557 0 -0.0050838543142657016 -0.0020847664814660515 0 -0.0048847995213785033 -0.0022136803008428398 0 -0.0050620065207399624 -0.0022130207135031489 0 -0.0053118746403310897 -0.002018376530029091 0 -0.0051022091020397186 -0.002166873031936049 0 -0.0051883264260606824 -0.0020092451583185534 0 -0.0051761883401841013 -0.0020437094911289326 0 -0.0050354214683255511 -0.0021940904609007348 0 -0.0053118746403310897 -0.002018376530029091 0 -0.0051883264260606824 -0.0020092451583185534 0 -0.0052297672777396522 -0.0018681246966576887 0 -0.0051087258298156413 -0.0019854806059187557 0 -0.0051307557610416367 -0.0018026401403798463 0 -0.0052297672777396522 -0.0018681246966576887 0 -0.0051883264260606824 -0.0020092451583185534 0 -0.0051087258298156413 -0.0019854806059187557 0 -0.0052297672777396522 -0.0018681246966576887 0 -0.0049999932188818375 -0.0021338776498633031 0 -0.0051087258298156413 -0.0019854806059187557 0 -0.0049999990200363673 -0.0018367953846320209 0 -0.0051087258298156413 -0.0019854806059187557 0 -0.0049999990200363673 -0.0018367953846320209 0 -0.0051307557610416367 -0.0018026401403798463 0 -0.0049999990200363673 -0.0018367953846320209 0 -0.0051307557610416367 -0.0018026401403798463 0 -0.0049999958203804937 -0.0015396811805060658 0 -0.0052225731221108261 -0.001707586592395272 0 -0.0049999958203804937 -0.0015396811805060658 0 -0.0051757458263783701 -0.0015236257452832197 0 -0.0051307557610416367 -0.0018026401403798463 0 -0.0052225731221108261 -0.001707586592395272 0 -0.0049999958203804937 -0.0015396811805060658 0 -0.0052281066322302722 -0.0016994584705346074 0 -0.0053032645685367977 -0.0015163041754026726 0 -0.0052225731221108261 -0.001707586592395272 0 -0.0052912172097713574 -0.0016551696874798113 0 -0.0052896470304987057 -0.0015869681878111588 0 -0.0051307557610416367 -0.0018026401403798463 0 -0.0052225731221108261 -0.001707586592395272 0 -0.0052297672777396522 -0.0018681246966576887 0 -0.0052225731221108261 -0.001707586592395272 0 -0.0052297672777396522 -0.0018681246966576887 0 -0.0053324639231814089 -0.0017461354790427629 0 -0.0053804218381790078 -0.0018960995015184095 0 -0.0053620187035225203 -0.0019639988222935174 0 -0.0052496904718622841 -0.0019761748949711755 0 -0.0053998870042740905 -0.00188467343608536 0 -0.0052853245628574717 -0.0019637881011150835 0 -0.005327164647493071 -0.0019489943659591507 0 -0.0053356316814660559 -0.0018462838364360786 0 -0.0053928251142215094 -0.0018519026730237826 0 -0.0054308812579381893 -0.0018735156610461266 0 -0.005327164647493071 -0.0019489943659591507 0 -0.0053928251142215094 -0.0018519026730237826 0 -0.005327164647493071 -0.0019489943659591507 0 -0.005253599783826641 -0.0018582357448733906 0 -0.0053356316814660559 -0.0018462838364360786 0 -0.0053921387294499894 -0.0018149111955139503 0 -0.0053356316814660559 -0.0018462838364360786 0 -0.0053419998720142092 -0.0017921359597794218 0 -0.0053921387294499894 -0.0018149111955139503 0 -0.0053356316814660559 -0.0018462838364360786 0 -0.0053928251142215094 -0.0018519026730237826 0 -0.0053356316814660559 -0.0018462838364360786 0 -0.0053073903044882648 -0.0018190020017420179 0 -0.0053419998720142092 -0.0017921359597794218 0 -0.0053073903044882648 -0.0018190020017420179 0 -0.0053419998720142092 -0.0017921359597794218 0 -0.0052962252623538417 -0.0017807765992499587 0 -0.0053419998720142092 -0.0017921359597794218 0 -0.0052962252623538417 -0.0017807765992499587 0 -0.0053144270513213604 -0.0017271749541945618 0 -0.0053921387294499894 -0.0018149111955139503 0 -0.0053419998720142092 -0.0017921359597794218 0 -0.0053689532192454275 -0.0017468924779442232 0 -0.005305085655938388 -0.0017971442478332536 0 -0.0052939219867016675 -0.0016495400763293189 0 -0.005253599783826641 -0.0018582357448733906 0 -0.0052962252623538417 -0.0017807765992499587 0 -0.0052720368055944747 -0.0017018000051740086 0 -0.0052225731221108261 -0.001707586592395272 0 -0.0053324639231814089 -0.0017461354790427629 0 -0.0052912172097713574 -0.0016551696874798113 0 -0.0053324639231814089 -0.0017461354790427629 0 -0.0052912172097713574 -0.0016551696874798113 0 -0.0053171381156488246 -0.0015909427474145705 0 -0.005253599783826641 -0.0018582357448733906 0 -0.0053356316814660559 -0.0018462838364360786 0 -0.0053073903044882648 -0.0018190020017420179 0 -0.005253599783826641 -0.0018582357448733906 0 -0.0053073903044882648 -0.0018190020017420179 0 -0.0052962252623538417 -0.0017807765992499587 0 -0.0052912172097713574 -0.0016551696874798113 0 -0.0053171381156488246 -0.0015909427474145705 0 -0.0052896470304987057 -0.0015869681878111588 0 -0.0052962252623538417 -0.0017807765992499587 0 -0.0052720368055944747 -0.0017018000051740086 0 -0.0053144270513213604 -0.0017271749541945618 0 -0.0053689532192454275 -0.0017468924779442232 0 -0.0053144270513213604 -0.0017271749541945618 0 -0.0053438026249256381 -0.0016913337217478728 0 -0.0053419998720142092 -0.0017921359597794218 0 -0.0053689532192454275 -0.0017468924779442232 0 -0.0053144270513213604 -0.0017271749541945618 0 -0.0052720368055944747 -0.0017018000051740086 0 -0.0053144270513213604 -0.0017271749541945618 0 -0.0053195450235140945 -0.0016782852908409198 0 -0.0053144270513213604 -0.0017271749541945618 0 -0.0053195450235140945 -0.0016782852908409198 0 -0.0053438026249256381 -0.0016913337217478728 0 -0.0053195450235140945 -0.0016782852908409198 0 -0.0053438026249256381 -0.0016913337217478728 0 -0.0053510651752468573 -0.0016503177704417381 0 -0.0053901179985879604 -0.0016884612545924305 0 -0.0053689532192454275 -0.0017468924779442232 0 -0.0053438026249256381 -0.0016913337217478728 0 -0.0053901179985879604 -0.0016884612545924305 0 -0.0053438026249256381 -0.0016913337217478728 0 -0.0053510651752468573 -0.0016503177704417381 0 -0.0053895328754474617 -0.001634044856820868 0 -0.0053510651752468573 -0.0016503177704417381 0 -0.0053571048255530258 -0.0016053279949414874 0 -0.0053895328754474617 -0.001634044856820868 0 -0.0053901179985879604 -0.0016884612545924305 0 -0.0053510651752468573 -0.0016503177704417381 0 -0.0053195450235140945 -0.0016782852908409198 0 -0.0053510651752468573 -0.0016503177704417381 0 -0.0053153674157101604 -0.0016213336107212416 0 -0.0052720368055944747 -0.0017018000051740086 0 -0.0053195450235140945 -0.0016782852908409198 0 -0.0053153674157101604 -0.0016213336107212416 0 -0.0053510651752468573 -0.0016503177704417381 0 -0.0053153674157101604 -0.0016213336107212416 0 -0.0053571048255530258 -0.0016053279949414874 0 -0.0053397988089963011 -0.0015788690128651262 0 -0.0053153674157101604 -0.0016213336107212416 0 -0.0053571048255530258 -0.0016053279949414874 0 -0.0053397988089963011 -0.0015788690128651262 0 -0.0053248907317874012 -0.0015704176892009515 0 -0.0053153674157101604 -0.0016213336107212416 0 -0.0053703461782482016 -0.0015647959619394202 0 -0.0053397988089963011 -0.0015788690128651262 0 -0.0053571048255530258 -0.0016053279949414874 0 -0.0053703461782482016 -0.0015647959619394202 0 -0.0053832314409339201 -0.001591549587478583 0 -0.0053571048255530258 -0.0016053279949414874 0 -0.0053832314409339201 -0.001591549587478583 0 -0.0053895328754474617 -0.001634044856820868 0 -0.0053571048255530258 -0.0016053279949414874 0 -0.0052970107507259627 -0.0015412121164384365 0 -0.0053171381156488246 -0.0015909427474145705 0 -0.0052896470304987057 -0.0015869681878111588 0 -0.0053179682292624009 -0.0012458508263970707 0 -0.0054170833896276145 -0.0011898328502326706 0 -0.005323068294309459 -0.0014440966185074464 0 -0.0053077834793231454 -0.0015423909655410935 0 -0.0052939219867016675 -0.0016495400763293189 0 -0.0053614019301261072 -0.0013766691708349205 0 -0.0053032645685367977 -0.0015163041754026726 0 -0.005307860331145396 -0.0015373773401420028 0 -0.0052970107507259627 -0.0015412121164384365 0 -0.0053171381156488246 -0.0015909427474145705 0 -0.005307860331145396 -0.0015373773401420028 0 -0.0052720368055944747 -0.0017018000051740086 0 -0.0053153674157101604 -0.0016213336107212416 0 -0.005193716410847221 -0.0012479877395000524 0 -0.0053179682292624009 -0.0012458508263970707 0 -0.0052487746294314882 -0.0013352124110913239 0 -0.0053179682292624009 -0.0012458508263970707 0 -0.005323068294309459 -0.0014440966185074464 0 -0.0052487746294314882 -0.0013352124110913239 0 -0.005323068294309459 -0.0014440966185074464 0 -0.0052487746294314882 -0.0013352124110913239 0 -0.005160151667561742 -0.0014032949263491717 0 -0.005193716410847221 -0.0012479877395000524 0 -0.0052487746294314882 -0.0013352124110913239 0 -0.005160151667561742 -0.0014032949263491717 0 -0.0049999952739720171 -0.0012425518241526543 0 -0.005160151667561742 -0.0014032949263491717 0 -0.0049999958203804937 -0.0015396811805060658 0 -0.0049999952739720171 -0.0012425518241526543 0 -0.005193716410847221 -0.0012479877395000524 0 -0.005160151667561742 -0.0014032949263491717 0 -0.005160151667561742 -0.0014032949263491717 0 -0.0049999958203804937 -0.0015396811805060658 0 -0.0051757458263783701 -0.0015236257452832197 0 -0.0052225731221108261 -0.001707586592395272 0 -0.005323068294309459 -0.0014440966185074464 0 -0.0051757458263783701 -0.0015236257452832197 0 -0.005323068294309459 -0.0014440966185074464 0 -0.005160151667561742 -0.0014032949263491717 0 -0.0051757458263783701 -0.0015236257452832197 0 -0.0051444374598550785 -0.0034351566917288729 0 -0.005181547199002279 -0.0032684895267491884 0 -0.0050757580346239353 -0.0032975389153890693 0 -0.0050987128622207506 -0.003634044310072243 0 -0.005206633417505149 -0.0035996192717617738 0 -0.0051329040170765916 -0.0034310619552857463 0 -0.0051790625608675901 -0.0035175459340608026 0 -0.0050998089928919821 -0.0033642921484938314 0 -0.0049999543010083042 -0.0035061766318389949 0 -0.0050987128622207506 -0.003634044310072243 0 -0.0051329040170765916 -0.0034310619552857463 0 -0.0049999543010083042 -0.0035061766318389949 0 -0.0050987128622207506 -0.003634044310072243 0 -0.0050000447225795044 -0.0037888925020270635 0 -0.0050987128622207506 -0.003634044310072243 0 -0.0051548586618452219 -0.0037023330041579066 0 -0.0050000447225795044 -0.0037888925020270635 0 -0.0050987128622207506 -0.003634044310072243 0 -0.005206633417505149 -0.0035996192717617738 0 -0.0051548586618452219 -0.0037023330041579066 0 -0.005206633417505149 -0.0035996192717617738 0 -0.0052512002909912191 -0.0036350408506053214 0 -0.0051548586618452219 -0.0037023330041579066 0 -0.0051444374598550785 -0.0034351566917288729 0 -0.0052922661211785302 -0.0034693125166077201 0 -0.0052512002909912191 -0.0036350408506053214 0 -0.0051790625608675901 -0.0035175459340608026 0 -0.0052502591598302213 -0.0036295552883385132 0 -0.0052922661211785302 -0.0034693125166077201 0 -0.0053868083057969441 -0.003510251490069006 0 -0.0053361069497212463 -0.0036019905938114269 0 -0.0052922661211785302 -0.0034693125166077201 0 -0.0052512002909912191 -0.0036350408506053214 0 -0.0053361069497212463 -0.0036019905938114269 0 -0.0052922661211785302 -0.0034693125166077201 0 -0.0052888027008288329 -0.0033152294016861043 0 -0.0053785124086920292 -0.0033952194103238705 0 -0.0051444374598550785 -0.0034351566917288729 0 -0.0052888027008288329 -0.0033152294016861043 0 -0.005181547199002279 -0.0032684895267491884 0 -0.0051444374598550785 -0.0034351566917288729 0 -0.0052922661211785302 -0.0034693125166077201 0 -0.0052888027008288329 -0.0033152294016861043 0 -0.0052888027008288329 -0.0033152294016861043 0 -0.005181547199002279 -0.0032684895267491884 0 -0.0052541723862441041 -0.0031890615227424131 0 -0.0052888027008288329 -0.0033152294016861043 0 -0.0053452969734630778 -0.0031540351441914872 0 -0.0052541723862441041 -0.0031890615227424131 0 -0.0052888027008288329 -0.0033152294016861043 0 -0.0053452969734630778 -0.0031540351441914872 0 -0.0053984887509408042 -0.0032583383451973854 0 -0.0053452969734630778 -0.0031540351441914872 0 -0.0052541723862441041 -0.0031890615227424131 0 -0.0052714158235236267 -0.0030652469387559148 0 -0.005181547199002279 -0.0032684895267491884 0 -0.0052541723862441041 -0.0031890615227424131 0 -0.0051864886190300984 -0.0031420408343129638 0 -0.0052541723862441041 -0.0031890615227424131 0 -0.0051864886190300984 -0.0031420408343129638 0 -0.0052714158235236267 -0.0030652469387559148 0 -0.005181547199002279 -0.0032684895267491884 0 -0.0051864886190300984 -0.0031420408343129638 0 -0.0051068532847677638 -0.003201821089673664 0 -0.0051864886190300984 -0.0031420408343129638 0 -0.0051068532847677638 -0.003201821089673664 0 -0.0051387204073450026 -0.0030424001082614079 0 -0.005181547199002279 -0.0032684895267491884 0 -0.0051068532847677638 -0.003201821089673664 0 -0.0050757580346239353 -0.0032975389153890693 0 -0.0049999543010083042 -0.0035061766318389949 0 -0.0051329040170765916 -0.0034310619552857463 0 -0.0050000109679701251 -0.0032229764617410913 0 -0.0051068532847677638 -0.003201821089673664 0 -0.0050757580346239353 -0.0032975389153890693 0 -0.0049999579442413459 -0.0032227966693490536 0 -0.0050998089928919821 -0.0033642921484938314 0 -0.0050000163841107141 -0.0032230104818176076 0 -0.0051068532847677638 -0.003201821089673664 0 -0.0049999579442413459 -0.0032227966693490536 0 -0.0051387204073450026 -0.0030424001082614079 0 -0.0049999579442413459 -0.0032227966693490536 0 -0.0049999596347327351 -0.0029776569536356704 0 -0.0051387204073450026 -0.0030424001082614079 0 -0.0051387204073450026 -0.0030424001082614079 0 -0.0051406285412630764 -0.0027774942183886966 0 -0.0052537733331036078 -0.002910678082937801 0 -0.0049999596347327351 -0.0029776569536356704 0 -0.0051387204073450026 -0.0030424001082614079 0 -0.0051406285412630764 -0.0027774942183886966 0 -0.0049999596347327351 -0.0029776569536356704 0 -0.0049999552917577078 -0.0027322703503903814 0 -0.0051406285412630764 -0.0027774942183886966 0 -0.0049999552917577078 -0.0027322703503903814 0 -0.0051406285412630764 -0.0027774942183886966 0 -0.0051065304633189862 -0.0025550854961762983 0 -0.0051406285412630764 -0.0027774942183886966 0 -0.0051065304633189862 -0.0025550854961762983 0 -0.0052082366008804329 -0.0025818083826584493 0 -0.0049999601780949697 -0.0024868961813377462 0 -0.0049999552917577078 -0.0027322703503903814 0 -0.0051065304633189862 -0.0025550854961762983 0 -0.0053059644943675103 -0.0025316374633165229 0 -0.0053246290524715722 -0.0026944631475659567 0 -0.0054059270303473527 -0.0026144625347672558 0 -0.0053059644943675103 -0.0025316374633165229 0 -0.0053246290524715722 -0.0026944631475659567 0 -0.0052082366008804329 -0.0025818083826584493 0 -0.0053246290524715722 -0.0026944631475659567 0 -0.0052082366008804329 -0.0025818083826584493 0 -0.005242160960469441 -0.0027408072993816267 0 -0.0051406285412630764 -0.0027774942183886966 0 -0.005242160960469441 -0.0027408072993816267 0 -0.0052537733331036078 -0.002910678082937801 0 -0.0051406285412630764 -0.0027774942183886966 0 -0.0052082366008804329 -0.0025818083826584493 0 -0.005242160960469441 -0.0027408072993816267 0 -0.0053246290524715722 -0.0026944631475659567 0 -0.005242160960469441 -0.0027408072993816267 0 -0.0053474013911873446 -0.0028569644818717153 0 -0.0053246290524715722 -0.0026944631475659567 0 -0.0053474013911873446 -0.0028569644818717153 0 -0.0054589243806513858 -0.0028337387917961496 0 -0.0053474013911873446 -0.0028569644818717153 0 -0.0052537733331036078 -0.002910678082937801 0 -0.0053904057811681233 -0.0029958693593475508 0 -0.005242160960469441 -0.0027408072993816267 0 -0.0053474013911873446 -0.0028569644818717153 0 -0.0052537733331036078 -0.002910678082937801 0 -0.0051387204073450026 -0.0030424001082614079 0 -0.0052537733331036078 -0.002910678082937801 0 -0.0052714158235236267 -0.0030652469387559148 0 -0.0051864886190300984 -0.0031420408343129638 0 -0.0051387204073450026 -0.0030424001082614079 0 -0.0052714158235236267 -0.0030652469387559148 0 -0.0053452969734630778 -0.0031540351441914872 0 -0.0052714158235236267 -0.0030652469387559148 0 -0.0053904057811681233 -0.0029958693593475508 0 -0.0052537733331036078 -0.002910678082937801 0 -0.0052714158235236267 -0.0030652469387559148 0 -0.0053904057811681233 -0.0029958693593475508 0 -0.0053904057811681233 -0.0029958693593475508 0 -0.0054941632397222245 -0.00306303464730844 0 -0.0054312188302988781 -0.0031325720293076324 0 -0.0053904057811681233 -0.0029958693593475508 0 -0.0054941632397222245 -0.00306303464730844 0 -0.0054802485207570192 -0.0029518166867441545 0 -0.0054941632397222245 -0.00306303464730844 0 -0.0054802485207570192 -0.0029518166867441545 0 -0.0055526963774062219 -0.0030050748519998005 0 -0.0054802485207570192 -0.0029518166867441545 0 -0.0054589243806513858 -0.0028337387917961496 0 -0.0055328963673343815 -0.0029025074240535218 0 -0.0054802485207570192 -0.0029518166867441545 0 -0.0055328963673343815 -0.0029025074240535218 0 -0.0055526963774062219 -0.0030050748519998005 0 -0.0053904057811681233 -0.0029958693593475508 0 -0.0054802485207570192 -0.0029518166867441545 0 -0.0054589243806513858 -0.0028337387917961496 0 -0.0053474013911873446 -0.0028569644818717153 0 -0.0053904057811681233 -0.0029958693593475508 0 -0.0054589243806513858 -0.0028337387917961496 0 -0.0053246290524715722 -0.0026944631475659567 0 -0.0054589243806513858 -0.0028337387917961496 0 -0.0054059270303473527 -0.0026144625347672558 0 -0.0054589243806513858 -0.0028337387917961496 0 -0.0055053634809500759 -0.0028205248427356343 0 -0.0054513989352957294 -0.0027710072244307659 0 -0.0054589243806513858 -0.0028337387917961496 0 -0.0055053634809500759 -0.0028205248427356343 0 -0.0055328963673343815 -0.0029025074240535218 0 -0.0055053634809500759 -0.0028205248427356343 0 -0.0054513989352957294 -0.0027710072244307659 0 -0.0055308328521499316 -0.0027518448239483816 0 -0.0054697272227211893 -0.0027820829583852071 0 -0.0054853013649586654 -0.002780824746730528 0 -0.0054589243806513858 -0.0028337387917961496 0 -0.0055383634478493454 -0.0026011316332994537 0 -0.0054059270303473527 -0.0026144625347672558 0 -0.005382148094032705 -0.002472926444686949 0 -0.0055383634478493454 -0.0026011316332994537 0 -0.0054059270303473527 -0.0026144625347672558 0 -0.0056181671381594746 -0.0027779063137296678 0 -0.0055769442049883036 -0.0028377057963546938 0 -0.0056552751587302741 -0.0028517208072280659 0 -0.0056181671381594746 -0.0027779063137296678 0 -0.0056552751587302741 -0.0028517208072280659 0 -0.0056822468599832688 -0.0027977081776250339 0 -0.0056676899538505229 -0.0027266838562085755 0 -0.0056181671381594746 -0.0027779063137296678 0 -0.0056822468599832688 -0.0027977081776250339 0 -0.0055053634809500759 -0.0028205248427356343 0 -0.0055308328521499316 -0.0027518448239483816 0 -0.0055769442049883036 -0.0028377057963546938 0 -0.0056181671381594746 -0.0027779063137296678 0 -0.0055308328521499316 -0.0027518448239483816 0 -0.0055769442049883036 -0.0028377057963546938 0 -0.0055053634809500759 -0.0028205248427356343 0 -0.0055769442049883036 -0.0028377057963546938 0 -0.0055328963673343815 -0.0029025074240535218 0 -0.0055769442049883036 -0.0028377057963546938 0 -0.0056157656106507392 -0.0029213353966892927 0 -0.0055328963673343815 -0.0029025074240535218 0 -0.0055769442049883036 -0.0028377057963546938 0 -0.0056552751587302741 -0.0028517208072280659 0 -0.0056157656106507392 -0.0029213353966892927 0 -0.0056552751587302741 -0.0028517208072280659 0 -0.0056157656106507392 -0.0029213353966892927 0 -0.0056926127763563469 -0.0029204227280909332 0 -0.0056157656106507392 -0.0029213353966892927 0 -0.0056191127653094893 -0.0030115552968554664 0 -0.0056855337818971395 -0.0030065675191702956 0 -0.0056157656106507392 -0.0029213353966892927 0 -0.0055526963774062219 -0.0030050748519998005 0 -0.0056191127653094893 -0.0030115552968554664 0 -0.0056157656106507392 -0.0029213353966892927 0 -0.0055328963673343815 -0.0029025074240535218 0 -0.0055526963774062219 -0.0030050748519998005 0 -0.0054941632397222245 -0.00306303464730844 0 -0.0055526963774062219 -0.0030050748519998005 0 -0.0055387323905920945 -0.0031374665397354545 0 -0.0055526963774062219 -0.0030050748519998005 0 -0.0055997167936830249 -0.0030986414726441292 0 -0.0055387323905920945 -0.0031374665397354545 0 -0.0055526963774062219 -0.0030050748519998005 0 -0.0056191127653094893 -0.0030115552968554664 0 -0.0055997167936830249 -0.0030986414726441292 0 -0.0056191127653094893 -0.0030115552968554664 0 -0.0056515652574949549 -0.003068772563873827 0 -0.0056855337818971395 -0.0030065675191702956 0 -0.0056191127653094893 -0.0030115552968554664 0 -0.0056515652574949549 -0.003068772563873827 0 -0.0055997167936830249 -0.0030986414726441292 0 -0.0056515652574949549 -0.003068772563873827 0 -0.0055997167936830249 -0.0030986414726441292 0 -0.0056500194588653173 -0.0031643638068628126 0 -0.0055997167936830249 -0.0030986414726441292 0 -0.0056500194588653173 -0.0031643638068628126 0 -0.0055775187829363079 -0.0032121777338199259 0 -0.0056500194588653173 -0.0031643638068628126 0 -0.0056320160076882798 -0.0032713409468759216 0 -0.0055775187829363079 -0.0032121777338199259 0 -0.0056500194588653173 -0.0031643638068628126 0 -0.0056320160076882798 -0.0032713409468759216 0 -0.0056851781031203759 -0.0032439782766015487 0 -0.0056320160076882798 -0.0032713409468759216 0 -0.0055775187829363079 -0.0032121777338199259 0 -0.0055877356958240875 -0.0033070662662448187 0 -0.0056320160076882798 -0.0032713409468759216 0 -0.0056665898383464319 -0.0033290939919005686 0 -0.0056851781031203759 -0.0032439782766015487 0 -0.0055775187829363079 -0.0032121777338199259 0 -0.005484474464693149 -0.0032052837149307823 0 -0.0055318266119593895 -0.0033156445399199529 0 -0.0055775187829363079 -0.0032121777338199259 0 -0.0055877356958240875 -0.0033070662662448187 0 -0.0055318266119593895 -0.0033156445399199529 0 -0.0055997167936830249 -0.0030986414726441292 0 -0.0055775187829363079 -0.0032121777338199259 0 -0.0055387323905920945 -0.0031374665397354545 0 -0.0055775187829363079 -0.0032121777338199259 0 -0.0055387323905920945 -0.0031374665397354545 0 -0.005484474464693149 -0.0032052837149307823 0 -0.0054941632397222245 -0.00306303464730844 0 -0.0055387323905920945 -0.0031374665397354545 0 -0.005484474464693149 -0.0032052837149307823 0 -0.0054941632397222245 -0.00306303464730844 0 -0.0054312188302988781 -0.0031325720293076324 0 -0.005484474464693149 -0.0032052837149307823 0 -0.0053452969734630778 -0.0031540351441914872 0 -0.0054312188302988781 -0.0031325720293076324 0 -0.0053984887509408042 -0.0032583383451973854 0 -0.0053452969734630778 -0.0031540351441914872 0 -0.0053904057811681233 -0.0029958693593475508 0 -0.0054312188302988781 -0.0031325720293076324 0 -0.0054312188302988781 -0.0031325720293076324 0 -0.0053984887509408042 -0.0032583383451973854 0 -0.005484474464693149 -0.0032052837149307823 0 -0.0053984887509408042 -0.0032583383451973854 0 -0.005484474464693149 -0.0032052837149307823 0 -0.0054614573900685724 -0.0033447994305964737 0 -0.005484474464693149 -0.0032052837149307823 0 -0.0054614573900685724 -0.0033447994305964737 0 -0.0055318266119593895 -0.0033156445399199529 0 -0.0054614573900685724 -0.0033447994305964737 0 -0.0055173688903418644 -0.0034371189731420317 0 -0.0055318266119593895 -0.0033156445399199529 0 -0.0054614573900685724 -0.0033447994305964737 0 -0.0055173688903418644 -0.0034371189731420317 0 -0.0054492154002313111 -0.003449319541686847 0 -0.0052888027008288329 -0.0033152294016861043 0 -0.0053984887509408042 -0.0032583383451973854 0 -0.0053785124086920292 -0.0033952194103238705 0 -0.0053984887509408042 -0.0032583383451973854 0 -0.0054614573900685724 -0.0033447994305964737 0 -0.0053785124086920292 -0.0033952194103238705 0 -0.0054614573900685724 -0.0033447994305964737 0 -0.0053785124086920292 -0.0033952194103238705 0 -0.0054492154002313111 -0.003449319541686847 0 -0.0053868083057969441 -0.003510251490069006 0 -0.0054492154002313111 -0.003449319541686847 0 -0.0054765505257195011 -0.0036052809138286436 0 -0.0052922661211785302 -0.0034693125166077201 0 -0.0053785124086920292 -0.0033952194103238705 0 -0.0053868083057969441 -0.003510251490069006 0 -0.0053785124086920292 -0.0033952194103238705 0 -0.0053868083057969441 -0.003510251490069006 0 -0.0054492154002313111 -0.003449319541686847 0 -0.0055173688903418644 -0.0034371189731420317 0 -0.0055430298205486166 -0.0035044227298972391 0 -0.0054765505257195011 -0.0036052809138286436 0 -0.0055173688903418644 -0.0034371189731420317 0 -0.0054492154002313111 -0.003449319541686847 0 -0.0054765505257195011 -0.0036052809138286436 0 -0.0055173688903418644 -0.0034371189731420317 0 -0.0055430298205486166 -0.0035044227298972391 0 -0.0055816929003675792 -0.0034472433025140364 0 -0.0055173688903418644 -0.0034371189731420317 0 -0.0055816929003675792 -0.0034472433025140364 0 -0.0055644188320150114 -0.0033790160291847205 0 -0.0055430298205486166 -0.0035044227298972391 0 -0.0055816929003675792 -0.0034472433025140364 0 -0.005592969718594458 -0.0035292482555595662 0 -0.0055816929003675792 -0.0034472433025140364 0 -0.0056574770625961038 -0.0034176334272869799 0 -0.005592969718594458 -0.0035292482555595662 0 -0.0055816929003675792 -0.0034472433025140364 0 -0.0056574770625961038 -0.0034176334272869799 0 -0.0056113953805910803 -0.0033680068932662472 0 -0.0056574770625961038 -0.0034176334272869799 0 -0.0057043237787575973 -0.0034759863854419031 0 -0.005592969718594458 -0.0035292482555595662 0 -0.0056574770625961038 -0.0034176334272869799 0 -0.0056113953805910803 -0.0033680068932662472 0 -0.0056665898383464319 -0.0033290939919005686 0 -0.0056320160076882798 -0.0032713409468759216 0 -0.0056113953805910803 -0.0033680068932662472 0 -0.0056665898383464319 -0.0033290939919005686 0 -0.0056320160076882798 -0.0032713409468759216 0 -0.0056113953805910803 -0.0033680068932662472 0 -0.0055877356958240875 -0.0033070662662448187 0 -0.0055877356958240875 -0.0033070662662448187 0 -0.0055318266119593895 -0.0033156445399199529 0 -0.0055644188320150114 -0.0033790160291847205 0 -0.0055173688903418644 -0.0034371189731420317 0 -0.0055318266119593895 -0.0033156445399199529 0 -0.0055644188320150114 -0.0033790160291847205 0 -0.0055816929003675792 -0.0034472433025140364 0 -0.0056113953805910803 -0.0033680068932662472 0 -0.0055644188320150114 -0.0033790160291847205 0 -0.0056113953805910803 -0.0033680068932662472 0 -0.0055877356958240875 -0.0033070662662448187 0 -0.0055644188320150114 -0.0033790160291847205 0 -0.0058007856184123475 -0.0033162672346702545 0 -0.0058446311748885206 -0.0033941005067967484 0 -0.0058398657618601007 -0.0032019382446223082 0 -0.0057905033150164511 -0.0033755271062170687 0 -0.0057585706439635719 -0.0033357936917677126 0 -0.0057402063935397237 -0.0034035432178545193 0 -0.0057905033150164511 -0.0033755271062170687 0 -0.0058007856184123475 -0.0033162672346702545 0 -0.0057585706439635719 -0.0033357936917677126 0 -0.0057905033150164511 -0.0033755271062170687 0 -0.0058007856184123475 -0.0033162672346702545 0 -0.0058446311748885206 -0.0033941005067967484 0 -0.005763855998333932 -0.0034616461453607053 0 -0.0053067249216878481 -0.0033862674299144158 0 -0.0057585706439635719 -0.0033357936917677126 0 -0.0057212503094990069 -0.0032932783582168106 0 -0.005773096323922762 -0.0032748437485938561 0 -0.0058007856184123475 -0.0033162672346702545 0 -0.0057585706439635719 -0.0033357936917677126 0 -0.005773096323922762 -0.0032748437485938561 0 -0.0057585706439635719 -0.0033357936917677126 0 -0.0057212503094990069 -0.0032932783582168106 0 -0.005714370832722181 -0.0033493029306353537 0 -0.0056574770625961038 -0.0034176334272869799 0 -0.005714370832722181 -0.0033493029306353537 0 -0.0057402063935397237 -0.0034035432178545193 0 -0.0056665898383464319 -0.0033290939919005686 0 -0.0057212503094990069 -0.0032932783582168106 0 -0.0056851781031203759 -0.0032439782766015487 0 -0.0056665898383464319 -0.0033290939919005686 0 -0.0057212503094990069 -0.0032932783582168106 0 -0.005714370832722181 -0.0033493029306353537 0 -0.0056574770625961038 -0.0034176334272869799 0 -0.0056665898383464319 -0.0033290939919005686 0 -0.005714370832722181 -0.0033493029306353537 0 -0.0057585706439635719 -0.0033357936917677126 0 -0.005714370832722181 -0.0033493029306353537 0 -0.0057402063935397237 -0.0034035432178545193 0 -0.0056574770625961038 -0.0034176334272869799 0 -0.0057043237787575973 -0.0034759863854419031 0 -0.0057402063935397237 -0.0034035432178545193 0 -0.0057905033150164511 -0.0033755271062170687 0 -0.0057402063935397237 -0.0034035432178545193 0 -0.0058250259257418618 -0.0034383120267872202 0 -0.0046830988351195665 -0.0047900910700163085 0 -0.0045924154835295323 -0.0043493165821095964 0 -0.0057043237787575973 -0.0034759863854419031 0 -0.0057402063935397237 -0.0034035432178545193 0 -0.0058250259257418618 -0.0034383120267872202 0 -0.003671213151931915 -0.0060149043064687468 0 -0.0034454329564647911 -0.0060860528065693658 0 -0.0034866854461898596 -0.0059940464283768204 0 -0.0057905033150164511 -0.0033755271062170687 0 -0.0058250259257418618 -0.0034383120267872202 0 -0.0058267351976044914 -0.0033940903376070107 0 -0.0034454329564647911 -0.0060860528065693658 0 -0.0033562035237974575 -0.006065548511564019 0 -0.0033196845002046774 -0.0061260082453718561 0 -0.0034454329564647911 -0.0060860528065693658 0 -0.0033562035237974575 -0.006065548511564019 0 -0.0033780046355867343 -0.0060138474496286573 0 -0.0034454329564647911 -0.0060860528065693658 0 -0.0033780046355867343 -0.0060138474496286573 0 -0.0034866854461898596 -0.0059940464283768204 0 -0.0033562035237974575 -0.006065548511564019 0 -0.0033196845002046774 -0.0061260082453718561 0 -0.00328103193977459 -0.0060348527192023212 0 -0.0033562035237974575 -0.006065548511564019 0 -0.00328103193977459 -0.0060348527192023212 0 -0.0033780046355867343 -0.0060138474496286573 0 -0.0045924154835295323 -0.0043493165821095964 0 -0.0046033953397147075 -0.0038963810838159169 0 -0.0053723422274193668 -0.0029325573893820784 0 -0.0053393835371126587 -0.0029237057477907598 0 -0.0053674466776889732 -0.002906944338968538 0 -0.0046033953397147075 -0.0038963810838159169 0 -0.0053067249216878481 -0.0033862674299144158 0 -0.0049409578679380575 -0.0037779164845201706 0 -0.0047521130627872889 -0.0038281492521457612 0 -0.0049423459334097773 -0.0038939540395154593 0 -0.0045924154835295323 -0.0043493165821095964 0 -0.0053067249216878481 -0.0033862674299144158 0 -0.0046033953397147075 -0.0038963810838159169 0 -0.0041078781591002344 -0.0044686444526945588 0 -0.0033196845002046774 -0.0061260082453718561 0 -0.0031446498224579401 -0.0060824209134900248 0 -0.0032198487240988143 -0.006061255000757452 0 -0.005404605075294857 -0.0029631967267763353 0 -0.005384425671960816 -0.0029301160572911007 0 -0.0054260011176377361 -0.0028929482277257452 0 -0.0053448267705673231 -0.0029460199656223475 0 -0.005404605075294857 -0.0029631967267763353 0 -0.005384425671960816 -0.0029301160572911007 0 -0.0031417773478288067 -0.0060892196009227871 0 -0.0031544522221841919 -0.0060614764276164584 0 -0.0031241644435022471 -0.0059989310295291446 0 -0.0041078781591002344 -0.0044686444526945588 0 -0.0038967141645134548 -0.004887741082214527 0 -0.0031544522221841919 -0.0060614764276164584 0 -0.0032198487240988143 -0.006061255000757452 0 -0.0032003024728992063 -0.0060001454028283698 0 -0.0031446498224579401 -0.0060824209134900248 0 -0.0031544522221841919 -0.0060614764276164584 0 -0.0032198487240988143 -0.006061255000757452 0 -0.0033196845002046774 -0.0061260082453718561 0 -0.0032198487240988143 -0.006061255000757452 0 -0.00328103193977459 -0.0060348527192023212 0 -0.0032198487240988143 -0.006061255000757452 0 -0.00328103193977459 -0.0060348527192023212 0 -0.0032003024728992063 -0.0060001454028283698 0 -0.0046033953397147075 -0.0038963810838159169 0 -0.0055150544565746558 -0.003228931582196855 0 -0.0053723422274193668 -0.0029325573893820784 0 -0.005384425671960816 -0.0029301160572911007 0 -0.0053841326018753462 -0.0029040889959889367 0 -0.005384425671960816 -0.0029301160572911007 0 -0.0053993222212870484 -0.0028900825777579049 0 -0.0054260011176377361 -0.0028929482277257452 0 -0.005384425671960816 -0.0029301160572911007 0 -0.0053841326018753462 -0.0029040889959889367 0 -0.0053993222212870484 -0.0028900825777579049 0 -0.0053993222212870484 -0.0028900825777579049 0 -0.0053823327816098889 -0.0028777573201747603 0 -0.0053999690687104281 -0.0028625320863405052 0 -0.0053841326018753462 -0.0029040889959889367 0 -0.0053993222212870484 -0.0028900825777579049 0 -0.0053823327816098889 -0.0028777573201747603 0 -0.0053393835371126587 -0.0029237057477907598 0 -0.0053685876380670525 -0.0028783492272937876 0 -0.0053729221558463103 -0.0028257985913794437 0 -0.0053067249216878481 -0.0033862674299144158 0 -0.005642840109320286 -0.0029664169094885898 0 -0.0053393835371126587 -0.0029237057477907598 0 -0.0053674466776889732 -0.002906944338968538 0 -0.0053685876380670525 -0.0028783492272937876 0 -0.0053723422274193668 -0.0029325573893820784 0 -0.0053841326018753462 -0.0029040889959889367 0 -0.0053674466776889732 -0.002906944338968538 0 -0.0053841326018753462 -0.0029040889959889367 0 -0.0053674466776889732 -0.002906944338968538 0 -0.0053823327816098889 -0.0028777573201747603 0 -0.0053674466776889732 -0.002906944338968538 0 -0.0053823327816098889 -0.0028777573201747603 0 -0.0053685876380670525 -0.0028783492272937876 0 -0.0053823327816098889 -0.0028777573201747603 0 -0.0053685876380670525 -0.0028783492272937876 0 -0.0053777376876431851 -0.0028578625893103276 0 -0.0053685876380670525 -0.0028783492272937876 0 -0.0053777376876431851 -0.0028578625893103276 0 -0.0053729221558463103 -0.0028257985913794437 0 -0.0053823327816098889 -0.0028777573201747603 0 -0.0053777376876431851 -0.0028578625893103276 0 -0.0053902421658687406 -0.0028452996109550842 0 -0.0053777376876431851 -0.0028578625893103276 0 -0.0053902421658687406 -0.0028452996109550842 0 -0.0053729221558463103 -0.0028257985913794437 0 -0.0053902421658687406 -0.0028452996109550842 0 -0.0053729221558463103 -0.0028257985913794437 0 -0.0053944234644665492 -0.0028210948188001411 0 -0.0053993222212870484 -0.0028900825777579049 0 -0.0053999690687104281 -0.0028625320863405052 0 -0.0054133686373147097 -0.0028674791561853104 0 -0.0053823327816098889 -0.0028777573201747603 0 -0.0053902421658687406 -0.0028452996109550842 0 -0.0053999690687104281 -0.0028625320863405052 0 -0.0053902421658687406 -0.0028452996109550842 0 -0.0053999690687104281 -0.0028625320863405052 0 -0.0054054553634247443 -0.0028459168793799157 0 -0.0053999690687104281 -0.0028625320863405052 0 -0.0054054553634247443 -0.0028459168793799157 0 -0.0054133686373147097 -0.0028674791561853104 0 -0.0052926320764097173 -0.0027297403409121627 0 -0.0053480471646236375 -0.002810470500362032 0 -0.0053944234644665492 -0.0028210948188001411 0 -0.005455578147271798 -0.0027655163752150951 0 -0.0053431216296235219 -0.0028129825378090272 0 -0.0052926320764097173 -0.0027297403409121627 0 -0.0052849712812017748 -0.0028149531065101291 0 -0.0051931170270600032 -0.0027834957095584562 0 -0.0052926320764097173 -0.0027297403409121627 0 -0.0053480471646236375 -0.002810470500362032 0 -0.0052849712812017748 -0.0028149531065101291 0 -0.005642840109320286 -0.0029664169094885898 0 -0.0056047928509374099 -0.0029627347920209322 0 -0.0053902421658687406 -0.0028452996109550842 0 -0.0054054553634247443 -0.0028459168793799157 0 -0.0053944234644665492 -0.0028210948188001411 0 -0.0053944234644665492 -0.0028210948188001411 0 -0.0054581164836437195 -0.0028533155796242621 0 -0.0053943458332705724 -0.0028413674100867727 0 -0.0053729221558463103 -0.0028257985913794437 0 -0.0053944234644665492 -0.0028210948188001411 0 -0.0054581164836437195 -0.0028533155796242621 0 -0.0053480471646236375 -0.002810470500362032 0 -0.0053944234644665492 -0.0028210948188001411 0 -0.0053943458332705724 -0.0028413674100867727 0 -0.0057463959011552828 -0.0030882793124648016 0 -0.0057762714900253878 -0.0031314904662771066 0 -0.0057694146466091599 -0.0030115636239353774 0 -0.0058398657618601007 -0.0032019382446223082 0 -0.0057762714900253878 -0.0031314904662771066 0 -0.0057694146466091599 -0.0030115636239353774 0 -0.0057435171229593789 -0.0031590492209794675 0 -0.0057762714900253878 -0.0031314904662771066 0 -0.0057749932538903653 -0.0032038810997046278 0 -0.0057463959011552828 -0.0030882793124648016 0 -0.0057435171229593789 -0.0031590492209794675 0 -0.0057762714900253878 -0.0031314904662771066 0 -0.0058398657618601007 -0.0032019382446223082 0 -0.0057762714900253878 -0.0031314904662771066 0 -0.0057749932538903653 -0.0032038810997046278 0 -0.0058398657618601007 -0.0032019382446223082 0 -0.0057749932538903653 -0.0032038810997046278 0 -0.005773096323922762 -0.0032748437485938561 0 -0.0058007856184123475 -0.0033162672346702545 0 -0.0058398657618601007 -0.0032019382446223082 0 -0.005773096323922762 -0.0032748437485938561 0 -0.0057435171229593789 -0.0031590492209794675 0 -0.0057749932538903653 -0.0032038810997046278 0 -0.0057347993324767333 -0.0032263284190828922 0 -0.0057749932538903653 -0.0032038810997046278 0 -0.005773096323922762 -0.0032748437485938561 0 -0.0057347993324767333 -0.0032263284190828922 0 -0.0057212503094990069 -0.0032932783582168106 0 -0.005773096323922762 -0.0032748437485938561 0 -0.0057347993324767333 -0.0032263284190828922 0 -0.0057212503094990069 -0.0032932783582168106 0 -0.0056851781031203759 -0.0032439782766015487 0 -0.0057347993324767333 -0.0032263284190828922 0 -0.0057435171229593789 -0.0031590492209794675 0 -0.0057347993324767333 -0.0032263284190828922 0 -0.0057002054388836324 -0.0031771226403636893 0 -0.0056851781031203759 -0.0032439782766015487 0 -0.0057347993324767333 -0.0032263284190828922 0 -0.0057002054388836324 -0.0031771226403636893 0 -0.0056500194588653173 -0.0031643638068628126 0 -0.0056851781031203759 -0.0032439782766015487 0 -0.0057002054388836324 -0.0031771226403636893 0 -0.0056515652574949549 -0.003068772563873827 0 -0.0056500194588653173 -0.0031643638068628126 0 -0.0057026833180980488 -0.0030955555554248435 0 -0.0056500194588653173 -0.0031643638068628126 0 -0.0057002054388836324 -0.0031771226403636893 0 -0.0057026833180980488 -0.0030955555554248435 0 -0.0057435171229593789 -0.0031590492209794675 0 -0.0057002054388836324 -0.0031771226403636893 0 -0.0057026833180980488 -0.0030955555554248435 0 -0.0057463959011552828 -0.0030882793124648016 0 -0.0057435171229593789 -0.0031590492209794675 0 -0.0057026833180980488 -0.0030955555554248435 0 -0.0057261219683167131 -0.003032075166907856 0 -0.0057275551093353243 -0.0030025273536845565 0 -0.0056855337818971395 -0.0030065675191702956 0 -0.0057026833180980488 -0.0030955555554248435 0 -0.0057261219683167131 -0.003032075166907856 0 -0.0056855337818971395 -0.0030065675191702956 0 -0.0056515652574949549 -0.003068772563873827 0 -0.0057026833180980488 -0.0030955555554248435 0 -0.0056855337818971395 -0.0030065675191702956 0 -0.0057463959011552828 -0.0030882793124648016 0 -0.0057026833180980488 -0.0030955555554248435 0 -0.0057261219683167131 -0.003032075166907856 0 -0.0057463959011552828 -0.0030882793124648016 0 -0.0057261219683167131 -0.003032075166907856 0 -0.0057694146466091599 -0.0030115636239353774 0 -0.0057261219683167131 -0.003032075166907856 0 -0.0057275551093353243 -0.0030025273536845565 0 -0.0057694146466091599 -0.0030115636239353774 0 -0.0057275551093353243 -0.0030025273536845565 0 -0.0055800083477910226 -0.0030695940871115516 0 -0.0057694146466091599 -0.0030115636239353774 0 -0.0056157656106507392 -0.0029213353966892927 0 -0.0056855337818971395 -0.0030065675191702956 0 -0.0056926127763563469 -0.0029204227280909332 0 -0.0057275551093353243 -0.0030025273536845565 0 -0.0056855337818971395 -0.0030065675191702956 0 -0.0056926127763563469 -0.0029204227280909332 0 -0.0056552751587302741 -0.0028517208072280659 0 -0.0056926127763563469 -0.0029204227280909332 0 -0.0057052995984795303 -0.0028387941355724148 0 -0.0056926127763563469 -0.0029204227280909332 0 -0.0057768609808176554 -0.002854531796786262 0 -0.0057052995984795303 -0.0028387941355724148 0 -0.0056443140798797878 -0.0031454618143067297 0 -0.0055800083477910226 -0.0030695940871115516 0 -0.0054835540272336622 -0.0031432059550812125 0 -0.0057275551093353243 -0.0030025273536845565 0 -0.0056926127763563469 -0.0029204227280909332 0 -0.0057768609808176554 -0.002854531796786262 0 -0.0057224177209802994 -0.0029360965516393271 0 -0.0057338606381889265 -0.0031437615691435349 0 -0.0057275551093353243 -0.0030025273536845565 0 -0.0056443140798797878 -0.0031454618143067297 0 -0.0055800083477910226 -0.0030695940871115516 0 -0.0054103974748753204 -0.0023558585990660708 0 -0.0057338606381889265 -0.0031437615691435349 0 -0.005790905206182459 -0.0027112069982946517 0 -0.0057768609808176554 -0.002854531796786262 0 -0.0057240613367772839 -0.0027710649551206299 0 -0.0056194965284424208 -0.0033507857059669383 0 -0.0056443140798797878 -0.0031454618143067297 0 -0.0055357554431062468 -0.0032318111629583189 0 -0.0056676899538505229 -0.0027266838562085755 0 -0.0057240613367772839 -0.0027710649551206299 0 -0.0056822468599832688 -0.0027977081776250339 0 -0.0056552751587302741 -0.0028517208072280659 0 -0.0056822468599832688 -0.0027977081776250339 0 -0.0057052995984795303 -0.0028387941355724148 0 -0.0057240613367772839 -0.0027710649551206299 0 -0.0056822468599832688 -0.0027977081776250339 0 -0.0057052995984795303 -0.0028387941355724148 0 -0.0057768609808176554 -0.002854531796786262 0 -0.0057240613367772839 -0.0027710649551206299 0 -0.0057052995984795303 -0.0028387941355724148 0 -0.0050004031679423923 -0.0020493432667563162 0 -0.0047441394622725454 -0.0019297000984167866 0 -0.0044712867677274342 -0.00095384880130312648 0 -0.0046448987862330038 -0.00085971778005762697 0 -0.004294652594307711 -0.00075124550015204705 0 -0.0053393854530300001 -0.0031693548530737636 0 -0.0054019608231343341 -0.0032748442016421755 0 -0.0051849156900794363 -0.0031881282563982613 0 -0.0056443140798797878 -0.0031454618143067297 0 -0.0055357554431062468 -0.0032318111629583189 0 -0.0054835540272336622 -0.0031432059550812125 0 -0.0056194965284424208 -0.0033507857059669383 0 -0.0054019608231343341 -0.0032748442016421755 0 -0.0055357554431062468 -0.0032318111629583189 0 -0.0054019608231343341 -0.0032748442016421755 0 -0.0055357554431062468 -0.0032318111629583189 0 -0.0054835540272336622 -0.0031432059550812125 0 -0.0053393854530300001 -0.0031693548530737636 0 -0.0054019608231343341 -0.0032748442016421755 0 -0.0054835540272336622 -0.0031432059550812125 0 -0.0055800083477910226 -0.0030695940871115516 0 -0.0054835540272336622 -0.0031432059550812125 0 -0.0054550206223292971 -0.0030005328336662677 0 -0.0054835540272336622 -0.0031432059550812125 0 -0.0053937684554092773 -0.0030739489924208525 0 -0.0054550206223292971 -0.0030005328336662677 0 -0.0053393854530300001 -0.0031693548530737636 0 -0.0053937684554092773 -0.0030739489924208525 0 -0.0053151657188413226 -0.0030432793527417905 0 -0.0053393854530300001 -0.0031693548530737636 0 -0.0054835540272336622 -0.0031432059550812125 0 -0.0053937684554092773 -0.0030739489924208525 0 -0.0053393854530300001 -0.0031693548530737636 0 -0.005251673985045259 -0.0030860245734494174 0 -0.005239125419707359 -0.0031361298221936496 0 -0.0053151657188413226 -0.0030432793527417905 0 -0.0052157437492976553 -0.0030197163742163818 0 -0.005251673985045259 -0.0030860245734494174 0 -0.0053393854530300001 -0.0031693548530737636 0 -0.0053151657188413226 -0.0030432793527417905 0 -0.005251673985045259 -0.0030860245734494174 0 -0.0053151657188413226 -0.0030432793527417905 0 -0.0053626867902780749 -0.0029857882531092238 0 -0.0052921439753955343 -0.0029777030650924899 0 -0.0053151657188413226 -0.0030432793527417905 0 -0.0052921439753955343 -0.0029777030650924899 0 -0.0052157437492976553 -0.0030197163742163818 0 -0.0053937684554092773 -0.0030739489924208525 0 -0.0053151657188413226 -0.0030432793527417905 0 -0.0053626867902780749 -0.0029857882531092238 0 -0.0053626867902780749 -0.0029857882531092238 0 -0.0053211837962462583 -0.0029237241739707284 0 -0.0054032642706402295 -0.002913888329055894 0 -0.0053626867902780749 -0.0029857882531092238 0 -0.0053211837962462583 -0.0029237241739707284 0 -0.0052921439753955343 -0.0029777030650924899 0 -0.0053211837962462583 -0.0029237241739707284 0 -0.0052921439753955343 -0.0029777030650924899 0 -0.0052331627427455825 -0.0029379766516755912 0 -0.0055800083477910226 -0.0030695940871115516 0 -0.0054550206223292971 -0.0030005328336662677 0 -0.0054581164836437195 -0.0028533155796242621 0 -0.0055879578200381409 -0.0030702806887267192 0 -0.0056047928509374099 -0.0029627347920209322 0 -0.0054550206223292971 -0.0030005328336662677 0 -0.0054581164836437195 -0.0028533155796242621 0 -0.0054032642706402295 -0.002913888329055894 0 -0.0053937684554092773 -0.0030739489924208525 0 -0.0053626867902780749 -0.0029857882531092238 0 -0.0054550206223292971 -0.0030005328336662677 0 -0.0053626867902780749 -0.0029857882531092238 0 -0.0054550206223292971 -0.0030005328336662677 0 -0.0054032642706402295 -0.002913888329055894 0 -0.0054581164836437195 -0.0028533155796242621 0 -0.0054032642706402295 -0.002913888329055894 0 -0.0053943458332705724 -0.0028413674100867727 0 -0.0054032642706402295 -0.002913888329055894 0 -0.0053943458332705724 -0.0028413674100867727 0 -0.0053435333052002541 -0.0028554058612798548 0 -0.0053211837962462583 -0.0029237241739707284 0 -0.005281214117714518 -0.0028795455929916842 0 -0.0053435333052002541 -0.0028554058612798548 0 -0.0053211837962462583 -0.0029237241739707284 0 -0.005281214117714518 -0.0028795455929916842 0 -0.0052331627427455825 -0.0029379766516755912 0 -0.0053211837962462583 -0.0029237241739707284 0 -0.0054032642706402295 -0.002913888329055894 0 -0.0053435333052002541 -0.0028554058612798548 0 -0.0053480471646236375 -0.002810470500362032 0 -0.0052849712812017748 -0.0028149531065101291 0 -0.0053435333052002541 -0.0028554058612798548 0 -0.0053480471646236375 -0.002810470500362032 0 -0.0053943458332705724 -0.0028413674100867727 0 -0.0053435333052002541 -0.0028554058612798548 0 -0.0052849712812017748 -0.0028149531065101291 0 -0.005281214117714518 -0.0028795455929916842 0 -0.0053435333052002541 -0.0028554058612798548 0 -0.0052849712812017748 -0.0028149531065101291 0 -0.005281214117714518 -0.0028795455929916842 0 -0.005198137871226919 -0.002873614308694053 0 -0.0052849712812017748 -0.0028149531065101291 0 -0.005198137871226919 -0.002873614308694053 0 -0.0051931170270600032 -0.0027834957095584562 0 -0.005198137871226919 -0.002873614308694053 0 -0.0051316562354272914 -0.0028542098552955136 0 -0.0051931170270600032 -0.0027834957095584562 0 -0.005198137871226919 -0.002873614308694053 0 -0.0051316562354272914 -0.0028542098552955136 0 -0.005127608505321876 -0.0029128952050437532 0 -0.005198137871226919 -0.002873614308694053 0 -0.005127608505321876 -0.0029128952050437532 0 -0.0051547787546184116 -0.0029614209321648854 0 -0.005281214117714518 -0.0028795455929916842 0 -0.005198137871226919 -0.002873614308694053 0 -0.0052331627427455825 -0.0029379766516755912 0 -0.005198137871226919 -0.002873614308694053 0 -0.0052331627427455825 -0.0029379766516755912 0 -0.0051547787546184116 -0.0029614209321648854 0 -0.004997941291169334 -0.0031338650959476925 0 -0.0050758120234058422 -0.0026981493206849846 0 -0.0049136244960372878 -0.0028147836491405577 0 -0.0047986052286643219 -0.0030309230510794194 0 -0.0051316562354272914 -0.0028542098552955136 0 -0.0050646998313239305 -0.0029394985142372466 0 -0.0050791482847440698 -0.0027591647330330229 0 -0.0049452552263430831 -0.0028393876656178834 0 -0.0048928247129151692 -0.003013613425556394 0 -0.0050791482847440698 -0.0027591647330330229 0 -0.0049452552263430831 -0.0028393876656178834 0 -0.0048928247129151692 -0.003013613425556394 0 -0.0048037766403688292 -0.0030082676835845598 0 -0.0051316562354272914 -0.0028542098552955136 0 -0.005127608505321876 -0.0029128952050437532 0 -0.0050646998313239305 -0.0029394985142372466 0 -0.0048928247129151692 -0.003013613425556394 0 -0.0048042587428042986 -0.0031653210153436279 0 -0.0048050636778728274 -0.0030930115952454776 0 -0.0050646998313239305 -0.0029394985142372466 0 -0.0050820036452489479 -0.0030391977346691484 0 -0.0050057463531619972 -0.0031072381332166348 0 -0.004997941291169334 -0.0031338650959476925 0 -0.004563296667818237 -0.0023288686112402758 0 -0.0048928247129151692 -0.003013613425556394 0 -0.0048050636778728274 -0.0030930115952454776 0 -0.0048037766403688292 -0.0030082676835845598 0 -0.005127608505321876 -0.0029128952050437532 0 -0.0050646998313239305 -0.0029394985142372466 0 -0.0051121255610062765 -0.0029512244641442535 0 -0.0050646998313239305 -0.0029394985142372466 0 -0.0051121255610062765 -0.0029512244641442535 0 -0.0051034532387149991 -0.0029924479967078001 0 -0.0051121255610062765 -0.0029512244641442535 0 -0.0051034532387149991 -0.0029924479967078001 0 -0.0051547787546184116 -0.0029614209321648854 0 -0.0051034532387149991 -0.0029924479967078001 0 -0.0050820036452489479 -0.0030391977346691484 0 -0.0051346597854948668 -0.0030490585334948007 0 -0.0050646998313239305 -0.0029394985142372466 0 -0.0051034532387149991 -0.0029924479967078001 0 -0.0050820036452489479 -0.0030391977346691484 0 -0.0052331627427455825 -0.0029379766516755912 0 -0.0051547787546184116 -0.0029614209321648854 0 -0.0052157437492976553 -0.0030197163742163818 0 -0.0052921439753955343 -0.0029777030650924899 0 -0.0052331627427455825 -0.0029379766516755912 0 -0.0052157437492976553 -0.0030197163742163818 0 -0.005127608505321876 -0.0029128952050437532 0 -0.0051121255610062765 -0.0029512244641442535 0 -0.0051547787546184116 -0.0029614209321648854 0 -0.0051034532387149991 -0.0029924479967078001 0 -0.0051547787546184116 -0.0029614209321648854 0 -0.0051346597854948668 -0.0030490585334948007 0 -0.0051547787546184116 -0.0029614209321648854 0 -0.0052157437492976553 -0.0030197163742163818 0 -0.0051346597854948668 -0.0030490585334948007 0 -0.0052157437492976553 -0.0030197163742163818 0 -0.005251673985045259 -0.0030860245734494174 0 -0.0051838328032127075 -0.0031030261789335902 0 -0.005239125419707359 -0.0031361298221936496 0 -0.0051838328032127075 -0.0031030261789335902 0 -0.0051849156900794363 -0.0031881282563982613 0 -0.005251673985045259 -0.0030860245734494174 0 -0.005239125419707359 -0.0031361298221936496 0 -0.0051838328032127075 -0.0031030261789335902 0 -0.0051838328032127075 -0.0031030261789335902 0 -0.0051176990925022574 -0.0030968475880578782 0 -0.0051849156900794363 -0.0031881282563982613 0 -0.0052157437492976553 -0.0030197163742163818 0 -0.0051838328032127075 -0.0031030261789335902 0 -0.0051346597854948668 -0.0030490585334948007 0 -0.0051838328032127075 -0.0031030261789335902 0 -0.0051346597854948668 -0.0030490585334948007 0 -0.0051176990925022574 -0.0030968475880578782 0 -0.0047441394622725454 -0.0019297000984167866 0 -0.004563296667818237 -0.0023288686112402758 0 -0.0051176990925022574 -0.0030968475880578782 0 -0.0051849156900794363 -0.0031881282563982613 0 -0.0050057463531619972 -0.0031072381332166348 0 -0.0050820036452489479 -0.0030391977346691484 0 -0.0051346597854948668 -0.0030490585334948007 0 -0.0051176990925022574 -0.0030968475880578782 0 -0.0050820036452489479 -0.0030391977346691484 0 -0.0051176990925022574 -0.0030968475880578782 0 -0.0050057463531619972 -0.0031072381332166348 0 -0.0041923922510921433 -0.00078322485038017004 0 -0.0042116653507214361 -0.00078071110537182174 0 -0.0041860828637714899 -0.0007593435589410395 0 -0.0042116653507214361 -0.00078071110537182174 0 -0.004294652594307711 -0.00075124550015204705 0 -0.0041860828637714899 -0.0007593435589410395 0 -0.0042116653507214361 -0.00078071110537182174 0 -0.0042322887046745391 -0.00080218593005667454 0 -0.004294652594307711 -0.00075124550015204705 0 -0.0041923922510921433 -0.00078322485038017004 0 -0.0042116653507214361 -0.00078071110537182174 0 -0.0042022108442935548 -0.00079265645695846335 0 -0.0042116653507214361 -0.00078071110537182174 0 -0.0042022108442935548 -0.00079265645695846335 0 -0.0042322887046745391 -0.00080218593005667454 0 -0.0042022108442935548 -0.00079265645695846335 0 -0.0042016825223927644 -0.00080665783405033966 0 -0.0041856487571257373 -0.00079100021702691026 0 -0.0041923922510921433 -0.00078322485038017004 0 -0.0042022108442935548 -0.00079265645695846335 0 -0.0041856487571257373 -0.00079100021702691026 0 -0.0041975524647953075 -0.00083115562792361662 0 -0.0042016825223927644 -0.00080665783405033966 0 -0.0042342864969860932 -0.00082926955187394269 0 -0.0041975524647953075 -0.00083115562792361662 0 -0.0042016825223927644 -0.00080665783405033966 0 -0.0041781243780438151 -0.00079298922774784968 0 -0.0042022108442935548 -0.00079265645695846335 0 -0.0042016825223927644 -0.00080665783405033966 0 -0.0042322887046745391 -0.00080218593005667454 0 -0.0042016825223927644 -0.00080665783405033966 0 -0.0042322887046745391 -0.00080218593005667454 0 -0.0042342864969860932 -0.00082926955187394269 0 -0.0042322887046745391 -0.00080218593005667454 0 -0.0042342864969860932 -0.00082926955187394269 0 -0.0042614476628422826 -0.00081201839540645689 0 -0.0053393854530300001 -0.0031693548530737636 0 -0.005239125419707359 -0.0031361298221936496 0 -0.0051849156900794363 -0.0031881282563982613 0 -0.0042946303622593551 -0.00085426422251814072 0 -0.0042614476628422826 -0.00081201839540645689 0 -0.004294652594307711 -0.00075124550015204705 0 -0.0044712867677274342 -0.00095384880130312648 0 -0.0042946303622593551 -0.00085426422251814072 0 -0.004294652594307711 -0.00075124550015204705 0 -0.0042342864969860932 -0.00082926955187394269 0 -0.0042946303622593551 -0.00085426422251814072 0 -0.0042614476628422826 -0.00081201839540645689 0 -0.0042322887046745391 -0.00080218593005667454 0 -0.0042614476628422826 -0.00081201839540645689 0 -0.004294652594307711 -0.00075124550015204705 0 -0.003494906199337686 -0.0015578959298423842 0 -0.0035040511115671984 -0.0016127017042862422 0 -0.0035311823761032713 -0.0015909940254409513 0 -0.0041115827646333401 -0.00075275678097964016 0 -0.0040134253313979257 -0.00065638582276476701 0 -0.004147450470575435 -0.00062401131670534126 0 -0.0038490544971069118 -0.0012625533614806874 0 -0.0043033417110892574 -0.0023183050655612948 0 -0.0043026509070922302 -0.0015884952988310908 0 -0.0041473377870988514 -0.001634097836811371 0 -0.004185191870153775 -0.0017632029466682429 0 -0.0038490544971069118 -0.0012625533614806874 0 -0.0041939879993470519 -0.00092694003200132044 0 -0.0041361675213019942 -0.00076468150810147519 0 -0.0041939879993470519 -0.00092694003200132044 0 -0.0041923922510921433 -0.00078322485038017004 0 -0.0041789054369106406 -0.00079310732297166572 0 -0.0041860828637714899 -0.0007593435589410395 0 -0.0042016825223927644 -0.00080665783405033966 0 -0.0041856487571257373 -0.00079100021702691026 0 -0.0041781243780438151 -0.00079298922774784968 0 -0.0041923922510921433 -0.00078322485038017004 0 -0.0041856487571257373 -0.00079100021702691026 0 -0.0041789054369106406 -0.00079310732297166572 0 -0.0041967028471308039 -0.00091892069211952894 0 -0.0041939879993470519 -0.00092694003200132044 0 -0.0041939879993470519 -0.00092694003200132044 0 -0.004563296667818237 -0.0023288686112402758 0 -0.0041473377870988514 -0.001634097836811371 0 -0.0041199374803940298 -0.0017375693959377563 0 -0.004185191870153775 -0.0017632029466682429 0 -0.004563296667818237 -0.0023288686112402758 0 -0.0043033417110892574 -0.0023183050655612948 0 -0.0043033417110892574 -0.0023183050655612948 0 -0.0045124936624732709 -0.0029598251301629201 0 -0.0048042587428042986 -0.0031653210153436279 0 -0.0047575154481841603 -0.0031440436723058868 0 -0.0048050636778728274 -0.0030930115952454776 0 -0.003494906199337686 -0.0015578959298423842 0 -0.0034568397665971527 -0.0016306362524356663 0 -0.0035040511115671984 -0.0016127017042862422 0 -0.0034568397665971527 -0.0016306362524356663 0 -0.0035040511115671984 -0.0016127017042862422 0 -0.0035351045426202129 -0.0016631055337680569 0 -0.0043033417110892574 -0.0023183050655612948 0 -0.0037839299973435685 -0.0024677489930813581 0 -0.0035040511115671984 -0.0016127017042862422 0 -0.0035311823761032713 -0.0015909940254409513 0 -0.0035351045426202129 -0.0016631055337680569 0 -0.0047051320026201427 -0.0030477938535515155 0 -0.0047011299291570647 -0.0029568511525372492 0 -0.0046042212730451953 -0.0030738711692650162 0 -0.0041868608258051462 -0.0031302932661828151 0 -0.0037839299973435685 -0.0024677489930813581 0 -0.0047608372339325673 -0.0031402104942780495 0 -0.0047051320026201427 -0.0030477938535515155 0 -0.0046042212730451953 -0.0030738711692650162 0 -0.0047608372339325673 -0.0031402104942780495 0 -0.0048050636778728274 -0.0030930115952454776 0 -0.0047631588029241239 -0.0030570888698936765 0 -0.0047608372339325673 -0.0031402104942780495 0 -0.0047051320026201427 -0.0030477938535515155 0 -0.0047631588029241239 -0.0030570888698936765 0 -0.0047051320026201427 -0.0030477938535515155 0 -0.0047631588029241239 -0.0030570888698936765 0 -0.00474450640945542 -0.0029979587274095295 0 -0.0048050636778728274 -0.0030930115952454776 0 -0.0047631588029241239 -0.0030570888698936765 0 -0.0048037766403688292 -0.0030082676835845598 0 -0.0047631588029241239 -0.0030570888698936765 0 -0.0048037766403688292 -0.0030082676835845598 0 -0.00474450640945542 -0.0029979587274095295 0 -0.0048052489668066276 -0.0029443193738333076 0 -0.0048037766403688292 -0.0030082676835845598 0 -0.0047675955894127377 -0.0029463056396010763 0 -0.0048037766403688292 -0.0030082676835845598 0 -0.00474450640945542 -0.0029979587274095295 0 -0.0047675955894127377 -0.0029463056396010763 0 -0.00474450640945542 -0.0029979587274095295 0 -0.0047675955894127377 -0.0029463056396010763 0 -0.0047011299291570647 -0.0029568511525372492 0 -0.0047051320026201427 -0.0030477938535515155 0 -0.00474450640945542 -0.0029979587274095295 0 -0.0047011299291570647 -0.0029568511525372492 0 -0.0035258413211151337 -0.0032822848995313586 0 -0.003612222368617973 -0.0032601154364704206 0 -0.0035870376094355328 -0.0031694773456911588 0 -0.0035258413211151337 -0.0032822848995313586 0 -0.003563964683188617 -0.0034013818806049641 0 -0.0034679279645796019 -0.0033884869305524958 0 -0.0035258413211151337 -0.0032822848995313586 0 -0.003563964683188617 -0.0034013818806049641 0 -0.0036071131441507108 -0.0033357317414993951 0 -0.0035878580398190237 -0.0038573297365676394 0 -0.0038736816077538615 -0.0036199287046857968 0 -0.0035224215398860473 -0.0043095235466607479 0 -0.003595796970208379 -0.0043163553633847693 0 -0.003584649298243558 -0.0042639088827468186 0 -0.0047675955894127377 -0.0029463056396010763 0 -0.0047011299291570647 -0.0029568511525372492 0 -0.0047615024292358785 -0.0028863382298171258 0 -0.0047675955894127377 -0.0029463056396010763 0 -0.0047615024292358785 -0.0028863382298171258 0 -0.0047911452922211883 -0.0029129071485301597 0 -0.0041868608258051462 -0.0031302932661828151 0 -0.0038736816077538615 -0.0036199287046857968 0 -0.0048052489668066276 -0.0029443193738333076 0 -0.0047675955894127377 -0.0029463056396010763 0 -0.0047911452922211883 -0.0029129071485301597 0 -0.0047615024292358785 -0.0028863382298171258 0 -0.0047911452922211883 -0.0029129071485301597 0 -0.0048227942112515042 -0.002896490572112232 0 -0.0049136244960372878 -0.0028147836491405577 0 -0.0046828101720035554 -0.0032321404821494771 0 -0.0049452552263430831 -0.0028393876656178834 0 -0.0050791482847440698 -0.0027591647330330229 0 -0.0050866885849059984 -0.0026685324893984106 0 -0.0048052489668066276 -0.0029443193738333076 0 -0.0047911452922211883 -0.0029129071485301597 0 -0.0048227942112515042 -0.002896490572112232 0 -0.0052926320764097173 -0.0027297403409121627 0 -0.0051931170270600032 -0.0027834957095584562 0 -0.0050866885849059984 -0.0026685324893984106 0 -0.005455578147271798 -0.0027655163752150951 0 -0.0046828101720035554 -0.0032321404821494771 0 -0.0051316562354272914 -0.0028542098552955136 0 -0.0050791482847440698 -0.0027591647330330229 0 -0.0051931170270600032 -0.0027834957095584562 0 -0.0050791482847440698 -0.0027591647330330229 0 -0.0051931170270600032 -0.0027834957095584562 0 -0.0050866885849059984 -0.0026685324893984106 0 -0.0054133686373147097 -0.0028674791561853104 0 -0.0054319860897268099 -0.0028556199906284501 0 -0.0054260011176377361 -0.0028929482277257452 0 -0.0046828101720035554 -0.0032321404821494771 0 -0.0045860872518645448 -0.0034349204235682045 0 -0.0054054553634247443 -0.0028459168793799157 0 -0.0054133686373147097 -0.0028674791561853104 0 -0.0054319860897268099 -0.0028556199906284501 0 -0.0038736816077538615 -0.0036199287046857968 0 -0.0046828101720035554 -0.0032321404821494771 0 -0.0036464782051656023 -0.0041553584257666117 0 -0.0036408373960238804 -0.0042358234044395909 0 -0.0036323246882748799 -0.0042200486188271186 0 -0.0037055463145963725 -0.0041580886453940029 0 -0.0036464782051656023 -0.0041553584257666117 0 -0.0036408373960238804 -0.0042358234044395909 0 -0.0038736816077538615 -0.0036199287046857968 0 -0.0035266783193580844 -0.0044857183982080998 0 -0.0053993222212870484 -0.0028900825777579049 0 -0.0054133686373147097 -0.0028674791561853104 0 -0.0054260011176377361 -0.0028929482277257452 0 -0.0036408373960238804 -0.0042358234044395909 0 -0.0036323246882748799 -0.0042200486188271186 0 -0.0036396627748467433 -0.0042234464400851667 0 -0.0041078781591002344 -0.0044686444526945588 0 -0.0031232544785233475 -0.0051603788551902912 0 -0.0036553938212434867 -0.0042195083132324949 0 -0.0036323246882748799 -0.0042200486188271186 0 -0.0036396627748467433 -0.0042234464400851667 0 -0.0036553938212434867 -0.0042195083132324949 0 -0.0036396627748467433 -0.0042234464400851667 0 -0.0036274438567497672 -0.0042008837717821329 0 -0.0041078781591002344 -0.0044686444526945588 0 -0.0045860872518645448 -0.0034349204235682045 0 -0.0036408373960238804 -0.0042358234044395909 0 -0.0036396627748467433 -0.0042234464400851667 0 -0.0036065035301217625 -0.0042207522528448496 0 -0.0036396627748467433 -0.0042234464400851667 0 -0.0036065035301217625 -0.0042207522528448496 0 -0.0036274438567497672 -0.0042008837717821329 0 -0.0036065035301217625 -0.0042207522528448496 0 -0.0035543713131605242 -0.004235980756599869 0 -0.0035673920923352527 -0.0041779287527586072 0 -0.0035144535544414314 -0.0042099133840687534 0 -0.0035543713131605242 -0.004235980756599869 0 -0.0035673920923352527 -0.0041779287527586072 0 -0.0035144535544414314 -0.0042099133840687534 0 -0.0035543713131605242 -0.004235980756599869 0 -0.0035147441225253833 -0.0042617579494814845 0 -0.0035224215398860473 -0.0043095235466607479 0 -0.003584649298243558 -0.0042639088827468186 0 -0.0035147441225253833 -0.0042617579494814845 0 -0.0035543713131605242 -0.004235980756599869 0 -0.003584649298243558 -0.0042639088827468186 0 -0.0035147441225253833 -0.0042617579494814845 0 -0.0036408373960238804 -0.0042358234044395909 0 -0.0036065035301217625 -0.0042207522528448496 0 -0.003584649298243558 -0.0042639088827468186 0 -0.003595796970208379 -0.0043163553633847693 0 -0.0036408373960238804 -0.0042358234044395909 0 -0.003584649298243558 -0.0042639088827468186 0 -0.0036065035301217625 -0.0042207522528448496 0 -0.0035543713131605242 -0.004235980756599869 0 -0.003584649298243558 -0.0042639088827468186 0 -0.0026889271070687174 -0.0057844363854143892 0 -0.0026122752450015844 -0.0059377466665357535 0 -0.0028476538251912182 -0.0058680361468141217 0 -0.0026889271070687174 -0.0057844363854143892 0 -0.0024535483466430136 -0.0058384999037700913 0 -0.0024840786090688455 -0.0055777837099698167 0 -0.0026889271070687174 -0.0057844363854143892 0 -0.0025528873284954728 -0.0058198664449593956 0 -0.0026122752450015844 -0.0059377466665357535 0 -0.0026692097873019841 -0.0057888484795446185 0 -0.0024861662763054305 -0.0058220414964281694 0 -0.0024068093336500882 -0.0057019084501206277 0 -0.0023926727340436247 -0.0055469026665673892 0 -0.0025528873284954728 -0.0058198664449593956 0 -0.0026122752450015844 -0.0059377466665357535 0 -0.0024185500581391916 -0.0058445665072381974 0 -0.0024840786090688455 -0.0055777837099698167 0 -0.0022506509317729902 -0.0057007030751193071 0 -0.002260008566820106 -0.0057800975523279374 0 -0.0024535483466430136 -0.0058384999037700913 0 -0.0024840786090688455 -0.0055777837099698167 0 -0.0022532019424919419 -0.0058850538157664087 0 -0.0026122752450015844 -0.0059377466665357535 0 -0.002400053774673329 -0.0058476242772788536 0 -0.0024185500581391916 -0.0058445665072381974 0 -0.0024861662763054305 -0.0058220414964281694 0 -0.0023926727340436247 -0.0055469026665673892 0 -0.0031513267226055655 -0.0050426584200345065 0 -0.0027310845129117499 -0.0051821758671365212 0 -0.0035144535544414314 -0.0042099133840687534 0 -0.0035673920923352527 -0.0041779287527586072 0 -0.0034947865035579728 -0.004161845203914466 0 -0.0036065035301217625 -0.0042207522528448496 0 -0.0035673920923352527 -0.0041779287527586072 0 -0.0036274438567497672 -0.0042008837717821329 0 -0.0031513267226055655 -0.0050426584200345065 0 -0.0031232544785233475 -0.0051603788551902912 0 -0.0026122752450015844 -0.0059377466665357535 0 -0.0028702301338935413 -0.0060260090862230709 0 -0.0028476538251912182 -0.0058680361468141217 0 -0.0028702301338935413 -0.0060260090862230709 0 -0.0030286606554732168 -0.0059756619535354513 0 -0.0028476538251912182 -0.0058680361468141217 0 -0.0031417773478288067 -0.0060892196009227871 0 -0.0028702301338935413 -0.0060260090862230709 0 -0.0030286606554732168 -0.0059756619535354513 0 -0.0030286606554732168 -0.0059756619535354513 0 -0.0030700224235231948 -0.0058045470053657696 0 -0.0031721352828144203 -0.0059179555761115915 0 -0.0030286606554732168 -0.0059756619535354513 0 -0.0031721352828144203 -0.0059179555761115915 0 -0.0031241644435022471 -0.0059989310295291446 0 -0.0031417773478288067 -0.0060892196009227871 0 -0.0030286606554732168 -0.0059756619535354513 0 -0.0031241644435022471 -0.0059989310295291446 0 -0.0030700224235231948 -0.0058045470053657696 0 -0.0028476538251912182 -0.0058680361468141217 0 -0.0028937310564816679 -0.0057054282837704258 0 -0.0030286606554732168 -0.0059756619535354513 0 -0.0030700224235231948 -0.0058045470053657696 0 -0.0028476538251912182 -0.0058680361468141217 0 -0.0026889271070687174 -0.0057844363854143892 0 -0.0028476538251912182 -0.0058680361468141217 0 -0.0028937310564816679 -0.0057054282837704258 0 -0.0028937310564816679 -0.0057054282837704258 0 -0.0029071225182457578 -0.0055186390874070665 0 -0.0027149572448390159 -0.0055822492203506519 0 -0.0026889271070687174 -0.0057844363854143892 0 -0.0028937310564816679 -0.0057054282837704258 0 -0.0027149572448390159 -0.0055822492203506519 0 -0.0028937310564816679 -0.0057054282837704258 0 -0.0029071225182457578 -0.0055186390874070665 0 -0.0031347342616870302 -0.0055836637003912433 0 -0.0030700224235231948 -0.0058045470053657696 0 -0.0028937310564816679 -0.0057054282837704258 0 -0.0031347342616870302 -0.0055836637003912433 0 -0.0029071225182457578 -0.0055186390874070665 0 -0.0029787886114105069 -0.0053671966213473801 0 -0.0031347342616870302 -0.0055836637003912433 0 -0.0029787886114105069 -0.0053671966213473801 0 -0.00317999189586015 -0.0053579459493018665 0 -0.0031347342616870302 -0.0055836637003912433 0 -0.0027538077809147769 -0.0053579596683585593 0 -0.0029071225182457578 -0.0055186390874070665 0 -0.0029787886114105069 -0.0053671966213473801 0 -0.0027538077809147769 -0.0053579596683585593 0 -0.0029071225182457578 -0.0055186390874070665 0 -0.0027149572448390159 -0.0055822492203506519 0 -0.0024976059446664323 -0.0053794899836933988 0 -0.0027149572448390159 -0.0055822492203506519 0 -0.0024840786090688455 -0.0055777837099698167 0 -0.0027538077809147769 -0.0053579596683585593 0 -0.0024976059446664323 -0.0053794899836933988 0 -0.0027149572448390159 -0.0055822492203506519 0 -0.0026889271070687174 -0.0057844363854143892 0 -0.0027149572448390159 -0.0055822492203506519 0 -0.0024840786090688455 -0.0055777837099698167 0 -0.0024840786090688455 -0.0055777837099698167 0 -0.0021951920703077769 -0.0054561029330593772 0 -0.0022368248490931726 -0.0055951810222530833 0 -0.0024840786090688455 -0.0055777837099698167 0 -0.0022506509317729902 -0.0057007030751193071 0 -0.0022368248490931726 -0.0055951810222530833 0 -0.0024976059446664323 -0.0053794899836933988 0 -0.0024840786090688455 -0.0055777837099698167 0 -0.0021951920703077769 -0.0054561029330593772 0 -0.0024976059446664323 -0.0053794899836933988 0 -0.0023438578832211238 -0.0051418775133158547 0 -0.0021951920703077769 -0.0054561029330593772 0 -0.0023329080043623259 -0.0051378032643755343 0 -0.0021689839768745151 -0.0052562502228592801 0 -0.0027538077809147769 -0.0053579596683585593 0 -0.0024976059446664323 -0.0053794899836933988 0 -0.0025489666825418023 -0.0051350412466164121 0 -0.0024976059446664323 -0.0053794899836933988 0 -0.0023438578832211238 -0.0051418775133158547 0 -0.0025489666825418023 -0.0051350412466164121 0 -0.0025502262965560554 -0.0051713991837383042 0 -0.0028905185644080037 -0.0052368802316999632 0 -0.0025489666825418023 -0.0051350412466164121 0 -0.0024436146139667327 -0.0049496855089362218 0 -0.0028462874647360329 -0.0051148444621416447 0 -0.002804900862662163 -0.0052646300774836299 0 -0.0026777869275877385 -0.0053259355534711296 0 -0.0029433503794915085 -0.0053640184659638776 0 -0.0024952515003160997 -0.0050573799758730715 0 -0.0025502262965560554 -0.0051713991837383042 0 -0.0023438578832211238 -0.0051418775133158547 0 -0.0025489666825418023 -0.0051350412466164121 0 -0.0024086391248442835 -0.0049626012014886266 0 -0.0023438578832211238 -0.0051418775133158547 0 -0.0022531635877805268 -0.0050191836018937362 0 -0.0021471296283979173 -0.0050397640353056139 0 -0.0025502262965560554 -0.0051713991837383042 0 -0.0022676027717056266 -0.0051225699707612574 0 -0.0022531635877805268 -0.0050191836018937362 0 -0.0024086391248442835 -0.0049626012014886266 0 -0.0021373242920727552 -0.0049604167205865232 0 -0.0023438578832211238 -0.0051418775133158547 0 -0.0022531635877805268 -0.0050191836018937362 0 -0.0024086391248442835 -0.0049626012014886266 0 -0.0026777869275877385 -0.0053259355534711296 0 -0.0025606864918173858 -0.0051644458828715894 0 -0.0027150765850409947 -0.0051908897769378315 0 -0.0025502262965560554 -0.0051713991837383042 0 -0.002565307954849206 -0.0052034818155003663 0 -0.0026324685016353468 -0.0053525493850843609 0 -0.0025329927118721272 -0.0051805487849080701 0 -0.0023990039320533991 -0.0052856081741430479 0 -0.002804900862662163 -0.0052646300774836299 0 -0.0027150765850409947 -0.0051908897769378315 0 -0.002879094339832306 -0.0051758823276144067 0 -0.002804900862662163 -0.0052646300774836299 0 -0.0026777869275877385 -0.0053259355534711296 0 -0.0027150765850409947 -0.0051908897769378315 0 -0.0027150765850409947 -0.0051908897769378315 0 -0.0027064486837645794 -0.0049999785120539769 0 -0.002879094339832306 -0.0051758823276144067 0 -0.0025606864918173858 -0.0051644458828715894 0 -0.0027150765850409947 -0.0051908897769378315 0 -0.0027064486837645794 -0.0049999785120539769 0 -0.0025606864918173858 -0.0051644458828715894 0 -0.0027064486837645794 -0.0049999785120539769 0 -0.0024346271236857834 -0.0049999961082041579 0 -0.0029782710810467052 -0.0049999775202871216 0 -0.002879094339832306 -0.0051758823276144067 0 -0.003145294390329042 -0.0051885492236501685 0 -0.0029782710810467052 -0.0049999775202871216 0 -0.003145294390329042 -0.0051885492236501685 0 -0.0032500777585431537 -0.0049999717233991849 0 -0.0027064486837645794 -0.0049999785120539769 0 -0.0029782710810467052 -0.0049999775202871216 0 -0.002879094339832306 -0.0051758823276144067 0 -0.002879094339832306 -0.0051758823276144067 0 -0.0029433503794915085 -0.0053640184659638776 0 -0.003145294390329042 -0.0051885492236501685 0 -0.0029433503794915085 -0.0053640184659638776 0 -0.00317999189586015 -0.0053579459493018665 0 -0.003145294390329042 -0.0051885492236501685 0 -0.002804900862662163 -0.0052646300774836299 0 -0.002879094339832306 -0.0051758823276144067 0 -0.0029433503794915085 -0.0053640184659638776 0 -0.0027538077809147769 -0.0053579596683585593 0 -0.0025489666825418023 -0.0051350412466164121 0 -0.0028462874647360329 -0.0051148444621416447 0 -0.0027538077809147769 -0.0053579596683585593 0 -0.0028462874647360329 -0.0051148444621416447 0 -0.0029787886114105069 -0.0053671966213473801 0 -0.0028905185644080037 -0.0052368802316999632 0 -0.0031560110778732437 -0.0053456077162727673 0 -0.0028462874647360329 -0.0051148444621416447 0 -0.0029787886114105069 -0.0053671966213473801 0 -0.00317999189586015 -0.0053579459493018665 0 -0.0033689940385091084 -0.0052828618387595269 0 -0.0035291600279015994 -0.0054346677250943429 0 -0.0033397642024427421 -0.0054875608034965937 0 -0.00317999189586015 -0.0053579459493018665 0 -0.0033689940385091084 -0.0052828618387595269 0 -0.0033397642024427421 -0.0054875608034965937 0 -0.00317999189586015 -0.0053579459493018665 0 -0.0033689940385091084 -0.0052828618387595269 0 -0.003145294390329042 -0.0051885492236501685 0 -0.0033689940385091084 -0.0052828618387595269 0 -0.003145294390329042 -0.0051885492236501685 0 -0.0033847758471806694 -0.0051295502316916885 0 -0.0033847758471806694 -0.0051295502316916885 0 -0.0032500777585431537 -0.0049999717233991849 0 -0.0035218878151135296 -0.0049999698692823526 0 -0.003145294390329042 -0.0051885492236501685 0 -0.0033847758471806694 -0.0051295502316916885 0 -0.0032500777585431537 -0.0049999717233991849 0 -0.0035218878151135296 -0.0049999698692823526 0 -0.0036431069889061806 -0.0052012049326273643 0 -0.0037937022208484987 -0.0049999765854854168 0 -0.0033847758471806694 -0.0051295502316916885 0 -0.0035218878151135296 -0.0049999698692823526 0 -0.0036431069889061806 -0.0052012049326273643 0 -0.0033689940385091084 -0.0052828618387595269 0 -0.0033847758471806694 -0.0051295502316916885 0 -0.0036431069889061806 -0.0052012049326273643 0 -0.0036431069889061806 -0.0052012049326273643 0 -0.0035291600279015994 -0.0054346677250943429 0 -0.0037259349967145076 -0.0053736469575297709 0 -0.0033689940385091084 -0.0052828618387595269 0 -0.0036431069889061806 -0.0052012049326273643 0 -0.0035291600279015994 -0.0054346677250943429 0 -0.0035291600279015994 -0.0054346677250943429 0 -0.0037005777453104579 -0.0055529796828341837 0 -0.0037259349967145076 -0.0053736469575297709 0 -0.0035291600279015994 -0.0054346677250943429 0 -0.0037005777453104579 -0.0055529796828341837 0 -0.003514538691952463 -0.0055949567094375026 0 -0.0037005777453104579 -0.0055529796828341837 0 -0.0036344032376931217 -0.0057100707683503567 0 -0.003514538691952463 -0.0055949567094375026 0 -0.0037005777453104579 -0.0055529796828341837 0 -0.0036344032376931217 -0.0057100707683503567 0 -0.0037655994098511982 -0.0057159699047622751 0 -0.003503367028501644 -0.0057194838293895883 0 -0.003514538691952463 -0.0055949567094375026 0 -0.0033688976891653017 -0.0056698845140329569 0 -0.0036344032376931217 -0.0057100707683503567 0 -0.003503367028501644 -0.0057194838293895883 0 -0.003514538691952463 -0.0055949567094375026 0 -0.0035291600279015994 -0.0054346677250943429 0 -0.003514538691952463 -0.0055949567094375026 0 -0.0033397642024427421 -0.0054875608034965937 0 -0.0033397642024427421 -0.0054875608034965937 0 -0.0031347342616870302 -0.0055836637003912433 0 -0.0033688976891653017 -0.0056698845140329569 0 -0.003514538691952463 -0.0055949567094375026 0 -0.0033397642024427421 -0.0054875608034965937 0 -0.0033688976891653017 -0.0056698845140329569 0 -0.00317999189586015 -0.0053579459493018665 0 -0.0033397642024427421 -0.0054875608034965937 0 -0.0031347342616870302 -0.0055836637003912433 0 -0.0031347342616870302 -0.0055836637003912433 0 -0.0033688976891653017 -0.0056698845140329569 0 -0.003249597547847859 -0.0057914053232195938 0 -0.0033688976891653017 -0.0056698845140329569 0 -0.003409277929919372 -0.0058339762944565401 0 -0.003249597547847859 -0.0057914053232195938 0 -0.003503367028501644 -0.0057194838293895883 0 -0.0033688976891653017 -0.0056698845140329569 0 -0.003409277929919372 -0.0058339762944565401 0 -0.003409277929919372 -0.0058339762944565401 0 -0.003249597547847859 -0.0057914053232195938 0 -0.0032650128435080701 -0.0058861077807867528 0 -0.0030700224235231948 -0.0058045470053657696 0 -0.003249597547847859 -0.0057914053232195938 0 -0.0031721352828144203 -0.0059179555761115915 0 -0.0030700224235231948 -0.0058045470053657696 0 -0.0031347342616870302 -0.0055836637003912433 0 -0.003249597547847859 -0.0057914053232195938 0 -0.003249597547847859 -0.0057914053232195938 0 -0.0031721352828144203 -0.0059179555761115915 0 -0.0032650128435080701 -0.0058861077807867528 0 -0.0031721352828144203 -0.0059179555761115915 0 -0.0032650128435080701 -0.0058861077807867528 0 -0.003273340601827639 -0.0059634012827645879 0 -0.0031721352828144203 -0.0059179555761115915 0 -0.003273340601827639 -0.0059634012827645879 0 -0.0032003024728992063 -0.0060001454028283698 0 -0.00328103193977459 -0.0060348527192023212 0 -0.003273340601827639 -0.0059634012827645879 0 -0.0032003024728992063 -0.0060001454028283698 0 -0.0031721352828144203 -0.0059179555761115915 0 -0.0032003024728992063 -0.0060001454028283698 0 -0.0031241644435022471 -0.0059989310295291446 0 -0.0031544522221841919 -0.0060614764276164584 0 -0.0032003024728992063 -0.0060001454028283698 0 -0.0031241644435022471 -0.0059989310295291446 0 -0.003409277929919372 -0.0058339762944565401 0 -0.0034247713444355951 -0.0059363875706827411 0 -0.0033470892339652974 -0.0059247040366312443 0 -0.003409277929919372 -0.0058339762944565401 0 -0.0032650128435080701 -0.0058861077807867528 0 -0.0033470892339652974 -0.0059247040366312443 0 -0.0032650128435080701 -0.0058861077807867528 0 -0.003273340601827639 -0.0059634012827645879 0 -0.0033470892339652974 -0.0059247040366312443 0 -0.003273340601827639 -0.0059634012827645879 0 -0.0033470892339652974 -0.0059247040366312443 0 -0.0033780046355867343 -0.0060138474496286573 0 -0.00328103193977459 -0.0060348527192023212 0 -0.003273340601827639 -0.0059634012827645879 0 -0.0033780046355867343 -0.0060138474496286573 0 -0.0034247713444355951 -0.0059363875706827411 0 -0.0033470892339652974 -0.0059247040366312443 0 -0.0033780046355867343 -0.0060138474496286573 0 -0.0034247713444355951 -0.0059363875706827411 0 -0.0033780046355867343 -0.0060138474496286573 0 -0.0034866854461898596 -0.0059940464283768204 0 -0.003671213151931915 -0.0060149043064687468 0 -0.0034866854461898596 -0.0059940464283768204 0 -0.0035171959192342407 -0.0059186905596775611 0 -0.0034247713444355951 -0.0059363875706827411 0 -0.0034866854461898596 -0.0059940464283768204 0 -0.0035171959192342407 -0.0059186905596775611 0 -0.003409277929919372 -0.0058339762944565401 0 -0.0034247713444355951 -0.0059363875706827411 0 -0.0035171959192342407 -0.0059186905596775611 0 -0.003671213151931915 -0.0060149043064687468 0 -0.0035171959192342407 -0.0059186905596775611 0 -0.0035972759088404222 -0.0058285138584164287 0 -0.003671213151931915 -0.0060149043064687468 0 -0.0037118684429383614 -0.0058580330832434238 0 -0.0037899472042684092 -0.005914543491591668 0 -0.003671213151931915 -0.0060149043064687468 0 -0.0037118684429383614 -0.0058580330832434238 0 -0.0035972759088404222 -0.0058285138584164287 0 -0.0036344032376931217 -0.0057100707683503567 0 -0.0037118684429383614 -0.0058580330832434238 0 -0.0035972759088404222 -0.0058285138584164287 0 -0.0036344032376931217 -0.0057100707683503567 0 -0.0037118684429383614 -0.0058580330832434238 0 -0.0037655994098511982 -0.0057159699047622751 0 -0.003503367028501644 -0.0057194838293895883 0 -0.003409277929919372 -0.0058339762944565401 0 -0.0035972759088404222 -0.0058285138584164287 0 -0.003409277929919372 -0.0058339762944565401 0 -0.0035171959192342407 -0.0059186905596775611 0 -0.0035972759088404222 -0.0058285138584164287 0 -0.0036344032376931217 -0.0057100707683503567 0 -0.003503367028501644 -0.0057194838293895883 0 -0.0035972759088404222 -0.0058285138584164287 0 -0.0038806738363441752 -0.0058271833588018533 0 -0.0040729327610419131 -0.0056494047987548203 0 -0.003936851191943239 -0.0055524148175510341 0 -0.0040317081271165371 -0.0058146315391860281 0 -0.0038806738363441752 -0.0058271833588018533 0 -0.0040729327610419131 -0.0056494047987548203 0 -0.0038806738363441752 -0.0058271833588018533 0 -0.0038562903926263005 -0.0056296775330572941 0 -0.0037655994098511982 -0.0057159699047622751 0 -0.0038813924644793643 -0.0058167816067940161 0 -0.0038964272954476803 -0.0055980626359572088 0 -0.0037118684429383614 -0.0058580330832434238 0 -0.0038806738363441752 -0.0058271833588018533 0 -0.0037655994098511982 -0.0057159699047622751 0 -0.0038806738363441752 -0.0058271833588018533 0 -0.0037899472042684092 -0.005914543491591668 0 -0.0039008782498908719 -0.0059526157290221704 0 -0.0037118684429383614 -0.0058580330832434238 0 -0.0038806738363441752 -0.0058271833588018533 0 -0.0037899472042684092 -0.005914543491591668 0 -0.003671213151931915 -0.0060149043064687468 0 -0.0037899472042684092 -0.005914543491591668 0 -0.0039008782498908719 -0.0059526157290221704 0 -0.0046830988351195665 -0.0047900910700163085 0 -0.0047494442808746137 -0.0047374784867278341 0 -0.0047494442808746137 -0.0047374784867278341 0 -0.0048263120663458153 -0.0047481714321277058 0 -0.0040317081271165371 -0.0058146315391860281 0 -0.0039008782498908719 -0.0059526157290221704 0 -0.0041898055491349402 -0.0058865015241136185 0 -0.0055430298205486166 -0.0035044227298972391 0 -0.005592969718594458 -0.0035292482555595662 0 -0.0054765505257195011 -0.0036052809138286436 0 -0.0040317081271165371 -0.0058146315391860281 0 -0.0038806738363441752 -0.0058271833588018533 0 -0.0039008782498908719 -0.0059526157290221704 0 -0.0054765505257195011 -0.0036052809138286436 0 -0.0053341031850921228 -0.003694968256934101 0 -0.0053361069497212463 -0.0036019905938114269 0 -0.0048263120663458153 -0.0047481714321277058 0 -0.0049499237533543218 -0.0047359974164176344 0 -0.0053868083057969441 -0.003510251490069006 0 -0.0054765505257195011 -0.0036052809138286436 0 -0.0053361069497212463 -0.0036019905938114269 0 -0.0041898055491349402 -0.0058865015241136185 0 -0.0044595934649170471 -0.0057298619220417166 0 -0.0045318594322581425 -0.0057946495517196064 0 -0.0044595934649170471 -0.0057298619220417166 0 -0.0044643766812691296 -0.0056589986356938553 0 -0.0040729327610419131 -0.0056494047987548203 0 -0.0044595934649170471 -0.0057298619220417166 0 -0.0044640705317194988 -0.0056402262230991259 0 -0.0045318594322581425 -0.0057946495517196064 0 -0.0044297750213471397 -0.005636926586677869 0 -0.0044270864304040199 -0.0055194321465644293 0 -0.0044270864304040199 -0.0055194321465644293 0 -0.0040630242531262363 -0.0056832438238722657 0 -0.0041898055491349402 -0.0058865015241136185 0 -0.0044595934649170471 -0.0057298619220417166 0 -0.0040729327610419131 -0.0056494047987548203 0 -0.0040317081271165371 -0.0058146315391860281 0 -0.0041898055491349402 -0.0058865015241136185 0 -0.0040729327610419131 -0.0056494047987548203 0 -0.0040729327610419131 -0.0056494047987548203 0 -0.0041749134265238004 -0.0055696881371152659 0 -0.0041003602442797049 -0.0054764408974360872 0 -0.0042587763336208962 -0.0056625241396814109 0 -0.0040729327610419131 -0.0056494047987548203 0 -0.0041749134265238004 -0.0055696881371152659 0 -0.0042587763336208962 -0.0056625241396814109 0 -0.0041749134265238004 -0.0055696881371152659 0 -0.0042687882768305783 -0.0054679088834661766 0 -0.0044270864304040199 -0.0055194321465644293 0 -0.0044773137757814175 -0.0051741406655632684 0 -0.0041749134265238004 -0.0055696881371152659 0 -0.0042687882768305783 -0.0054679088834661766 0 -0.0041003602442797049 -0.0054764408974360872 0 -0.0042687882768305783 -0.0054679088834661766 0 -0.0041003602442797049 -0.0054764408974360872 0 -0.0041240821350156951 -0.0053270587851620343 0 -0.0041003602442797049 -0.0054764408974360872 0 -0.003936851191943239 -0.0055524148175510341 0 -0.0039644793087745944 -0.0053808241052969259 0 -0.0038964272954476803 -0.0055980626359572088 0 -0.0039132901626057056 -0.0054074846471215557 0 -0.0040729327610419131 -0.0056494047987548203 0 -0.0041003602442797049 -0.0054764408974360872 0 -0.003936851191943239 -0.0055524148175510341 0 -0.0037005777453104579 -0.0055529796828341837 0 -0.0038562903926263005 -0.0056296775330572941 0 -0.0037655994098511982 -0.0057159699047622751 0 -0.0037005777453104579 -0.0055529796828341837 0 -0.0038562903926263005 -0.0056296775330572941 0 -0.0038613782996912232 -0.0054340137861111689 0 -0.0037005777453104579 -0.0055529796828341837 0 -0.0037259349967145076 -0.0053736469575297709 0 -0.0038613782996912232 -0.0054340137861111689 0 -0.0039644793087745944 -0.0053808241052969259 0 -0.0039750150450309366 -0.0052189804519375011 0 -0.0041240821350156951 -0.0053270587851620343 0 -0.0039132901626057056 -0.0054074846471215557 0 -0.0039344639546567079 -0.0052278790199420675 0 -0.0036431069889061806 -0.0052012049326273643 0 -0.0037259349967145076 -0.0053736469575297709 0 -0.0038922438123611168 -0.0052470660911699612 0 -0.0037259349967145076 -0.0053736469575297709 0 -0.0038613782996912232 -0.0054340137861111689 0 -0.0038922438123611168 -0.0052470660911699612 0 -0.0036431069889061806 -0.0052012049326273643 0 -0.0038922438123611168 -0.0052470660911699612 0 -0.003806284349420722 -0.00514074859472579 0 -0.0038922438123611168 -0.0052470660911699612 0 -0.003806284349420722 -0.00514074859472579 0 -0.0039581247036051754 -0.005045973972557267 0 -0.0039750150450309366 -0.0052189804519375011 0 -0.0039581247036051754 -0.005045973972557267 0 -0.0040533859396297426 -0.0051098769335543399 0 -0.0039344639546567079 -0.0052278790199420675 0 -0.0039553013004772052 -0.0050524999036473256 0 -0.0039581247036051754 -0.005045973972557267 0 -0.0037937022208484987 -0.0049999765854854168 0 -0.0040654891965180989 -0.0049999794265233131 0 -0.0039581247036051754 -0.005045973972557267 0 -0.0040654891965180989 -0.0049999794265233131 0 -0.0040533859396297426 -0.0051098769335543399 0 -0.0036431069889061806 -0.0052012049326273643 0 -0.003806284349420722 -0.00514074859472579 0 -0.0037937022208484987 -0.0049999765854854168 0 -0.003806284349420722 -0.00514074859472579 0 -0.0039581247036051754 -0.005045973972557267 0 -0.0037937022208484987 -0.0049999765854854168 0 -0.0043208594449478527 -0.0050990872799850928 0 -0.0042412250225304926 -0.0049999948936862472 0 -0.004416881932596553 -0.0049999997652218396 0 -0.0043208594449478527 -0.0050990872799850928 0 -0.0042412250225304926 -0.0049999948936862472 0 -0.0042306162279955803 -0.0051975391428162225 0 -0.0042412250225304926 -0.0049999948936862472 0 -0.0040655542853408246 -0.0050000017409948128 0 -0.0042306162279955803 -0.0051975391428162225 0 -0.0040654891965180989 -0.0049999794265233131 0 -0.0040533859396297426 -0.0051098769335543399 0 -0.0041645586012263756 -0.0051480217242350088 0 -0.0040655710765346281 -0.0050000000036377907 0 -0.0041763078088319968 -0.0052069323732615693 0 -0.0039750150450309366 -0.0052189804519375011 0 -0.0040533859396297426 -0.0051098769335543399 0 -0.0041645586012263756 -0.0051480217242350088 0 -0.0041763078088319968 -0.0052069323732615693 0 -0.0045485563527775065 -0.005069778169069135 0 -0.0043208594449478527 -0.0050990872799850928 0 -0.0042306162279955803 -0.0051975391428162225 0 -0.0043950428980125402 -0.0051954303267472655 0 -0.0042306162279955803 -0.0051975391428162225 0 -0.0043816559930268456 -0.0053806624310299353 0 -0.0043950428980125402 -0.0051954303267472655 0 -0.0041645586012263756 -0.0051480217242350088 0 -0.0041240821350156951 -0.0053270587851620343 0 -0.0042756988629911322 -0.0052791562551712167 0 -0.0039750150450309366 -0.0052189804519375011 0 -0.0041645586012263756 -0.0051480217242350088 0 -0.0041240821350156951 -0.0053270587851620343 0 -0.0041003602442797049 -0.0054764408974360872 0 -0.0039644793087745944 -0.0053808241052969259 0 -0.0041240821350156951 -0.0053270587851620343 0 -0.0042687882768305783 -0.0054679088834661766 0 -0.0041240821350156951 -0.0053270587851620343 0 -0.0042756988629911322 -0.0052791562551712167 0 -0.0046894371480734314 -0.0049501495516361552 0 -0.0047392155126806321 -0.0049193007588385265 0 -0.0046955583995339743 -0.0048681170089168351 0 -0.0044773137757814175 -0.0051741406655632684 0 -0.0045485563527775065 -0.005069778169069135 0 -0.0048878789411322164 -0.004705318036541394 0 -0.0045485563527775065 -0.005069778169069135 0 -0.0050164157976791109 -0.0045732355833156754 0 -0.0048642865028355846 -0.0048033806692498564 0 -0.0049875364067053212 -0.0045398981542132729 0 -0.0050164157976791109 -0.0045732355833156754 0 -0.004921175979978298 -0.00474627949211968 0 -0.0048642865028355846 -0.0048033806692498564 0 -0.0048642865028355846 -0.0048033806692498564 0 -0.0044183830956099701 -0.00499958468731864 0 -0.004999573170438306 -0.0049997352103306834 0 -0.0047397747170673616 -0.004856324316000399 0 -0.0048642865028355846 -0.0048033806692498564 0 -0.0044183830956099701 -0.00499958468731864 0 -0.0045485563527775065 -0.005069778169069135 0 -0.0045666154740170864 -0.0050034280731679039 0 -0.004921175979978298 -0.00474627949211968 0 -0.0047397747170673616 -0.004856324316000399 0 -0.0048642865028355846 -0.0048033806692498564 0 -0.0045666154740170864 -0.0050034280731679039 0 -0.0044169717693720318 -0.0049999542522235927 0 -0.0043208594449478527 -0.0050990872799850928 0 -0.0043950428980125402 -0.0051954303267472655 0 -0.004416881932596553 -0.0049999997652218396 0 -0.0048642865028355846 -0.0048033806692498564 0 -0.004999573170438306 -0.0049997352103306834 0 -0.0049998000232145123 -0.0046203033062961613 0 -0.0049998000232145123 -0.0046203033062961613 0 -0.0049875364067053212 -0.0045398981542132729 0 -0.0050187683913483919 -0.0043519678061948262 0 -0.0048642865028355846 -0.0048033806692498564 0 -0.0049998000232145123 -0.0046203033062961613 0 -0.0049875364067053212 -0.0045398981542132729 0 -0.0049998000232145123 -0.0046203033062961613 0 -0.0050187683913483919 -0.0043519678061948262 0 -0.004999757077160826 -0.0040850335012660782 0 -0.0050187683913483919 -0.0043519678061948262 0 -0.004999757077160826 -0.0040850335012660782 0 -0.0050585589734040226 -0.0041575694491473685 0 -0.0047852835429007942 -0.004971974986421426 0 -0.0047726239478547653 -0.0050441523998129047 0 -0.0048317331243226931 -0.0050248757876064113 0 -0.0050187683913483919 -0.0043519678061948262 0 -0.0050757265711783815 -0.0043583816725125731 0 -0.0050585589734040226 -0.0041575694491473685 0 -0.0049231114726928735 -0.0046849069247102259 0 -0.0049974852653925823 -0.0044444275182643333 0 -0.0049875364067053212 -0.0045398981542132729 0 -0.0050187683913483919 -0.0043519678061948262 0 -0.0050757265711783815 -0.0043583816725125731 0 -0.0050164157976791109 -0.0045732355833156754 0 -0.0049875364067053212 -0.0045398981542132729 0 -0.0050757265711783815 -0.0043583816725125731 0 -0.0047392155126806321 -0.0049193007588385265 0 -0.0047278432695861544 -0.0049951061845650143 0 -0.0047852835429007942 -0.004971974986421426 0 -0.0048878789411322164 -0.004705318036541394 0 -0.0049231114726928735 -0.0046849069247102259 0 -0.0046894371480734314 -0.0049501495516361552 0 -0.0047392155126806321 -0.0049193007588385265 0 -0.0047278432695861544 -0.0049951061845650143 0 -0.0046813344743766878 -0.0050392164013775267 0 -0.0046894371480734314 -0.0049501495516361552 0 -0.0047278432695861544 -0.0049951061845650143 0 -0.0047278432695861544 -0.0049951061845650143 0 -0.0047852835429007942 -0.004971974986421426 0 -0.0047726239478547653 -0.0050441523998129047 0 -0.0044270864304040199 -0.0055194321465644293 0 -0.0049779692616901154 -0.0047700130332994466 0 -0.0049779692616901154 -0.0047700130332994466 0 -0.0049499237533543218 -0.0047359974164176344 0 -0.0046813344743766878 -0.0050392164013775267 0 -0.0047278432695861544 -0.0049951061845650143 0 -0.0047726239478547653 -0.0050441523998129047 0 -0.0044640705317194988 -0.0056402262230991259 0 -0.0049270422185553487 -0.0056710198058806637 0 -0.0045318594322581425 -0.0057946495517196064 0 -0.0052027843210573259 -0.0037685017309225057 0 -0.0053341031850921228 -0.003694968256934101 0 -0.0052512002909912191 -0.0036350408506053214 0 -0.0053341031850921228 -0.003694968256934101 0 -0.0052512002909912191 -0.0036350408506053214 0 -0.0053361069497212463 -0.0036019905938114269 0 -0.0052027843210573259 -0.0037685017309225057 0 -0.0052512002909912191 -0.0036350408506053214 0 -0.0051548586618452219 -0.0037023330041579066 0 -0.0049999951740542312 -0.0037891122565739529 0 -0.005045783190211899 -0.0040109433334096292 0 -0.0051548586618452219 -0.0037023330041579066 0 -0.0050000447225795044 -0.0037888925020270635 0 -0.0050860773763854146 -0.0037988553002812654 0 -0.0050000004237165004 -0.0037891905782291256 0 -0.0051265395349248 -0.0039548499342840198 0 -0.0049999985231084934 -0.0039385754479938362 0 -0.00500021235187175 -0.0040844945735681003 0 -0.0049974852653925823 -0.0044444275182643333 0 -0.0049999989092371685 -0.0040845676940733733 0 -0.005077154337626455 -0.0040044708914450311 0 -0.0051838075065143577 -0.004036721737049713 0 -0.005045783190211899 -0.0040109433334096292 0 -0.0050000784324261329 -0.0039386105029526495 0 -0.0051240537765313591 -0.0039576359126266151 0 -0.0049999981573282167 -0.0039385852837494724 0 -0.005077154337626455 -0.0040044708914450311 0 -0.0049999989092371685 -0.0040845676940733733 0 -0.0049999981573282167 -0.0039385852837494724 0 -0.005077154337626455 -0.0040044708914450311 0 -0.0051240537765313591 -0.0039576359126266151 0 -0.005077154337626455 -0.0040044708914450311 0 -0.0051838075065143577 -0.004036721737049713 0 -0.0049997279224518734 -0.0044199603365957544 0 -0.0049981340211618435 -0.0044138333334285953 0 -0.0049985054888748714 -0.004416306594306473 0 -0.005045783190211899 -0.0040109433334096292 0 -0.0049974852653925823 -0.0044444275182643333 0 -0.0052027843210573259 -0.0037685017309225057 0 -0.0051548586618452219 -0.0037023330041579066 0 -0.0050860773763854146 -0.0037988553002812654 0 -0.0049779692616901154 -0.0047700130332994466 0 -0.0049974852653925823 -0.0044444275182643333 0 -0.0049779692616901154 -0.0047700130332994466 0 -0.005045783190211899 -0.0040109433334096292 0 -0.00095645324814039832 -0.0043814391674001103 0 -0.00093579180520376331 -0.0043754920606958597 0 -0.00094696851494639278 -0.0043942106307737032 0 -0.0013558570973457172 -0.0040519611941496874 0 -0.0012503345016359399 -0.0042931567618916125 0 -0.00095062817551803394 -0.0043972094972969267 0 -0.0012503345016359399 -0.0042931567618916125 0 -0.00096466087614072822 -0.0043734207357155235 0 -0.00095645324814039832 -0.0043814391674001103 0 -0.00094696851494639278 -0.0043942106307737032 0 -0.0010355501986765644 -0.0043846767573124624 0 -0.0011689597912643848 -0.0043382874096832853 0 -0.0010878822763584603 -0.0043233134770842277 0 -0.0010271329509904093 -0.0043267380588141559 0 -0.0010355501986765644 -0.0043846767573124624 0 -0.0010878822763584603 -0.0043233134770842277 0 -0.00095645324814039832 -0.0043814391674001103 0 -0.00096660116267696845 -0.004398081851696308 0 -0.00095191587479042164 -0.0043505796120838908 0 -0.00096466087614072822 -0.0043734207357155235 0 -0.00095645324814039832 -0.0043814391674001103 0 -0.00096660116267696845 -0.004398081851696308 0 -0.00095645324814039832 -0.0043814391674001103 0 -0.00093579180520376331 -0.0043754920606958597 0 -0.00095191587479042164 -0.0043505796120838908 0 -0.0017626176735932859 -0.0037664627873185484 0 -0.0015277013801259468 -0.0036525231034163466 0 -0.0017535584727957994 -0.0033825070830834857 0 -0.0015277013801259468 -0.0036525231034163466 0 -0.0013135963898192058 -0.0037837171908401621 0 -0.0015444269448186153 -0.0038941819183690805 0 -0.0017626176735932859 -0.0037664627873185484 0 -0.0015277013801259468 -0.0036525231034163466 0 -0.0015444269448186153 -0.0038941819183690805 0 -0.0015277013801259468 -0.0036525231034163466 0 -0.0013135963898192058 -0.0037837171908401621 0 -0.0013984003241780327 -0.0034356948419981157 0 -0.0013135963898192058 -0.0037837171908401621 0 -0.0012230170615728541 -0.0040405856637930112 0 -0.0010530034743822492 -0.0038442996176595401 0 -0.0013135963898192058 -0.0037837171908401621 0 -0.0012230170615728541 -0.0040405856637930112 0 -0.0014238025243500038 -0.0040554752370314901 0 -0.0012230170615728541 -0.0040405856637930112 0 -0.0014238025243500038 -0.0040554752370314901 0 -0.0013766742821149619 -0.0043058199403703742 0 -0.0017626176735932859 -0.0037664627873185484 0 -0.0015444269448186153 -0.0038941819183690805 0 -0.0017628046916821729 -0.0041720456091193132 0 -0.0015444269448186153 -0.0038941819183690805 0 -0.0014238025243500038 -0.0040554752370314901 0 -0.0017628046916821729 -0.0041720456091193132 0 -0.0013135963898192058 -0.0037837171908401621 0 -0.0015444269448186153 -0.0038941819183690805 0 -0.0014238025243500038 -0.0040554752370314901 0 -0.0014663110288014234 -0.0043289882497231508 0 -0.0012503345016359399 -0.0042931567618916125 0 -0.0013766742821149619 -0.0043058199403703742 0 -0.0013727518346514254 -0.004350846382678593 0 -0.0017628046916821729 -0.0041720456091193132 0 -0.0013727518346514254 -0.004350846382678593 0 -0.0013157281716193647 -0.0042879986670667607 0 -0.0012156202264901055 -0.0044250745059908085 0 -0.0014238025243500038 -0.0040554752370314901 0 -0.0013766742821149619 -0.0043058199403703742 0 -0.0017628046916821729 -0.0041720456091193132 0 -0.0013642158616377336 -0.0043023047763933436 0 -0.0012839043452870914 -0.0042817745182323385 0 -0.0012230170615728541 -0.0040405856637930112 0 -0.0013766742821149619 -0.0043058199403703742 0 -0.001032161859005792 -0.0041786057264501016 0 -0.0013766742821149619 -0.0043058199403703742 0 -0.0014038792848892947 -0.0043438878889432092 0 -0.0014582804004149943 -0.0043819262483388117 0 -0.0013727518346514254 -0.004350846382678593 0 -0.0014038792848892947 -0.0043438878889432092 0 -0.0013802559384758384 -0.0043167117657278275 0 -0.0013766742821149619 -0.0043058199403703742 0 -0.0013727518346514254 -0.004350846382678593 0 -0.0014038792848892947 -0.0043438878889432092 0 -0.0014038792848892947 -0.0043438878889432092 0 -0.0013802559384758384 -0.0043167117657278275 0 -0.0014564435020642523 -0.0043317890034121611 0 -0.0013727518346514254 -0.004350846382678593 0 -0.0013802559384758384 -0.0043167117657278275 0 -0.0013157281716193647 -0.0042879986670667607 0 -0.0013802559384758384 -0.0043167117657278275 0 -0.0013157281716193647 -0.0042879986670667607 0 -0.0013592119977675011 -0.0042520796578923974 0 -0.0013802559384758384 -0.0043167117657278275 0 -0.0014564435020642523 -0.0043317890034121611 0 -0.0013592119977675011 -0.0042520796578923974 0 -0.0013157281716193647 -0.0042879986670667607 0 -0.0011994281246038309 -0.0042632514977680612 0 -0.0012586786383027926 -0.0041811790071749353 0 -0.0013157281716193647 -0.0042879986670667607 0 -0.0011994281246038309 -0.0042632514977680612 0 -0.0012156202264901055 -0.0044250745059908085 0 -0.0011994281246038309 -0.0042632514977680612 0 -0.0011162940441094204 -0.0042821458669431104 0 -0.0011023552780283859 -0.0042292234912094705 0 -0.0011994281246038309 -0.0042632514977680612 0 -0.0011689597912643848 -0.0043382874096832853 0 -0.0011162940441094204 -0.0042821458669431104 0 -0.0011865496545180739 -0.0043034479584748474 0 -0.0012503345016359399 -0.0042931567618916125 0 -0.0011689597912643848 -0.0043382874096832853 0 -0.0011162940441094204 -0.0042821458669431104 0 -0.0010878822763584603 -0.0043233134770842277 0 -0.0010271329509904093 -0.0043267380588141559 0 -0.0010878822763584603 -0.0043233134770842277 0 -0.0010301609740135307 -0.0042792412599221251 0 -0.0011162940441094204 -0.0042821458669431104 0 -0.0010878822763584603 -0.0043233134770842277 0 -0.0010301609740135307 -0.0042792412599221251 0 -0.0011162940441094204 -0.0042821458669431104 0 -0.0010301609740135307 -0.0042792412599221251 0 -0.0010382860205033536 -0.0042326803912443424 0 -0.0011162940441094204 -0.0042821458669431104 0 -0.0010382860205033536 -0.0042326803912443424 0 -0.0011023552780283859 -0.0042292234912094705 0 -0.0010382860205033536 -0.0042326803912443424 0 -0.0011023552780283859 -0.0042292234912094705 0 -0.0010427182393878975 -0.004195060712290445 0 -0.00098867708841365474 -0.0042085392968086895 0 -0.00096922246920691025 -0.0042141691900469515 0 -0.0010007464236823202 -0.004173263834422152 0 -0.0010382860205033536 -0.0042326803912443424 0 -0.00098867708841365474 -0.0042085392968086895 0 -0.0010427182393878975 -0.004195060712290445 0 -0.0010382860205033536 -0.0042326803912443424 0 -0.00098909665892455453 -0.0042384737239169025 0 -0.00098867708841365474 -0.0042085392968086895 0 -0.0010301609740135307 -0.0042792412599221251 0 -0.0010382860205033536 -0.0042326803912443424 0 -0.00098909665892455453 -0.0042384737239169025 0 -0.00098909665892455453 -0.0042384737239169025 0 -0.00095947432294066356 -0.004216784615389808 0 -0.00098867708841365474 -0.0042085392968086895 0 -0.00098909665892455453 -0.0042384737239169025 0 -0.00095947432294066356 -0.004216784615389808 0 -0.00092610527954754623 -0.0042150908206635982 0 -0.00095947432294066356 -0.004216784615389808 0 -0.00098867708841365474 -0.0042085392968086895 0 -0.0009389773236510604 -0.0042065670003333709 0 -0.0010390912544951513 -0.0042176702469012822 0 -0.00049093496582781372 -0.0044037575956375717 0 -0.00089766168735707134 -0.004118373697816256 0 -0.00080896532377440565 -0.0042318069516577399 0 -0.00065921584162984491 -0.004136303223226283 0 -0.00095947432294066356 -0.004216784615389808 0 -0.0009389773236510604 -0.0042065670003333709 0 -0.00092610527954754623 -0.0042150908206635982 0 -0.00089766168735707134 -0.004118373697816256 0 -0.00092610527954754623 -0.0042150908206635982 0 -0.00080896532377440565 -0.0042318069516577399 0 -0.00049093496582781372 -0.0044037575956375717 0 -0.00072649496828243866 -0.0042411824710186768 0 -0.00092610527954754623 -0.0042150908206635982 0 -0.00080896532377440565 -0.0042318069516577399 0 -0.00090429667164021053 -0.0042739945544108095 0 -0.00080896532377440565 -0.0042318069516577399 0 -0.00077900402113961027 -0.0043086715663455764 0 -0.00085341279298009262 -0.0043127914497196884 0 -0.00080896532377440565 -0.0042318069516577399 0 -0.00090429667164021053 -0.0042739945544108095 0 -0.00085341279298009262 -0.0043127914497196884 0 -0.00090429667164021053 -0.0042739945544108095 0 -0.00090747162363327943 -0.0043222249427066831 0 -0.00085341279298009262 -0.0043127914497196884 0 -0.00090429667164021053 -0.0042739945544108095 0 -0.00096204357283322236 -0.0043038730123304853 0 -0.00090747162363327943 -0.0043222249427066831 0 -0.00090429667164021053 -0.0042739945544108095 0 -0.00096204357283322236 -0.0043038730123304853 0 -0.00096463666305399956 -0.0042611282207247626 0 -0.0010301609740135307 -0.0042792412599221251 0 -0.00096204357283322236 -0.0043038730123304853 0 -0.00096463666305399956 -0.0042611282207247626 0 -0.0010271329509904093 -0.0043267380588141559 0 -0.0010301609740135307 -0.0042792412599221251 0 -0.00096204357283322236 -0.0043038730123304853 0 -0.0010301609740135307 -0.0042792412599221251 0 -0.00098909665892455453 -0.0042384737239169025 0 -0.00096463666305399956 -0.0042611282207247626 0 -0.00092610527954754623 -0.0042150908206635982 0 -0.00090429667164021053 -0.0042739945544108095 0 -0.00096463666305399956 -0.0042611282207247626 0 -0.00098909665892455453 -0.0042384737239169025 0 -0.00092610527954754623 -0.0042150908206635982 0 -0.00096463666305399956 -0.0042611282207247626 0 0.00048470888081006858 -0.0046030872067519407 0 0.0004748812188789908 -0.0046251931676789364 0 0.00048247893960480319 -0.0046194780548680188 0 0.00048470888081006858 -0.0046030872067519407 0 0.00048247893960480319 -0.0046194780548680188 0 0.00047393049793162238 -0.0046055283707278384 0 0.00051882318572535509 -0.0045998738916617609 0 0.00048470888081006858 -0.0046030872067519407 0 0.00049989235745385595 -0.0046171299194516947 0 0.00048470888081006858 -0.0046030872067519407 0 0.0004748812188789908 -0.0046251931676789364 0 0.00049989235745385595 -0.0046171299194516947 0 -0.00049093496582781372 -0.0044037575956375717 0 -2.8578951740950817e-05 -0.0043702919649386187 0 -0.00065921584162984491 -0.004136303223226283 0 -0.00071814209460404168 -0.0042555812481391408 0 -0.00062504909937470966 -0.0042714295920198387 0 -0.00080896532377440565 -0.0042318069516577399 0 -0.00065921584162984491 -0.004136303223226283 0 -0.00071814209460404168 -0.0042555812481391408 0 -0.00080896532377440565 -0.0042318069516577399 0 -0.00071814209460404168 -0.0042555812481391408 0 -0.00077900402113961027 -0.0043086715663455764 0 -2.8578951740950817e-05 -0.0043702919649386187 0 5.5326415128963206e-05 -0.0043882934214687129 0 -0.00065921584162984491 -0.004136303223226283 0 -0.00051501378668908219 -0.0042464022121637439 0 -0.00042107147501080101 -0.0041583920836419895 0 -0.00065921584162984491 -0.004136303223226283 0 -0.00051501378668908219 -0.0042464022121637439 0 -0.00062504909937470966 -0.0042714295920198387 0 -0.00051501378668908219 -0.0042464022121637439 0 -0.00055953364861907335 -0.0043423108446337538 0 -0.00062504909937470966 -0.0042714295920198387 0 -0.00051501378668908219 -0.0042464022121637439 0 -0.00055953364861907335 -0.0043423108446337538 0 -0.00044345048553496566 -0.0043263578761553968 0 -0.00055953364861907335 -0.0043423108446337538 0 -0.00062504909937470966 -0.0042714295920198387 0 -0.00064667420571748338 -0.0043476357352581199 0 -0.00055953364861907335 -0.0043423108446337538 0 -0.00064667420571748338 -0.0043476357352581199 0 -0.00062767839283795997 -0.0043983250074135713 0 -0.00064667420571748338 -0.0043476357352581199 0 -0.00070485043331943321 -0.0043987583620594354 0 -0.00062767839283795997 -0.0043983250074135713 0 -0.00064667420571748338 -0.0043476357352581199 0 -0.00071244798793050352 -0.0043221312200785404 0 -0.00070485043331943321 -0.0043987583620594354 0 -0.00071814209460404168 -0.0042555812481391408 0 -0.00062504909937470966 -0.0042714295920198387 0 -0.00071244798793050352 -0.0043221312200785404 0 -0.00062504909937470966 -0.0042714295920198387 0 -0.00064667420571748338 -0.0043476357352581199 0 -0.00071244798793050352 -0.0043221312200785404 0 -0.00071244798793050352 -0.0043221312200785404 0 -0.00077900402113961027 -0.0043086715663455764 0 -0.00076516398995690358 -0.0043652915765437887 0 -0.00071814209460404168 -0.0042555812481391408 0 -0.00071244798793050352 -0.0043221312200785404 0 -0.00077900402113961027 -0.0043086715663455764 0 -0.00071244798793050352 -0.0043221312200785404 0 -0.00076516398995690358 -0.0043652915765437887 0 -0.00070485043331943321 -0.0043987583620594354 0 -0.00076516398995690358 -0.0043652915765437887 0 -0.00070485043331943321 -0.0043987583620594354 0 -0.00079271496559439548 -0.0044195550047466791 0 -0.00073066621650570034 -0.0044805840873638394 0 -0.00070485043331943321 -0.0043987583620594354 0 -0.00079271496559439548 -0.0044195550047466791 0 -0.00073066621650570034 -0.0044805840873638394 0 -0.00079271496559439548 -0.0044195550047466791 0 -0.00080951037107429406 -0.0045256332921991176 0 -0.00073066621650570034 -0.0044805840873638394 0 -0.0006469051112108214 -0.0044557593432846274 0 -0.00065027229007796547 -0.0045451995483255748 0 -0.0006469051112108214 -0.0044557593432846274 0 -0.00070485043331943321 -0.0043987583620594354 0 -0.00062767839283795997 -0.0043983250074135713 0 -0.00073066621650570034 -0.0044805840873638394 0 -0.0006469051112108214 -0.0044557593432846274 0 -0.00070485043331943321 -0.0043987583620594354 0 -0.00055953364861907335 -0.0043423108446337538 0 -0.00062767839283795997 -0.0043983250074135713 0 -0.00056629808089797931 -0.0044226732919409916 0 -0.0006469051112108214 -0.0044557593432846274 0 -0.00062767839283795997 -0.0043983250074135713 0 -0.00056629808089797931 -0.0044226732919409916 0 -0.0006469051112108214 -0.0044557593432846274 0 -0.00057835871349848226 -0.0044894248438046049 0 -0.00065027229007796547 -0.0045451995483255748 0 -0.0006469051112108214 -0.0044557593432846274 0 -0.00057835871349848226 -0.0044894248438046049 0 -0.00056629808089797931 -0.0044226732919409916 0 -0.00057835871349848226 -0.0044894248438046049 0 -0.00048136763662679497 -0.0044430119238993851 0 -0.00046860968595384297 -0.0045180399050983944 0 -0.00057835871349848226 -0.0044894248438046049 0 -0.00056629808089797931 -0.0044226732919409916 0 -0.00048136763662679497 -0.0044430119238993851 0 -0.00056629808089797931 -0.0044226732919409916 0 -0.00048136763662679497 -0.0044430119238993851 0 -0.00049325558722622018 -0.0043869529769488772 0 -0.00055953364861907335 -0.0043423108446337538 0 -0.00056629808089797931 -0.0044226732919409916 0 -0.00049325558722622018 -0.0043869529769488772 0 -0.0010355501986765644 -0.0043846767573124624 0 -0.000938594096548623 -0.004361387593913725 0 -0.00084102500105869666 -0.0044203807007082759 0 -0.0010271329509904093 -0.0043267380588141559 0 -0.00096204357283322236 -0.0043038730123304853 0 -0.000938594096548623 -0.004361387593913725 0 -0.0010271329509904093 -0.0043267380588141559 0 -0.0010355501986765644 -0.0043846767573124624 0 -0.000938594096548623 -0.004361387593913725 0 -0.00096204357283322236 -0.0043038730123304853 0 -0.000938594096548623 -0.004361387593913725 0 -0.00090747162363327943 -0.0043222249427066831 0 -0.000938594096548623 -0.004361387593913725 0 -0.00090747162363327943 -0.0043222249427066831 0 -0.00087471630670815279 -0.0043585064413952431 0 -0.00090747162363327943 -0.0043222249427066831 0 -0.00085341279298009262 -0.0043127914497196884 0 -0.00087471630670815279 -0.0043585064413952431 0 -0.00077900402113961027 -0.0043086715663455764 0 -0.00085341279298009262 -0.0043127914497196884 0 -0.0008231622565635355 -0.0043681788005228463 0 -0.00085341279298009262 -0.0043127914497196884 0 -0.0008231622565635355 -0.0043681788005228463 0 -0.00087471630670815279 -0.0043585064413952431 0 -0.0008231622565635355 -0.0043681788005228463 0 -0.00087471630670815279 -0.0043585064413952431 0 -0.00084102500105869666 -0.0044203807007082759 0 -0.00077900402113961027 -0.0043086715663455764 0 -0.00076516398995690358 -0.0043652915765437887 0 -0.0008231622565635355 -0.0043681788005228463 0 -0.00076516398995690358 -0.0043652915765437887 0 -0.0008231622565635355 -0.0043681788005228463 0 -0.00079271496559439548 -0.0044195550047466791 0 -0.000938594096548623 -0.004361387593913725 0 -0.00087471630670815279 -0.0043585064413952431 0 -0.00084102500105869666 -0.0044203807007082759 0 -0.00079271496559439548 -0.0044195550047466791 0 -0.00094484483717596334 -0.0045437802573131351 0 -0.00080951037107429406 -0.0045256332921991176 0 -0.00079271496559439548 -0.0044195550047466791 0 -0.00084102500105869666 -0.0044203807007082759 0 -0.00091839640898585552 -0.0044788513909557286 0 -0.00077976790133301322 -0.0045403630761115445 0 -0.0011016261955086269 -0.0040755248556842635 0 -0.0008231622565635355 -0.0043681788005228463 0 -0.00079271496559439548 -0.0044195550047466791 0 -0.00084102500105869666 -0.0044203807007082759 0 -0.00095062817551803394 -0.0043972094972969267 0 -0.0008728036114344544 -0.0044118609635758086 0 -0.00084102500105869666 -0.0044203807007082759 0 -0.0009243932519772633 -0.0044121521515419412 0 -0.00091839640898585552 -0.0044788513909557286 0 -0.00096466087614072822 -0.0043734207357155235 0 -0.00084102500105869666 -0.0044203807007082759 0 -0.0009243932519772633 -0.0044121521515419412 0 -0.00096466087614072822 -0.0043734207357155235 0 -0.00096660116267696845 -0.004398081851696308 0 -0.0009243932519772633 -0.0044121521515419412 0 -0.00096660116267696845 -0.004398081851696308 0 -0.0009243932519772633 -0.0044121521515419412 0 -0.00091839640898585552 -0.0044788513909557286 0 -0.00089015902335670227 -0.0044718226946157697 0 -0.0011016261955086269 -0.0040755248556842635 0 -0.00096660116267696845 -0.004398081851696308 0 -0.0010211571605865421 -0.0043493937655270541 0 -0.00097598761200501523 -0.004348120924027931 0 -0.0011016261955086269 -0.0040755248556842635 0 -0.0011504845804618845 -0.0034677859566722212 0 -0.00094484483717596334 -0.0045437802573131351 0 -0.00080951037107429406 -0.0045256332921991176 0 -0.00081424595524838734 -0.0046758724083729199 0 -0.0011016261955086269 -0.0040755248556842635 0 -0.0011460557423181676 -0.003755817973925886 0 -0.00080951037107429406 -0.0045256332921991176 0 -0.00081424595524838734 -0.0046758724083729199 0 -0.00074211467625122146 -0.0045703918775373458 0 -0.001373366627445133 -0.0027310882288193801 0 -0.0013753647302081149 -0.002719375696379429 0 -0.0013756311455692053 -0.0027128650168198507 0 -0.001373366627445133 -0.0027310882288193801 0 -0.0013756311455692053 -0.0027128650168198507 0 -0.0013759013371888 -0.0027158776235291678 0 -0.00054528456962742351 -0.0045515676285809723 0 -0.00057994974911380296 -0.0046133393808914193 0 -0.00046339621548136813 -0.0046279365501852134 0 -0.00057835871349848226 -0.0044894248438046049 0 -0.00054528456962742351 -0.0045515676285809723 0 -0.00046860968595384297 -0.0045180399050983944 0 -0.00057835871349848226 -0.0044894248438046049 0 -0.00054528456962742351 -0.0045515676285809723 0 -0.00065027229007796547 -0.0045451995483255748 0 -0.00057994974911380296 -0.0046133393808914193 0 -0.00065027229007796547 -0.0045451995483255748 0 -0.00067491765648757147 -0.0046560346739609598 0 -0.00054528456962742351 -0.0045515676285809723 0 -0.00057994974911380296 -0.0046133393808914193 0 -0.00065027229007796547 -0.0045451995483255748 0 -0.00065027229007796547 -0.0045451995483255748 0 -0.00074211467625122146 -0.0045703918775373458 0 -0.00067491765648757147 -0.0046560346739609598 0 -0.00073066621650570034 -0.0044805840873638394 0 -0.00065027229007796547 -0.0045451995483255748 0 -0.00074211467625122146 -0.0045703918775373458 0 -0.00073066621650570034 -0.0044805840873638394 0 -0.00080951037107429406 -0.0045256332921991176 0 -0.00074211467625122146 -0.0045703918775373458 0 -0.00081424595524838734 -0.0046758724083729199 0 -0.00065969546273556532 -0.0048038046332273014 0 -0.00067811141967380625 -0.0047655238773486501 0 -0.00081424595524838734 -0.0046758724083729199 0 -0.00074211467625122146 -0.0045703918775373458 0 -0.00067491765648757147 -0.0046560346739609598 0 -0.0011460557423181676 -0.003755817973925886 0 -0.00045284319174461332 -0.0026970073957272604 0 -0.00081424595524838734 -0.0046758724083729199 0 -0.00067491765648757147 -0.0046560346739609598 0 -0.00067811141967380625 -0.0047655238773486501 0 -0.00067491765648757147 -0.0046560346739609598 0 -0.00059969590208075636 -0.0047411810913276361 0 -0.00067811141967380625 -0.0047655238773486501 0 -0.00059969590208075636 -0.0047411810913276361 0 -0.00056248919271184713 -0.0046859282230750096 0 -0.00043864284165854889 -0.0047967911903117003 0 -0.00057994974911380296 -0.0046133393808914193 0 -0.00067491765648757147 -0.0046560346739609598 0 -0.00056248919271184713 -0.0046859282230750096 0 -0.00067491765648757147 -0.0046560346739609598 0 -0.00059969590208075636 -0.0047411810913276361 0 -0.00056248919271184713 -0.0046859282230750096 0 -0.00057994974911380296 -0.0046133393808914193 0 -0.00056248919271184713 -0.0046859282230750096 0 -0.00046339621548136813 -0.0046279365501852134 0 2.1010936926280771e-05 -0.0030580365519607554 0 -0.00012016578025737432 -0.0029724422874423222 0 8.9986143716536924e-05 -0.0029434287305318725 0 -0.00026344862739750933 -0.0033779639497578551 0 -0.00041810046381961973 -0.0039309764772859201 0 -0.00059969590208075636 -0.0047411810913276361 0 -0.00061557949439674858 -0.0048107733747827924 0 -0.00043864284165854889 -0.0047967911903117003 0 9.5354784462754787e-05 -0.0014600046214093758 0 0.00035490298185518384 -0.0016472546470734696 0 0.00027192022202386017 -0.0013957237622151584 0 5.8566823854960345e-06 -0.0022691725882837146 0 -0.00026344862739750933 -0.0033779639497578551 0 -0.00059969590208075636 -0.0047411810913276361 0 -0.00061557949439674858 -0.0048107733747827924 0 -0.00067811141967380625 -0.0047655238773486501 0 -0.00045284319174461332 -0.0026970073957272604 0 0.00010391515070558065 -0.0015203858486995156 0 0.00035490298185518384 -0.0016472546470734696 0 0.00045760641583186563 -0.0016354531112179993 0 0.00027192022202386017 -0.0013957237622151584 0 0.00045319905399136498 -0.0016270902629047033 0 0.00042530692237629375 -0.0014183797025575553 0 0.00027192022202386017 -0.0013957237622151584 0 -0.0013560909493874433 -0.0027001822643258201 0 -0.0013707393756510419 -0.0027043664150641191 0 -0.0013888284077181417 -0.0027056969155390101 0 -0.0013560909493874433 -0.0027001822643258201 0 -0.0013707393756510419 -0.0027043664150641191 0 -0.0013792045013940873 -0.0027105787808391281 0 -0.00045284319174461332 -0.0026970073957272604 0 -0.0017515183478331005 -0.0027376812119483071 0 0.00045319905399136498 -0.0016270902629047033 0 0.0005519592193019081 -0.0013187645720954919 0 0.00042530692237629375 -0.0014183797025575553 0 -0.00061820568001665207 -0.0047938657267191202 0 -0.00065969546273556532 -0.0048038046332273014 0 -0.00067811141967380625 -0.0047655238773486501 0 -0.00026344862739750933 -0.0033779639497578551 0 -0.00026677340064168491 -0.0041483895892342557 0 -0.00026344862739750933 -0.0033779639497578551 0 -0.00045284319174461332 -0.0026970073957272604 0 -0.00045284319174461332 -0.0026970073957272604 0 -0.00024135471868569591 -0.0018737010502069252 0 0.00045319905399136498 -0.0016270902629047033 0 0.0005519592193019081 -0.0013187645720954919 0 0.00083609408257765382 -0.0012428536170752439 0 0.00059610123845219639 -0.001079201313615126 0 0.0005519592193019081 -0.0013187645720954919 0 0.00083609408257765382 -0.0012428536170752439 0 0.00059610123845219639 -0.001079201313615126 0 0.0005519592193019081 -0.0013187645720954919 0 0.00036597917913232415 -0.0011905994004313674 0 0.0005519592193019081 -0.0013187645720954919 0 0.00042530692237629375 -0.0014183797025575553 0 0.00036597917913232415 -0.0011905994004313674 0 0.00042530692237629375 -0.0014183797025575553 0 0.00027192022202386017 -0.0013957237622151584 0 0.00036597917913232415 -0.0011905994004313674 0 0.00027192022202386017 -0.0013957237622151584 0 0.00036597917913232415 -0.0011905994004313674 0 9.525738119947681e-05 -0.0012220178516154886 0 0.00019235302777510782 -0.0010294560634705582 0 0.00036597917913232415 -0.0011905994004313674 0 9.525738119947681e-05 -0.0012220178516154886 0 9.5354784462754787e-05 -0.0014600046214093758 0 0.00027192022202386017 -0.0013957237622151584 0 9.525738119947681e-05 -0.0012220178516154886 0 -0.0013756311455692053 -0.0027128650168198507 0 -0.0013703546447442086 -0.0027041167311833022 0 -0.0013785388958446601 -0.0027069539155581937 0 -0.0013756311455692053 -0.0027128650168198507 0 -0.0013792045013940873 -0.0027105787808391281 0 -0.0013703546447442086 -0.0027041167311833022 0 -0.0013753647302081149 -0.002719375696379429 0 -0.0013619040384073749 -0.0027192859615912776 0 -0.0013792045013940873 -0.0027105787808391281 0 -0.0013753647302081149 -0.002719375696379429 0 -0.0013756311455692053 -0.0027128650168198507 0 -0.0013792045013940873 -0.0027105787808391281 0 -0.0013889816836450549 -0.0025650168616098297 0 -0.0013888284077181417 -0.0027056969155390101 0 -0.0013736729883296658 -0.0026975738735784908 0 -0.0013792045013940873 -0.0027105787808391281 0 -0.0013888284077181417 -0.0027056969155390101 0 -0.0013736729883296658 -0.0026975738735784908 0 -0.0013707393756510419 -0.0027043664150641191 0 -0.0013792045013940873 -0.0027105787808391281 0 -0.0013888284077181417 -0.0027056969155390101 0 -0.00134742864237682 -0.0026890218308750894 0 -0.0013736729883296658 -0.0026975738735784908 0 -0.0013703546447442086 -0.0027041167311833022 0 -0.0013792045013940873 -0.0027105787808391281 0 -0.0013736729883296658 -0.0026975738735784908 0 -0.0013703546447442086 -0.0027041167311833022 0 -0.00134742864237682 -0.0026890218308750894 0 -0.0013703546447442086 -0.0027041167311833022 0 -0.0013797795405449749 -0.0027016256295648656 0 -0.0013785198387400799 -0.0026963943038674 0 -0.00134742864237682 -0.0026890218308750894 0 -0.0013797795405449749 -0.0027016256295648656 0 -0.0013995117258292519 -0.0027022981605495152 0 -0.0013797795405449749 -0.0027016256295648656 0 -0.0014203636468565716 -0.0027292233419946668 0 -0.0013995117258292519 -0.0027022981605495152 0 -0.0013785198387400799 -0.0026963943038674 0 -0.0013797795405449749 -0.0027016256295648656 0 -0.0013797795405449749 -0.0027016256295648656 0 -0.0013785388958446601 -0.0027069539155581937 0 -0.0013892041303000726 -0.0027090536451233006 0 -0.0013703546447442086 -0.0027041167311833022 0 -0.0013797795405449749 -0.0027016256295648656 0 -0.0013785388958446601 -0.0027069539155581937 0 -0.0013797795405449749 -0.0027016256295648656 0 -0.0014203636468565716 -0.0027292233419946668 0 -0.0013892041303000726 -0.0027090536451233006 0 -0.0014396274176049664 -0.002557995912436242 0 -0.001296641623273097 -0.0032035450120188637 0 -0.0014203636468565716 -0.0027292233419946668 0 -0.0013948869792478301 -0.0027040388288783229 0 -0.0013892041303000726 -0.0027090536451233006 0 -0.0014203636468565716 -0.0027292233419946668 0 -0.0014470973926970286 -0.0027862672115523414 0 -0.0014485133477127436 -0.0027896507492503517 0 -0.0013948869792478301 -0.0027040388288783229 0 -0.0013892041303000726 -0.0027090536451233006 0 -0.0013819374542134819 -0.0027087242924957572 0 -0.0013756311455692053 -0.0027128650168198507 0 -0.0013785388958446601 -0.0027069539155581937 0 -0.0013819374542134819 -0.0027087242924957572 0 -0.0013785388958446601 -0.0027069539155581937 0 -0.0013892041303000726 -0.0027090536451233006 0 -0.0013819374542134819 -0.0027087242924957572 0 -0.0013948869792478301 -0.0027040388288783229 0 -0.0013819374542134819 -0.0027087242924957572 0 -0.0013759013371888 -0.0027158776235291678 0 -0.0013756311455692053 -0.0027128650168198507 0 -0.0013819374542134819 -0.0027087242924957572 0 -0.0013759013371888 -0.0027158776235291678 0 -0.001296641623273097 -0.0032035450120188637 0 -0.0013360108787598413 -0.0039360186004881309 0 -0.0017501929839617797 -0.002993889736473185 0 -0.0017535584727957994 -0.0033825070830834857 0 -0.0015281245308713706 -0.0031806583348171556 0 -0.00091459079488433116 -0.0042329992534599391 0 -0.00096811832081578389 -0.0042958343161223428 0 -0.00091454361304654547 -0.0043222879020736443 0 -0.001296641623273097 -0.0032035450120188637 0 -0.0011504845804618845 -0.0034677859566722212 0 -0.0013558570973457172 -0.0040519611941496874 0 -0.0013360108787598413 -0.0039360186004881309 0 -0.00093579180520376331 -0.0043754920606958597 0 -0.00091454361304654547 -0.0043222879020736443 0 -0.00095191587479042164 -0.0043505796120838908 0 -0.00096811832081578389 -0.0042958343161223428 0 -0.00091454361304654547 -0.0043222879020736443 0 -0.00095191587479042164 -0.0043505796120838908 0 -0.0010211571605865421 -0.0043493937655270541 0 -0.00096811832081578389 -0.0042958343161223428 0 -0.00097598761200501523 -0.004348120924027931 0 -0.00096660116267696845 -0.004398081851696308 0 -0.00095191587479042164 -0.0043505796120838908 0 -0.00097598761200501523 -0.004348120924027931 0 -0.00096811832081578389 -0.0042958343161223428 0 -0.00095191587479042164 -0.0043505796120838908 0 -0.00097598761200501523 -0.004348120924027931 0 -0.0013984003241780327 -0.0034356948419981157 0 -0.0012096833333071631 -0.0033022290289218578 0 -0.0011155080634372072 -0.0034836593714009855 0 -0.0013135963898192058 -0.0037837171908401621 0 -0.0013984003241780327 -0.0034356948419981157 0 -0.0011155080634372072 -0.0034836593714009855 0 -0.0017535584727957994 -0.0033825070830834857 0 -0.0013984003241780327 -0.0034356948419981157 0 -0.0015281245308713706 -0.0031806583348171556 0 -0.0015277013801259468 -0.0036525231034163466 0 -0.0017535584727957994 -0.0033825070830834857 0 -0.0013984003241780327 -0.0034356948419981157 0 -0.0013984003241780327 -0.0034356948419981157 0 -0.0015281245308713706 -0.0031806583348171556 0 -0.0013303850282440121 -0.003196269344526376 0 -0.0017501929839617797 -0.002993889736473185 0 -0.0015281245308713706 -0.0031806583348171556 0 -0.0014868225896616095 -0.0029787779672853674 0 -0.0015281245308713706 -0.0031806583348171556 0 -0.001407234579578662 -0.003061880898221223 0 -0.0014868225896616095 -0.0029787779672853674 0 -0.0015281245308713706 -0.0031806583348171556 0 -0.001407234579578662 -0.003061880898221223 0 -0.0013303850282440121 -0.003196269344526376 0 -0.001407234579578662 -0.003061880898221223 0 -0.0013303850282440121 -0.003196269344526376 0 -0.0012645072657615627 -0.0030305714383453411 0 -0.0013984003241780327 -0.0034356948419981157 0 -0.0013303850282440121 -0.003196269344526376 0 -0.0012096833333071631 -0.0033022290289218578 0 -0.0013303850282440121 -0.003196269344526376 0 -0.0012096833333071631 -0.0033022290289218578 0 -0.0011843309207298196 -0.0031514191389648556 0 -0.0011843309207298196 -0.0031514191389648556 0 -0.0012645072657615627 -0.0030305714383453411 0 -0.0011041454765566303 -0.003016816033955612 0 -0.0013303850282440121 -0.003196269344526376 0 -0.0011843309207298196 -0.0031514191389648556 0 -0.0012645072657615627 -0.0030305714383453411 0 -0.0012645072657615627 -0.0030305714383453411 0 -0.0012155367150761644 -0.0029027923115295018 0 -0.0011041454765566303 -0.003016816033955612 0 -0.001407234579578662 -0.003061880898221223 0 -0.0012645072657615627 -0.0030305714383453411 0 -0.0013534194457403587 -0.0028782511914764975 0 -0.0012645072657615627 -0.0030305714383453411 0 -0.0013534194457403587 -0.0028782511914764975 0 -0.0012155367150761644 -0.0029027923115295018 0 -0.0013534194457403587 -0.0028782511914764975 0 -0.0012543853047125735 -0.0028062529681137059 0 -0.0013690260068045213 -0.0027468818872778957 0 -0.0013534194457403587 -0.0028782511914764975 0 -0.0012155367150761644 -0.0029027923115295018 0 -0.0012543853047125735 -0.0028062529681137059 0 -0.0012155367150761644 -0.0029027923115295018 0 -0.0012543853047125735 -0.0028062529681137059 0 -0.0011581297618377517 -0.0027951676081655829 0 -0.0017501929839617797 -0.002993889736473185 0 -0.0014868225896616095 -0.0029787779672853674 0 -0.0014485133477127436 -0.0027896507492503517 0 -0.001407234579578662 -0.003061880898221223 0 -0.0013534194457403587 -0.0028782511914764975 0 -0.0014868225896616095 -0.0029787779672853674 0 -0.0013534194457403587 -0.0028782511914764975 0 -0.0014485133477127436 -0.0027896507492503517 0 -0.0013690260068045213 -0.0027468818872778957 0 -0.0013534194457403587 -0.0028782511914764975 0 -0.0014868225896616095 -0.0029787779672853674 0 -0.0014485133477127436 -0.0027896507492503517 0 -0.001296641623273097 -0.0032035450120188637 0 -0.0014824915977158556 -0.0028037689842337027 0 -0.0014203636468565716 -0.0027292233419946668 0 -0.0014485133477127436 -0.0027896507492503517 0 -0.0014082617482846834 -0.0027338480038659337 0 -0.0014485133477127436 -0.0027896507492503517 0 -0.0014082617482846834 -0.0027338480038659337 0 -0.0013690260068045213 -0.0027468818872778957 0 -0.0013672479767384597 -0.0027145357684846189 0 -0.0014082617482846834 -0.0027338480038659337 0 -0.0013690260068045213 -0.0027468818872778957 0 -0.0013672479767384597 -0.0027145357684846189 0 -0.001396902222828706 -0.0027086220530929826 0 -0.0014082617482846834 -0.0027338480038659337 0 -0.001396902222828706 -0.0027086220530929826 0 -0.0014203636468565716 -0.0027292233419946668 0 -0.0014082617482846834 -0.0027338480038659337 0 -0.0012651819152819442 -0.0027400405913735842 0 -0.001540593069628216 -0.0023595173693097262 0 -0.0012543853047125735 -0.0028062529681137059 0 -0.0013690260068045213 -0.0027468818872778957 0 -0.0011168022573212924 -0.0026970267902650825 0 -0.0013672479767384597 -0.0027145357684846189 0 -0.0013690260068045213 -0.0027468818872778957 0 -0.0013307133226060047 -0.0027319503003763366 0 -0.0012543853047125735 -0.0028062529681137059 0 -0.0011168022573212924 -0.0026970267902650825 0 -0.0011581297618377517 -0.0027951676081655829 0 -0.001540593069628216 -0.0023595173693097262 0 -0.0028302024933539709 -0.0018734980085388766 0 -0.0023578794897680571 -0.0017981988816529579 0 -0.0023774003478565582 -0.0019331700587498608 0 -0.0022008143147839703 -0.0019022151148995676 0 -0.0011168022573212924 -0.0026970267902650825 0 -0.001066985402810777 -0.0028626368602639547 0 -0.00085755228826700329 -0.0026454596368429848 0 -0.0011168022573212924 -0.0026970267902650825 0 -0.0011581297618377517 -0.0027951676081655829 0 -0.001066985402810777 -0.0028626368602639547 0 -0.0012155367150761644 -0.0029027923115295018 0 -0.0011581297618377517 -0.0027951676081655829 0 -0.001066985402810777 -0.0028626368602639547 0 -0.001066985402810777 -0.0028626368602639547 0 -0.00090237911365291361 -0.0029745848723879303 0 -0.00085755228826700329 -0.0026454596368429848 0 -0.0012155367150761644 -0.0029027923115295018 0 -0.001066985402810777 -0.0028626368602639547 0 -0.0011041454765566303 -0.003016816033955612 0 -0.001066985402810777 -0.0028626368602639547 0 -0.0011041454765566303 -0.003016816033955612 0 -0.00090237911365291361 -0.0029745848723879303 0 -0.00090237911365291361 -0.0029745848723879303 0 -0.00060232388524369821 -0.0030078611553745424 0 -0.00079524902947002835 -0.0031733760900401987 0 -0.00090237911365291361 -0.0029745848723879303 0 -0.00085755228826700329 -0.0026454596368429848 0 -0.00060232388524369821 -0.0030078611553745424 0 -0.0028302024933539709 -0.0018734980085388766 0 -0.0021655250445710063 -0.0023644803362390531 0 -0.0028302024933539709 -0.0018734980085388766 0 -0.0043097569678931576 -0.0014206256160916109 0 -0.0039832938628624999 -0.001589156736015829 0 -0.0039182966230995788 -0.0015670032142916666 0 -0.0039358643974819058 -0.0016835276042791378 0 -0.0039182966230995788 -0.0015670032142916666 0 -0.0038863541710618503 -0.0016108301307503981 0 -0.0039358643974819058 -0.0016835276042791378 0 -0.0038484312622771343 -0.0015270184309546125 0 -0.0039182966230995788 -0.0015670032142916666 0 -0.0038863541710618503 -0.0016108301307503981 0 -0.0038484312622771343 -0.0015270184309546125 0 -0.0038863541710618503 -0.0016108301307503981 0 -0.0038324304407910976 -0.0015738095520121053 0 -0.0038863541710618503 -0.0016108301307503981 0 -0.0038324304407910976 -0.0015738095520121053 0 -0.0038297062337736935 -0.0016235159205585383 0 -0.0038863541710618503 -0.0016108301307503981 0 -0.0039358643974819058 -0.0016835276042791378 0 -0.0038712179849707765 -0.0017238716982902814 0 -0.0038863541710618503 -0.0016108301307503981 0 -0.0038417113294450028 -0.0016752714346946508 0 -0.0038712179849707765 -0.0017238716982902814 0 -0.0038863541710618503 -0.0016108301307503981 0 -0.0038417113294450028 -0.0016752714346946508 0 -0.0038297062337736935 -0.0016235159205585383 0 -0.00060232388524369821 -0.0030078611553745424 0 -0.00033495827203248953 -0.0033609882176479379 0 -0.00060098812839523748 -0.0033955005204636887 0 -0.00060232388524369821 -0.0030078611553745424 0 -0.00060098812839523748 -0.0033955005204636887 0 -0.00079524902947002835 -0.0031733760900401987 0 -0.0021655250445710063 -0.0023644803362390531 0 -0.0023160136871708151 -0.0027894209312064387 0 -0.0039358643974819058 -0.0016835276042791378 0 -0.0038712179849707765 -0.0017238716982902814 0 -0.0038595555186985201 -0.001811521909522062 0 -0.003838250053367253 -0.001718284435012664 0 -0.0038712179849707765 -0.0017238716982902814 0 -0.0038292206131432215 -0.001755843024920427 0 -0.0038417113294450028 -0.0016752714346946508 0 -0.003838250053367253 -0.001718284435012664 0 -0.0038712179849707765 -0.0017238716982902814 0 -0.0038456156130209627 -0.001773854559704492 0 -0.0038292206131432215 -0.001755843024920427 0 -0.0038216756435316022 -0.0018048928145180021 0 -0.0038712179849707765 -0.0017238716982902814 0 -0.0038456156130209627 -0.001773854559704492 0 -0.0038292206131432215 -0.001755843024920427 0 -0.0038712179849707765 -0.0017238716982902814 0 -0.0038456156130209627 -0.001773854559704492 0 -0.0038595555186985201 -0.001811521909522062 0 -0.0038216756435316022 -0.0018048928145180021 0 -0.0038595555186985201 -0.001811521909522062 0 -0.0038568317757401659 -0.0018793590385457262 0 -0.0038456156130209627 -0.001773854559704492 0 -0.0038216756435316022 -0.0018048928145180021 0 -0.0038595555186985201 -0.001811521909522062 0 -0.00033495827203248953 -0.0033609882176479379 0 -0.00035461234347386602 -0.0035480357379523916 0 -0.0004741679258545811 -0.0034770305678025956 0 -0.0023160136871708151 -0.0027894209312064387 0 -0.0020354977944057385 -0.0031258193877076856 0 -0.00060098812839523748 -0.0033955005204636887 0 -0.00076813781569801088 -0.0035614060757599101 0 -0.00059265198547101081 -0.0036610779823011254 0 -0.00035461234347386602 -0.0035480357379523916 0 -0.0004741679258545811 -0.0034770305678025956 0 -0.00059265198547101081 -0.0036610779823011254 0 -0.00033495827203248953 -0.0033609882176479379 0 -0.00060098812839523748 -0.0033955005204636887 0 -0.0004741679258545811 -0.0034770305678025956 0 -0.00060098812839523748 -0.0033955005204636887 0 -0.0004741679258545811 -0.0034770305678025956 0 -0.00059265198547101081 -0.0036610779823011254 0 -0.00060098812839523748 -0.0033955005204636887 0 -0.00076813781569801088 -0.0035614060757599101 0 -0.0008595349206500343 -0.0033748261269583774 0 -0.00076813781569801088 -0.0035614060757599101 0 -0.0008595349206500343 -0.0033748261269583774 0 -0.00093028135472772889 -0.0036119351656507151 0 -0.0008595349206500343 -0.0033748261269583774 0 -0.0011155080634372072 -0.0034836593714009855 0 -0.00093028135472772889 -0.0036119351656507151 0 -0.0008595349206500343 -0.0033748261269583774 0 -0.0011155080634372072 -0.0034836593714009855 0 -0.001022714482154065 -0.0032050456822473594 0 -0.0012096833333071631 -0.0033022290289218578 0 -0.0011155080634372072 -0.0034836593714009855 0 -0.001022714482154065 -0.0032050456822473594 0 -0.0012096833333071631 -0.0033022290289218578 0 -0.0011843309207298196 -0.0031514191389648556 0 -0.001022714482154065 -0.0032050456822473594 0 -0.0011843309207298196 -0.0031514191389648556 0 -0.0011041454765566303 -0.003016816033955612 0 -0.001022714482154065 -0.0032050456822473594 0 -0.0011041454765566303 -0.003016816033955612 0 -0.00090237911365291361 -0.0029745848723879303 0 -0.001022714482154065 -0.0032050456822473594 0 -0.00090237911365291361 -0.0029745848723879303 0 -0.001022714482154065 -0.0032050456822473594 0 -0.00079524902947002835 -0.0031733760900401987 0 -0.00060098812839523748 -0.0033955005204636887 0 -0.0008595349206500343 -0.0033748261269583774 0 -0.00079524902947002835 -0.0031733760900401987 0 -0.0008595349206500343 -0.0033748261269583774 0 -0.001022714482154065 -0.0032050456822473594 0 -0.00079524902947002835 -0.0031733760900401987 0 -0.0035725323003420826 -0.0015878108675728268 0 -0.0035973158864851099 -0.0017239047732997886 0 -0.0034848483361045695 -0.0017366114513953498 0 -0.0035311823761032713 -0.0015909940254409513 0 -0.0035725323003420826 -0.0015878108675728268 0 -0.0035351045426202129 -0.0016631055337680569 0 -0.0035680829710191273 -0.0013458509913033441 0 -0.0037839299973435685 -0.0024677489930813581 0 -0.0035546150574922129 -0.0015203934490722892 0 -0.003494906199337686 -0.0015578959298423842 0 -0.0035311823761032713 -0.0015909940254409513 0 -0.0035833804942836289 -0.0014209496798200188 0 -0.0038490544971069118 -0.0012625533614806874 0 -0.0035546150574922129 -0.0015203934490722892 0 -0.0035311823761032713 -0.0015909940254409513 0 -0.0035725323003420826 -0.0015878108675728268 0 -0.0035725323003420826 -0.0015878108675728268 0 -0.0036193852767077038 -0.0015297360926085067 0 -0.0036370315815200142 -0.001602587593760429 0 -0.0035546150574922129 -0.0015203934490722892 0 -0.0035725323003420826 -0.0015878108675728268 0 -0.0036193852767077038 -0.0015297360926085067 0 -0.0036193852767077038 -0.0015297360926085067 0 -0.0036370315815200142 -0.001602587593760429 0 -0.0036937674493994184 -0.0015610059527571909 0 -0.0035725323003420826 -0.0015878108675728268 0 -0.00363027295181639 -0.0016636931863559391 0 -0.0035973158864851099 -0.0017239047732997886 0 -0.0036370315815200142 -0.001602587593760429 0 -0.00363027295181639 -0.0016636931863559391 0 -0.0036854289426690679 -0.0016836385397223828 0 -0.0035725323003420826 -0.0015878108675728268 0 -0.0036370315815200142 -0.001602587593760429 0 -0.00363027295181639 -0.0016636931863559391 0 -0.00363027295181639 -0.0016636931863559391 0 -0.0036474191967498198 -0.0017209362664626403 0 -0.0035973158864851099 -0.0017239047732997886 0 -0.00363027295181639 -0.0016636931863559391 0 -0.0036854289426690679 -0.0016836385397223828 0 -0.0036474191967498198 -0.0017209362664626403 0 -0.0036854289426690679 -0.0016836385397223828 0 -0.0037310128709022402 -0.001633018443219182 0 -0.0037493799232463012 -0.001725240089253796 0 -0.0037310128709022402 -0.001633018443219182 0 -0.0037923114141614851 -0.0016644560573841752 0 -0.0037493799232463012 -0.001725240089253796 0 -0.0036370315815200142 -0.001602587593760429 0 -0.0036854289426690679 -0.0016836385397223828 0 -0.0037310128709022402 -0.001633018443219182 0 -0.0036370315815200142 -0.001602587593760429 0 -0.0037310128709022402 -0.001633018443219182 0 -0.0036937674493994184 -0.0015610059527571909 0 -0.0036193852767077038 -0.0015297360926085067 0 -0.0036937674493994184 -0.0015610059527571909 0 -0.003688157299536417 -0.0015013964901475201 0 -0.0036937674493994184 -0.0015610059527571909 0 -0.003688157299536417 -0.0015013964901475201 0 -0.0037437501794304671 -0.0015236206513920239 0 -0.0037437501794304671 -0.0015236206513920239 0 -0.0037529581976334741 -0.0015718516565971991 0 -0.003798839913439358 -0.0015342942311525653 0 -0.0036937674493994184 -0.0015610059527571909 0 -0.0037437501794304671 -0.0015236206513920239 0 -0.0037529581976334741 -0.0015718516565971991 0 -0.0037837892823059179 -0.0014152842240751115 0 -0.0037437501794304671 -0.0015236206513920239 0 -0.003798839913439358 -0.0015342942311525653 0 -0.0037310128709022402 -0.001633018443219182 0 -0.0036937674493994184 -0.0015610059527571909 0 -0.0037529581976334741 -0.0015718516565971991 0 -0.0037310128709022402 -0.001633018443219182 0 -0.0037529581976334741 -0.0015718516565971991 0 -0.0037893508962932657 -0.0016016927756962965 0 -0.0037893508962932657 -0.0016016927756962965 0 -0.003798839913439358 -0.0015342942311525653 0 -0.0038324304407910976 -0.0015738095520121053 0 -0.0037529581976334741 -0.0015718516565971991 0 -0.0037893508962932657 -0.0016016927756962965 0 -0.003798839913439358 -0.0015342942311525653 0 -0.0038484312622771343 -0.0015270184309546125 0 -0.003798839913439358 -0.0015342942311525653 0 -0.0038324304407910976 -0.0015738095520121053 0 -0.0037893508962932657 -0.0016016927756962965 0 -0.0038324304407910976 -0.0015738095520121053 0 -0.0038297062337736935 -0.0016235159205585383 0 -0.0038417113294450028 -0.0016752714346946508 0 -0.0038297062337736935 -0.0016235159205585383 0 -0.0037923114141614851 -0.0016644560573841752 0 -0.0037310128709022402 -0.001633018443219182 0 -0.0037893508962932657 -0.0016016927756962965 0 -0.0037923114141614851 -0.0016644560573841752 0 -0.0037893508962932657 -0.0016016927756962965 0 -0.0038297062337736935 -0.0016235159205585383 0 -0.0037923114141614851 -0.0016644560573841752 0 -0.0037923114141614851 -0.0016644560573841752 0 -0.0038057831897394816 -0.0017220327239194939 0 -0.0037493799232463012 -0.001725240089253796 0 -0.0038417113294450028 -0.0016752714346946508 0 -0.003838250053367253 -0.001718284435012664 0 -0.0038057831897394816 -0.0017220327239194939 0 -0.0038417113294450028 -0.0016752714346946508 0 -0.0037923114141614851 -0.0016644560573841752 0 -0.0038057831897394816 -0.0017220327239194939 0 -0.0037912523647474381 -0.0017669052254337349 0 -0.003750505297610107 -0.0018260907244819693 0 -0.0037493799232463012 -0.001725240089253796 0 -0.0038292206131432215 -0.001755843024920427 0 -0.0038057831897394816 -0.0017220327239194939 0 -0.0037912523647474381 -0.0017669052254337349 0 -0.003838250053367253 -0.001718284435012664 0 -0.0038292206131432215 -0.001755843024920427 0 -0.0038057831897394816 -0.0017220327239194939 0 -0.0038057831897394816 -0.0017220327239194939 0 -0.0037912523647474381 -0.0017669052254337349 0 -0.0037493799232463012 -0.001725240089253796 0 -0.0038292206131432215 -0.001755843024920427 0 -0.0038216756435316022 -0.0018048928145180021 0 -0.0037912523647474381 -0.0017669052254337349 0 -0.0038216756435316022 -0.0018048928145180021 0 -0.0037912523647474381 -0.0017669052254337349 0 -0.003750505297610107 -0.0018260907244819693 0 -0.0038216756435316022 -0.0018048928145180021 0 -0.0038568317757401659 -0.0018793590385457262 0 -0.003750505297610107 -0.0018260907244819693 0 -0.0020354977944057385 -0.0031258193877076856 0 -0.003379213351986511 -0.0026871452884117426 0 -0.0025276566027086496 -0.0036121401137246142 0 -0.0026104369310692103 -0.0036362448036491987 0 -0.0025834486494610022 -0.0035849513479411319 0 -0.003379213351986511 -0.0026871452884117426 0 -0.0031761093890991464 -0.0030110835807048504 0 -0.0026104369310692103 -0.0036362448036491987 0 -0.0026828136547215587 -0.0036562319736230613 0 -0.0026845241008597101 -0.0036016394119817679 0 -0.003750505297610107 -0.0018260907244819693 0 -0.0037493799232463012 -0.001725240089253796 0 -0.0036828019998059922 -0.0017525241137718759 0 -0.003750505297610107 -0.0018260907244819693 0 -0.0036828019998059922 -0.0017525241137718759 0 -0.0036225018707011043 -0.0017834123903075652 0 -0.0036854289426690679 -0.0016836385397223828 0 -0.0036828019998059922 -0.0017525241137718759 0 -0.0036474191967498198 -0.0017209362664626403 0 -0.0036854289426690679 -0.0016836385397223828 0 -0.0037493799232463012 -0.001725240089253796 0 -0.0036828019998059922 -0.0017525241137718759 0 -0.0035973158864851099 -0.0017239047732997886 0 -0.0036225018707011043 -0.0017834123903075652 0 -0.0034848483361045695 -0.0017366114513953498 0 -0.0036828019998059922 -0.0017525241137718759 0 -0.0036474191967498198 -0.0017209362664626403 0 -0.0036225018707011043 -0.0017834123903075652 0 -0.0036474191967498198 -0.0017209362664626403 0 -0.0035973158864851099 -0.0017239047732997886 0 -0.0036225018707011043 -0.0017834123903075652 0 -0.0036824111704010813 -0.0032105839364685402 0 -0.003612222368617973 -0.0032601154364704206 0 -0.0036736074422531236 -0.0033154319277780282 0 -0.0031761093890991464 -0.0030110835807048504 0 -0.0031943654633557724 -0.0034167401835563087 0 -0.0035258413211151337 -0.0032822848995313586 0 -0.003612222368617973 -0.0032601154364704206 0 -0.0036071131441507108 -0.0033357317414993951 0 -0.003612222368617973 -0.0032601154364704206 0 -0.0036071131441507108 -0.0033357317414993951 0 -0.0036736074422531236 -0.0033154319277780282 0 -0.0036824111704010813 -0.0032105839364685402 0 -0.003612222368617973 -0.0032601154364704206 0 -0.0035870376094355328 -0.0031694773456911588 0 -0.0031761093890991464 -0.0030110835807048504 0 -0.0037839299973435685 -0.0024677489930813581 0 -0.003563964683188617 -0.0034013818806049641 0 -0.0036071131441507108 -0.0033357317414993951 0 -0.0036616590470179289 -0.0034185183450765686 0 -0.0035224215398860473 -0.0043095235466607479 0 -0.0034547421219770684 -0.004303378533231538 0 -0.0035147441225253833 -0.0042617579494814845 0 -0.0035878580398190237 -0.0038573297365676394 0 -0.0029925510674413233 -0.0041093033847271832 0 -0.0036071131441507108 -0.0033357317414993951 0 -0.0036736074422531236 -0.0033154319277780282 0 -0.0036616590470179289 -0.0034185183450765686 0 -0.0031943654633557724 -0.0034167401835563087 0 -0.0029925510674413233 -0.0041093033847271832 0 -0.0026845241008597101 -0.0036016394119817679 0 -0.0026900795851775398 -0.0035454578775095491 0 -0.0026348856229882305 -0.0035807139572224564 0 -0.0026900795851775398 -0.0035454578775095491 0 -0.0026348856229882305 -0.0035807139572224564 0 -0.0026040263366286236 -0.0035334949674270225 0 -0.0029925510674413233 -0.0041093033847271832 0 -0.0023804270884592153 -0.0044405959213857883 0 -0.0024447918726764064 -0.0052714107992355916 0 -0.0021354268692278483 -0.0052363054641062596 0 -0.0022690634985972819 -0.0050731486768708705 0 -0.0026104369310692103 -0.0036362448036491987 0 -0.0026845241008597101 -0.0036016394119817679 0 -0.0026348856229882305 -0.0035807139572224564 0 -0.0026104369310692103 -0.0036362448036491987 0 -0.0026348856229882305 -0.0035807139572224564 0 -0.0025834486494610022 -0.0035849513479411319 0 -0.0026348856229882305 -0.0035807139572224564 0 -0.0025834486494610022 -0.0035849513479411319 0 -0.0026040263366286236 -0.0035334949674270225 0 -0.0025834486494610022 -0.0035849513479411319 0 -0.0026040263366286236 -0.0035334949674270225 0 -0.0025200122308519819 -0.0035693418367330784 0 -0.0023804270884592153 -0.0044405959213857883 0 -0.0017381653613947315 -0.0042180793969746966 0 -0.0020694222434423223 -0.0050977668129241222 0 -0.0020509853363312527 -0.004935990421832198 0 -0.0019103008971796365 -0.0051184004461969374 0 -0.0021354268692278483 -0.0052363054641062596 0 -0.0020694222434423223 -0.0050977668129241222 0 -0.0018656210840342841 -0.0051942095852729776 0 -0.0020509853363312527 -0.004935990421832198 0 -0.0021895458902894431 -0.0049497860668918162 0 -0.0021921717402944639 -0.0047789272229954048 0 -0.0020694222434423223 -0.0050977668129241222 0 -0.0020509853363312527 -0.004935990421832198 0 -0.0021895458902894431 -0.0049497860668918162 0 -0.0021895458902894431 -0.0049497860668918162 0 -0.0022690634985972819 -0.0050731486768708705 0 -0.0022956133784848274 -0.0048799451841723676 0 -0.0020694222434423223 -0.0050977668129241222 0 -0.0021895458902894431 -0.0049497860668918162 0 -0.0022690634985972819 -0.0050731486768708705 0 -0.0021354268692278483 -0.0052363054641062596 0 -0.0020694222434423223 -0.0050977668129241222 0 -0.0022690634985972819 -0.0050731486768708705 0 -0.0024447918726764064 -0.0052714107992355916 0 -0.0022690634985972819 -0.0050731486768708705 0 -0.0024699300462408926 -0.0050418579782274334 0 -0.0029925510674413233 -0.0041093033847271832 0 -0.0029697130445888635 -0.0047596056132351234 0 -0.0022690634985972819 -0.0050731486768708705 0 -0.0024699300462408926 -0.0050418579782274334 0 -0.0024938053183050711 -0.0047821086418372493 0 -0.0029697130445888635 -0.0047596056132351234 0 -0.0027369049353242096 -0.0045539673606703598 0 -0.0022690634985972819 -0.0050731486768708705 0 -0.0024378605977647331 -0.0048589574354814284 0 -0.0022956133784848274 -0.0048799451841723676 0 -0.0021647189615750418 -0.0051822864673808141 0 -0.0027369049353242096 -0.0045539673606703598 0 -0.0035144535544414314 -0.0042099133840687534 0 -0.0034618585993633089 -0.0042514668550306242 0 -0.0035147441225253833 -0.0042617579494814845 0 -0.0035144535544414314 -0.0042099133840687534 0 -0.0034618585993633089 -0.0042514668550306242 0 -0.0034655346490379624 -0.0042027070372384493 0 -0.0034547421219770684 -0.004303378533231538 0 -0.0034618585993633089 -0.0042514668550306242 0 -0.0035147441225253833 -0.0042617579494814845 0 -0.00089800946915432115 -0.0039902478066546386 0 -0.00074985661849179209 -0.0040904113018574969 0 -0.001032161859005792 -0.0041786057264501016 0 -0.00089800946915432115 -0.0039902478066546386 0 -0.00085016980020937685 -0.0037989382608866291 0 -0.00066400398684306639 -0.0039267841686766161 0 -0.00089800946915432115 -0.0039902478066546386 0 -0.00066400398684306639 -0.0039267841686766161 0 -0.00074985661849179209 -0.0040904113018574969 0 -0.00089800946915432115 -0.0039902478066546386 0 -0.0010530034743822492 -0.0038442996176595401 0 -0.001032161859005792 -0.0041786057264501016 0 -0.0012230170615728541 -0.0040405856637930112 0 -0.0010530034743822492 -0.0038442996176595401 0 -0.001032161859005792 -0.0041786057264501016 0 -0.00089800946915432115 -0.0039902478066546386 0 -0.0010530034743822492 -0.0038442996176595401 0 -0.00085016980020937685 -0.0037989382608866291 0 -0.0013135963898192058 -0.0037837171908401621 0 -0.0011155080634372072 -0.0034836593714009855 0 -0.0010530034743822492 -0.0038442996176595401 0 -0.0011155080634372072 -0.0034836593714009855 0 -0.0010530034743822492 -0.0038442996176595401 0 -0.00093028135472772889 -0.0036119351656507151 0 -0.0010530034743822492 -0.0038442996176595401 0 -0.00093028135472772889 -0.0036119351656507151 0 -0.00085016980020937685 -0.0037989382608866291 0 -0.00090366204326628482 -0.0038168770391069015 0 -0.00040955454942636456 -0.0036235351729724712 0 -0.00085016980020937685 -0.0037989382608866291 0 -0.00065848869883225827 -0.0037440038802882651 0 -0.00066400398684306639 -0.0039267841686766161 0 -0.00076813781569801088 -0.0035614060757599101 0 -0.00085016980020937685 -0.0037989382608866291 0 -0.00059265198547101081 -0.0036610779823011254 0 -0.00076813781569801088 -0.0035614060757599101 0 -0.00093028135472772889 -0.0036119351656507151 0 -0.00085016980020937685 -0.0037989382608866291 0 -0.0020354977944057385 -0.0031258193877076856 0 -0.00040955454942636456 -0.0036235351729724712 0 -0.00065848869883225827 -0.0037440038802882651 0 -0.00049251050035752889 -0.0038540864223195778 0 -0.00066400398684306639 -0.0039267841686766161 0 -0.00048284054671177281 -0.0036724106253358821 0 -0.00065848869883225827 -0.0037440038802882651 0 -0.00049251050035752889 -0.0038540864223195778 0 -0.0025276566027086496 -0.0036121401137246142 0 -0.0025834486494610022 -0.0035849513479411319 0 -0.0025200122308519819 -0.0035693418367330784 0 -0.0020354977944057385 -0.0031258193877076856 0 -0.0015329075948405661 -0.0037098515420252278 0 -0.0026040263366286236 -0.0035334949674270225 0 -0.0025200122308519819 -0.0035693418367330784 0 -0.0025111054516610853 -0.0035251523243072062 0 -0.0015329075948405661 -0.0037098515420252278 0 -0.0017381653613947315 -0.0042180793969746966 0 -0.00050797333776701021 -0.0040413521447928147 0 -0.00066400398684306639 -0.0039267841686766161 0 -0.00074985661849179209 -0.0040904113018574969 0 -0.00049251050035752889 -0.0038540864223195778 0 -0.00050797333776701021 -0.0040413521447928147 0 -0.00066400398684306639 -0.0039267841686766161 0 -0.0015382472674949647 -0.0043693167876979007 0 -0.0015300770913514068 -0.0043630526413273446 0 -0.0015246383929806942 -0.0043579427192039638 0 -0.0015300770913514068 -0.0043630526413273446 0 -0.0015330288588659916 -0.0043494491817606768 0 -0.001520747164786471 -0.0043786803878696351 0 -0.0015382472674949647 -0.0043693167876979007 0 -0.0015300770913514068 -0.0043630526413273446 0 -0.001520747164786471 -0.0043786803878696351 0 -0.0017381653613947315 -0.0042180793969746966 0 -0.00099288982021969799 -0.0042244108568917048 0 -0.0020694222434423223 -0.0050977668129241222 0 -0.0018656210840342841 -0.0051942095852729776 0 -0.0019103008971796365 -0.0051184004461969374 0 -0.0017381653613947315 -0.0042180793969746966 0 -0.0016936181015383962 -0.0048292000563025647 0 -0.0018656210840342841 -0.0051942095852729776 0 -0.0019103008971796365 -0.0051184004461969374 0 -0.0018635212316208945 -0.0050657988069410225 0 -0.0019103008971796365 -0.0051184004461969374 0 -0.0018635212316208945 -0.0050657988069410225 0 -0.0019062510829168755 -0.005028757835483135 0 -0.0019789799623248106 -0.0050515559865624482 0 -0.0019103008971796365 -0.0051184004461969374 0 -0.0019062510829168755 -0.005028757835483135 0 -0.0020389273221922315 -0.0049511239483111969 0 -0.0019084774797472682 -0.0051224366056705573 0 -0.0015300770913514068 -0.0043630526413273446 0 -0.0015246383929806942 -0.0043579427192039638 0 -0.0015330288588659916 -0.0043494491817606768 0 -0.0015246383929806942 -0.0043579427192039638 0 -0.0015330288588659916 -0.0043494491817606768 0 -0.0015482709143067371 -0.0043756331440324338 0 -0.00099288982021969799 -0.0042244108568917048 0 -0.0012839043452870914 -0.0042817745182323385 0 -0.0015330288588659916 -0.0043494491817606768 0 -0.001520747164786471 -0.0043786803878696351 0 -0.0014582804004149943 -0.0043819262483388117 0 -0.0014038792848892947 -0.0043438878889432092 0 -0.0014582804004149943 -0.0043819262483388117 0 -0.0014564435020642523 -0.0043317890034121611 0 -0.0015330288588659916 -0.0043494491817606768 0 -0.0014582804004149943 -0.0043819262483388117 0 -0.0014564435020642523 -0.0043317890034121611 0 -0.0014564435020642523 -0.0043317890034121611 0 -0.0015288020392603223 -0.0043084408449413558 0 -0.0013592119977675011 -0.0042520796578923974 0 -0.0015330288588659916 -0.0043494491817606768 0 -0.0014564435020642523 -0.0043317890034121611 0 -0.0015288020392603223 -0.0043084408449413558 0 -0.0015288020392603223 -0.0043084408449413558 0 -0.0014566248071034582 -0.0041684593041661049 0 -0.0013592119977675011 -0.0042520796578923974 0 -0.0015288020392603223 -0.0043084408449413558 0 -0.0014566248071034582 -0.0041684593041661049 0 -0.0015923190055859369 -0.0041472735921104266 0 -0.0014566248071034582 -0.0041684593041661049 0 -0.0015923190055859369 -0.0041472735921104266 0 -0.0014766118017140522 -0.0040426260595076771 0 -0.0015934757529597185 -0.0044979741419562246 0 -0.0015482709143067371 -0.0043756331440324338 0 -0.0015695272275359599 -0.0044690491542375733 0 -0.0015343865139895122 -0.0043301858094959541 0 -0.001591379630386949 -0.0043095143111978925 0 -0.0015330288588659916 -0.0043494491817606768 0 -0.0015288020392603223 -0.0043084408449413558 0 -0.0015482709143067371 -0.0043756331440324338 0 -0.0015288020392603223 -0.0043084408449413558 0 -0.0015934757529597185 -0.0044979741419562246 0 -0.0015482709143067371 -0.0043756331440324338 0 -0.0016936181015383962 -0.0048292000563025647 0 -0.0016455491833152532 -0.004651917700011045 0 -0.0015246383929806942 -0.0043579427192039638 0 -0.0015482709143067371 -0.0043756331440324338 0 -0.0015109051231020486 -0.0044074349534927023 0 -0.0015482709143067371 -0.0043756331440324338 0 -0.0015109051231020486 -0.0044074349534927023 0 -0.0015695272275359599 -0.0044690491542375733 0 -0.0018635212316208945 -0.0050657988069410225 0 -0.0019062510829168755 -0.005028757835483135 0 -0.0017790297434762195 -0.0049712913279162593 0 -0.0019062510829168755 -0.005028757835483135 0 -0.0019286068891584407 -0.0049361161323445016 0 -0.0019689135472402849 -0.0049786382357428815 0 -0.0019062510829168755 -0.005028757835483135 0 -0.0017790297434762195 -0.0049712913279162593 0 -0.0019286068891584407 -0.0049361161323445016 0 -0.0019286068891584407 -0.0049361161323445016 0 -0.0018111777741890061 -0.0048094165616751035 0 -0.0019963166986720748 -0.0048420231859955185 0 -0.0017790297434762195 -0.0049712913279162593 0 -0.0019286068891584407 -0.0049361161323445016 0 -0.0018111777741890061 -0.0048094165616751035 0 -0.0018111777741890061 -0.0048094165616751035 0 -0.0016193002026806517 -0.0045869984858228083 0 -0.0016966769418443205 -0.004617464639677933 0 -0.0018111777741890061 -0.0048094165616751035 0 -0.0019963166986720748 -0.0048420231859955185 0 -0.0016966769418443205 -0.004617464639677933 0 -0.0015109051231020486 -0.0044074349534927023 0 -0.0015695272275359599 -0.0044690491542375733 0 -0.0016193002026806517 -0.0045869984858228083 0 -0.0015934757529597185 -0.0044979741419562246 0 -0.0015695272275359599 -0.0044690491542375733 0 -0.0016193002026806517 -0.0045869984858228083 0 -0.0017790297434762195 -0.0049712913279162593 0 -0.0018111777741890061 -0.0048094165616751035 0 -0.0016193002026806517 -0.0045869984858228083 0 -0.0016455491833152532 -0.004651917700011045 0 -0.0016227755737791756 -0.0045922476916849123 0 -0.0015934757529597185 -0.0044979741419562246 0 -0.0016193002026806517 -0.0045869984858228083 0 -0.0015722109278925968 -0.0045167509549388892 0 -0.0014755558930121013 -0.0043362935900655595 0 -0.0016966769418443205 -0.004617464639677933 0 -0.0018081515850288496 -0.0043928032896261137 0 -0.0015629324646526874 -0.0043162657608245133 0 -0.001690997214841926 -0.0046160647794454904 0 -0.0016193002026806517 -0.0045869984858228083 0 -0.0015722109278925968 -0.0045167509549388892 0 -0.0016966769418443205 -0.004617464639677933 0 -0.002001956233149354 -0.0048368682918430621 0 -0.0019273636939253502 -0.0046403565170421868 0 -0.0019963166986720748 -0.0048420231859955185 0 -0.0020795264333070473 -0.0049651159454261098 0 -0.0020248448446151686 -0.0049380126149432572 0 -0.0019963166986720748 -0.0048420231859955185 0 -0.0016966769418443205 -0.004617464639677933 0 -0.0018081515850288496 -0.0043928032896261137 0 -0.0020795264333070473 -0.0049651159454261098 0 -0.0020462919043637605 -0.004982956419032865 0 -0.0020248448446151686 -0.0049380126149432572 0 -0.0020462919043637605 -0.004982956419032865 0 -0.0020865313764457665 -0.0050149197782477506 0 -0.0020449156403806357 -0.0050136049234549675 0 -0.0020795264333070473 -0.0049651159454261098 0 -0.0020462919043637605 -0.004982956419032865 0 -0.0020865313764457665 -0.0050149197782477506 0 -0.0019273636939253502 -0.0046403565170421868 0 -0.0017025720004529262 -0.0048774201288785263 0 -0.0020865313764457665 -0.0050149197782477506 0 -0.0020449156403806357 -0.0050136049234549675 0 -0.0020535084489150227 -0.0050286362655525656 0 -0.0014755558930121013 -0.0043362935900655595 0 -0.0018081515850288496 -0.0043928032896261137 0 -0.0016353540831042499 -0.0040611060824278277 0 -0.001455644176265071 -0.0046052379969820003 0 -0.0014204472392303409 -0.0046698409446443226 0 -0.0014713349331364263 -0.0046898880075397133 0 -0.0015629324646526874 -0.0043162657608245133 0 -0.0017025720004529262 -0.0048774201288785263 0 -0.0015629324646526874 -0.0043162657608245133 0 -0.0015387083765485308 -0.0042326382505717009 0 -0.0014766118017140522 -0.0040426260595076771 0 -0.0015668091878623389 -0.0040281892904872 0 -0.0015465835908546582 -0.0039042582210783378 0 -0.001455644176265071 -0.0046052379969820003 0 -0.0015239432854471787 -0.0046932502652810241 0 -0.0014713349331364263 -0.0046898880075397133 0 -0.001652326221205849 -0.0040231587914057705 0 -0.0015668091878623389 -0.0040281892904872 0 -0.0015465835908546582 -0.0039042582210783378 0 -0.0014766118017140522 -0.0040426260595076771 0 -0.0015465835908546582 -0.0039042582210783378 0 -0.0014097236571429309 -0.0039418016469567486 0 -0.0014766118017140522 -0.0040426260595076771 0 -0.0014097236571429309 -0.0039418016469567486 0 -0.0013879264812385723 -0.0040168465588077493 0 -0.0014566248071034582 -0.0041684593041661049 0 -0.0014766118017140522 -0.0040426260595076771 0 -0.0013533333644744673 -0.0040920319057617151 0 -0.001591379630386949 -0.0043095143111978925 0 -0.0015629324646526874 -0.0043162657608245133 0 -0.0015923190055859369 -0.0041472735921104266 0 -0.001652326221205849 -0.0040231587914057705 0 -0.0015668091878623389 -0.0040281892904872 0 -0.0015923190055859369 -0.0041472735921104266 0 -0.0014766118017140522 -0.0040426260595076771 0 -0.0015668091878623389 -0.0040281892904872 0 -0.0021964597546538173 -0.0057577904209988708 0 -0.0022358414702546032 -0.0057733494201471416 0 -0.002085204032574603 -0.0057892020181620502 0 -0.0025492984420086135 -0.004707081610770927 0 -0.0024474452559067415 -0.0047422900708684254 0 -0.0023748420448538731 -0.0047421875742990512 0 -0.0027310845129117499 -0.0051821758671365212 0 -0.0021624529397570166 -0.0052862597630346873 0 -0.0022506509317729902 -0.0057007030751193071 0 -0.0021964597546538173 -0.0057577904209988708 0 -0.0022374269212066897 -0.0057550727920403378 0 -0.0022506509317729902 -0.0057007030751193071 0 -0.0021738984100474765 -0.0056945244106148887 0 -0.0021964597546538173 -0.0057577904209988708 0 -0.0021738984100474765 -0.0056945244106148887 0 -0.0021964597546538173 -0.0057577904209988708 0 -0.0021304743669170109 -0.0057283725188699902 0 -0.0022506509317729902 -0.0057007030751193071 0 -0.0022374269212066897 -0.0057550727920403378 0 -0.002260008566820106 -0.0057800975523279374 0 -0.0027310845129117499 -0.0051821758671365212 0 -0.0023926727340436247 -0.0055469026665673892 0 -0.0025001356447735116 -0.0052767331893384117 0 -0.0027310845129117499 -0.0051821758671365212 0 -0.0021964597546538173 -0.0057577904209988708 0 -0.0022420219568376784 -0.0057817874383656433 0 -0.0022374269212066897 -0.0057550727920403378 0 -0.0022420219568376784 -0.0057817874383656433 0 -0.0022374269212066897 -0.0057550727920403378 0 -0.002260008566820106 -0.0057800975523279374 0 -0.0027310845129117499 -0.0051821758671365212 0 -0.0027369049353242096 -0.0045539673606703598 0 -0.0035144535544414314 -0.0042099133840687534 0 -0.0034947865035579728 -0.004161845203914466 0 -0.0034655346490379624 -0.0042027070372384493 0 -0.0025492984420086135 -0.004707081610770927 0 -0.0024474452559067415 -0.0047422900708684254 0 -0.0024392866801873918 -0.0048562718059266203 0 -0.0024474452559067415 -0.0047422900708684254 0 -0.0024378605977647331 -0.0048589574354814284 0 -0.0023748420448538731 -0.0047421875742990512 0 -0.0024974372176057484 -0.0048410582420341909 0 -0.0027369049353242096 -0.0045539673606703598 0 -0.0024378605977647331 -0.0048589574354814284 0 -0.0023748420448538731 -0.0047421875742990512 0 -0.0022956133784848274 -0.0048799451841723676 0 -0.002085204032574603 -0.0057892020181620502 0 -0.0021304743669170109 -0.0057283725188699902 0 -0.0020697311756259153 -0.0056711873817001891 0 -0.002085204032574603 -0.0057892020181620502 0 -0.0019600741252171826 -0.0058113803209948163 0 -0.0020697311756259153 -0.0056711873817001891 0 -0.0021964597546538173 -0.0057577904209988708 0 -0.002085204032574603 -0.0057892020181620502 0 -0.0021304743669170109 -0.0057283725188699902 0 -0.0021738984100474765 -0.0056945244106148887 0 -0.0021304743669170109 -0.0057283725188699902 0 -0.0020697311756259153 -0.0056711873817001891 0 -0.0020276086829730563 -0.0049529085813308981 0 -0.0020328242429871008 -0.0049411130773232776 0 -0.0020140617970546919 -0.0049179124661653988 0 -0.0020959792152072873 -0.0051556367473127116 0 -0.0020266324167963479 -0.0053768232367984335 0 -0.0020276086829730563 -0.0049529085813308981 0 -0.0020328242429871008 -0.0049411130773232776 0 -0.0020305561900155087 -0.0049948132606236753 0 -0.0021895458902894431 -0.0049497860668918162 0 -0.0021921717402944639 -0.0047789272229954048 0 -0.0022956133784848274 -0.0048799451841723676 0 -0.0021624529397570166 -0.0052862597630346873 0 -0.0020959792152072873 -0.0051556367473127116 0 -0.0023748420448538731 -0.0047421875742990512 0 -0.0021921717402944639 -0.0047789272229954048 0 -0.0022956133784848274 -0.0048799451841723676 0 -0.0020389273221922315 -0.0049511239483111969 0 -0.0020959792152072873 -0.0051556367473127116 0 -0.0020328242429871008 -0.0049411130773232776 0 -0.0019689135472402849 -0.0049786382357428815 0 -0.0020140617970546919 -0.0049179124661653988 0 -0.0020959792152072873 -0.0051556367473127116 0 -0.0019755831393731128 -0.0049740469848215153 0 -0.0019789799623248106 -0.0050515559865624482 0 -0.0020653191789607272 -0.004957868931799201 0 -0.0019689135472402849 -0.0049786382357428815 0 -0.0019789799623248106 -0.0050515559865624482 0 -0.0019062510829168755 -0.005028757835483135 0 -0.0019689135472402849 -0.0049786382357428815 0 -0.0019286068891584407 -0.0049361161323445016 0 -0.0019689135472402849 -0.0049786382357428815 0 -0.0020140617970546919 -0.0049179124661653988 0 -0.0019286068891584407 -0.0049361161323445016 0 -0.0019963166986720748 -0.0048420231859955185 0 -0.0020140617970546919 -0.0049179124661653988 0 -0.0020276086829730563 -0.0049529085813308981 0 -0.0020140617970546919 -0.0049179124661653988 0 -0.0020144573004726189 -0.0049179947937713839 0 -0.0019963166986720748 -0.0048420231859955185 0 -0.0020140617970546919 -0.0049179124661653988 0 -0.0020144573004726189 -0.0049179947937713839 0 -0.0019963166986720748 -0.0048420231859955185 0 -0.0020144573004726189 -0.0049179947937713839 0 -0.0020248448446151686 -0.0049380126149432572 0 -0.0020144573004726189 -0.0049179947937713839 0 -0.0020248448446151686 -0.0049380126149432572 0 -0.0020268611151817327 -0.0049753092646155263 0 -0.0020276086829730563 -0.0049529085813308981 0 -0.0020144573004726189 -0.0049179947937713839 0 -0.0020268611151817327 -0.0049753092646155263 0 -0.0020462919043637605 -0.004982956419032865 0 -0.0020248448446151686 -0.0049380126149432572 0 -0.0020268611151817327 -0.0049753092646155263 0 -0.0020462919043637605 -0.004982956419032865 0 -0.0020268611151817327 -0.0049753092646155263 0 -0.0020449156403806357 -0.0050136049234549675 0 -0.0020449156403806357 -0.0050136049234549675 0 -0.002035567995888755 -0.0050247821428633039 0 -0.002038117726352488 -0.0050355828444520858 0 -0.0020268611151817327 -0.0049753092646155263 0 -0.0020449156403806357 -0.0050136049234549675 0 -0.002035567995888755 -0.0050247821428633039 0 -0.002035567995888755 -0.0050247821428633039 0 -0.002035943390088361 -0.0050033336574424117 0 -0.002058469056838264 -0.0050558481723606778 0 -0.0020268611151817327 -0.0049753092646155263 0 -0.002035567995888755 -0.0050247821428633039 0 -0.002035943390088361 -0.0050033336574424117 0 -0.0020276086829730563 -0.0049529085813308981 0 -0.002035943390088361 -0.0050033336574424117 0 -0.0020305561900155087 -0.0049948132606236753 0 -0.0020276086829730563 -0.0049529085813308981 0 -0.0020268611151817327 -0.0049753092646155263 0 -0.002035943390088361 -0.0050033336574424117 0 -0.002035943390088361 -0.0050033336574424117 0 -0.0020305561900155087 -0.0049948132606236753 0 -0.002058469056838264 -0.0050558481723606778 0 -0.0020266324167963479 -0.0053768232367984335 0 -0.0021689839768745151 -0.0052562502228592801 0 -0.0020305561900155087 -0.0049948132606236753 0 -0.002058469056838264 -0.0050558481723606778 0 -0.0021019727601842542 -0.0050988531538087726 0 -0.002058469056838264 -0.0050558481723606778 0 -0.0021019727601842542 -0.0050988531538087726 0 -0.0021211002876865281 -0.0050838784857467909 0 -0.0020697311756259153 -0.0056711873817001891 0 -0.0021951920703077769 -0.0054561029330593772 0 -0.0022368248490931726 -0.0055951810222530833 0 -0.0021738984100474765 -0.0056945244106148887 0 -0.0020697311756259153 -0.0056711873817001891 0 -0.0022368248490931726 -0.0055951810222530833 0 -0.0022506509317729902 -0.0057007030751193071 0 -0.0021738984100474765 -0.0056945244106148887 0 -0.0022368248490931726 -0.0055951810222530833 0 -0.0022531635877805268 -0.0050191836018937362 0 -0.0021471296283979173 -0.0050397640353056139 0 -0.0021373242920727552 -0.0049604167205865232 0 -0.0023438578832211238 -0.0051418775133158547 0 -0.0021019727601842542 -0.0050988531538087726 0 -0.0021211002876865281 -0.0050838784857467909 0 -0.0023438578832211238 -0.0051418775133158547 0 -0.0021471296283979173 -0.0050397640353056139 0 -0.0021211002876865281 -0.0050838784857467909 0 -0.0021471296283979173 -0.0050397640353056139 0 -0.0021211002876865281 -0.0050838784857467909 0 -0.0020791876853827281 -0.0050537464857714973 0 -0.002058469056838264 -0.0050558481723606778 0 -0.0020791876853827281 -0.0050537464857714973 0 -0.0020413239587022333 -0.0050433467927783557 0 -0.002058469056838264 -0.0050558481723606778 0 -0.0021211002876865281 -0.0050838784857467909 0 -0.0020791876853827281 -0.0050537464857714973 0 -0.0020791876853827281 -0.0050537464857714973 0 -0.0020574733355074692 -0.005027517539256795 0 -0.0020413239587022333 -0.0050433467927783557 0 -0.0021471296283979173 -0.0050397640353056139 0 -0.0020791876853827281 -0.0050537464857714973 0 -0.0020574733355074692 -0.005027517539256795 0 -0.0021471296283979173 -0.0050397640353056139 0 -0.0020574733355074692 -0.005027517539256795 0 -0.0021373242920727552 -0.0049604167205865232 0 -0.0020574733355074692 -0.005027517539256795 0 -0.0020413239587022333 -0.0050433467927783557 0 -0.0020257781531144202 -0.0050441469731009429 0 -0.0020574733355074692 -0.005027517539256795 0 -0.0020257781531144202 -0.0050441469731009429 0 -0.0020282165136068977 -0.0050411391858528245 0 -0.002035567995888755 -0.0050247821428633039 0 -0.002058469056838264 -0.0050558481723606778 0 -0.0020413239587022333 -0.0050433467927783557 0 -0.0020413239587022333 -0.0050433467927783557 0 -0.002038117726352488 -0.0050355828444520858 0 -0.0020257781531144202 -0.0050441469731009429 0 -0.002035567995888755 -0.0050247821428633039 0 -0.0020413239587022333 -0.0050433467927783557 0 -0.002038117726352488 -0.0050355828444520858 0 -0.0020449156403806357 -0.0050136049234549675 0 -0.002038117726352488 -0.0050355828444520858 0 -0.0020535084489150227 -0.0050286362655525656 0 -0.0020257781531144202 -0.0050441469731009429 0 -0.0019922076953192442 -0.0050711827739298365 0 -0.0020484438295219369 -0.0050470229705020051 0 -0.002038117726352488 -0.0050355828444520858 0 -0.0020257781531144202 -0.0050441469731009429 0 -0.0020484438295219369 -0.0050470229705020051 0 -0.0019970067974456954 -0.0050533744462487066 0 -0.0019600958119153559 -0.0052855553069000695 0 -0.0019922076953192442 -0.0050711827739298365 0 -0.0019621913797609257 -0.0050667535004255354 0 -0.0020498401012394927 -0.0050170243686858762 0 -0.0020257781531144202 -0.0050441469731009429 0 -0.0019922076953192442 -0.0050711827739298365 0 -0.0020282165136068977 -0.0050411391858528245 0 -0.0019296048789838489 -0.0051040081927409909 0 -0.0021074646013339612 -0.0051183858093501178 0 -0.0019922076953192442 -0.0050711827739298365 0 -0.0019266593000866615 -0.0051069108632763854 0 -0.0018673950345750913 -0.0051953005669999781 0 -0.0019922076953192442 -0.0050711827739298365 0 -0.0019266593000866615 -0.0051069108632763854 0 -0.0019621913797609257 -0.0050667535004255354 0 -0.0020487013282216486 -0.0051154237561017975 0 -0.0021375387847424737 -0.004999998348336099 0 -0.0018404503327159518 -0.0049999900586982261 0 -0.0019035079487171832 -0.0051432336305373364 0 -0.0020487013282216486 -0.0051154237561017975 0 -0.0018404503327159518 -0.0049999900586982261 0 -0.0020487013282216486 -0.0051154237561017975 0 -0.0021375387847424737 -0.004999998348336099 0 -0.0021539974824503101 -0.0052172938765025949 0 -0.0019035079487171832 -0.0051432336305373364 0 -0.0020487013282216486 -0.0051154237561017975 0 -0.0021539974824503101 -0.0052172938765025949 0 -0.0019922076953192442 -0.0050711827739298365 0 -0.0020282165136068977 -0.0050411391858528245 0 -0.0020498401012394927 -0.0050170243686858762 0 -0.0020574733355074692 -0.005027517539256795 0 -0.0020282165136068977 -0.0050411391858528245 0 -0.0020498401012394927 -0.0050170243686858762 0 -0.0021539974824503101 -0.0052172938765025949 0 -0.0023144894619932096 -0.0051342815390879011 0 -0.0023990039320533991 -0.0052856081741430479 0 -0.0020574733355074692 -0.005027517539256795 0 -0.0020498401012394927 -0.0050170243686858762 0 -0.0021373242920727552 -0.0049604167205865232 0 -0.0021074646013339612 -0.0051183858093501178 0 -0.0022676027717056266 -0.0051225699707612574 0 -0.0021375387847424737 -0.004999998348336099 0 -0.0021539974824503101 -0.0052172938765025949 0 -0.0023144894619932096 -0.0051342815390879011 0 -0.0021375387847424737 -0.004999998348336099 0 -0.0023144894619932096 -0.0051342815390879011 0 -0.002434579976926571 -0.0049999994306898013 0 -0.002565307954849206 -0.0052034818155003663 0 -0.0024346015572461917 -0.0049999941563440694 0 -0.0025329927118721272 -0.0051805487849080701 0 -0.0023144894619932096 -0.0051342815390879011 0 -0.002434579976926571 -0.0049999994306898013 0 -0.0025329927118721272 -0.0051805487849080701 0 -0.0023144894619932096 -0.0051342815390879011 0 -0.0023990039320533991 -0.0052856081741430479 0 -0.0015552344467524393 -0.0053406389164009126 0 -0.0013036622979075211 -0.0053805326518785498 0 -0.0014011450420240957 -0.0052795934974558768 0 -0.0015328987660554337 -0.0052073226654293925 0 -0.001331956181755132 -0.0047347501924886329 0 -0.0014821498897413853 -0.0047979777671989503 0 -0.0015896006103806532 -0.0047774812415533946 0 -0.0015044689946036999 -0.0047443366008437628 0 -0.0015552344467524393 -0.0053406389164009126 0 -0.0015249730205885265 -0.0052758407920585866 0 -0.0014011450420240957 -0.0052795934974558768 0 -0.0014821498897413853 -0.0047979777671989503 0 -0.0015044689946036999 -0.0047443366008437628 0 -0.0014515434222198546 -0.0047350863919210385 0 -0.0015596407881422465 -0.0053413499478671455 0 -0.0016233435998218833 -0.0052482355510649415 0 -0.0015249730205885265 -0.0052758407920585866 0 -0.0015328987660554337 -0.0052073226654293925 0 -0.0015515257179172894 -0.005278188189195553 0 -0.0012940034160258535 -0.0050532233485381566 0 -0.0013237985461193788 -0.0053023247858712732 0 -0.0012879390708589943 -0.0053615560910795119 0 -0.0013036622979075211 -0.0053805326518785498 0 -0.0014011450420240957 -0.0052795934974558768 0 -0.0012845617620023055 -0.0053684240529009858 0 -0.001278829118666291 -0.0052501816441182922 0 -0.0014011450420240957 -0.0052795934974558768 0 -0.0014427039401096046 -0.0037929238229040545 0 -0.0014390574073861254 -0.0038618989590724277 0 -0.0014100764978225507 -0.0037976429001656243 0 -0.001331956181755132 -0.0047347501924886329 0 -0.0012159544199941094 -0.0045914022669531693 0 -0.0013113726704003957 -0.004603955414095212 0 -0.0013650665096980976 -0.004668179630162487 0 -0.0011874537940715344 -0.0046967173029224072 0 -0.0012940034160258535 -0.0050532233485381566 0 -0.0012159544199941094 -0.0045914022669531693 0 -0.0012940034160258535 -0.0050532233485381566 0 -0.001331956181755132 -0.0047347501924886329 0 -0.0014427039401096046 -0.0037929238229040545 0 -0.0014390574073861254 -0.0038618989590724277 0 -0.0015465835908546582 -0.0039042582210783378 0 -0.0014390574073861254 -0.0038618989590724277 0 -0.0015465835908546582 -0.0039042582210783378 0 -0.0014097236571429309 -0.0039418016469567486 0 -0.001331956181755132 -0.0047347501924886329 0 -0.0015387083765485308 -0.0042326382505717009 0 -0.0015896006103806532 -0.0047774812415533946 0 -0.0015239432854471787 -0.0046932502652810241 0 -0.0015044689946036999 -0.0047443366008437628 0 -0.0015239432854471787 -0.0046932502652810241 0 -0.0015044689946036999 -0.0047443366008437628 0 -0.0014713349331364263 -0.0046898880075397133 0 -0.0017210137902031171 -0.0055773642231972936 0 -0.0016591281258787525 -0.0054525462620632608 0 -0.0017278786555376567 -0.0054047037081413341 0 -0.0014204472392303409 -0.0046698409446443226 0 -0.0014713349331364263 -0.0046898880075397133 0 -0.0014515434222198546 -0.0047350863919210385 0 -0.0017025720004529262 -0.0048774201288785263 0 -0.0015605820232935015 -0.0050962195350522637 0 -0.0015044689946036999 -0.0047443366008437628 0 -0.0014713349331364263 -0.0046898880075397133 0 -0.0014515434222198546 -0.0047350863919210385 0 -0.0017025720004529262 -0.0048774201288785263 0 -0.0019600958119153559 -0.0052855553069000695 0 -0.0017210137902031171 -0.0055773642231972936 0 -0.0018530614801642762 -0.0053810097686308308 0 -0.0017278786555376567 -0.0054047037081413341 0 -0.0020865313764457665 -0.0050149197782477506 0 -0.0020535084489150227 -0.0050286362655525656 0 -0.0020484438295219369 -0.0050470229705020051 0 -0.002038117726352488 -0.0050355828444520858 0 -0.0020535084489150227 -0.0050286362655525656 0 -0.0020484438295219369 -0.0050470229705020051 0 -0.0018530614801642762 -0.0053810097686308308 0 -0.0017362552000237043 -0.0052971318175677228 0 -0.0018673950345750913 -0.0051953005669999781 0 -0.0018530614801642762 -0.0053810097686308308 0 -0.0017278786555376567 -0.0054047037081413341 0 -0.0017362552000237043 -0.0052971318175677228 0 -0.0015328987660554337 -0.0052073226654293925 0 -0.0017215311908287865 -0.0052975925684039318 0 -0.0015910737209280806 -0.0053211966278072743 0 -0.0017278786555376567 -0.0054047037081413341 0 -0.0017362552000237043 -0.0052971318175677228 0 -0.0015596407881422465 -0.0053413499478671455 0 -0.0017362552000237043 -0.0052971318175677228 0 -0.0016233435998218833 -0.0052482355510649415 0 -0.0015328987660554337 -0.0052073226654293925 0 -0.0015605820232935015 -0.0050962195350522637 0 -0.0015910737209280806 -0.0053211966278072743 0 -0.0016591281258787525 -0.0054525462620632608 0 -0.0017278786555376567 -0.0054047037081413341 0 -0.0017362552000237043 -0.0052971318175677228 0 -0.0016233435998218833 -0.0052482355510649415 0 -0.0017469565718552756 -0.0051788666543628502 0 -0.0016233435998218833 -0.0052482355510649415 0 -0.0016330472506465596 -0.0051661780817605051 0 -0.0017469565718552756 -0.0051788666543628502 0 -0.0016330472506465596 -0.0051661780817605051 0 -0.0017469565718552756 -0.0051788666543628502 0 -0.0016796198400397867 -0.0051190415276025835 0 -0.0016233435998218833 -0.0052482355510649415 0 -0.0016330472506465596 -0.0051661780817605051 0 -0.001541211606508671 -0.0051808188498624567 0 -0.0016330472506465596 -0.0051661780817605051 0 -0.0015791275498231905 -0.0050997347039956576 0 -0.001541211606508671 -0.0051808188498624567 0 -0.0016330472506465596 -0.0051661780817605051 0 -0.0015791275498231905 -0.0050997347039956576 0 -0.0016796198400397867 -0.0051190415276025835 0 -0.0019922076953192442 -0.0050711827739298365 0 -0.0018530614801642762 -0.0053810097686308308 0 -0.0018673950345750913 -0.0051953005669999781 0 -0.0017362552000237043 -0.0052971318175677228 0 -0.0018673950345750913 -0.0051953005669999781 0 -0.0017469565718552756 -0.0051788666543628502 0 -0.0017469565718552756 -0.0051788666543628502 0 -0.0018576966969131004 -0.0051291761043631796 0 -0.0017921188126745246 -0.0051003337909352933 0 -0.0018673950345750913 -0.0051953005669999781 0 -0.0017469565718552756 -0.0051788666543628502 0 -0.0018576966969131004 -0.0051291761043631796 0 -0.0017469565718552756 -0.0051788666543628502 0 -0.0017921188126745246 -0.0051003337909352933 0 -0.0016796198400397867 -0.0051190415276025835 0 -0.0019266593000866615 -0.0051069108632763854 0 -0.0019621913797609257 -0.0050667535004255354 0 -0.0018576966969131004 -0.0051291761043631796 0 -0.0019621913797609257 -0.0050667535004255354 0 -0.0018576966969131004 -0.0051291761043631796 0 -0.0017921188126745246 -0.0051003337909352933 0 -0.0019266593000866615 -0.0051069108632763854 0 -0.0018673950345750913 -0.0051953005669999781 0 -0.0018576966969131004 -0.0051291761043631796 0 -0.0019296048789838489 -0.0051040081927409909 0 -0.0016786613920832636 -0.005053445918430763 0 -0.0019621913797609257 -0.0050667535004255354 0 -0.0017921188126745246 -0.0051003337909352933 0 -0.0016558238407182171 -0.0050521845368350646 0 -0.0019035079487171832 -0.0051432336305373364 0 -0.0018404503327159518 -0.0049999900586982261 0 -0.0016558238407182171 -0.0050521845368350646 0 -0.0018404503327159518 -0.0049999900586982261 0 -0.0016558238407182171 -0.0050521845368350646 0 -0.0015434111236003608 -0.0049999619039672837 0 -0.0015791275498231905 -0.0050997347039956576 0 -0.0016796198400397867 -0.0051190415276025835 0 -0.0016558238407182171 -0.0050521845368350646 0 -0.0017921188126745246 -0.0051003337909352933 0 -0.0016796198400397867 -0.0051190415276025835 0 -0.0016558238407182171 -0.0050521845368350646 0 -0.0015791275498231905 -0.0050997347039956576 0 -0.0016558238407182171 -0.0050521845368350646 0 -0.0015434111236003608 -0.0049999619039672837 0 -0.0015434111236003608 -0.0049999619039672837 0 -0.0014554494437656756 -0.0051215024266485594 0 -0.0012463288420812965 -0.0049999911508707079 0 -0.0015791275498231905 -0.0050997347039956576 0 -0.0015434111236003608 -0.0049999619039672837 0 -0.0014554494437656756 -0.0051215024266485594 0 -0.0015791275498231905 -0.0050997347039956576 0 -0.0014554494437656756 -0.0051215024266485594 0 -0.001541211606508671 -0.0051808188498624567 0 -0.0014554494437656756 -0.0051215024266485594 0 -0.001541211606508671 -0.0051808188498624567 0 -0.0014463859325769416 -0.0052049638474710516 0 -0.0014463859325769416 -0.0052049638474710516 0 -0.0015249730205885265 -0.0052758407920585866 0 -0.0014011450420240957 -0.0052795934974558768 0 -0.0016233435998218833 -0.0052482355510649415 0 -0.001541211606508671 -0.0051808188498624567 0 -0.0015249730205885265 -0.0052758407920585866 0 -0.001541211606508671 -0.0051808188498624567 0 -0.0014463859325769416 -0.0052049638474710516 0 -0.0015249730205885265 -0.0052758407920585866 0 -0.001278829118666291 -0.0052501816441182922 0 -0.0014011450420240957 -0.0052795934974558768 0 -0.0013099357035633973 -0.0051676770874198932 0 -0.0014463859325769416 -0.0052049638474710516 0 -0.0014011450420240957 -0.0052795934974558768 0 -0.0013099357035633973 -0.0051676770874198932 0 -0.0014554494437656756 -0.0051215024266485594 0 -0.0014463859325769416 -0.0052049638474710516 0 -0.0013099357035633973 -0.0051676770874198932 0 -0.0014554494437656756 -0.0051215024266485594 0 -0.0013099357035633973 -0.0051676770874198932 0 -0.0012463288420812965 -0.0049999911508707079 0 -0.0013099357035633973 -0.0051676770874198932 0 -0.0012463288420812965 -0.0049999911508707079 0 -0.0011201654682621803 -0.005185123191485644 0 -0.0012463288420812965 -0.0049999911508707079 0 -0.00094926477695472106 -0.0049999981396173961 0 -0.0011201654682621803 -0.005185123191485644 0 -0.00094924684571070172 -0.0049999753799836108 0 -0.0011044203348956087 -0.0052245629488742737 0 -0.00094920005797371088 -0.0049999986856870335 0 -0.0010748808698843042 -0.0051705527386241004 0 -0.00088222516070170286 -0.0051053198158622793 0 -0.0010748808698843042 -0.0051705527386241004 0 -0.00088222516070170286 -0.0051053198158622793 0 -0.00086532945121386583 -0.0052287959209468488 0 -0.0010748808698843042 -0.0051705527386241004 0 -0.00086532945121386583 -0.0052287959209468488 0 -0.0010725822863658263 -0.0052936173588091781 0 -0.0012940034160258535 -0.0050532233485381566 0 -0.0011044203348956087 -0.0052245629488742737 0 -0.001278829118666291 -0.0052501816441182922 0 -0.0013099357035633973 -0.0051676770874198932 0 -0.0011201654682621803 -0.005185123191485644 0 -0.0012845617620023055 -0.0053684240529009858 0 -0.001278829118666291 -0.0052501816441182922 0 -0.0011201654682621803 -0.005185123191485644 0 -0.00072826017127897592 -0.0051164797884011371 0 -0.00061174783647251999 -0.0052329873640078106 0 -0.00059636081052372701 -0.0049999987498174758 0 -0.00077279751711321182 -0.0049999901025167808 0 -0.00072826017127897592 -0.0051164797884011371 0 -0.00059636081052372701 -0.0049999987498174758 0 -0.00094920005797371088 -0.0049999986856870335 0 -0.00077279751711321182 -0.0049999901025167808 0 -0.00088222516070170286 -0.0051053198158622793 0 -0.00077279751711321182 -0.0049999901025167808 0 -0.00072826017127897592 -0.0051164797884011371 0 -0.00088222516070170286 -0.0051053198158622793 0 -0.00072826017127897592 -0.0051164797884011371 0 -0.00088222516070170286 -0.0051053198158622793 0 -0.00086532945121386583 -0.0052287959209468488 0 -0.00072826017127897592 -0.0051164797884011371 0 -0.00086532945121386583 -0.0052287959209468488 0 -0.00061174783647251999 -0.0052329873640078106 0 -0.00086532945121386583 -0.0052287959209468488 0 -0.00079713923926770036 -0.00542175700431324 0 -0.00061174783647251999 -0.0052329873640078106 0 -0.00079713923926770036 -0.00542175700431324 0 -0.00060801522425984154 -0.0054495105848182662 0 -0.00061174783647251999 -0.0052329873640078106 0 -0.00086532945121386583 -0.0052287959209468488 0 -0.00079713923926770036 -0.00542175700431324 0 -0.00098998735788688561 -0.0053890923829600194 0 -0.00088532654940289522 -0.0048213328748357475 0 -0.00088959048658581526 -0.0048461881680671812 0 -0.0009387770995880815 -0.0042472889237119378 0 -0.00088215045327262316 -0.0042232281074045053 0 -0.00093450721377272218 -0.00416726135505019 0 -0.00088532654940289522 -0.0048213328748357475 0 -0.00078076768296207126 -0.0049567217305769009 0 -0.0009387770995880815 -0.0042472889237119378 0 -0.00098988137933769512 -0.004187215357947807 0 -0.0010048469300705863 -0.0042371325604732227 0 -0.0010725822863658263 -0.0052936173588091781 0 -0.0011791755666003744 -0.005354856845785798 0 -0.00098998735788688561 -0.0053890923829600194 0 -0.0012105379237377554 -0.0053312464711923972 0 -0.0010748808698843042 -0.0051705527386241004 0 -0.0010725822863658263 -0.0052936173588091781 0 -0.0012105379237377554 -0.0053312464711923972 0 -0.0010725822863658263 -0.0052936173588091781 0 -0.0011791755666003744 -0.005354856845785798 0 -0.0012159544199941094 -0.0045914022669531693 0 -0.00088959048658581526 -0.0048461881680671812 0 -0.00086532945121386583 -0.0052287959209468488 0 -0.0010725822863658263 -0.0052936173588091781 0 -0.00098998735788688561 -0.0053890923829600194 0 -0.0009387770995880815 -0.0042472889237119378 0 -0.00088499705919761144 -0.0042552628987330048 0 -0.00088215045327262316 -0.0042232281074045053 0 -0.0008452040318577892 -0.0042683916119928521 0 -0.00088499705919761144 -0.0042552628987330048 0 -0.00088215045327262316 -0.0042232281074045053 0 -0.0014390574073861254 -0.0038618989590724277 0 -0.0014100764978225507 -0.0037976429001656243 0 -0.0012751456256465852 -0.0038896457326513226 0 -0.0012159544199941094 -0.0045914022669531693 0 -0.0010888525992237088 -0.003969678563981718 0 -0.0014390574073861254 -0.0038618989590724277 0 -0.0012751456256465852 -0.0038896457326513226 0 -0.0014097236571429309 -0.0039418016469567486 0 -0.0012751456256465852 -0.0038896457326513226 0 -0.0014097236571429309 -0.0039418016469567486 0 -0.0013129080330786182 -0.0039911605374091837 0 -0.0014097236571429309 -0.0039418016469567486 0 -0.0013879264812385723 -0.0040168465588077493 0 -0.0013129080330786182 -0.0039911605374091837 0 -0.0014766118017140522 -0.0040426260595076771 0 -0.0013533333644744673 -0.0040920319057617151 0 -0.0013879264812385723 -0.0040168465588077493 0 -0.0013533333644744673 -0.0040920319057617151 0 -0.0013879264812385723 -0.0040168465588077493 0 -0.0013129080330786182 -0.0039911605374091837 0 -0.0013129080330786182 -0.0039911605374091837 0 -0.001139515109532672 -0.0039851989693866427 0 -0.0012187855742961727 -0.0040791913462787533 0 -0.0013533333644744673 -0.0040920319057617151 0 -0.0013129080330786182 -0.0039911605374091837 0 -0.0012187855742961727 -0.0040791913462787533 0 -0.0012751456256465852 -0.0038896457326513226 0 -0.0013129080330786182 -0.0039911605374091837 0 -0.001139515109532672 -0.0039851989693866427 0 -0.0010888525992237088 -0.003969678563981718 0 -0.001032103887543358 -0.0040920185933953964 0 -0.0009387770995880815 -0.0042472889237119378 0 -0.00093450721377272218 -0.00416726135505019 0 -0.00098988137933769512 -0.004187215357947807 0 -0.001139515109532672 -0.0039851989693866427 0 -0.0011074930671694837 -0.0040968613728853479 0 -0.0010173738988355986 -0.0040997555894764703 0 -0.001032103887543358 -0.0040920185933953964 0 -0.0010221075868589928 -0.0040917190833078959 0 -0.00093450721377272218 -0.00416726135505019 0 -0.00098988137933769512 -0.004187215357947807 0 -0.0010173738988355986 -0.0040997555894764703 0 -0.001139515109532672 -0.0039851989693866427 0 -0.0012187855742961727 -0.0040791913462787533 0 -0.0011074930671694837 -0.0040968613728853479 0 -0.0012187855742961727 -0.0040791913462787533 0 -0.0011327571379580465 -0.0041673288878256425 0 -0.0012586786383027926 -0.0041811790071749353 0 -0.0012187855742961727 -0.0040791913462787533 0 -0.0011074930671694837 -0.0040968613728853479 0 -0.0011327571379580465 -0.0041673288878256425 0 -0.0011074930671694837 -0.0040968613728853479 0 -0.0010427224115130893 -0.0041367659034219862 0 -0.0010173738988355986 -0.0040997555894764703 0 -0.0011074930671694837 -0.0040968613728853479 0 -0.0010427224115130893 -0.0041367659034219862 0 -0.0011327571379580465 -0.0041673288878256425 0 -0.0011023552780283859 -0.0042292234912094705 0 -0.0010427182393878975 -0.004195060712290445 0 -0.0011327571379580465 -0.0041673288878256425 0 -0.0010427224115130893 -0.0041367659034219862 0 -0.0010427182393878975 -0.004195060712290445 0 -0.0011327571379580465 -0.0041673288878256425 0 -0.0011994281246038309 -0.0042632514977680612 0 -0.0011327571379580465 -0.0041673288878256425 0 -0.0012586786383027926 -0.0041811790071749353 0 -0.0011994281246038309 -0.0042632514977680612 0 -0.0011023552780283859 -0.0042292234912094705 0 -0.0011327571379580465 -0.0041673288878256425 0 -0.0013157281716193647 -0.0042879986670667607 0 -0.0012586786383027926 -0.0041811790071749353 0 -0.0013592119977675011 -0.0042520796578923974 0 -0.0013533333644744673 -0.0040920319057617151 0 -0.0012586786383027926 -0.0041811790071749353 0 -0.0013592119977675011 -0.0042520796578923974 0 -0.0014566248071034582 -0.0041684593041661049 0 -0.0013533333644744673 -0.0040920319057617151 0 -0.0013592119977675011 -0.0042520796578923974 0 -0.0013533333644744673 -0.0040920319057617151 0 -0.0012187855742961727 -0.0040791913462787533 0 -0.0012586786383027926 -0.0041811790071749353 0 0.00048175095696838602 -0.0046665664187924439 0 0.00053676453158659767 -0.0046484767514938484 0 0.00048300366730855485 -0.0047350838812814863 0 0.00053676453158659767 -0.0046484767514938484 0 0.00053297628412305245 -0.0048161464354726088 0 0.00048300366730855485 -0.0047350838812814863 0 0.00043919308327599536 -0.0046573732209301581 0 0.0004748812188789908 -0.0046251931676789364 0 0.00047936624505048582 -0.004611587003515159 0 0.00048175095696838602 -0.0046665664187924439 0 0.00043919308327599536 -0.0046573732209301581 0 0.0004748812188789908 -0.0046251931676789364 0 0.00048175095696838602 -0.0046665664187924439 0 0.00043919308327599536 -0.0046573732209301581 0 0.00048300366730855485 -0.0047350838812814863 0 0.0004748812188789908 -0.0046251931676789364 0 0.00047936624505048582 -0.004611587003515159 0 0.00048247893960480319 -0.0046194780548680188 0 0.00048175095696838602 -0.0046665664187924439 0 0.00049989235745385595 -0.0046171299194516947 0 0.00053676453158659767 -0.0046484767514938484 0 0.00048175095696838602 -0.0046665664187924439 0 0.0004748812188789908 -0.0046251931676789364 0 0.00049989235745385595 -0.0046171299194516947 0 -0.00096922246920691025 -0.0042141691900469515 0 -0.0010007464236823202 -0.004173263834422152 0 -0.00096866175558531914 -0.004171068245691135 0 0.00051882318572535509 -0.0045998738916617609 0 0.00049989235745385595 -0.0046171299194516947 0 0.00053676453158659767 -0.0046484767514938484 0 -0.00049093496582781372 -0.0044037575956375717 0 -0.00018558313235364753 -0.0044176312789827483 0 -0.0010427224115130893 -0.0041367659034219862 0 -0.0010427182393878975 -0.004195060712290445 0 -0.0010007464236823202 -0.004173263834422152 0 -0.00098867708841365474 -0.0042085392968086895 0 -0.0010427182393878975 -0.004195060712290445 0 -0.0010007464236823202 -0.004173263834422152 0 -0.00099844316810830083 -0.0041679266249798636 0 -0.00099555892394341018 -0.0041649286034961134 0 -0.0010427224115130893 -0.0041367659034219862 0 -0.0010110786588776875 -0.0041051985028340166 0 -0.0010173738988355986 -0.0040997555894764703 0 -0.0010427224115130893 -0.0041367659034219862 0 -0.0010007464236823202 -0.004173263834422152 0 -0.0010110786588776875 -0.0041051985028340166 0 -0.00018558313235364753 -0.0044176312789827483 0 -0.00023551414299485633 -0.0044692239264855944 0 -0.00096373148659979952 -0.0041791776076500683 0 -0.00096866175558531914 -0.004171068245691135 0 -0.00097564851673259635 -0.0042040252950038765 0 -0.0010007464236823202 -0.004173263834422152 0 -0.00096373148659979952 -0.0041791776076500683 0 -0.00096866175558531914 -0.004171068245691135 0 -0.0010110786588776875 -0.0041051985028340166 0 -0.0010256720002121925 -0.0041309636670750468 0 -0.001062265941457834 -0.0041540487985601803 0 -0.00099555892394341018 -0.0041649286034961134 0 -0.0010040642286251213 -0.0041092413285851196 0 -0.00096373148659979952 -0.0041791776076500683 0 -0.00095428994149410402 -0.0042237576701589724 0 -0.00097564851673259635 -0.0042040252950038765 0 -0.00098988137933769512 -0.004187215357947807 0 -0.0010173738988355986 -0.0040997555894764703 0 -0.0010157904476236039 -0.0041491090538400303 0 -0.0010110786588776875 -0.0041051985028340166 0 -0.0010173738988355986 -0.0040997555894764703 0 -0.0010256720002121925 -0.0041309636670750468 0 -0.0010256720002121925 -0.0041309636670750468 0 -0.0010157904476236039 -0.0041491090538400303 0 -0.0010335447859040976 -0.0041610886451681484 0 -0.0010173738988355986 -0.0040997555894764703 0 -0.0010256720002121925 -0.0041309636670750468 0 -0.0010157904476236039 -0.0041491090538400303 0 -0.00098988137933769512 -0.004187215357947807 0 -0.0010157904476236039 -0.0041491090538400303 0 -0.0010198127804995503 -0.0041813225818271979 0 -0.0010157904476236039 -0.0041491090538400303 0 -0.0010335447859040976 -0.0041610886451681484 0 -0.0010198127804995503 -0.0041813225818271979 0 -0.0010198127804995503 -0.0041813225818271979 0 -0.001042600801496146 -0.0041995068505031154 0 -0.0010059757379550301 -0.0042100047330084298 0 -0.0010335447859040976 -0.0041610886451681484 0 -0.0010198127804995503 -0.0041813225818271979 0 -0.001042600801496146 -0.0041995068505031154 0 -0.00098988137933769512 -0.004187215357947807 0 -0.0010198127804995503 -0.0041813225818271979 0 -0.0010059757379550301 -0.0042100047330084298 0 -0.0010040642286251213 -0.0041092413285851196 0 -0.00066331729199003877 -0.0048363950482670981 0 -0.001062265941457834 -0.0041540487985601803 0 -0.001042600801496146 -0.0041995068505031154 0 -0.0010889812083889629 -0.0042292847067789659 0 -0.00095428994149410402 -0.0042237576701589724 0 -0.00098865567638153841 -0.0042889079276154148 0 -0.0009678032050478854 -0.0042924948020373298 0 -0.00095428994149410402 -0.0042237576701589724 0 -0.00097564851673259635 -0.0042040252950038765 0 -0.00098865567638153841 -0.0042889079276154148 0 -0.0010256720002121925 -0.0041309636670750468 0 -0.0010335447859040976 -0.0041610886451681484 0 -0.001062265941457834 -0.0041540487985601803 0 -0.0010335447859040976 -0.0041610886451681484 0 -0.001062265941457834 -0.0041540487985601803 0 -0.001042600801496146 -0.0041995068505031154 0 -0.00023551414299485633 -0.0044692239264855944 0 -0.00016780779526109755 -0.0048622834635804555 0 0.00053297628412305245 -0.0048161464354726088 0 0.00044883763677755646 -0.004854682064433717 0 0.00043954725321679214 -0.0050176104432321789 0 0.0004027794197822075 -0.0049389507344233573 0 0.00044883763677755646 -0.004854682064433717 0 0.00043954725321679214 -0.0050176104432321789 0 0.0004027794197822075 -0.0049389507344233573 0 0.00039836499067064156 -0.0050107308302734842 0 0.00043954725321679214 -0.0050176104432321789 0 0.00053297628412305245 -0.0048161464354726088 0 0.00044883763677755646 -0.004854682064433717 0 0.00048300366730855485 -0.0047350838812814863 0 0.00043919308327599536 -0.0046573732209301581 0 0.00044883763677755646 -0.004854682064433717 0 0.00048300366730855485 -0.0047350838812814863 0 0.00040495473734751043 -0.004922754930832933 0 0.00044883763677755646 -0.004854682064433717 0 0.00039863377711986153 -0.0049169139548311943 0 0.00040495473734751043 -0.004922754930832933 0 0.00039863377711986153 -0.0049169139548311943 0 0.00040553709055110446 -0.0049351509136514827 0 0.00043464042780554357 -0.0047938236047234909 0 0.00045909546684966924 -0.0048545404944429623 0 0.00039863377711986153 -0.0049169139548311943 0 0.00037829213803973125 -0.0049585229975599287 0 0.00040553709055110446 -0.0049351509136514827 0 0.0004027794197822075 -0.0049389507344233573 0 0.00044883763677755646 -0.004854682064433717 0 0.00039863377711986153 -0.0049169139548311943 0 0.0004027794197822075 -0.0049389507344233573 0 0.00039863377711986153 -0.0049169139548311943 0 0.00037829213803973125 -0.0049585229975599287 0 0.0004027794197822075 -0.0049389507344233573 0 0.00037829213803973125 -0.0049585229975599287 0 0.00036431644613084022 -0.0049957404569102599 0 0.0004027794197822075 -0.0049389507344233573 0 0.00036431644613084022 -0.0049957404569102599 0 0.00039836499067064156 -0.0050107308302734842 0 0.00037829213803973125 -0.0049585229975599287 0 0.00036431644613084022 -0.0049957404569102599 0 0.00035212849294545654 -0.0050096332197927165 0 0.00036431644613084022 -0.0049957404569102599 0 0.00030914861982039908 -0.0050511456003353994 0 0.00035212849294545654 -0.0050096332197927165 0 0.00033880774561698146 -0.0050370596542141099 0 0.00036431644613084022 -0.0049957404569102599 0 0.00030914861982039908 -0.0050511456003353994 0 0.00033880774561698146 -0.0050370596542141099 0 0.00036431644613084022 -0.0049957404569102599 0 0.00039836499067064156 -0.0050107308302734842 0 -0.0002574835936949049 -0.0053516982501636695 0 -0.00023448628073000847 -0.0052762850181986417 0 -0.00027855762387471363 -0.0053474147747238849 0 0.00033880774561698146 -0.0050370596542141099 0 0.00039836499067064156 -0.0050107308302734842 0 0.00041139236066851763 -0.0050169335110769788 0 0.00017612847465737537 -0.0049303578394316551 0 -0.00016780779526109755 -0.0048622834635804555 0 -0.00016780779526109755 -0.0048622834635804555 0 -0.00066331729199003877 -0.0048363950482670981 0 -0.0001818826166311324 -0.0054942205101433635 0 -0.00066331729199003877 -0.0048363950482670981 0 -0.0002574835936949049 -0.0053516982501636695 0 -0.00023448628073000847 -0.0052762850181986417 0 -0.00021301806457428042 -0.0052634354814789196 0 -0.00016780779526109755 -0.0048622834635804555 0 2.9740127361083861e-05 -0.0052182371232036033 0 0.00033880774561698146 -0.0050370596542141099 0 0.00041139236066851763 -0.0050169335110769788 0 0.00021186146052486443 -0.0050839498440192381 0 0.00033880774561698146 -0.0050370596542141099 0 0.00030914861982039908 -0.0050511456003353994 0 0.00021186146052486443 -0.0050839498440192381 0 0.00030914861982039908 -0.0050511456003353994 0 0.00021186146052486443 -0.0050839498440192381 0 0.00026604150127780481 -0.0050825786254545327 0 -0.00078076768296207126 -0.0049567217305769009 0 -0.00090695130086976316 -0.0042318836048982622 0 -0.00098988137933769512 -0.004187215357947807 0 -0.0010048469300705863 -0.0042371325604732227 0 -0.0010059757379550301 -0.0042100047330084298 0 -0.001042600801496146 -0.0041995068505031154 0 -0.0010021231523999581 -0.0042420536137725562 0 -0.0010059757379550301 -0.0042100047330084298 0 -0.001042600801496146 -0.0041995068505031154 0 -0.0010021231523999581 -0.0042420536137725562 0 -0.0010889812083889629 -0.0042292847067789659 0 -0.00078076768296207126 -0.0049567217305769009 0 -0.00066331729199003877 -0.0048363950482670981 0 -0.00054826844754004547 -0.0054576963443425212 0 -0.00033180818507693544 -0.005494551326217967 0 -0.00041552123870360617 -0.0053389256753359508 0 -0.00023448628073000847 -0.0052762850181986417 0 -0.00033180818507693544 -0.005494551326217967 0 -0.00041552123870360617 -0.0053389256753359508 0 -0.00023448628073000847 -0.0052762850181986417 0 -0.00041552123870360617 -0.0053389256753359508 0 -0.00033643125350823539 -0.0052500794302558981 0 -0.00054826844754004547 -0.0054576963443425212 0 -0.00041552123870360617 -0.0053389256753359508 0 -0.00056238686006460754 -0.0052360417305580146 0 -0.00078076768296207126 -0.0049567217305769009 0 -0.00056055560717395534 -0.0053385858064493542 0 -0.00041552123870360617 -0.0053389256753359508 0 -0.00056238686006460754 -0.0052360417305580146 0 -0.00042215888773940912 -0.0051788750501530444 0 -0.00041552123870360617 -0.0053389256753359508 0 -0.00042215888773940912 -0.0051788750501530444 0 -0.00033643125350823539 -0.0052500794302558981 0 -0.00042215888773940912 -0.0051788750501530444 0 -0.00033643125350823539 -0.0052500794302558981 0 -0.00027898051799219657 -0.0051879189961904415 0 -0.00042215888773940912 -0.0051788750501530444 0 -0.00035398339835889951 -0.0049999871928300653 0 -0.00059627981713770192 -0.004999997925611707 0 -0.00042215888773940912 -0.0051788750501530444 0 -0.00035398339835889951 -0.0049999871928300653 0 -0.00027898051799219657 -0.0051879189961904415 0 -0.00056238686006460754 -0.0052360417305580146 0 -0.00042215888773940912 -0.0051788750501530444 0 -0.00059627981713770192 -0.004999997925611707 0 -0.00056055560717395534 -0.0053385858064493542 0 -0.00059634140950162653 -0.0049998654334976337 0 0.00021186146052486443 -0.0050839498440192381 0 0.00012726037875957093 -0.005065223218115698 0 0.00026604150127780481 -0.0050825786254545327 0 -0.00023448628073000847 -0.0052762850181986417 0 -0.00021301806457428042 -0.0052634354814789196 0 -0.00027898051799219657 -0.0051879189961904415 0 -0.00021301806457428042 -0.0052634354814789196 0 -0.00027898051799219657 -0.0051879189961904415 0 -0.00011166037015943084 -0.0050000016862467014 0 -0.00023448628073000847 -0.0052762850181986417 0 -0.00033643125350823539 -0.0052500794302558981 0 -0.00027898051799219657 -0.0051879189961904415 0 -0.00035398339835889951 -0.0049999871928300653 0 -0.00027898051799219657 -0.0051879189961904415 0 -0.00011166037015943084 -0.0050000016862467014 0 2.9740127361083861e-05 -0.0052182371232036033 0 -0.00011157329225578646 -0.0049998738288804592 0 0.00021186146052486443 -0.0050839498440192381 0 -0.00011106661949485182 -0.0049999926545201342 0 0.00012726037875957093 -0.005065223218115698 0 -0.00011106661949485182 -0.0049999926545201342 0 0.0001415580813947956 -0.0049999406625171675 0 0.00012726037875957093 -0.005065223218115698 0 0.0001415580813947956 -0.0049999406625171675 0 0.00012726037875957093 -0.005065223218115698 0 0.00030054171781121648 -0.0050651985715082894 0 0.00012726037875957093 -0.005065223218115698 0 0.00030054171781121648 -0.0050651985715082894 0 0.00026604150127780481 -0.0050825786254545327 0 0.00030054171781121648 -0.0050651985715082894 0 0.00043003497985682213 -0.0051202686407360509 0 0.00026604150127780481 -0.0050825786254545327 0 0.0001415580813947956 -0.0049999406625171675 0 0.00030054171781121648 -0.0050651985715082894 0 0.00039470180670336021 -0.0049999338165712705 0 0.00030054171781121648 -0.0050651985715082894 0 0.00039470180670336021 -0.0049999338165712705 0 0.00051054970112772164 -0.0050641960678962832 0 0.00039470180670336021 -0.0049999338165712705 0 0.00051054970112772164 -0.0050641960678962832 0 0.00064786063691081737 -0.0049999372075772743 0 0.00051054970112772164 -0.0050641960678962832 0 0.00064786063691081737 -0.0049999372075772743 0 0.00066323187637295285 -0.0051108668080346769 0 0.00051054970112772164 -0.0050641960678962832 0 0.00043003497985682213 -0.0051202686407360509 0 0.00066323187637295285 -0.0051108668080346769 0 0.00030054171781121648 -0.0050651985715082894 0 0.00051054970112772164 -0.0050641960678962832 0 0.00043003497985682213 -0.0051202686407360509 0 0.00043003497985682213 -0.0051202686407360509 0 0.00039637974222954717 -0.0050055509775217832 0 0.00037877165788654073 -0.005066176619491514 0 0.0004375846279329426 -0.005113858694153926 0 0.00050990141507740549 -0.0051255661917045886 0 0.00043003497985682213 -0.0051202686407360509 0 0.00066323187637295285 -0.0051108668080346769 0 0.00070263267474383602 -0.0052308256381564631 0 0.00043003497985682213 -0.0051202686407360509 0 0.0006168367754699458 -0.0052632472033808577 0 0.00070263267474383602 -0.0052308256381564631 0 0.0006168367754699458 -0.0052632472033808577 0 0.00070263267474383602 -0.0052308256381564631 0 0.00067584012620364197 -0.0052336676781437209 0 0.00039637974222954717 -0.0050055509775217832 0 0.00037877165788654073 -0.005066176619491514 0 0.000418127734083697 -0.0049786324976277083 0 0.00037877165788654073 -0.005066176619491514 0 0.00038267127838795555 -0.0049916196511385772 0 0.000418127734083697 -0.0049786324976277083 0 0.00037877165788654073 -0.005066176619491514 0 0.00033835432649822735 -0.0050452876338747364 0 0.00038267127838795555 -0.0049916196511385772 0 0.00035212849294545654 -0.0050096332197927165 0 0.00033835432649822735 -0.0050452876338747364 0 0.00038267127838795555 -0.0049916196511385772 0 0.00030914861982039908 -0.0050511456003353994 0 0.00035212849294545654 -0.0050096332197927165 0 0.00033835432649822735 -0.0050452876338747364 0 0.00030914861982039908 -0.0050511456003353994 0 0.00033835432649822735 -0.0050452876338747364 0 0.00026604150127780481 -0.0050825786254545327 0 0.00043003497985682213 -0.0051202686407360509 0 0.00037877165788654073 -0.005066176619491514 0 0.00026604150127780481 -0.0050825786254545327 0 0.00037877165788654073 -0.005066176619491514 0 0.00033835432649822735 -0.0050452876338747364 0 0.00026604150127780481 -0.0050825786254545327 0 0.0010554974982333845 -0.0051752573939509872 0 0.0011837077227661891 -0.0053088936223831731 0 0.0012989845292377524 -0.0051782138130139453 0 0.0011802242382315715 -0.0049999765654024182 0 0.0010554974982333845 -0.0051752573939509872 0 0.0012989845292377524 -0.0051782138130139453 0 0.0011802242382315715 -0.0049999765654024182 0 0.0010554974982333845 -0.0051752573939509872 0 0.00090103761304564847 -0.0049999848814382616 0 0.00098820166994752299 -0.0051224808329033335 0 0.00090098229431448472 -0.0050000114793167308 0 0.00081056285300323393 -0.0050725399215454103 0 0.00066323187637295285 -0.0051108668080346769 0 0.00084711548622510842 -0.0051553280877946741 0 0.00091712108843203786 -0.0050799706812450435 0 0.00081056285300323393 -0.0050725399215454103 0 0.00084711548622510842 -0.0051553280877946741 0 0.00091712108843203786 -0.0050799706812450435 0 0.00081056285300323393 -0.0050725399215454103 0 0.00090075933950377568 -0.0049999213725208901 0 0.00081056285300323393 -0.0050725399215454103 0 0.00090075933950377568 -0.0049999213725208901 0 0.00064786063691081737 -0.0049999372075772743 0 0.00081056285300323393 -0.0050725399215454103 0 0.00064786063691081737 -0.0049999372075772743 0 0.00066323187637295285 -0.0051108668080346769 0 0.00066323187637295285 -0.0051108668080346769 0 0.00070263267474383602 -0.0052308256381564631 0 0.00084711548622510842 -0.0051553280877946741 0 0.00070263267474383602 -0.0052308256381564631 0 0.00087019218704858516 -0.0052565402475863278 0 0.00084711548622510842 -0.0051553280877946741 0 0.00070263267474383602 -0.0052308256381564631 0 0.00087019218704858516 -0.0052565402475863278 0 0.00078479619872624991 -0.005300789433800605 0 0.00091712108843203786 -0.0050799706812450435 0 0.00084711548622510842 -0.0051553280877946741 0 0.0010344221928484554 -0.0051694203429256923 0 0.00098820166994752299 -0.0051224808329033335 0 0.0011110461681872476 -0.0052452891637982928 0 0.00087019218704858516 -0.0052565402475863278 0 0.00084711548622510842 -0.0051553280877946741 0 0.0010344221928484554 -0.0051694203429256923 0 0.00087019218704858516 -0.0052565402475863278 0 0.0010228356002422931 -0.0053091089456841854 0 0.0010344221928484554 -0.0051694203429256923 0 0.0011837077227661891 -0.0053088936223831731 0 0.001234537742726795 -0.0053892745562162999 0 0.0013178612006029689 -0.0053043918029898477 0 0.0010228356002422931 -0.0053091089456841854 0 0.0010344221928484554 -0.0051694203429256923 0 0.001234537742726795 -0.0053892745562162999 0 0.0011110461681872476 -0.0052452891637982928 0 0.0012234051518710705 -0.0053854067282703925 0 0.0011837077227661891 -0.0053088936223831731 0 0.0013178612006029689 -0.0053043918029898477 0 0.0012989845292377524 -0.0051782138130139453 0 0.0011900608241450109 -0.0054978016667425788 0 0.0010529149259986251 -0.0054459242769139783 0 0.0011499460074721 -0.0056202005962277942 0 0.0011900608241450109 -0.0054978016667425788 0 0.0011499460074721 -0.0056202005962277942 0 0.001307592417616634 -0.0055426707591619247 0 0.0011900608241450109 -0.0054978016667425788 0 0.001234537742726795 -0.0053892745562162999 0 0.0010529149259986251 -0.0054459242769139783 0 0.0010228356002422931 -0.0053091089456841854 0 0.001234537742726795 -0.0053892745562162999 0 0.0010529149259986251 -0.0054459242769139783 0 0.0010228356002422931 -0.0053091089456841854 0 0.0010529149259986251 -0.0054459242769139783 0 0.00091007622099091329 -0.005364040729742869 0 0.0010529149259986251 -0.0054459242769139783 0 0.00091007622099091329 -0.005364040729742869 0 0.0008602246425175764 -0.0054883853039756599 0 0.00087019218704858516 -0.0052565402475863278 0 0.0010228356002422931 -0.0053091089456841854 0 0.00091007622099091329 -0.005364040729742869 0 0.00078913796777265257 -0.0053240115904715137 0 0.0010556431780442709 -0.0054836952904211683 0 0.00069817723415950387 -0.005144597965676 0 0.00074727010065330955 -0.0051121473606621426 0 0.0010529149259986251 -0.0054459242769139783 0 0.0008602246425175764 -0.0054883853039756599 0 0.0011499460074721 -0.0056202005962277942 0 0.00070491384104123258 -0.0051548168827903924 0 0.00082407119849388865 -0.0053251077817818805 0 0.00096760165591215468 -0.0053511053471677547 0 0.00067831404179897082 -0.0051479993608041161 0 0.00070491384104123258 -0.0051548168827903924 0 0.00067584012620364197 -0.0052336676781437209 0 0.00067831404179897082 -0.0051479993608041161 0 0.00065915631282693183 -0.0049668700912629702 0 0.00064534489195019128 -0.0048811672191777875 0 0.00078913796777265257 -0.0053240115904715137 0 0.00069163851742135279 -0.005247749337543562 0 0.00067831404179897082 -0.0051479993608041161 0 0.00070491384104123258 -0.0051548168827903924 0 0.00082407119849388865 -0.0053251077817818805 0 0.0006758964543071551 -0.0050355379987506339 0 0.00067831404179897082 -0.0051479993608041161 0 0.00065915631282693183 -0.0049668700912629702 0 0.00091007622099091329 -0.005364040729742869 0 0.0008602246425175764 -0.0054883853039756599 0 0.00078479619872624991 -0.005300789433800605 0 0.0008602246425175764 -0.0054883853039756599 0 0.00078479619872624991 -0.005300789433800605 0 0.00067584012620364197 -0.0052336676781437209 0 0.00087019218704858516 -0.0052565402475863278 0 0.00091007622099091329 -0.005364040729742869 0 0.00078479619872624991 -0.005300789433800605 0 0.00070263267474383602 -0.0052308256381564631 0 0.00078479619872624991 -0.005300789433800605 0 0.00067584012620364197 -0.0052336676781437209 0 0.00067831404179897082 -0.0051479993608041161 0 0.00067584012620364197 -0.0052336676781437209 0 0.00068933797437277457 -0.0051251536468493513 0 0.00067584012620364197 -0.0052336676781437209 0 0.00068933797437277457 -0.0051251536468493513 0 0.00076393804747342518 -0.005128162130488975 0 0.0006758964543071551 -0.0050355379987506339 0 0.00067831404179897082 -0.0051479993608041161 0 0.00068933797437277457 -0.0051251536468493513 0 0.0006758964543071551 -0.0050355379987506339 0 0.00068933797437277457 -0.0051251536468493513 0 0.0006901638441598638 -0.0050175349687427472 0 0.00068933797437277457 -0.0051251536468493513 0 0.0006901638441598638 -0.0050175349687427472 0 0.00076393804747342518 -0.005128162130488975 0 0.0006901638441598638 -0.0050175349687427472 0 0.00068640197672127006 -0.004869503944523559 0 0.00065685300084379421 -0.0049264192101890723 0 0.0006901638441598638 -0.0050175349687427472 0 0.00068640197672127006 -0.004869503944523559 0 0.00076393804747342518 -0.005128162130488975 0 0.0006758964543071551 -0.0050355379987506339 0 0.0006901638441598638 -0.0050175349687427472 0 0.00065685300084379421 -0.0049264192101890723 0 0.00068640197672127006 -0.004869503944523559 0 0.00065577534782515826 -0.0048649255826021115 0 0.00065685300084379421 -0.0049264192101890723 0 0.00068640197672127006 -0.004869503944523559 0 0.00065577534782515826 -0.0048649255826021115 0 0.00069224988995860446 -0.0048200364802061949 0 0.00065577534782515826 -0.0048649255826021115 0 0.00065644050970187261 -0.0048529845383620904 0 0.00063039266867450251 -0.0048407442509866361 0 0.00065577534782515826 -0.0048649255826021115 0 0.00065685300084379421 -0.0049264192101890723 0 0.00065644050970187261 -0.0048529845383620904 0 0.00065685300084379421 -0.0049264192101890723 0 0.00065435795800041548 -0.0048841402398402635 0 0.00065644050970187261 -0.0048529845383620904 0 0.00065685300084379421 -0.0049264192101890723 0 0.00065915631282693183 -0.0049668700912629702 0 0.00065435795800041548 -0.0048841402398402635 0 0.0006758964543071551 -0.0050355379987506339 0 0.00065685300084379421 -0.0049264192101890723 0 0.00065915631282693183 -0.0049668700912629702 0 0.00065915631282693183 -0.0049668700912629702 0 0.00064534489195019128 -0.0048811672191777875 0 0.00065435795800041548 -0.0048841402398402635 0 0.00064534489195019128 -0.0048811672191777875 0 0.00065435795800041548 -0.0048841402398402635 0 0.00071334915394479176 -0.0048216745089548338 0 0.00065644050970187261 -0.0048529845383620904 0 0.00073345246335952501 -0.0048053606878283245 0 0.00070323677055648579 -0.0048730686789899749 0 0.00065644050970187261 -0.0048529845383620904 0 0.00071334915394479176 -0.0048216745089548338 0 0.00073345246335952501 -0.0048053606878283245 0 0.00065435795800041548 -0.0048841402398402635 0 0.00065644050970187261 -0.0048529845383620904 0 0.00071334915394479176 -0.0048216745089548338 0 0.00071334915394479176 -0.0048216745089548338 0 0.00073345246335952501 -0.0048053606878283245 0 0.00082001623753864817 -0.0047338601456192574 0 0.00082001623753864817 -0.0047338601456192574 0 0.00070323677055648579 -0.0048730686789899749 0 0.00094473945829125227 -0.0046307271775310396 0 0.00071334915394479176 -0.0048216745089548338 0 0.00082001623753864817 -0.0047338601456192574 0 0.00079169083544806766 -0.0047742670241540681 0 0.00073345246335952501 -0.0048053606878283245 0 0.00082001623753864817 -0.0047338601456192574 0 0.00070323677055648579 -0.0048730686789899749 0 0.00064534489195019128 -0.0048811672191777875 0 0.00071334915394479176 -0.0048216745089548338 0 0.00079169083544806766 -0.0047742670241540681 0 0.00074727010065330955 -0.0051121473606621426 0 0.00098834945390872541 -0.0052600506225476823 0 0.00082407119849388865 -0.0053251077817818805 0 0.00096760165591215468 -0.0053511053471677547 0 0.0011540189918406787 -0.0056493963130308539 0 0.00045047349364179932 -0.0049226399518026093 0 0.00046442591531668266 -0.0049300346340834219 0 0.00041982863232387877 -0.0049526092818470346 0 0.00045047349364179932 -0.0049226399518026093 0 0.00046442591531668266 -0.0049300346340834219 0 0.0005409084376259074 -0.0048994878083872869 0 0.00040495473734751043 -0.004922754930832933 0 0.00045047349364179932 -0.0049226399518026093 0 0.00040553709055110446 -0.0049351509136514827 0 0.00045047349364179932 -0.0049226399518026093 0 0.00040553709055110446 -0.0049351509136514827 0 0.00041982863232387877 -0.0049526092818470346 0 0.00040553709055110446 -0.0049351509136514827 0 0.00038267127838795555 -0.0049916196511385772 0 0.00041982863232387877 -0.0049526092818470346 0 0.00037829213803973125 -0.0049585229975599287 0 0.00035212849294545654 -0.0050096332197927165 0 0.00038267127838795555 -0.0049916196511385772 0 0.00037829213803973125 -0.0049585229975599287 0 0.00040553709055110446 -0.0049351509136514827 0 0.00038267127838795555 -0.0049916196511385772 0 0.00038267127838795555 -0.0049916196511385772 0 0.000418127734083697 -0.0049786324976277083 0 0.00041982863232387877 -0.0049526092818470346 0 0.00046442591531668266 -0.0049300346340834219 0 0.000418127734083697 -0.0049786324976277083 0 0.00041982863232387877 -0.0049526092818470346 0 0.00046442591531668266 -0.0049300346340834219 0 0.000418127734083697 -0.0049786324976277083 0 0.00045874955505005057 -0.0049450669315724569 0 0.00039637974222954717 -0.0050055509775217832 0 0.000418127734083697 -0.0049786324976277083 0 0.00045874955505005057 -0.0049450669315724569 0 0.00039637974222954717 -0.0050055509775217832 0 0.00050478592578661967 -0.0049080356978756876 0 0.00045874955505005057 -0.0049450669315724569 0 0.00050990141507740549 -0.0051255661917045886 0 0.00063096532438605029 -0.0050205392511820327 0 0.0006168367754699458 -0.0052632472033808577 0 0.00067584012620364197 -0.0052336676781437209 0 0.00076393804747342518 -0.005128162130488975 0 0.00050478592578661967 -0.0049080356978756876 0 0.00049359045302672163 -0.0049197729236867141 0 0.0005409084376259074 -0.0048994878083872869 0 0.00046442591531668266 -0.0049300346340834219 0 0.00049359045302672163 -0.0049197729236867141 0 0.0005409084376259074 -0.0048994878083872869 0 0.00046442591531668266 -0.0049300346340834219 0 0.00045874955505005057 -0.0049450669315724569 0 0.00049359045302672163 -0.0049197729236867141 0 0.00050478592578661967 -0.0049080356978756876 0 0.00045874955505005057 -0.0049450669315724569 0 0.00049359045302672163 -0.0049197729236867141 0 0.00050478592578661967 -0.0049080356978756876 0 0.0005409084376259074 -0.0048994878083872869 0 0.00060990000133519468 -0.0048813039789082141 0 0.00068640197672127006 -0.004869503944523559 0 0.00050478592578661967 -0.0049080356978756876 0 0.00060990000133519468 -0.0048813039789082141 0 0.0006790593406777759 -0.0048886990145997457 0 0.00063096532438605029 -0.0050205392511820327 0 0.00068640197672127006 -0.004869503944523559 0 0.00060990000133519468 -0.0048813039789082141 0 0.00067305222255850975 -0.0048473712828262924 0 0.00067305222255850975 -0.0048473712828262924 0 0.00061307614529020472 -0.0048990359101422415 0 0.00069465481041245942 -0.0048060769757965931 0 0.00068640197672127006 -0.004869503944523559 0 0.00067305222255850975 -0.0048473712828262924 0 0.00069224988995860446 -0.0048200364802061949 0 0.0005409084376259074 -0.0048994878083872869 0 0.00061307614529020472 -0.0048990359101422415 0 0.00047755718981391001 -0.004931529996361885 0 0.0005409084376259074 -0.0048994878083872869 0 0.00060990000133519468 -0.0048813039789082141 0 0.00061307614529020472 -0.0048990359101422415 0 0.00060990000133519468 -0.0048813039789082141 0 0.00067305222255850975 -0.0048473712828262924 0 0.00061307614529020472 -0.0048990359101422415 0 0.00067015969111583408 -0.0047268209974447532 0 0.00051857083795111007 -0.0047492537020145959 0 0.00074429049466261902 -0.0045699753703965056 0 0.00054829949368624057 -0.0045620636184293501 0 0.00061440449860934731 -0.0045944575923807813 0 0.00045047349364179932 -0.0049226399518026093 0 0.0005409084376259074 -0.0048994878083872869 0 0.00047755718981391001 -0.004931529996361885 0 0.00043464042780554357 -0.0047938236047234909 0 0.00051857083795111007 -0.0047492537020145959 0 0.00040495473734751043 -0.004922754930832933 0 0.00045047349364179932 -0.0049226399518026093 0 0.00047755718981391001 -0.004931529996361885 0 0.00043919308327599536 -0.0046573732209301581 0 0.00054829949368624057 -0.0045620636184293501 0 0.00047936624505048582 -0.004611587003515159 0 0.00054829949368624057 -0.0045620636184293501 0 0.00061440449860934731 -0.0045944575923807813 0 0.00048247893960480319 -0.0046194780548680188 0 0.00054829949368624057 -0.0045620636184293501 0 0.00047936624505048582 -0.004611587003515159 0 0.00048247893960480319 -0.0046194780548680188 0 0.00048543072317672214 -0.0046147625141455045 0 0.00055401519967003955 -0.0046245768955786607 0 0.00048247893960480319 -0.0046194780548680188 0 0.00047715649373567529 -0.0046043702307185866 0 0.00047393049793162238 -0.0046055283707278384 0 0.00061440449860934731 -0.0045944575923807813 0 0.00048247893960480319 -0.0046194780548680188 0 0.00061906222458112624 -0.004649935560913288 0 0.00068624059752704462 -0.0046015930360034703 0 0.00061906222458112624 -0.004649935560913288 0 0.00076663897813745844 -0.0045949244333082255 0 0.00074429049466261902 -0.0045699753703965056 0 0.00061440449860934731 -0.0045944575923807813 0 0.00068624059752704462 -0.0046015930360034703 0 0.00061440449860934731 -0.0045944575923807813 0 0.00068624059752704462 -0.0046015930360034703 0 0.00061906222458112624 -0.004649935560913288 0 -0.00042107147501080101 -0.0041583920836419895 0 -0.00031586620816773461 -0.0042443085169641308 0 -0.00017239250403785171 -0.004196851729729131 0 5.5326415128963206e-05 -0.0043882934214687129 0 -2.4560272382732911e-05 -0.0043876657141630644 0 0.00047715649373567529 -0.0046043702307185866 0 0.00047393049793162238 -0.0046055283707278384 0 0.00048961829195559939 -0.0046145577734527888 0 -0.00042107147501080101 -0.0041583920836419895 0 -0.00041241600579618669 -0.0042455643574848285 0 -0.00031586620816773461 -0.0042443085169641308 0 -0.00051501378668908219 -0.0042464022121637439 0 -0.00042107147501080101 -0.0041583920836419895 0 -0.00041241600579618669 -0.0042455643574848285 0 -0.00051501378668908219 -0.0042464022121637439 0 -0.00041241600579618669 -0.0042455643574848285 0 -0.00044345048553496566 -0.0043263578761553968 0 -0.00055953364861907335 -0.0043423108446337538 0 -0.00044345048553496566 -0.0043263578761553968 0 -0.00049325558722622018 -0.0043869529769488772 0 -0.00044345048553496566 -0.0043263578761553968 0 -0.00049325558722622018 -0.0043869529769488772 0 -0.00041369049471491544 -0.0043998446328246399 0 -0.00044345048553496566 -0.0043263578761553968 0 -0.00032152652230118541 -0.0043297474507576717 0 -0.00041369049471491544 -0.0043998446328246399 0 -0.00041241600579618669 -0.0042455643574848285 0 -0.00044345048553496566 -0.0043263578761553968 0 -0.00032152652230118541 -0.0043297474507576717 0 -0.00041241600579618669 -0.0042455643574848285 0 -0.00031586620816773461 -0.0042443085169641308 0 -0.00032152652230118541 -0.0043297474507576717 0 -0.00031586620816773461 -0.0042443085169641308 0 -0.0002363968814947707 -0.0042772175883205492 0 -0.00032152652230118541 -0.0043297474507576717 0 -0.00031586620816773461 -0.0042443085169641308 0 -0.0002363968814947707 -0.0042772175883205492 0 -0.00017239250403785171 -0.004196851729729131 0 -0.0002363968814947707 -0.0042772175883205492 0 -0.00021925361744231411 -0.0043357013881161928 0 -0.0001688434500662016 -0.0042969066094336828 0 -0.00021925361744231411 -0.0043357013881161928 0 -0.00032152652230118541 -0.0043297474507576717 0 -0.00024989054594835679 -0.0044078583098014698 0 -0.0002363968814947707 -0.0042772175883205492 0 -0.00021925361744231411 -0.0043357013881161928 0 -0.00032152652230118541 -0.0043297474507576717 0 -0.00021925361744231411 -0.0043357013881161928 0 -0.00024989054594835679 -0.0044078583098014698 0 -0.00015112358300237155 -0.0043738915254845669 0 -0.00033274493328254705 -0.0044199503282140633 0 -0.00024989054594835679 -0.0044078583098014698 0 -0.00029615383799419022 -0.0044788847649361316 0 -0.00032152652230118541 -0.0043297474507576717 0 -0.00033274493328254705 -0.0044199503282140633 0 -0.00024989054594835679 -0.0044078583098014698 0 -0.00024989054594835679 -0.0044078583098014698 0 -0.00029615383799419022 -0.0044788847649361316 0 -0.00018753102314975179 -0.0044817992306965234 0 -0.00029615383799419022 -0.0044788847649361316 0 -0.00018753102314975179 -0.0044817992306965234 0 -0.00024973782809816137 -0.0045547676111619383 0 -0.00033274493328254705 -0.0044199503282140633 0 -0.00029615383799419022 -0.0044788847649361316 0 -0.00039378058096523771 -0.004467622836566678 0 -0.00029615383799419022 -0.0044788847649361316 0 -0.00039378058096523771 -0.004467622836566678 0 -0.00038184400859527803 -0.0045442958030302511 0 -0.00039378058096523771 -0.004467622836566678 0 -0.00048136763662679497 -0.0044430119238993851 0 -0.00046860968595384297 -0.0045180399050983944 0 -0.00039378058096523771 -0.004467622836566678 0 -0.00048136763662679497 -0.0044430119238993851 0 -0.00041369049471491544 -0.0043998446328246399 0 -0.00048136763662679497 -0.0044430119238993851 0 -0.00049325558722622018 -0.0043869529769488772 0 -0.00041369049471491544 -0.0043998446328246399 0 -0.00032152652230118541 -0.0043297474507576717 0 -0.00033274493328254705 -0.0044199503282140633 0 -0.00041369049471491544 -0.0043998446328246399 0 -0.00033274493328254705 -0.0044199503282140633 0 -0.00039378058096523771 -0.004467622836566678 0 -0.00041369049471491544 -0.0043998446328246399 0 0.0022214899347206799 -0.0042372149827716084 0 0.0019848267634480377 -0.0039379475024415734 0 0.0023312519362090499 -0.0037797107895494769 0 0.0024684596769602046 -0.0040545112550195326 0 0.0022214899347206799 -0.0042372149827716084 0 0.0023312519362090499 -0.0037797107895494769 0 -3.2579017457172109e-05 -0.0044361333660033302 0 -0.00018753102314975179 -0.0044817992306965234 0 -0.00015112358300237155 -0.0043738915254845669 0 -3.2579017457172109e-05 -0.0044361333660033302 0 -0.00018753102314975179 -0.0044817992306965234 0 -0.00014796420974130144 -0.0045943818874208562 0 -0.00024989054594835679 -0.0044078583098014698 0 -0.00018753102314975179 -0.0044817992306965234 0 -0.00015112358300237155 -0.0043738915254845669 0 -6.3503661337332491e-05 -0.0042981397912900607 0 8.8822022651580045e-05 -0.004256059521396161 0 -0.00017239250403785171 -0.004196851729729131 0 -3.2579017457172109e-05 -0.0044361333660033302 0 -0.00015112358300237155 -0.0043738915254845669 0 -6.3503661337332491e-05 -0.0042981397912900607 0 -0.00021925361744231411 -0.0043357013881161928 0 -0.00015112358300237155 -0.0043738915254845669 0 -0.0001688434500662016 -0.0042969066094336828 0 -0.00015112358300237155 -0.0043738915254845669 0 -0.0001688434500662016 -0.0042969066094336828 0 -6.3503661337332491e-05 -0.0042981397912900607 0 -0.0002363968814947707 -0.0042772175883205492 0 -0.0001688434500662016 -0.0042969066094336828 0 -0.00017239250403785171 -0.004196851729729131 0 -0.0001688434500662016 -0.0042969066094336828 0 -6.3503661337332491e-05 -0.0042981397912900607 0 -0.00017239250403785171 -0.004196851729729131 0 0.0024684596769602046 -0.0040545112550195326 0 0.0022214899347206799 -0.0042372149827716084 0 0.0021968193162420929 -0.0045578670862867175 0 0.0012044564610915124 -0.0042506487766549774 0 0.001200864952971578 -0.0044276128077454504 0 -3.2579017457172109e-05 -0.0044361333660033302 0 -6.3503661337332491e-05 -0.0042981397912900607 0 8.8822022651580045e-05 -0.004256059521396161 0 0.0022214899347206799 -0.0042372149827716084 0 0.0021968193162420929 -0.0045578670862867175 0 0.0020946785531415807 -0.0043511522556851879 0 0.001200864952971578 -0.0044276128077454504 0 -2.4560272382732911e-05 -0.0043876657141630644 0 0.0010947183955602126 -0.0046029072981665312 0 0.00076663897813745844 -0.0045949244333082255 0 0.0013202507770122538 -0.004489721390876506 0 0.00080740645742480158 -0.0045898397854977025 0 0.001069742855764002 -0.0045861365453602901 0 0.0012607523464304334 -0.0045865668958314535 0 0.0010947183955602126 -0.0046029072981665312 0 0.0013202507770122538 -0.004489721390876506 0 0.001200864952971578 -0.0044276128077454504 0 0.00064479341272537726 -0.0046334077645489814 0 0.0012772720105320937 -0.0046567928864767088 0 0.0010947183955602126 -0.0046029072981665312 0 0.00085937040158904634 -0.0046655146514984558 0 0.0012772720105320937 -0.0046567928864767088 0 0.0012607523464304334 -0.0045865668958314535 0 0.0013221572224813966 -0.0045638749443743173 0 0.0012772720105320937 -0.0046567928864767088 0 0.0012607523464304334 -0.0045865668958314535 0 0.0010947183955602126 -0.0046029072981665312 0 0.0012607523464304334 -0.0045865668958314535 0 0.0013221572224813966 -0.0045638749443743173 0 0.0013202507770122538 -0.004489721390876506 0 0.00075487588161146689 -0.0046867571689965864 0 0.00076828543887046434 -0.0046758607311100575 0 0.000806106161759805 -0.0046806655672928209 0 0.00055401519967003955 -0.0046245768955786607 0 0.00064479341272537726 -0.0046334077645489814 0 0.00057449537642746088 -0.0046343462824901425 0 0.00048961829195559939 -0.0046145577734527888 0 0.00050789651368745399 -0.0046034578375718505 0 0.00047715649373567529 -0.0046043702307185866 0 0.00048961829195559939 -0.0046145577734527888 0 0.00050789651368745399 -0.0046034578375718505 0 0.0010947183955602126 -0.0046029072981665312 0 0.00085937040158904634 -0.0046655146514984558 0 0.00076663897813745844 -0.0045949244333082255 0 0.00074429049466261902 -0.0045699753703965056 0 0.00076663897813745844 -0.0045949244333082255 0 0.00076828543887046434 -0.0046758607311100575 0 0.00061906222458112624 -0.004649935560913288 0 0.00085937040158904634 -0.0046655146514984558 0 0.00076663897813745844 -0.0045949244333082255 0 0.00074429049466261902 -0.0045699753703965056 0 0.00068624059752704462 -0.0046015930360034703 0 0.00076663897813745844 -0.0045949244333082255 0 0.00076663897813745844 -0.0045949244333082255 0 0.00076828543887046434 -0.0046758607311100575 0 0.000806106161759805 -0.0046806655672928209 0 0.00061307614529020472 -0.0048990359101422415 0 0.00075487588161146689 -0.0046867571689965864 0 0.00069465481041245942 -0.0048060769757965931 0 0.00067015969111583408 -0.0047268209974447532 0 0.00073865683912985596 -0.0046789387398282105 0 0.00061307614529020472 -0.0048990359101422415 0 0.00075487588161146689 -0.0046867571689965864 0 0.00076828543887046434 -0.0046758607311100575 0 0.00067305222255850975 -0.0048473712828262924 0 0.00069465481041245942 -0.0048060769757965931 0 0.00069224988995860446 -0.0048200364802061949 0 0.00075487588161146689 -0.0046867571689965864 0 0.00069465481041245942 -0.0048060769757965931 0 0.00069224988995860446 -0.0048200364802061949 0 0.00075487588161146689 -0.0046867571689965864 0 0.0010511920897208825 -0.0044648318840694833 0 0.000806106161759805 -0.0046806655672928209 0 0.00065577534782515826 -0.0048649255826021115 0 0.00069224988995860446 -0.0048200364802061949 0 0.00063039266867450251 -0.0048407442509866361 0 0.00077618457859676075 -0.0046778198178552754 0 0.0008492711512432334 -0.004660064231632172 0 0.00075487588161146689 -0.0046867571689965864 0 0.00069224988995860446 -0.0048200364802061949 0 0.00063039266867450251 -0.0048407442509866361 0 0.0010393077797834086 -0.0045531296142489542 0 0.000806106161759805 -0.0046806655672928209 0 0.0011167216137921844 -0.0045634717942432635 0 0.0010511920897208825 -0.0044648318840694833 0 0.0010393077797834086 -0.0045531296142489542 0 0.001126538839112168 -0.0045035785266905404 0 0.0010393077797834086 -0.0045531296142489542 0 0.001126538839112168 -0.0045035785266905404 0 0.0011167216137921844 -0.0045634717942432635 0 0.0013202507770122538 -0.004489721390876506 0 0.0014257161221726813 -0.0045335503806626844 0 0.001584214038868987 -0.0044700875152552787 0 0.001069742855764002 -0.0045861365453602901 0 0.0013253628912525349 -0.0045082791708106647 0 0.0010511920897208825 -0.0044648318840694833 0 0.0010393077797834086 -0.0045531296142489542 0 0.000806106161759805 -0.0046806655672928209 0 0.0013221572224813966 -0.0045638749443743173 0 0.0013202507770122538 -0.004489721390876506 0 0.0014257161221726813 -0.0045335503806626844 0 0.0010966678706517358 -0.0044896274311070003 0 0.001168681751802181 -0.0045069682008574488 0 0.00094473945829125227 -0.0046307271775310396 0 0.00092391510098480145 -0.0046795676223000291 0 0.00093056153760394118 -0.0046460138357114896 0 0.0010966678706517358 -0.0044896274311070003 0 0.001168681751802181 -0.0045069682008574488 0 0.0011496740485210251 -0.0044757827571415918 0 0.0010511920897208825 -0.0044648318840694833 0 0.001168681751802181 -0.0045069682008574488 0 0.001126538839112168 -0.0045035785266905404 0 0.00065644050970187261 -0.0048529845383620904 0 0.00063039266867450251 -0.0048407442509866361 0 0.00070323677055648579 -0.0048730686789899749 0 0.0008492711512432334 -0.004660064231632172 0 0.00092391510098480145 -0.0046795676223000291 0 0.001168681751802181 -0.0045069682008574488 0 0.001126538839112168 -0.0045035785266905404 0 0.0011496740485210251 -0.0044757827571415918 0 0.0011486274005730079 -0.0044761976399032254 0 0.001156589681749923 -0.0044303754968128169 0 0.0011167216137921844 -0.0045634717942432635 0 0.001126538839112168 -0.0045035785266905404 0 0.0011486274005730079 -0.0044761976399032254 0 0.0011167216137921844 -0.0045634717942432635 0 0.0011486274005730079 -0.0044761976399032254 0 0.0011496740485210251 -0.0044757827571415918 0 0.0011471404516557335 -0.0044406301510043072 0 0.0011486274005730079 -0.0044761976399032254 0 0.0011471404516557335 -0.0044406301510043072 0 0.001156589681749923 -0.0044303754968128169 0 0.001126538839112168 -0.0045035785266905404 0 0.0011486274005730079 -0.0044761976399032254 0 0.0011496740485210251 -0.0044757827571415918 0 0.0011496740485210251 -0.0044757827571415918 0 0.0011471404516557335 -0.0044406301510043072 0 0.0011167367324290025 -0.0044357681976927099 0 0.0011471404516557335 -0.0044406301510043072 0 0.0011167367324290025 -0.0044357681976927099 0 0.0011414989119311934 -0.0043843375293990379 0 0.0011471404516557335 -0.0044406301510043072 0 0.0011414989119311934 -0.0043843375293990379 0 0.001156589681749923 -0.0044303754968128169 0 0.0011167367324290025 -0.0044357681976927099 0 0.0011414989119311934 -0.0043843375293990379 0 0.0011022405107614251 -0.0043398109688558119 0 0.0010966678706517358 -0.0044896274311070003 0 0.0011496740485210251 -0.0044757827571415918 0 0.0011167367324290025 -0.0044357681976927099 0 0.0010966678706517358 -0.0044896274311070003 0 0.0011167367324290025 -0.0044357681976927099 0 0.0010363822658797544 -0.0044766069587513831 0 0.0011392444977908803 -0.004313344586541693 0 0.0011324661667399456 -0.0042124951591985425 0 0.0011022405107614251 -0.0043398109688558119 0 0.0011392444977908803 -0.004313344586541693 0 0.0011785731684003204 -0.0043051082275667946 0 0.0011324661667399456 -0.0042124951591985425 0 0.0011392444977908803 -0.004313344586541693 0 0.0011414989119311934 -0.0043843375293990379 0 0.0011022405107614251 -0.0043398109688558119 0 0.0011414989119311934 -0.0043843375293990379 0 0.0011785731684003204 -0.0043051082275667946 0 0.001156589681749923 -0.0044303754968128169 0 0.0011392444977908803 -0.004313344586541693 0 0.0011414989119311934 -0.0043843375293990379 0 0.0011785731684003204 -0.0043051082275667946 0 0.0011785731684003204 -0.0043051082275667946 0 0.001156589681749923 -0.0044303754968128169 0 0.0011167216137921844 -0.0045634717942432635 0 0.0011785731684003204 -0.0043051082275667946 0 0.0013861210697371114 -0.0042830147512504394 0 0.001584214038868987 -0.0044700875152552787 0 0.0011748867865131337 -0.0043253077107032771 0 0.0013253628912525349 -0.0045082791708106647 0 0.0011785731684003204 -0.0043051082275667946 0 0.0013861210697371114 -0.0042830147512504394 0 0.0012590204125651392 -0.0042278831408917765 0 0.0013547222744843667 -0.0039475512861871717 0 0.0012590204125651392 -0.0042278831408917765 0 0.0012019224587956005 -0.0037993033561837296 0 0.0013861210697371114 -0.0042830147512504394 0 0.0014465521963901275 -0.0041168950140025402 0 0.0014998016569847876 -0.0043038003916565874 0 0.0014465521963901275 -0.0041168950140025402 0 0.0013547222744843667 -0.0039475512861871717 0 0.0012590204125651392 -0.0042278831408917765 0 0.0013861210697371114 -0.0042830147512504394 0 0.0014465521963901275 -0.0041168950140025402 0 0.0012590204125651392 -0.0042278831408917765 0 0.0014465521963901275 -0.0041168950140025402 0 0.0013547222744843667 -0.0039475512861871717 0 0.0014886063477312647 -0.0038910442505249738 0 0.0011785731684003204 -0.0043051082275667946 0 0.0012590204125651392 -0.0042278831408917765 0 0.0011324661667399456 -0.0042124951591985425 0 0.0012590204125651392 -0.0042278831408917765 0 0.0011801157933882798 -0.0040836088231543865 0 0.0011324661667399456 -0.0042124951591985425 0 0.0012590204125651392 -0.0042278831408917765 0 0.00089882171847460149 -0.0036967883190253108 0 0.0012019224587956005 -0.0037993033561837296 0 0.0012496189419874335 -0.0042023315644632428 0 0.001048970063209821 -0.0038984145249378122 0 0.0022523850638399988 -0.0045902061546754941 0 0.0019554119204630168 -0.0044264057624503368 0 0.0016100032212379575 -0.0044565112426500899 0 0.0012772720105320937 -0.0046567928864767088 0 0.0014257161221726813 -0.0045335503806626844 0 0.0016100032212379575 -0.0044565112426500899 0 0.001200864952971578 -0.0044276128077454504 0 0.0018097308677611583 -0.0045468637972506465 0 0.0019554119204630168 -0.0044264057624503368 0 0.0016100032212379575 -0.0044565112426500899 0 0.001791370859065179 -0.0041644615083733351 0 0.0019554119204630168 -0.0044264057624503368 0 0.001791370859065179 -0.0041644615083733351 0 0.0020034365962792373 -0.0041827848167164229 0 0.0022214899347206799 -0.0042372149827716084 0 0.0020946785531415807 -0.0043511522556851879 0 0.0020034365962792373 -0.0041827848167164229 0 0.0021968193162420929 -0.0045578670862867175 0 0.0020946785531415807 -0.0043511522556851879 0 0.0019554119204630168 -0.0044264057624503368 0 0.0020946785531415807 -0.0043511522556851879 0 0.0019554119204630168 -0.0044264057624503368 0 0.0020034365962792373 -0.0041827848167164229 0 0.0012772720105320937 -0.0046567928864767088 0 0.0013221572224813966 -0.0045638749443743173 0 0.0014257161221726813 -0.0045335503806626844 0 0.001200864952971578 -0.0044276128077454504 0 0.00206935875780897 -0.0046434222422355783 0 0.0014257161221726813 -0.0045335503806626844 0 0.001584214038868987 -0.0044700875152552787 0 0.0016100032212379575 -0.0044565112426500899 0 0.001584214038868987 -0.0044700875152552787 0 0.0015678989714809487 -0.0043763432292021464 0 0.0016100032212379575 -0.0044565112426500899 0 0.0013861210697371114 -0.0042830147512504394 0 0.001584214038868987 -0.0044700875152552787 0 0.0014998016569847876 -0.0043038003916565874 0 0.001584214038868987 -0.0044700875152552787 0 0.0015678989714809487 -0.0043763432292021464 0 0.0014998016569847876 -0.0043038003916565874 0 0.0015678989714809487 -0.0043763432292021464 0 0.0014998016569847876 -0.0043038003916565874 0 0.001591976994562567 -0.0042102843812739914 0 0.0016100032212379575 -0.0044565112426500899 0 0.001591976994562567 -0.0042102843812739914 0 0.001791370859065179 -0.0041644615083733351 0 0.0015678989714809487 -0.0043763432292021464 0 0.0016100032212379575 -0.0044565112426500899 0 0.001591976994562567 -0.0042102843812739914 0 0.001591976994562567 -0.0042102843812739914 0 0.0017203455752511801 -0.004002021944412024 0 0.001791370859065179 -0.0041644615083733351 0 0.001591976994562567 -0.0042102843812739914 0 0.0015691253462657485 -0.0040061761009780004 0 0.0017203455752511801 -0.004002021944412024 0 0.0014465521963901275 -0.0041168950140025402 0 0.0014998016569847876 -0.0043038003916565874 0 0.001591976994562567 -0.0042102843812739914 0 0.0014465521963901275 -0.0041168950140025402 0 0.001591976994562567 -0.0042102843812739914 0 0.0015691253462657485 -0.0040061761009780004 0 0.0014465521963901275 -0.0041168950140025402 0 0.0014886063477312647 -0.0038910442505249738 0 0.0015691253462657485 -0.0040061761009780004 0 0.0014886063477312647 -0.0038910442505249738 0 0.0015691253462657485 -0.0040061761009780004 0 0.0016389228005009402 -0.0038676418135410065 0 0.0015691253462657485 -0.0040061761009780004 0 0.0016389228005009402 -0.0038676418135410065 0 0.0017203455752511801 -0.004002021944412024 0 0.0016389228005009402 -0.0038676418135410065 0 0.0017203455752511801 -0.004002021944412024 0 0.0017696349253040955 -0.0038239875333910753 0 0.0017203455752511801 -0.004002021944412024 0 0.0019848267634480377 -0.0039379475024415734 0 0.0017696349253040955 -0.0038239875333910753 0 0.0017203455752511801 -0.004002021944412024 0 0.001791370859065179 -0.0041644615083733351 0 0.0019848267634480377 -0.0039379475024415734 0 0.001791370859065179 -0.0041644615083733351 0 0.0020034365962792373 -0.0041827848167164229 0 0.0019848267634480377 -0.0039379475024415734 0 0.0022214899347206799 -0.0042372149827716084 0 0.0020034365962792373 -0.0041827848167164229 0 0.0019848267634480377 -0.0039379475024415734 0 0.0019848267634480377 -0.0039379475024415734 0 0.0020978084437001856 -0.0036991582584359551 0 0.0023312519362090499 -0.0037797107895494769 0 0.0019848267634480377 -0.0039379475024415734 0 0.0020978084437001856 -0.0036991582584359551 0 0.0019247656855738446 -0.0037495303564986904 0 0.0020978084437001856 -0.0036991582584359551 0 0.0019558034139477896 -0.0036229276009816097 0 0.0019247656855738446 -0.0037495303564986904 0 0.0020978084437001856 -0.0036991582584359551 0 0.0020678499715075056 -0.0035130642945946327 0 0.0019558034139477896 -0.0036229276009816097 0 0.0020978084437001856 -0.0036991582584359551 0 0.0020678499715075056 -0.0035130642945946327 0 0.0022980118802393115 -0.0035526021531201014 0 0.0020678499715075056 -0.0035130642945946327 0 0.0019558034139477896 -0.0036229276009816097 0 0.0018704433958929192 -0.0034696652517143298 0 0.0019558034139477896 -0.0036229276009816097 0 0.0018167299214001665 -0.0036644331135454455 0 0.0018704433958929192 -0.0034696652517143298 0 0.0019848267634480377 -0.0039379475024415734 0 0.0019247656855738446 -0.0037495303564986904 0 0.0017696349253040955 -0.0038239875333910753 0 0.0019247656855738446 -0.0037495303564986904 0 0.0017696349253040955 -0.0038239875333910753 0 0.0018167299214001665 -0.0036644331135454455 0 0.0019558034139477896 -0.0036229276009816097 0 0.0019247656855738446 -0.0037495303564986904 0 0.0018167299214001665 -0.0036644331135454455 0 0.0016389228005009402 -0.0038676418135410065 0 0.0017696349253040955 -0.0038239875333910753 0 0.001687586589275485 -0.0037028679385538495 0 0.0017696349253040955 -0.0038239875333910753 0 0.001687586589275485 -0.0037028679385538495 0 0.0018167299214001665 -0.0036644331135454455 0 0.0015681654514905364 -0.0037447057560891076 0 0.0015687074345383182 -0.003566804363993216 0 0.0013932178887724523 -0.0036857512998983402 0 0.0014886063477312647 -0.0038910442505249738 0 0.0016389228005009402 -0.0038676418135410065 0 0.0015681654514905364 -0.0037447057560891076 0 0.0016389228005009402 -0.0038676418135410065 0 0.001687586589275485 -0.0037028679385538495 0 0.0015681654514905364 -0.0037447057560891076 0 0.001687586589275485 -0.0037028679385538495 0 0.0015681654514905364 -0.0037447057560891076 0 0.0015687074345383182 -0.003566804363993216 0 0.001687586589275485 -0.0037028679385538495 0 0.0015687074345383182 -0.003566804363993216 0 0.0017212294443487567 -0.0035561982166811478 0 0.0015687074345383182 -0.003566804363993216 0 0.0017212294443487567 -0.0035561982166811478 0 0.0016176370603049012 -0.0033888067268807256 0 0.0018167299214001665 -0.0036644331135454455 0 0.0017212294443487567 -0.0035561982166811478 0 0.0018704433958929192 -0.0034696652517143298 0 0.001687586589275485 -0.0037028679385538495 0 0.0018167299214001665 -0.0036644331135454455 0 0.0017212294443487567 -0.0035561982166811478 0 0.0017212294443487567 -0.0035561982166811478 0 0.0017234574858007515 -0.003425656065521923 0 0.0018704433958929192 -0.0034696652517143298 0 0.0017234574858007515 -0.003425656065521923 0 0.0017889656872836287 -0.003319578949520929 0 0.0016176370603049012 -0.0033888067268807256 0 0.0017234574858007515 -0.003425656065521923 0 0.0017889656872836287 -0.003319578949520929 0 0.0018704433958929192 -0.0034696652517143298 0 0.0017889656872836287 -0.003319578949520929 0 0.0016176370603049012 -0.0033888067268807256 0 0.0017008130584965843 -0.0032064831197742222 0 0.0017212294443487567 -0.0035561982166811478 0 0.0017234574858007515 -0.003425656065521923 0 0.0016176370603049012 -0.0033888067268807256 0 0.0015687074345383182 -0.003566804363993216 0 0.0016176370603049012 -0.0033888067268807256 0 0.0014354053898856924 -0.00341143870831076 0 0.0016176370603049012 -0.0033888067268807256 0 0.0015395664743851794 -0.0031956234457038929 0 0.0014354053898856924 -0.00341143870831076 0 0.0015395664743851794 -0.0031956234457038929 0 0.0017008130584965843 -0.0032064831197742222 0 0.0016735405613533551 -0.0030700789833307922 0 0.0016176370603049012 -0.0033888067268807256 0 0.0015395664743851794 -0.0031956234457038929 0 0.0017008130584965843 -0.0032064831197742222 0 0.0017889656872836287 -0.003319578949520929 0 0.0017008130584965843 -0.0032064831197742222 0 0.0018285445399503937 -0.00319609901977575 0 0.0017008130584965843 -0.0032064831197742222 0 0.0017827729969007676 -0.0030866961407464114 0 0.0016735405613533551 -0.0030700789833307922 0 0.0017008130584965843 -0.0032064831197742222 0 0.0018285445399503937 -0.00319609901977575 0 0.0017827729969007676 -0.0030866961407464114 0 0.0018285445399503937 -0.00319609901977575 0 0.0018881814338271904 -0.0030534214557193392 0 0.0017827729969007676 -0.0030866961407464114 0 0.0018285445399503937 -0.00319609901977575 0 0.0019408607789649518 -0.003180094052882252 0 0.0018881814338271904 -0.0030534214557193392 0 0.0017889656872836287 -0.003319578949520929 0 0.0018285445399503937 -0.00319609901977575 0 0.0018966084628793201 -0.0032951152226313031 0 0.0018285445399503937 -0.00319609901977575 0 0.0019408607789649518 -0.003180094052882252 0 0.0018966084628793201 -0.0032951152226313031 0 0.0019408607789649518 -0.003180094052882252 0 0.0020028658826509744 -0.0033502666863382291 0 0.0018966084628793201 -0.0032951152226313031 0 0.0019408607789649518 -0.003180094052882252 0 0.0020676111670277389 -0.0032062033980377203 0 0.0019952296560972762 -0.0030874409760352816 0 0.0020676111670277389 -0.0032062033980377203 0 0.0020894679603398344 -0.00307522790957612 0 0.0019952296560972762 -0.0030874409760352816 0 0.0020676111670277389 -0.0032062033980377203 0 0.0021871187481420596 -0.0033868136621517195 0 0.0022063428624070911 -0.0031815708859101121 0 0.0020676111670277389 -0.0032062033980377203 0 0.0020894679603398344 -0.00307522790957612 0 0.0022063428624070911 -0.0031815708859101121 0 0.0019408607789649518 -0.003180094052882252 0 0.0020676111670277389 -0.0032062033980377203 0 0.0020028658826509744 -0.0033502666863382291 0 0.0020678499715075056 -0.0035130642945946327 0 0.0020028658826509744 -0.0033502666863382291 0 0.0021871187481420596 -0.0033868136621517195 0 0.0020676111670277389 -0.0032062033980377203 0 0.0020028658826509744 -0.0033502666863382291 0 0.0021871187481420596 -0.0033868136621517195 0 0.0020678499715075056 -0.0035130642945946327 0 0.0020028658826509744 -0.0033502666863382291 0 0.0018704433958929192 -0.0034696652517143298 0 0.0017889656872836287 -0.003319578949520929 0 0.0018704433958929192 -0.0034696652517143298 0 0.0018966084628793201 -0.0032951152226313031 0 0.0020028658826509744 -0.0033502666863382291 0 0.0018704433958929192 -0.0034696652517143298 0 0.0018966084628793201 -0.0032951152226313031 0 0.00089882171847460149 -0.0036967883190253108 0 0.0011965181828468296 -0.0034872530735427314 0 0.00099717196023802845 -0.0031968590109602755 0 0.00089882171847460149 -0.0036967883190253108 0 0.0011965181828468296 -0.0034872530735427314 0 0.0012019224587956005 -0.0037993033561837296 0 0.0011965181828468296 -0.0034872530735427314 0 0.0013932178887724523 -0.0036857512998983402 0 0.0014354053898856924 -0.00341143870831076 0 0.0013547222744843667 -0.0039475512861871717 0 0.0012019224587956005 -0.0037993033561837296 0 0.0013932178887724523 -0.0036857512998983402 0 0.0011965181828468296 -0.0034872530735427314 0 0.0012019224587956005 -0.0037993033561837296 0 0.0013932178887724523 -0.0036857512998983402 0 0.0014886063477312647 -0.0038910442505249738 0 0.0015681654514905364 -0.0037447057560891076 0 0.0013932178887724523 -0.0036857512998983402 0 0.0013547222744843667 -0.0039475512861871717 0 0.0014886063477312647 -0.0038910442505249738 0 0.0013932178887724523 -0.0036857512998983402 0 0.0015687074345383182 -0.003566804363993216 0 0.0013932178887724523 -0.0036857512998983402 0 0.0014354053898856924 -0.00341143870831076 0 0.0015395664743851794 -0.0031956234457038929 0 0.0014354053898856924 -0.00341143870831076 0 0.0012951028425104427 -0.0031699238999223895 0 0.0011965181828468296 -0.0034872530735427314 0 0.0014354053898856924 -0.00341143870831076 0 0.0012951028425104427 -0.0031699238999223895 0 0.0011965181828468296 -0.0034872530735427314 0 0.0012951028425104427 -0.0031699238999223895 0 0.00099717196023802845 -0.0031968590109602755 0 0.0012951028425104427 -0.0031699238999223895 0 0.00099717196023802845 -0.0031968590109602755 0 0.0011690638037070726 -0.0028777808689053239 0 0.0011690638037070726 -0.0028777808689053239 0 0.0010384292621176306 -0.0025642422270449093 0 0.00089930524253518766 -0.0028631268277351527 0 0.00099717196023802845 -0.0031968590109602755 0 0.0011690638037070726 -0.0028777808689053239 0 0.00089930524253518766 -0.0028631268277351527 0 0.0011690638037070726 -0.0028777808689053239 0 0.0014771806962038672 -0.0029078554685084868 0 0.0012977395487035926 -0.0026000986786713621 0 0.0012951028425104427 -0.0031699238999223895 0 0.0011690638037070726 -0.0028777808689053239 0 0.0014771806962038672 -0.0029078554685084868 0 0.0015395664743851794 -0.0031956234457038929 0 0.0012951028425104427 -0.0031699238999223895 0 0.0014771806962038672 -0.0029078554685084868 0 0.0014623847428185998 -0.0023805036742944575 0 0.0012977395487035926 -0.0026000986786713621 0 0.0011316997553271846 -0.0022647212731177237 0 0.0014771806962038672 -0.0029078554685084868 0 0.0015005016362741128 -0.0026382903103520905 0 0.0012977395487035926 -0.0026000986786713621 0 0.0015005016362741128 -0.0026382903103520905 0 0.0014623847428185998 -0.0023805036742944575 0 0.0012977395487035926 -0.0026000986786713621 0 0.0010384292621176306 -0.0025642422270449093 0 0.0011316997553271846 -0.0022647212731177237 0 0.00082180426702970529 -0.0023048390371826089 0 0.0011690638037070726 -0.0028777808689053239 0 0.0012977395487035926 -0.0026000986786713621 0 0.0010384292621176306 -0.0025642422270449093 0 0.0012977395487035926 -0.0026000986786713621 0 0.0010384292621176306 -0.0025642422270449093 0 0.0011316997553271846 -0.0022647212731177237 0 0.001993711498684833 -0.0028974061898803796 0 0.0018985857239341793 -0.0029201237756952608 0 0.0019440734756564304 -0.0027805145318926159 0 0.001993711498684833 -0.0028974061898803796 0 0.0018985857239341793 -0.0029201237756952608 0 0.0019780847788233992 -0.0029827676018510272 0 0.0018985857239341793 -0.0029201237756952608 0 0.0019440734756564304 -0.0027805145318926159 0 0.0017905654296686059 -0.0028406510590643008 0 0.001993711498684833 -0.0028974061898803796 0 0.0019440734756564304 -0.0027805145318926159 0 0.0020349423319433019 -0.0028456827664391821 0 0.0020601067610131235 -0.0027858026977596799 0 0.0021225771151214476 -0.0028881838794616518 0 0.0020840061919088098 -0.0028661306754095067 0 0.0019440734756564304 -0.0027805145318926159 0 0.0020601067610131235 -0.0027858026977596799 0 0.0020349423319433019 -0.0028456827664391821 0 0.0020601067610131235 -0.0027858026977596799 0 0.0020349423319433019 -0.0028456827664391821 0 0.0020840061919088098 -0.0028661306754095067 0 0.0020601067610131235 -0.0027858026977596799 0 0.0021225771151214476 -0.0028881838794616518 0 0.0021839501406722521 -0.0029015844335183345 0 0.0021225771151214476 -0.0028881838794616518 0 0.0021335829595126037 -0.0029401296629068723 0 0.002087339191599283 -0.0029474322100888654 0 0.0021225771151214476 -0.0028881838794616518 0 0.0021335829595126037 -0.0029401296629068723 0 0.0021839501406722521 -0.0029015844335183345 0 0.0021335829595126037 -0.0029401296629068723 0 0.0021734633747466678 -0.0029728809398822664 0 0.0021839501406722521 -0.0029015844335183345 0 0.001993711498684833 -0.0028974061898803796 0 0.0020349423319433019 -0.0028456827664391821 0 0.0020599129807613 -0.0029021047385145741 0 0.0020349423319433019 -0.0028456827664391821 0 0.0020840061919088098 -0.0028661306754095067 0 0.0020599129807613 -0.0029021047385145741 0 0.0021225771151214476 -0.0028881838794616518 0 0.0020840061919088098 -0.0028661306754095067 0 0.0020599129807613 -0.0029021047385145741 0 0.0020599129807613 -0.0029021047385145741 0 0.0020359541275306006 -0.0029472726736213604 0 0.002087339191599283 -0.0029474322100888654 0 0.0021225771151214476 -0.0028881838794616518 0 0.0020599129807613 -0.0029021047385145741 0 0.002087339191599283 -0.0029474322100888654 0 0.001993711498684833 -0.0028974061898803796 0 0.0020599129807613 -0.0029021047385145741 0 0.0020359541275306006 -0.0029472726736213604 0 0.0020359541275306006 -0.0029472726736213604 0 0.0020514427630920194 -0.0030062508270009818 0 0.0019780847788233992 -0.0029827676018510272 0 0.0020359541275306006 -0.0029472726736213604 0 0.002087339191599283 -0.0029474322100888654 0 0.0020514427630920194 -0.0030062508270009818 0 0.002087339191599283 -0.0029474322100888654 0 0.0020514427630920194 -0.0030062508270009818 0 0.0021215511411395564 -0.0029976808812564822 0 0.0020514427630920194 -0.0030062508270009818 0 0.0021215511411395564 -0.0029976808812564822 0 0.0020894679603398344 -0.00307522790957612 0 0.0021335829595126037 -0.0029401296629068723 0 0.0021734633747466678 -0.0029728809398822664 0 0.0021215511411395564 -0.0029976808812564822 0 0.0021335829595126037 -0.0029401296629068723 0 0.002087339191599283 -0.0029474322100888654 0 0.0021215511411395564 -0.0029976808812564822 0 0.0021734633747466678 -0.0029728809398822664 0 0.0021215511411395564 -0.0029976808812564822 0 0.0021834104895654678 -0.0030440398366376855 0 0.0020894679603398344 -0.00307522790957612 0 0.0021834104895654678 -0.0030440398366376855 0 0.0022063428624070911 -0.0031815708859101121 0 0.0021215511411395564 -0.0029976808812564822 0 0.0020894679603398344 -0.00307522790957612 0 0.0021834104895654678 -0.0030440398366376855 0 0.0020514427630920194 -0.0030062508270009818 0 0.0020894679603398344 -0.00307522790957612 0 0.0019952296560972762 -0.0030874409760352816 0 0.0020514427630920194 -0.0030062508270009818 0 0.0019952296560972762 -0.0030874409760352816 0 0.0019780847788233992 -0.0029827676018510272 0 0.0019408607789649518 -0.003180094052882252 0 0.0019952296560972762 -0.0030874409760352816 0 0.0018881814338271904 -0.0030534214557193392 0 0.0019952296560972762 -0.0030874409760352816 0 0.0019780847788233992 -0.0029827676018510272 0 0.0018881814338271904 -0.0030534214557193392 0 0.001993711498684833 -0.0028974061898803796 0 0.0020359541275306006 -0.0029472726736213604 0 0.0019780847788233992 -0.0029827676018510272 0 0.0018985857239341793 -0.0029201237756952608 0 0.0019780847788233992 -0.0029827676018510272 0 0.0018881814338271904 -0.0030534214557193392 0 0.0018985857239341793 -0.0029201237756952608 0 0.0018881814338271904 -0.0030534214557193392 0 0.0017843595344297597 -0.0029801973343824939 0 0.0018881814338271904 -0.0030534214557193392 0 0.0017827729969007676 -0.0030866961407464114 0 0.0017843595344297597 -0.0029801973343824939 0 0.0017827729969007676 -0.0030866961407464114 0 0.0017843595344297597 -0.0029801973343824939 0 0.0016735405613533551 -0.0030700789833307922 0 0.0017843595344297597 -0.0029801973343824939 0 0.0016735405613533551 -0.0030700789833307922 0 0.0016731859474721361 -0.0029106443264244239 0 0.0015395664743851794 -0.0031956234457038929 0 0.0014771806962038672 -0.0029078554685084868 0 0.0016735405613533551 -0.0030700789833307922 0 0.0014771806962038672 -0.0029078554685084868 0 0.0016735405613533551 -0.0030700789833307922 0 0.0016731859474721361 -0.0029106443264244239 0 0.0014771806962038672 -0.0029078554685084868 0 0.0016239921766229681 -0.002769152355054164 0 0.0016731859474721361 -0.0029106443264244239 0 0.0014771806962038672 -0.0029078554685084868 0 0.0015005016362741128 -0.0026382903103520905 0 0.0016239921766229681 -0.002769152355054164 0 0.0016239921766229681 -0.002769152355054164 0 0.0017905654296686059 -0.0028406510590643008 0 0.0017791208999679302 -0.0026689205622745767 0 0.0016239921766229681 -0.002769152355054164 0 0.0016731859474721361 -0.0029106443264244239 0 0.0017905654296686059 -0.0028406510590643008 0 0.0019440734756564304 -0.0027805145318926159 0 0.0017905654296686059 -0.0028406510590643008 0 0.0017791208999679302 -0.0026689205622745767 0 0.0018985857239341793 -0.0029201237756952608 0 0.0017843595344297597 -0.0029801973343824939 0 0.0017905654296686059 -0.0028406510590643008 0 0.0017843595344297597 -0.0029801973343824939 0 0.0016731859474721361 -0.0029106443264244239 0 0.0017905654296686059 -0.0028406510590643008 0 0.0017791208999679302 -0.0026689205622745767 0 0.0016440601093226294 -0.0025390693127938357 0 0.0017846544527114936 -0.0024877245940890659 0 0.0017791208999679302 -0.0026689205622745767 0 0.0017846544527114936 -0.0024877245940890659 0 0.0018921683872690402 -0.0025963650370592075 0 0.0016239921766229681 -0.002769152355054164 0 0.0017791208999679302 -0.0026689205622745767 0 0.0016440601093226294 -0.0025390693127938357 0 0.0015005016362741128 -0.0026382903103520905 0 0.0016239921766229681 -0.002769152355054164 0 0.0016440601093226294 -0.0025390693127938357 0 0.0014623847428185998 -0.0023805036742944575 0 0.0016440601093226294 -0.0025390693127938357 0 0.0016243602493246163 -0.0022644700373769585 0 0.0015005016362741128 -0.0026382903103520905 0 0.0014623847428185998 -0.0023805036742944575 0 0.0016440601093226294 -0.0025390693127938357 0 0.0016440601093226294 -0.0025390693127938357 0 0.0017846544527114936 -0.0024877245940890659 0 0.0016243602493246163 -0.0022644700373769585 0 0.00084936691553819533 -0.00069345932967792765 0 0.0008097168881899408 -0.00082054878739645028 0 0.00076382470044782374 -0.00060491175364040526 0 0.0008097168881899408 -0.00082054878739645028 0 0.00070400309207462703 -0.00058988260474258718 0 0.00076382470044782374 -0.00060491175364040526 0 0.0020601067610131235 -0.0027858026977596799 0 0.0019488971115323073 -0.002618000933197136 0 0.0018996653029140264 -0.0023071913311520898 0 0.0012533463258051474 -0.0019452902933667969 0 0.0013339713633743612 -0.0014440375046438384 0 0.0020601067610131235 -0.0027858026977596799 0 0.0021839501406722521 -0.0029015844335183345 0 0.0018996653029140264 -0.0023071913311520898 0 0.0017846544527114936 -0.0024877245940890659 0 0.0018921683872690402 -0.0025963650370592075 0 0.0018996653029140264 -0.0023071913311520898 0 0.0018921683872690402 -0.0025963650370592075 0 0.0019488971115323073 -0.002618000933197136 0 0.0018996653029140264 -0.0023071913311520898 0 0.0019440734756564304 -0.0027805145318926159 0 0.0017791208999679302 -0.0026689205622745767 0 0.0018921683872690402 -0.0025963650370592075 0 0.0019440734756564304 -0.0027805145318926159 0 0.0020601067610131235 -0.0027858026977596799 0 0.0019488971115323073 -0.002618000933197136 0 0.0019440734756564304 -0.0027805145318926159 0 0.0018921683872690402 -0.0025963650370592075 0 0.0019488971115323073 -0.002618000933197136 0 0.00084893029444649921 -0.0006252503457502129 0 0.00084936691553819533 -0.00069345932967792765 0 0.00076382470044782374 -0.00060491175364040526 0 0.00084936691553819533 -0.00069345932967792765 0 0.0008097168881899408 -0.00082054878739645028 0 0.00097330226791710083 -0.00073775434816977477 0 0.00084893029444649921 -0.0006252503457502129 0 0.00092113775024018187 -0.00064373953470400617 0 0.00084936691553819533 -0.00069345932967792765 0 0.00092113775024018187 -0.00064373953470400617 0 0.00084936691553819533 -0.00069345932967792765 0 0.00097330226791710083 -0.00073775434816977477 0 0.0012533463258051474 -0.0019452902933667969 0 0.0018601430298137837 -0.0017280504147394495 0 0.0023272098486601953 -0.0030024932329255891 0 0.0026018251660673776 -0.0029682608820466643 0 0.0024414066440084903 -0.0031618795181520814 0 0.0021839501406722521 -0.0029015844335183345 0 0.0023272098486601953 -0.0030024932329255891 0 0.002507142620213839 -0.0027640345769004483 0 0.0023272098486601953 -0.0030024932329255891 0 0.0021834104895654678 -0.0030440398366376855 0 0.0022063428624070911 -0.0031815708859101121 0 0.0023272098486601953 -0.0030024932329255891 0 0.0022063428624070911 -0.0031815708859101121 0 0.0024414066440084903 -0.0031618795181520814 0 0.0021839501406722521 -0.0029015844335183345 0 0.0023272098486601953 -0.0030024932329255891 0 0.0022194342656298958 -0.0029869079482673657 0 0.0021734633747466678 -0.0029728809398822664 0 0.0021839501406722521 -0.0029015844335183345 0 0.0022194342656298958 -0.0029869079482673657 0 0.0023272098486601953 -0.0030024932329255891 0 0.0021834104895654678 -0.0030440398366376855 0 0.0022194342656298958 -0.0029869079482673657 0 0.0021734633747466678 -0.0029728809398822664 0 0.0021834104895654678 -0.0030440398366376855 0 0.0022194342656298958 -0.0029869079482673657 0 0.0026018251660673776 -0.0029682608820466643 0 0.002812401560356146 -0.0030822078692527444 0 0.0024414066440084903 -0.0031618795181520814 0 0.0023272098486601953 -0.0030024932329255891 0 0.0026018251660673776 -0.0029682608820466643 0 0.002507142620213839 -0.0027640345769004483 0 0.00097330226791710083 -0.00073775434816977477 0 0.0011504294176842133 -0.00064029881522931111 0 0.0010024318282015453 -0.00060344610283335142 0 0.0026018251660673776 -0.0029682608820466643 0 0.002507142620213839 -0.0027640345769004483 0 0.0027971877869761999 -0.0025823964863464573 0 0.0018601430298137837 -0.0017280504147394495 0 0.0014784796220470538 -0.001506978477280116 0 0.00092113775024018187 -0.00064373953470400617 0 0.00097330226791710083 -0.00073775434816977477 0 0.0010024318282015453 -0.00060344610283335142 0 0.00065666479037038161 -0.0018042746584604086 0 0.0012855342189772156 -0.0020960548650671932 0 0.00067950687599360466 -0.0030579079232937699 0 0.0014784796220470538 -0.001506978477280116 0 0.0011165869533718766 -0.00087030364394276457 0 0.0014784796220470538 -0.001506978477280116 0 0.0009019225209695148 -0.0012054031532315477 0 0.0014762229908087288 -0.0012631635751605649 0 0.0014349235059140861 -0.0012870004344498471 0 0.0014767384036111523 -0.0013133041488985681 0 0.00065666479037038161 -0.0018042746584604086 0 0.00075132055121773767 -0.0017479267011383426 0 0.0012855342189772156 -0.0020960548650671932 0 0.0009019225209695148 -0.0012054031532315477 0 0.00017103356234041055 -0.0019813564693222378 0 -0.0003853109033807872 -0.0011277318198464814 0 -0.00010723802513045595 -0.0012053167836795073 0 -9.2342090019236271e-06 -0.0010628224652902258 0 9.525738119947681e-05 -0.0012220178516154886 0 -0.00010723802513045595 -0.0012053167836795073 0 -0.00015365404739581411 -0.0012848296770351132 0 9.525738119947681e-05 -0.0012220178516154886 0 -0.00010723802513045595 -0.0012053167836795073 0 -9.2342090019236271e-06 -0.0010628224652902258 0 -0.0003853109033807872 -0.0011277318198464814 0 -0.00010723802513045595 -0.0012053167836795073 0 -0.00014960478193058158 -0.0012805175708708364 0 0.00020640633346453614 -0.0017018295766546788 0 0.00017103356234041055 -0.0019813564693222378 0 9.5354784462754787e-05 -0.0014600046214093758 0 9.525738119947681e-05 -0.0012220178516154886 0 -0.00015365404739581411 -0.0012848296770351132 0 5.8566823854960345e-06 -0.0022691725882837146 0 0.00017103356234041055 -0.0019813564693222378 0 2.1010936926280771e-05 -0.0030580365519607554 0 0.00015998455758374741 -0.0031419446297734125 0 0.00014335132762572432 -0.0030156552744026377 0 0.00014335132762572432 -0.0030156552744026377 0 8.9986143716536924e-05 -0.0029434287305318725 0 0.00031733536105683994 -0.0029173639543160039 0 2.1010936926280771e-05 -0.0030580365519607554 0 0.00014335132762572432 -0.0030156552744026377 0 8.9986143716536924e-05 -0.0029434287305318725 0 0.0026018251660673776 -0.0029682608820466643 0 0.0027971877869761999 -0.0025823964863464573 0 0.002812401560356146 -0.0030822078692527444 0 -0.00041810046381961973 -0.0039309764772859201 0 0.0011341229454823142 -0.0035047477515347761 0 0.00015998455758374741 -0.0031419446297734125 0 0.00014335132762572432 -0.0030156552744026377 0 0.00031733536105683994 -0.0029173639543160039 0 0.0014784796220470538 -0.001506978477280116 0 0.0011341229454823142 -0.0035047477515347761 0 0.00017103356234041055 -0.0019813564693222378 0 0.0011341229454823142 -0.0035047477515347761 0 0.0029219785945511882 -0.0031192249638264959 0 0.0029219489909093092 -0.0031585342520227535 0 0.0027007197080375607 -0.0032899670703114476 0 -0.00024209079756171221 -0.0047734253585492081 0 -0.00024315064777203626 -0.0047566396612944281 0 -0.0002899036521292872 -0.0046977080624090051 0 -0.00023658354235832368 -0.0047294258013381588 0 -0.00024585480798548992 -0.0046280291659096867 0 -0.00014796420974130144 -0.0045943818874208562 0 0.0011341229454823142 -0.0035047477515347761 0 0.00088404151031401285 -0.0038938622634026882 0 -0.00024209079756171221 -0.0047734253585492081 0 -0.0002899036521292872 -0.0046977080624090051 0 -0.00035951678076446517 -0.0047080924615058384 0 -0.0002899036521292872 -0.0046977080624090051 0 -0.00035951678076446517 -0.0047080924615058384 0 -0.00033569065018153462 -0.0046247200713973261 0 -0.0002899036521292872 -0.0046977080624090051 0 -0.00024585480798548992 -0.0046280291659096867 0 -0.00033569065018153462 -0.0046247200713973261 0 -0.00024315064777203626 -0.0047566396612944281 0 -0.0002899036521292872 -0.0046977080624090051 0 -0.00024585480798548992 -0.0046280291659096867 0 0.00088404151031401285 -0.0038938622634026882 0 -0.00011476413476193609 -0.0048751829518037769 0 -0.00056248919271184713 -0.0046859282230750096 0 -0.00043864284165854889 -0.0047967911903117003 0 -0.00046339621548136813 -0.0046279365501852134 0 -0.00043864284165854889 -0.0047967911903117003 0 -0.00035951678076446517 -0.0047080924615058384 0 -0.00046339621548136813 -0.0046279365501852134 0 -0.00043864284165854889 -0.0047967911903117003 0 -0.00024209079756171221 -0.0047734253585492081 0 -0.00035951678076446517 -0.0047080924615058384 0 -0.00035951678076446517 -0.0047080924615058384 0 -0.00046339621548136813 -0.0046279365501852134 0 -0.00033569065018153462 -0.0046247200713973261 0 -0.00046339621548136813 -0.0046279365501852134 0 -0.00038184400859527803 -0.0045442958030302511 0 -0.00033569065018153462 -0.0046247200713973261 0 -0.00039378058096523771 -0.004467622836566678 0 -0.00038184400859527803 -0.0045442958030302511 0 -0.00046860968595384297 -0.0045180399050983944 0 -0.00046339621548136813 -0.0046279365501852134 0 -0.00038184400859527803 -0.0045442958030302511 0 -0.00046860968595384297 -0.0045180399050983944 0 -0.00054528456962742351 -0.0045515676285809723 0 -0.00046339621548136813 -0.0046279365501852134 0 -0.00046860968595384297 -0.0045180399050983944 0 -0.00024585480798548992 -0.0046280291659096867 0 -0.00024973782809816137 -0.0045547676111619383 0 -0.00014796420974130144 -0.0045943818874208562 0 -0.00024585480798548992 -0.0046280291659096867 0 -0.00033569065018153462 -0.0046247200713973261 0 -0.00024973782809816137 -0.0045547676111619383 0 -0.00038184400859527803 -0.0045442958030302511 0 -0.00033569065018153462 -0.0046247200713973261 0 -0.00024973782809816137 -0.0045547676111619383 0 -0.00029615383799419022 -0.0044788847649361316 0 -0.00038184400859527803 -0.0045442958030302511 0 -0.00024973782809816137 -0.0045547676111619383 0 0.0012044564610915124 -0.0042506487766549774 0 0.0013258166416318241 -0.0040730094401702863 0 0.0026999357240882734 -0.0035815379234182911 0 0.0023312519362090499 -0.0037797107895494769 0 0.0025052337403371878 -0.0034390077039074748 0 -0.00018753102314975179 -0.0044817992306965234 0 -0.00024973782809816137 -0.0045547676111619383 0 -0.00014796420974130144 -0.0045943818874208562 0 0.0024684596769602046 -0.0040545112550195326 0 0.0026999357240882734 -0.0035815379234182911 0 0.0023312519362090499 -0.0037797107895494769 0 0.0020978084437001856 -0.0036991582584359551 0 0.0023312519362090499 -0.0037797107895494769 0 0.0022980118802393115 -0.0035526021531201014 0 0.0020678499715075056 -0.0035130642945946327 0 0.0022980118802393115 -0.0035526021531201014 0 0.0021871187481420596 -0.0033868136621517195 0 0.0023312519362090499 -0.0037797107895494769 0 0.0022980118802393115 -0.0035526021531201014 0 0.0025052337403371878 -0.0034390077039074748 0 0.0023270029475666409 -0.0033426524116712463 0 0.0024414066440084903 -0.0031618795181520814 0 0.0025052337403371878 -0.0034390077039074748 0 0.0022980118802393115 -0.0035526021531201014 0 0.0023270029475666409 -0.0033426524116712463 0 0.0025052337403371878 -0.0034390077039074748 0 0.0022980118802393115 -0.0035526021531201014 0 0.0023270029475666409 -0.0033426524116712463 0 0.0021871187481420596 -0.0033868136621517195 0 0.0023270029475666409 -0.0033426524116712463 0 0.0021871187481420596 -0.0033868136621517195 0 0.0022063428624070911 -0.0031815708859101121 0 0.0023270029475666409 -0.0033426524116712463 0 0.0022063428624070911 -0.0031815708859101121 0 0.0024414066440084903 -0.0031618795181520814 0 0.0011341229454823142 -0.0035047477515347761 0 0.0031650389157944618 -0.0030347807799838001 0 0.00088404151031401285 -0.0038938622634026882 0 0.0013258166416318241 -0.0040730094401702863 0 0.0029219785945511882 -0.0031192249638264959 0 0.0024414066440084903 -0.0031618795181520814 0 0.0027007197080375607 -0.0032899670703114476 0 0.0029219489909093092 -0.0031585342520227535 0 0.0026999357240882734 -0.0035815379234182911 0 0.0027007197080375607 -0.0032899670703114476 0 0.0024414066440084903 -0.0031618795181520814 0 0.0027007197080375607 -0.0032899670703114476 0 0.0025052337403371878 -0.0034390077039074748 0 0.0026999357240882734 -0.0035815379234182911 0 0.0027007197080375607 -0.0032899670703114476 0 0.0025052337403371878 -0.0034390077039074748 0 0.00098451326762633343 -0.003691059604517842 0 0.0004262262462450012 -0.0037622400220952406 0 0.00063701417255452837 -0.0033360650579390451 0 0.00098451326762633343 -0.003691059604517842 0 0.00085178894735406653 -0.0039307485717762327 0 0.0004262262462450012 -0.0037622400220952406 0 0.00098451326762633343 -0.003691059604517842 0 0.00095268585931937444 -0.0038810534494754575 0 0.00095360557834806296 -0.0038180184149787526 0 0.00098451326762633343 -0.003691059604517842 0 0.00085178894735406653 -0.0039307485717762327 0 0.00095268585931937444 -0.0038810534494754575 0 0.00085178894735406653 -0.0039307485717762327 0 0.00095268585931937444 -0.0038810534494754575 0 0.00088064301214086553 -0.0040466918503145018 0 0.00085178894735406653 -0.0039307485717762327 0 0.0004262262462450012 -0.0037622400220952406 0 0.00060019587370874086 -0.0043063066659307188 0 0.00079040250471699286 -0.0032151881308348151 0 0.001143694530998217 -0.0040673470639383822 0 0.001208583101874987 -0.0027845587858836953 0 0.0013909705846588401 -0.003367919204418673 0 0.0010314992361939172 -0.0032437325997790043 0 0.00076672780188918508 -0.0030598291393585213 0 0.001208583101874987 -0.0027845587858836953 0 0.0010314992361939172 -0.0032437325997790043 0 0.00076672780188918508 -0.0030598291393585213 0 0.00072235412915494068 -0.002690739852161431 0 0.001208583101874987 -0.0027845587858836953 0 0.00072235412915494068 -0.002690739852161431 0 0.001208583101874987 -0.0027845587858836953 0 0.0010092306961923217 -0.0021966981008494997 0 0.00024534313624295461 -0.0029004685002398329 0 0.00081918259645651287 -0.0028522698219152634 0 0.00063701417255452837 -0.0033360650579390451 0 0.00079040250471699286 -0.0032151881308348151 0 0.00064012739530745679 -0.0025702350087346876 0 0.0004262262462450012 -0.0037622400220952406 0 0.00024534313624295461 -0.0029004685002398329 0 0.00063701417255452837 -0.0033360650579390451 0 0.00072235412915494068 -0.002690739852161431 0 0.0010092306961923217 -0.0021966981008494997 0 0.00057375534237232755 -0.0023731159339444455 0 0.0010092306961923217 -0.0021966981008494997 0 0.00057375534237232755 -0.0023731159339444455 0 0.00067497609556307935 -0.0020000920920974653 0 0.0010092306961923217 -0.0021966981008494997 0 0.00067497609556307935 -0.0020000920920974653 0 0.00076871222906081389 -0.0016591650309755242 0 0.00064012739530745679 -0.0025702350087346876 0 0.00053689178611104633 -0.0018577325679430615 0 0.00024534313624295461 -0.0029004685002398329 0 0.00081918259645651287 -0.0028522698219152634 0 0.00073585561445078734 -0.00214616904028073 0 0.00081918259645651287 -0.0028522698219152634 0 0.0010121329967885655 -0.0023978525667997081 0 0.00073585561445078734 -0.00214616904028073 0 0.00081918259645651287 -0.0028522698219152634 0 0.0012375233003903093 -0.0027599711802038743 0 0.0010121329967885655 -0.0023978525667997081 0 0.00098451326762633343 -0.003691059604517842 0 0.00081918259645651287 -0.0028522698219152634 0 0.00063701417255452837 -0.0033360650579390451 0 0.0010760551551105325 -0.0037744043765300548 0 0.0009990602200378011 -0.0030527767052124046 0 0.00098451326762633343 -0.003691059604517842 0 0.0012375233003903093 -0.0027599711802038743 0 0.0016685433082220672 -0.0029606664010566612 0 0.00098451326762633343 -0.003691059604517842 0 0.00081918259645651287 -0.0028522698219152634 0 0.0012375233003903093 -0.0027599711802038743 0 0.0012375233003903093 -0.0027599711802038743 0 0.0016685433082220672 -0.0029606664010566612 0 0.0013868511748097584 -0.0022964633082116267 0 0.0012375233003903093 -0.0027599711802038743 0 0.0013868511748097584 -0.0022964633082116267 0 0.0010121329967885655 -0.0023978525667997081 0 0.00097474302851375475 -0.0036460138620729148 0 0.00097889098842980854 -0.0037669209579416127 0 0.00091018932951109814 -0.0037438017405866377 0 0.00072823528652349052 -0.002353661300767378 0 0.0009990602200378011 -0.0030527767052124046 0 0.00080223378591519009 -0.0015963404415442609 0 0.00077185186433976084 -0.001654375547301254 0 0.00079434249702680054 -0.0015860629841592479 0 0.0009990602200378011 -0.0030527767052124046 0 0.0010663417616787966 -0.0018103376041276645 0 0.00077185186433976084 -0.001654375547301254 0 0.00079434249702680054 -0.0015860629841592479 0 0.0007591586259136523 -0.0015841562890634338 0 4.096378129416468e-05 -0.0023612947659829662 0 0.00045757107918143586 -0.0023903611522215883 0 0.00036715415140715197 -0.0027877065963737954 0 0.00072823528652349052 -0.002353661300767378 0 0.00071355444965907715 -0.0033794775555969041 0 0.00097474302851375475 -0.0036460138620729148 0 0.00097889098842980854 -0.0037669209579416127 0 0.0010591403324043912 -0.0037677047450264305 0 0.00097889098842980854 -0.0037669209579416127 0 0.0010591403324043912 -0.0037677047450264305 0 0.0010135239134412459 -0.0038475757544938404 0 0.00097889098842980854 -0.0037669209579416127 0 0.00095360557834806296 -0.0038180184149787526 0 0.0010135239134412459 -0.0038475757544938404 0 0.00098451326762633343 -0.003691059604517842 0 0.00096510929925490798 -0.0038340047136989062 0 0.00095360557834806296 -0.0038180184149787526 0 0.0009990602200378011 -0.0030527767052124046 0 0.0010310769779572975 -0.0040166764132011715 0 0.00097889098842980854 -0.0037669209579416127 0 0.00091018932951109814 -0.0037438017405866377 0 0.00095360557834806296 -0.0038180184149787526 0 0.0010384292621176306 -0.0025642422270449093 0 0.00067457098342071063 -0.0026477181694706509 0 0.00082180426702970529 -0.0023048390371826089 0 0.0010384292621176306 -0.0025642422270449093 0 0.00067457098342071063 -0.0026477181694706509 0 0.00089930524253518766 -0.0028631268277351527 0 0.00067457098342071063 -0.0026477181694706509 0 0.00045757107918143586 -0.0023903611522215883 0 0.00036715415140715197 -0.0027877065963737954 0 0.00067457098342071063 -0.0026477181694706509 0 0.00045757107918143586 -0.0023903611522215883 0 0.00082180426702970529 -0.0023048390371826089 0 0.00067457098342071063 -0.0026477181694706509 0 0.00036715415140715197 -0.0027877065963737954 0 0.00062909695009672557 -0.0032199333575997657 0 0.0010591403324043912 -0.0037677047450264305 0 0.001128691415649999 -0.0039178536050433642 0 0.0010135239134412459 -0.0038475757544938404 0 0.00071355444965907715 -0.0033794775555969041 0 0.0008719996551522348 -0.0035540834186548131 0 0.00067457098342071063 -0.0026477181694706509 0 0.00089930524253518766 -0.0028631268277351527 0 0.00062909695009672557 -0.0032199333575997657 0 0.00099717196023802845 -0.0031968590109602755 0 0.00089930524253518766 -0.0028631268277351527 0 0.00062909695009672557 -0.0032199333575997657 0 0.00089882171847460149 -0.0036967883190253108 0 0.00099717196023802845 -0.0031968590109602755 0 0.00062909695009672557 -0.0032199333575997657 0 0.001128691415649999 -0.0039178536050433642 0 0.0010135239134412459 -0.0038475757544938404 0 0.0010309897532699704 -0.0039519468771489234 0 0.001128691415649999 -0.0039178536050433642 0 0.0010803456127034907 -0.004019948598422419 0 0.0010309897532699704 -0.0039519468771489234 0 0.0010803456127034907 -0.004019948598422419 0 0.0009992892975526726 -0.004067772141295398 0 0.0010707314570309961 -0.0041420760971061336 0 0.0010803456127034907 -0.004019948598422419 0 0.0010309897532699704 -0.0039519468771489234 0 0.0009992892975526726 -0.004067772141295398 0 0.0011801157933882798 -0.0040836088231543865 0 0.0010803456127034907 -0.004019948598422419 0 0.0010707314570309961 -0.0041420760971061336 0 0.0011801157933882798 -0.0040836088231543865 0 0.001128691415649999 -0.0039178536050433642 0 0.0010803456127034907 -0.004019948598422419 0 0.001048970063209821 -0.0038984145249378122 0 0.0008719996551522348 -0.0035540834186548131 0 0.00095268585931937444 -0.0038810534494754575 0 0.00095360557834806296 -0.0038180184149787526 0 0.00097614933721246416 -0.0039196933800218978 0 0.00095360557834806296 -0.0038180184149787526 0 0.0010135239134412459 -0.0038475757544938404 0 0.00097614933721246416 -0.0039196933800218978 0 0.0010135239134412459 -0.0038475757544938404 0 0.0010309897532699704 -0.0039519468771489234 0 0.00097614933721246416 -0.0039196933800218978 0 0.00097614933721246416 -0.0039196933800218978 0 0.00095119836623215874 -0.0039998919816495448 0 0.0009992892975526726 -0.004067772141295398 0 0.0010309897532699704 -0.0039519468771489234 0 0.00097614933721246416 -0.0039196933800218978 0 0.0009992892975526726 -0.004067772141295398 0 0.00095268585931937444 -0.0038810534494754575 0 0.00095119836623215874 -0.0039998919816495448 0 0.00088064301214086553 -0.0040466918503145018 0 0.00095268585931937444 -0.0038810534494754575 0 0.00097614933721246416 -0.0039196933800218978 0 0.00095119836623215874 -0.0039998919816495448 0 0.00095119836623215874 -0.0039998919816495448 0 0.00092036731536692903 -0.0041345802585512504 0 0.00088064301214086553 -0.0040466918503145018 0 0.00095119836623215874 -0.0039998919816495448 0 0.00092036731536692903 -0.0041345802585512504 0 0.0009992892975526726 -0.004067772141295398 0 0.0009992892975526726 -0.004067772141295398 0 0.00095963568324610186 -0.0042152142759205157 0 0.0010150241756142512 -0.0041951529899158105 0 0.00092036731536692903 -0.0041345802585512504 0 0.0009992892975526726 -0.004067772141295398 0 0.00095963568324610186 -0.0042152142759205157 0 0.00095963568324610186 -0.0042152142759205157 0 0.00099868699653277724 -0.0043046923050412645 0 0.0009351162800352471 -0.0043168310985042457 0 0.00095963568324610186 -0.0042152142759205157 0 0.0010150241756142512 -0.0041951529899158105 0 0.00099868699653277724 -0.0043046923050412645 0 0.00095963568324610186 -0.0042152142759205157 0 0.00089634375169799461 -0.0042615154261226871 0 0.0009351162800352471 -0.0043168310985042457 0 0.00092036731536692903 -0.0041345802585512504 0 0.00089634375169799461 -0.0042615154261226871 0 0.00084430604753505095 -0.0041955502432021209 0 0.00092036731536692903 -0.0041345802585512504 0 0.00095963568324610186 -0.0042152142759205157 0 0.00089634375169799461 -0.0042615154261226871 0 0.0011801157933882798 -0.0040836088231543865 0 0.0011324661667399456 -0.0042124951591985425 0 0.0010707314570309961 -0.0041420760971061336 0 0.0011324661667399456 -0.0042124951591985425 0 0.0010707314570309961 -0.0041420760971061336 0 0.0010576053403303059 -0.0042574810830668412 0 0.0009992892975526726 -0.004067772141295398 0 0.0010707314570309961 -0.0041420760971061336 0 0.0010150241756142512 -0.0041951529899158105 0 0.0010707314570309961 -0.0041420760971061336 0 0.0010150241756142512 -0.0041951529899158105 0 0.0010576053403303059 -0.0042574810830668412 0 0.0010150241756142512 -0.0041951529899158105 0 0.00099868699653277724 -0.0043046923050412645 0 0.0010576053403303059 -0.0042574810830668412 0 0.00099868699653277724 -0.0043046923050412645 0 0.0010576053403303059 -0.0042574810830668412 0 0.0010439054510616584 -0.0043546380906195033 0 0.0011324661667399456 -0.0042124951591985425 0 0.0010576053403303059 -0.0042574810830668412 0 0.0011022405107614251 -0.0043398109688558119 0 0.0010576053403303059 -0.0042574810830668412 0 0.0011022405107614251 -0.0043398109688558119 0 0.0010439054510616584 -0.0043546380906195033 0 0.0011167367324290025 -0.0044357681976927099 0 0.0010670209596696421 -0.0044044965971613958 0 0.0010363822658797544 -0.0044766069587513831 0 0.0011167367324290025 -0.0044357681976927099 0 0.0011022405107614251 -0.0043398109688558119 0 0.0010670209596696421 -0.0044044965971613958 0 0.0011022405107614251 -0.0043398109688558119 0 0.0010670209596696421 -0.0044044965971613958 0 0.0010439054510616584 -0.0043546380906195033 0 0.0010670209596696421 -0.0044044965971613958 0 0.0010288130226409316 -0.0044271066937238241 0 0.0010439054510616584 -0.0043546380906195033 0 0.0010670209596696421 -0.0044044965971613958 0 0.0010288130226409316 -0.0044271066937238241 0 0.0010363822658797544 -0.0044766069587513831 0 0.0010288130226409316 -0.0044271066937238241 0 0.0009945622200664844 -0.0044893048899996794 0 0.0010363822658797544 -0.0044766069587513831 0 0.0010288130226409316 -0.0044271066937238241 0 0.0010016980664342312 -0.0044051330590190148 0 0.0009945622200664844 -0.0044893048899996794 0 0.0010288130226409316 -0.0044271066937238241 0 0.0010439054510616584 -0.0043546380906195033 0 0.0010016980664342312 -0.0044051330590190148 0 0.00099868699653277724 -0.0043046923050412645 0 0.0010439054510616584 -0.0043546380906195033 0 0.0010016980664342312 -0.0044051330590190148 0 0.00099868699653277724 -0.0043046923050412645 0 0.0010016980664342312 -0.0044051330590190148 0 0.00096938096444589971 -0.0043899290060206058 0 0.0010016980664342312 -0.0044051330590190148 0 0.00096938096444589971 -0.0043899290060206058 0 0.00097814865109060035 -0.0044651483297957614 0 0.0010016980664342312 -0.0044051330590190148 0 0.0009945622200664844 -0.0044893048899996794 0 0.00097814865109060035 -0.0044651483297957614 0 0.00099279884938747163 -0.0045272463378018555 0 0.0009945622200664844 -0.0044893048899996794 0 0.00097814865109060035 -0.0044651483297957614 0 0.00099279884938747163 -0.0045272463378018555 0 0.00097814865109060035 -0.0044651483297957614 0 0.00097917134099357911 -0.0045138998175804383 0 0.00099279884938747163 -0.0045272463378018555 0 0.00097917134099357911 -0.0045138998175804383 0 0.0010133668598500448 -0.0045256611545407433 0 0.00099279884938747163 -0.0045272463378018555 0 0.00094473945829125227 -0.0046307271775310396 0 0.0010133668598500448 -0.0045256611545407433 0 0.00099279884938747163 -0.0045272463378018555 0 0.0009945622200664844 -0.0044893048899996794 0 0.00094473945829125227 -0.0046307271775310396 0 0.0009945622200664844 -0.0044893048899996794 0 0.00094473945829125227 -0.0046307271775310396 0 0.0010363822658797544 -0.0044766069587513831 0 0.0010966678706517358 -0.0044896274311070003 0 0.00094473945829125227 -0.0046307271775310396 0 0.0010363822658797544 -0.0044766069587513831 0 0.00088338088375751521 -0.0043717409864795576 0 0.0009351162800352471 -0.0043168310985042457 0 0.00093543767569985979 -0.0044499116355118992 0 0.00088338088375751521 -0.0043717409864795576 0 0.00088897579323417297 -0.0044418516978001702 0 0.0008288810451979508 -0.0044193995648892396 0 0.00089634375169799461 -0.0042615154261226871 0 0.00088338088375751521 -0.0043717409864795576 0 0.00082163329456718358 -0.0043221500042002368 0 0.00089634375169799461 -0.0042615154261226871 0 0.00088338088375751521 -0.0043717409864795576 0 0.0009351162800352471 -0.0043168310985042457 0 0.0009351162800352471 -0.0043168310985042457 0 0.00096938096444589971 -0.0043899290060206058 0 0.00093543767569985979 -0.0044499116355118992 0 0.00099868699653277724 -0.0043046923050412645 0 0.0009351162800352471 -0.0043168310985042457 0 0.00096938096444589971 -0.0043899290060206058 0 0.00093543767569985979 -0.0044499116355118992 0 0.00097917134099357911 -0.0045138998175804383 0 0.00091749093004096468 -0.0045229585435249617 0 0.00093543767569985979 -0.0044499116355118992 0 0.00097814865109060035 -0.0044651483297957614 0 0.00097917134099357911 -0.0045138998175804383 0 0.00096938096444589971 -0.0043899290060206058 0 0.00093543767569985979 -0.0044499116355118992 0 0.00097814865109060035 -0.0044651483297957614 0 0.00085629831517576192 -0.0044769394150354211 0 0.00078696819714170561 -0.0045224572913878311 0 0.00091749093004096468 -0.0045229585435249617 0 0.00093543767569985979 -0.0044499116355118992 0 0.00088897579323417297 -0.0044418516978001702 0 0.00091749093004096468 -0.0045229585435249617 0 0.00088338088375751521 -0.0043717409864795576 0 0.00093543767569985979 -0.0044499116355118992 0 0.00088897579323417297 -0.0044418516978001702 0 0.00088897579323417297 -0.0044418516978001702 0 0.00085629831517576192 -0.0044769394150354211 0 0.0008288810451979508 -0.0044193995648892396 0 0.00088897579323417297 -0.0044418516978001702 0 0.00085629831517576192 -0.0044769394150354211 0 0.00091749093004096468 -0.0045229585435249617 0 0.0008288810451979508 -0.0044193995648892396 0 0.00073079863216829498 -0.0043523445035351599 0 0.00078696819714170561 -0.0045224572913878311 0 0.00085629831517576192 -0.0044769394150354211 0 0.0008288810451979508 -0.0044193995648892396 0 0.00078696819714170561 -0.0045224572913878311 0 0.0018760965217267155 -0.0050181506279949458 0 0.001826697296140077 -0.0051620706193373795 0 0.0018450401957598808 -0.0049883196858678857 0 0.0019296666787522079 -0.0049043897809275538 0 0.0019394329220955792 -0.0051627327767498395 0 0.0019296666787522079 -0.0049043897809275538 0 0.0019394329220955792 -0.0051627327767498395 0 0.0019971822432892235 -0.0051647356641193213 0 0.0018450401957598808 -0.0049883196858678857 0 0.0017787702723630853 -0.0051682040895388902 0 0.0019525543457652097 -0.0051741404703426926 0 0.0013426765529140675 -0.0046375330793455866 0 0.0014156805866570041 -0.0050993686561001776 0 0.0018450401957598808 -0.0049883196858678857 0 0.0019296666787522079 -0.0049043897809275538 0 0.0018174922283121099 -0.0048385405810640464 0 0.0008288810451979508 -0.0044193995648892396 0 0.00073079863216829498 -0.0043523445035351599 0 0.00082163329456718358 -0.0043221500042002368 0 0.00088338088375751521 -0.0043717409864795576 0 0.0008288810451979508 -0.0044193995648892396 0 0.00082163329456718358 -0.0043221500042002368 0 0.00089634375169799461 -0.0042615154261226871 0 0.00082163329456718358 -0.0043221500042002368 0 0.00084430604753505095 -0.0041955502432021209 0 0.00084430604753505095 -0.0041955502432021209 0 0.00077320093024158963 -0.0042263764562114501 0 0.00080530024570665511 -0.0041067349123699755 0 0.00082163329456718358 -0.0043221500042002368 0 0.00084430604753505095 -0.0041955502432021209 0 0.00077320093024158963 -0.0042263764562114501 0 0.00073079863216829498 -0.0043523445035351599 0 0.00082163329456718358 -0.0043221500042002368 0 0.00077320093024158963 -0.0042263764562114501 0 0.0019296666787522079 -0.0049043897809275538 0 0.0018413136930059406 -0.0046016822684310562 0 0.0018174922283121099 -0.0048385405810640464 0 0.00073079863216829498 -0.0043523445035351599 0 0.00077320093024158963 -0.0042263764562114501 0 0.00066602820455939182 -0.0041277761928043624 0 0.0013426765529140675 -0.0046375330793455866 0 0.001143694530998217 -0.0040673470639383822 0 0.00085178894735406653 -0.0039307485717762327 0 0.00066602820455939182 -0.0041277761928043624 0 0.00080530024570665511 -0.0041067349123699755 0 0.00068479595096528967 -0.0040505385119039691 0 0.001143694530998217 -0.0040673470639383822 0 0.00077320093024158963 -0.0042263764562114501 0 0.00066602820455939182 -0.0041277761928043624 0 0.00080530024570665511 -0.0041067349123699755 0 0.00085178894735406653 -0.0039307485717762327 0 0.00088064301214086553 -0.0040466918503145018 0 0.00080530024570665511 -0.0041067349123699755 0 0.00084430604753505095 -0.0041955502432021209 0 0.00088064301214086553 -0.0040466918503145018 0 0.00080530024570665511 -0.0041067349123699755 0 0.00092036731536692903 -0.0041345802585512504 0 0.00084430604753505095 -0.0041955502432021209 0 0.00088064301214086553 -0.0040466918503145018 0 0.00076672780188918508 -0.0030598291393585213 0 0.00084308430007660367 -0.0034411257248285884 0 0.00061466986733998063 -0.003406693592194158 0 0.00076672780188918508 -0.0030598291393585213 0 0.00084308430007660367 -0.0034411257248285884 0 0.0010314992361939172 -0.0032437325997790043 0 0.00084308430007660367 -0.0034411257248285884 0 0.0010314992361939172 -0.0032437325997790043 0 0.0010300841465237225 -0.0035309387245943194 0 0.0013909705846588401 -0.003367919204418673 0 0.0010314992361939172 -0.0032437325997790043 0 0.0010300841465237225 -0.0035309387245943194 0 0.0013909705846588401 -0.003367919204418673 0 0.0011905067993369298 -0.0036636207815337828 0 0.0010300841465237225 -0.0035309387245943194 0 0.0018413136930059406 -0.0046016822684310562 0 0.0017369027607963136 -0.0047701599223724678 0 0.0018174922283121099 -0.0048385405810640464 0 0.001143694530998217 -0.0040673470639383822 0 0.0015089191830821753 -0.0041498913307718493 0 0.0011905067993369298 -0.0036636207815337828 0 0.00097428864907571344 -0.0037289708246209872 0 0.0010300841465237225 -0.0035309387245943194 0 0.00097428864907571344 -0.0037289708246209872 0 0.0010300841465237225 -0.0035309387245943194 0 0.00084473738793859816 -0.0036593691710405936 0 0.00084308430007660367 -0.0034411257248285884 0 0.0010300841465237225 -0.0035309387245943194 0 0.00084473738793859816 -0.0036593691710405936 0 0.00084308430007660367 -0.0034411257248285884 0 0.00084473738793859816 -0.0036593691710405936 0 0.00066121187529031157 -0.0035992159009308523 0 0.00097428864907571344 -0.0037289708246209872 0 0.00084473738793859816 -0.0036593691710405936 0 0.00081305605477698475 -0.0038364448518390785 0 0.00084473738793859816 -0.0036593691710405936 0 0.00081305605477698475 -0.0038364448518390785 0 0.00071576115492715323 -0.0037424570537350744 0 0.00084473738793859816 -0.0036593691710405936 0 0.00066121187529031157 -0.0035992159009308523 0 0.00071576115492715323 -0.0037424570537350744 0 0.00097428864907571344 -0.0037289708246209872 0 0.00081305605477698475 -0.0038364448518390785 0 0.00099505909702577149 -0.0039522005214372331 0 0.00081305605477698475 -0.0038364448518390785 0 0.00099505909702577149 -0.0039522005214372331 0 0.00069833939478732628 -0.0040075587139787481 0 0.001507382794963863 -0.004733546899494909 0 0.0010854045762436076 -0.0045050387674265679 0 0.0016602874682753465 -0.0049541591663120896 0 0.0015793673018062774 -0.0050799958814847102 0 0.0015178843751585713 -0.0049847106118690396 0 0.0018450401957598808 -0.0049883196858678857 0 0.0018174922283121099 -0.0048385405810640464 0 0.001736009467417819 -0.0049169312711437431 0 0.0017369027607963136 -0.0047701599223724678 0 0.0018174922283121099 -0.0048385405810640464 0 0.001736009467417819 -0.0049169312711437431 0 0.0011905067993369298 -0.0036636207815337828 0 0.00097428864907571344 -0.0037289708246209872 0 0.00099505909702577149 -0.0039522005214372331 0 0.0017369027607963136 -0.0047701599223724678 0 0.0016337952438596408 -0.0049367412805990784 0 0.001736009467417819 -0.0049169312711437431 0 0.0015089191830821753 -0.0041498913307718493 0 0.001507382794963863 -0.004733546899494909 0 0.0016531140254638049 -0.0049425360836079174 0 0.001736009467417819 -0.0049169312711437431 0 0.0017305319003902496 -0.0050318621965765396 0 0.001507382794963863 -0.004733546899494909 0 0.0016943338848921148 -0.0048238934853884101 0 0.0018450401957598808 -0.0049883196858678857 0 0.001736009467417819 -0.0049169312711437431 0 0.0017305319003902496 -0.0050318621965765396 0 0.0018450401957598808 -0.0049883196858678857 0 0.0017305319003902496 -0.0050318621965765396 0 0.0017787702723630853 -0.0051682040895388902 0 0.0016683370115292545 -0.0050841368409573406 0 0.0016206218963115667 -0.0051745275752812184 0 0.0017787702723630853 -0.0051682040895388902 0 0.0016531140254638049 -0.0049425360836079174 0 0.0017305319003902496 -0.0050318621965765396 0 0.0016683370115292545 -0.0050841368409573406 0 0.0017305319003902496 -0.0050318621965765396 0 0.0016683370115292545 -0.0050841368409573406 0 0.0017787702723630853 -0.0051682040895388902 0 0.001507382794963863 -0.004733546899494909 0 0.0015599188596091243 -0.0050767630397541598 0 0.0016531140254638049 -0.0049425360836079174 0 0.0015793673018062774 -0.0050799958814847102 0 0.0016683370115292545 -0.0050841368409573406 0 0.0015793673018062774 -0.0050799958814847102 0 0.0016683370115292545 -0.0050841368409573406 0 0.0016206218963115667 -0.0051745275752812184 0 0.0015793673018062774 -0.0050799958814847102 0 0.0016206218963115667 -0.0051745275752812184 0 0.0015307346897843477 -0.0051695608643796296 0 0.0016206218963115667 -0.0051745275752812184 0 0.0015783735084264484 -0.0052546983620953723 0 0.0015307346897843477 -0.0051695608643796296 0 0.0016206218963115667 -0.0051745275752812184 0 0.0015783735084264484 -0.0052546983620953723 0 0.0017121262073301123 -0.0053213380435838962 0 0.0015783735084264484 -0.0052546983620953723 0 0.0016036695761196642 -0.0053784339650425712 0 0.0017121262073301123 -0.0053213380435838962 0 0.0017121262073301123 -0.0053213380435838962 0 0.0018041325742586376 -0.0053781676255735787 0 0.0017758791737331379 -0.0054693694116531473 0 0.0016036695761196642 -0.0053784339650425712 0 0.0017121262073301123 -0.0053213380435838962 0 0.0017758791737331379 -0.0054693694116531473 0 0.0017121262073301123 -0.0053213380435838962 0 0.0018014373946350563 -0.0053125579176423682 0 0.0018041325742586376 -0.0053781676255735787 0 0.0017121262073301123 -0.0053213380435838962 0 0.0017564185620611399 -0.0052147570838925253 0 0.0018014373946350563 -0.0053125579176423682 0 0.0016291761424291049 -0.0051785530645749407 0 0.0017758288572194251 -0.0051920661519853587 0 0.0016206218963115667 -0.0051745275752812184 0 0.0017121262073301123 -0.0053213380435838962 0 0.0017564185620611399 -0.0052147570838925253 0 0.0017758288572194251 -0.0051920661519853587 0 0.001826697296140077 -0.0051620706193373795 0 0.0018591514361115671 -0.005243135879897832 0 0.0018014373946350563 -0.0053125579176423682 0 0.0018461400870565213 -0.0053772893852843682 0 0.0017564185620611399 -0.0052147570838925253 0 0.0018591514361115671 -0.005243135879897832 0 0.0018014373946350563 -0.0053125579176423682 0 0.001826697296140077 -0.0051620706193373795 0 0.0014156805866570041 -0.0050993686561001776 0 0.0017585605049926837 -0.0057569753590024737 0 0.0017231564560308396 -0.0056306706825003088 0 0.001685172185089367 -0.0057040724438588986 0 0.001826697296140077 -0.0051620706193373795 0 0.0018337319005895995 -0.0055536013883367846 0 0.0015844992795661823 -0.0051231888899578816 0 0.0016927789407697631 -0.0051274862208159798 0 0.0018161033127015267 -0.0055281927565449781 0 0.0014156805866570041 -0.0050993686561001776 0 0.001264857638800876 -0.0051751415923367676 0 0.0014156805866570041 -0.0050993686561001776 0 0.0018337319005895995 -0.0055536013883367846 0 0.0018591514361115671 -0.005243135879897832 0 0.0018983278293193719 -0.0053993375189707914 0 0.0018461400870565213 -0.0053772893852843682 0 0.0017231564560308396 -0.0056306706825003088 0 0.001685172185089367 -0.0057040724438588986 0 0.0016697955650948337 -0.0056519968185327471 0 0.0018983278293193719 -0.0053993375189707914 0 0.0018461400870565213 -0.0053772893852843682 0 0.0018658133204032465 -0.0054437510640608106 0 0.0018014373946350563 -0.0053125579176423682 0 0.0018461400870565213 -0.0053772893852843682 0 0.0018041325742586376 -0.0053781676255735787 0 0.0018461400870565213 -0.0053772893852843682 0 0.0018041325742586376 -0.0053781676255735787 0 0.0018503060221262994 -0.0054475794232511521 0 0.0018041325742586376 -0.0053781676255735787 0 0.0018503060221262994 -0.0054475794232511521 0 0.0017758791737331379 -0.0054693694116531473 0 0.0018461400870565213 -0.0053772893852843682 0 0.0018503060221262994 -0.0054475794232511521 0 0.0018658133204032465 -0.0054437510640608106 0 0.0018952029605748021 -0.0055046866498969461 0 0.0018498351708002693 -0.0054759217157491812 0 0.0017994529509135358 -0.0054758031022689724 0 0.0018983278293193719 -0.0053993375189707914 0 0.0018498351708002693 -0.0054759217157491812 0 0.0018658133204032465 -0.0054437510640608106 0 0.0018337319005895995 -0.0055536013883367846 0 0.0018522493934535211 -0.0054471305853750008 0 0.0018503060221262994 -0.0054475794232511521 0 0.0018658133204032465 -0.0054437510640608106 0 0.0018636344097174018 -0.0054587594365117648 0 0.0018498351708002693 -0.0054759217157491812 0 0.0018487266394327728 -0.0054522201232178203 0 0.0017994529509135358 -0.0054758031022689724 0 0.0018498351708002693 -0.0054759217157491812 0 0.0018658133204032465 -0.0054437510640608106 0 0.0018636344097174018 -0.0054587594365117648 0 0.0018498351708002693 -0.0054759217157491812 0 0.0018636344097174018 -0.0054587594365117648 0 0.0018487266394327728 -0.0054522201232178203 0 0.0018636344097174018 -0.0054587594365117648 0 0.0018487266394327728 -0.0054522201232178203 0 0.0019122024897884331 -0.005439494461408483 0 0.0018503060221262994 -0.0054475794232511521 0 0.0019122024897884331 -0.005439494461408483 0 0.0017758791737331379 -0.0054693694116531473 0 0.0018503060221262994 -0.0054475794232511521 0 0.0018636344097174018 -0.0054587594365117648 0 0.0019122024897884331 -0.005439494461408483 0 0.0019038860297583453 -0.005441663852474945 0 0.0019214738331918824 -0.0054910791437179805 0 0.0019122024897884331 -0.005439494461408483 0 0.002066671388388756 -0.0054243686246126504 0 0.0020734072670593106 -0.0055303891679680285 0 0.002066671388388756 -0.0054243686246126504 0 0.0021576149300671396 -0.0054507982572846465 0 0.0021359238812499949 -0.005358489134630203 0 0.002066671388388756 -0.0054243686246126504 0 0.0021576149300671396 -0.0054507982572846465 0 0.0020734072670593106 -0.0055303891679680285 0 0.0021576149300671396 -0.0054507982572846465 0 0.0022212642953805331 -0.0054064912720606069 0 0.0021359238812499949 -0.005358489134630203 0 0.0021576149300671396 -0.0054507982572846465 0 0.0022212642953805331 -0.0054064912720606069 0 0.0022714132338080518 -0.0054474643425446697 0 0.0021576149300671396 -0.0054507982572846465 0 0.0021948298111832036 -0.0055262100860091132 0 0.0022714132338080518 -0.0054474643425446697 0 0.0018877910071751199 -0.0055053968880079138 0 0.0019214738331918824 -0.0054910791437179805 0 0.0021576149300671396 -0.0054507982572846465 0 0.0021948298111832036 -0.0055262100860091132 0 0.0020734072670593106 -0.0055303891679680285 0 0.0021926834256304996 -0.0056140269817355898 0 0.0021948298111832036 -0.0055262100860091132 0 0.0020734072670593106 -0.0055303891679680285 0 0.0011499460074721 -0.0056202005962277942 0 0.0013560795992213657 -0.0056419377428456987 0 0.001307592417616634 -0.0055426707591619247 0 0.0011540189918406787 -0.0056493963130308539 0 0.001369769627814483 -0.0056874749972099115 0 0.0013560795992213657 -0.0056419377428456987 0 0.00096760165591215468 -0.0053511053471677547 0 0.0011540189918406787 -0.0056493963130308539 0 0.0013560795992213657 -0.0056419377428456987 0 0.0010556431780442709 -0.0054836952904211683 0 0.0013334050633128718 -0.005626950451822094 0 0.00082001623753864817 -0.0047338601456192574 0 0.00079169083544806766 -0.0047742670241540681 0 0.00073349699599003604 -0.0047368044431205262 0 0.0007419732763683433 -0.0046457712974186339 0 0.0010952121006423869 -0.0049216162802431691 0 0.00098834945390872541 -0.0052600506225476823 0 0.0010952121006423869 -0.0049216162802431691 0 0.00082001623753864817 -0.0047338601456192574 0 0.00094473945829125227 -0.0046307271775310396 0 0.0010133668598500448 -0.0045256611545407433 0 0.0011540189918406787 -0.0056493963130308539 0 0.001369769627814483 -0.0056874749972099115 0 0.0014483278430700295 -0.0057933980749656317 0 0.00090683178082037828 -0.0046012542366041477 0 0.0010952121006423869 -0.0049216162802431691 0 0.001369769627814483 -0.0056874749972099115 0 0.0014483278430700295 -0.0057933980749656317 0 0.0014733864743703533 -0.0056762767003506638 0 0.0014483278430700295 -0.0057933980749656317 0 0.0014733864743703533 -0.0056762767003506638 0 0.0015472088169475135 -0.0057043970599145897 0 0.0013560795992213657 -0.0056419377428456987 0 0.0014476055759162622 -0.0055787655409948672 0 0.001307592417616634 -0.0055426707591619247 0 0.0014733864743703533 -0.0056762767003506638 0 0.0013560795992213657 -0.0056419377428456987 0 0.0014476055759162622 -0.0055787655409948672 0 0.001369769627814483 -0.0056874749972099115 0 0.0014733864743703533 -0.0056762767003506638 0 0.0013560795992213657 -0.0056419377428456987 0 0.0014733864743703533 -0.0056762767003506638 0 0.0015618930272355514 -0.0056180302621962434 0 0.0014476055759162622 -0.0055787655409948672 0 0.0015618930272355514 -0.0056180302621962434 0 0.0015472088169475135 -0.0057043970599145897 0 0.0016199467134960428 -0.0056803969177380313 0 0.0014733864743703533 -0.0056762767003506638 0 0.0015618930272355514 -0.0056180302621962434 0 0.0015472088169475135 -0.0057043970599145897 0 0.0010952121006423869 -0.0049216162802431691 0 0.001264857638800876 -0.0051751415923367676 0 0.0014483278430700295 -0.0057933980749656317 0 0.0015472088169475135 -0.0057043970599145897 0 0.0016172989050449887 -0.0057635392737835156 0 0.00097917134099357911 -0.0045138998175804383 0 0.0010151902108060517 -0.0045390930558634451 0 0.00091749093004096468 -0.0045229585435249617 0 0.0015472088169475135 -0.0057043970599145897 0 0.0016172989050449887 -0.0057635392737835156 0 0.0016199467134960428 -0.0056803969177380313 0 0.0016172989050449887 -0.0057635392737835156 0 0.001685172185089367 -0.0057040724438588986 0 0.0016199467134960428 -0.0056803969177380313 0 0.0017585605049926837 -0.0057569753590024737 0 0.0016172989050449887 -0.0057635392737835156 0 0.001685172185089367 -0.0057040724438588986 0 0.001685172185089367 -0.0057040724438588986 0 0.0016697955650948337 -0.0056519968185327471 0 0.0016199467134960428 -0.0056803969177380313 0 0.0016697955650948337 -0.0056519968185327471 0 0.0016199467134960428 -0.0056803969177380313 0 0.0016455365447002699 -0.005599249619322305 0 0.0015618930272355514 -0.0056180302621962434 0 0.0016199467134960428 -0.0056803969177380313 0 0.0016455365447002699 -0.005599249619322305 0 0.0015618930272355514 -0.0056180302621962434 0 0.0016455365447002699 -0.005599249619322305 0 0.0016099833561525874 -0.005557749595208634 0 0.0017231564560308396 -0.0056306706825003088 0 0.0016697955650948337 -0.0056519968185327471 0 0.0016455365447002699 -0.005599249619322305 0 0.0018337319005895995 -0.0055536013883367846 0 0.0017261426807540414 -0.0054878027247652747 0 0.0016099833561525874 -0.005557749595208634 0 0.0016659123647535738 -0.0055131737384016615 0 0.001560089496313641 -0.0055164762858244537 0 0.0017231564560308396 -0.0056306706825003088 0 0.0016455365447002699 -0.005599249619322305 0 0.0016659123647535738 -0.0055131737384016615 0 0.0016455365447002699 -0.005599249619322305 0 0.0016099833561525874 -0.005557749595208634 0 0.0016659123647535738 -0.0055131737384016615 0 0.0017261426807540414 -0.0054878027247652747 0 0.0016568911920201476 -0.0054022438333635528 0 0.0016659123647535738 -0.0055131737384016615 0 0.001560089496313641 -0.0055164762858244537 0 0.0016508360463340205 -0.0054041709942899054 0 0.0018487266394327728 -0.0054522201232178203 0 0.0017994529509135358 -0.0054758031022689724 0 0.0016508360463340205 -0.0054041709942899054 0 0.0015209148794377305 -0.0054452601077426806 0 0.001560089496313641 -0.0055164762858244537 0 0.0016508360463340205 -0.0054041709942899054 0 0.0015618930272355514 -0.0056180302621962434 0 0.0016099833561525874 -0.005557749595208634 0 0.001560089496313641 -0.0055164762858244537 0 0.0015618930272355514 -0.0056180302621962434 0 0.001560089496313641 -0.0055164762858244537 0 0.0014476055759162622 -0.0055787655409948672 0 0.001560089496313641 -0.0055164762858244537 0 0.0014476055759162622 -0.0055787655409948672 0 0.0014248292150278083 -0.0054810786166819437 0 0.0014476055759162622 -0.0055787655409948672 0 0.0014248292150278083 -0.0054810786166819437 0 0.001307592417616634 -0.0055426707591619247 0 0.0015209148794377305 -0.0054452601077426806 0 0.001560089496313641 -0.0055164762858244537 0 0.0014248292150278083 -0.0054810786166819437 0 0.0015209148794377305 -0.0054452601077426806 0 0.0014248292150278083 -0.0054810786166819437 0 0.0014486633536740072 -0.0053705540732129483 0 0.001234537742726795 -0.0053892745562162999 0 0.0014248292150278083 -0.0054810786166819437 0 0.0014486633536740072 -0.0053705540732129483 0 0.001234537742726795 -0.0053892745562162999 0 0.0014248292150278083 -0.0054810786166819437 0 0.001307592417616634 -0.0055426707591619247 0 0.0011900608241450109 -0.0054978016667425788 0 0.001234537742726795 -0.0053892745562162999 0 0.001307592417616634 -0.0055426707591619247 0 0.0013178612006029689 -0.0053043918029898477 0 0.0014465149888751472 -0.0052477786539750484 0 0.0012989845292377524 -0.0051782138130139453 0 0.001234537742726795 -0.0053892745562162999 0 0.0013178612006029689 -0.0053043918029898477 0 0.0014486633536740072 -0.0053705540732129483 0 0.0014465149888751472 -0.0052477786539750484 0 0.0015969957457798293 -0.0052997439615436086 0 0.0015613014323689596 -0.0051457064551290108 0 0.0014486633536740072 -0.0053705540732129483 0 0.0014465149888751472 -0.0052477786539750484 0 0.0015969957457798293 -0.0052997439615436086 0 0.0013178612006029689 -0.0053043918029898477 0 0.0014486633536740072 -0.0053705540732129483 0 0.0014465149888751472 -0.0052477786539750484 0 0.0015969957457798293 -0.0052997439615436086 0 0.0017314989374242861 -0.005225635606512233 0 0.0015613014323689596 -0.0051457064551290108 0 0.0014486633536740072 -0.0053705540732129483 0 0.0015969957457798293 -0.0052997439615436086 0 0.0016508360463340205 -0.0054041709942899054 0 0.0015209148794377305 -0.0054452601077426806 0 0.0014486633536740072 -0.0053705540732129483 0 0.0016508360463340205 -0.0054041709942899054 0 0.0018487266394327728 -0.0054522201232178203 0 0.0016508360463340205 -0.0054041709942899054 0 0.0018295167233295111 -0.0053505853494581436 0 0.0015969957457798293 -0.0052997439615436086 0 0.0016508360463340205 -0.0054041709942899054 0 0.0018295167233295111 -0.0053505853494581436 0 0.0015969957457798293 -0.0052997439615436086 0 0.0017314989374242861 -0.005225635606512233 0 0.0018295167233295111 -0.0053505853494581436 0 0.0017314989374242861 -0.005225635606512233 0 0.0017386160317856428 -0.0049999747231530105 0 0.0018767941206475642 -0.0051324060585968634 0 0.0017386160317856428 -0.0049999747231530105 0 0.0015613014323689596 -0.0051457064551290108 0 0.0014594136104709775 -0.0049999643900957387 0 0.0017314989374242861 -0.005225635606512233 0 0.0017386160317856428 -0.0049999747231530105 0 0.0015613014323689596 -0.0051457064551290108 0 0.0014465149888751472 -0.0052477786539750484 0 0.0015613014323689596 -0.0051457064551290108 0 0.0012989845292377524 -0.0051782138130139453 0 0.0015613014323689596 -0.0051457064551290108 0 0.0014594136104709775 -0.0049999643900957387 0 0.0012989845292377524 -0.0051782138130139453 0 0.0011802242382315715 -0.0049999765654024182 0 0.0014594136104709775 -0.0049999643900957387 0 0.0012989845292377524 -0.0051782138130139453 0 0.0020884583075307596 -0.0052730061359400494 0 0.0021777698643286208 -0.0052720828755049047 0 0.0021236633492738325 -0.0051780988019542928 0 0.0021777698643286208 -0.0052720828755049047 0 0.0022183240029335 -0.0052015349358669636 0 0.0022329733900180041 -0.0052515973233049438 0 0.0021777698643286208 -0.0052720828755049047 0 0.002235883305678618 -0.0052988514143885723 0 0.0022309843667560544 -0.0053476020808364113 0 0.0021777698643286208 -0.0052720828755049047 0 0.0022329733900180041 -0.0052515973233049438 0 0.002235883305678618 -0.0052988514143885723 0 0.0020884583075307596 -0.0052730061359400494 0 0.0021777698643286208 -0.0052720828755049047 0 0.0021359238812499949 -0.005358489134630203 0 0.0021777698643286208 -0.0052720828755049047 0 0.0021359238812499949 -0.005358489134630203 0 0.0022309843667560544 -0.0053476020808364113 0 0.0022212642953805331 -0.0054064912720606069 0 0.0021359238812499949 -0.005358489134630203 0 0.0022309843667560544 -0.0053476020808364113 0 0.002066671388388756 -0.0054243686246126504 0 0.0021359238812499949 -0.005358489134630203 0 0.0020055388711622754 -0.0053395246181058677 0 0.0020884583075307596 -0.0052730061359400494 0 0.0021359238812499949 -0.005358489134630203 0 0.0020055388711622754 -0.0053395246181058677 0 0.0019122024897884331 -0.005439494461408483 0 0.002066671388388756 -0.0054243686246126504 0 0.0020055388711622754 -0.0053395246181058677 0 0.0019122024897884331 -0.005439494461408483 0 0.0020055388711622754 -0.0053395246181058677 0 0.0018295167233295111 -0.0053505853494581436 0 0.0018487266394327728 -0.0054522201232178203 0 0.0019122024897884331 -0.005439494461408483 0 0.0018295167233295111 -0.0053505853494581436 0 0.0017314989374242861 -0.005225635606512233 0 0.0018295167233295111 -0.0053505853494581436 0 0.0019979517271415783 -0.0052298857243959183 0 0.0020884583075307596 -0.0052730061359400494 0 0.0020055388711622754 -0.0053395246181058677 0 0.0019979517271415783 -0.0052298857243959183 0 0.0020055388711622754 -0.0053395246181058677 0 0.0018295167233295111 -0.0053505853494581436 0 0.0019979517271415783 -0.0052298857243959183 0 0.0019979517271415783 -0.0052298857243959183 0 0.0018767941206475642 -0.0051324060585968634 0 0.0021434695691438439 -0.0051142209755807603 0 0.0017314989374242861 -0.005225635606512233 0 0.0019979517271415783 -0.0052298857243959183 0 0.0018767941206475642 -0.0051324060585968634 0 0.0017386160317856428 -0.0049999747231530105 0 0.0018767941206475642 -0.0051324060585968634 0 0.0020178085260883377 -0.0049999744804288763 0 0.0018767941206475642 -0.0051324060585968634 0 0.0020178085260883377 -0.0049999744804288763 0 0.0021434695691438439 -0.0051142209755807603 0 0.0020178085260883377 -0.0049999744804288763 0 0.0021434695691438439 -0.0051142209755807603 0 0.0022970682445947019 -0.0049999740343538712 0 0.0021434695691438439 -0.0051142209755807603 0 0.0022970682445947019 -0.0049999740343538712 0 0.0023283961857135092 -0.005206555881050145 0 0.0020884583075307596 -0.0052730061359400494 0 0.0019979517271415783 -0.0052298857243959183 0 0.0021236633492738325 -0.0051780988019542928 0 0.0020219863344118705 -0.0052285642754738093 0 0.0022079315822114759 -0.0051928645031856114 0 0.0019979517271415783 -0.0052298857243959183 0 0.0021434695691438439 -0.0051142209755807603 0 0.0023283961857135092 -0.005206555881050145 0 0.0021777698643286208 -0.0052720828755049047 0 0.0021236633492738325 -0.0051780988019542928 0 0.0022183240029335 -0.0052015349358669636 0 0.0021236633492738325 -0.0051780988019542928 0 0.0022791415381182576 -0.0051304901778889229 0 0.0022183240029335 -0.0052015349358669636 0 0.0022079315822114759 -0.0051928645031856114 0 0.0025151365075437942 -0.0051294912779588399 0 0.0022970682445947019 -0.0049999740343538712 0 0.0023283961857135092 -0.005206555881050145 0 0.0024492468539467566 -0.0050914985583349138 0 0.0022970682445947019 -0.0049999740343538712 0 0.0024492468539467566 -0.0050914985583349138 0 0.0025763347137908598 -0.0050000054955548611 0 0.0023283961857135092 -0.005206555881050145 0 0.0024492468539467566 -0.0050914985583349138 0 0.0026050493224755202 -0.0051391664891706802 0 0.0024492468539467566 -0.0050914985583349138 0 0.0025763347137908598 -0.0050000054955548611 0 0.0026050493224755202 -0.0051391664891706802 0 0.0025763329412162557 -0.004999999416381606 0 0.00260656712842857 -0.0051388995379839852 0 0.0027680491458740987 -0.004999999694641627 0 0.0025763268653530361 -0.0050000690321938121 0 0.0025151365075437942 -0.0051294912779588399 0 0.002598494211021634 -0.0051367530497104345 0 0.0028515196143211138 -0.0052218834605712245 0 0.0028642639539865991 -0.0050664077629593495 0 0.0025151365075437942 -0.0051294912779588399 0 0.0028866925872706819 -0.0050678218816154709 0 0.00260656712842857 -0.0051388995379839852 0 0.0027680491458740987 -0.004999999694641627 0 0.0028642639539865991 -0.0050664077629593495 0 0.002598494211021634 -0.0051367530497104345 0 0.0026430278600816405 -0.0053477765828941256 0 0.0028515196143211138 -0.0052218834605712245 0 0.0024311694831879544 -0.0052173803123536635 0 0.0026709346918864169 -0.0050556025082505512 0 0.0022791415381182576 -0.0051304901778889229 0 0.0022183240029335 -0.0052015349358669636 0 0.0022592533882690798 -0.0052197131193134931 0 0.0025151365075437942 -0.0051294912779588399 0 0.0024311694831879544 -0.0052173803123536635 0 0.0022791415381182576 -0.0051304901778889229 0 0.0022592533882690798 -0.0052197131193134931 0 0.0023027066119377525 -0.0052481193508461151 0 0.0022183240029335 -0.0052015349358669636 0 0.0022592533882690798 -0.0052197131193134931 0 0.0022329733900180041 -0.0052515973233049438 0 0.0022592533882690798 -0.0052197131193134931 0 0.0022329733900180041 -0.0052515973233049438 0 0.0022727220898899306 -0.0052653211397326481 0 0.0022727220898899306 -0.0052653211397326481 0 0.0023006984277300475 -0.0052481298726192649 0 0.0023240010882643329 -0.0053451639937495913 0 0.002235883305678618 -0.0052988514143885723 0 0.0022727220898899306 -0.0052653211397326481 0 0.0023240010882643329 -0.0053451639937495913 0 0.0022329733900180041 -0.0052515973233049438 0 0.002235883305678618 -0.0052988514143885723 0 0.0022727220898899306 -0.0052653211397326481 0 0.0022592533882690798 -0.0052197131193134931 0 0.0022727220898899306 -0.0052653211397326481 0 0.0023027066119377525 -0.0052481193508461151 0 0.0023273146963587472 -0.0052659782482368809 0 0.0024311694831879544 -0.0052173803123536635 0 0.0024311694831879544 -0.0052173803123536635 0 0.0023203519047205446 -0.0052709944816506631 0 0.002289947780341263 -0.0050337233181790885 0 0.00232936344552802 -0.0052282030834517627 0 0.002492890660408652 -0.0051343251087354732 0 0.002289947780341263 -0.0050337233181790885 0 0.002492890660408652 -0.0051343251087354732 0 0.0025005414041336612 -0.0049047168687590733 0 0.00232936344552802 -0.0052282030834517627 0 0.002433768450617759 -0.0053033595760965373 0 0.002492890660408652 -0.0051343251087354732 0 0.002235883305678618 -0.0052988514143885723 0 0.0023240010882643329 -0.0053451639937495913 0 0.0022309843667560544 -0.0053476020808364113 0 0.0023240010882643329 -0.0053451639937495913 0 0.0022309843667560544 -0.0053476020808364113 0 0.0022948309484431889 -0.0053921379681664229 0 0.0022212642953805331 -0.0054064912720606069 0 0.0022309843667560544 -0.0053476020808364113 0 0.0022948309484431889 -0.0053921379681664229 0 0.0026664853277288685 -0.0051888881691649468 0 0.0028033165435637198 -0.0050732333546120627 0 0.0028413929826651809 -0.0053149262414836562 0 0.0026664853277288685 -0.0051888881691649468 0 0.0028413929826651809 -0.0053149262414836562 0 0.0026522836725247586 -0.0053591622866045845 0 0.0026664853277288685 -0.0051888881691649468 0 0.0025467406183569195 -0.0052807280732941504 0 0.0026522836725247586 -0.0053591622866045845 0 0.0026664853277288685 -0.0051888881691649468 0 0.0025467406183569195 -0.0052807280732941504 0 0.002492890660408652 -0.0051343251087354732 0 0.002433768450617759 -0.0053033595760965373 0 0.0025467406183569195 -0.0052807280732941504 0 0.002492890660408652 -0.0051343251087354732 0 0.0026664853277288685 -0.0051888881691649468 0 0.002492890660408652 -0.0051343251087354732 0 0.002661948415383824 -0.0049724272075218129 0 0.002492890660408652 -0.0051343251087354732 0 0.002661948415383824 -0.0049724272075218129 0 0.0025005414041336612 -0.0049047168687590733 0 0.0026664853277288685 -0.0051888881691649468 0 0.002661948415383824 -0.0049724272075218129 0 0.0028033165435637198 -0.0050732333546120627 0 0.002661948415383824 -0.0049724272075218129 0 0.0025005414041336612 -0.0049047168687590733 0 0.0027120044181187485 -0.0047774557129032467 0 0.002661948415383824 -0.0049724272075218129 0 0.0027120044181187485 -0.0047774557129032467 0 0.002766481108206945 -0.0048323513201769218 0 0.002661948415383824 -0.0049724272075218129 0 0.002766481108206945 -0.0048323513201769218 0 0.0028033165435637198 -0.0050732333546120627 0 0.0026709346918864169 -0.0050556025082505512 0 0.0029719289537885191 -0.0049941220352075905 0 0.0028642639539865991 -0.0050664077629593495 0 0.0029597582063129392 -0.0049999961485727674 0 0.0030556110093438137 -0.0050965189875812255 0 0.0027680491458740987 -0.004999999694641627 0 0.0028642639539865991 -0.0050664077629593495 0 0.0029597582063129392 -0.0049999961485727674 0 0.0028515196143211138 -0.0052218834605712245 0 0.0028642639539865991 -0.0050664077629593495 0 0.0030556110093438137 -0.0050965189875812255 0 0.0032088259661511272 -0.0049263500933175997 0 0.0031029813629285174 -0.0050191734716580217 0 0.0031378184423374021 -0.0049800491486508636 0 0.0031215534140603646 -0.0049630499221632674 0 0.0031251885246878349 -0.0049879352455712246 0 0.0029719289537885191 -0.0049941220352075905 0 0.0031029813629285174 -0.0050191734716580217 0 0.0029719289537885191 -0.0049941220352075905 0 0.0032088259661511272 -0.0049263500933175997 0 0.0029598558494413263 -0.0050000849722751494 0 0.0029719289537885191 -0.0049941220352075905 0 0.0029597682086529788 -0.0049999999852251165 0 0.0030570065237465653 -0.0050970799683559796 0 0.0030862227282381126 -0.0049999989924406681 0 0.0030570065237465653 -0.0050970799683559796 0 0.0030974301338153654 -0.00507221359481402 0 0.0030862227282381126 -0.0049999989924406681 0 0.0031029813629285174 -0.0050191734716580217 0 0.0030862460492685341 -0.0050000371044447781 0 0.0030979691047822379 -0.0050727352532429267 0 0.0030862257194084509 -0.0049999994776118908 0 0.0032166802325326502 -0.004999999981720315 0 0.0031029813629285174 -0.0050191734716580217 0 0.0032166380042079391 -0.0050000164078396001 0 0.003154230816139773 -0.0051190747687751463 0 0.0031407379248678947 -0.0050591661565271813 0 0.0032169169106364211 -0.0049999207216567948 0 0.0032169169106364211 -0.0049999207216567948 0 0.0038672033417119331 -0.0049999821170420974 0 0.0037947526498908041 -0.0050384556907597123 0 0.003154230816139773 -0.0051190747687751463 0 0.0032169169106364211 -0.0049999207216567948 0 0.0033288702102189363 -0.0051335910732000344 0 0.0032169169106364211 -0.0049999207216567948 0 0.0033288702102189363 -0.0051335910732000344 0 0.0035152161885292619 -0.0051006148748154066 0 0.0033288702102189363 -0.0051335910732000344 0 0.0035152161885292619 -0.0051006148748154066 0 0.0033781937903304528 -0.0052745134002887863 0 0.0032088259661511272 -0.0049263500933175997 0 0.0031968859594550987 -0.0049153758932642712 0 0.0032088259661511272 -0.0049263500933175997 0 0.0035210027714281272 -0.0050527392922257884 0 0.0035986760105517039 -0.0048168520342290917 0 0.0036035509936005413 -0.0048089678708122295 0 0.0036001614373322621 -0.0048095756813649306 0 0.003154230816139773 -0.0051190747687751463 0 0.0033288702102189363 -0.0051335910732000344 0 0.0033781937903304528 -0.0052745134002887863 0 0.0032169169106364211 -0.0049999207216567948 0 0.0035152161885292619 -0.0051006148748154066 0 0.0037947526498908041 -0.0050384556907597123 0 0.0035152161885292619 -0.0051006148748154066 0 0.0036965869516591499 -0.0051322851798679264 0 0.0037947526498908041 -0.0050384556907597123 0 0.0035152161885292619 -0.0051006148748154066 0 0.0035777054687768949 -0.0052331661422673264 0 0.0033781937903304528 -0.0052745134002887863 0 0.0035152161885292619 -0.0051006148748154066 0 0.0036493365165265594 -0.0051913265834097966 0 0.0035777054687768949 -0.0052331661422673264 0 0.0035152161885292619 -0.0051006148748154066 0 0.0036493365165265594 -0.0051913265834097966 0 0.0036965869516591499 -0.0051322851798679264 0 0.0036493365165265594 -0.0051913265834097966 0 0.0036877829790800481 -0.0052701393388919111 0 0.0037439852440624985 -0.0051951417243460618 0 0.0036493365165265594 -0.0051913265834097966 0 0.0036965869516591499 -0.0051322851798679264 0 0.0037439852440624985 -0.0051951417243460618 0 0.0036493365165265594 -0.0051913265834097966 0 0.0036877829790800481 -0.0052701393388919111 0 0.0035777054687768949 -0.0052331661422673264 0 0.0036877829790800481 -0.0052701393388919111 0 0.0035907850941566542 -0.0052936396440860156 0 0.0035777054687768949 -0.0052331661422673264 0 0.0036877829790800481 -0.0052701393388919111 0 0.0035907850941566542 -0.0052936396440860156 0 0.0036542999448338212 -0.0053254830354641193 0 0.0035907850941566542 -0.0052936396440860156 0 0.0036049822481122639 -0.0053494404365055518 0 0.0033781937903304528 -0.0052745134002887863 0 0.0035907850941566542 -0.0052936396440860156 0 0.0035777054687768949 -0.0052331661422673264 0 0.0033781937903304528 -0.0052745134002887863 0 0.0035907850941566542 -0.0052936396440860156 0 0.0036049822481122639 -0.0053494404365055518 0 0.0036542999448338212 -0.0053254830354641193 0 0.0036877829790800481 -0.0052701393388919111 0 0.0036542999448338212 -0.0053254830354641193 0 0.0037693746246708934 -0.0053239166337681948 0 0.0037198405608578123 -0.0053092176028828805 0 0.0036008627277111602 -0.005348023125873542 0 0.0036035509936005413 -0.0048089678708122295 0 0.0036001614373322621 -0.0048095756813649306 0 0.0036034531873468693 -0.0048028025834024289 0 0.0035900294100340664 -0.0050668007475571947 0 0.0035210027714281272 -0.0050527392922257884 0 0.0035959942667011589 -0.0047982353566511284 0 0.0036001614373322621 -0.0048095756813649306 0 0.0036022813844952947 -0.0047956332152218218 0 0.0036001614373322621 -0.0048095756813649306 0 0.0036022813844952947 -0.0047956332152218218 0 0.0036034531873468693 -0.0048028025834024289 0 0.0036035509936005413 -0.0048089678708122295 0 0.0036034531873468693 -0.0048028025834024289 0 0.0036073807139951524 -0.0047965380291931725 0 0.0036022813844952947 -0.0047956332152218218 0 0.0036034531873468693 -0.0048028025834024289 0 0.0036073807139951524 -0.0047965380291931725 0 0.0031968859594550987 -0.0049153758932642712 0 0.0032434090596627839 -0.0050749629861695268 0 0.0028413929826651809 -0.0053149262414836562 0 0.0028824544417558567 -0.005558778474474166 0 0.0027389071401260059 -0.0054366515904155296 0 0.0032434090596627839 -0.0050749629861695268 0 0.0030688519820993797 -0.0051170453627144468 0 0.0036073807139951524 -0.0047965380291931725 0 0.0036053896234169648 -0.004786143838662436 0 0.0036059402227321064 -0.004785108529075187 0 0.0036022813844952947 -0.0047956332152218218 0 0.0036053896234169648 -0.004786143838662436 0 0.0036026151224895771 -0.0047827215216421429 0 0.0036022813844952947 -0.0047956332152218218 0 0.0036026151224895771 -0.0047827215216421429 0 0.0035979298838467034 -0.0047845219524781553 0 0.0036022813844952947 -0.0047956332152218218 0 0.0036073807139951524 -0.0047965380291931725 0 0.0036053896234169648 -0.004786143838662436 0 0.0036080117561515632 -0.0047531628539062591 0 0.0036045567154386489 -0.0047508858335632547 0 0.003604693399084541 -0.0047510951516987086 0 0.0036053896234169648 -0.004786143838662436 0 0.0036040229500334947 -0.0047756891880644387 0 0.0036083991625198834 -0.0047810630477098017 0 0.0035817212557909175 -0.0047465593205493562 0 0.0034094741678674487 -0.0049033555058668535 0 0.0036053896234169648 -0.004786143838662436 0 0.0036026151224895771 -0.0047827215216421429 0 0.0036040229500334947 -0.0047756891880644387 0 0.0036272714140823973 -0.0047765520654168333 0 0.0034094741678674487 -0.0049033555058668535 0 0.0025669735752856812 -0.005436161547985578 0 0.0025600697974939978 -0.0054809086050458099 0 0.0024048821002606606 -0.0054534124155003628 0 0.0034094741678674487 -0.0049033555058668535 0 0.0031973262113394632 -0.0048315638028651525 0 0.0030688519820993797 -0.0051170453627144468 0 0.0031973262113394632 -0.0048315638028651525 0 0.0030796554478332758 -0.0050390435246063575 0 0.0031772632772439939 -0.0050607143507985916 0 0.0031544513677322244 -0.0049180971559729097 0 0.0034094741678674487 -0.0049033555058668535 0 0.0030688519820993797 -0.0051170453627144468 0 0.0036045567154386489 -0.0047508858335632547 0 0.003604189419226576 -0.0047509858498153571 0 0.003604693399084541 -0.0047510951516987086 0 0.0025669735752856812 -0.005436161547985578 0 0.0025717701699288203 -0.005462333161285176 0 0.0025600697974939978 -0.0054809086050458099 0 0.0031973262113394632 -0.0048315638028651525 0 0.0034698984312892737 -0.004275200480862747 0 0.0033588830711727812 -0.0046791475728960074 0 0.0035142764733900227 -0.0044283244242065544 0 0.0033095780175871085 -0.0043707309324084471 0 0.0031973262113394632 -0.0048315638028651525 0 0.0028508735208801228 -0.0047250864740301015 0 0.0036053896234169648 -0.004786143838662436 0 0.0036053816817128771 -0.0047849976762350654 0 0.0036059402227321064 -0.004785108529075187 0 0.0036049822481122639 -0.0053494404365055518 0 0.0036542999448338212 -0.0053254830354641193 0 0.0037184879569028598 -0.0052905562259449763 0 0.0035959942667011589 -0.0047982353566511284 0 0.0035979298838467034 -0.0047845219524781553 0 0.0035839534625633543 -0.0047794842633685801 0 0.0035900294100340664 -0.0050668007475571947 0 0.0036464464434051223 -0.0050217214718013417 0 0.0036542999448338212 -0.0053254830354641193 0 0.0037184879569028598 -0.0052905562259449763 0 0.0037043389186970786 -0.0052987782862289352 0 0.0035959942667011589 -0.0047982353566511284 0 0.0036022813844952947 -0.0047956332152218218 0 0.0035979298838467034 -0.0047845219524781553 0 0.0036026151224895771 -0.0047827215216421429 0 0.0035979298838467034 -0.0047845219524781553 0 0.0036006614202788389 -0.0047759754398683093 0 0.0036026151224895771 -0.0047827215216421429 0 0.0036040229500334947 -0.0047756891880644387 0 0.0036006614202788389 -0.0047759754398683093 0 0.0036040229500334947 -0.0047756891880644387 0 0.0036006614202788389 -0.0047759754398683093 0 0.0036004294527280695 -0.004761456079231537 0 0.0036272714140823973 -0.0047765520654168333 0 0.0035919039063912928 -0.0047608731232602125 0 0.0036006614202788389 -0.0047759754398683093 0 0.0036004294527280695 -0.004761456079231537 0 0.0035946996255743963 -0.0047732101369348141 0 0.0035979298838467034 -0.0047845219524781553 0 0.0036006614202788389 -0.0047759754398683093 0 0.0035946996255743963 -0.0047732101369348141 0 0.0035979298838467034 -0.0047845219524781553 0 0.0035946996255743963 -0.0047732101369348141 0 0.0035839534625633543 -0.0047794842633685801 0 0.0035893764625074685 -0.0047618100024825931 0 0.0035839534625633543 -0.0047794842633685801 0 0.0035798734467623514 -0.0047531654663837564 0 0.0036004294527280695 -0.004761456079231537 0 0.0035946996255743963 -0.0047732101369348141 0 0.0035893764625074685 -0.0047618100024825931 0 0.0035946996255743963 -0.0047732101369348141 0 0.0035893764625074685 -0.0047618100024825931 0 0.0035839534625633543 -0.0047794842633685801 0 0.0035893764625074685 -0.0047618100024825931 0 0.0035902777701829359 -0.0047421229786999801 0 0.0035798734467623514 -0.0047531654663837564 0 0.0036004294527280695 -0.004761456079231537 0 0.0035893764625074685 -0.0047618100024825931 0 0.0035902777701829359 -0.0047421229786999801 0 0.0036004294527280695 -0.004761456079231537 0 0.0035902777701829359 -0.0047421229786999801 0 0.0036086328175831627 -0.0047515523703029246 0 0.0038888401411994564 -0.0038842252172568434 0 0.0040402942890554322 -0.003872562461530719 0 0.0042171894390845444 -0.0030128648305691556 0 0.0042871730288362104 -0.0030376283202672482 0 0.0042625245008126051 -0.0029672279616625775 0 0.0036080117561515632 -0.0047531628539062591 0 0.0036004294527280695 -0.004761456079231537 0 0.0036086328175831627 -0.0047515523703029246 0 0.0042625245008126051 -0.0029672279616625775 0 0.0043110245930673176 -0.0029963419507674453 0 0.0042999521347233229 -0.0029449440254308125 0 0.0042871730288362104 -0.0030376283202672482 0 0.0042625245008126051 -0.0029672279616625775 0 0.0043110245930673176 -0.0029963419507674453 0 0.0042171894390845444 -0.0030128648305691556 0 0.0042625245008126051 -0.0029672279616625775 0 0.0041974998327470748 -0.002924950673698681 0 0.0028820952523825514 -0.0040749938853172655 0 0.0028857293355229788 -0.0040756693335278074 0 0.0028894819180257923 -0.004093039615403804 0 0.0034698984312892737 -0.004275200480862747 0 0.0036081355688749217 -0.0034807461529464167 0 0.0028508735208801228 -0.0047250864740301015 0 0.0024147406723863886 -0.0047734591820264233 0 0.0028820952523825514 -0.0040749938853172655 0 0.0028894819180257923 -0.004093039615403804 0 0.0028571614838322872 -0.0040992501407203794 0 0.0028508735208801228 -0.0047250864740301015 0 0.0034698984312892737 -0.004275200480862747 0 0.0036080117561515632 -0.0047531628539062591 0 0.0036086328175831627 -0.0047515523703029246 0 0.003604693399084541 -0.0047510951516987086 0 0.0043586343463433734 -0.0030712361923172079 0 0.0043110245930673176 -0.0029963419507674453 0 0.004354041950781447 -0.0030042720617279813 0 0.0040402942890554322 -0.003872562461530719 0 0.0034698984312892737 -0.004275200480862747 0 0.0042871730288362104 -0.0030376283202672482 0 0.0043586343463433734 -0.0030712361923172079 0 0.0043110245930673176 -0.0029963419507674453 0 0.0043110245930673176 -0.0029963419507674453 0 0.004354041950781447 -0.0030042720617279813 0 0.0043447429613908415 -0.0029411396590075375 0 0.0043110245930673176 -0.0029963419507674453 0 0.0043447429613908415 -0.0029411396590075375 0 0.0042999521347233229 -0.0029449440254308125 0 0.0036081355688749217 -0.0034807461529464167 0 0.0035517895236958086 -0.0032947921637568891 0 0.0028894819180257923 -0.004093039615403804 0 0.002877182490546212 -0.0041089937955168477 0 0.0028571614838322872 -0.0040992501407203794 0 0.0028894819180257923 -0.004093039615403804 0 0.002877182490546212 -0.0041089937955168477 0 0.0028976274640416036 -0.004116951010410882 0 0.002877182490546212 -0.0041089937955168477 0 0.0028571614838322872 -0.0040992501407203794 0 0.0028634307114085954 -0.0041286990390975069 0 0.0021072271151290583 -0.0052427066818222443 0 0.0022140890466856617 -0.0052120529968066329 0 0.0021703737320376724 -0.0051246368955811241 0 0.0024147406723863886 -0.0047734591820264233 0 0.0024579763609677502 -0.0041236207112423963 0 0.0021072271151290583 -0.0052427066818222443 0 0.0021182536852155502 -0.0053399427361722597 0 0.0021789373378324458 -0.0053050068300628719 0 0.0020514880973086262 -0.0053457343753530477 0 0.0021072271151290583 -0.0052427066818222443 0 0.0021182536852155502 -0.0053399427361722597 0 0.0021652008475099363 -0.0053484495934680593 0 0.0021182536852155502 -0.0053399427361722597 0 0.0021789373378324458 -0.0053050068300628719 0 0.0022402592396304809 -0.0053496165161579651 0 0.0021789373378324458 -0.0053050068300628719 0 0.0022760712286815231 -0.0052841112265425297 0 0.0022402592396304809 -0.0053496165161579651 0 0.0021928452029379127 -0.0053551280526373439 0 0.0021789373378324458 -0.0053050068300628719 0 0.0021652008475099363 -0.0053484495934680593 0 0.0021928452029379127 -0.0053551280526373439 0 0.0021789373378324458 -0.0053050068300628719 0 0.0021789373378324458 -0.0053050068300628719 0 0.0022140890466856617 -0.0052120529968066329 0 0.0022760712286815231 -0.0052841112265425297 0 0.0021072271151290583 -0.0052427066818222443 0 0.0021789373378324458 -0.0053050068300628719 0 0.0022140890466856617 -0.0052120529968066329 0 0.0022140890466856617 -0.0052120529968066329 0 0.00232453363737387 -0.0052068973784382055 0 0.0022760712286815231 -0.0052841112265425297 0 0.0020059723056137704 -0.0051979973347925914 0 0.0019224554453023928 -0.0053701498556383304 0 0.0015783735084264484 -0.0052546983620953723 0 0.0015307346897843477 -0.0051695608643796296 0 0.0014084993391534953 -0.0052260438964676081 0 0.0020839907068994881 -0.005240679577006053 0 0.0021150662188253646 -0.0052689974290846828 0 0.0021590404498995448 -0.0055520164400732408 0 0.0015783735084264484 -0.0052546983620953723 0 0.0016036695761196642 -0.0053784339650425712 0 0.0014084993391534953 -0.0052260438964676081 0 0.0018877910071751199 -0.0055053968880079138 0 0.0019224554453023928 -0.0053701498556383304 0 0.0019224554453023928 -0.0053701498556383304 0 0.0022951383030970574 -0.005527642163160945 0 0.0021926834256304996 -0.0056140269817355898 0 0.0022843719330625837 -0.0056939518956217634 0 0.0022775389025860245 -0.0055740631991307949 0 0.0020059723056137704 -0.0051979973347925914 0 0.0022951383030970574 -0.005527642163160945 0 0.00232453363737387 -0.0052068973784382055 0 0.0022760712286815231 -0.0052841112265425297 0 0.0023441084379592502 -0.0053794421798347442 0 0.0022760712286815231 -0.0052841112265425297 0 0.0022911612623149192 -0.005363102878822937 0 0.0023441084379592502 -0.0053794421798347442 0 0.0022402592396304809 -0.0053496165161579651 0 0.0022760712286815231 -0.0052841112265425297 0 0.0022911612623149192 -0.005363102878822937 0 0.0022779262716301442 -0.0053933436471564232 0 0.0023105759276512471 -0.0054437752800303683 0 0.0022377813041153231 -0.0053862989368384682 0 0.0022402592396304809 -0.0053496165161579651 0 0.0022911612623149192 -0.005363102878822937 0 0.0022779262716301442 -0.0053933436471564232 0 0.0022402592396304809 -0.0053496165161579651 0 0.0022779262716301442 -0.0053933436471564232 0 0.0022377813041153231 -0.0053862989368384682 0 0.0022911612623149192 -0.005363102878822937 0 0.0023121952193245073 -0.0054148358073772126 0 0.0023441084379592502 -0.0053794421798347442 0 0.0022911612623149192 -0.005363102878822937 0 0.0022779262716301442 -0.0053933436471564232 0 0.0023121952193245073 -0.0054148358073772126 0 0.0022779262716301442 -0.0053933436471564232 0 0.0023121952193245073 -0.0054148358073772126 0 0.0023105759276512471 -0.0054437752800303683 0 0.0023121952193245073 -0.0054148358073772126 0 0.0023105759276512471 -0.0054437752800303683 0 0.0023082616716282966 -0.0054394229688269936 0 0.0021926834256304996 -0.0056140269817355898 0 0.0021948298111832036 -0.0055262100860091132 0 0.0022775389025860245 -0.0055740631991307949 0 0.0021948298111832036 -0.0055262100860091132 0 0.0022751402197249732 -0.0055352643981678483 0 0.0022775389025860245 -0.0055740631991307949 0 0.0022919754383276883 -0.0054732065205525078 0 0.0022951383030970574 -0.005527642163160945 0 0.0023121952193245073 -0.0054148358073772126 0 0.0023316426999890477 -0.0054219341195385377 0 0.0023441084379592502 -0.0053794421798347442 0 0.0022919754383276883 -0.0054732065205525078 0 0.0022804217206865863 -0.0054446221653293081 0 0.0023316426999890477 -0.0054219341195385377 0 0.0023082616716282966 -0.0054394229688269936 0 0.0022714132338080518 -0.0054474643425446697 0 0.0023121952193245073 -0.0054148358073772126 0 0.0023316426999890477 -0.0054219341195385377 0 0.0023082616716282966 -0.0054394229688269936 0 0.0021948298111832036 -0.0055262100860091132 0 0.0022751402197249732 -0.0055352643981678483 0 0.0022714132338080518 -0.0054474643425446697 0 0.0023082616716282966 -0.0054394229688269936 0 0.0022714132338080518 -0.0054474643425446697 0 0.0023048912167042161 -0.0054382238927768341 0 0.0022714132338080518 -0.0054474643425446697 0 0.0022948309484431889 -0.0053921379681664229 0 0.0023048912167042161 -0.0054382238927768341 0 0.0022212642953805331 -0.0054064912720606069 0 0.0022714132338080518 -0.0054474643425446697 0 0.0022948309484431889 -0.0053921379681664229 0 0.0023662699978917339 -0.0054268891883838544 0 0.0023048912167042161 -0.0054382238927768341 0 0.0025873567515606161 -0.0055006888228026352 0 0.0023240010882643329 -0.0053451639937495913 0 0.0022948309484431889 -0.0053921379681664229 0 0.0023662699978917339 -0.0054268891883838544 0 0.00232936344552802 -0.0052282030834517627 0 0.002433768450617759 -0.0053033595760965373 0 0.0023662699978917339 -0.0054268891883838544 0 0.0023203519047205446 -0.0052709944816506631 0 0.0023630098975065969 -0.0054230480439408152 0 0.0023449127787097475 -0.0054275091929638138 0 0.0024206963937969455 -0.0055094784930259525 0 0.0023105759276512471 -0.0054437752800303683 0 0.0023048912167042161 -0.0054382238927768341 0 0.0023987256601523516 -0.0054235837250424549 0 0.0023105759276512471 -0.0054437752800303683 0 0.0023082616716282966 -0.0054394229688269936 0 0.0023048912167042161 -0.0054382238927768341 0 0.0022948309484431889 -0.0053921379681664229 0 0.0023662699978917339 -0.0054268891883838544 0 0.0023048912167042161 -0.0054382238927768341 0 0.002433768450617759 -0.0053033595760965373 0 0.0023662699978917339 -0.0054268891883838544 0 0.0025172952106779396 -0.0053740992862652834 0 0.002433768450617759 -0.0053033595760965373 0 0.0025467406183569195 -0.0052807280732941504 0 0.0025172952106779396 -0.0053740992862652834 0 0.0023662699978917339 -0.0054268891883838544 0 0.0025172952106779396 -0.0053740992862652834 0 0.0025873567515606161 -0.0055006888228026352 0 0.0025172952106779396 -0.0053740992862652834 0 0.0026522836725247586 -0.0053591622866045845 0 0.0025873567515606161 -0.0055006888228026352 0 0.0025467406183569195 -0.0052807280732941504 0 0.0025172952106779396 -0.0053740992862652834 0 0.0026522836725247586 -0.0053591622866045845 0 0.0028413929826651809 -0.0053149262414836562 0 0.0026522836725247586 -0.0053591622866045845 0 0.0027389071401260059 -0.0054366515904155296 0 0.0026522836725247586 -0.0053591622866045845 0 0.0027389071401260059 -0.0054366515904155296 0 0.0025873567515606161 -0.0055006888228026352 0 0.0028508735208801228 -0.0047250864740301015 0 0.0021869679821741174 -0.0054965886636446975 0 0.0030688519820993797 -0.0051170453627144468 0 0.0024206963937969455 -0.0055094784930259525 0 0.0028824544417558567 -0.005558778474474166 0 0.0027389071401260059 -0.0054366515904155296 0 0.0025873567515606161 -0.0055006888228026352 0 0.0020514880973086262 -0.0053457343753530477 0 0.0021182536852155502 -0.0053399427361722597 0 0.0021712360897684184 -0.0053935177786244969 0 0.0025669735752856812 -0.005436161547985578 0 0.0024048821002606606 -0.0054534124155003628 0 0.0023987256601523516 -0.0054235837250424549 0 0.0021652008475099363 -0.0053484495934680593 0 0.0021182536852155502 -0.0053399427361722597 0 0.0021712360897684184 -0.0053935177786244969 0 0.0021928452029379127 -0.0053551280526373439 0 0.0021712360897684184 -0.0053935177786244969 0 0.0022377813041153231 -0.0053862989368384682 0 0.0021652008475099363 -0.0053484495934680593 0 0.0021928452029379127 -0.0053551280526373439 0 0.0021712360897684184 -0.0053935177786244969 0 0.0023473736104289928 -0.0054278382476205334 0 0.0021869679821741174 -0.0054965886636446975 0 0.0023105759276512471 -0.0054437752800303683 0 0.0024048821002606606 -0.0054534124155003628 0 0.0023987256601523516 -0.0054235837250424549 0 0.0023105759276512471 -0.0054437752800303683 0 0.0021712360897684184 -0.0053935177786244969 0 0.0022377813041153231 -0.0053862989368384682 0 0.0022402592396304809 -0.0053496165161579651 0 0.0021928452029379127 -0.0053551280526373439 0 0.0022377813041153231 -0.0053862989368384682 0 0.0050000117618217502 -0.0049995253744076675 0 0.0046982205720917667 -0.0050420351764755653 0 0.0043558232605783783 -0.0049999401231664133 0 0.0049999883449913145 -0.0044007636564936219 0 0.0051881188786710901 -0.0044511348970513349 0 0.0049999964111229938 -0.0046534263010942472 0 0.0049999883449913145 -0.0044007636564936219 0 0.0051881188786710901 -0.0044511348970513349 0 0.0051401918175976247 -0.0042712899436977364 0 0.0051881188786710901 -0.0044511348970513349 0 0.0052468124468700713 -0.0046427372241336258 0 0.0049999964111229938 -0.0046534263010942472 0 0.0051881188786710901 -0.0044511348970513349 0 0.0052468124468700713 -0.0046427372241336258 0 0.0053516458085507181 -0.0044566672440122922 0 0.0052574276419909112 -0.0046772828877696829 0 0.0049999965549199256 -0.0046535083026333895 0 0.0049999998171157811 -0.0047292504003462353 0 0.0050999839285152792 -0.0048355722639575579 0 0.005000274399907116 -0.00465339156931306 0 0.0047847255276061663 -0.0051534512382007125 0 0.0049997175110806577 -0.0047303417486967017 0 0.004882376904405958 -0.0049655091775779332 0 0.0050999839285152792 -0.0048355722639575579 0 0.0049997718976191241 -0.0047294291952851937 0 0.0050000117618217502 -0.0049995253744076675 0 0.004882376904405958 -0.0049655091775779332 0 0.0046982205720917667 -0.0050420351764755653 0 0.0049997175110806577 -0.0047303417486967017 0 0.0050000117618217502 -0.0049995253744076675 0 0.004882376904405958 -0.0049655091775779332 0 0.0047847255276061663 -0.0051534512382007125 0 0.004882376904405958 -0.0049655091775779332 0 0.0046982205720917667 -0.0050420351764755653 0 0.0047847255276061663 -0.0051534512382007125 0 0.0046982205720917667 -0.0050420351764755653 0 0.0044859722725719099 -0.0052332319896731009 0 0.0046982205720917667 -0.0050420351764755653 0 0.0044859722725719099 -0.0052332319896731009 0 0.0043558232605783783 -0.0049999401231664133 0 0.0049176989337284356 -0.0048729332890884332 0 0.0049612286204968126 -0.0049418300948779652 0 0.0047145127027241277 -0.0049955998696977989 0 0.0051943731777462539 -0.004762458664355762 0 0.0052956183627700009 -0.0047382266859149784 0 0.0051951742178271568 -0.0048941717083450425 0 0.0049176989337284356 -0.0048729332890884332 0 0.0049612286204968126 -0.0049418300948779652 0 0.0052468124468700713 -0.0046427372241336258 0 0.0054335881964968019 -0.0045871531708867918 0 0.0053516458085507181 -0.0044566672440122922 0 0.0050999839285152792 -0.0048355722639575579 0 0.0046686607354177326 -0.0050722648679231673 0 0.0050999839285152792 -0.0048355722639575579 0 0.0051943731777462539 -0.004762458664355762 0 0.0053516458085507181 -0.0044566672440122922 0 0.0054895174784129136 -0.0043666773602444265 0 0.0053133408216051465 -0.0042878113932713685 0 0.0051881188786710901 -0.0044511348970513349 0 0.0053516458085507181 -0.0044566672440122922 0 0.0053133408216051465 -0.0042878113932713685 0 0.0054335881964968019 -0.0045871531708867918 0 0.0053516458085507181 -0.0044566672440122922 0 0.0054895174784129136 -0.0043666773602444265 0 0.0054335881964968019 -0.0045871531708867918 0 0.0056091934424862015 -0.0045402203925311146 0 0.0054895174784129136 -0.0043666773602444265 0 0.0056091934424862015 -0.0045402203925311146 0 0.0056850902601810888 -0.0043348573913135078 0 0.0054895174784129136 -0.0043666773602444265 0 0.0056091934424862015 -0.0045402203925311146 0 0.0057701231491388673 -0.0045032156452963334 0 0.0056850902601810888 -0.0043348573913135078 0 0.0044404700892843405 -0.0049493827284695507 0 0.0047259867971836947 -0.0048066176690827649 0 0.003713502189268763 -0.0052872650744922164 0 0.0037182681301228442 -0.005278885716017285 0 0.0036949621755568381 -0.0052717264942261236 0 0.0052956183627700009 -0.0047382266859149784 0 0.0044404700892843405 -0.0049493827284695507 0 0.0046208949248602591 -0.0048499416833642697 0 0.0043107634616176829 -0.0048299112757380792 0 0.0044543910831657298 -0.0050518597226381339 0 0.0047145127027241277 -0.0049955998696977989 0 0.0046208949248602591 -0.0048499416833642697 0 0.0044543910831657298 -0.0050518597226381339 0 0.0049176989337284356 -0.0048729332890884332 0 0.0047145127027241277 -0.0049955998696977989 0 0.0046208949248602591 -0.0048499416833642697 0 0.0043558232605783783 -0.0049999401231664133 0 0.00421543094050531 -0.0052585146507343515 0 0.0038672033417119331 -0.0049999821170420974 0 0.0046686607354177326 -0.0050722648679231673 0 0.0044489893798817263 -0.0050446061075180345 0 0.0044859722725719099 -0.0052332319896731009 0 0.0043558232605783783 -0.0049999401231664133 0 0.00421543094050531 -0.0052585146507343515 0 0.0044489893798817263 -0.0050446061075180345 0 0.004004178736502083 -0.0051031626026620085 0 0.00421543094050531 -0.0052585146507343515 0 0.0039483010994756026 -0.0052538784239443779 0 0.0038672033417119331 -0.0049999821170420974 0 0.0039483010994756026 -0.0052538784239443779 0 0.0038672033417119331 -0.0049999821170420974 0 0.0037947526498908041 -0.0050384556907597123 0 0.0036965869516591499 -0.0051322851798679264 0 0.0037947526498908041 -0.0050384556907597123 0 0.0037758683949106861 -0.0051432011094394471 0 0.0038651784933685213 -0.0052053383090383057 0 0.0037758683949106861 -0.0051432011094394471 0 0.0037439852440624985 -0.0051951417243460618 0 0.004004178736502083 -0.0051031626026620085 0 0.0037085461124334125 -0.005188845583702621 0 0.0036965869516591499 -0.0051322851798679264 0 0.0037758683949106861 -0.0051432011094394471 0 0.0037439852440624985 -0.0051951417243460618 0 0.0038651784933685213 -0.0052053383090383057 0 0.0037947526498908041 -0.0050384556907597123 0 0.0037758683949106861 -0.0051432011094394471 0 0.004004178736502083 -0.0051031626026620085 0 0.0037795815962422333 -0.005085193644994883 0 0.0038240521420701548 -0.0051978000541948307 0 0.0037439852440624985 -0.0051951417243460618 0 0.0037830755904518518 -0.0052553742966849571 0 0.0036877829790800481 -0.0052701393388919111 0 0.0037830755904518518 -0.0052553742966849571 0 0.0037693746246708934 -0.0053239166337681948 0 0.0036877829790800481 -0.0052701393388919111 0 0.0037439852440624985 -0.0051951417243460618 0 0.0037830755904518518 -0.0052553742966849571 0 0.0038240521420701548 -0.0051978000541948307 0 0.0037830755904518518 -0.0052553742966849571 0 0.0038928700071137554 -0.005298444725612023 0 0.0037830755904518518 -0.0052553742966849571 0 0.0038928700071137554 -0.005298444725612023 0 0.0037693746246708934 -0.0053239166337681948 0 0.004004178736502083 -0.0051031626026620085 0 0.0044404700892843405 -0.0049493827284695507 0 0.0044404700892843405 -0.0049493827284695507 0 0.0036008627277111602 -0.005348023125873542 0 0.003713502189268763 -0.0052872650744922164 0 0.0037134108480584914 -0.0052846447837721728 0 0.0037182681301228442 -0.005278885716017285 0 0.0036542999448338212 -0.0053254830354641193 0 0.0037134108480584914 -0.0052846447837721728 0 0.0037043389186970786 -0.0052987782862289352 0 0.0037134108480584914 -0.0052846447837721728 0 0.0037043389186970786 -0.0052987782862289352 0 0.0037182681301228442 -0.005278885716017285 0 0.0037184879569028598 -0.0052905562259449763 0 0.0037043389186970786 -0.0052987782862289352 0 0.0037182681301228442 -0.005278885716017285 0 0.0037182681301228442 -0.005278885716017285 0 0.0037442066287454406 -0.0052002804530034974 0 0.0037071383462794743 -0.0052336361532822799 0 0.0036464464434051223 -0.0050217214718013417 0 0.0036477539366434083 -0.0050386658238626078 0 0.0037184879569028598 -0.0052905562259449763 0 0.0037182681301228442 -0.005278885716017285 0 0.0037442066287454406 -0.0052002804530034974 0 0.0035839534625633543 -0.0047794842633685801 0 0.0035798734467623514 -0.0047531654663837564 0 0.0035658812361713905 -0.0047505094467596692 0 0.0035902777701829359 -0.0047421229786999801 0 0.0035798734467623514 -0.0047531654663837564 0 0.0035695762171952523 -0.0047307249724672122 0 0.0035798734467623514 -0.0047531654663837564 0 0.0035695762171952523 -0.0047307249724672122 0 0.0035658812361713905 -0.0047505094467596692 0 0.0038888401411994564 -0.0038842252172568434 0 0.0038459604531314172 -0.0037965157833806163 0 0.0042171894390845444 -0.0030128648305691556 0 0.0041352877509887778 -0.0029949030736822094 0 0.0041974998327470748 -0.002924950673698681 0 0.0041352877509887778 -0.0029949030736822094 0 0.0041317800305443707 -0.0029414458462783686 0 0.0041974998327470748 -0.002924950673698681 0 0.0035695762171952523 -0.0047307249724672122 0 0.0035658812361713905 -0.0047505094467596692 0 0.0035476447651012063 -0.0047191258141383741 0 0.0036477539366434083 -0.0050386658238626078 0 0.0037434246099625149 -0.0045158087184860004 0 0.0038459604531314172 -0.0037965157833806163 0 0.0037434246099625149 -0.0045158087184860004 0 0.0041352877509887778 -0.0029949030736822094 0 0.0040492869559099797 -0.0029757724639279501 0 0.0041317800305443707 -0.0029414458462783686 0 0.0037442066287454406 -0.0052002804530034974 0 0.0036997527880639515 -0.0051703581396811589 0 0.0037071383462794743 -0.0052336361532822799 0 0.0037442066287454406 -0.0052002804530034974 0 0.0036997527880639515 -0.0051703581396811589 0 0.0037170788184062672 -0.0050704182525282875 0 0.0036997527880639515 -0.0051703581396811589 0 0.0037170788184062672 -0.0050704182525282875 0 0.0036618735247121313 -0.0051160600772179798 0 0.0036618735247121313 -0.0051160600772179798 0 0.003583926567506219 -0.0051108180128189729 0 0.0036330436817355494 -0.0049802951840247234 0 0.0037170788184062672 -0.0050704182525282875 0 0.0036618735247121313 -0.0051160600772179798 0 0.0036330436817355494 -0.0049802951840247234 0 0.0037434246099625149 -0.0045158087184860004 0 0.0036811671434828818 -0.0050930324342671985 0 0.0036618735247121313 -0.0051160600772179798 0 0.0036506740149727279 -0.005214161809139856 0 0.003583926567506219 -0.0051108180128189729 0 0.0036997527880639515 -0.0051703581396811589 0 0.0036618735247121313 -0.0051160600772179798 0 0.0036506740149727279 -0.005214161809139856 0 0.0036997527880639515 -0.0051703581396811589 0 0.0036506740149727279 -0.005214161809139856 0 0.0037071383462794743 -0.0052336361532822799 0 0.0036506740149727279 -0.005214161809139856 0 0.0037071383462794743 -0.0052336361532822799 0 0.0036949621755568381 -0.0052717264942261236 0 0.0037182681301228442 -0.005278885716017285 0 0.0037071383462794743 -0.0052336361532822799 0 0.0036949621755568381 -0.0052717264942261236 0 0.0055923579999934145 -0.0041448955381184231 0 0.0056850902601810888 -0.0043348573913135078 0 0.0054895174784129136 -0.0043666773602444265 0 0.0046149775231576961 -0.0046750125612572578 0 0.0047259867971836947 -0.0048066176690827649 0 0.0054895174784129136 -0.0043666773602444265 0 0.0053133408216051465 -0.0042878113932713685 0 0.0054064044925774138 -0.0041132483864281793 0 0.0053133408216051465 -0.0042878113932713685 0 0.0054064044925774138 -0.0041132483864281793 0 0.0052212128553680336 -0.004038301753166316 0 0.0055923579999934145 -0.0041448955381184231 0 0.0054895174784129136 -0.0043666773602444265 0 0.0054064044925774138 -0.0041132483864281793 0 0.0046149775231576961 -0.0046750125612572578 0 0.0045411992594512731 -0.0045236050570303084 0 0.0055923579999934145 -0.0041448955381184231 0 0.0054064044925774138 -0.0041132483864281793 0 0.005490121859446237 -0.0039421835257461395 0 0.0045411992594512731 -0.0045236050570303084 0 0.0043879984858726569 -0.0043625419671469122 0 0.003583926567506219 -0.0051108180128189729 0 0.0036330436817355494 -0.0049802951840247234 0 0.0035702935215237955 -0.0049550393761076368 0 0.003583926567506219 -0.0051108180128189729 0 0.00348524374665888 -0.0049422683005665297 0 0.0035702935215237955 -0.0049550393761076368 0 0.005490121859446237 -0.0039421835257461395 0 0.0053356468869887475 -0.0039170860676939921 0 0.0053757729316867651 -0.0037357650637797352 0 0.0053356468869887475 -0.0039170860676939921 0 0.005211596388402121 -0.0038223144356762545 0 0.0053757729316867651 -0.0037357650637797352 0 0.0054064044925774138 -0.0041132483864281793 0 0.005490121859446237 -0.0039421835257461395 0 0.0053356468869887475 -0.0039170860676939921 0 0.0054064044925774138 -0.0041132483864281793 0 0.0053356468869887475 -0.0039170860676939921 0 0.0052212128553680336 -0.004038301753166316 0 0.0053356468869887475 -0.0039170860676939921 0 0.0052212128553680336 -0.004038301753166316 0 0.005211596388402121 -0.0038223144356762545 0 0.0052212128553680336 -0.004038301753166316 0 0.005211596388402121 -0.0038223144356762545 0 0.0049999873703446161 -0.003895328792770443 0 0.0049999873703446161 -0.003895328792770443 0 0.0049999929230853763 -0.0036426682671775491 0 0.0051128253665445817 -0.0037258107332807 0 0.005211596388402121 -0.0038223144356762545 0 0.0049999873703446161 -0.003895328792770443 0 0.0051128253665445817 -0.0037258107332807 0 0.0052212128553680336 -0.004038301753166316 0 0.0049999873703446161 -0.003895328792770443 0 0.0049999907507743274 -0.0041480475603359445 0 0.0052212128553680336 -0.004038301753166316 0 0.0049999907507743274 -0.0041480475603359445 0 0.0051401918175976247 -0.0042712899436977364 0 0.0053133408216051465 -0.0042878113932713685 0 0.0052212128553680336 -0.004038301753166316 0 0.0051401918175976247 -0.0042712899436977364 0 0.0051881188786710901 -0.0044511348970513349 0 0.0053133408216051465 -0.0042878113932713685 0 0.0051401918175976247 -0.0042712899436977364 0 0.0049999883449913145 -0.0044007636564936219 0 0.0049999907507743274 -0.0041480475603359445 0 0.0051401918175976247 -0.0042712899436977364 0 0.0050714069896395791 -0.0031585037929953773 0 0.004999916932094917 -0.003028762988556775 0 0.0050816900333848971 -0.0030787081212114639 0 0.0051582954935973056 -0.0031297191835970837 0 0.0050000163390727667 -0.0030290247962638517 0 0.0051452884440302106 -0.0032655739886291689 0 0.0049999982584383535 -0.0032334720542349649 0 0.0050000008271472995 -0.0030289033329611091 0 0.0050597573634758568 -0.0028551389595927908 0 0.0050154807510499307 -0.0028842835033567518 0 0.0050714069896395791 -0.0031585037929953773 0 0.0051254784077748392 -0.003157130825649512 0 0.0050816900333848971 -0.0030787081212114639 0 0.0048861050581773596 -0.002579763572028243 0 0.0048606030050147098 -0.0026333649092322164 0 0.0049884745531478527 -0.002694729146203537 0 0.0050714069896395791 -0.0031585037929953773 0 0.0051254784077748392 -0.003157130825649512 0 0.0051131989169102658 -0.0032389460011311103 0 0.0051582954935973056 -0.0031297191835970837 0 0.0047347690159338382 -0.0038957707990980319 0 0.0051452884440302106 -0.0032655739886291689 0 0.0051442178326513823 -0.0034444423271150215 0 0.005286176377104667 -0.0035024709919794874 0 0.0051452884440302106 -0.0032655739886291689 0 0.0049999982584383535 -0.0032334720542349649 0 0.0049999983330366688 -0.0034380400485755388 0 0.0051452884440302106 -0.0032655739886291689 0 0.0049999983330366688 -0.0034380400485755388 0 0.0051442178326513823 -0.0034444423271150215 0 0.0049999983330366688 -0.0034380400485755388 0 0.005144525392000044 -0.0035708245867300445 0 0.0049999991465283162 -0.0036426004833366903 0 0.0049999983330366688 -0.0034380400485755388 0 0.0051442178326513823 -0.0034444423271150215 0 0.005144525392000044 -0.0035708245867300445 0 0.00522838037640157 -0.0035427523271878121 0 0.004999967513259612 -0.0036426266587710277 0 0.0051303482209241347 -0.0036010139166121648 0 0.0049999929230853763 -0.0036426682671775491 0 0.0051128253665445817 -0.0037258107332807 0 0.005211596388402121 -0.0038223144356762545 0 0.0052155938574324733 -0.0036816294183700119 0 0.0053757729316867651 -0.0037357650637797352 0 0.005211596388402121 -0.0038223144356762545 0 0.0051128253665445817 -0.0037258107332807 0 0.0052155938574324733 -0.0036816294183700119 0 0.0051303482209241347 -0.0036010139166121648 0 0.0051128253665445817 -0.0037258107332807 0 0.0052155938574324733 -0.0036816294183700119 0 0.0051303482209241347 -0.0036010139166121648 0 0.0052155938574324733 -0.0036816294183700119 0 0.005257513667512175 -0.0035428626175434998 0 0.00522838037640157 -0.0035427523271878121 0 0.0047347690159338382 -0.0038957707990980319 0 0.0051442178326513823 -0.0034444423271150215 0 0.005144525392000044 -0.0035708245867300445 0 0.005286176377104667 -0.0035024709919794874 0 0.0033775167114692382 -0.0047409682404262283 0 0.0034973151262421014 -0.0047974402531856947 0 0.00348524374665888 -0.0049422683005665297 0 0.0047347690159338382 -0.0038957707990980319 0 0.0044183637939081951 -0.003251348406372903 0 0.0033775167114692382 -0.0047409682404262283 0 0.0034973151262421014 -0.0047974402531856947 0 0.0035306462440742883 -0.0046634656930699568 0 0.0052155938574324733 -0.0036816294183700119 0 0.005257513667512175 -0.0035428626175434998 0 0.0053757729316867651 -0.0037357650637797352 0 0.0047347690159338382 -0.0038957707990980319 0 0.0043879984858726569 -0.0043625419671469122 0 0.0034973151262421014 -0.0047974402531856947 0 0.00348524374665888 -0.0049422683005665297 0 0.003550577281792719 -0.0048782629928432785 0 0.0036330436817355494 -0.0049802951840247234 0 0.0035702935215237955 -0.0049550393761076368 0 0.0036137582757672852 -0.0048887522801196858 0 0.00348524374665888 -0.0049422683005665297 0 0.0035702935215237955 -0.0049550393761076368 0 0.003550577281792719 -0.0048782629928432785 0 0.0035702935215237955 -0.0049550393761076368 0 0.003550577281792719 -0.0048782629928432785 0 0.0036137582757672852 -0.0048887522801196858 0 0.003550577281792719 -0.0048782629928432785 0 0.0036137582757672852 -0.0048887522801196858 0 0.0035857000377122273 -0.0048041458273711708 0 0.0036137582757672852 -0.0048887522801196858 0 0.003633372203776227 -0.0047980466438436384 0 0.0035857000377122273 -0.0048041458273711708 0 0.0040972042650498329 -0.003674387811621702 0 0.0036419227481056943 -0.0040756830918108472 0 0.0034973151262421014 -0.0047974402531856947 0 0.003550577281792719 -0.0048782629928432785 0 0.0035857000377122273 -0.0048041458273711708 0 0.0034973151262421014 -0.0047974402531856947 0 0.0035857000377122273 -0.0048041458273711708 0 0.0035306462440742883 -0.0046634656930699568 0 0.0036457360892715074 -0.0047918358484706014 0 0.0035857000377122273 -0.0048041458273711708 0 0.0035306462440742883 -0.0046634656930699568 0 0.0040972042650498329 -0.003674387811621702 0 0.0044183637939081951 -0.003251348406372903 0 0.0047385436572050252 -0.0025569729622726208 0 0.0047454258396626243 -0.0025662537678736485 0 0.0047648592371111863 -0.0025642621763660189 0 0.0047454258396626243 -0.0025662537678736485 0 0.0047492929738001044 -0.002569212086365799 0 0.0047360245625876528 -0.0025771130913859464 0 0.0047454258396626243 -0.0025662537678736485 0 0.0047492929738001044 -0.002569212086365799 0 0.0047622534410507256 -0.0025605426457522042 0 0.0047492929738001044 -0.002569212086365799 0 0.0047535763838431385 -0.0025744350953424305 0 0.0047622534410507256 -0.0025605426457522042 0 0.0047492929738001044 -0.002569212086365799 0 0.0047535763838431385 -0.0025744350953424305 0 0.0047360245625876528 -0.0025771130913859464 0 0.0047535763838431385 -0.0025744350953424305 0 0.0047359645001260019 -0.0025843099308425709 0 0.0047360245625876528 -0.0025771130913859464 0 0.0047495852944025654 -0.0025874007254454937 0 0.0047280631528475725 -0.0025918362106277628 0 0.0047359645001260019 -0.0025843099308425709 0 0.0047535763838431385 -0.0025744350953424305 0 0.0047495852944025654 -0.0025874007254454937 0 0.0047359645001260019 -0.0025843099308425709 0 0.0047535763838431385 -0.0025744350953424305 0 0.0047880745896791655 -0.0025779560986154463 0 0.0047495852944025654 -0.0025874007254454937 0 0.0047535763838431385 -0.0025744350953424305 0 0.0047880745896791655 -0.0025779560986154463 0 0.0047622534410507256 -0.0025605426457522042 0 0.0047880745896791655 -0.0025779560986154463 0 0.0047622534410507256 -0.0025605426457522042 0 0.0047883858568504934 -0.002541745627070375 0 0.0047454258396626243 -0.0025662537678736485 0 0.0047622534410507256 -0.0025605426457522042 0 0.0047648592371111863 -0.0025642621763660189 0 0.0047691556086054774 -0.0029279871223867639 0 0.0044183637939081951 -0.003251348406372903 0 0.0048861050581773596 -0.002579763572028243 0 0.0047880745896791655 -0.0025779560986154463 0 0.0047883858568504934 -0.002541745627070375 0 0.0050597573634758568 -0.0028551389595927908 0 0.0044183637939081951 -0.003251348406372903 0 0.0051254784077748392 -0.003157130825649512 0 0.0051131989169102658 -0.0032389460011311103 0 0.0051636728365719448 -0.0032103002992219199 0 0.0048861050581773596 -0.002579763572028243 0 0.0047880745896791655 -0.0025779560986154463 0 0.0048143177337852923 -0.0026013637671679071 0 0.0048861050581773596 -0.002579763572028243 0 0.0048143177337852923 -0.0026013637671679071 0 0.0048606030050147098 -0.0026333649092322164 0 0.0048143177337852923 -0.0026013637671679071 0 0.0048606030050147098 -0.0026333649092322164 0 0.0047891821263365275 -0.0026108071144626626 0 0.0048143177337852923 -0.0026013637671679071 0 0.0047891821263365275 -0.0026108071144626626 0 0.0047701659336911303 -0.0025973773205072181 0 0.0047891821263365275 -0.0026108071144626626 0 0.0047575054049440796 -0.0026079749908587925 0 0.004805813947167485 -0.0026319286221220474 0 0.0047891821263365275 -0.0026108071144626626 0 0.0047575054049440796 -0.0026079749908587925 0 0.0047701659336911303 -0.0025973773205072181 0 0.0047575054049440796 -0.0026079749908587925 0 0.0047701659336911303 -0.0025973773205072181 0 0.0047321602229147951 -0.0025982879285957076 0 0.0047575054049440796 -0.0026079749908587925 0 0.0047321602229147951 -0.0025982879285957076 0 0.0047312952896428678 -0.0026058604935198537 0 0.0047495852944025654 -0.0025874007254454937 0 0.0047701659336911303 -0.0025973773205072181 0 0.0047321602229147951 -0.0025982879285957076 0 0.0047495852944025654 -0.0025874007254454937 0 0.0047280631528475725 -0.0025918362106277628 0 0.0047321602229147951 -0.0025982879285957076 0 0.0047880745896791655 -0.0025779560986154463 0 0.0048143177337852923 -0.0026013637671679071 0 0.0047701659336911303 -0.0025973773205072181 0 0.0047880745896791655 -0.0025779560986154463 0 0.0047495852944025654 -0.0025874007254454937 0 0.0047701659336911303 -0.0025973773205072181 0 0.0047085239426230014 -0.0025995904860177388 0 0.0046933210735776556 -0.0026062986771148971 0 0.0047153226282793479 -0.0025924797197711554 0 0.0047085239426230014 -0.0025995904860177388 0 0.0046911850368167932 -0.0026050406038863202 0 0.0046933210735776556 -0.0026062986771148971 0 0.0047085239426230014 -0.0025995904860177388 0 0.0047280631528475725 -0.0025918362106277628 0 0.0047321602229147951 -0.0025982879285957076 0 0.0047085239426230014 -0.0025995904860177388 0 0.0047280631528475725 -0.0025918362106277628 0 0.0047153226282793479 -0.0025924797197711554 0 0.0047085239426230014 -0.0025995904860177388 0 0.0047321602229147951 -0.0025982879285957076 0 0.0047093336234728068 -0.0026028742408592915 0 0.0047321602229147951 -0.0025982879285957076 0 0.0047312952896428678 -0.0026058604935198537 0 0.0047093336234728068 -0.0026028742408592915 0 0.0047093336234728068 -0.0026028742408592915 0 0.0046911850368167932 -0.0026050406038863202 0 0.0046903813961574684 -0.0026034335406760478 0 0.0047085239426230014 -0.0025995904860177388 0 0.0047093336234728068 -0.0026028742408592915 0 0.0046911850368167932 -0.0026050406038863202 0 0.0046911850368167932 -0.0026050406038863202 0 0.0046764526362603684 -0.0026049934569499834 0 0.0046903813961574684 -0.0026034335406760478 0 0.0046809926204924024 -0.0026106077560588904 0 0.0046734184448377408 -0.0026096270738778468 0 0.0046764526362603684 -0.0026049934569499834 0 0.0046911850368167932 -0.0026050406038863202 0 0.0046809926204924024 -0.0026106077560588904 0 0.0046764526362603684 -0.0026049934569499834 0 0.0046809926204924024 -0.0026106077560588904 0 0.0046734184448377408 -0.0026096270738778468 0 0.0046774122445773789 -0.0026174314389550831 0 0.0046734184448377408 -0.0026096270738778468 0 0.0046774122445773789 -0.0026174314389550831 0 0.0046783478181348414 -0.0026160381756558946 0 0.0046774122445773789 -0.0026174314389550831 0 0.0046819108427163109 -0.0026156756235247722 0 0.0046770737566133183 -0.0026265143451611132 0 0.0046809926204924024 -0.0026106077560588904 0 0.0046774122445773789 -0.0026174314389550831 0 0.0046819108427163109 -0.0026156756235247722 0 0.0046911850368167932 -0.0026050406038863202 0 0.0046809926204924024 -0.0026106077560588904 0 0.0046933210735776556 -0.0026062986771148971 0 0.0046819108427163109 -0.0026156756235247722 0 0.0046933210735776556 -0.0026062986771148971 0 0.0046893640429396559 -0.0026107324707652351 0 0.0046809926204924024 -0.0026106077560588904 0 0.0046819108427163109 -0.0026156756235247722 0 0.0046933210735776556 -0.0026062986771148971 0 0.0046933210735776556 -0.0026062986771148971 0 0.0046893640429396559 -0.0026107324707652351 0 0.004699832694745114 -0.0026002909478466891 0 0.0046893640429396559 -0.0026107324707652351 0 0.0046810030121742551 -0.0026206641960643778 0 0.004686508338859809 -0.0026120483733637887 0 0.0046819108427163109 -0.0026156756235247722 0 0.0046810030121742551 -0.0026206641960643778 0 0.0046770737566133183 -0.0026265143451611132 0 0.0046819108427163109 -0.0026156756235247722 0 0.0046893640429396559 -0.0026107324707652351 0 0.0046810030121742551 -0.0026206641960643778 0 0.0046810030121742551 -0.0026206641960643778 0 0.004686508338859809 -0.0026120483733637887 0 0.0046767863701042004 -0.0026266239659467811 0 0.004686508338859809 -0.0026120483733637887 0 0.0046711094036765329 -0.0026334550623214738 0 0.0046767863701042004 -0.0026266239659467811 0 0.0046893640429396559 -0.0026107324707652351 0 0.004686508338859809 -0.0026120483733637887 0 0.004699832694745114 -0.0026002909478466891 0 0.004686508338859809 -0.0026120483733637887 0 0.004699832694745114 -0.0026002909478466891 0 0.0046971708247613639 -0.0025809229872009276 0 0.004699832694745114 -0.0026002909478466891 0 0.004717288018511452 -0.0025868695813516277 0 0.0047200346269644028 -0.0025770618724865507 0 0.004699832694745114 -0.0026002909478466891 0 0.004717288018511452 -0.0025868695813516277 0 0.0047153226282793479 -0.0025924797197711554 0 0.0046933210735776556 -0.0026062986771148971 0 0.004699832694745114 -0.0026002909478466891 0 0.0047153226282793479 -0.0025924797197711554 0 0.004717288018511452 -0.0025868695813516277 0 0.0047153226282793479 -0.0025924797197711554 0 0.0047360245625876528 -0.0025771130913859464 0 0.0047280631528475725 -0.0025918362106277628 0 0.0047153226282793479 -0.0025924797197711554 0 0.0047359645001260019 -0.0025843099308425709 0 0.0047153226282793479 -0.0025924797197711554 0 0.0047359645001260019 -0.0025843099308425709 0 0.0047360245625876528 -0.0025771130913859464 0 0.004717288018511452 -0.0025868695813516277 0 0.0047360245625876528 -0.0025771130913859464 0 0.0047200346269644028 -0.0025770618724865507 0 0.0047454258396626243 -0.0025662537678736485 0 0.0047360245625876528 -0.0025771130913859464 0 0.0047200346269644028 -0.0025770618724865507 0 0.0040972042650498329 -0.003674387811621702 0 0.0044468022177919847 -0.0026285689456750118 0 0.0047385436572050252 -0.0025569729622726208 0 0.0047200346269644028 -0.0025770618724865507 0 0.0046971708247613639 -0.0025809229872009276 0 0.0039689328468170736 -0.0028919280546705955 0 0.0040083782705156654 -0.0029299190345737983 0 0.0040474159550269668 -0.0028667393701938848 0 0.0047385436572050252 -0.0025569729622726208 0 0.0047454258396626243 -0.0025662537678736485 0 0.0047200346269644028 -0.0025770618724865507 0 0.004699832694745114 -0.0026002909478466891 0 0.0047200346269644028 -0.0025770618724865507 0 0.0046971708247613639 -0.0025809229872009276 0 0.0040972042650498329 -0.003674387811621702 0 0.0038349298106697565 -0.0038847408363379028 0 0.0036137582757672852 -0.0048887522801196858 0 0.003633372203776227 -0.0047980466438436384 0 0.0037329282964577801 -0.004915178027349882 0 0.0038456185038603708 -0.0050217525112126026 0 0.0036330436817355494 -0.0049802951840247234 0 0.0037329282964577801 -0.004915178027349882 0 0.0036330436817355494 -0.0049802951840247234 0 0.0036137582757672852 -0.0048887522801196858 0 0.0037329282964577801 -0.004915178027349882 0 0.0040519600619631814 -0.0029248253401045073 0 0.00407353267097394 -0.0028947023840732223 0 0.0040474159550269668 -0.0028667393701938848 0 0.0040083782705156654 -0.0029299190345737983 0 0.0040519600619631814 -0.0029248253401045073 0 0.0040474159550269668 -0.0028667393701938848 0 0.0040492869559099797 -0.0029757724639279501 0 0.0040519600619631814 -0.0029248253401045073 0 0.0040929369132719582 -0.0029147343263570716 0 0.0040492869559099797 -0.0029757724639279501 0 0.0040083782705156654 -0.0029299190345737983 0 0.0040519600619631814 -0.0029248253401045073 0 0.0037434246099625149 -0.0045158087184860004 0 0.0038349298106697565 -0.0038847408363379028 0 0.0040519600619631814 -0.0029248253401045073 0 0.00407353267097394 -0.0028947023840732223 0 0.0040929369132719582 -0.0029147343263570716 0 0.004686508338859809 -0.0026120483733637887 0 0.0046971708247613639 -0.0025809229872009276 0 0.0046463096930515271 -0.0026152446875210714 0 0.00407353267097394 -0.0028947023840732223 0 0.0040474159550269668 -0.0028667393701938848 0 0.0041032031861651342 -0.0028731718631341227 0 0.0040474159550269668 -0.0028667393701938848 0 0.004129843321194468 -0.002832746487516954 0 0.0041032031861651342 -0.0028731718631341227 0 0.0044468022177919847 -0.0026285689456750118 0 0.0043685641064688495 -0.0027397424448427597 0 0.0046463096930515271 -0.0026152446875210714 0 0.0046472855504131327 -0.0026708206527831409 0 0.0046632731595664077 -0.0026410199684029382 0 0.0041310443440089849 -0.0028632790912418659 0 0.0041032031861651342 -0.0028731718631341227 0 0.0041431512993475939 -0.0028890067368284094 0 0.004129843321194468 -0.002832746487516954 0 0.0041310443440089849 -0.0028632790912418659 0 0.0041032031861651342 -0.0028731718631341227 0 0.004129843321194468 -0.002832746487516954 0 0.0041310443440089849 -0.0028632790912418659 0 0.004148402598255301 -0.0028577956035287749 0 0.0041310443440089849 -0.0028632790912418659 0 0.0041431512993475939 -0.0028890067368284094 0 0.004148402598255301 -0.0028577956035287749 0 0.0040492869559099797 -0.0029757724639279501 0 0.0040929369132719582 -0.0029147343263570716 0 0.0041317800305443707 -0.0029414458462783686 0 0.00407353267097394 -0.0028947023840732223 0 0.0041032031861651342 -0.0028731718631341227 0 0.0040929369132719582 -0.0029147343263570716 0 0.0041032031861651342 -0.0028731718631341227 0 0.0040929369132719582 -0.0029147343263570716 0 0.0041431512993475939 -0.0028890067368284094 0 0.0040929369132719582 -0.0029147343263570716 0 0.0041431512993475939 -0.0028890067368284094 0 0.0041317800305443707 -0.0029414458462783686 0 0.0041431512993475939 -0.0028890067368284094 0 0.0041974998327470748 -0.002924950673698681 0 0.0041919779577937371 -0.0028492255972367886 0 0.0041431512993475939 -0.0028890067368284094 0 0.0041317800305443707 -0.0029414458462783686 0 0.0041974998327470748 -0.002924950673698681 0 0.0046463096930515271 -0.0026152446875210714 0 0.0044502871823450469 -0.0027551835331204449 0 0.0042550672124539949 -0.0027861784717586034 0 0.004129843321194468 -0.002832746487516954 0 0.0041919779577937371 -0.0028492255972367886 0 0.0042550672124539949 -0.0027861784717586034 0 0.0041974998327470748 -0.002924950673698681 0 0.0041919779577937371 -0.0028492255972367886 0 0.0042394077184569716 -0.0028515164173046701 0 0.0043685641064688495 -0.0027397424448427597 0 0.0042807806476966824 -0.0027710675095093023 0 0.0041431512993475939 -0.0028890067368284094 0 0.0041919779577937371 -0.0028492255972367886 0 0.004148402598255301 -0.0028577956035287749 0 0.004129843321194468 -0.002832746487516954 0 0.0041919779577937371 -0.0028492255972367886 0 0.004148402598255301 -0.0028577956035287749 0 0.0046463096930515271 -0.0026152446875210714 0 0.0044502871823450469 -0.0027551835331204449 0 0.0046472855504131327 -0.0026708206527831409 0 0.0044502871823450469 -0.0027551835331204449 0 0.0042550672124539949 -0.0027861784717586034 0 0.0043375512203791952 -0.0028456619774550099 0 0.0044486265359058464 -0.0029220755909546104 0 0.0043375512203791952 -0.0028456619774550099 0 0.004325362142970841 -0.0029510641877400919 0 0.0044502871823450469 -0.0027551835331204449 0 0.0044486265359058464 -0.0029220755909546104 0 0.0043375512203791952 -0.0028456619774550099 0 0.004721710398359078 -0.0026442832533311346 0 0.0046472855504131327 -0.0026708206527831409 0 0.0046660147446587873 -0.0026476099366400203 0 0.0045795591520803479 -0.0027837234091413919 0 0.0046473343067865106 -0.0026835748121404705 0 0.0044502871823450469 -0.0027551835331204449 0 0.0044486265359058464 -0.0029220755909546104 0 0.0046472855504131327 -0.0026708206527831409 0 0.004686508338859809 -0.0026120483733637887 0 0.0046463096930515271 -0.0026152446875210714 0 0.0046632731595664077 -0.0026410199684029382 0 0.0046472855504131327 -0.0026708206527831409 0 0.0046632731595664077 -0.0026410199684029382 0 0.0046660147446587873 -0.0026476099366400203 0 0.004686508338859809 -0.0026120483733637887 0 0.0046632731595664077 -0.0026410199684029382 0 0.0046711094036765329 -0.0026334550623214738 0 0.0046632731595664077 -0.0026410199684029382 0 0.0046711094036765329 -0.0026334550623214738 0 0.0046660147446587873 -0.0026476099366400203 0 0.0046734589434877681 -0.0026336605346347014 0 0.0046795521182158113 -0.0026362850197098552 0 0.0046770737566133183 -0.0026265143451611132 0 0.0046810030121742551 -0.0026206641960643778 0 0.0046767863701042004 -0.0026266239659467811 0 0.0046734589434877681 -0.0026336605346347014 0 0.0046711094036765329 -0.0026334550623214738 0 0.0046767863701042004 -0.0026266239659467811 0 0.0046734589434877681 -0.0026336605346347014 0 0.0046711094036765329 -0.0026334550623214738 0 0.0046734589434877681 -0.0026336605346347014 0 0.0046660147446587873 -0.0026476099366400203 0 0.0046810030121742551 -0.0026206641960643778 0 0.0046734589434877681 -0.0026336605346347014 0 0.0046770737566133183 -0.0026265143451611132 0 0.004721710398359078 -0.0026442832533311346 0 0.0046660147446587873 -0.0026476099366400203 0 0.0046795521182158113 -0.0026362850197098552 0 0.0046734589434877681 -0.0026336605346347014 0 0.0046660147446587873 -0.0026476099366400203 0 0.0046795521182158113 -0.0026362850197098552 0 0.0046795521182158113 -0.0026362850197098552 0 0.0047017769989963279 -0.0026303917867353498 0 0.0046814288664748524 -0.0026264236914675296 0 0.0047017769989963279 -0.0026303917867353498 0 0.0046814288664748524 -0.0026264236914675296 0 0.0046892284949681126 -0.0026211418721911557 0 0.0046795521182158113 -0.0026362850197098552 0 0.0046770737566133183 -0.0026265143451611132 0 0.0046814288664748524 -0.0026264236914675296 0 0.0046774122445773789 -0.0026174314389550831 0 0.0046770737566133183 -0.0026265143451611132 0 0.0046814288664748524 -0.0026264236914675296 0 0.0046774122445773789 -0.0026174314389550831 0 0.0046814288664748524 -0.0026264236914675296 0 0.0046783478181348414 -0.0026160381756558946 0 0.0046814288664748524 -0.0026264236914675296 0 0.0046783478181348414 -0.0026160381756558946 0 0.0046892284949681126 -0.0026211418721911557 0 0.0046783478181348414 -0.0026160381756558946 0 0.0046892284949681126 -0.0026211418721911557 0 0.0046872796096439229 -0.0026082978438853287 0 0.0047017769989963279 -0.0026303917867353498 0 0.0046892284949681126 -0.0026211418721911557 0 0.004714579079254556 -0.0026216627020673442 0 0.0046892284949681126 -0.0026211418721911557 0 0.004714579079254556 -0.0026216627020673442 0 0.0046872796096439229 -0.0026082978438853287 0 0.0047017769989963279 -0.0026303917867353498 0 0.004714579079254556 -0.0026216627020673442 0 0.004731315145443539 -0.002629919275050806 0 0.004714579079254556 -0.0026216627020673442 0 0.004731315145443539 -0.002629919275050806 0 0.004750257029295722 -0.0026247986740892191 0 0.004731315145443539 -0.002629919275050806 0 0.004750257029295722 -0.0026247986740892191 0 0.0047539027183409223 -0.0026273326080579469 0 0.0047441098790408191 -0.0026940671106157809 0 0.0042998821500674928 -0.0025793957638401456 0 0.0044486265359058464 -0.0029220755909546104 0 0.0043025427334746251 -0.0030775282590074248 0 0.004325362142970841 -0.0029510641877400919 0 0.004721710398359078 -0.0026442832533311346 0 0.004731315145443539 -0.002629919275050806 0 0.0047539027183409223 -0.0026273326080579469 0 0.0045795591520803479 -0.0027837234091413919 0 0.0042998821500674928 -0.0025793957638401456 0 0.004721710398359078 -0.0026442832533311346 0 0.0046795521182158113 -0.0026362850197098552 0 0.0047017769989963279 -0.0026303917867353498 0 0.004721710398359078 -0.0026442832533311346 0 0.0047017769989963279 -0.0026303917867353498 0 0.004731315145443539 -0.002629919275050806 0 0.0047330795990554704 -0.002576035660732509 0 0.0047497987541872183 -0.0025983409736907871 0 0.0047116282438698217 -0.002601733347589931 0 0.0047330795990554704 -0.002576035660732509 0 0.0047977873120167627 -0.0025606460207764983 0 0.0047497987541872183 -0.0025983409736907871 0 0.0047977873120167627 -0.0025606460207764983 0 0.0047497987541872183 -0.0025983409736907871 0 0.0047903198856486225 -0.002605419285156718 0 0.004750257029295722 -0.0026247986740892191 0 0.0048028965405994732 -0.0026500247421258811 0 0.0047903198856486225 -0.002605419285156718 0 0.004750257029295722 -0.0026247986740892191 0 0.0047497987541872183 -0.0025983409736907871 0 0.0047903198856486225 -0.002605419285156718 0 0.004714579079254556 -0.0026216627020673442 0 0.004750257029295722 -0.0026247986740892191 0 0.0047497987541872183 -0.0025983409736907871 0 0.004714579079254556 -0.0026216627020673442 0 0.0047497987541872183 -0.0025983409736907871 0 0.0047116282438698217 -0.002601733347589931 0 0.004714579079254556 -0.0026216627020673442 0 0.0046872796096439229 -0.0026082978438853287 0 0.0047116282438698217 -0.002601733347589931 0 0.0046872796096439229 -0.0026082978438853287 0 0.0047116282438698217 -0.002601733347589931 0 0.0046864295299883334 -0.0025917209561772507 0 0.0046872796096439229 -0.0026082978438853287 0 0.0046688914208134879 -0.0026017152464263699 0 0.0046864295299883334 -0.0025917209561772507 0 0.0046783478181348414 -0.0026160381756558946 0 0.0046872796096439229 -0.0026082978438853287 0 0.0046688914208134879 -0.0026017152464263699 0 0.0046688914208134879 -0.0026017152464263699 0 0.0046595228441823292 -0.0025813094386606373 0 0.0046864295299883334 -0.0025917209561772507 0 0.0047330795990554704 -0.002576035660732509 0 0.0046864295299883334 -0.0025917209561772507 0 0.004689633079661081 -0.0025577620264647335 0 0.0047330795990554704 -0.002576035660732509 0 0.0047116282438698217 -0.002601733347589931 0 0.0046864295299883334 -0.0025917209561772507 0 0.0046595228441823292 -0.0025813094386606373 0 0.0046864295299883334 -0.0025917209561772507 0 0.004689633079661081 -0.0025577620264647335 0 0.0046595228441823292 -0.0025813094386606373 0 0.004689633079661081 -0.0025577620264647335 0 0.0046055511506409895 -0.0025385525376552883 0 0.004689633079661081 -0.0025577620264647335 0 0.0046055511506409895 -0.0025385525376552883 0 0.004682986671747779 -0.0024849757734823116 0 0.004689633079661081 -0.0025577620264647335 0 0.0047850809252666868 -0.0025100036119136363 0 0.004682986671747779 -0.0024849757734823116 0 0.0047330795990554704 -0.002576035660732509 0 0.004689633079661081 -0.0025577620264647335 0 0.0047850809252666868 -0.0025100036119136363 0 0.0047330795990554704 -0.002576035660732509 0 0.0047977873120167627 -0.0025606460207764983 0 0.0047850809252666868 -0.0025100036119136363 0 0.0047977873120167627 -0.0025606460207764983 0 0.0047850809252666868 -0.0025100036119136363 0 0.0048692344017810356 -0.0024696915196094271 0 0.0047850809252666868 -0.0025100036119136363 0 0.0048854453222749354 -0.0024185178860462848 0 0.0047850723261390433 -0.0024286721056211154 0 0.0037151018146962707 -0.001030441833573305 0 0.0038684933492018226 -0.0016176809095146359 0 0.0047850809252666868 -0.0025100036119136363 0 0.0048854453222749354 -0.0024185178860462848 0 0.0048692344017810356 -0.0024696915196094271 0 0.0048854453222749354 -0.0024185178860462848 0 0.0049589999452853816 -0.0019375342794131134 0 0.0049753333367574043 -0.0025488611707544981 0 0.0047850723261390433 -0.0024286721056211154 0 0.0047721225235649641 -0.0022521667607084063 0 0.004682986671747779 -0.0024849757734823116 0 0.0047850809252666868 -0.0025100036119136363 0 0.0047850723261390433 -0.0024286721056211154 0 0.004682986671747779 -0.0024849757734823116 0 0.0048854453222749354 -0.0024185178860462848 0 0.0047850723261390433 -0.0024286721056211154 0 0.0047721225235649641 -0.0022521667607084063 0 0.0048854453222749354 -0.0024185178860462848 0 0.0047721225235649641 -0.0022521667607084063 0 0.0049589999452853816 -0.0019375342794131134 0 0.0047721225235649641 -0.0022521667607084063 0 0.0049589999452853816 -0.0019375342794131134 0 0.0045195398721404817 -0.0019355120533870629 0 0.0045195398721404817 -0.0019355120533870629 0 0.0044860970924229622 -0.0024537088089415255 0 0.0041583809010479651 -0.0019928019210406238 0 0.0049589999452853816 -0.0019375342794131134 0 0.0045195398721404817 -0.0019355120533870629 0 0.0046222339748766498 -0.001638686438003537 0 0.0047721225235649641 -0.0022521667607084063 0 0.0045195398721404817 -0.0019355120533870629 0 0.0044860970924229622 -0.0024537088089415255 0 0.0047721225235649641 -0.0022521667607084063 0 0.0044860970924229622 -0.0024537088089415255 0 0.004682986671747779 -0.0024849757734823116 0 0.0046055511506409895 -0.0025385525376552883 0 0.0044860970924229622 -0.0024537088089415255 0 0.004682986671747779 -0.0024849757734823116 0 0.0046055511506409895 -0.0025385525376552883 0 0.0044860970924229622 -0.0024537088089415255 0 0.0045923124348130348 -0.0025318367674265489 0 0.0044860970924229622 -0.0024537088089415255 0 0.0045923124348130348 -0.0025318367674265489 0 0.0046277655388981525 -0.0026203949416478407 0 0.0044455728184959482 -0.0024707383504662967 0 0.0042338892358177961 -0.002421636995849507 0 0.0038792195168143306 -0.0018785086027269316 0 0.0041583809010479651 -0.0019928019210406238 0 0.0041972200480814631 -0.0015007178137157924 0 0.0038792195168143306 -0.0018785086027269316 0 0.0033460787235620225 -0.00181722394977497 0 0.0041972200480814631 -0.0015007178137157924 0 0.0044860970924229622 -0.0024537088089415255 0 0.0038023000269383649 -0.0022633709842098007 0 0.0041583809010479651 -0.0019928019210406238 0 0.0045195398721404817 -0.0019355120533870629 0 0.0041583809010479651 -0.0019928019210406238 0 0.0041972200480814631 -0.0015007178137157924 0 0.0038023000269383649 -0.0022633709842098007 0 0.0038792195168143306 -0.0018785086027269316 0 0.0041583809010479651 -0.0019928019210406238 0 0.0038023000269383649 -0.0022633709842098007 0 0.0038792195168143306 -0.0018785086027269316 0 0.0033460787235620225 -0.00181722394977497 0 0.0046277655388981525 -0.0026203949416478407 0 0.0046877888864448056 -0.0026418992611052078 0 0.0046688684334040354 -0.0025987919487213207 0 0.0042338892358177961 -0.002421636995849507 0 0.0040274348395543209 -0.0020019062178638228 0 0.0038023000269383649 -0.0022633709842098007 0 0.0033460787235620225 -0.00181722394977497 0 0.0031858494710464836 -0.0019292353361932879 0 0.0046877888864448056 -0.0026418992611052078 0 0.0046688684334040354 -0.0025987919487213207 0 0.0046996828053173624 -0.0026100680767268489 0 0.0045923124348130348 -0.0025318367674265489 0 0.0046277655388981525 -0.0026203949416478407 0 0.0046688684334040354 -0.0025987919487213207 0 0.0046688684334040354 -0.0025987919487213207 0 0.0046983843168103643 -0.0026125805602537529 0 0.0046500912001019076 -0.0025771026230481373 0 0.0045923124348130348 -0.0025318367674265489 0 0.0046688684334040354 -0.0025987919487213207 0 0.0046500912001019076 -0.0025771026230481373 0 0.0046688684334040354 -0.0025987919487213207 0 0.0046983843168103643 -0.0026125805602537529 0 0.0046996828053173624 -0.0026100680767268489 0 0.0046983843168103643 -0.0026125805602537529 0 0.004699081314305264 -0.0026114440348538361 0 0.0046500912001019076 -0.0025771026230481373 0 0.0046983843168103643 -0.0026125805602537529 0 0.004699081314305264 -0.0026114440348538361 0 0.0047698946945545079 -0.0026536016017757792 0 0.0047223077542397985 -0.0026178524290072728 0 0.004699081314305264 -0.0026114440348538361 0 0.0047698946945545079 -0.0026536016017757792 0 0.0047223077542397985 -0.0026178524290072728 0 0.004699081314305264 -0.0026114440348538361 0 0.0046919550212276579 -0.0026038736591790291 0 0.004699081314305264 -0.0026114440348538361 0 0.0046578694882170478 -0.0025873620032057865 0 0.0046919550212276579 -0.0026038736591790291 0 0.004699081314305264 -0.0026114440348538361 0 0.0046500912001019076 -0.0025771026230481373 0 0.0046578694882170478 -0.0025873620032057865 0 0.0046500912001019076 -0.0025771026230481373 0 0.0046260995895387059 -0.0025626940125157917 0 0.0046578694882170478 -0.0025873620032057865 0 0.0045923124348130348 -0.0025318367674265489 0 0.0046500912001019076 -0.0025771026230481373 0 0.0046260995895387059 -0.0025626940125157917 0 0.0046055511506409895 -0.0025385525376552883 0 0.0045923124348130348 -0.0025318367674265489 0 0.0046260995895387059 -0.0025626940125157917 0 0.0046055511506409895 -0.0025385525376552883 0 0.0046260995895387059 -0.0025626940125157917 0 0.0046465056278725712 -0.0025821444175898769 0 0.0046595228441823292 -0.0025813094386606373 0 0.0046055511506409895 -0.0025385525376552883 0 0.0046465056278725712 -0.0025821444175898769 0 0.0046260995895387059 -0.0025626940125157917 0 0.0046578694882170478 -0.0025873620032057865 0 0.0046465056278725712 -0.0025821444175898769 0 0.0046690116714251445 -0.0025975060811805561 0 0.0046465056278725712 -0.0025821444175898769 0 0.0046655855578857462 -0.0026000704827157527 0 0.0046578694882170478 -0.0025873620032057865 0 0.0046690116714251445 -0.0025975060811805561 0 0.0046465056278725712 -0.0025821444175898769 0 0.0046688914208134879 -0.0026017152464263699 0 0.0046465056278725712 -0.0025821444175898769 0 0.0046655855578857462 -0.0026000704827157527 0 0.0046688914208134879 -0.0026017152464263699 0 0.0046595228441823292 -0.0025813094386606373 0 0.0046465056278725712 -0.0025821444175898769 0 0.0046734184448377408 -0.0026096270738778468 0 0.0046783478181348414 -0.0026160381756558946 0 0.0046688914208134879 -0.0026017152464263699 0 0.0046734184448377408 -0.0026096270738778468 0 0.0046655855578857462 -0.0026000704827157527 0 0.0046764526362603684 -0.0026049934569499834 0 0.0046734184448377408 -0.0026096270738778468 0 0.0046688914208134879 -0.0026017152464263699 0 0.0046655855578857462 -0.0026000704827157527 0 0.0046690116714251445 -0.0025975060811805561 0 0.0046764526362603684 -0.0026049934569499834 0 0.0046903813961574684 -0.0026034335406760478 0 0.0046690116714251445 -0.0025975060811805561 0 0.0046655855578857462 -0.0026000704827157527 0 0.0046764526362603684 -0.0026049934569499834 0 0.0046903813961574684 -0.0026034335406760478 0 0.0047180266136088644 -0.0026085754771047139 0 0.0046919550212276579 -0.0026038736591790291 0 0.0047093336234728068 -0.0026028742408592915 0 0.0046903813961574684 -0.0026034335406760478 0 0.0047180266136088644 -0.0026085754771047139 0 0.0047312952896428678 -0.0026058604935198537 0 0.0047093336234728068 -0.0026028742408592915 0 0.0047180266136088644 -0.0026085754771047139 0 0.0047312952896428678 -0.0026058604935198537 0 0.0047180266136088644 -0.0026085754771047139 0 0.0047498836995045696 -0.0026158879072688389 0 0.0047223077542397985 -0.0026178524290072728 0 0.0047180266136088644 -0.0026085754771047139 0 0.0047581405145497753 -0.0026256866303805406 0 0.0047223077542397985 -0.0026178524290072728 0 0.0047180266136088644 -0.0026085754771047139 0 0.0046919550212276579 -0.0026038736591790291 0 0.0046578694882170478 -0.0025873620032057865 0 0.0046690116714251445 -0.0025975060811805561 0 0.0046919550212276579 -0.0026038736591790291 0 0.0046690116714251445 -0.0025975060811805561 0 0.0046903813961574684 -0.0026034335406760478 0 0.0046919550212276579 -0.0026038736591790291 0 0.0048153441267923683 -0.0026504793087716752 0 0.0047581405145497753 -0.0026256866303805406 0 0.004805813947167485 -0.0026319286221220474 0 0.0047575054049440796 -0.0026079749908587925 0 0.0047498836995045696 -0.0026158879072688389 0 0.004805813947167485 -0.0026319286221220474 0 0.0047180266136088644 -0.0026085754771047139 0 0.0047581405145497753 -0.0026256866303805406 0 0.0047498836995045696 -0.0026158879072688389 0 0.0047581405145497753 -0.0026256866303805406 0 0.0047498836995045696 -0.0026158879072688389 0 0.004805813947167485 -0.0026319286221220474 0 0.0047575054049440796 -0.0026079749908587925 0 0.0047312952896428678 -0.0026058604935198537 0 0.0047498836995045696 -0.0026158879072688389 0 0.0048606030050147098 -0.0026333649092322164 0 0.004805813947167485 -0.0026319286221220474 0 0.0048896332919081678 -0.0026833988645059018 0 0.0048606030050147098 -0.0026333649092322164 0 0.0047891821263365275 -0.0026108071144626626 0 0.004805813947167485 -0.0026319286221220474 0 0.0048153441267923683 -0.0026504793087716752 0 0.004805813947167485 -0.0026319286221220474 0 0.0048896332919081678 -0.0026833988645059018 0 0.0048153441267923683 -0.0026504793087716752 0 0.0048896332919081678 -0.0026833988645059018 0 0.0048568707274570704 -0.0026791164927701954 0 0.0048896332919081678 -0.0026833988645059018 0 0.0048568707274570704 -0.0026791164927701954 0 0.0049380280448177837 -0.002716573031325469 0 0.0048568707274570704 -0.0026791164927701954 0 0.0049380280448177837 -0.002716573031325469 0 0.004849265133132657 -0.0027074481370052035 0 0.0048568707274570704 -0.0026791164927701954 0 0.0047698946945545079 -0.0026536016017757792 0 0.004849265133132657 -0.0027074481370052035 0 0.0048153441267923683 -0.0026504793087716752 0 0.0048568707274570704 -0.0026791164927701954 0 0.0047698946945545079 -0.0026536016017757792 0 0.0048153441267923683 -0.0026504793087716752 0 0.0047581405145497753 -0.0026256866303805406 0 0.0047698946945545079 -0.0026536016017757792 0 0.0047223077542397985 -0.0026178524290072728 0 0.0047581405145497753 -0.0026256866303805406 0 0.0047698946945545079 -0.0026536016017757792 0 0.0047698946945545079 -0.0026536016017757792 0 0.0048192062745586843 -0.0027132182020707771 0 0.004849265133132657 -0.0027074481370052035 0 0.0046983843168103643 -0.0026125805602537529 0 0.0047698946945545079 -0.0026536016017757792 0 0.0046996828053173624 -0.0026100680767268489 0 0.004849265133132657 -0.0027074481370052035 0 0.0048179470633683934 -0.0026975594591357867 0 0.0048003081891599955 -0.0026943310555474112 0 0.0048192062745586843 -0.0027132182020707771 0 0.004849265133132657 -0.0027074481370052035 0 0.0048179470633683934 -0.0026975594591357867 0 0.004771584342242537 -0.0026200996690553514 0 0.0047123056712956189 -0.0027193026592397347 0 0.0040274348395543209 -0.0020019062178638228 0 0.0047123056712956189 -0.0027193026592397347 0 0.0048357891707130063 -0.0026827942105339779 0 0.0048192062745586843 -0.0027132182020707771 0 0.0048179470633683934 -0.0026975594591357867 0 0.0048357891707130063 -0.0026827942105339779 0 0.0048179470633683934 -0.0026975594591357867 0 0.0047786608491326137 -0.0026483574645398099 0 0.0034180835667631327 -0.00096119108088935936 0 0.0033265187889368057 -0.00091348827257590689 0 0.0033673683989976452 -0.00090730685003756993 0 0.0040274348395543209 -0.0020019062178638228 0 0.0043232212775620431 -0.0019379172780157735 0 0.0050289423888173835 -0.0026403524810058084 0 0.0049906470785038093 -0.0027050928485210387 0 0.0050403220920848387 -0.0026223608643389483 0 0.0048179470633683934 -0.0026975594591357867 0 0.0048003081891599955 -0.0026943310555474112 0 0.0047786608491326137 -0.0026483574645398099 0 0.0049480448247268532 -0.0028323818369742999 0 0.0043232212775620431 -0.0019379172780157735 0 0.0050289423888173835 -0.0026403524810058084 0 0.0049906470785038093 -0.0027050928485210387 0 0.0050093251341125989 -0.002682729594380694 0 0.0049906470785038093 -0.0027050928485210387 0 0.0050093251341125989 -0.002682729594380694 0 0.0049739869139249805 -0.0027176961279246634 0 0.004849265133132657 -0.0027074481370052035 0 0.0049906470785038093 -0.0027050928485210387 0 0.0049739869139249805 -0.0027176961279246634 0 0.0048398134686208063 -0.0026424306229613265 0 0.0049480448247268532 -0.0028323818369742999 0 0.0049380280448177837 -0.002716573031325469 0 0.004849265133132657 -0.0027074481370052035 0 0.0049739869139249805 -0.0027176961279246634 0 0.0049380280448177837 -0.002716573031325469 0 0.0049739869139249805 -0.0027176961279246634 0 0.0049955548368636445 -0.002740493979876346 0 0.0049739869139249805 -0.0027176961279246634 0 0.0049955548368636445 -0.002740493979876346 0 0.0050168746423687885 -0.0026919430959570874 0 0.0049955548368636445 -0.002740493979876346 0 0.0050240928483072968 -0.0027049949860428364 0 0.0050155387745481608 -0.0027851241135303465 0 0.0049955548368636445 -0.002740493979876346 0 0.0050168746423687885 -0.0026919430959570874 0 0.0050240928483072968 -0.0027049949860428364 0 0.0050093251341125989 -0.002682729594380694 0 0.0049739869139249805 -0.0027176961279246634 0 0.0050168746423687885 -0.0026919430959570874 0 0.0050093251341125989 -0.002682729594380694 0 0.0050168746423687885 -0.0026919430959570874 0 0.0050299090858601236 -0.0026421881319905688 0 0.0050289423888173835 -0.0026403524810058084 0 0.0050093251341125989 -0.002682729594380694 0 0.0050299090858601236 -0.0026421881319905688 0 0.0050168746423687885 -0.0026919430959570874 0 0.00503473194350637 -0.0026180072249913531 0 0.0050240928483072968 -0.0027049949860428364 0 0.0050168746423687885 -0.0026919430959570874 0 0.0050299090858601236 -0.0026421881319905688 0 0.00503473194350637 -0.0026180072249913531 0 0.0050299090858601236 -0.0026421881319905688 0 0.0050422311869904755 -0.0025951952835573319 0 0.00503473194350637 -0.0026180072249913531 0 0.0050422311869904755 -0.0025951952835573319 0 0.00503473194350637 -0.0026180072249913531 0 0.0050424477007886851 -0.0025237102932242177 0 0.0050289423888173835 -0.0026403524810058084 0 0.0050299090858601236 -0.0026421881319905688 0 0.0050422311869904755 -0.0025951952835573319 0 0.0049999523795139379 -0.0025343205694673627 0 0.005023055899397286 -0.0026282843426605981 0 0.0049998970419165281 -0.0027399502186129473 0 0.0049999523795139379 -0.0025343205694673627 0 0.0050312197101002477 -0.0025465860342405253 0 0.005023055899397286 -0.0026282843426605981 0 0.00503473194350637 -0.0026180072249913531 0 0.0050312197101002477 -0.0025465860342405253 0 0.005023055899397286 -0.0026282843426605981 0 0.00503473194350637 -0.0026180072249913531 0 0.0050312197101002477 -0.0025465860342405253 0 0.0050424477007886851 -0.0025237102932242177 0 0.00503473194350637 -0.0026180072249913531 0 0.005023055899397286 -0.0026282843426605981 0 0.0050240928483072968 -0.0027049949860428364 0 0.005023055899397286 -0.0026282843426605981 0 0.0050240928483072968 -0.0027049949860428364 0 0.0049998970419165281 -0.0027399502186129473 0 0.0050240928483072968 -0.0027049949860428364 0 0.0049998970419165281 -0.0027399502186129473 0 0.0050155387745481608 -0.0027851241135303465 0 0.0049998970419165281 -0.0027399502186129473 0 0.0050000536374012411 -0.0029448217512727951 0 0.0050155387745481608 -0.0027851241135303465 0 0.0050000536374012411 -0.0029448217512727951 0 0.0050155387745481608 -0.0027851241135303465 0 0.0049774708460209168 -0.0027602529144502459 0 0.0049955548368636445 -0.002740493979876346 0 0.0050155387745481608 -0.0027851241135303465 0 0.0049774708460209168 -0.0027602529144502459 0 0.0049380280448177837 -0.002716573031325469 0 0.0049955548368636445 -0.002740493979876346 0 0.0049774708460209168 -0.0027602529144502459 0 0.0048896332919081678 -0.0026833988645059018 0 0.0049380280448177837 -0.002716573031325469 0 0.0049774708460209168 -0.0027602529144502459 0 0.0048896332919081678 -0.0026833988645059018 0 0.0049774708460209168 -0.0027602529144502459 0 0.0049884745531478527 -0.002694729146203537 0 0.0048606030050147098 -0.0026333649092322164 0 0.0048896332919081678 -0.0026833988645059018 0 0.0049884745531478527 -0.002694729146203537 0 0.0049999985992634742 -0.0029453732065740502 0 0.0050154807510499307 -0.0028842835033567518 0 0.0050000667111621492 -0.0029455635060020376 0 0.004999916932094917 -0.003028762988556775 0 0.0050816900333848971 -0.0030787081212114639 0 0.0050000536374012411 -0.0029448217512727951 0 0.0049774708460209168 -0.0027602529144502459 0 0.0049884745531478527 -0.002694729146203537 0 0.0018444952746262558 -0.0032371590022289075 0 0.001662650364349295 -0.0032769772894183061 0 0.0018508795456620413 -0.0029875977893887499 0 0.0018444952746262558 -0.0032371590022289075 0 0.0019583405511337166 -0.0033546820007275087 0 0.0017488840442713381 -0.0033717319161831734 0 0.0018444952746262558 -0.0032371590022289075 0 0.0017488840442713381 -0.0033717319161831734 0 0.001662650364349295 -0.0032769772894183061 0 0.0018444952746262558 -0.0032371590022289075 0 0.0019356359562156269 -0.0031820687251167311 0 0.0020097413476072717 -0.0032548042924003609 0 0.0019140733898964622 -0.002933082795338147 0 0.0024772162462405097 -0.0029802661918517017 0 0.0020097413476072717 -0.0032548042924003609 0 0.0019616274773430818 -0.0033486440127299022 0 0.0022238464672184768 -0.0033273274080716105 0 0.0020097413476072717 -0.0032548042924003609 0 0.0020386760107078019 -0.0031592507521564627 0 0.0022238464672184768 -0.0033273274080716105 0 0.0027737008589670911 -0.0032759451172881746 0 0.0028690985354356572 -0.0032818524056034224 0 0.0029226930019080411 -0.0033438096644794 0 0.0028018054868569277 -0.003287289559773273 0 0.0028590928234419649 -0.0033198959712799929 0 0.0027822739255417457 -0.0032924297553246179 0 0.0027737008589670911 -0.0032759451172881746 0 0.0028795299056286958 -0.0033138890866349102 0 0.0019356359562156269 -0.0031820687251167311 0 0.0020097413476072717 -0.0032548042924003609 0 0.0020386760107078019 -0.0031592507521564627 0 0.0024391198399031479 -0.0032411229011783064 0 0.0024772162462405097 -0.0029802661918517017 0 0.0018444952746262558 -0.0032371590022289075 0 0.0020097413476072717 -0.0032548042924003609 0 0.0019583405511337166 -0.0033546820007275087 0 0.0018886246123181853 -0.0032265087560847069 0 0.0019140733898964622 -0.002933082795338147 0 0.0019140733898964622 -0.002933082795338147 0 0.0018588278616453345 -0.002333833235435821 0 0.0018734060684940373 -0.0017035566455847898 0 0.001747397599194017 -0.0016598093056853997 0 0.0018436468369815674 -0.0015962542349423358 0 0.0019813528153173102 -0.0024018740389604699 0 0.00208735387137998 -0.0024420314437533599 0 0.0019532653577267012 -0.0024565210280593896 0 0.0019813528153173102 -0.0024018740389604699 0 0.00208735387137998 -0.0024420314437533599 0 0.002200731560163394 -0.0023844935071447356 0 0.0018588278616453345 -0.002333833235435821 0 0.0018523330963071598 -0.0020479470543691811 0 0.00208735387137998 -0.0024420314437533599 0 0.0019532653577267012 -0.0024565210280593896 0 0.0021845693812051416 -0.0025212465886956209 0 0.00090662346290071381 -0.0031464000632291053 0 0.00088853019665027073 -0.0022274373464297227 0 0.0012704408000529764 -0.0026567752598568957 0 0.0013077005029116554 -0.0026544085503059883 0 0.0012592756582803012 -0.0024383533774080049 0 0.0011718558325995965 -0.0026246525086678096 0 0.0012704408000529764 -0.0026567752598568957 0 0.0012592756582803012 -0.0024383533774080049 0 0.0019338326069446451 -0.0027939627205019633 0 0.0018535023381208316 -0.0029524104716704379 0 0.0014476718864717324 -0.0028329700336730095 0 0.0019140733898964622 -0.002933082795338147 0 0.0013717963959119308 -0.0030517418573545248 0 0.0018588278616453345 -0.002333833235435821 0 0.0013717963959119308 -0.0030517418573545248 0 0.00024957433039873292 -0.0031647659399937807 0 0.00015415029736673817 -0.0034155700054575612 0 3.1191838972079316e-05 -0.0028725739133884844 0 0.00045529635494963522 -0.0033877515019268755 0 0.00041227234173151623 -0.0032144901653196624 0 0.00024957433039873292 -0.0031647659399937807 0 0.00028358745021689742 -0.0034049969813989786 0 0.00044727597785515483 -0.0031436812287770183 0 0.00024957433039873292 -0.0031647659399937807 0 0.00028358745021689742 -0.0034049969813989786 0 0.00015415029736673817 -0.0034155700054575612 0 0.00065252256356954249 -0.0033359975917058192 0 0.00083062566910852963 -0.0033218609219335467 0 0.00071358642119835017 -0.0032385931892699666 0 0.00045529635494963522 -0.0033877515019268755 0 0.00090662346290071381 -0.0031464000632291053 0 0.0012449902629636921 -0.0031261981935201888 0 0.00098832627057668073 -0.0031467640239493332 0 0.00096612482237278593 -0.0030438071274807143 0 0.0013717963959119308 -0.0030517418573545248 0 0.00090662346290071381 -0.0031464000632291053 0 0.00090662346290071381 -0.0031464000632291053 0 0.0010186179787125345 -0.0032789252192878533 0 0.00076672780188918508 -0.0030598291393585213 0 0.00044727597785515483 -0.0031436812287770183 0 0.00061466986733998063 -0.003406693592194158 0 0.00032939028716896346 -0.0034415837610857363 0 0.00061466986733998063 -0.003406693592194158 0 0.00050513422074671569 -0.0035253669234087022 0 0.00045529635494963522 -0.0033877515019268755 0 0.00052683297989181805 -0.0034140853512605704 0 0.00026905758724092652 -0.0034334026253198908 0 0.00044727597785515483 -0.0031436812287770183 0 0.00061466986733998063 -0.003406693592194158 0 0.00084308430007660367 -0.0034411257248285884 0 0.00061466986733998063 -0.003406693592194158 0 0.00066121187529031157 -0.0035992159009308523 0 0.00061466986733998063 -0.003406693592194158 0 0.00066121187529031157 -0.0035992159009308523 0 0.00050513422074671569 -0.0035253669234087022 0 0.00066121187529031157 -0.0035992159009308523 0 0.00050513422074671569 -0.0035253669234087022 0 0.00052861903433246919 -0.0036546713230657768 0 0.00050513422074671569 -0.0035253669234087022 0 0.00044094687990784104 -0.0036198060567563168 0 0.00052861903433246919 -0.0036546713230657768 0 0.00050513422074671569 -0.0035253669234087022 0 0.00044094687990784104 -0.0036198060567563168 0 0.00038480625595598082 -0.0035354730943178252 0 0.00044094687990784104 -0.0036198060567563168 0 0.00047647300569168789 -0.0037639481510737924 0 0.00052861903433246919 -0.0036546713230657768 0 0.00047647300569168789 -0.0037639481510737924 0 0.00058295364529472443 -0.0037626046748433393 0 0.00052861903433246919 -0.0036546713230657768 0 0.00066121187529031157 -0.0035992159009308523 0 0.00058295364529472443 -0.0037626046748433393 0 0.00071576115492715323 -0.0037424570537350744 0 0.00066121187529031157 -0.0035992159009308523 0 0.00058295364529472443 -0.0037626046748433393 0 0.00052861903433246919 -0.0036546713230657768 0 0.00021455958685698322 -0.0035918332989210151 0 0.00034727015522154834 -0.0035823307428714144 0 0.00035478272168253095 -0.0041658512284248779 0 0.001064115979434437 -0.0034181286326961254 0 0.00067588654299121503 -0.0033874395527341656 0 0.00021455958685698322 -0.0035918332989210151 0 0.00027657082181532452 -0.0034980243640015127 0 0.00034727015522154834 -0.0035823307428714144 0 0.001064115979434437 -0.0034181286326961254 0 0.0010186179787125345 -0.0032789252192878533 0 0.0017488840442713381 -0.0033717319161831734 0 0.001662650364349295 -0.0032769772894183061 0 0.001677966064879025 -0.0033510093319273075 0 0.0013717963959119308 -0.0030517418573545248 0 0.0010186179787125345 -0.0032789252192878533 0 0.00083062566910852963 -0.0033218609219335467 0 0.00081939989883718888 -0.0032698872115596101 0 0.00071358642119835017 -0.0032385931892699666 0 0.0009888889565145614 -0.0033889461393589279 0 0.0009652507592421807 -0.0032792892670426687 0 0.0010421383839118825 -0.0033025072936590325 0 0.0010186179787125345 -0.0032789252192878533 0 0.00067588654299121503 -0.0033874395527341656 0 0.00032939028716896346 -0.0034415837610857363 0 0.00050513422074671569 -0.0035253669234087022 0 0.00038480625595598082 -0.0035354730943178252 0 0.00045529635494963522 -0.0033877515019268755 0 0.00067588654299121503 -0.0033874395527341656 0 0.00067588654299121503 -0.0033874395527341656 0 0.00048006945509631649 -0.0033898006133138833 0 0.00032939028716896346 -0.0034415837610857363 0 0.00028971078647404658 -0.0035065724523540018 0 0.00038480625595598082 -0.0035354730943178252 0 0.00044094687990784104 -0.0036198060567563168 0 0.00038480625595598082 -0.0035354730943178252 0 0.00034727015522154834 -0.0035823307428714144 0 0.00027657082181532452 -0.0034980243640015127 0 0.00038480625595598082 -0.0035354730943178252 0 0.00034727015522154834 -0.0035823307428714144 0 0.00044094687990784104 -0.0036198060567563168 0 0.00047647300569168789 -0.0037639481510737924 0 0.00034727015522154834 -0.0035823307428714144 0 0.0015232143747219721 -0.0036431995850013284 0 0.0015560608086027654 -0.0037857908255310023 0 0.001453924938507597 -0.0037660218110863349 0 0.001064115979434437 -0.0034181286326961254 0 0.0012476869994934236 -0.0041467900094049118 0 0.00024351485587750582 -0.0034991069196639471 0 0.00089194434913700607 -0.004352815874325254 0 0.00047647300569168789 -0.0037639481510737924 0 0.00034727015522154834 -0.0035823307428714144 0 0.00040455337201907504 -0.0040655565455291259 0 0.00034727015522154834 -0.0035823307428714144 0 0.00044195010761244639 -0.0041482428751284791 0 0.00035478272168253095 -0.0041658512284248779 0 0.00047647300569168789 -0.0037639481510737924 0 0.00040455337201907504 -0.0040655565455291259 0 0.0005554162381586628 -0.003900046396397211 0 0.00081305605477698475 -0.0038364448518390785 0 0.00067291080560920714 -0.0038498560333704874 0 0.00069833939478732628 -0.0040075587139787481 0 0.00081305605477698475 -0.0038364448518390785 0 0.00071576115492715323 -0.0037424570537350744 0 0.00067291080560920714 -0.0038498560333704874 0 0.00058295364529472443 -0.0037626046748433393 0 0.00071576115492715323 -0.0037424570537350744 0 0.00067291080560920714 -0.0038498560333704874 0 0.00058295364529472443 -0.0037626046748433393 0 0.00067291080560920714 -0.0038498560333704874 0 0.0005554162381586628 -0.003900046396397211 0 0.00047647300569168789 -0.0037639481510737924 0 0.00058295364529472443 -0.0037626046748433393 0 0.0005554162381586628 -0.003900046396397211 0 0.00089194434913700607 -0.004352815874325254 0 0.0010854045762436076 -0.0045050387674265679 0 0.00040455337201907504 -0.0040655565455291259 0 0.0005554162381586628 -0.003900046396397211 0 0.00069833939478732628 -0.0040075587139787481 0 0.00067291080560920714 -0.0038498560333704874 0 0.0005554162381586628 -0.003900046396397211 0 0.00069833939478732628 -0.0040075587139787481 0 0.0014084993391534953 -0.0052260438964676081 0 0.0013720559613860383 -0.005011877199518463 0 0.0014708186000294764 -0.0050901848690985069 0 0.0015793673018062774 -0.0050799958814847102 0 0.0015178843751585713 -0.0049847106118690396 0 0.0014708186000294764 -0.0050901848690985069 0 0.0013720559613860383 -0.005011877199518463 0 0.0015178843751585713 -0.0049847106118690396 0 0.0014708186000294764 -0.0050901848690985069 0 0.0015793673018062774 -0.0050799958814847102 0 0.0015307346897843477 -0.0051695608643796296 0 0.0014708186000294764 -0.0050901848690985069 0 0.0015307346897843477 -0.0051695608643796296 0 0.0014084993391534953 -0.0052260438964676081 0 0.0014708186000294764 -0.0050901848690985069 0 0.0020059723056137704 -0.0051979973347925914 0 0.0012476869994934236 -0.0041467900094049118 0 0.0015125422607256103 -0.005238558873896927 0 0.0016634262435406787 -0.0053794435402758061 0 0.0015023377158301981 -0.004184206184411423 0 0.0020059723056137704 -0.0051979973347925914 0 0.0019399120829984762 -0.0043143682073404207 0 0.0019224554453023928 -0.0053701498556383304 0 0.00089194434913700607 -0.004352815874325254 0 0.0015125422607256103 -0.005238558873896927 0 0.0015023377158301981 -0.004184206184411423 0 0.0012903981885818445 -0.0042274355744372043 0 0.0019338759393989051 -0.0048738871035474713 0 0.0018289198070171252 -0.004385778865570838 0 0.0014916591181017727 -0.0044545462570507698 0 0.0022140890466856617 -0.0052120529968066329 0 0.00232453363737387 -0.0052068973784382055 0 0.0022318717451091153 -0.0051112326175594882 0 0.0012476869994934236 -0.0041467900094049118 0 0.0019399120829984762 -0.0043143682073404207 0 0.00089194434913700607 -0.004352815874325254 0 0.0012476869994934236 -0.0041467900094049118 0 0.0015560608086027654 -0.0037857908255310023 0 0.0014880958546985247 -0.0037995328681470816 0 0.001453924938507597 -0.0037660218110863349 0 0.0022140890466856617 -0.0052120529968066329 0 0.0021703737320376724 -0.0051246368955811241 0 0.0022318717451091153 -0.0051112326175594882 0 0.0024579763609677502 -0.0041236207112423963 0 0.0019399120829984762 -0.0043143682073404207 0 0.0022304312517884353 -0.0040175147959601327 0 0.0020883319583083399 -0.0040465960564843246 0 0.0021662744895845384 -0.0041179046824416157 0 0.0027042005363879323 -0.0031157543387341151 0 0.0026613117986885276 -0.003189060295872312 0 0.0027538365390042223 -0.0031811955385382508 0 0.0024579763609677502 -0.0041236207112423963 0 0.0020480453430643582 -0.0034919393040798974 0 0.0019399120829984762 -0.0043143682073404207 0 0.0020480453430643582 -0.0034919393040798974 0 0.0018444952746262558 -0.0032371590022289075 0 0.0019356359562156269 -0.0031820687251167311 0 0.0018508795456620413 -0.0029875977893887499 0 0.001064115979434437 -0.0034181286326961254 0 0.0020480453430643582 -0.0034919393040798974 0 0.0028136152829834468 -0.0032581154316633329 0 0.0027737008589670911 -0.0032759451172881746 0 0.0028690985354356572 -0.0032818524056034224 0 0.0027913649474241788 -0.0032448181333951591 0 0.0028136152829834468 -0.0032581154316633329 0 0.0027737008589670911 -0.0032759451172881746 0 0.0027913649474241788 -0.0032448181333951591 0 0.0027595363282656633 -0.0032240376815782547 0 0.0028192239886132434 -0.0032209084801986137 0 0.0027913649474241788 -0.0032448181333951591 0 0.0028136152829834468 -0.0032581154316633329 0 0.0028192239886132434 -0.0032209084801986137 0 0.0028136152829834468 -0.0032581154316633329 0 0.0028192239886132434 -0.0032209084801986137 0 0.0028690985354356572 -0.0032818524056034224 0 0.0027822739255417457 -0.0032924297553246179 0 0.0026613117986885276 -0.003189060295872312 0 0.0027737008589670911 -0.0032759451172881746 0 0.0019356359562156269 -0.0031820687251167311 0 0.0020386760107078019 -0.0031592507521564627 0 0.0018508795456620413 -0.0029875977893887499 0 0.0024391198399031479 -0.0032411229011783064 0 0.0020480453430643582 -0.0034919393040798974 0 0.0027913649474241788 -0.0032448181333951591 0 0.0027737008589670911 -0.0032759451172881746 0 0.0027595363282656633 -0.0032240376815782547 0 0.0026613117986885276 -0.003189060295872312 0 0.0027595363282656633 -0.0032240376815782547 0 0.0027538365390042223 -0.0031811955385382508 0 0.0026613117986885276 -0.003189060295872312 0 0.0027737008589670911 -0.0032759451172881746 0 0.0027595363282656633 -0.0032240376815782547 0 0.0027595363282656633 -0.0032240376815782547 0 0.0027538365390042223 -0.0031811955385382508 0 0.0028192239886132434 -0.0032209084801986137 0 0.0028192239886132434 -0.0032209084801986137 0 0.0028101641405800693 -0.0031532752751292892 0 0.0029086193347743934 -0.0031816523851745091 0 0.0027538365390042223 -0.0031811955385382508 0 0.0028192239886132434 -0.0032209084801986137 0 0.0028101641405800693 -0.0031532752751292892 0 0.0027042005363879323 -0.0031157543387341151 0 0.0028101641405800693 -0.0031532752751292892 0 0.0028558370530743908 -0.0030799306930787904 0 0.0028571614838322872 -0.0040992501407203794 0 0.0028248215611064859 -0.0041370952129151772 0 0.0028634307114085954 -0.0041286990390975069 0 0.0024579763609677502 -0.0041236207112423963 0 0.0028208031397163919 -0.0036138858864109575 0 0.0027042005363879323 -0.0031157543387341151 0 0.0027538365390042223 -0.0031811955385382508 0 0.0028101641405800693 -0.0031532752751292892 0 0.002877182490546212 -0.0041089937955168477 0 0.0028634307114085954 -0.0041286990390975069 0 0.0028976274640416036 -0.004116951010410882 0 0.0028558370530743908 -0.0030799306930787904 0 0.0030108560975518981 -0.0030483918456508034 0 0.0029086193347743934 -0.0031816523851745091 0 0.0030108560975518981 -0.0030483918456508034 0 0.0030391919027032421 -0.0032251547119004054 0 0.0029086193347743934 -0.0031816523851745091 0 0.0028208031397163919 -0.0036138858864109575 0 0.0035517895236958086 -0.0032947921637568891 0 0.0028101641405800693 -0.0031532752751292892 0 0.0028558370530743908 -0.0030799306930787904 0 0.0029086193347743934 -0.0031816523851745091 0 0.0043443214166874822 -0.0029316060495829326 0 0.0042999749785171829 -0.0028795676663964198 0 0.0043282716934931655 -0.0028598626326346273 0 0.0035517895236958086 -0.0032947921637568891 0 0.0036969621526853564 -0.0030276208502390397 0 0.0043443214166874822 -0.0029316060495829326 0 0.0042999521347233229 -0.0029449440254308125 0 0.0042999749785171829 -0.0028795676663964198 0 0.0035517895236958086 -0.0032947921637568891 0 0.0045434624671274017 -0.0029167923014629588 0 0.0042999749785171829 -0.0028795676663964198 0 0.0043282716934931655 -0.0028598626326346273 0 0.0043000282478326763 -0.0028295484431493816 0 0.0029510005221444367 -0.0032674085974473644 0 0.0028690985354356572 -0.0032818524056034224 0 0.0029086193347743934 -0.0031816523851745091 0 0.0029510005221444367 -0.0032674085974473644 0 0.0028690985354356572 -0.0032818524056034224 0 0.0029226930019080411 -0.0033438096644794 0 0.0028192239886132434 -0.0032209084801986137 0 0.0028690985354356572 -0.0032818524056034224 0 0.0029086193347743934 -0.0031816523851745091 0 0.0030391919027032421 -0.0032251547119004054 0 0.0029510005221444367 -0.0032674085974473644 0 0.0029086193347743934 -0.0031816523851745091 0 0.0042625245008126051 -0.0029672279616625775 0 0.0041974998327470748 -0.002924950673698681 0 0.004261361382123869 -0.0028821516721496722 0 0.0041974998327470748 -0.002924950673698681 0 0.004261361382123869 -0.0028821516721496722 0 0.0042394077184569716 -0.0028515164173046701 0 0.0042625245008126051 -0.0029672279616625775 0 0.0042999521347233229 -0.0029449440254308125 0 0.004261361382123869 -0.0028821516721496722 0 0.0042999521347233229 -0.0029449440254308125 0 0.0042999749785171829 -0.0028795676663964198 0 0.004261361382123869 -0.0028821516721496722 0 0.004261361382123869 -0.0028821516721496722 0 0.004281084202317857 -0.0028367490375883274 0 0.0042590098174661072 -0.0028231379305598352 0 0.0042999749785171829 -0.0028795676663964198 0 0.004261361382123869 -0.0028821516721496722 0 0.004281084202317857 -0.0028367490375883274 0 0.0042999749785171829 -0.0028795676663964198 0 0.004281084202317857 -0.0028367490375883274 0 0.0043000282478326763 -0.0028295484431493816 0 0.004261361382123869 -0.0028821516721496722 0 0.0042394077184569716 -0.0028515164173046701 0 0.0042590098174661072 -0.0028231379305598352 0 0.0042550672124539949 -0.0027861784717586034 0 0.0042394077184569716 -0.0028515164173046701 0 0.0042590098174661072 -0.0028231379305598352 0 0.0041919779577937371 -0.0028492255972367886 0 0.0042550672124539949 -0.0027861784717586034 0 0.0042394077184569716 -0.0028515164173046701 0 0.0043375512203791952 -0.0028456619774550099 0 0.004246914629856516 -0.0028367295353083368 0 0.004325362142970841 -0.0029510641877400919 0 0.0042550672124539949 -0.0027861784717586034 0 0.0043375512203791952 -0.0028456619774550099 0 0.004246914629856516 -0.0028367295353083368 0 0.0042550672124539949 -0.0027861784717586034 0 0.0042590098174661072 -0.0028231379305598352 0 0.004246914629856516 -0.0028367295353083368 0 0.004281084202317857 -0.0028367490375883274 0 0.0042590098174661072 -0.0028231379305598352 0 0.0043012381637298662 -0.0028063795225261789 0 0.0045016728669193011 -0.0027963166213612997 0 0.0034572992710679611 -0.002945590578080361 0 0.004246914629856516 -0.0028367295353083368 0 0.0040619533711558752 -0.0029792729113994974 0 0.0037996337792638728 -0.0028647979721872115 0 0.0042590098174661072 -0.0028231379305598352 0 0.004246914629856516 -0.0028367295353083368 0 0.0043012381637298662 -0.0028063795225261789 0 0.0036530776555375459 -0.0026207640617417248 0 0.0034572992710679611 -0.002945590578080361 0 0.0033695063944036512 -0.0023230395587940222 0 0.0033256058336599416 -0.0023129357492230316 0 0.0033393935565576884 -0.0023312922918654745 0 0.0033498263922198046 -0.0023476588847542493 0 0.0033695063944036512 -0.0023230395587940222 0 0.0033393935565576884 -0.0023312922918654745 0 0.0033498263922198046 -0.0023476588847542493 0 0.0033746851903658937 -0.0023481840239780501 0 0.0033695063944036512 -0.0023230395587940222 0 0.004246914629856516 -0.0028367295353083368 0 0.0040619533711558752 -0.0029792729113994974 0 0.004325362142970841 -0.0029510641877400919 0 0.0033746851903658937 -0.0023481840239780501 0 0.0033695063944036512 -0.0023230395587940222 0 0.0034335233049830657 -0.0023416139763297308 0 0.0033746851903658937 -0.0023481840239780501 0 0.0034335233049830657 -0.0023416139763297308 0 0.0033980866549831548 -0.0023624292163941852 0 0.0036530776555375459 -0.0026207640617417248 0 0.0042998821500674928 -0.0025793957638401456 0 0.0040619533711558752 -0.0029792729113994974 0 0.0043025427334746251 -0.0030775282590074248 0 0.004325362142970841 -0.0029510641877400919 0 0.0024772162462405097 -0.0029802661918517017 0 0.0034572992710679611 -0.002945590578080361 0 0.0029510005221444367 -0.0032674085974473644 0 0.0029226930019080411 -0.0033438096644794 0 0.0030782436627611086 -0.0034061743617095157 0 0.0028755083941734458 -0.0033667480593298086 0 0.0028795299056286958 -0.0033138890866349102 0 0.002991921648058293 -0.0033533220769846033 0 0.0028590928234419649 -0.0033198959712799929 0 0.0034572992710679611 -0.002945590578080361 0 0.0027822739255417457 -0.0032924297553246179 0 0.0028755083941734458 -0.0033667480593298086 0 0.0028795299056286958 -0.0033138890866349102 0 0.0043282716934931655 -0.0028598626326346273 0 0.0043000282478326763 -0.0028295484431493816 0 0.0043012381637298662 -0.0028063795225261789 0 0.0030391919027032421 -0.0032251547119004054 0 0.0029510005221444367 -0.0032674085974473644 0 0.0030782436627611086 -0.0034061743617095157 0 0.0036969621526853564 -0.0030276208502390397 0 0.0034572992710679611 -0.002945590578080361 0 0.004281084202317857 -0.0028367490375883274 0 0.0043000282478326763 -0.0028295484431493816 0 0.0043012381637298662 -0.0028063795225261789 0 0.0033256058336599416 -0.0023129357492230316 0 0.0033393935565576884 -0.0023312922918654745 0 0.0033292418071393065 -0.002354852832705953 0 0.0024772162462405097 -0.0029802661918517017 0 0.0027166664018047001 -0.0023382940341276416 0 0.0018523330963071598 -0.0020479470543691811 0 0.0025964011155638648 -0.0021490922147690038 0 0.0029167172686983605 -0.0027775142923311064 0 0.0028155032784075097 -0.0027844681231545421 0 0.0027996643129004598 -0.0026617242703782956 0 0.0034572992710679611 -0.002945590578080361 0 0.0027166664018047001 -0.0023382940341276416 0 0.0021845693812051416 -0.0025212465886956209 0 0.0024298344275510103 -0.0025876482107304788 0 0.0024143428309819134 -0.0025739986056044963 0 0.0033498263922198046 -0.0023476588847542493 0 0.0033393935565576884 -0.0023312922918654745 0 0.0033292418071393065 -0.002354852832705953 0 0.002200731560163394 -0.0023844935071447356 0 0.0021845693812051416 -0.0025212465886956209 0 0.0024143428309819134 -0.0025739986056044963 0 0.00208735387137998 -0.0024420314437533599 0 0.002200731560163394 -0.0023844935071447356 0 0.0021845693812051416 -0.0025212465886956209 0 0.001747397599194017 -0.0016598093056853997 0 0.0017751910021015283 -0.0015579782859688536 0 0.0016902949567785183 -0.0015331515477870162 0 0.001747397599194017 -0.0016598093056853997 0 0.0016902949567785183 -0.0015331515477870162 0 0.0016145122085691177 -0.0016166732007541075 0 0.0016902949567785183 -0.0015331515477870162 0 0.0016145122085691177 -0.0016166732007541075 0 0.0015909672066179827 -0.0014394266668498492 0 0.0033498263922198046 -0.0023476588847542493 0 0.003332387270759241 -0.0023577932350176941 0 0.0033292418071393065 -0.002354852832705953 0 0.0025964011155638648 -0.0021490922147690038 0 0.0027166664018047001 -0.0023382940341276416 0 0.0016902949567785183 -0.0015331515477870162 0 0.0015909672066179827 -0.0014394266668498492 0 0.0016736169194490965 -0.0014382840555841681 0 0.0025964011155638648 -0.0021490922147690038 0 0.0022407717080058787 -0.00056671329677036614 0 0.0016736169194490965 -0.0014382840555841681 0 0.0017391310850210543 -0.001475466882011624 0 0.0017220420059195106 -0.0013936696425577867 0 0.0017751910021015283 -0.0015579782859688536 0 0.0016902949567785183 -0.0015331515477870162 0 0.0017391310850210543 -0.001475466882011624 0 0.0016902949567785183 -0.0015331515477870162 0 0.0016736169194490965 -0.0014382840555841681 0 0.0017391310850210543 -0.001475466882011624 0 0.0047977873120167627 -0.0025606460207764983 0 0.0047903198856486225 -0.002605419285156718 0 0.0048461777105800463 -0.0026043113460073541 0 0.0048028965405994732 -0.0026500247421258811 0 0.0047903198856486225 -0.002605419285156718 0 0.0048461777105800463 -0.0026043113460073541 0 0.0042998821500674928 -0.0025793957638401456 0 0.0038335520687936453 -0.0023925910176652073 0 0.0034335233049830657 -0.0023416139763297308 0 0.0033980866549831548 -0.0023624292163941852 0 0.0034028257162391335 -0.002374574860244459 0 0.0033980866549831548 -0.0023624292163941852 0 0.0034030806107344358 -0.0023721603622297908 0 0.0033813103401277465 -0.00237005916851225 0 0.0037687523542183033 -0.0023490235989649484 0 0.0038335520687936453 -0.0023925910176652073 0 0.0038335520687936453 -0.0023925910176652073 0 0.0029488330194954813 -0.0014279467301876755 0 0.0034030806107344358 -0.0023721603622297908 0 0.0033813103401277465 -0.00237005916851225 0 0.0033713542917586641 -0.002412649002416101 0 0.0033813103401277465 -0.00237005916851225 0 0.0033594946284936371 -0.0023677991041943045 0 0.0033713542917586641 -0.002412649002416101 0 0.0033498263922198046 -0.0023476588847542493 0 0.0033746851903658937 -0.0023481840239780501 0 0.0033594946284936371 -0.0023677991041943045 0 0.0033746851903658937 -0.0023481840239780501 0 0.0033980866549831548 -0.0023624292163941852 0 0.0033813103401277465 -0.00237005916851225 0 0.0033746851903658937 -0.0023481840239780501 0 0.0033813103401277465 -0.00237005916851225 0 0.0033594946284936371 -0.0023677991041943045 0 0.0025964011155638648 -0.0021490922147690038 0 0.0035002659137738884 -0.002412163232480947 0 0.0033498263922198046 -0.0023476588847542493 0 0.003332387270759241 -0.0023577932350176941 0 0.0033594946284936371 -0.0023677991041943045 0 0.0032914981505681299 -0.0023496862828238986 0 0.0033594946284936371 -0.0023677991041943045 0 0.0033713542917586641 -0.002412649002416101 0 0.0025964011155638648 -0.0021490922147690038 0 0.0029488330194954813 -0.0014279467301876755 0 0.0027650415906666226 -0.0018745225870483019 0 0.0026519413707968009 -0.00090241709051963885 0 0.0022490859704768244 -0.0013873435666846609 0 0.0026846272694053494 -0.00034200907642317844 0 0.002628121207569814 -0.0004215869155852039 0 0.0026175844256950097 -0.00030669229167687288 0 0.0022407717080058787 -0.00056671329677036614 0 0.0029488330194954813 -0.0014279467301876755 0 0.002628121207569814 -0.0004215869155852039 0 0.0025477318005389235 -0.00033113327440378128 0 0.0026175844256950097 -0.00030669229167687288 0 0.0036135471711016163 -0.0018735505232042738 0 0.0036587019991175629 -0.0018163347787129417 0 0.0035696481842298977 -0.0017276093695552813 0 0.0029488330194954813 -0.0014279467301876755 0 0.0038684933492018226 -0.0016176809095146359 0 0.0047977873120167627 -0.0025606460207764983 0 0.0048461777105800463 -0.0026043113460073541 0 0.0048692344017810356 -0.0024696915196094271 0 0.0038335520687936453 -0.0023925910176652073 0 0.0038684933492018226 -0.0016176809095146359 0 0.0025477318005389235 -0.00033113327440378128 0 0.0026175844256950097 -0.00030669229167687288 0 0.0025829002755511886 -0.00022163017284122951 0 0.0048688470347615607 -0.002487373173182302 0 0.0038684933492018226 -0.0016176809095146359 0 0.0026175844256950097 -0.00030669229167687288 0 0.0026537352074964696 -0.00023009599239334695 0 0.0025829002755511886 -0.00022163017284122951 0 0.0022407717080058787 -0.00056671329677036614 0 0.002484452447084787 0.00022876410945778117 0 0.0026846272694053494 -0.00034200907642317844 0 0.0026175844256950097 -0.00030669229167687288 0 0.0026537352074964696 -0.00023009599239334695 0 0.002484452447084787 0.00022876410945778117 0 0.0024939126885534339 -4.9903153656673709e-05 0 0.0026537352074964696 -0.00023009599239334695 0 0.0025829002755511886 -0.00022163017284122951 0 0.0025958233986867812 -0.00012967306167466127 0 0.0025295571031620431 -0.00019131373722213764 0 0.0025829002755511886 -0.00022163017284122951 0 0.0025701236862421626 -0.00014062957279288146 0 0.0025295571031620431 -0.00019131373722213764 0 0.0025477318005389235 -0.00033113327440378128 0 0.0025829002755511886 -0.00022163017284122951 0 0.0016736169194490965 -0.0014382840555841681 0 0.0017220420059195106 -0.0013936696425577867 0 0.0016711524548334679 -0.001327716350002926 0 0.0017220420059195106 -0.0013936696425577867 0 0.0016711524548334679 -0.001327716350002926 0 0.0017379205821694574 -0.0013131402738623397 0 0.0017220420059195106 -0.0013936696425577867 0 0.0017379205821694574 -0.0013131402738623397 0 0.0017956406936786024 -0.001402104593500876 0 0.0017391310850210543 -0.001475466882011624 0 0.0017220420059195106 -0.0013936696425577867 0 0.0017956406936786024 -0.001402104593500876 0 0.0022729537893904665 0.00069021347688471798 0 0.0023251382256611994 0.00042116052516935051 0 0.0020535589350991063 0.00045929748097249729 0 0.0015909672066179827 -0.0014394266668498492 0 0.0016736169194490965 -0.0014382840555841681 0 0.0016711524548334679 -0.001327716350002926 0 0.0022407717080058787 -0.00056671329677036614 0 0.0018281632978423873 -0.00042178022687686388 0 0.0023251382256611994 0.00042116052516935051 0 0.0021217254182651127 0.00018627405640345683 0 0.0023970879758804763 0.00011286516329305219 0 0.0023251382256611994 0.00042116052516935051 0 0.0020535589350991063 0.00045929748097249729 0 0.0021217254182651127 0.00018627405640345683 0 0.0017379205821694574 -0.0013131402738623397 0 0.0018253188101053097 -0.0011631438478061382 0 0.0017809060923427713 -0.0011562387417592681 0 0.0016711524548334679 -0.001327716350002926 0 0.0017379205821694574 -0.0013131402738623397 0 0.0017809060923427713 -0.0011562387417592681 0 0.0020535589350991063 0.00045929748097249729 0 0.0017826907774407307 0.00020417700455314922 0 0.0021217254182651127 0.00018627405640345683 0 0.0018281632978423873 -0.00042178022687686388 0 0.0018040269508742591 -0.00048562566034397091 0 0.0017379205821694574 -0.0013131402738623397 0 0.0017963552984475927 -0.0012858992488070321 0 0.0017955188148524614 -0.001240954414635963 0 0.0017323169354324125 -0.0013175489630547234 0 0.0018473339399283691 -0.0011649361058019656 0 0.0017963552984475927 -0.0012858992488070321 0 0.0018305040674601873 -0.0012664222258582476 0 0.0017955188148524614 -0.001240954414635963 0 0.0018305040674601873 -0.0012664222258582476 0 0.0018225363473211517 -0.0013238938625095187 0 0.0018789411606181361 -0.0012779353857894817 0 0.0017379205821694574 -0.0013131402738623397 0 0.0017963552984475927 -0.0012858992488070321 0 0.0018225363473211517 -0.0013238938625095187 0 0.0017963552984475927 -0.0012858992488070321 0 0.0018305040674601873 -0.0012664222258582476 0 0.0018225363473211517 -0.0013238938625095187 0 0.00026414062495918244 -0.0018184577372802944 0 0.00038684715697299282 -0.001885338198965814 0 0.00034353000798920829 -0.0017172945217267368 0 0.0010553520468636717 -0.0016190504499114201 0 0.001125201255453829 -0.0016308204763001658 0 0.0018225363473211517 -0.0013238938625095187 0 0.0018789411606181361 -0.0012779353857894817 0 0.0019142892108928121 -0.0014121546537306238 0 0.00026414062495918244 -0.0018184577372802944 0 0.0003126326141376546 -0.0020024738577168041 0 0.00038684715697299282 -0.001885338198965814 0 0.0018225363473211517 -0.0013238938625095187 0 0.0019142892108928121 -0.0014121546537306238 0 0.0017956406936786024 -0.001402104593500876 0 0.0017379205821694574 -0.0013131402738623397 0 0.0018225363473211517 -0.0013238938625095187 0 0.0017956406936786024 -0.001402104593500876 0 0.0017751910021015283 -0.0015579782859688536 0 0.0017391310850210543 -0.001475466882011624 0 0.001841018709356186 -0.0015004733116463051 0 0.0019142892108928121 -0.0014121546537306238 0 0.0017956406936786024 -0.001402104593500876 0 0.001841018709356186 -0.0015004733116463051 0 0.0017391310850210543 -0.001475466882011624 0 0.0017956406936786024 -0.001402104593500876 0 0.001841018709356186 -0.0015004733116463051 0 0.0019142892108928121 -0.0014121546537306238 0 0.001841018709356186 -0.0015004733116463051 0 0.0019438191528750467 -0.0015557218215378856 0 0.001125201255453829 -0.0016308204763001658 0 0.00088853019665027073 -0.0022274373464297227 0 0.0003126326141376546 -0.0020024738577168041 0 0.00035725014857236246 -0.0021781228886588564 0 0.00042742836497177344 -0.0020252550226041253 0 0.0018734060684940373 -0.0017035566455847898 0 0.0019438191528750467 -0.0015557218215378856 0 0.0018436468369815674 -0.0015962542349423358 0 0.0018588278616453345 -0.002333833235435821 0 0.00088853019665027073 -0.0022274373464297227 0 0.001841018709356186 -0.0015004733116463051 0 0.0019438191528750467 -0.0015557218215378856 0 0.0018436468369815674 -0.0015962542349423358 0 0.001747397599194017 -0.0016598093056853997 0 0.0017751910021015283 -0.0015579782859688536 0 0.0018436468369815674 -0.0015962542349423358 0 0.0017751910021015283 -0.0015579782859688536 0 0.001841018709356186 -0.0015004733116463051 0 0.0018436468369815674 -0.0015962542349423358 0 0.00076672780188918508 -0.0030598291393585213 0 0.00072235412915494068 -0.002690739852161431 0 0.00054105023080539699 -0.0029381529479454134 0 0.00076672780188918508 -0.0030598291393585213 0 0.00044727597785515483 -0.0031436812287770183 0 0.00054105023080539699 -0.0029381529479454134 0 0.00054105023080539699 -0.0029381529479454134 0 0.00033154017421403042 -0.0029843529046029559 0 0.00037500027773557462 -0.0027534355804698829 0 0.00044727597785515483 -0.0031436812287770183 0 0.00054105023080539699 -0.0029381529479454134 0 0.00033154017421403042 -0.0029843529046029559 0 3.1191838972079316e-05 -0.0028725739133884844 0 0.00033154017421403042 -0.0029843529046029559 0 0.00037500027773557462 -0.0027534355804698829 0 0.00024957433039873292 -0.0031647659399937807 0 0.00044727597785515483 -0.0031436812287770183 0 0.00033154017421403042 -0.0029843529046029559 0 0.00024957433039873292 -0.0031647659399937807 0 3.1191838972079316e-05 -0.0028725739133884844 0 0.00033154017421403042 -0.0029843529046029559 0 3.1191838972079316e-05 -0.0028725739133884844 0 0.00037500027773557462 -0.0027534355804698829 0 0.00021528365302963634 -0.0024859747430846422 0 0.00088853019665027073 -0.0022274373464297227 0 0.00023979194340541086 -0.0023458049727930288 0 0.00037500027773557462 -0.0027534355804698829 0 0.00057375534237232755 -0.0023731159339444455 0 0.00021528365302963634 -0.0024859747430846422 0 0.00072235412915494068 -0.002690739852161431 0 0.00037500027773557462 -0.0027534355804698829 0 0.00057375534237232755 -0.0023731159339444455 0 0.00072235412915494068 -0.002690739852161431 0 0.00054105023080539699 -0.0029381529479454134 0 0.00037500027773557462 -0.0027534355804698829 0 0.00057375534237232755 -0.0023731159339444455 0 0.00021528365302963634 -0.0024859747430846422 0 0.00040215063505041887 -0.0020962446237636997 0 0.00042742836497177344 -0.0020252550226041253 0 0.00038684715697299282 -0.001885338198965814 0 0.00050492142884849304 -0.0018687856754137189 0 0.0003126326141376546 -0.0020024738577168041 0 0.00042742836497177344 -0.0020252550226041253 0 0.00038684715697299282 -0.001885338198965814 0 0.00023979194340541086 -0.0023458049727930288 0 0.00047054542622561356 -0.0019579098325699109 0 0.00038684715697299282 -0.001885338198965814 0 0.0004631207079357651 -0.0017470054908277105 0 0.00034353000798920829 -0.0017172945217267368 0 0.00038684715697299282 -0.001885338198965814 0 0.00050492142884849304 -0.0018687856754137189 0 0.0004631207079357651 -0.0017470054908277105 0 0.00050492142884849304 -0.0018687856754137189 0 0.00059611968647961587 -0.0017209422718396357 0 0.0004631207079357651 -0.0017470054908277105 0 0.00067497609556307935 -0.0020000920920974653 0 0.00040215063505041887 -0.0020962446237636997 0 0.00059611968647961587 -0.0017209422718396357 0 0.00057375534237232755 -0.0023731159339444455 0 0.00067497609556307935 -0.0020000920920974653 0 0.00040215063505041887 -0.0020962446237636997 0 0.00047054542622561356 -0.0019579098325699109 0 0.00057873002333342608 -0.0017490539600179553 0 0.00059611968647961587 -0.0017209422718396357 0 0.00054069762499331787 -0.0015945274342648932 0 0.00076871222906081389 -0.0016591650309755242 0 0.00059611968647961587 -0.0017209422718396357 0 0.0004631207079357651 -0.0017470054908277105 0 0.00054069762499331787 -0.0015945274342648932 0 0.0004631207079357651 -0.0017470054908277105 0 0.00040970027359300517 -0.0016106190495943161 0 0.00054069762499331787 -0.0015945274342648932 0 0.0004631207079357651 -0.0017470054908277105 0 0.00040970027359300517 -0.0016106190495943161 0 0.00034353000798920829 -0.0017172945217267368 0 0.00040970027359300517 -0.0016106190495943161 0 0.00037743255731739197 -0.0015095632058926113 0 0.00032310119309146302 -0.0015832898936914562 0 0.00040970027359300517 -0.0016106190495943161 0 0.00048043436710403973 -0.0014782992253278477 0 0.00054069762499331787 -0.0015945274342648932 0 0.00048043436710403973 -0.0014782992253278477 0 0.00037743255731739197 -0.0015095632058926113 0 0.00040161744956342029 -0.0014512659049686094 0 0.00040970027359300517 -0.0016106190495943161 0 0.00048043436710403973 -0.0014782992253278477 0 0.00037743255731739197 -0.0015095632058926113 0 0.00054069762499331787 -0.0015945274342648932 0 0.00056485311465716075 -0.0013997153360751982 0 0.00076871222906081389 -0.0016591650309755242 0 0.00048043436710403973 -0.0014782992253278477 0 0.00054069762499331787 -0.0015945274342648932 0 0.00056485311465716075 -0.0013997153360751982 0 0.00048043436710403973 -0.0014782992253278477 0 0.00056485311465716075 -0.0013997153360751982 0 0.00053896657720416477 -0.0013112782824069276 0 0.00048043436710403973 -0.0014782992253278477 0 0.00043750668366924068 -0.0014124007679180079 0 0.00053896657720416477 -0.0013112782824069276 0 0.00048043436710403973 -0.0014782992253278477 0 0.00040161744956342029 -0.0014512659049686094 0 0.00043750668366924068 -0.0014124007679180079 0 0.00037743255731739197 -0.0015095632058926113 0 0.00040161744956342029 -0.0014512659049686094 0 0.00033232306382008212 -0.0014028429498485066 0 0.00040161744956342029 -0.0014512659049686094 0 0.00043750668366924068 -0.0014124007679180079 0 0.00033232306382008212 -0.0014028429498485066 0 0.00043750668366924068 -0.0014124007679180079 0 0.00053896657720416477 -0.0013112782824069276 0 0.00033232306382008212 -0.0014028429498485066 0 0.00053896657720416477 -0.0013112782824069276 0 0.00033232306382008212 -0.0014028429498485066 0 0.00064895797099943887 -0.0010551020090440104 0 0.00093527290016328247 -0.00084089381078521447 0 0.0010205811495781379 -0.00050556739283761244 0 0.00064895797099943887 -0.0010551020090440104 0 0.00081976540087114126 -0.00095658581980246748 0 0.0012611017817251438 -0.00090189162954038319 0 0.00073252456946308034 -0.0010141097746413632 0 0.0012921955107116432 -0.00064171866871079767 0 0.00077881455629775305 -0.00096696503857626682 0 0.00059429313012492296 -0.00094530303055723186 0 0.00067135572388808348 -0.0010472910100049753 0 0.00093527290016328247 -0.00084089381078521447 0 0.00081976540087114126 -0.00095658581980246748 0 0.00064895797099943887 -0.0010551020090440104 0 0.00056485311465716075 -0.0013997153360751982 0 0.00066429182561269801 -0.001195348148361071 0 0.00061837556878808196 -0.0012214268829239126 0 0.00061837556878808196 -0.0012214268829239126 0 0.00064895797099943887 -0.0010551020090440104 0 0.00067337324820755434 -0.0011149590419469071 0 0.00053896657720416477 -0.0013112782824069276 0 0.00061837556878808196 -0.0012214268829239126 0 0.00064895797099943887 -0.0010551020090440104 0 0.00066429182561269801 -0.001195348148361071 0 0.00061837556878808196 -0.0012214268829239126 0 0.00067337324820755434 -0.0011149590419469071 0 0.00056485311465716075 -0.0013997153360751982 0 0.00053896657720416477 -0.0013112782824069276 0 0.00061837556878808196 -0.0012214268829239126 0 0.0013051738405098256 -0.00036253093136984373 0 0.0019467537161642831 -6.3837459282011788e-05 0 0.0014955531836974736 -0.00069459374809044221 0 0.0012611017817251438 -0.00090189162954038319 0 0.0013846694605888234 -0.00058153605878572012 0 0.0018454269956180223 -0.00062766764226462857 0 0.0012921955107116432 -0.00064171866871079767 0 0.0018903191710977704 -0.00034976012184148093 0 0.00093527290016328247 -0.00084089381078521447 0 0.00081976540087114126 -0.00095658581980246748 0 0.0012611017817251438 -0.00090189162954038319 0 0.00093527290016328247 -0.00084089381078521447 0 0.0012611017817251438 -0.00090189162954038319 0 0.001117439895022128 -0.00071858005043329027 0 0.00093527290016328247 -0.00084089381078521447 0 0.001117439895022128 -0.00071858005043329027 0 0.0010205811495781379 -0.00050556739283761244 0 0.0012611017817251438 -0.00090189162954038319 0 0.001117439895022128 -0.00071858005043329027 0 0.0013846694605888234 -0.00058153605878572012 0 0.001117439895022128 -0.00071858005043329027 0 0.0011834173490916674 -0.00053157435474000857 0 0.0013846694605888234 -0.00058153605878572012 0 0.0011834173490916674 -0.00053157435474000857 0 0.0013042665479279284 -0.00042281005193837724 0 0.0013846694605888234 -0.00058153605878572012 0 0.001117439895022128 -0.00071858005043329027 0 0.0011834173490916674 -0.00053157435474000857 0 0.0010205811495781379 -0.00050556739283761244 0 0.0011834173490916674 -0.00053157435474000857 0 0.0010205811495781379 -0.00050556739283761244 0 0.0011022236632353874 -0.00043245293793384105 0 0.0011834173490916674 -0.00053157435474000857 0 0.0011022236632353874 -0.00043245293793384105 0 0.0013042665479279284 -0.00042281005193837724 0 0.0013846694605888234 -0.00058153605878572012 0 0.0014835220181348792 -0.00031973443495336988 0 0.0017614554192758405 -0.00033190107674948584 0 0.0013042665479279284 -0.00042281005193837724 0 0.0013846694605888234 -0.00058153605878572012 0 0.0014835220181348792 -0.00031973443495336988 0 0.0013846694605888234 -0.00058153605878572012 0 0.0018454269956180223 -0.00062766764226462857 0 0.0017614554192758405 -0.00033190107674948584 0 0.0014835220181348792 -0.00031973443495336988 0 0.0016967289330476966 -0.00016414827748796436 0 0.0017614554192758405 -0.00033190107674948584 0 0.0013042665479279284 -0.00042281005193837724 0 0.0014835220181348792 -0.00031973443495336988 0 0.00142327398712624 -4.8923253029097992e-05 0 0.0014835220181348792 -0.00031973443495336988 0 0.0014650894871495351 -0.00010147970312184041 0 0.0016967289330476966 -0.00016414827748796436 0 0.0014575344347482148 -0.00021630916724608751 0 0.001480008764251432 -0.00040893674897328762 0 0.001480008764251432 -0.00040893674897328762 0 0.001339975085316815 -0.0010597755661536806 0 0.00033232306382008212 -0.0014028429498485066 0 0.00021728148103567575 -0.001622685326882257 0 0.00032310119309146302 -0.0015832898936914562 0 0.0010205811495781379 -0.00050556739283761244 0 0.0011022236632353874 -0.00043245293793384105 0 0.0013501468902625097 -0.00010748924091944986 0 0.0011503754408204174 -0.00033759740575200039 0 0.001480008764251432 -0.00040893674897328762 0 0.00037743255731739197 -0.0015095632058926113 0 0.00033232306382008212 -0.0014028429498485066 0 0.00032310119309146302 -0.0015832898936914562 0 0.0011022236632353874 -0.00043245293793384105 0 0.0013042665479279284 -0.00042281005193837724 0 0.00142327398712624 -4.8923253029097992e-05 0 0.0011022236632353874 -0.00043245293793384105 0 0.001360675426017838 -0.00016631121807783188 0 0.0013501468902625097 -0.00010748924091944986 0 0.00059429313012492296 -0.00094530303055723186 0 0.001339975085316815 -0.0010597755661536806 0 0.00026414062495918244 -0.0018184577372802944 0 0.00021728148103567575 -0.001622685326882257 0 0.00034353000798920829 -0.0017172945217267368 0 0.0010553520468636717 -0.0016190504499114201 0 0.001339975085316815 -0.0010597755661536806 0 0.00040970027359300517 -0.0016106190495943161 0 0.00032310119309146302 -0.0015832898936914562 0 0.00034353000798920829 -0.0017172945217267368 0 0.00021728148103567575 -0.001622685326882257 0 0.00032310119309146302 -0.0015832898936914562 0 0.00034353000798920829 -0.0017172945217267368 0 0.0019090908517889133 -0.00097368757210931965 0 0.0019175959675555197 -0.0010080548260084194 0 0.0017809060923427713 -0.0011562387417592681 0 0.0014650894871495351 -0.00010147970312184041 0 0.0016967289330476966 -0.00016414827748796436 0 0.0017826907774407307 0.00020417700455314922 0 0.0018305040674601873 -0.0012664222258582476 0 0.0018789411606181361 -0.0012779353857894817 0 0.0018463589387368504 -0.0011610286071485237 0 0.0018305040674601873 -0.0012664222258582476 0 0.0018463589387368504 -0.0011610286071485237 0 0.0017955188148524614 -0.001240954414635963 0 0.001480008764251432 -0.00040893674897328762 0 0.0018040269508742591 -0.00048562566034397091 0 0.001339975085316815 -0.0010597755661536806 0 0.0018473339399283691 -0.0011649361058019656 0 0.0019175959675555197 -0.0010080548260084194 0 0.0018253188101053097 -0.0011631438478061382 0 0.0017809060923427713 -0.0011562387417592681 0 0.0016967289330476966 -0.00016414827748796436 0 0.0017826907774407307 0.00020417700455314922 0 0.001951606526830996 -9.8103792079523599e-05 0 0.0017826907774407307 0.00020417700455314922 0 0.0021217254182651127 0.00018627405640345683 0 0.001951606526830996 -9.8103792079523599e-05 0 0.0021217254182651127 0.00018627405640345683 0 0.0022395646595907434 -7.8841315031128855e-05 0 0.0023970879758804763 0.00011286516329305219 0 0.0021217254182651127 0.00018627405640345683 0 0.0022395646595907434 -7.8841315031128855e-05 0 0.001951606526830996 -9.8103792079523599e-05 0 0.0022395646595907434 -7.8841315031128855e-05 0 0.0020332134126985904 -0.00028604633703315001 0 0.001951606526830996 -9.8103792079523599e-05 0 0.0022395646595907434 -7.8841315031128855e-05 0 0.0020332134126985904 -0.00028604633703315001 0 0.0023386919653815229 -0.00034079917286012837 0 0.0020332134126985904 -0.00028604633703315001 0 0.001951606526830996 -9.8103792079523599e-05 0 0.0017614554192758405 -0.00033190107674948584 0 0.0016967289330476966 -0.00016414827748796436 0 0.001951606526830996 -9.8103792079523599e-05 0 0.0017614554192758405 -0.00033190107674948584 0 0.0025829002755511886 -0.00022163017284122951 0 0.0025701236862421626 -0.00014062957279288146 0 0.0025958233986867812 -0.00012967306167466127 0 0.0025295571031620431 -0.00019131373722213764 0 0.0025701236862421626 -0.00014062957279288146 0 0.0025605465060320664 -0.00012065363106109007 0 0.0025701236862421626 -0.00014062957279288146 0 0.0025958233986867812 -0.00012967306167466127 0 0.0025610011699054749 -0.00013003334584439188 0 0.0025958233986867812 -0.00012967306167466127 0 0.0024612969836644433 -0.00019765692851552523 0 0.0025610011699054749 -0.00013003334584439188 0 0.0022395646595907434 -7.8841315031128855e-05 0 0.0023970879758804763 0.00011286516329305219 0 0.0024612969836644433 -0.00019765692851552523 0 0.0024612969836644433 -0.00019765692851552523 0 0.0026001026277546564 -9.6825254499257615e-05 0 0.0023386919653815229 -0.00034079917286012837 0 0.0024939126885534339 -4.9903153656673709e-05 0 0.0024766915199919215 -0.00017794066655578552 0 0.0025755012906514851 -0.00010069969387028015 0 0.0023666758596225441 -0.00016361208614780514 0 0.0022395646595907434 -7.8841315031128855e-05 0 0.0024612969836644433 -0.00019765692851552523 0 0.0023386919653815229 -0.00034079917286012837 0 0.0026001026277546564 -9.6825254499257615e-05 0 0.0025605465060320664 -0.00012065363106109007 0 0.0025715210461576057 -6.9870096297718016e-05 0 0.0025701236862421626 -0.00014062957279288146 0 0.0025610011699054749 -0.00013003334584439188 0 0.0026001026277546564 -9.6825254499257615e-05 0 0.0024612969836644433 -0.00019765692851552523 0 0.0025610011699054749 -0.00013003334584439188 0 0.0026001026277546564 -9.6825254499257615e-05 0 0.0025701236862421626 -0.00014062957279288146 0 0.0026001026277546564 -9.6825254499257615e-05 0 0.0025605465060320664 -0.00012065363106109007 0 0.0026001026277546564 -9.6825254499257615e-05 0 0.0026008053795369525 -5.1520725471362442e-05 0 0.0025715210461576057 -6.9870096297718016e-05 0 0.0026008053795369525 -5.1520725471362442e-05 0 0.0028455621302117106 -0.000115679325309926 0 0.0028633785544972955 0.00015373740467732218 0 0.002631020311348931 -2.6485444443112844e-05 0 0.0026768282592516202 -4.7694679620983044e-06 0 0.0026001026277546564 -9.6825254499257615e-05 0 0.0026008053795369525 -5.1520725471362442e-05 0 0.0024229214331966194 2.9815378610901868e-05 0 0.0026008053795369525 -5.1520725471362442e-05 0 0.0024423923640614128 -0.00016228015691213378 0 0.0024229214331966194 2.9815378610901868e-05 0 0.0026008053795369525 -5.1520725471362442e-05 0 0.0024423923640614128 -0.00016228015691213378 0 0.0026063949800031842 -0.00030833775157086359 0 0.0024423923640614128 -0.00016228015691213378 0 0.0026063949800031842 -0.00030833775157086359 0 0.0023290071054222457 -0.00038024622790094095 0 0.0026063949800031842 -0.00030833775157086359 0 0.0028455621302117106 -0.000115679325309926 0 0.0029444667680140956 -0.00032611382392068878 0 0.0026008053795369525 -5.1520725471362442e-05 0 0.0026063949800031842 -0.00030833775157086359 0 0.0028455621302117106 -0.000115679325309926 0 0.0020332134126985904 -0.00028604633703315001 0 0.0018454269956180223 -0.00062766764226462857 0 0.0017614554192758405 -0.00033190107674948584 0 0.0020332134126985904 -0.00028604633703315001 0 0.0018454269956180223 -0.00062766764226462857 0 0.0023386919653815229 -0.00034079917286012837 0 0.0018903191710977704 -0.00034976012184148093 0 0.0023666758596225441 -0.00016361208614780514 0 0.0024423923640614128 -0.00016228015691213378 0 0.0024229214331966194 2.9815378610901868e-05 0 0.0022271040306934618 -0.00018692240772413821 0 0.0019467537161642831 -6.3837459282011788e-05 0 0.0024229214331966194 2.9815378610901868e-05 0 0.0022271040306934618 -0.00018692240772413821 0 0.0024423923640614128 -0.00016228015691213378 0 0.0022271040306934618 -0.00018692240772413821 0 0.0023290071054222457 -0.00038024622790094095 0 0.0019467537161642831 -6.3837459282011788e-05 0 0.0022271040306934618 -0.00018692240772413821 0 0.0019645996206513186 -0.00063126617704130448 0 0.0022271040306934618 -0.00018692240772413821 0 0.0019645996206513186 -0.00063126617704130448 0 0.0023290071054222457 -0.00038024622790094095 0 0.0019645996206513186 -0.00063126617704130448 0 0.0023290071054222457 -0.00038024622790094095 0 0.0023846084877230398 -0.00061091869235883477 0 0.0019645996206513186 -0.00063126617704130448 0 0.0023846084877230398 -0.00061091869235883477 0 0.002112498557983697 -0.00079076369888266744 0 0.0019645996206513186 -0.00063126617704130448 0 0.002112498557983697 -0.00079076369888266744 0 0.0017617482290133064 -0.00066751418078180936 0 0.0026063949800031842 -0.00030833775157086359 0 0.0027177959722535605 -0.00054256555297688472 0 0.0029444667680140956 -0.00032611382392068878 0 0.0026063949800031842 -0.00030833775157086359 0 0.0023290071054222457 -0.00038024622790094095 0 0.0023846084877230398 -0.00061091869235883477 0 0.0026063949800031842 -0.00030833775157086359 0 0.0023846084877230398 -0.00061091869235883477 0 0.0027177959722535605 -0.00054256555297688472 0 0.0023846084877230398 -0.00061091869235883477 0 0.0027177959722535605 -0.00054256555297688472 0 0.002589138817868005 -0.00066451934388009315 0 0.0027177959722535605 -0.00054256555297688472 0 0.002589138817868005 -0.00066451934388009315 0 0.0028208741923897449 -0.00071013877736416406 0 0.0028208741923897449 -0.00071013877736416406 0 0.0024384003755617942 -0.00079387226325400566 0 0.0025629537000461272 -0.0008885170437690522 0 0.002589138817868005 -0.00066451934388009315 0 0.0028208741923897449 -0.00071013877736416406 0 0.0024384003755617942 -0.00079387226325400566 0 0.0023846084877230398 -0.00061091869235883477 0 0.002589138817868005 -0.00066451934388009315 0 0.0024384003755617942 -0.00079387226325400566 0 0.0024384003755617942 -0.00079387226325400566 0 0.0025629537000461272 -0.0008885170437690522 0 0.0023120634822535609 -0.00094705975665643129 0 0.0025629537000461272 -0.0008885170437690522 0 0.0028282833140584863 -0.00087135155138763219 0 0.0026368401320755251 -0.00098278348030403709 0 0.0028208741923897449 -0.00071013877736416406 0 0.0025629537000461272 -0.0008885170437690522 0 0.0028282833140584863 -0.00087135155138763219 0 0.0023846084877230398 -0.00061091869235883477 0 0.0024384003755617942 -0.00079387226325400566 0 0.002112498557983697 -0.00079076369888266744 0 0.0024384003755617942 -0.00079387226325400566 0 0.002112498557983697 -0.00079076369888266744 0 0.0023120634822535609 -0.00094705975665643129 0 0.002112498557983697 -0.00079076369888266744 0 0.0023120634822535609 -0.00094705975665643129 0 0.002144147633395454 -0.0010369981103917883 0 0.002112498557983697 -0.00079076369888266744 0 0.0017695162583747281 -0.00095404798041880774 0 0.002144147633395454 -0.0010369981103917883 0 0.002112498557983697 -0.00079076369888266744 0 0.0017695162583747281 -0.00095404798041880774 0 0.0017617482290133064 -0.00066751418078180936 0 0.0017695162583747281 -0.00095404798041880774 0 0.0017617482290133064 -0.00066751418078180936 0 0.0013797572116653796 -0.00085037552205143106 0 0.001534727176110387 -0.00093884429685275081 0 0.001170919807385274 -0.001087465738974652 0 0.0013045129591742811 -0.0012350812638272596 0 0.00094545399910344208 -0.0013123211748571691 0 0.00086319174725968362 -0.0011710032613483385 0 0.0017695162583747281 -0.00095404798041880774 0 0.0013797572116653796 -0.00085037552205143106 0 0.0013806032440813465 -0.0012297193863754607 0 0.001170919807385274 -0.001087465738974652 0 0.0009902285266126104 -0.0011957489700518962 0 0.00094545399910344208 -0.0013123211748571691 0 0.00089999843141530425 -0.0012317891652257808 0 0.00082564039150493317 -0.0012087310658873114 0 0.00094545399910344208 -0.0013123211748571691 0 0.00089999843141530425 -0.0012317891652257808 0 0.00097970319943505458 -0.0012011661713583028 0 0.00094545399910344208 -0.0013123211748571691 0 0.00082564039150493317 -0.0012087310658873114 0 0.00086319174725968362 -0.0011710032613483385 0 0.00086319174725968362 -0.0011710032613483385 0 0.00080902360699467097 -0.00108574426599574 0 0.00090838832323362692 -0.00098371260414865697 0 0.00086319174725968362 -0.0011710032613483385 0 0.00090838832323362692 -0.00098371260414865697 0 0.0011010234813439571 -0.00098770032308725096 0 0.00082564039150493317 -0.0012087310658873114 0 0.00086319174725968362 -0.0011710032613483385 0 0.00078180483921752803 -0.0011728402921784655 0 0.00086319174725968362 -0.0011710032613483385 0 0.00078180483921752803 -0.0011728402921784655 0 0.00076710194811766995 -0.0011273627934376646 0 0.00086319174725968362 -0.0011710032613483385 0 0.00080902360699467097 -0.00108574426599574 0 0.00076710194811766995 -0.0011273627934376646 0 0.00078180483921752803 -0.0011728402921784655 0 0.00076710194811766995 -0.0011273627934376646 0 0.00074379853633230338 -0.0011624201596682957 0 0.00076710194811766995 -0.0011273627934376646 0 0.00070879936289148127 -0.001112114909686467 0 0.00074379853633230338 -0.0011624201596682957 0 0.00070879936289148127 -0.001112114909686467 0 0.00071240941542361576 -0.0011757170121399856 0 0.00074379853633230338 -0.0011624201596682957 0 0.00080902360699467097 -0.00108574426599574 0 0.00076710194811766995 -0.0011273627934376646 0 0.0007565052540528767 -0.0010572255008432028 0 0.00076710194811766995 -0.0011273627934376646 0 0.00070879936289148127 -0.001112114909686467 0 0.0007565052540528767 -0.0010572255008432028 0 0.00070879936289148127 -0.001112114909686467 0 0.00069793769391741087 -0.0010648393063651814 0 0.0007565052540528767 -0.0010572255008432028 0 0.00069793769391741087 -0.0010648393063651814 0 0.00064895797099943887 -0.0010551020090440104 0 0.00067337324820755434 -0.0011149590419469071 0 0.00070879936289148127 -0.001112114909686467 0 0.00069793769391741087 -0.0010648393063651814 0 0.00067337324820755434 -0.0011149590419469071 0 0.00066429182561269801 -0.001195348148361071 0 0.00070879936289148127 -0.001112114909686467 0 0.00067337324820755434 -0.0011149590419469071 0 0.00066429182561269801 -0.001195348148361071 0 0.00070879936289148127 -0.001112114909686467 0 0.00071240941542361576 -0.0011757170121399856 0 0.00090838832323362692 -0.00098371260414865697 0 0.00073252456946308034 -0.0010141097746413632 0 0.0010940538069383467 -0.00080637082706448216 0 0.00080902360699467097 -0.00108574426599574 0 0.00090838832323362692 -0.00098371260414865697 0 0.0007565052540528767 -0.0010572255008432028 0 0.00090838832323362692 -0.00098371260414865697 0 0.0007565052540528767 -0.0010572255008432028 0 0.00073252456946308034 -0.0010141097746413632 0 0.00069793769391741087 -0.0010648393063651814 0 0.0007565052540528767 -0.0010572255008432028 0 0.00073252456946308034 -0.0010141097746413632 0 0.00069793769391741087 -0.0010648393063651814 0 0.00064895797099943887 -0.0010551020090440104 0 0.00073252456946308034 -0.0010141097746413632 0 0.00081976540087114126 -0.00095658581980246748 0 0.00064895797099943887 -0.0010551020090440104 0 0.00073252456946308034 -0.0010141097746413632 0 0.0013051738405098256 -0.00036253093136984373 0 0.0010940538069383467 -0.00080637082706448216 0 0.0014955531836974736 -0.00069459374809044221 0 0.0010940538069383467 -0.00080637082706448216 0 0.0014955531836974736 -0.00069459374809044221 0 0.0011010234813439571 -0.00098770032308725096 0 0.0013051738405098256 -0.00036253093136984373 0 0.00073252456946308034 -0.0010141097746413632 0 0.0010940538069383467 -0.00080637082706448216 0 0.00090838832323362692 -0.00098371260414865697 0 0.0010940538069383467 -0.00080637082706448216 0 0.0011010234813439571 -0.00098770032308725096 0 0.0019467537161642831 -6.3837459282011788e-05 0 0.0019645996206513186 -0.00063126617704130448 0 0.0014955531836974736 -0.00069459374809044221 0 0.0019645996206513186 -0.00063126617704130448 0 0.0013045129591742811 -0.0012350812638272596 0 0.0014955531836974736 -0.00069459374809044221 0 0.0019342527254388494 -0.000649355448210575 0 0.001534727176110387 -0.00093884429685275081 0 0.0013045129591742811 -0.0012350812638272596 0 0.0014955531836974736 -0.00069459374809044221 0 0.0011010234813439571 -0.00098770032308725096 0 0.0013045129591742811 -0.0012350812638272596 0 0.00086319174725968362 -0.0011710032613483385 0 0.0011010234813439571 -0.00098770032308725096 0 0.0049999952382952214 -0.0019685064521351553 0 0.0051608151097184843 -0.0019743843699817263 0 0.005122257608977711 -0.0021076535578403695 0 0.0049999952382952214 -0.0019685064521351553 0 0.0051608151097184843 -0.0019743843699817263 0 0.0049999951623772264 -0.0018048128608342204 0 0.0043945067689479733 -0.0014106646130350878 0 0.0043274734333761979 -0.0014712449242971998 0 0.0042179892585482931 -0.0013447270981957371 0 0.0039998152012111618 -0.00098531775349024533 0 0.0037856258195387437 -0.00088924480750342781 0 0.0039111723513433087 -0.001086042701716843 0 0.0048291976898187572 -0.0017644778972647607 0 0.0043743021761983953 -0.0015356091984196209 0 0.0051608151097184843 -0.0019743843699817263 0 0.005122257608977711 -0.0021076535578403695 0 0.0052285642139567878 -0.0021761571266528347 0 0.0043945067689479733 -0.0014106646130350878 0 0.0043215299060920228 -0.0012306159712030897 0 0.0042179892585482931 -0.0013447270981957371 0 0.0049999952382952214 -0.0019685064521351553 0 0.005122257608977711 -0.0021076535578403695 0 0.0049999970425858402 -0.0021321443903682029 0 0.005122257608977711 -0.0021076535578403695 0 0.0049999970425858402 -0.0021321443903682029 0 0.0051335191107023514 -0.0022856927187963469 0 0.0050002392369170633 -0.0021324614426890547 0 0.0049686244763260381 -0.002136254583643628 0 0.0050000005266264249 -0.002132189719214716 0 0.0051465245229151881 -0.0023153106328778349 0 0.0049999970662354763 -0.002328673766837827 0 0.0051465245229151881 -0.0023153106328778349 0 0.0049999970662354763 -0.002328673766837827 0 0.0051003682217986525 -0.002368352622182495 0 0.0049686244763260381 -0.002136254583643628 0 0.0050262240621961893 -0.0023358826109614751 0 0.0049999523795139379 -0.0025343205694673627 0 0.0049999583386683569 -0.0023288079031866639 0 0.0050394831941338349 -0.0024523132171195357 0 0.0049999583386683569 -0.0023288079031866639 0 0.0050394831941338349 -0.0024523132171195357 0 0.0050832172117465406 -0.0024028974957508208 0 0.0050000545605818321 -0.0023287080416955542 0 0.0050262240621961893 -0.0023358826109614751 0 0.0050394831941338349 -0.0024523132171195357 0 0.0050379579044382179 -0.0024714862358706309 0 0.0050424477007886851 -0.0025237102932242177 0 0.0050109307513342624 -0.0023866055265835003 0 0.0050262240621961893 -0.0023358826109614751 0 0.0050312197101002477 -0.0025465860342405253 0 0.0050394831941338349 -0.0024523132171195357 0 0.0050424477007886851 -0.0025237102932242177 0 0.0049999523795139379 -0.0025343205694673627 0 0.0050312197101002477 -0.0025465860342405253 0 0.0050394831941338349 -0.0024523132171195357 0 0.0044976459537391057 -0.0017716774523120679 0 0.0044967901501273251 -0.001772261431628944 0 0.0044955916648463526 -0.0017698355052402661 0 0.0048747847265085149 -0.0022746470231584581 0 0.0043232212775620431 -0.0019379172780157735 0 0.0050289423888173835 -0.0026403524810058084 0 0.0049919657296353705 -0.0025956221187154803 0 0.0050403220920848387 -0.0026223608643389483 0 0.0050920857256482859 -0.0026734852371671156 0 0.0048747847265085149 -0.0022746470231584581 0 0.0050289423888173835 -0.0026403524810058084 0 0.0050422311869904755 -0.0025951952835573319 0 0.005057939103398623 -0.002544176206858202 0 0.0050422311869904755 -0.0025951952835573319 0 0.0050424477007886851 -0.0025237102932242177 0 0.005057939103398623 -0.002544176206858202 0 0.0050379579044382179 -0.0024714862358706309 0 0.0050424477007886851 -0.0025237102932242177 0 0.005057939103398623 -0.002544176206858202 0 0.0050262240621961893 -0.0023358826109614751 0 0.0048747847265085149 -0.0022746470231584581 0 0.0049564020627518614 -0.0022912360272388205 0 0.0049767038013635084 -0.0022682494919402914 0 0.0049181317966316808 -0.0022449159362985275 0 0.0049686244763260381 -0.002136254583643628 0 0.0048747847265085149 -0.0022746470231584581 0 0.0044967901501273251 -0.001772261431628944 0 0.0044955916648463526 -0.0017698355052402661 0 0.0044942927514667217 -0.0017725941342765957 0 0.005122257608977711 -0.0021076535578403695 0 0.0051335191107023514 -0.0022856927187963469 0 0.0052285642139567878 -0.0021761571266528347 0 0.0044976459537391057 -0.0017716774523120679 0 0.0044955916648463526 -0.0017698355052402661 0 0.0044961809386404664 -0.0017679382763025825 0 0.0049686244763260381 -0.002136254583643628 0 0.0043743021761983953 -0.0015356091984196209 0 0.0038690124823539955 -0.0011593496292796447 0 0.0043743021761983953 -0.0015356091984196209 0 0.0033154735677299709 -0.00086157932767373636 0 0.0033118164406157318 -0.00082619887397308715 0 0.0033344171823047257 -0.00083179435047882561 0 0.0033344171823047257 -0.00083179435047882561 0 0.0033455986697540248 -0.00087205119918271025 0 0.0033656278731716625 -0.00082044426407745818 0 0.0033154735677299709 -0.00086157932767373636 0 0.0033344171823047257 -0.00083179435047882561 0 0.0033455986697540248 -0.00087205119918271025 0 0.0038690124823539955 -0.0011593496292796447 0 0.0043232212775620431 -0.0019379172780157735 0 0.0033154735677299709 -0.00086157932767373636 0 0.0033455986697540248 -0.00087205119918271025 0 0.0033265187889368057 -0.00091348827257590689 0 0.0033455986697540248 -0.00087205119918271025 0 0.0033265187889368057 -0.00091348827257590689 0 0.0033673683989976452 -0.00090730685003756993 0 0.0034180835667631327 -0.00096119108088935936 0 0.0033673683989976452 -0.00090730685003756993 0 0.0033807811593560434 -0.00088500429801815052 0 0.0034180835667631327 -0.00096119108088935936 0 0.0033807811593560434 -0.00088500429801815052 0 0.0034257545885803772 -0.00086825791367753315 0 0.0033455986697540248 -0.00087205119918271025 0 0.0033673683989976452 -0.00090730685003756993 0 0.0033807811593560434 -0.00088500429801815052 0 0.0033807811593560434 -0.00088500429801815052 0 0.0033656278731716625 -0.00082044426407745818 0 0.0034257545885803772 -0.00086825791367753315 0 0.0033455986697540248 -0.00087205119918271025 0 0.0033807811593560434 -0.00088500429801815052 0 0.0033656278731716625 -0.00082044426407745818 0 0.0033656278731716625 -0.00082044426407745818 0 0.003345711888514501 -0.00072507868438274165 0 0.0032553444320749837 -0.00069202698185408652 0 0.0033656278731716625 -0.00082044426407745818 0 0.0033886730971477673 -0.00072047232734010879 0 0.003345711888514501 -0.00072507868438274165 0 0.0033886730971477673 -0.00072047232734010879 0 0.003345711888514501 -0.00072507868438274165 0 0.0033830296883433273 -0.00064549221472349181 0 0.003345711888514501 -0.00072507868438274165 0 0.0033830296883433273 -0.00064549221472349181 0 0.0033412450669709241 -0.00066500128206995455 0 0.003345711888514501 -0.00072507868438274165 0 0.0033150570598505882 -0.00066432833170133052 0 0.0033412450669709241 -0.00066500128206995455 0 0.003254823956165788 -0.00072997123315009411 0 0.0036008220594352883 -0.00091591059704326761 0 0.0033118164406157318 -0.00082619887397308715 0 0.0033344171823047257 -0.00083179435047882561 0 0.0033357527495505709 -0.00079930838787788843 0 0.0033344171823047257 -0.00083179435047882561 0 0.0033656278731716625 -0.00082044426407745818 0 0.0033357527495505709 -0.00079930838787788843 0 0.0043743021761983953 -0.0015356091984196209 0 0.0036008220594352883 -0.00091591059704326761 0 0.003345711888514501 -0.00072507868438274165 0 0.0032553444320749837 -0.00069202698185408652 0 0.0033150570598505882 -0.00066432833170133052 0 0.0032553444320749837 -0.00069202698185408652 0 0.0033150570598505882 -0.00066432833170133052 0 0.0033163706313780244 -0.00062307840446591508 0 0.0036008220594352883 -0.00091591059704326761 0 0.0035363473640013339 -0.00070172722905221608 0 0.0035520443769523199 -0.00086351153571677646 0 0.0037856258195387437 -0.00088924480750342781 0 0.0039111723513433087 -0.001086042701716843 0 0.0035363473640013339 -0.00070172722905221608 0 0.0036858300802592174 -0.00073953181219848434 0 0.0037263667408025812 -0.00066472352864994108 0 0.0035520443769523199 -0.00086351153571677646 0 0.0037856258195387437 -0.00088924480750342781 0 0.004207470340843295 -0.0012881987194287602 0 0.0036008220594352883 -0.00091591059704326761 0 0.0039998152012111618 -0.00098531775349024533 0 0.0037263667408025812 -0.00066472352864994108 0 0.0037856258195387437 -0.00088924480750342781 0 0.0033163706313780244 -0.00062307840446591508 0 0.0033830296883433273 -0.00064549221472349181 0 0.003459553168965868 -0.00054036330025218193 0 0.0035363473640013339 -0.00070172722905221608 0 0.0034592244275606461 -0.00052389960954126347 0 0.0033830296883433273 -0.00064549221472349181 0 0.0034313984029858088 -0.0006210627942591383 0 0.003459553168965868 -0.00054036330025218193 0 0.0033886730971477673 -0.00072047232734010879 0 0.0033830296883433273 -0.00064549221472349181 0 0.0034313984029858088 -0.0006210627942591383 0 0.0033163706313780244 -0.00062307840446591508 0 0.0033830296883433273 -0.00064549221472349181 0 0.0033412450669709241 -0.00066500128206995455 0 0.0033150570598505882 -0.00066432833170133052 0 0.0033163706313780244 -0.00062307840446591508 0 0.0033412450669709241 -0.00066500128206995455 0 0.0034313984029858088 -0.0006210627942591383 0 0.0035060368213041745 -0.0006029208670266258 0 0.0034664145823339021 -0.00051105867521428227 0 0.0035060368213041745 -0.0006029208670266258 0 0.003417223912146852 -0.00043885845096349103 0 0.0034664145823339021 -0.00051105867521428227 0 0.0035060368213041745 -0.0006029208670266258 0 0.0034199704564803817 -0.00076792378106537297 0 0.0036667857418244132 -0.00090967722091349259 0 0.0034313984029858088 -0.0006210627942591383 0 0.0035060368213041745 -0.0006029208670266258 0 0.0034199704564803817 -0.00076792378106537297 0 0.0033656278731716625 -0.00082044426407745818 0 0.0033886730971477673 -0.00072047232734010879 0 0.0034199704564803817 -0.00076792378106537297 0 0.0033886730971477673 -0.00072047232734010879 0 0.0034313984029858088 -0.0006210627942591383 0 0.0034199704564803817 -0.00076792378106537297 0 0.003420017033916698 -0.00082443294392697613 0 0.003315705850474057 -0.00094863923288861544 0 0.0034199704564803817 -0.00076792378106537297 0 0.0033004112888876691 -0.0012200689707493673 0 0.0036667857418244132 -0.00090967722091349259 0 0.0033656278731716625 -0.00082044426407745818 0 0.0034199704564803817 -0.00076792378106537297 0 0.0034257545885803772 -0.00086825791367753315 0 0.0033460787235620225 -0.00181722394977497 0 0.0031858494710464836 -0.0019292353361932879 0 0.0033004112888876691 -0.0012200689707493673 0 0.0040274348395543209 -0.0020019062178638228 0 0.003315705850474057 -0.00094863923288861544 0 0.0033460787235620225 -0.00181722394977497 0 0.0033004112888876691 -0.0012200689707493673 0 0.0036862669600470454 -0.0012893584475625627 0 0.0033276172373310582 -0.0018021811581902692 0 0.0040198749809070072 -0.0014503743280222482 0 0.0033004112888876691 -0.0012200689707493673 0 0.0036862669600470454 -0.0012893584475625627 0 0.0036667857418244132 -0.00090967722091349259 0 0.0040198749809070072 -0.0014503743280222482 0 0.0036788740278230624 -0.00057568962827154752 0 0.0036862669600470454 -0.0012893584475625627 0 0.0036667857418244132 -0.00090967722091349259 0 0.0039442515885746267 -0.00098486020428499837 0 0.0045195398721404817 -0.0019355120533870629 0 0.0041972200480814631 -0.0015007178137157924 0 0.0046222339748766498 -0.001638686438003537 0 0.0041972200480814631 -0.0015007178137157924 0 0.0046222339748766498 -0.001638686438003537 0 0.0047692054016754632 -0.0011663841405370819 0 0.0049589999452853816 -0.0019375342794131134 0 0.0046222339748766498 -0.001638686438003537 0 0.0047692054016754632 -0.0011663841405370819 0 0.0025295571031620431 -0.00019131373722213764 0 0.0025605465060320664 -0.00012065363106109007 0 0.0025279262597178585 -0.00010191838636972179 0 0.0037151018146962707 -0.001030441833573305 0 0.0036788740278230624 -0.00057568962827154752 0 0.0025605465060320664 -0.00012065363106109007 0 0.0025279262597178585 -0.00010191838636972179 0 0.0025715210461576057 -6.9870096297718016e-05 0 0.0036788740278230624 -0.00057568962827154752 0 0.0026768282592516202 -4.7694679620983044e-06 0 0.0028455621302117106 -0.000115679325309926 0 0.0028633785544972955 0.00015373740467732218 0 0.0032413453377923614 -4.1194773236053697e-05 0 0.0031120314428650644 0.00031570633560348772 0 0.0028633785544972955 0.00015373740467732218 0 0.0032413453377923614 -4.1194773236053697e-05 0 0.0035060368213041745 -0.0006029208670266258 0 0.0036667857418244132 -0.00090967722091349259 0 0.0037515793109143426 -0.00067005511426666939 0 0.0036667857418244132 -0.00090967722091349259 0 0.0039442515885746267 -0.00098486020428499837 0 0.0037515793109143426 -0.00067005511426666939 0 0.0036788740278230624 -0.00057568962827154752 0 0.0034683528117438671 -0.00031714188391007475 0 0.0035060368213041745 -0.0006029208670266258 0 0.0037515793109143426 -0.00067005511426666939 0 0.003417223912146852 -0.00043885845096349103 0 0.0034683528117438671 -0.00031714188391007475 0 0.0034530478051862895 -0.00046552579784447262 0 0.0032413453377923614 -4.1194773236053697e-05 0 0.0029444667680140956 -0.00032611382392068878 0 0.003417223912146852 -0.00043885845096349103 0 0.0028455621302117106 -0.000115679325309926 0 0.0032413453377923614 -4.1194773236053697e-05 0 0.0029444667680140956 -0.00032611382392068878 0 0.0027177959722535605 -0.00054256555297688472 0 0.0029444667680140956 -0.00032611382392068878 0 0.0030493203115673378 -0.00052018906786774561 0 0.0029444667680140956 -0.00032611382392068878 0 0.003417223912146852 -0.00043885845096349103 0 0.0030493203115673378 -0.00052018906786774561 0 0.003417223912146852 -0.00043885845096349103 0 0.0033356925378792476 -0.00054425678214245813 0 0.0030493203115673378 -0.00052018906786774561 0 0.0033356925378792476 -0.00054425678214245813 0 0.0030493203115673378 -0.00052018906786774561 0 0.0031640311841896348 -0.00064794634518967225 0 0.0033356925378792476 -0.00054425678214245813 0 0.0031640311841896348 -0.00064794634518967225 0 0.0033665447018999279 -0.00063329616246926665 0 0.0027177959722535605 -0.00054256555297688472 0 0.0028208741923897449 -0.00071013877736416406 0 0.0030493203115673378 -0.00052018906786774561 0 0.0028208741923897449 -0.00071013877736416406 0 0.0030493203115673378 -0.00052018906786774561 0 0.0031640311841896348 -0.00064794634518967225 0 0.0028208741923897449 -0.00071013877736416406 0 0.0030424637228595708 -0.00076359595505284285 0 0.0031640311841896348 -0.00064794634518967225 0 0.0030424637228595708 -0.00076359595505284285 0 0.0028282833140584863 -0.00087135155138763219 0 0.0031642041756739709 -0.00086228364733079653 0 0.0028282833140584863 -0.00087135155138763219 0 0.0031642041756739709 -0.00086228364733079653 0 0.0030148658730890518 -0.0009914738411751123 0 0.0028208741923897449 -0.00071013877736416406 0 0.0030424637228595708 -0.00076359595505284285 0 0.0028282833140584863 -0.00087135155138763219 0 0.0030424637228595708 -0.00076359595505284285 0 0.0031642041756739709 -0.00086228364733079653 0 0.0033218379154137815 -0.00073530004775666162 0 0.0031642041756739709 -0.00086228364733079653 0 0.0033218379154137815 -0.00073530004775666162 0 0.0034244872921194991 -0.00085653874587459148 0 0.0030424637228595708 -0.00076359595505284285 0 0.0033218379154137815 -0.00073530004775666162 0 0.0031640311841896348 -0.00064794634518967225 0 0.0033218379154137815 -0.00073530004775666162 0 0.0031640311841896348 -0.00064794634518967225 0 0.0033665447018999279 -0.00063329616246926665 0 0.0033218379154137815 -0.00073530004775666162 0 0.0033665447018999279 -0.00063329616246926665 0 0.0035042342690083518 -0.00068119077291038904 0 0.0033665447018999279 -0.00063329616246926665 0 0.0035042342690083518 -0.00068119077291038904 0 0.0034700442214365725 -0.00059982962026276755 0 0.0033218379154137815 -0.00073530004775666162 0 0.0035042342690083518 -0.00068119077291038904 0 0.0035975827624235282 -0.00080171510743592641 0 0.0033218379154137815 -0.00073530004775666162 0 0.0035975827624235282 -0.00080171510743592641 0 0.0034244872921194991 -0.00085653874587459148 0 0.0035975827624235282 -0.00080171510743592641 0 0.0034244872921194991 -0.00085653874587459148 0 0.0036829333311539335 -0.00092028562220544913 0 0.0040479942841045594 -0.001019988757546871 0 0.0043169863403180377 -0.0013146124112547214 0 0.0036829333311539335 -0.00092028562220544913 0 0.0035975827624235282 -0.00080171510743592641 0 0.0040479942841045594 -0.001019988757546871 0 0.0042735615798878256 -0.0009011792465134957 0 0.0035975827624235282 -0.00080171510743592641 0 0.0040479942841045594 -0.001019988757546871 0 0.0036829333311539335 -0.00092028562220544913 0 0.0035042342690083518 -0.00068119077291038904 0 0.0034700442214365725 -0.00059982962026276755 0 0.0035494450694383943 -0.0006663590793369431 0 0.0035042342690083518 -0.00068119077291038904 0 0.0035975827624235282 -0.00080171510743592641 0 0.0035494450694383943 -0.0006663590793369431 0 0.0035992156033374414 -0.00082592035122462572 0 0.0038889637606127694 -0.00080449426459699384 0 0.003495586844211866 -0.00057914581338231992 0 0.0034700442214365725 -0.00059982962026276755 0 0.0034664145823339021 -0.00051105867521428227 0 0.003495586844211866 -0.00057914581338231992 0 0.0034700442214365725 -0.00059982962026276755 0 0.0035494450694383943 -0.0006663590793369431 0 0.0033356925378792476 -0.00054425678214245813 0 0.0034700442214365725 -0.00059982962026276755 0 0.0034664145823339021 -0.00051105867521428227 0 0.0033356925378792476 -0.00054425678214245813 0 0.0033665447018999279 -0.00063329616246926665 0 0.0034700442214365725 -0.00059982962026276755 0 0.003417223912146852 -0.00043885845096349103 0 0.0033356925378792476 -0.00054425678214245813 0 0.0034664145823339021 -0.00051105867521428227 0 0.003495586844211866 -0.00057914581338231992 0 0.0034664145823339021 -0.00051105867521428227 0 0.003459553168965868 -0.00054036330025218193 0 0.0034313984029858088 -0.0006210627942591383 0 0.0034664145823339021 -0.00051105867521428227 0 0.003459553168965868 -0.00054036330025218193 0 0.0035464299116303374 -0.00044765958475086588 0 0.003459553168965868 -0.00054036330025218193 0 0.0035630147827297254 -0.00055444890018273383 0 0.003459553168965868 -0.00054036330025218193 0 0.0035630147827297254 -0.00055444890018273383 0 0.0035364428817805296 -0.00059776068219218753 0 0.003495586844211866 -0.00057914581338231992 0 0.003459553168965868 -0.00054036330025218193 0 0.0035364428817805296 -0.00059776068219218753 0 0.0035464299116303374 -0.00044765958475086588 0 0.0035630147827297254 -0.00055444890018273383 0 0.0036466397762910667 -0.00051416536360585432 0 0.0035630147827297254 -0.00055444890018273383 0 0.0036103280334625846 -0.00063335626421591701 0 0.0036466397762910667 -0.00051416536360585432 0 0.0035630147827297254 -0.00055444890018273383 0 0.0036103280334625846 -0.00063335626421591701 0 0.0035364428817805296 -0.00059776068219218753 0 0.003495586844211866 -0.00057914581338231992 0 0.0035364428817805296 -0.00059776068219218753 0 0.0035494450694383943 -0.0006663590793369431 0 0.0036103280334625846 -0.00063335626421591701 0 0.0035364428817805296 -0.00059776068219218753 0 0.0035494450694383943 -0.0006663590793369431 0 0.0040479942841045594 -0.001019988757546871 0 0.0042735615798878256 -0.0009011792465134957 0 0.0043169863403180377 -0.0013146124112547214 0 0.0042735615798878256 -0.0009011792465134957 0 0.0047070831685972862 -0.0011936320421618545 0 0.0043169863403180377 -0.0013146124112547214 0 0.0047070831685972862 -0.0011936320421618545 0 0.0048196487481589629 -0.0014135248852553853 0 0.0043169863403180377 -0.0013146124112547214 0 0.0041174151053873448 -0.00080124779266907214 0 0.0038889637606127694 -0.00080449426459699384 0 0.0046853477278040135 -0.0010649707754103843 0 0.0042735615798878256 -0.0009011792465134957 0 0.0047070831685972862 -0.0011936320421618545 0 0.0047070831685972862 -0.0011936320421618545 0 0.004861855024218752 -0.0012598379565721717 0 0.0049411771820026479 -0.0013256067813441626 0 0.0046853477278040135 -0.0010649707754103843 0 0.0047070831685972862 -0.0011936320421618545 0 0.004861855024218752 -0.0012598379565721717 0 0.0047070831685972862 -0.0011936320421618545 0 0.0049411771820026479 -0.0013256067813441626 0 0.0048196487481589629 -0.0014135248852553853 0 0.0049411771820026479 -0.0013256067813441626 0 0.0050000005840936989 -0.0011969738150275032 0 0.0048196487481589629 -0.0014135248852553853 0 0.0049411771820026479 -0.0013256067813441626 0 0.0049998418967097764 -0.0013973542688945054 0 0.0050000005840936989 -0.0011969738150275032 0 0.0049411771820026479 -0.0013256067813441626 0 0.0049998418967097764 -0.0013973542688945054 0 0.0049705428962306657 -0.0013766054734927467 0 0.0049998418967097764 -0.0013973542688945054 0 0.0049705428962306657 -0.0013766054734927467 0 0.0050088607262285777 -0.0015291829113418531 0 0.0049998418967097764 -0.0013973542688945054 0 0.0050088607262285777 -0.0015291829113418531 0 0.0050000588195958564 -0.0015981714034272148 0 0.004861855024218752 -0.0012598379565721717 0 0.0049411771820026479 -0.0013256067813441626 0 0.0049705428962306657 -0.0013766054734927467 0 0.004861855024218752 -0.0012598379565721717 0 0.0049705428962306657 -0.0013766054734927467 0 0.0049354350052691837 -0.0013459498176926047 0 0.004861855024218752 -0.0012598379565721717 0 0.0049354350052691837 -0.0013459498176926047 0 0.0048734782097048625 -0.0012081908031943756 0 0.0049705428962306657 -0.0013766054734927467 0 0.0049354350052691837 -0.0013459498176926047 0 0.0050088607262285777 -0.0015291829113418531 0 0.0050088607262285777 -0.0015291829113418531 0 0.0050000588195958564 -0.0015981714034272148 0 0.0050798645652051465 -0.001688646298989996 0 0.0049882688757830595 -0.0015051877950237197 0 0.0049362251469784353 -0.0015241850850289907 0 0.0049354350052691837 -0.0013459498176926047 0 0.0050088607262285777 -0.0015291829113418531 0 0.0049852043358348521 -0.0012182564543628625 0 0.0050000216520152234 -0.0015987173045775693 0 0.0049362251469784353 -0.0015241850850289907 0 0.0050000003880687335 -0.0015986954445012451 0 0.0049999980195885169 -0.0016700633996016945 0 0.0050464947479314601 -0.0016573689820022293 0 0.0049999980195885169 -0.0016700633996016945 0 0.0050464947479314601 -0.0016573689820022293 0 0.0050661428788537329 -0.0017093843749250177 0 0.0049362251469784353 -0.0015241850850289907 0 0.0048728213154006746 -0.0015299693305359104 0 0.005000057350008592 -0.0016700502002600193 0 0.0048728213154006746 -0.0015299693305359104 0 0.0049362251469784353 -0.0015241850850289907 0 0.0045003007633847465 -0.0012300219181691999 0 0.004879656038605816 -0.0015773540330352971 0 0.0048038708841927711 -0.0013852846320010438 0 0.0046453496836973878 -0.0013008624790994052 0 0.0049852043358348521 -0.0012182564543628625 0 0.0048734782097048625 -0.0012081908031943756 0 0.0049154900399804935 -0.0011327615084328608 0 0.0049354350052691837 -0.0013459498176926047 0 0.0049852043358348521 -0.0012182564543628625 0 0.0048734782097048625 -0.0012081908031943756 0 0.0046853477278040135 -0.0010649707754103843 0 0.0048734782097048625 -0.0012081908031943756 0 0.0049154900399804935 -0.0011327615084328608 0 0.0046853477278040135 -0.0010649707754103843 0 0.004861855024218752 -0.0012598379565721717 0 0.0048734782097048625 -0.0012081908031943756 0 0.0041174151053873448 -0.00080124779266907214 0 0.0045003007633847465 -0.0012300219181691999 0 0.0036103280334625846 -0.00063335626421591701 0 0.0036466397762910667 -0.00051416536360585432 0 0.0037476006025308961 -0.00057685604015599305 0 0.0036858300802592174 -0.00073953181219848434 0 0.0045003007633847465 -0.0012300219181691999 0 0.0043945067689479733 -0.0014106646130350878 0 0.0043274734333761979 -0.0014712449242971998 0 0.0044418786689609125 -0.001601310653387371 0 0.004207470340843295 -0.0012881987194287602 0 0.0045003007633847465 -0.0012300219181691999 0 0.0039998152012111618 -0.00098531775349024533 0 0.0039111723513433087 -0.001086042701716843 0 0.004295113684411116 -0.0013269120602883992 0 0.0051608151097184843 -0.0019743843699817263 0 0.0049999951623772264 -0.0018048128608342204 0 0.0050829119240230706 -0.0017576237446840825 0 0.0043945067689479733 -0.0014106646130350878 0 0.0044671564174872148 -0.0015876993276398585 0 0.0044418786689609125 -0.001601310653387371 0 0.0048291976898187572 -0.0017644778972647607 0 0.0047876438797956168 -0.0015320341347238389 0 0.005070175113373078 -0.0017140057021635402 0 0.0049999990454734364 -0.0018048059402154763 0 0.0050859919788514346 -0.0017554053325944728 0 0.0049999990496540992 -0.0016700712572255594 0 0.005070175113373078 -0.0017140057021635402 0 0.0049999990454734364 -0.0018048059402154763 0 0.004999954875488018 -0.0018045748470654852 0 0.0047876438797956168 -0.0015320341347238389 0 0.0048050493683724641 -0.0013907845578832124 0 0.0047860466506744219 -0.0013427449923008048 0 0.004750908378407674 -0.0013617802944117089 0 0.0048728213154006746 -0.0015299693305359104 0 0.0045003007633847465 -0.0012300219181691999 0 0.0048728213154006746 -0.0015299693305359104 0 0.0047876438797956168 -0.0015320341347238389 0 0.0047876438797956168 -0.0015320341347238389 0 0.0045003007633847465 -0.0012300219181691999 0 0.0049669321891801354 -0.00085123236412988439 0 0.0049998418041112712 -0.00090888927954275382 0 0.0049998862810226906 -0.00062214740904226922 0 0.0049669321891801354 -0.00085123236412988439 0 0.0048580377983115704 -0.0011043870458834978 0 0.0049998862810226906 -0.00062214740904226922 0 0.0049669321891801354 -0.00085123236412988439 0 0.0048858207441002484 -0.00094232274927581782 0 0.0048580377983115704 -0.0011043870458834978 0 0.0048858207441002484 -0.00094232274927581782 0 0.0046858384274435939 -0.0010991829727018017 0 0.0048580377983115704 -0.0011043870458834978 0 0.0048858207441002484 -0.00094232274927581782 0 0.0049998418041112712 -0.00090888927954275382 0 0.0049508195821054632 -0.00098999948000644353 0 0.0049669321891801354 -0.00085123236412988439 0 0.0048858207441002484 -0.00094232274927581782 0 0.0049998418041112712 -0.00090888927954275382 0 0.0049998418041112712 -0.00090888927954275382 0 0.0049508195821054632 -0.00098999948000644353 0 0.0049998974761561741 -0.00119584635487246 0 0.0049998715943667593 -0.0011964536335973275 0 0.0048034805884368571 -0.0011292638784686545 0 0.0049508195821054632 -0.00098999948000644353 0 0.0049998974761561741 -0.00119584635487246 0 0.0048399480275369035 -0.00084912749663225873 0 0.0049508195821054632 -0.00098999948000644353 0 0.0048399480275369035 -0.00084912749663225873 0 0.0047741160621608148 -0.0009868689139604786 0 0.0048858207441002484 -0.00094232274927581782 0 0.0049508195821054632 -0.00098999948000644353 0 0.0047741160621608148 -0.0009868689139604786 0 0.0047741160621608148 -0.0009868689139604786 0 0.0045027653571216835 -0.00099166863690193377 0 0.0046135869371786179 -0.0010500327581602694 0 0.0048399480275369035 -0.00084912749663225873 0 0.0047741160621608148 -0.0009868689139604786 0 0.0045027653571216835 -0.00099166863690193377 0 0.0048034805884368571 -0.0011292638784686545 0 0.0043643854116122713 -0.0010358740378620343 0 0.0048399480275369035 -0.00084912749663225873 0 0.0044018831953793972 -0.00076213218311704703 0 0.0045027653571216835 -0.00099166863690193377 0 0.0044018831953793972 -0.00076213218311704703 0 0.0045027653571216835 -0.00099166863690193377 0 0.0040634721568826434 -0.0010903890129913758 0 0.0045027653571216835 -0.00099166863690193377 0 0.0043519958270785992 -0.0011037991372025149 0 0.0040634721568826434 -0.0010903890129913758 0 0.0045027653571216835 -0.00099166863690193377 0 0.0043519958270785992 -0.0011037991372025149 0 0.0046135869371786179 -0.0010500327581602694 0 0.0043519958270785992 -0.0011037991372025149 0 0.0046135869371786179 -0.0010500327581602694 0 0.0044845389966924332 -0.0011568889412727895 0 0.0048858207441002484 -0.00094232274927581782 0 0.0047741160621608148 -0.0009868689139604786 0 0.0046135869371786179 -0.0010500327581602694 0 0.0048858207441002484 -0.00094232274927581782 0 0.0046135869371786179 -0.0010500327581602694 0 0.0046858384274435939 -0.0010991829727018017 0 0.0046135869371786179 -0.0010500327581602694 0 0.0046858384274435939 -0.0010991829727018017 0 0.0044845389966924332 -0.0011568889412727895 0 0.0046858384274435939 -0.0010991829727018017 0 0.0044845389966924332 -0.0011568889412727895 0 0.0045511653839367611 -0.0013351103960488524 0 0.0043519958270785992 -0.0011037991372025149 0 0.0044845389966924332 -0.0011568889412727895 0 0.0043356576883675432 -0.0011797001182518229 0 0.0044845389966924332 -0.0011568889412727895 0 0.0043356576883675432 -0.0011797001182518229 0 0.0043803374170268104 -0.0012664473338759676 0 0.0043356576883675432 -0.0011797001182518229 0 0.0042342935607859906 -0.0012529023765645386 0 0.0041768043089159016 -0.0011285274326300406 0 0.0043356576883675432 -0.0011797001182518229 0 0.0042342935607859906 -0.0012529023765645386 0 0.0043803374170268104 -0.0012664473338759676 0 0.0042342935607859906 -0.0012529023765645386 0 0.0041137536017842279 -0.001221934817500814 0 0.0041768043089159016 -0.0011285274326300406 0 0.0041137536017842279 -0.001221934817500814 0 0.0041768043089159016 -0.0011285274326300406 0 0.004053009505945033 -0.001145597357409545 0 0.0041768043089159016 -0.0011285274326300406 0 0.0040886953413817066 -0.0010717427270924332 0 0.004053009505945033 -0.001145597357409545 0 0.0043519958270785992 -0.0011037991372025149 0 0.0041768043089159016 -0.0011285274326300406 0 0.0040634721568826434 -0.0010903890129913758 0 0.0043519958270785992 -0.0011037991372025149 0 0.0043356576883675432 -0.0011797001182518229 0 0.0041768043089159016 -0.0011285274326300406 0 0.0043643854116122713 -0.0010358740378620343 0 0.0037490580784772308 -0.00093805611563416071 0 0.0044018831953793972 -0.00076213218311704703 0 0.0040634721568826434 -0.0010903890129913758 0 0.0036829333311539335 -0.00092028562220544913 0 0.0040634721568826434 -0.0010903890129913758 0 0.0036829333311539335 -0.00092028562220544913 0 0.0036616577020432443 -0.001065100653785936 0 0.0034244872921194991 -0.00085653874587459148 0 0.0036829333311539335 -0.00092028562220544913 0 0.0033627747411679432 -0.0010037680759559134 0 0.0036829333311539335 -0.00092028562220544913 0 0.0036616577020432443 -0.001065100653785936 0 0.0033627747411679432 -0.0010037680759559134 0 0.0041768043089159016 -0.0011285274326300406 0 0.0040634721568826434 -0.0010903890129913758 0 0.0040886953413817066 -0.0010717427270924332 0 0.0036616577020432443 -0.001065100653785936 0 0.0034374640487858468 -0.0013713814896264098 0 0.0033627747411679432 -0.0010037680759559134 0 0.0040634721568826434 -0.0010903890129913758 0 0.0036616577020432443 -0.001065100653785936 0 0.0034374640487858468 -0.0013713814896264098 0 0.0040441072620042281 -0.0010992059855581759 0 0.0037467223976975607 -0.0012137272236136224 0 0.0034374640487858468 -0.0013713814896264098 0 0.0030686744630680548 -0.0011945682714921812 0 0.0033627747411679432 -0.0010037680759559134 0 0.0034374640487858468 -0.0013713814896264098 0 0.0030686744630680548 -0.0011945682714921812 0 0.0029716850587531898 -0.0014160851167751756 0 0.0030686744630680548 -0.0011945682714921812 0 0.0033627747411679432 -0.0010037680759559134 0 0.0030148658730890518 -0.0009914738411751123 0 0.0031642041756739709 -0.00086228364733079653 0 0.0033627747411679432 -0.0010037680759559134 0 0.0030148658730890518 -0.0009914738411751123 0 0.0031642041756739709 -0.00086228364733079653 0 0.0034244872921194991 -0.00085653874587459148 0 0.0033627747411679432 -0.0010037680759559134 0 0.0028282833140584863 -0.00087135155138763219 0 0.0030148658730890518 -0.0009914738411751123 0 0.0026368401320755251 -0.00098278348030403709 0 0.0030148658730890518 -0.0009914738411751123 0 0.0027809469095083699 -0.0010888169564431816 0 0.0026368401320755251 -0.00098278348030403709 0 0.0030686744630680548 -0.0011945682714921812 0 0.0027809469095083699 -0.0010888169564431816 0 0.0027123554372813878 -0.0012192592257720826 0 0.0030686744630680548 -0.0011945682714921812 0 0.0030148658730890518 -0.0009914738411751123 0 0.0027809469095083699 -0.0010888169564431816 0 0.0030686744630680548 -0.0011945682714921812 0 0.0027123554372813878 -0.0012192592257720826 0 0.0029716850587531898 -0.0014160851167751756 0 0.0027809469095083699 -0.0010888169564431816 0 0.0027123554372813878 -0.0012192592257720826 0 0.0025334519331391601 -0.0010925061990225114 0 0.0027123554372813878 -0.0012192592257720826 0 0.0029716850587531898 -0.0014160851167751756 0 0.0025170929436826237 -0.0014662499164304133 0 0.0035827497938688878 -0.001240055616830843 0 0.0024042712256057228 -0.00096905328180340905 0 0.0039519519914947383 -0.0010886545589811837 0 0.0039220500980023535 -0.0011982912832784502 0 0.0037937725497479051 -0.0011426089489323381 0 0.0040886953413817066 -0.0010717427270924332 0 0.0039519519914947383 -0.0010886545589811837 0 0.004053009505945033 -0.001145597357409545 0 0.0037467223976975607 -0.0012137272236136224 0 0.0035827497938688878 -0.001240055616830843 0 0.0039519519914947383 -0.0010886545589811837 0 0.004053009505945033 -0.001145597357409545 0 0.0039220500980023535 -0.0011982912832784502 0 0.0041137536017842279 -0.001221934817500814 0 0.004053009505945033 -0.001145597357409545 0 0.0040059957394931855 -0.0012642877370166608 0 0.004053009505945033 -0.001145597357409545 0 0.0040059957394931855 -0.0012642877370166608 0 0.0039220500980023535 -0.0011982912832784502 0 0.0040059957394931855 -0.0012642877370166608 0 0.0039220500980023535 -0.0011982912832784502 0 0.0038403023084415135 -0.0013092047601249586 0 0.0039220500980023535 -0.0011982912832784502 0 0.0038403023084415135 -0.0013092047601249586 0 0.0037937725497479051 -0.0011426089489323381 0 0.0040059957394931855 -0.0012642877370166608 0 0.0038403023084415135 -0.0013092047601249586 0 0.0039723859964697229 -0.0013713249578387694 0 0.0040059957394931855 -0.0012642877370166608 0 0.0039723859964697229 -0.0013713249578387694 0 0.0041392287140570956 -0.0013417308434738131 0 0.0043691273589784412 -0.00055587819192874242 0 0.0045106020762927931 -0.00063402840406158413 0 0.004613306102542388 -0.00051641900664873707 0 0.0039723859964697229 -0.0013713249578387694 0 0.0038829296217007762 -0.0014782805308857171 0 0.0040726051997254358 -0.0014467891874360215 0 0.0039723859964697229 -0.0013713249578387694 0 0.0040726051997254358 -0.0014467891874360215 0 0.0041392287140570956 -0.0013417308434738131 0 0.0030402010326531586 -0.00042616113952013632 0 0.0045518192355338905 -0.0010139061794901775 0 0.0011742861789899796 -0.00029617808988852341 0 0.0011306954166120733 0.00012233595191779632 0 0.0012314627035629885 -2.8659093954062539e-05 0 0.0024764119597604933 -0.00083722906534831876 0 0.0030402010326531586 -0.00042616113952013632 0 0.0038403023084415135 -0.0013092047601249586 0 0.0039723859964697229 -0.0013713249578387694 0 0.0038829296217007762 -0.0014782805308857171 0 0.0011306954166120733 0.00012233595191779632 0 0.0012314627035629885 -2.8659093954062539e-05 0 0.0012178975762113799 8.7447933023986811e-05 0 0.0011610039158583925 0.00014374488710639527 0 0.0011715808702754214 0.00015528754023215748 0 0.0011725667152089087 0.00017922126025189829 0 0.0011306954166120733 0.00012233595191779632 0 0.0012178975762113799 8.7447933023986811e-05 0 0.0011696564003401894 0.00013403551394639736 0 0.0011696564003401894 0.00013403551394639736 0 0.0012296645017252901 0.00015742435907310597 0 0.0011886270782824374 0.00016795735483527576 0 0.0011696564003401894 0.00013403551394639736 0 0.0011715808702754214 0.00015528754023215748 0 0.0011886270782824374 0.00016795735483527576 0 0.0011610039158583925 0.00014374488710639527 0 0.0011696564003401894 0.00013403551394639736 0 0.0011715808702754214 0.00015528754023215748 0 0.0030402010326531586 -0.00042616113952013632 0 0.0027397128431515543 -0.0004503170005087553 0 0.0012178975762113799 8.7447933023986811e-05 0 0.0011696564003401894 0.00013403551394639736 0 0.0012296645017252901 0.00015742435907310597 0 0.0012178975762113799 8.7447933023986811e-05 0 0.0012296645017252901 0.00015742435907310597 0 0.0012887811322651003 0.00014387396157854683 0 0.0012296645017252901 0.00015742435907310597 0 0.001200848102607982 0.00021178654409421667 0 0.0013342600187778015 0.00028342946194749829 0 0.0043691273589784412 -0.00055587819192874242 0 0.0044242572836248051 -0.00076455021328977486 0 0.0044589203932990477 -0.00067602237517576011 0 0.0030402010326531586 -0.00042616113952013632 0 0.0043110913526736381 -0.00022047214589153275 0 0.0011610039158583925 0.00014374488710639527 0 0.0011783268406081919 0.00022287427160040145 0 0.0011699023542751977 0.00030628356628620198 0 0.0012296645017252901 0.00015742435907310597 0 0.0011886270782824374 0.00016795735483527576 0 0.001200848102607982 0.00021178654409421667 0 0.0011715808702754214 0.00015528754023215748 0 0.0011886270782824374 0.00016795735483527576 0 0.0011725667152089087 0.00017922126025189829 0 0.0011886270782824374 0.00016795735483527576 0 0.0011725667152089087 0.00017922126025189829 0 0.001200848102607982 0.00021178654409421667 0 0.0011725667152089087 0.00017922126025189829 0 0.001200848102607982 0.00021178654409421667 0 0.0011783268406081919 0.00022287427160040145 0 0.001200848102607982 0.00021178654409421667 0 0.0013075803685792646 0.00034034897873008849 0 0.0013342600187778015 0.00028342946194749829 0 0.0043691273589784412 -0.00055587819192874242 0 0.0044589203932990477 -0.00067602237517576011 0 0.0045106020762927931 -0.00063402840406158413 0 0.0011610039158583925 0.00014374488710639527 0 0.0011725667152089087 0.00017922126025189829 0 0.0011783268406081919 0.00022287427160040145 0 0.0011783268406081919 0.00022287427160040145 0 0.0012014263913915407 0.0002625026879613196 0 0.0011699023542751977 0.00030628356628620198 0 0.001200848102607982 0.00021178654409421667 0 0.0011783268406081919 0.00022287427160040145 0 0.0012014263913915407 0.0002625026879613196 0 0.0013479705381008102 5.135423851322015e-05 0 0.0028906042170179333 0.00060093465064293668 0 0.001200848102607982 0.00021178654409421667 0 0.0013096952934833202 0.00057928173667107826 0 0.0013240859558945246 0.00044274607524741409 0 0.001200848102607982 0.00021178654409421667 0 0.0012014263913915407 0.0002625026879613196 0 0.0012518367970434578 0.00030211120469652414 0 0.001200848102607982 0.00021178654409421667 0 0.0013240859558945246 0.00044274607524741409 0 0.0013075803685792646 0.00034034897873008849 0 0.0012014263913915407 0.0002625026879613196 0 0.0012518367970434578 0.00030211120469652414 0 0.0011699023542751977 0.00030628356628620198 0 0.0058362852566864066 5.6600237502450622e-05 0 0.0058040112276087933 7.6120972333535014e-05 0 0.0057479839635933439 5.7927825796097563e-05 0 0.0028906042170179333 0.00060093465064293668 0 0.0043110913526736381 -0.00022047214589153275 0 0.0058362852566864066 5.6600237502450622e-05 0 0.0058229733065087034 9.3234915312765613e-05 0 0.0058040112276087933 7.6120972333535014e-05 0 0.0057969633751603026 9.0177772437453411e-05 0 0.0058040112276087933 7.6120972333535014e-05 0 0.0057769762541374954 8.0922575166885008e-05 0 0.0058229733065087034 9.3234915312765613e-05 0 0.0058093330222876351 9.1875424291640203e-05 0 0.0058040112276087933 7.6120972333535014e-05 0 0.0057969633751603026 9.0177772437453411e-05 0 0.0058093330222876351 9.1875424291640203e-05 0 0.0058040112276087933 7.6120972333535014e-05 0 0.0058040112276087933 7.6120972333535014e-05 0 0.0057479839635933439 5.7927825796097563e-05 0 0.0057769762541374954 8.0922575166885008e-05 0 0.0057479839635933439 5.7927825796097563e-05 0 0.0057443811891206599 8.1061418958736385e-05 0 0.0057769762541374954 8.0922575166885008e-05 0 0.0043110913526736381 -0.00022047214589153275 0 0.0044624754086089284 -0.00021014290530597536 0 0.0057443811891206599 8.1061418958736385e-05 0 0.0057769762541374954 8.0922575166885008e-05 0 0.0057789013300718383 0.0001022750879921564 0 0.0057969633751603026 9.0177772437453411e-05 0 0.0057769762541374954 8.0922575166885008e-05 0 0.0057789013300718383 0.0001022750879921564 0 0.0057789013300718383 0.0001022750879921564 0 0.0057743248513323665 0.0001326994255697378 0 0.005807930388938844 0.00011015794461498558 0 0.0057443811891206599 8.1061418958736385e-05 0 0.0057743248513323665 0.0001326994255697378 0 0.005707294255817669 0.00014068448813394659 0 0.0057443811891206599 8.1061418958736385e-05 0 0.0057789013300718383 0.0001022750879921564 0 0.0057743248513323665 0.0001326994255697378 0 0.0058362852566864066 5.6600237502450622e-05 0 0.0058229733065087034 9.3234915312765613e-05 0 0.0058411479713600997 0.00013772558029183563 0 0.0057743248513323665 0.0001326994255697378 0 0.0058411479713600997 0.00013772558029183563 0 0.005807930388938844 0.00011015794461498558 0 0.0058229733065087034 9.3234915312765613e-05 0 0.0058411479713600997 0.00013772558029183563 0 0.005807930388938844 0.00011015794461498558 0 0.0057969633751603026 9.0177772437453411e-05 0 0.0058093330222876351 9.1875424291640203e-05 0 0.005807930388938844 0.00011015794461498558 0 0.0058229733065087034 9.3234915312765613e-05 0 0.0058093330222876351 9.1875424291640203e-05 0 0.005807930388938844 0.00011015794461498558 0 0.0057969633751603026 9.0177772437453411e-05 0 0.0057789013300718383 0.0001022750879921564 0 0.005807930388938844 0.00011015794461498558 0 0.0057443811891206599 8.1061418958736385e-05 0 0.0056516953623514223 0.00010173014776978956 0 0.005707294255817669 0.00014068448813394659 0 0.0043110913526736381 -0.00022047214589153275 0 0.0054346176965390366 -0.00033843885847605504 0 0.0057472601325015815 6.2531587064830181e-05 0 0.0057443811891206599 8.1061418958736385e-05 0 0.0056516953623514223 0.00010173014776978956 0 0.0057472601325015815 6.2531587064830181e-05 0 0.0056516953623514223 0.00010173014776978956 0 0.0055851125482492383 4.7980853008300155e-05 0 0.0044242572836248051 -0.00076455021328977486 0 0.0045459534359908434 -0.00070572709138477395 0 0.0047509477133150678 -0.00075589649075151586 0 0.0056458855900286924 0.00015003126979212312 0 0.0056516953623514223 0.00010173014776978956 0 0.005707294255817669 0.00014068448813394659 0 0.0045459534359908434 -0.00070572709138477395 0 0.0046005613042670746 -0.00067859048745239742 0 0.0045106020762927931 -0.00063402840406158413 0 0.0046005613042670746 -0.00067859048745239742 0 0.0045106020762927931 -0.00063402840406158413 0 0.004613306102542388 -0.00051641900664873707 0 0.0045459534359908434 -0.00070572709138477395 0 0.0044589203932990477 -0.00067602237517576011 0 0.0045106020762927931 -0.00063402840406158413 0 0.0044242572836248051 -0.00076455021328977486 0 0.0045459534359908434 -0.00070572709138477395 0 0.0044589203932990477 -0.00067602237517576011 0 0.004616649743879553 -0.00067467847523309458 0 0.0048534064306932868 -0.00061574048824543457 0 0.0046005613042670746 -0.00067859048745239742 0 0.0048259075685829775 -0.00062764490232644632 0 0.004613306102542388 -0.00051641900664873707 0 0.0046005613042670746 -0.00067859048745239742 0 0.0047509477133150678 -0.00075589649075151586 0 0.0048920585250586714 -0.00060382564234270984 0 0.0045459534359908434 -0.00070572709138477395 0 0.0046005613042670746 -0.00067859048745239742 0 0.0047509477133150678 -0.00075589649075151586 0 0.0056516953623514223 0.00010173014776978956 0 0.0055851125482492383 4.7980853008300155e-05 0 0.0055787414003091703 8.8169614446885708e-05 0 0.0054346176965390366 -0.00033843885847605504 0 0.0053672501601515392 -0.00028935230543895737 0 0.0055799580607851116 0.00014131473433041578 0 0.0056516953623514223 0.00010173014776978956 0 0.0055787414003091703 8.8169614446885708e-05 0 0.0055799580607851116 0.00014131473433041578 0 0.0056458855900286924 0.00015003126979212312 0 0.0056516953623514223 0.00010173014776978956 0 0.0055668606700731279 4.2844933269684676e-05 0 0.0055245178904713959 7.1706487579078316e-05 0 0.0054310404658746382 -1.7481680317100503e-05 0 0.0053672501601515392 -0.00028935230543895737 0 0.0054914047962548269 -5.3308614073363941e-05 0 0.0055156459988343213 0.00016338628590525033 0 0.0055245178904713959 7.1706487579078316e-05 0 0.0054609905974508828 7.0162100665045673e-05 0 0.0055799580607851116 0.00014131473433041578 0 0.0055787414003091703 8.8169614446885708e-05 0 0.0055245178904713959 7.1706487579078316e-05 0 0.0055851125482492383 4.7980853008300155e-05 0 0.0055668606700731279 4.2844933269684676e-05 0 0.0055245178904713959 7.1706487579078316e-05 0 0.0055851125482492383 4.7980853008300155e-05 0 0.0055787414003091703 8.8169614446885708e-05 0 0.0055245178904713959 7.1706487579078316e-05 0 0.0047976579155889773 -0.00075394148026346761 0 0.0048920585250586714 -0.00060382564234270984 0 0.0050136522188973347 -0.00064993196728553744 0 0.0056335885627269901 -0.00014547100990317067 0 0.0055062017039117454 -0.00020031137384597157 0 0.0054671605389172914 -0.00013872796512343657 0 0.0053672501601515392 -0.00028935230543895737 0 0.0052215556882762122 -0.00045029872695523859 0 0.0047509477133150678 -0.00075589649075151586 0 0.0047976579155889773 -0.00075394148026346761 0 0.0048920585250586714 -0.00060382564234270984 0 0.0048259075685829775 -0.00062764490232644632 0 0.0048203030681405233 -0.00048460549633833955 0 0.004613306102542388 -0.00051641900664873707 0 0.0048259075685829775 -0.00062764490232644632 0 0.0048203030681405233 -0.00048460549633833955 0 0.0049094544774962584 -0.00055402948767604196 0 0.0045071053714543464 -0.0009521001731671205 0 0.0045518192355338905 -0.0010139061794901775 0 0.0042800589271993709 -0.0014154795428992391 0 0.0040726051997254358 -0.0014467891874360215 0 0.0041392287140570956 -0.0013417308434738131 0 0.0041137536017842279 -0.001221934817500814 0 0.0040059957394931855 -0.0012642877370166608 0 0.0041392287140570956 -0.0013417308434738131 0 0.0042342935607859906 -0.0012529023765645386 0 0.0041137536017842279 -0.001221934817500814 0 0.0041392287140570956 -0.0013417308434738131 0 0.0042342935607859906 -0.0012529023765645386 0 0.0042800589271993709 -0.0014154795428992391 0 0.0043803374170268104 -0.0012664473338759676 0 0.0042342935607859906 -0.0012529023765645386 0 0.0042800589271993709 -0.0014154795428992391 0 0.0041392287140570956 -0.0013417308434738131 0 0.0044845389966924332 -0.0011568889412727895 0 0.0043803374170268104 -0.0012664473338759676 0 0.0045511653839367611 -0.0013351103960488524 0 0.0042800589271993709 -0.0014154795428992391 0 0.0043803374170268104 -0.0012664473338759676 0 0.0045511653839367611 -0.0013351103960488524 0 0.0045071053714543464 -0.0009521001731671205 0 0.0047765276546605819 -0.00090073173079276473 0 0.0049926085554751268 -0.00047748678144740234 0 0.0050455345130327742 -0.00051518354543359771 0 0.0050802507113131296 -0.00050718668112391277 0 0.0046858384274435939 -0.0010991829727018017 0 0.0045511653839367611 -0.0013351103960488524 0 0.0048580377983115704 -0.0011043870458834978 0 0.0047765276546605819 -0.00090073173079276473 0 0.0049351848616409058 -0.00080180066991998415 0 0.0049926085554751268 -0.00047748678144740234 0 0.0050044212723190373 -0.00052049577372796781 0 0.0050455345130327742 -0.00051518354543359771 0 0.0050455345130327742 -0.00051518354543359771 0 0.0050096700568643083 -0.00056627731869992801 0 0.0050763449738257995 -0.00050530535176758495 0 0.0050879691637110303 -0.0005587531950064261 0 0.0051926199683832884 -0.00044477698579137016 0 0.0051566861506550368 -0.00054152992727474127 0 0.0052110771474333734 -0.00056235437534620392 0 0.0053938590081920009 -0.00048547561940687201 0 0.0050044212723190373 -0.00052049577372796781 0 0.0050455345130327742 -0.00051518354543359771 0 0.0050096700568643083 -0.00056627731869992801 0 0.0050044212723190373 -0.00052049577372796781 0 0.0050096700568643083 -0.00056627731869992801 0 0.0049625459314865134 -0.0005249696548849603 0 0.0048203030681405233 -0.00048460549633833955 0 0.0049926085554751268 -0.00047748678144740234 0 0.0049625459314865134 -0.0005249696548849603 0 0.0048203030681405233 -0.00048460549633833955 0 0.0049625459314865134 -0.0005249696548849603 0 0.0049094544774962584 -0.00055402948767604196 0 0.0048259075685829775 -0.00062764490232644632 0 0.0050096700568643083 -0.00056627731869992801 0 0.0049094544774962584 -0.00055402948767604196 0 0.0050096700568643083 -0.00056627731869992801 0 0.0049625459314865134 -0.0005249696548849603 0 0.0049094544774962584 -0.00055402948767604196 0 0.0049926085554751268 -0.00047748678144740234 0 0.0050044212723190373 -0.00052049577372796781 0 0.0049625459314865134 -0.0005249696548849603 0 0.0052215556882762122 -0.00045029872695523859 0 0.0053037736507781374 -0.00041166356758851318 0 0.0051566861506550368 -0.00054152992727474127 0 0.0050136522188973347 -0.00064993196728553744 0 0.0052110771474333734 -0.00056235437534620392 0 0.0048534064306932868 -0.00061574048824543457 0 0.0050879691637110303 -0.0005587531950064261 0 0.0055062017039117454 -0.00020031137384597157 0 0.0054671605389172914 -0.00013872796512343657 0 0.005351564463081499 -0.00027688708337839167 0 0.0048920585250586714 -0.00060382564234270984 0 0.0051566861506550368 -0.00054152992727474127 0 0.0050136522188973347 -0.00064993196728553744 0 0.0053509991684182667 6.7695137231470363e-05 0 0.0054310404658746382 -1.7481680317100503e-05 0 0.0054609905974508828 7.0162100665045673e-05 0 0.0055245178904713959 7.1706487579078316e-05 0 0.0054310404658746382 -1.7481680317100503e-05 0 0.0054609905974508828 7.0162100665045673e-05 0 0.0053509991684182667 6.7695137231470363e-05 0 0.0054310404658746382 -1.7481680317100503e-05 0 0.0052102640027123876 -0.00011986746839656129 0 0.0054914047962548269 -5.3308614073363941e-05 0 0.0051939665857318098 -0.00012157038252575374 0 0.0054671605389172914 -0.00013872796512343657 0 0.005351564463081499 -0.00027688708337839167 0 0.0052102640027123876 -0.00011986746839656129 0 0.005351564463081499 -0.00027688708337839167 0 0.0052281752239201592 -0.00025613386402724365 0 0.0052102640027123876 -0.00011986746839656129 0 0.0052281752239201592 -0.00025613386402724365 0 0.0052102640027123876 -0.00011986746839656129 0 0.0051090663921286687 -0.00027567505261110267 0 0.0053509991684182667 6.7695137231470363e-05 0 0.0051768612517459379 7.0062490420388118e-05 0 0.0052102640027123876 -0.00011986746839656129 0 0.0051768612517459379 7.0062490420388118e-05 0 0.0052102640027123876 -0.00011986746839656129 0 0.0049999825847694291 -0.00017390924741620772 0 0.0049999948063396199 0.00011829718545816281 0 0.0051768612517459379 7.0062490420388118e-05 0 0.0049999825847694291 -0.00017390924741620772 0 0.0049999825847694291 -0.00017390924741620772 0 0.0051090663921286687 -0.00027567505261110267 0 0.0050139687591801482 -0.00042791927905318471 0 0.0052102640027123876 -0.00011986746839656129 0 0.0049999825847694291 -0.00017390924741620772 0 0.0051090663921286687 -0.00027567505261110267 0 0.0050139687591801482 -0.00042791927905318471 0 0.0049999950435318345 -0.00046615514601429836 0 0.0051873459156605564 -0.00038699101168745959 0 0.0049999618143979534 -0.0004662035742138993 0 0.0051926199683832884 -0.00044477698579137016 0 0.0049999723748667211 -0.00046637190819083979 0 0.0050763449738257995 -0.00050530535176758495 0 0.0050490143365128342 -0.00051392560850252542 0 0.0049999825847694291 -0.00017390924741620772 0 0.0050139687591801482 -0.00042791927905318471 0 0.0049999950435318345 -0.00046615514601429836 0 0.0050299869435341338 -0.0004199129215229525 0 0.0051926199683832884 -0.00044477698579137016 0 0.0051090663921286687 -0.00027567505261110267 0 0.0050139687591801482 -0.00042791927905318471 0 0.0051712061643684167 -0.0003695709566106196 0 0.0050455345130327742 -0.00051518354543359771 0 0.0050763449738257995 -0.00050530535176758495 0 0.0050802507113131296 -0.00050718668112391277 0 0.005351564463081499 -0.00027688708337839167 0 0.0052281752239201592 -0.00025613386402724365 0 0.0051712061643684167 -0.0003695709566106196 0 0.0052281752239201592 -0.00025613386402724365 0 0.0051090663921286687 -0.00027567505261110267 0 0.0051712061643684167 -0.0003695709566106196 0 0.0053037736507781374 -0.00041166356758851318 0 0.0051926199683832884 -0.00044477698579137016 0 0.0050763449738257995 -0.00050530535176758495 0 0.0050802507113131296 -0.00050718668112391277 0 0.0050490143365128342 -0.00051392560850252542 0 0.0050802507113131296 -0.00050718668112391277 0 0.005000010948642615 -0.00062101030202037189 0 0.0050490143365128342 -0.00051392560850252542 0 0.0049351848616409058 -0.00080180066991998415 0 0.0049999185024660808 -0.00062130627021777065 0 0.0049999723748667211 -0.00046637190819083979 0 0.005000010948642615 -0.00062101030202037189 0 0.0050490143365128342 -0.00051392560850252542 0 0.00249552514999349 -0.00074095240148848625 0 0.0023039241013786804 -0.00062628432629985721 0 0.0022784595454012138 -0.00094197032291245088 0 0.0023039241013786804 -0.00062628432629985721 0 0.0022784595454012138 -0.00094197032291245088 0 0.002193008975024246 -0.00075378448787666449 0 0.0023039241013786804 -0.00062628432629985721 0 0.002193008975024246 -0.00075378448787666449 0 0.0021693406627289998 -0.00027093166020847049 0 0.0021871098368702268 -0.00070733277961059307 0 0.0023010930756778574 -0.00028293672340855383 0 0.00249552514999349 -0.00074095240148848625 0 0.0023039241013786804 -0.00062628432629985721 0 0.0024844606560662018 -0.000402632470620114 0 0.0023039241013786804 -0.00062628432629985721 0 0.0024844606560662018 -0.000402632470620114 0 0.0021693406627289998 -0.00027093166020847049 0 0.0024844606560662018 -0.000402632470620114 0 0.00281365943058672 -0.00043622364183160231 0 0.0026660091443507015 -0.00020820771848601037 0 0.00249552514999349 -0.00074095240148848625 0 0.0024844606560662018 -0.000402632470620114 0 0.00281365943058672 -0.00043622364183160231 0 0.0010817238146843024 -0.0014858552289702615 0 0.0011183312485362072 -0.0014035072862492476 0 0.0010344682421071429 -0.0014446495470048463 0 0.0011183312485362072 -0.0014035072862492476 0 0.0010344682421071429 -0.0014446495470048463 0 0.00096429339280863834 -0.001342001661777873 0 0.0019345088826631001 -0.0011048595434313812 0 0.0019539649737621225 -0.00096054096108835968 0 0.0013648600521044406 -0.0014828243692862873 0 0.0010817238146843024 -0.0014858552289702615 0 0.0011183312485362072 -0.0014035072862492476 0 0.0013648600521044406 -0.0014828243692862873 0 0.0011183312485362072 -0.0014035072862492476 0 0.0013806032440813465 -0.0012297193863754607 0 0.0011183312485362072 -0.0014035072862492476 0 0.00097970319943505458 -0.0012011661713583028 0 0.0013806032440813465 -0.0012297193863754607 0 0.0011183312485362072 -0.0014035072862492476 0 0.00097970319943505458 -0.0012011661713583028 0 0.00096429339280863834 -0.001342001661777873 0 0.0013797572116653796 -0.00085037552205143106 0 0.00097970319943505458 -0.0012011661713583028 0 0.0013806032440813465 -0.0012297193863754607 0 0.0017695162583747281 -0.00095404798041880774 0 0.0013806032440813465 -0.0012297193863754607 0 0.0017583397365661182 -0.0013300512734271443 0 0.0013648600521044406 -0.0014828243692862873 0 0.0013806032440813465 -0.0012297193863754607 0 0.0017583397365661182 -0.0013300512734271443 0 0.0019345088826631001 -0.0011048595434313812 0 0.0020187873762745291 -0.0011273521538161144 0 0.0017695162583747281 -0.00095404798041880774 0 0.0017583397365661182 -0.0013300512734271443 0 0.002144147633395454 -0.0010369981103917883 0 0.0020187873762745291 -0.0011273521538161144 0 0.0021368254479150533 -0.0010456889548387379 0 0.0023120634822535609 -0.00094705975665643129 0 0.002144147633395454 -0.0010369981103917883 0 0.0022422421673414187 -0.0010133779533517066 0 0.0022422421673414187 -0.0010133779533517066 0 0.0021742812322281739 -0.00094772196300122325 0 0.0022092550425884508 -0.00098141239309386982 0 0.002144147633395454 -0.0010369981103917883 0 0.0022422421673414187 -0.0010133779533517066 0 0.0021742812322281739 -0.00094772196300122325 0 0.0022784595454012138 -0.00094197032291245088 0 0.002144147633395454 -0.0010369981103917883 0 0.0021742812322281739 -0.00094772196300122325 0 0.0025629537000461272 -0.0008885170437690522 0 0.0026368401320755251 -0.00098278348030403709 0 0.0024086356572680105 -0.0010049457462384637 0 0.0026368401320755251 -0.00098278348030403709 0 0.0024086356572680105 -0.0010049457462384637 0 0.0025334519331391601 -0.0010925061990225114 0 0.0025629537000461272 -0.0008885170437690522 0 0.0023120634822535609 -0.00094705975665643129 0 0.0024086356572680105 -0.0010049457462384637 0 0.0023120634822535609 -0.00094705975665643129 0 0.0022422421673414187 -0.0010133779533517066 0 0.0024086356572680105 -0.0010049457462384637 0 0.0022422421673414187 -0.0010133779533517066 0 0.0023262763939655455 -0.0010617353412872373 0 0.0022092550425884508 -0.00098141239309386982 0 0.0022422421673414187 -0.0010133779533517066 0 0.0024086356572680105 -0.0010049457462384637 0 0.0023262763939655455 -0.0010617353412872373 0 0.0024086356572680105 -0.0010049457462384637 0 0.0023262763939655455 -0.0010617353412872373 0 0.0025334519331391601 -0.0010925061990225114 0 0.0023262763939655455 -0.0010617353412872373 0 0.0025334519331391601 -0.0010925061990225114 0 0.0024315414761499634 -0.0012033106633840742 0 0.0027123554372813878 -0.0012192592257720826 0 0.0025334519331391601 -0.0010925061990225114 0 0.0024315414761499634 -0.0012033106633840742 0 0.0027809469095083699 -0.0010888169564431816 0 0.0026368401320755251 -0.00098278348030403709 0 0.0025334519331391601 -0.0010925061990225114 0 0.0024042712256057228 -0.00096905328180340905 0 0.0024537976044792928 -0.00124589299511942 0 0.0027123554372813878 -0.0012192592257720826 0 0.0025170929436826237 -0.0014662499164304133 0 0.0024315414761499634 -0.0012033106633840742 0 0.0023262763939655455 -0.0010617353412872373 0 0.0024315414761499634 -0.0012033106633840742 0 0.0022726094142564999 -0.0010420697259770366 0 0.0023638041461803085 -0.0011308689216713889 0 0.0024315414761499634 -0.0012033106633840742 0 0.0022726094142564999 -0.0010420697259770366 0 0.0022726094142564999 -0.0010420697259770366 0 0.0021256266667784474 -0.00084878188832067391 0 0.0022092550425884508 -0.00098141239309386982 0 0.0023262763939655455 -0.0010617353412872373 0 0.0022726094142564999 -0.0010420697259770366 0 0.0022092550425884508 -0.00098141239309386982 0 0.0022726094142564999 -0.0010420697259770366 0 0.0021769734084549973 -0.0009295905909440785 0 0.0021256266667784474 -0.00084878188832067391 0 0.0023638041461803085 -0.0011308689216713889 0 0.0022726094142564999 -0.0010420697259770366 0 0.0021769734084549973 -0.0009295905909440785 0 0.0011742861789899796 -0.00029617808988852341 0 0.0012750736111240843 -0.00073046646132982095 0 0.0014381455023171207 -0.00033293712036780568 0 0.0024042712256057228 -0.00096905328180340905 0 0.0018175421130123949 -0.00076079979218976251 0 0.0024764119597604933 -0.00083722906534831876 0 0.0024042712256057228 -0.00096905328180340905 0 0.0012750736111240843 -0.00073046646132982095 0 0.0016218753342130395 -0.00058420074584925855 0 0.0014381455023171207 -0.00033293712036780568 0 0.0021742812322281739 -0.00094772196300122325 0 0.002193008975024246 -0.00075378448787666449 0 0.0021256266667784474 -0.00084878188832067391 0 0.0022784595454012138 -0.00094197032291245088 0 0.0021742812322281739 -0.00094772196300122325 0 0.002193008975024246 -0.00075378448787666449 0 0.0021742812322281739 -0.00094772196300122325 0 0.0021256266667784474 -0.00084878188832067391 0 0.0022092550425884508 -0.00098141239309386982 0 0.0021769734084549973 -0.0009295905909440785 0 0.0021256266667784474 -0.00084878188832067391 0 0.0020175659348259959 -0.00049267112480404988 0 0.002193008975024246 -0.00075378448787666449 0 0.0021256266667784474 -0.00084878188832067391 0 0.0020175659348259959 -0.00049267112480404988 0 0.0018175421130123949 -0.00076079979218976251 0 0.002090554781226028 -0.00051418583035254281 0 0.002193008975024246 -0.00075378448787666449 0 0.0020175659348259959 -0.00049267112480404988 0 0.0024239203581189286 -0.00029572086955914026 0 0.0020175659348259959 -0.00049267112480404988 0 0.0021690587184480716 -9.3618685608729183e-05 0 0.0024239203581189286 -0.00029572086955914026 0 0.0020175659348259959 -0.00049267112480404988 0 0.0018716776776407996 6.1663593672260436e-05 0 0.0021690587184480716 -9.3618685608729183e-05 0 0.0020175659348259959 -0.00049267112480404988 0 0.0018716776776407996 6.1663593672260436e-05 0 0.0016058727181373544 -0.00016280642880673539 0 0.0018716776776407996 6.1663593672260436e-05 0 0.0021351212482412073 0.00020049536123232104 0 0.0021690587184480716 -9.3618685608729183e-05 0 0.0021351212482412073 0.00020049536123232104 0 0.0021690587184480716 -9.3618685608729183e-05 0 0.0023273058774586409 0.00010097820820152073 0 0.0011742861789899796 -0.00029617808988852341 0 0.0014381455023171207 -0.00033293712036780568 0 0.001377799428338482 -7.5442490166758216e-05 0 0.0011742861789899796 -0.00029617808988852341 0 0.0012314627035629885 -2.8659093954062539e-05 0 0.001377799428338482 -7.5442490166758216e-05 0 0.0016218753342130395 -0.00058420074584925855 0 0.0014381455023171207 -0.00033293712036780568 0 0.0016058727181373544 -0.00016280642880673539 0 0.0016218753342130395 -0.00058420074584925855 0 0.0020175659348259959 -0.00049267112480404988 0 0.0016058727181373544 -0.00016280642880673539 0 0.0014381455023171207 -0.00033293712036780568 0 0.0016058727181373544 -0.00016280642880673539 0 0.001377799428338482 -7.5442490166758216e-05 0 0.0018716776776407996 6.1663593672260436e-05 0 0.0016058727181373544 -0.00016280642880673539 0 0.0015388535830296048 0.00018521260191237181 0 0.0016058727181373544 -0.00016280642880673539 0 0.0015388535830296048 0.00018521260191237181 0 0.001377799428338482 -7.5442490166758216e-05 0 0.0015388535830296048 0.00018521260191237181 0 0.001377799428338482 -7.5442490166758216e-05 0 0.0012887811322651003 0.00014387396157854683 0 0.0012314627035629885 -2.8659093954062539e-05 0 0.0012178975762113799 8.7447933023986811e-05 0 0.0012887811322651003 0.00014387396157854683 0 0.0012314627035629885 -2.8659093954062539e-05 0 0.001377799428338482 -7.5442490166758216e-05 0 0.0012887811322651003 0.00014387396157854683 0 0.0015388535830296048 0.00018521260191237181 0 0.0012887811322651003 0.00014387396157854683 0 0.0013722800801313434 0.00043347388303860228 0 0.0013978177603149223 0.00042860703918797953 0 0.0013342600187778015 0.00028342946194749829 0 0.0016612495848434764 0.00044330005673822408 0 0.0013978177603149223 0.00042860703918797953 0 0.0016612495848434764 0.00044330005673822408 0 0.0015039600082370759 0.00052657955456027357 0 0.0013978177603149223 0.00042860703918797953 0 0.0013240859558945246 0.00044274607524741409 0 0.0013075803685792646 0.00034034897873008849 0 0.0013978177603149223 0.00042860703918797953 0 0.0013240859558945246 0.00044274607524741409 0 0.0014055694094971156 0.00051992773014409373 0 0.0013978177603149223 0.00042860703918797953 0 0.0015039600082370759 0.00052657955456027357 0 0.0014055694094971156 0.00051992773014409373 0 0.0013978177603149223 0.00042860703918797953 0 0.0013075803685792646 0.00034034897873008849 0 0.0013342600187778015 0.00028342946194749829 0 0.0013345941648992181 0.00019517971032799922 0 0.0015069319578136929 0.00044003300316599003 0 0.0012887811322651003 0.00014387396157854683 0 0.0013342600187778015 0.00028342946194749829 0 0.0016612495848434764 0.00044330005673822408 0 0.0012296645017252901 0.00015742435907310597 0 0.0012887811322651003 0.00014387396157854683 0 0.0013342600187778015 0.00028342946194749829 0 0.0015388535830296048 0.00018521260191237181 0 0.0013722800801313434 0.00043347388303860228 0 0.0015972043137829932 0.00047241154944596691 0 0.0015388535830296048 0.00018521260191237181 0 0.0015972043137829932 0.00047241154944596691 0 0.0017458144173134809 0.00037660586348137046 0 0.0015972043137829932 0.00047241154944596691 0 0.0016451672888233035 0.00066174994929103228 0 0.0017975314021913976 0.00057907349176969651 0 0.0015972043137829932 0.00047241154944596691 0 0.0016451672888233035 0.00066174994929103228 0 0.0015323732103225385 0.00059766091288293989 0 0.0016274735661463381 0.00077237946499842823 0 0.0015795655554844889 0.00078017023439146658 0 0.0015575494444269619 0.00070889143031516047 0 0.0015795655554844889 0.00078017023439146658 0 0.0015575494444269619 0.00070889143031516047 0 0.0014953346279943135 0.00073705470804069553 0 0.0016451672888233035 0.00066174994929103228 0 0.0016274735661463381 0.00077237946499842823 0 0.0015575494444269619 0.00070889143031516047 0 0.0016451672888233035 0.00066174994929103228 0 0.0015575494444269619 0.00070889143031516047 0 0.0015323732103225385 0.00059766091288293989 0 0.0015575494444269619 0.00070889143031516047 0 0.0014953346279943135 0.00073705470804069553 0 0.0015323732103225385 0.00059766091288293989 0 0.0018693638089865338 0.00098066579635790207 0 0.0019558097184264735 0.00085620615354692169 0 0.0017749365525986866 0.000866338494615292 0 0.0016612495848434764 0.00044330005673822408 0 0.0019558097184264735 0.00085620615354692169 0 0.0017749365525986866 0.000866338494615292 0 0.0013722800801313434 0.00043347388303860228 0 0.0014953346279943135 0.00073705470804069553 0 0.0015323732103225385 0.00059766091288293989 0 0.0013722800801313434 0.00043347388303860228 0 0.0015972043137829932 0.00047241154944596691 0 0.0015323732103225385 0.00059766091288293989 0 0.0015069319578136929 0.00044003300316599003 0 0.0017238278793247079 0.00088041368092397587 0 0.0015657387408696077 0.0013726285331694895 0 0.0013096952934833202 0.00057928173667107826 0 0.0014908529679032822 0.00069368695947764729 0 0.0059238538012375691 0.00026500881908449311 0 0.0058362852566864066 5.6600237502450622e-05 0 0.0058411479713600997 0.00013772558029183563 0 0.0016612495848434764 0.00044330005673822408 0 0.0015981196256690342 0.00061194013261923075 0 0.0017749365525986866 0.000866338494615292 0 0.0015981196256690342 0.00061194013261923075 0 0.0017749365525986866 0.000866338494615292 0 0.0014908529679032822 0.00069368695947764729 0 0.0016612495848434764 0.00044330005673822408 0 0.0015981196256690342 0.00061194013261923075 0 0.0015039600082370759 0.00052657955456027357 0 0.0015981196256690342 0.00061194013261923075 0 0.0014908529679032822 0.00069368695947764729 0 0.0015039600082370759 0.00052657955456027357 0 0.0014908529679032822 0.00069368695947764729 0 0.0015039600082370759 0.00052657955456027357 0 0.0014055694094971156 0.00051992773014409373 0 0.0013096952934833202 0.00057928173667107826 0 0.0014908529679032822 0.00069368695947764729 0 0.0014055694094971156 0.00051992773014409373 0 0.0013096952934833202 0.00057928173667107826 0 0.0013240859558945246 0.00044274607524741409 0 0.0014055694094971156 0.00051992773014409373 0 0.0021351212482412073 0.00020049536123232104 0 0.0019925583795395866 0.00055852479696698559 0 0.0023298326099110925 0.00041740144272436029 0 0.0018716776776407996 6.1663593672260436e-05 0 0.0021351212482412073 0.00020049536123232104 0 0.0019925583795395866 0.00055852479696698559 0 0.0017458144173134809 0.00037660586348137046 0 0.0017975314021913976 0.00057907349176969651 0 0.0019925583795395866 0.00055852479696698559 0 0.0018716776776407996 6.1663593672260436e-05 0 0.0017458144173134809 0.00037660586348137046 0 0.0019925583795395866 0.00055852479696698559 0 0.0018716776776407996 6.1663593672260436e-05 0 0.0015388535830296048 0.00018521260191237181 0 0.0017458144173134809 0.00037660586348137046 0 0.0015972043137829932 0.00047241154944596691 0 0.0017458144173134809 0.00037660586348137046 0 0.0017975314021913976 0.00057907349176969651 0 0.0017975314021913976 0.00057907349176969651 0 0.0017880071607613666 0.00079053605798770892 0 0.0019925583795395866 0.00055852479696698559 0 0.0016451672888233035 0.00066174994929103228 0 0.0017975314021913976 0.00057907349176969651 0 0.0017880071607613666 0.00079053605798770892 0 0.0016451672888233035 0.00066174994929103228 0 0.0016274735661463381 0.00077237946499842823 0 0.0017880071607613666 0.00079053605798770892 0 0.002031948175036873 0.00088479575242902107 0 0.0017880071607613666 0.00079053605798770892 0 0.0019925583795395866 0.00055852479696698559 0 0.002031948175036873 0.00088479575242902107 0 0.0019925583795395866 0.00055852479696698559 0 0.0022446764395355253 0.00076264589861896922 0 0.0024374710608033767 0.00094009691592251792 0 0.0024449480718234718 0.00064400956433378171 0 0.002594992967326167 0.00078991379758255875 0 0.0022446764395355253 0.00076264589861896922 0 0.0024374710608033767 0.00094009691592251792 0 0.0024449480718234718 0.00064400956433378171 0 0.0024449480718234718 0.00064400956433378171 0 0.0025826092315039731 0.00026848941144344156 0 0.002594992967326167 0.00078991379758255875 0 0.0024449480718234718 0.00064400956433378171 0 0.0023298326099110925 0.00041740144272436029 0 0.0025826092315039731 0.00026848941144344156 0 0.0022446764395355253 0.00076264589861896922 0 0.0024449480718234718 0.00064400956433378171 0 0.0023298326099110925 0.00041740144272436029 0 0.0019925583795395866 0.00055852479696698559 0 0.0022446764395355253 0.00076264589861896922 0 0.0023298326099110925 0.00041740144272436029 0 0.0021351212482412073 0.00020049536123232104 0 0.0023298326099110925 0.00041740144272436029 0 0.0023273058774586409 0.00010097820820152073 0 0.0023298326099110925 0.00041740144272436029 0 0.0023273058774586409 0.00010097820820152073 0 0.0025826092315039731 0.00026848941144344156 0 0.0023273058774586409 0.00010097820820152073 0 0.0025826092315039731 0.00026848941144344156 0 0.0024239203581189286 -0.00029572086955914026 0 0.0024526249978225061 0.00028314636033361295 0 0.0023010930756778574 -0.00028293672340855383 0 0.0023282979553643501 0.00029686681749172862 0 0.002459863733569529 -0.00010324219142208258 0 0.0021693406627289998 -0.00027093166020847049 0 0.0024844606560662018 -0.000402632470620114 0 0.002459863733569529 -0.00010324219142208258 0 0.0021693406627289998 -0.00027093166020847049 0 0.0021690587184480716 -9.3618685608729183e-05 0 0.0023273058774586409 0.00010097820820152073 0 0.0024239203581189286 -0.00029572086955914026 0 0.00281365943058672 -0.00043622364183160231 0 0.0028568233512890322 -9.3875772290803294e-05 0 0.0030756363706550267 -0.0001233539923260483 0 0.00281365943058672 -0.00043622364183160231 0 0.0028568233512890322 -9.3875772290803294e-05 0 0.0026660091443507015 -0.00020820771848601037 0 0.0028568233512890322 -9.3875772290803294e-05 0 0.0026660091443507015 -0.00020820771848601037 0 0.0026189751873854522 0.00017671306733558394 0 0.002459863733569529 -0.00010324219142208258 0 0.0026660091443507015 -0.00020820771848601037 0 0.0026189751873854522 0.00017671306733558394 0 0.0024844606560662018 -0.000402632470620114 0 0.002459863733569529 -0.00010324219142208258 0 0.0026660091443507015 -0.00020820771848601037 0 0.0023282979553643501 0.00029686681749172862 0 0.0026189751873854522 0.00017671306733558394 0 0.0026891868143885688 0.00054056512305327179 0 0.0023282979553643501 0.00029686681749172862 0 0.002459863733569529 -0.00010324219142208258 0 0.0026189751873854522 0.00017671306733558394 0 0.0026189751873854522 0.00017671306733558394 0 0.0026891868143885688 0.00054056512305327179 0 0.0028537832027879691 0.00054917858816531896 0 0.0026252173974740355 0.00019425617573410583 0 0.0028673081250583598 0.00033866484104343988 0 0.0028568233512890322 -9.3875772290803294e-05 0 0.0026189751873854522 0.00017671306733558394 0 0.0029820616899686706 0.00015140405609954266 0 0.0026891868143885688 0.00054056512305327179 0 0.0028305473733426143 0.00080399801286148607 0 0.0028537832027879691 0.00054917858816531896 0 0.0026891868143885688 0.00054056512305327179 0 0.002594992967326167 0.00078991379758255875 0 0.0028305473733426143 0.00080399801286148607 0 0.0024526249978225061 0.00028314636033361295 0 0.0025976241661957132 0.00074174651463392775 0 0.0023282979553643501 0.00029686681749172862 0 0.0026891868143885688 0.00054056512305327179 0 0.002594992967326167 0.00078991379758255875 0 0.0026841115267164472 0.0010929448268552138 0 0.0024374710608033767 0.00094009691592251792 0 0.002594992967326167 0.00078991379758255875 0 0.0026841115267164472 0.0010929448268552138 0 0.002594992967326167 0.00078991379758255875 0 0.0028305473733426143 0.00080399801286148607 0 0.0028495610452296716 0.0010651411557097297 0 0.0029570378423774473 0.00092509332696921081 0 0.0028305473733426143 0.00080399801286148607 0 0.0026841115267164472 0.0010929448268552138 0 0.0028495610452296716 0.0010651411557097297 0 0.0028305473733426143 0.00080399801286148607 0 0.0029251869499897628 0.0011697226075967724 0 0.0028495610452296716 0.0010651411557097297 0 0.0029570378423774473 0.00092509332696921081 0 0.0029251869499897628 0.0011697226075967724 0 0.0029570378423774473 0.00092509332696921081 0 0.003141190329474151 0.00092196042461775165 0 0.0029570378423774473 0.00092509332696921081 0 0.0030467101487443842 0.00071974708870990603 0 0.0028305473733426143 0.00080399801286148607 0 0.0029570378423774473 0.00092509332696921081 0 0.0030467101487443842 0.00071974708870990603 0 0.003141190329474151 0.00092196042461775165 0 0.0032493376986976485 0.00036727109156706601 0 0.0028673081250583598 0.00033866484104343988 0 0.0030467101487443842 0.00071974708870990603 0 0.0028305473733426143 0.00080399801286148607 0 0.0028537832027879691 0.00054917858816531896 0 0.0024331415435867852 0.0022702770156636334 0 0.002089368590408841 0.0024877610552450783 0 0.0021354634581575577 0.0027185471829977745 0 0.002089368590408841 0.0024877610552450783 0 0.0021354634581575577 0.0027185471829977745 0 0.0016991238111181283 0.0025985798902144305 0 0.0024331415435867852 0.0022702770156636334 0 0.0021453962839851027 0.0021554723054117938 0 0.002089368590408841 0.0024877610552450783 0 0.0029251869499897628 0.0011697226075967724 0 0.0032214554577176401 0.0011581371243414417 0 0.003141190329474151 0.00092196042461775165 0 0.0032214554577176401 0.0011581371243414417 0 0.003141190329474151 0.00092196042461775165 0 0.0033835224092820804 0.00082019326131667217 0 0.0028141867378375313 0.001794383619732922 0 0.0025092307452773762 0.0012170377436822107 0 0.0031651360644666775 0.00013817540501358323 0 0.0032327920105498426 0.00013784524439443413 0 0.0031907373755950728 6.7480244981154541e-05 0 0.0031651360644666775 0.00013817540501358323 0 0.0032230077901897235 0.00015667762142774027 0 0.0032327920105498426 0.00013784524439443413 0 0.0030467101487443842 0.00071974708870990603 0 0.003141190329474151 0.00092196042461775165 0 0.0033835224092820804 0.00082019326131667217 0 0.0032493376986976485 0.00036727109156706601 0 0.0025092307452773762 0.0012170377436822107 0 0.0025092307452773762 0.0012170377436822107 0 0.00094923845115263319 0.0019613846447529355 0 0.0016530220804929141 0.0013727266186147231 0 0.0015964742532358777 0.0014735092014220475 0 0.0013153815707106064 0.0012846818036609383 0 0.0025092307452773762 0.0012170377436822107 0 0.0013255159177915548 0.00046124640273715001 0 0.0013255159177915548 0.00046124640273715001 0 0.00022080428598284104 -0.00013285270072151641 0 0.0009748459389376941 -0.0013826775302151371 0 0.00097499793018005247 -0.0013766247317502731 0 0.00093795124388064595 -0.0013679494573152428 0 0.0013255159177915548 0.00046124640273715001 0 0.0021896760892986169 -0.00079145257309063972 0 0.00097499793018005247 -0.0013766247317502731 0 0.0010052694215727418 -0.0013823092800840837 0 0.0009861341716235364 -0.001371741149083807 0 0.0009748459389376941 -0.0013826775302151371 0 0.00097499793018005247 -0.0013766247317502731 0 0.0010052694215727418 -0.0013823092800840837 0 0.0010052694215727418 -0.0013823092800840837 0 0.0009861341716235364 -0.001371741149083807 0 0.0010090041852387781 -0.0013815347237572829 0 0.0009861341716235364 -0.001371741149083807 0 0.0010090041852387781 -0.0013815347237572829 0 0.00098146547718307793 -0.0013578815489173075 0 0.00097499793018005247 -0.0013766247317502731 0 0.0009861341716235364 -0.001371741149083807 0 0.00094889258310630338 -0.0013521350162247806 0 0.0009861341716235364 -0.001371741149083807 0 0.00098146547718307793 -0.0013578815489173075 0 0.00094889258310630338 -0.0013521350162247806 0 0.00097499793018005247 -0.0013766247317502731 0 0.00094889258310630338 -0.0013521350162247806 0 0.00093795124388064595 -0.0013679494573152428 0 0.0031651360644666775 0.00013817540501358323 0 0.0029820616899686706 0.00015140405609954266 0 0.0031038469818956654 7.2256453008412433e-05 0 0.0029820616899686706 0.00015140405609954266 0 0.0031038469818956654 7.2256453008412433e-05 0 0.0030756363706550267 -0.0001233539923260483 0 0.0031907373755950728 6.7480244981154541e-05 0 0.0031038469818956654 7.2256453008412433e-05 0 0.0030756363706550267 -0.0001233539923260483 0 0.0031651360644666775 0.00013817540501358323 0 0.0031907373755950728 6.7480244981154541e-05 0 0.0031038469818956654 7.2256453008412433e-05 0 0.0021896760892986169 -0.00079145257309063972 0 0.002038766115332994 -0.00075191606678478749 0 0.0010052694215727418 -0.0013823092800840837 0 0.0010090041852387781 -0.0013815347237572829 0 0.0010281948598040581 -0.0014004970767538293 0 0.0028568233512890322 -9.3875772290803294e-05 0 0.0029820616899686706 0.00015140405609954266 0 0.0030756363706550267 -0.0001233539923260483 0 0.0010817238146843024 -0.0014858552289702615 0 0.0010281948598040581 -0.0014004970767538293 0 0.0010344682421071429 -0.0014446495470048463 0 0.0010344682421071429 -0.0014446495470048463 0 0.0010206433859413632 -0.0013504245824878397 0 0.0010241484491661536 -0.0013912927186984332 0 0.0019539649737621225 -0.00096054096108835968 0 0.002038766115332994 -0.00075191606678478749 0 0.0010281948598040581 -0.0014004970767538293 0 0.0010344682421071429 -0.0014446495470048463 0 0.0010241484491661536 -0.0013912927186984332 0 0.0010344682421071429 -0.0014446495470048463 0 0.00086441128076714569 -0.0013739020387275942 0 0.00096429339280863834 -0.001342001661777873 0 0.0010259651643952292 -0.0014319989102456532 0 0.00094309818745689198 -0.0013630616571735396 0 0.0010206433859413632 -0.0013504245824878397 0 0.0010241484491661536 -0.0013912927186984332 0 0.0010039187595336245 -0.0013649309944739508 0 0.0010090041852387781 -0.0013815347237572829 0 0.0010281948598040581 -0.0014004970767538293 0 0.0010241484491661536 -0.0013912927186984332 0 0.0010090041852387781 -0.0013815347237572829 0 0.0010241484491661536 -0.0013912927186984332 0 0.0010039187595336245 -0.0013649309944739508 0 0.0010090041852387781 -0.0013815347237572829 0 0.00098146547718307793 -0.0013578815489173075 0 0.0010039187595336245 -0.0013649309944739508 0 0.00098146547718307793 -0.0013578815489173075 0 0.0010039187595336245 -0.0013649309944739508 0 0.00097500258967338975 -0.00132987014602293 0 0.00098146547718307793 -0.0013578815489173075 0 0.00094081290543870184 -0.0013202323494658163 0 0.00097500258967338975 -0.00132987014602293 0 0.00098146547718307793 -0.0013578815489173075 0 0.00094889258310630338 -0.0013521350162247806 0 0.00094081290543870184 -0.0013202323494658163 0 0.00094081290543870184 -0.0013202323494658163 0 0.00094970407654079996 -0.0012957717171264563 0 0.0009065810626272988 -0.0012431062726808025 0 0.00094081290543870184 -0.0013202323494658163 0 0.00094970407654079996 -0.0012957717171264563 0 0.00097500258967338975 -0.00132987014602293 0 0.00094970407654079996 -0.0012957717171264563 0 0.00097500258967338975 -0.00132987014602293 0 0.00097429984598929661 -0.0012885432422791005 0 0.00094309818745689198 -0.0013630616571735396 0 0.00088638261499853865 -0.0012925393369755062 0 0.0010206433859413632 -0.0013504245824878397 0 0.0010039187595336245 -0.0013649309944739508 0 0.00097500258967338975 -0.00132987014602293 0 0.0010206433859413632 -0.0013504245824878397 0 0.00097500258967338975 -0.00132987014602293 0 0.00097429984598929661 -0.0012885432422791005 0 0.00080483773314840525 -0.001275867386364273 0 0.0008213568173788035 -0.0012441175636742016 0 0.00085782472380213626 -0.0012824525947014468 0 0.00086441128076714569 -0.0013739020387275942 0 0.00080483773314840525 -0.001275867386364273 0 0.00079602823165605139 -0.0012933929416372905 0 0.00079602823165605139 -0.0012933929416372905 0 0.00079793025374951454 -0.0012568814684195805 0 0.00080284234635842784 -0.0012448019000292682 0 0.00094970407654079996 -0.0012957717171264563 0 0.00097429984598929661 -0.0012885432422791005 0 0.0009065810626272988 -0.0012431062726808025 0 0.00088638261499853865 -0.0012925393369755062 0 0.00085627631286772316 -0.0012463110346508689 0 0.00080483773314840525 -0.001275867386364273 0 0.00079602823165605139 -0.0012933929416372905 0 0.00079793025374951454 -0.0012568814684195805 0 0.00079793025374951454 -0.0012568814684195805 0 0.00081204242619368301 -0.0012438463779386873 0 0.00079340736872215718 -0.0012494088290262479 0 0.00080483773314840525 -0.001275867386364273 0 0.00079793025374951454 -0.0012568814684195805 0 0.00079340736872215718 -0.0012494088290262479 0 0.00080565747152969668 -0.0012736735925109341 0 0.0007994094285120318 -0.0012430055060362144 0 0.00080483773314840525 -0.001275867386364273 0 0.0008213568173788035 -0.0012441175636742016 0 0.00080519975301472136 -0.0012303883477162015 0 0.0008213568173788035 -0.0012441175636742016 0 0.00085782472380213626 -0.0012824525947014468 0 0.00085061171212770439 -0.001226908021479089 0 0.00097970319943505458 -0.0012011661713583028 0 0.00085782472380213626 -0.0012824525947014468 0 0.00085061171212770439 -0.001226908021479089 0 0.00097970319943505458 -0.0012011661713583028 0 0.00096429339280863834 -0.001342001661777873 0 0.00085782472380213626 -0.0012824525947014468 0 0.00086441128076714569 -0.0013739020387275942 0 0.00096429339280863834 -0.001342001661777873 0 0.00085782472380213626 -0.0012824525947014468 0 0.00086441128076714569 -0.0013739020387275942 0 0.00080483773314840525 -0.001275867386364273 0 0.00085782472380213626 -0.0012824525947014468 0 4.0851881630619101e-05 0.0006648439619634087 0 0.00020086044291731198 0.00061372009836994771 0 0.00019057872042183601 0.00076877380930552553 0 4.0851881630619101e-05 0.0006648439619634087 0 0.00020086044291731198 0.00061372009836994771 0 0.00017801117950006558 0.00041564114288228881 0 0.00030474230378933797 0.00068323524847008796 0 0.00020086044291731198 0.00061372009836994771 0 0.00019057872042183601 0.00076877380930552553 0 0.00030474230378933797 0.00068323524847008796 0 0.00020086044291731198 0.00061372009836994771 0 0.0002890835628104773 0.00054250715213004306 0 0.00020086044291731198 0.00061372009836994771 0 0.0002890835628104773 0.00054250715213004306 0 0.00017801117950006558 0.00041564114288228881 0 0.0002890835628104773 0.00054250715213004306 0 0.00017801117950006558 0.00041564114288228881 0 0.00038349731493277583 0.00045000715022441867 0 0.00043900963831663742 -0.00028941474488388899 0 0.00052078460490841214 -0.00040172375275895867 0 0.00085933647272547892 -0.0012162899107468564 0 0.00084350099366218981 -0.0012259545135262179 0 0.00084050147845936578 -0.0012355310882020943 0 0.00083845616555126552 -0.0012420033953209322 0 0.00085933647272547892 -0.0012162899107468564 0 0.00084350099366218981 -0.0012259545135262179 0 0.00084350099366218981 -0.0012259545135262179 0 0.00081204242619368301 -0.0012438463779386873 0 0.00080284234635842784 -0.0012448019000292682 0 0.00084350099366218981 -0.0012259545135262179 0 0.00081204242619368301 -0.0012438463779386873 0 0.00084050147845936578 -0.0012355310882020943 0 0.00079793025374951454 -0.0012568814684195805 0 0.00081204242619368301 -0.0012438463779386873 0 0.00080284234635842784 -0.0012448019000292682 0 0.00083845616555126552 -0.0012420033953209322 0 0.00084350099366218981 -0.0012259545135262179 0 0.0009065810626272988 -0.0012431062726808025 0 0.00084529599406737933 -0.0012289520705274779 0 0.00085627631286772316 -0.0012463110346508689 0 0.00043900963831663742 -0.00028941474488388899 0 0.00041622261261645577 -0.00019200732008381384 0 4.0851881630619101e-05 0.0006648439619634087 0 -9.0590419085380763e-05 0.00092715361459097892 0 9.204816475855555e-05 0.00092108218896957148 0 0.00083845616555126552 -0.0012420033953209322 0 0.0009065810626272988 -0.0012431062726808025 0 0.00088341872926288485 -0.0013212758419312378 0 0.00094081290543870184 -0.0013202323494658163 0 0.0009065810626272988 -0.0012431062726808025 0 0.00088341872926288485 -0.0013212758419312378 0 0.00094889258310630338 -0.0013521350162247806 0 0.00088341872926288485 -0.0013212758419312378 0 0.00093795124388064595 -0.0013679494573152428 0 0.00094889258310630338 -0.0013521350162247806 0 0.00094081290543870184 -0.0013202323494658163 0 0.00088341872926288485 -0.0013212758419312378 0 -9.0590419085380763e-05 0.00092715361459097892 0 9.204816475855555e-05 0.00092108218896957148 0 6.19312963938107e-05 0.001096344888541566 0 9.204816475855555e-05 0.00092108218896957148 0 0.00024655665593560281 0.0011162156140244843 0 6.19312963938107e-05 0.001096344888541566 0 9.204816475855555e-05 0.00092108218896957148 0 0.0002395390989572572 0.00094073356431181431 0 0.00024655665593560281 0.0011162156140244843 0 4.0851881630619101e-05 0.0006648439619634087 0 9.204816475855555e-05 0.00092108218896957148 0 0.00019057872042183601 0.00076877380930552553 0 9.204816475855555e-05 0.00092108218896957148 0 0.00019057872042183601 0.00076877380930552553 0 0.0002395390989572572 0.00094073356431181431 0 0.00019057872042183601 0.00076877380930552553 0 0.00030711435066342596 0.00083862665258184628 0 0.0002395390989572572 0.00094073356431181431 0 0.00030474230378933797 0.00068323524847008796 0 0.00019057872042183601 0.00076877380930552553 0 0.00030711435066342596 0.00083862665258184628 0 0.00030711435066342596 0.00083862665258184628 0 0.0002395390989572572 0.00094073356431181431 0 0.00036565400777586771 0.00098873117882991753 0 0.0002395390989572572 0.00094073356431181431 0 0.00024655665593560281 0.0011162156140244843 0 0.00036565400777586771 0.00098873117882991753 0 0.00024655665593560281 0.0011162156140244843 0 0.00028646207035714201 0.0013202944983320948 0 0.00037747179987869165 0.0012431676980101866 0 0.00024655665593560281 0.0011162156140244843 0 0.00012597042003668549 0.0012651068617778511 0 0.00028646207035714201 0.0013202944983320948 0 0.00024655665593560281 0.0011162156140244843 0 0.00041101899528721335 0.0011343172611083085 0 0.00037747179987869165 0.0012431676980101866 0 0.00024655665593560281 0.0011162156140244843 0 0.00041101899528721335 0.0011343172611083085 0 0.00036565400777586771 0.00098873117882991753 0 0.00024655665593560281 0.0011162156140244843 0 6.19312963938107e-05 0.001096344888541566 0 0.00012597042003668549 0.0012651068617778511 0 0.00012597042003668549 0.0012651068617778511 0 2.4039439174210187e-05 0.0014057292300670434 0 0.00019662845531564916 0.0014259798971604544 0 0.00012597042003668549 0.0012651068617778511 0 0.00028646207035714201 0.0013202944983320948 0 0.00019662845531564916 0.0014259798971604544 0 0.00028646207035714201 0.0013202944983320948 0 0.00034232193488705365 0.0014470099327744601 0 0.00019662845531564916 0.0014259798971604544 0 0.00028646207035714201 0.0013202944983320948 0 0.00034232193488705365 0.0014470099327744601 0 0.00043842829255152547 0.0013716000430749093 0 0.00028646207035714201 0.0013202944983320948 0 0.00037747179987869165 0.0012431676980101866 0 0.00043842829255152547 0.0013716000430749093 0 -9.0590419085380763e-05 0.00092715361459097892 0 -0.00021976456874772224 0.0011942405709174692 0 -4.8275902426309102e-05 0.0012241960628177626 0 0.00041622261261645577 -0.00019200732008381384 0 0.00022080428598284104 -0.00013285270072151641 0 6.19312963938107e-05 0.001096344888541566 0 0.00012597042003668549 0.0012651068617778511 0 -4.8275902426309102e-05 0.0012241960628177626 0 -9.0590419085380763e-05 0.00092715361459097892 0 6.19312963938107e-05 0.001096344888541566 0 -4.8275902426309102e-05 0.0012241960628177626 0 -4.8275902426309102e-05 0.0012241960628177626 0 2.4039439174210187e-05 0.0014057292300670434 0 -0.00013552086607177138 0.0014116292105095551 0 0.00012597042003668549 0.0012651068617778511 0 -4.8275902426309102e-05 0.0012241960628177626 0 2.4039439174210187e-05 0.0014057292300670434 0 -0.00021976456874772224 0.0011942405709174692 0 -4.8275902426309102e-05 0.0012241960628177626 0 -0.00013552086607177138 0.0014116292105095551 0 -0.00034345735809504632 0.0014558499694352831 0 -0.00021976456874772224 0.0011942405709174692 0 -0.00013552086607177138 0.0014116292105095551 0 -0.00034345735809504632 0.0014558499694352831 0 -0.00013552086607177138 0.0014116292105095551 0 -0.00017518301404175521 0.0015956532816140561 0 0.0013255159177915548 0.00046124640273715001 0 0.00094923845115263319 0.0019613846447529355 0 -0.00013552086607177138 0.0014116292105095551 0 -2.29204554154058e-05 0.0015298637704921176 0 -0.00017518301404175521 0.0015956532816140561 0 2.4039439174210187e-05 0.0014057292300670434 0 -0.00013552086607177138 0.0014116292105095551 0 -2.29204554154058e-05 0.0015298637704921176 0 2.4039439174210187e-05 0.0014057292300670434 0 -2.29204554154058e-05 0.0015298637704921176 0 0.00010421511067573705 0.0015371310485646427 0 0.0011283566387297163 0.0021708402685003529 0 0.0010978041317072466 0.0021563359978632839 0 0.0011248527716935682 0.0021676627274859321 0 0.0013388965727216503 0.0023279341826151424 0 0.001611706291811784 0.0023583465246955668 0 0.0016991238111181283 0.0025985798902144305 0 0.0013479108238952427 0.002342481267078267 0 0.00094923845115263319 0.0019613846447529355 0 -2.29204554154058e-05 0.0015298637704921176 0 -0.00017518301404175521 0.0015956532816140561 0 7.2815866920560986e-05 0.0016984255785102043 0 0.00094923845115263319 0.0019613846447529355 0 0.00049244320070423 0.0019112385992095769 0 0.001611706291811784 0.0023583465246955668 0 0.002089368590408841 0.0024877610552450783 0 0.0016991238111181283 0.0025985798902144305 0 0.00027076009982776058 0.0015631298142707941 0 0.00034232193488705365 0.0014470099327744601 0 0.00047088152592949931 0.0015393617104390354 0 0.00027076009982776058 0.0015631298142707941 0 0.00039518327516058454 0.0016607013634353995 0 0.00047088152592949931 0.0015393617104390354 0 0.00027076009982776058 0.0015631298142707941 0 0.00034232193488705365 0.0014470099327744601 0 0.00019662845531564916 0.0014259798971604544 0 2.4039439174210187e-05 0.0014057292300670434 0 0.00019662845531564916 0.0014259798971604544 0 0.00010421511067573705 0.0015371310485646427 0 0.00027076009982776058 0.0015631298142707941 0 0.00019662845531564916 0.0014259798971604544 0 0.00010421511067573705 0.0015371310485646427 0 0.00027076009982776058 0.0015631298142707941 0 0.00010421511067573705 0.0015371310485646427 0 0.00017801203280441621 0.0016318303639546667 0 0.00075910013199687444 0.002019091917439523 0 0.00049244320070423 0.0019112385992095769 0 0.00017801203280441621 0.0016318303639546667 0 7.2815866920560986e-05 0.0016984255785102043 0 0.00025473241295066496 0.0016949880016913152 0 0.0011042698475704487 0.0021804339695502099 0 0.0011283566387297163 0.0021708402685003529 0 0.0011248527716935682 0.0021676627274859321 0 0.00010421511067573705 0.0015371310485646427 0 0.00017801203280441621 0.0016318303639546667 0 7.2815866920560986e-05 0.0016984255785102043 0 -2.29204554154058e-05 0.0015298637704921176 0 0.00010421511067573705 0.0015371310485646427 0 7.2815866920560986e-05 0.0016984255785102043 0 0.00034928280271492412 0.001847500209969229 0 7.2815866920560986e-05 0.0016984255785102043 0 0.00025473241295066496 0.0016949880016913152 0 0.00027076009982776058 0.0015631298142707941 0 0.00017801203280441621 0.0016318303639546667 0 0.00025473241295066496 0.0016949880016913152 0 0.00027076009982776058 0.0015631298142707941 0 0.00025473241295066496 0.0016949880016913152 0 0.00039518327516058454 0.0016607013634353995 0 0.00034928280271492412 0.001847500209969229 0 0.00025473241295066496 0.0016949880016913152 0 0.00039518327516058454 0.0016607013634353995 0 0.00039518327516058454 0.0016607013634353995 0 0.00059423887324515205 0.001742238964386296 0 0.00047088152592949931 0.0015393617104390354 0 0.00059423887324515205 0.001742238964386296 0 0.00047088152592949931 0.0015393617104390354 0 0.00063579038904085965 0.0015889831971219756 0 0.00034928280271492412 0.001847500209969229 0 0.00039518327516058454 0.0016607013634353995 0 0.00059423887324515205 0.001742238964386296 0 0.00047088152592949931 0.0015393617104390354 0 0.00063579038904085965 0.0015889831971219756 0 0.0005799685589026989 0.0014165776491303858 0 0.00047088152592949931 0.0015393617104390354 0 0.00043842829255152547 0.0013716000430749093 0 0.0005799685589026989 0.0014165776491303858 0 0.00034232193488705365 0.0014470099327744601 0 0.00047088152592949931 0.0015393617104390354 0 0.00043842829255152547 0.0013716000430749093 0 0.00063579038904085965 0.0015889831971219756 0 0.00071234708838792187 0.001470610497874792 0 0.0005799685589026989 0.0014165776491303858 0 0.00063579038904085965 0.0015889831971219756 0 0.00073517739787707953 0.0016181413634043153 0 0.00071234708838792187 0.001470610497874792 0 0.00074817035036402278 0.0017812856880397869 0 0.00059423887324515205 0.001742238964386296 0 0.00070083950156316023 0.0016913555896282612 0 0.00059423887324515205 0.001742238964386296 0 0.00063579038904085965 0.0015889831971219756 0 0.00070083950156316023 0.0016913555896282612 0 0.00063579038904085965 0.0015889831971219756 0 0.00070083950156316023 0.0016913555896282612 0 0.00073517739787707953 0.0016181413634043153 0 0.00074817035036402278 0.0017812856880397869 0 0.00070083950156316023 0.0016913555896282612 0 0.00080167860778811726 0.0016913514483905137 0 0.00080167860778811726 0.0016913514483905137 0 0.00073517739787707953 0.0016181413634043153 0 0.00081888308664604175 0.0015748991551149875 0 0.00070083950156316023 0.0016913555896282612 0 0.00080167860778811726 0.0016913514483905137 0 0.00073517739787707953 0.0016181413634043153 0 0.001001828013562183 0.0017577308495822005 0 0.00088775379454412301 0.0017591162677286726 0 0.00092841927226434029 0.0016834789696408218 0 0.00088775379454412301 0.0017591162677286726 0 0.00080167860778811726 0.0016913514483905137 0 0.00092841927226434029 0.0016834789696408218 0 0.00080167860778811726 0.0016913514483905137 0 0.00092841927226434029 0.0016834789696408218 0 0.00081888308664604175 0.0015748991551149875 0 0.00092841927226434029 0.0016834789696408218 0 0.00091510896391680096 0.0015343638415261809 0 0.00081888308664604175 0.0015748991551149875 0 0.00091510896391680096 0.0015343638415261809 0 0.00081888308664604175 0.0015748991551149875 0 0.00081366270572189882 0.0014113429349025745 0 0.00081888308664604175 0.0015748991551149875 0 0.00071234708838792187 0.001470610497874792 0 0.00081366270572189882 0.0014113429349025745 0 0.00073517739787707953 0.0016181413634043153 0 0.00081888308664604175 0.0015748991551149875 0 0.00071234708838792187 0.001470610497874792 0 0.00081366270572189882 0.0014113429349025745 0 0.00067642051020282287 0.0012690558257174762 0 0.00079300524901594659 0.0012218963623889904 0 0.00071234708838792187 0.001470610497874792 0 0.00081366270572189882 0.0014113429349025745 0 0.00067642051020282287 0.0012690558257174762 0 0.00091510896391680096 0.0015343638415261809 0 0.00081366270572189882 0.0014113429349025745 0 0.00091308429710772957 0.0013162970424628157 0 0.00081366270572189882 0.0014113429349025745 0 0.00091308429710772957 0.0013162970424628157 0 0.00079300524901594659 0.0012218963623889904 0 0.00079300524901594659 0.0012218963623889904 0 0.00070724562639325119 0.0010784860674476562 0 0.00088633516620975075 0.0010685940515453279 0 0.00091308429710772957 0.0013162970424628157 0 0.00079300524901594659 0.0012218963623889904 0 0.00088633516620975075 0.0010685940515453279 0 0.00067642051020282287 0.0012690558257174762 0 0.00079300524901594659 0.0012218963623889904 0 0.00070724562639325119 0.0010784860674476562 0 0.00067642051020282287 0.0012690558257174762 0 0.00053038850104344232 0.0010666181504794224 0 0.00070724562639325119 0.0010784860674476562 0 0.00067642051020282287 0.0012690558257174762 0 0.00050433294068622111 0.0012525716648721025 0 0.00053038850104344232 0.0010666181504794224 0 0.00041101899528721335 0.0011343172611083085 0 0.00050433294068622111 0.0012525716648721025 0 0.00053038850104344232 0.0010666181504794224 0 0.00041101899528721335 0.0011343172611083085 0 0.00037747179987869165 0.0012431676980101866 0 0.00050433294068622111 0.0012525716648721025 0 0.00037747179987869165 0.0012431676980101866 0 0.00050433294068622111 0.0012525716648721025 0 0.00043842829255152547 0.0013716000430749093 0 0.00050433294068622111 0.0012525716648721025 0 0.00043842829255152547 0.0013716000430749093 0 0.0005799685589026989 0.0014165776491303858 0 0.00071234708838792187 0.001470610497874792 0 0.00067642051020282287 0.0012690558257174762 0 0.0005799685589026989 0.0014165776491303858 0 0.00067642051020282287 0.0012690558257174762 0 0.00050433294068622111 0.0012525716648721025 0 0.0005799685589026989 0.0014165776491303858 0 0.0002724119514683051 0.0022497481958942936 0 0.00024015872314243699 0.0021443823126397902 0 0.00038713162234686282 0.0020912066931864379 0 0.00015695167638523077 0.002186104700627889 0 0.0002724119514683051 0.0022497481958942936 0 0.00024015872314243699 0.0021443823126397902 0 0.00017568148668170894 0.0020503914781754584 0 0.00024015872314243699 0.0021443823126397902 0 0.00038713162234686282 0.0020912066931864379 0 0.00044526242147200376 0.0020429692520865872 0 0.0007655894757437106 0.0019322567827067582 0 0.00076851404426576096 0.0020402817803421825 0 0.00090715498870663899 0.0019062786410602628 0 0.00099949823160060494 0.0018308027252297244 0 0.0010692811946245351 0.0017574670277119887 0 0.00090715498870663899 0.0019062786410602628 0 0.00099949823160060494 0.0018308027252297244 0 0.00099949823160060494 0.0018308027252297244 0 0.0010167671392537284 0.001805374555956095 0 0.0010649422241681252 0.0017635057109055099 0 0.0007655894757437106 0.0019322567827067582 0 0.00080415187483236933 0.0019314291130073822 0 0.0010340984567283912 0.0017934951047971299 0 0.0010167671392537284 0.001805374555956095 0 0.0010499905702370301 0.0017560270996886567 0 0.0010167671392537284 0.001805374555956095 0 0.0010499905702370301 0.0017560270996886567 0 0.0010649422241681252 0.0017635057109055099 0 0.0010499905702370301 0.0017560270996886567 0 0.0010374448324326198 0.0017693218828738876 0 0.0010438044157541843 0.0017883129144887272 0 0.00066167409944581433 0.0020256480606745588 0 0.0007655894757437106 0.0019322567827067582 0 0.0010499905702370301 0.0017560270996886567 0 0.0010950124669471992 0.0017239901144696082 0 0.0010438044157541843 0.0017883129144887272 0 0.001034641023444901 0.0017711559793640616 0 0.0010340984567283912 0.0017934951047971299 0 0.0010374448324326198 0.0017693218828738876 0 0.0010340984567283912 0.0017934951047971299 0 0.0010499905702370301 0.0017560270996886567 0 0.0010374448324326198 0.0017693218828738876 0 0.0010950124669471992 0.0017239901144696082 0 0.0011138487974820096 0.0015007423839146765 0 0.0013410556419702357 0.0013829613240428046 0 0.0010950124669471992 0.0017239901144696082 0 0.0010075152583071637 0.0016129123523974549 0 0.0011138487974820096 0.0015007423839146765 0 0.0011102234296459618 0.001694185579176038 0 0.0011887982876543368 0.0016318497417076062 0 0.0010950124669471992 0.0017239901144696082 0 0.0010256116101379062 0.0017147397238997594 0 0.0010075152583071637 0.0016129123523974549 0 0.001001828013562183 0.0017577308495822005 0 0.0010649422241681252 0.0017635057109055099 0 0.0010256116101379062 0.0017147397238997594 0 0.0010499905702370301 0.0017560270996886567 0 0.0010950124669471992 0.0017239901144696082 0 0.0010649422241681252 0.0017635057109055099 0 0.0010692811946245351 0.0017574670277119887 0 0.00099949823160060494 0.0018308027252297244 0 0.0010649422241681252 0.0017635057109055099 0 0.0010950124669471992 0.0017239901144696082 0 0.0010649422241681252 0.0017635057109055099 0 0.0010256116101379062 0.0017147397238997594 0 0.001001828013562183 0.0017577308495822005 0 0.00092841927226434029 0.0016834789696408218 0 0.0010256116101379062 0.0017147397238997594 0 0.00092841927226434029 0.0016834789696408218 0 0.0010256116101379062 0.0017147397238997594 0 0.0010075152583071637 0.0016129123523974549 0 0.0010075152583071637 0.0016129123523974549 0 0.0010225474453351242 0.0014244806770864974 0 0.0011138487974820096 0.0015007423839146765 0 0.00091510896391680096 0.0015343638415261809 0 0.0010075152583071637 0.0016129123523974549 0 0.0010225474453351242 0.0014244806770864974 0 0.00092841927226434029 0.0016834789696408218 0 0.00091510896391680096 0.0015343638415261809 0 0.0010075152583071637 0.0016129123523974549 0 0.0010225474453351242 0.0014244806770864974 0 0.0010650491623028328 0.001214690234328266 0 0.0011521188969434285 0.0013302447130210898 0 0.00091510896391680096 0.0015343638415261809 0 0.00091308429710772957 0.0013162970424628157 0 0.0010225474453351242 0.0014244806770864974 0 0.00091308429710772957 0.0013162970424628157 0 0.0010225474453351242 0.0014244806770864974 0 0.0010650491623028328 0.001214690234328266 0 0.00091308429710772957 0.0013162970424628157 0 0.0010650491623028328 0.001214690234328266 0 0.00088633516620975075 0.0010685940515453279 0 0.0012446472907018855 0.0011354914254052685 0 0.0011521188969434285 0.0013302447130210898 0 0.0013410556419702357 0.0013829613240428046 0 0.0010650491623028328 0.001214690234328266 0 0.0012446472907018855 0.0011354914254052685 0 0.0011521188969434285 0.0013302447130210898 0 0.0011521188969434285 0.0013302447130210898 0 0.0011138487974820096 0.0015007423839146765 0 0.0013410556419702357 0.0013829613240428046 0 0.0010225474453351242 0.0014244806770864974 0 0.0011521188969434285 0.0013302447130210898 0 0.0011138487974820096 0.0015007423839146765 0 0.0010374448324326198 0.0017693218828738876 0 0.0010438044157541843 0.0017883129144887272 0 0.0010354125143622684 0.0017807708314078034 0 0.0010438044157541843 0.0017883129144887272 0 0.0010336558620595265 0.0017868075741123326 0 0.0010354125143622684 0.0017807708314078034 0 0.0010438044157541843 0.0017883129144887272 0 0.0010336558620595265 0.0017868075741123326 0 0.0010321535275162408 0.0017883901209605434 0 0.0012446472907018855 0.0011354914254052685 0 0.0013410556419702357 0.0013829613240428046 0 0.0014795785375612048 0.0010815448216975278 0 0.0011887982876543368 0.0016318497417076062 0 0.0011922646425523013 0.001199630187395298 0 0.0010438044157541843 0.0017883129144887272 0 0.0010321535275162408 0.0017883901209605434 0 0.0010342730591965808 0.0017893655742437621 0 0.0010195345366796082 0.0017894549367748797 0 0.0010321535275162408 0.0017883901209605434 0 0.001032956585884464 0.0017902654190362593 0 0.0010195345366796082 0.0017894549367748797 0 0.0010336558620595265 0.0017868075741123326 0 0.0010354125143622684 0.0017807708314078034 0 0.0010195345366796082 0.0017894549367748797 0 0.0010336558620595265 0.0017868075741123326 0 0.0010321535275162408 0.0017883901209605434 0 0.00044713557836607609 0.0019914137566912431 0 0.0010621636727621629 0.0011552369070591728 0 0.00044713557836607609 0.0019914137566912431 0 0.00066167409944581433 0.0020256480606745588 0 0.0010195345366796082 0.0017894549367748797 0 0.001034641023444901 0.0017711559793640616 0 0.0010354125143622684 0.0017807708314078034 0 0.001034641023444901 0.0017711559793640616 0 0.0010374448324326198 0.0017693218828738876 0 0.0010354125143622684 0.0017807708314078034 0 0.001084786204875305 0.000463768534667226 0 0.001049095012840685 0.00048572881371088052 0 0.0010333540645098107 0.0004371562404877422 0 0.001084786204875305 0.000463768534667226 0 0.0010591839054950756 0.00053183685949605793 0 0.001049095012840685 0.00048572881371088052 0 0.0011039849949177768 0.00035805225178418766 0 0.0011419607374851095 0.00089185049120732527 0 0.0011191969399145533 0.00052638884009885835 0 0.0010845877161000689 0.00050656941470002151 0 0.0010606383416408847 0.00054396961055940528 0 0.001084786204875305 0.000463768534667226 0 0.0010845877161000689 0.00050656941470002151 0 0.0010502899004750006 0.00053480869535450684 0 0.00097459154558691356 0.00089455903401602986 0 0.0010621636727621629 0.0011552369070591728 0 0.0010321535275162408 0.0017883901209605434 0 0.0010342730591965808 0.0017893655742437621 0 0.001032956585884464 0.0017902654190362593 0 0.0011922646425523013 0.001199630187395298 0 0.0010621636727621629 0.0011552369070591728 0 0.0012175185602238011 0.0011310594961198865 0 0.001120170951763284 0.0011541368625934696 0 0.0011818490180849426 0.0012084008047468318 0 0.0010621636727621629 0.0011552369070591728 0 0.0011419607374851095 0.00089185049120732527 0 0.0011922646425523013 0.001199630187395298 0 0.0011419607374851095 0.00089185049120732527 0 0.0010845877161000689 0.00050656941470002151 0 0.0010606383416408847 0.00054396961055940528 0 0.0010502899004750006 0.00053480869535450684 0 0.0012446472907018855 0.0011354914254052685 0 0.0014864226489928608 0.0010742638649239469 0 0.0013468260557292558 0.0010151143748993487 0 0.0013762543447896579 0.0010987190856693099 0 0.0011922646425523013 0.001199630187395298 0 0.0011419607374851095 0.00089185049120732527 0 0.0011770575256452355 0.00067189031840047186 0 0.0010591839054950756 0.00053183685949605793 0 0.0010093831116403922 0.00048648811267283887 0 0.001049095012840685 0.00048572881371088052 0 0.0015049549814508698 0.0010321477539469777 0 0.0013468260557292558 0.0010151143748993487 0 0.0013219617224853317 0.00086369409629507546 0 0.0014864226489928608 0.0010742638649239469 0 0.0015049549814508698 0.0010321477539469777 0 0.0013468260557292558 0.0010151143748993487 0 0.0010093831116403922 0.00048648811267283887 0 0.001049095012840685 0.00048572881371088052 0 0.0010333540645098107 0.0004371562404877422 0 0.0013219617224853317 0.00086369409629507546 0 0.001124112493366662 0.00096988732334508661 0 0.0011412171747436661 0.00068644650934682628 0 0.0010093831116403922 0.00048648811267283887 0 0.00096214868995857835 0.00045777227414696403 0 0.0010333540645098107 0.0004371562404877422 0 0.0011770575256452355 0.00067189031840047186 0 0.0010442526701994162 0.00057071154298371832 0 0.0012446472907018855 0.0011354914254052685 0 0.0013468260557292558 0.0010151143748993487 0 0.001124112493366662 0.00096988732334508661 0 0.0013468260557292558 0.0010151143748993487 0 0.0013219617224853317 0.00086369409629507546 0 0.001124112493366662 0.00096988732334508661 0 0.0010650491623028328 0.001214690234328266 0 0.0012446472907018855 0.0011354914254052685 0 0.001124112493366662 0.00096988732334508661 0 0.001124112493366662 0.00096988732334508661 0 0.00088633516620975075 0.0010685940515453279 0 0.00087977610607270875 0.00078945485399845353 0 0.0010650491623028328 0.001214690234328266 0 0.001124112493366662 0.00096988732334508661 0 0.00088633516620975075 0.0010685940515453279 0 0.001124112493366662 0.00096988732334508661 0 0.0011412171747436661 0.00068644650934682628 0 0.00087977610607270875 0.00078945485399845353 0 0.00092005514350327071 0.00048433995715462512 0 0.0011412171747436661 0.00068644650934682628 0 0.00087977610607270875 0.00078945485399845353 0 0.00092005514350327071 0.00048433995715462512 0 0.00095846388636687064 0.00041368969800267363 0 0.00096214868995857835 0.00045777227414696403 0 0.00093198697889875599 0.00048690491915481527 0 0.0010442526701994162 0.00057071154298371832 0 0.00092005514350327071 0.00048433995715462512 0 0.00095846388636687064 0.00041368969800267363 0 0.00091841660244632213 0.00034611930355147647 0 0.00092005514350327071 0.00048433995715462512 0 0.00081169349801235992 0.00038508621051206837 0 0.00091841660244632213 0.00034611930355147647 0 0.00095846388636687064 0.00041368969800267363 0 0.0010095732247041103 0.00038618104111488166 0 0.00098611129857124826 0.00031617247306599537 0 0.00095846388636687064 0.00041368969800267363 0 0.00098611129857124826 0.00031617247306599537 0 0.00091841660244632213 0.00034611930355147647 0 0.00096214868995857835 0.00045777227414696403 0 0.0010333540645098107 0.0004371562404877422 0 0.0010095732247041103 0.00038618104111488166 0 0.00095846388636687064 0.00041368969800267363 0 0.00096214868995857835 0.00045777227414696403 0 0.0010095732247041103 0.00038618104111488166 0 0.0010333540645098107 0.0004371562404877422 0 0.0010095732247041103 0.00038618104111488166 0 0.0010500336761673317 0.00038799989949134348 0 0.0010095732247041103 0.00038618104111488166 0 0.0010306746033885697 0.00030454298542616177 0 0.00098611129857124826 0.00031617247306599537 0 0.0010095732247041103 0.00038618104111488166 0 0.0010626317891464067 0.00033307708028258742 0 0.0010306746033885697 0.00030454298542616177 0 0.0010095732247041103 0.00038618104111488166 0 0.0010500336761673317 0.00038799989949134348 0 0.0010626317891464067 0.00033307708028258742 0 0.0010500336761673317 0.00038799989949134348 0 0.0010626317891464067 0.00033307708028258742 0 0.0010957594185408101 0.00035256106839036969 0 0.0010500336761673317 0.00038799989949134348 0 0.0010957594185408101 0.00035256106839036969 0 0.0010821239876209025 0.00040844687971972288 0 0.0010626317891464067 0.00033307708028258742 0 0.0010957594185408101 0.00035256106839036969 0 0.0011067835717562323 0.0002989073404496522 0 0.001084786204875305 0.000463768534667226 0 0.0010333540645098107 0.0004371562404877422 0 0.0010821239876209025 0.00040844687971972288 0 0.0011149315600968393 0.00038473492128429936 0 0.0010957594185408101 0.00035256106839036969 0 0.0010821239876209025 0.00040844687971972288 0 0.0010333540645098107 0.0004371562404877422 0 0.0010500336761673317 0.00038799989949134348 0 0.0010821239876209025 0.00040844687971972288 0 0.0011173292318543717 0.00042532776738081241 0 0.001084786204875305 0.000463768534667226 0 0.0010821239876209025 0.00040844687971972288 0 0.0005436523193162844 0.00075322305663629897 0 0.00060790293267232512 0.00091150127726996155 0 0.00069105718290810231 0.00081066957851160892 0 0.0005436523193162844 0.00075322305663629897 0 0.00069105718290810231 0.00081066957851160892 0 0.00062798407648697869 0.0006746884600848707 0 0.0005436523193162844 0.00075322305663629897 0 0.00043971515559734547 0.00083862885402534242 0 0.00060790293267232512 0.00091150127726996155 0 0.0005436523193162844 0.00075322305663629897 0 0.00043971515559734547 0.00083862885402534242 0 0.00042821227923467008 0.00064873401285581059 0 0.00030474230378933797 0.00068323524847008796 0 0.00030711435066342596 0.00083862665258184628 0 0.00043971515559734547 0.00083862885402534242 0 0.00030711435066342596 0.00083862665258184628 0 0.00043971515559734547 0.00083862885402534242 0 0.00036565400777586771 0.00098873117882991753 0 0.00041101899528721335 0.0011343172611083085 0 0.00036565400777586771 0.00098873117882991753 0 0.00053038850104344232 0.0010666181504794224 0 0.00043971515559734547 0.00083862885402534242 0 0.00036565400777586771 0.00098873117882991753 0 0.00053038850104344232 0.0010666181504794224 0 0.00060790293267232512 0.00091150127726996155 0 0.00053038850104344232 0.0010666181504794224 0 0.00070724562639325119 0.0010784860674476562 0 0.00043971515559734547 0.00083862885402534242 0 0.00060790293267232512 0.00091150127726996155 0 0.00053038850104344232 0.0010666181504794224 0 0.00060790293267232512 0.00091150127726996155 0 0.00077447112096809426 0.00094034165379276312 0 0.00070724562639325119 0.0010784860674476562 0 0.00077447112096809426 0.00094034165379276312 0 0.00070724562639325119 0.0010784860674476562 0 0.00088633516620975075 0.0010685940515453279 0 0.00077447112096809426 0.00094034165379276312 0 0.00088633516620975075 0.0010685940515453279 0 0.00087977610607270875 0.00078945485399845353 0 0.00077447112096809426 0.00094034165379276312 0 0.00087977610607270875 0.00078945485399845353 0 0.00069105718290810231 0.00081066957851160892 0 0.00087977610607270875 0.00078945485399845353 0 0.00069105718290810231 0.00081066957851160892 0 0.00072930378258302968 0.00057542748743650391 0 0.00060790293267232512 0.00091150127726996155 0 0.00077447112096809426 0.00094034165379276312 0 0.00069105718290810231 0.00081066957851160892 0 0.00069105718290810231 0.00081066957851160892 0 0.00062798407648697869 0.0006746884600848707 0 0.00072930378258302968 0.00057542748743650391 0 0.00062798407648697869 0.0006746884600848707 0 0.00072930378258302968 0.00057542748743650391 0 0.00055325444783738337 0.00056460252714056523 0 0.00092005514350327071 0.00048433995715462512 0 0.00087977610607270875 0.00078945485399845353 0 0.00072930378258302968 0.00057542748743650391 0 0.00092005514350327071 0.00048433995715462512 0 0.00072930378258302968 0.00057542748743650391 0 0.00081169349801235992 0.00038508621051206837 0 0.00072930378258302968 0.00057542748743650391 0 0.00081169349801235992 0.00038508621051206837 0 0.00063568179341775416 0.00042263862970150072 0 0.00072930378258302968 0.00057542748743650391 0 0.00063568179341775416 0.00042263862970150072 0 0.00055325444783738337 0.00056460252714056523 0 0.00051086684400565888 0.00042689324784890196 0 0.00055325444783738337 0.00056460252714056523 0 0.00038349731493277583 0.00045000715022441867 0 0.00063568179341775416 0.00042263862970150072 0 0.00051086684400565888 0.00042689324784890196 0 0.00055325444783738337 0.00056460252714056523 0 0.0005436523193162844 0.00075322305663629897 0 0.00055325444783738337 0.00056460252714056523 0 0.00042821227923467008 0.00064873401285581059 0 0.0005436523193162844 0.00075322305663629897 0 0.00062798407648697869 0.0006746884600848707 0 0.00055325444783738337 0.00056460252714056523 0 0.00030474230378933797 0.00068323524847008796 0 0.00043971515559734547 0.00083862885402534242 0 0.00042821227923467008 0.00064873401285581059 0 0.00030474230378933797 0.00068323524847008796 0 0.0002890835628104773 0.00054250715213004306 0 0.00042821227923467008 0.00064873401285581059 0 0.0002890835628104773 0.00054250715213004306 0 0.00042821227923467008 0.00064873401285581059 0 0.00038349731493277583 0.00045000715022441867 0 0.00055325444783738337 0.00056460252714056523 0 0.00042821227923467008 0.00064873401285581059 0 0.00038349731493277583 0.00045000715022441867 0 0.00051086684400565888 0.00042689324784890196 0 0.00038349731493277583 0.00045000715022441867 0 0.00050284820006637847 0.00027632666133148282 0 0.00038349731493277583 0.00045000715022441867 0 0.00050284820006637847 0.00027632666133148282 0 0.00031214437442295107 0.00019148460548855517 0 0.00050284820006637847 0.00027632666133148282 0 0.00043092167180112766 -4.1885938897960722e-06 0 0.00031214437442295107 0.00019148460548855517 0 0.00063568179341775416 0.00042263862970150072 0 0.00050284820006637847 0.00027632666133148282 0 0.0007036358545203568 0.00029558512192945851 0 0.00063568179341775416 0.00042263862970150072 0 0.00051086684400565888 0.00042689324784890196 0 0.00050284820006637847 0.00027632666133148282 0 0.00081169349801235992 0.00038508621051206837 0 0.00063568179341775416 0.00042263862970150072 0 0.0007036358545203568 0.00029558512192945851 0 0.00081169349801235992 0.00038508621051206837 0 0.0007036358545203568 0.00029558512192945851 0 0.00086516760617542444 0.00023155414323081791 0 0.00075614590913017485 0.00017699116092538615 0 0.00086516760617542444 0.00023155414323081791 0 0.0008909816597939532 0.00012177772615811608 0 0.0007036358545203568 0.00029558512192945851 0 0.00075614590913017485 0.00017699116092538615 0 0.00086516760617542444 0.00023155414323081791 0 0.0007036358545203568 0.00029558512192945851 0 0.00075614590913017485 0.00017699116092538615 0 0.00063181764072665111 0.00011558510660934776 0 0.00050284820006637847 0.00027632666133148282 0 0.0007036358545203568 0.00029558512192945851 0 0.00063181764072665111 0.00011558510660934776 0 0.00063181764072665111 0.00011558510660934776 0 0.00078269800446557404 5.0564655517915501e-05 0 0.00065896291638352909 -5.8895475342683175e-05 0 0.00075614590913017485 0.00017699116092538615 0 0.00063181764072665111 0.00011558510660934776 0 0.00078269800446557404 5.0564655517915501e-05 0 0.00075614590913017485 0.00017699116092538615 0 0.00078269800446557404 5.0564655517915501e-05 0 0.0008909816597939532 0.00012177772615811608 0 0.00078269800446557404 5.0564655517915501e-05 0 0.00080420606649987182 -6.3704100791313716e-05 0 0.00065896291638352909 -5.8895475342683175e-05 0 0.00074414268729416119 -0.00065787150877516705 0 0.00090713951879020053 -0.00083679452064080019 0 0.00050284820006637847 0.00027632666133148282 0 0.00063181764072665111 0.00011558510660934776 0 0.00043092167180112766 -4.1885938897960722e-06 0 0.00065896291638352909 -5.8895475342683175e-05 0 0.00043092167180112766 -4.1885938897960722e-06 0 0.00052910940562568944 -0.00018456729271948083 0 0.0010497022922516799 -0.0013034582984311157 0 0.0010069316914531469 -0.0014283097789281689 0 0.0012801050604324435 -0.0014748472771765925 0 0.00074414268729416119 -0.00065787150877516705 0 0.00062325123081099598 -0.00052763883350605907 0 0.00063181764072665111 0.00011558510660934776 0 0.00065896291638352909 -5.8895475342683175e-05 0 0.00043092167180112766 -4.1885938897960722e-06 0 0.0010742821077756018 0.00014109243238100502 0 0.0011008337772205206 0.00021439234419923681 0 0.0011263645075061147 6.676434067948118e-05 0 0.0011008337772205206 0.00021439234419923681 0 0.0010750622859113717 0.00026787641595234473 0 0.0010612934120954333 0.00020298807285181868 0 0.0010742821077756018 0.00014109243238100502 0 0.0011008337772205206 0.00021439234419923681 0 0.0010612934120954333 0.00020298807285181868 0 0.0011232645448160808 0.00025273441272312153 0 0.0011008337772205206 0.00021439234419923681 0 0.0010750622859113717 0.00026787641595234473 0 0.0011232645448160808 0.00025273441272312153 0 0.0011067835717562323 0.0002989073404496522 0 0.0010750622859113717 0.00026787641595234473 0 0.0010626317891464067 0.00033307708028258742 0 0.0011067835717562323 0.0002989073404496522 0 0.0010750622859113717 0.00026787641595234473 0 0.0010750622859113717 0.00026787641595234473 0 0.0010306746033885697 0.00030454298542616177 0 0.0010221423470216263 0.00023119195028411017 0 0.0010626317891464067 0.00033307708028258742 0 0.0010750622859113717 0.00026787641595234473 0 0.0010306746033885697 0.00030454298542616177 0 0.0010306746033885697 0.00030454298542616177 0 0.0010221423470216263 0.00023119195028411017 0 0.00098611129857124826 0.00031617247306599537 0 0.0010750622859113717 0.00026787641595234473 0 0.0010221423470216263 0.00023119195028411017 0 0.0010612934120954333 0.00020298807285181868 0 0.0010221423470216263 0.00023119195028411017 0 0.0010612934120954333 0.00020298807285181868 0 0.0010377709723805274 0.00015681397476181852 0 0.0010742821077756018 0.00014109243238100502 0 0.0010612934120954333 0.00020298807285181868 0 0.0010377709723805274 0.00015681397476181852 0 0.0010221423470216263 0.00023119195028411017 0 0.0010377709723805274 0.00015681397476181852 0 0.00099134925426094941 0.00013739828634232073 0 0.0010221423470216263 0.00023119195028411017 0 0.00094932849675377184 0.00023268974713973458 0 0.00099134925426094941 0.00013739828634232073 0 0.00094932849675377184 0.00023268974713973458 0 0.0008909816597939532 0.00012177772615811608 0 0.00099134925426094941 0.00013739828634232073 0 0.0010221423470216263 0.00023119195028411017 0 0.00094932849675377184 0.00023268974713973458 0 0.00098611129857124826 0.00031617247306599537 0 0.00094932849675377184 0.00023268974713973458 0 0.00098611129857124826 0.00031617247306599537 0 0.00091841660244632213 0.00034611930355147647 0 0.00094932849675377184 0.00023268974713973458 0 0.00091841660244632213 0.00034611930355147647 0 0.00086516760617542444 0.00023155414323081791 0 0.00081169349801235992 0.00038508621051206837 0 0.00091841660244632213 0.00034611930355147647 0 0.00086516760617542444 0.00023155414323081791 0 0.00094932849675377184 0.00023268974713973458 0 0.00086516760617542444 0.00023155414323081791 0 0.0008909816597939532 0.00012177772615811608 0 0.00078269800446557404 5.0564655517915501e-05 0 0.0008909816597939532 0.00012177772615811608 0 0.00092073545267620913 5.1056578522140089e-06 0 0.00080420606649987182 -6.3704100791313716e-05 0 0.00092073545267620913 5.1056578522140089e-06 0 0.00088827265987087285 -0.00013051457955757883 0 0.00092073545267620913 5.1056578522140089e-06 0 0.00096657947622917552 -7.5788694027809005e-05 0 0.00088827265987087285 -0.00013051457955757883 0 0.00078269800446557404 5.0564655517915501e-05 0 0.00080420606649987182 -6.3704100791313716e-05 0 0.00092073545267620913 5.1056578522140089e-06 0 0.00092073545267620913 5.1056578522140089e-06 0 0.00096657947622917552 -7.5788694027809005e-05 0 0.0010592936288118249 6.5356043535576812e-06 0 0.00092073545267620913 5.1056578522140089e-06 0 0.00099134925426094941 0.00013739828634232073 0 0.0010592936288118249 6.5356043535576812e-06 0 0.0008909816597939532 0.00012177772615811608 0 0.00092073545267620913 5.1056578522140089e-06 0 0.00099134925426094941 0.00013739828634232073 0 0.0010751144366675362 0.0001291964212708606 0 0.0010268044190825084 -1.2059460245005126e-05 0 0.0010742821077756018 0.00014109243238100502 0 0.0010377709723805274 0.00015681397476181852 0 0.0010592936288118249 6.5356043535576812e-06 0 0.0010377709723805274 0.00015681397476181852 0 0.00099134925426094941 0.00013739828634232073 0 0.0010592936288118249 6.5356043535576812e-06 0 0.0009959796089425673 -3.223784044290329e-05 0 0.0010911855787539197 -1.6310057338566507e-05 0 0.0010547653085281516 -9.8594957377813648e-05 0 0.0010911855787539197 -1.6310057338566507e-05 0 0.0011076863894347966 -0.00010989398163213125 0 0.0010547653085281516 -9.8594957377813648e-05 0 0.0010742821077756018 0.00014109243238100502 0 0.0010911855787539197 -1.6310057338566507e-05 0 0.0011263645075061147 6.676434067948118e-05 0 0.0010742821077756018 0.00014109243238100502 0 0.0009959796089425673 -3.223784044290329e-05 0 0.0010911855787539197 -1.6310057338566507e-05 0 0.0010984158379401499 -0.00019790599396010773 0 0.001055872325459522 -0.00016332481457712804 0 0.0010069100868470762 -0.00023712102623657527 0 0.0010984158379401499 -0.00019790599396010773 0 0.001055872325459522 -0.00016332481457712804 0 0.0011076863894347966 -0.00010989398163213125 0 0.001055872325459522 -0.00016332481457712804 0 0.0011076863894347966 -0.00010989398163213125 0 0.0010547653085281516 -9.8594957377813648e-05 0 0.001055872325459522 -0.00016332481457712804 0 0.0010547653085281516 -9.8594957377813648e-05 0 0.0010164192637899412 -0.00015855589619108817 0 0.0009959796089425673 -3.223784044290329e-05 0 0.0010164192637899412 -0.00015855589619108817 0 0.00094512319974007341 -0.00016845295204336798 0 0.0009959796089425673 -3.223784044290329e-05 0 0.0010547653085281516 -9.8594957377813648e-05 0 0.0010164192637899412 -0.00015855589619108817 0 0.0010229882184263641 -0.00021013551930578489 0 0.0010268063393754758 -0.00021246258092225332 0 0.001055872325459522 -0.00016332481457712804 0 0.0010164192637899412 -0.00015855589619108817 0 0.0010069100868470762 -0.00023712102623657527 0 0.00095353659126432629 -0.0003030269974647309 0 0.00094512319974007341 -0.00016845295204336798 0 0.00085740457551272166 -0.00037528622271533777 0 0.0010164192637899412 -0.00015855589619108817 0 0.00095353659126432629 -0.0003030269974647309 0 0.001068730486186291 -0.00037491481357134615 0 0.0010164192637899412 -0.00015855589619108817 0 0.00095353659126432629 -0.0003030269974647309 0 0.00094512319974007341 -0.00016845295204336798 0 0.0010268044190825084 -1.2059460245005126e-05 0 0.00096776578119952108 -0.00017980473409271309 0 0.00096657947622917552 -7.5788694027809005e-05 0 0.0010592936288118249 6.5356043535576812e-06 0 0.00099255859022337706 -0.00018981883148014761 0 0.00096657947622917552 -7.5788694027809005e-05 0 0.00099255859022337706 -0.00018981883148014761 0 0.00088827265987087285 -0.00013051457955757883 0 0.00099255859022337706 -0.00018981883148014761 0 0.00088827265987087285 -0.00013051457955757883 0 0.00086340266536590504 -0.00024901016943719759 0 0.00088827265987087285 -0.00013051457955757883 0 0.00086340266536590504 -0.00024901016943719759 0 0.00074793521045910276 -0.00019753715423030235 0 0.00086340266536590504 -0.00024901016943719759 0 0.00089361850662124549 -0.00039521506145199191 0 0.00077548645927525968 -0.0003346903928413814 0 0.00099255859022337706 -0.00018981883148014761 0 0.00086340266536590504 -0.00024901016943719759 0 0.00089361850662124549 -0.00039521506145199191 0 0.00096776578119952108 -0.00017980473409271309 0 0.00087431211611159693 -0.00038666265503940799 0 0.00085740457551272166 -0.00037528622271533777 0 0.00092700681779865461 -0.00047215279370644886 0 0.00096308277102683318 -0.00039622919163569739 0 0.00087431211611159693 -0.00038666265503940799 0 0.00076920584862044607 -0.00059043734755619918 0 0.00085740457551272166 -0.00037528622271533777 0 0.00086874678575756719 -0.00056044669952357647 0 0.00076382470044782374 -0.00060491175364040526 0 0.00085740457551272166 -0.00037528622271533777 0 0.00086874678575756719 -0.00056044669952357647 0 0.00092700681779865461 -0.00047215279370644886 0 0.00084893029444649921 -0.0006252503457502129 0 0.00086874678575756719 -0.00056044669952357647 0 0.00076382470044782374 -0.00060491175364040526 0 0.00086874678575756719 -0.00056044669952357647 0 0.00092700681779865461 -0.00047215279370644886 0 0.0010024318282015453 -0.00060344610283335142 0 0.00092113775024018187 -0.00064373953470400617 0 0.00086874678575756719 -0.00056044669952357647 0 0.0010024318282015453 -0.00060344610283335142 0 0.00084893029444649921 -0.0006252503457502129 0 0.00092113775024018187 -0.00064373953470400617 0 0.00086874678575756719 -0.00056044669952357647 0 0.00092700681779865461 -0.00047215279370644886 0 0.0010024318282015453 -0.00060344610283335142 0 0.001150599348355896 -0.00061115510741073195 0 0.00092700681779865461 -0.00047215279370644886 0 0.0010106519909474519 -0.00045206915369399241 0 0.0010728767357267694 -0.00056540334625869958 0 0.00090917001978836143 -0.00040589621848064194 0 0.0011165869533718766 -0.00087030364394276457 0 0.0011504294176842133 -0.00064029881522931111 0 0.0010024318282015453 -0.00060344610283335142 0 0.001150599348355896 -0.00061115510741073195 0 0.0010106519909474519 -0.00045206915369399241 0 0.00096308277102683318 -0.00039622919163569739 0 0.001068730486186291 -0.00037491481357134615 0 0.00092700681779865461 -0.00047215279370644886 0 0.0010106519909474519 -0.00045206915369399241 0 0.00096308277102683318 -0.00039622919163569739 0 0.00095353659126432629 -0.0003030269974647309 0 0.00085740457551272166 -0.00037528622271533777 0 0.00096308277102683318 -0.00039622919163569739 0 0.00095353659126432629 -0.0003030269974647309 0 0.00096308277102683318 -0.00039622919163569739 0 0.001068730486186291 -0.00037491481357134615 0 0.0010106519909474519 -0.00045206915369399241 0 0.001068730486186291 -0.00037491481357134615 0 0.0010728767357267694 -0.00056540334625869958 0 0.0010268063393754758 -0.00021246258092225332 0 0.0011165869533718766 -0.00087030364394276457 0 0.0010069100868470762 -0.00023712102623657527 0 0.0010034387000503046 -0.00033930852151828887 0 0.0010495921997851409 -0.00028430436546190063 0 0.0009019225209695148 -0.0012054031532315477 0 0.0011165869533718766 -0.00087030364394276457 0 0.0010128026919219624 -0.00034566103149007274 0 0.0010034387000503046 -0.00033930852151828887 0 0.0010495921997851409 -0.00028430436546190063 0 0.0011110860796330882 -0.0002744244771423173 0 0.0010128026919219624 -0.00034566103149007274 0 0.0010495921997851409 -0.00028430436546190063 0 0.00050550764484457789 -0.00048368842542564618 0 0.0009019225209695148 -0.0012054031532315477 0 0.00011019136220347915 -0.00080605303468397492 0 -0.0003853109033807872 -0.0011277318198464814 0 -9.2342090019236271e-06 -0.0010628224652902258 0 0.0010984158379401499 -0.00019790599396010773 0 0.0010069100868470762 -0.00023712102623657527 0 0.0010495921997851409 -0.00028430436546190063 0 0.0011110860796330882 -0.0002744244771423173 0 0.0010984158379401499 -0.00019790599396010773 0 0.0010495921997851409 -0.00028430436546190063 0 0.00090713951879020053 -0.00083679452064080019 0 0.0010911787652532075 -0.0011033509221278256 0 0.0012801050604324435 -0.0014748472771765925 0 0.0015719558304002964 -0.0018175021798998655 0 0.0011050446965300269 -0.0017799716580634848 0 0.0010069316914531469 -0.0014283097789281689 0 0.0012801050604324435 -0.0014748472771765925 0 0.0011050446965300269 -0.0017799716580634848 0 0.00065896291638352909 -5.8895475342683175e-05 0 0.00052910940562568944 -0.00018456729271948083 0 0.00074793521045910276 -0.00019753715423030235 0 0.00080420606649987182 -6.3704100791313716e-05 0 0.00088827265987087285 -0.00013051457955757883 0 0.00074793521045910276 -0.00019753715423030235 0 0.00080420606649987182 -6.3704100791313716e-05 0 0.00065896291638352909 -5.8895475342683175e-05 0 0.00074793521045910276 -0.00019753715423030235 0 0.00074793521045910276 -0.00019753715423030235 0 0.00077548645927525968 -0.0003346903928413814 0 0.00061689507858409475 -0.00037705932215328182 0 0.00086340266536590504 -0.00024901016943719759 0 0.00074793521045910276 -0.00019753715423030235 0 0.00077548645927525968 -0.0003346903928413814 0 0.00052910940562568944 -0.00018456729271948083 0 0.00074793521045910276 -0.00019753715423030235 0 0.00061689507858409475 -0.00037705932215328182 0 0.00061689507858409475 -0.00037705932215328182 0 0.00076518360934083323 -0.00046163336519579676 0 0.00070400309207462703 -0.00058988260474258718 0 0.00077548645927525968 -0.0003346903928413814 0 0.00061689507858409475 -0.00037705932215328182 0 0.00076518360934083323 -0.00046163336519579676 0 0.00089361850662124549 -0.00039521506145199191 0 0.00077548645927525968 -0.0003346903928413814 0 0.00076518360934083323 -0.00046163336519579676 0 0.00076518360934083323 -0.00046163336519579676 0 0.00070400309207462703 -0.00058988260474258718 0 0.00076382470044782374 -0.00060491175364040526 0 0.00089361850662124549 -0.00039521506145199191 0 0.00076518360934083323 -0.00046163336519579676 0 0.00076382470044782374 -0.00060491175364040526 0 0.0015719558304002964 -0.0018175021798998655 0 0.0018996653029140264 -0.0023071913311520898 0 0.0016243602493246163 -0.0022644700373769585 0 0.0015719558304002964 -0.0018175021798998655 0 0.0016243602493246163 -0.0022644700373769585 0 0.0013881136963018622 -0.0021073059619425862 0 0.0010911787652532075 -0.0011033509221278256 0 0.0013339713633743612 -0.0014440375046438384 0 0.0017846544527114936 -0.0024877245940890659 0 0.0018996653029140264 -0.0023071913311520898 0 0.0016243602493246163 -0.0022644700373769585 0 0.0014623847428185998 -0.0023805036742944575 0 0.0013881136963018622 -0.0021073059619425862 0 0.0011316997553271846 -0.0022647212731177237 0 0.0014623847428185998 -0.0023805036742944575 0 0.0016243602493246163 -0.0022644700373769585 0 0.0013881136963018622 -0.0021073059619425862 0 0.0015719558304002964 -0.0018175021798998655 0 0.0013881136963018622 -0.0021073059619425862 0 0.0011050446965300269 -0.0017799716580634848 0 0.0011050446965300269 -0.0017799716580634848 0 0.0011316997553271846 -0.0022647212731177237 0 0.00087490450754670597 -0.0019206922438077094 0 0.0013881136963018622 -0.0021073059619425862 0 0.0011050446965300269 -0.0017799716580634848 0 0.0011316997553271846 -0.0022647212731177237 0 0.0011316997553271846 -0.0022647212731177237 0 0.00082180426702970529 -0.0023048390371826089 0 0.00087490450754670597 -0.0019206922438077094 0 0.00082180426702970529 -0.0023048390371826089 0 0.00064559123348295036 -0.0020720533716971283 0 0.00087490450754670597 -0.0019206922438077094 0 0.00045757107918143586 -0.0023903611522215883 0 0.00082180426702970529 -0.0023048390371826089 0 0.00064559123348295036 -0.0020720533716971283 0 0.00045757107918143586 -0.0023903611522215883 0 0.00064559123348295036 -0.0020720533716971283 0 0.0002974484416509901 -0.0020456176282429186 0 0.00066164683716446828 -0.0017094141832525935 0 0.00055208091858889835 -0.0018029620820164802 0 0.00064559123348295036 -0.0020720533716971283 0 0.00069715009979496104 -0.0016954359745442065 0 0.0002974484416509901 -0.0020456176282429186 0 0.00064559123348295036 -0.0020720533716971283 0 0.00069715009979496104 -0.0016954359745442065 0 0.00087490450754670597 -0.0019206922438077094 0 0.00069715009979496104 -0.0016954359745442065 0 0.00087490450754670597 -0.0019206922438077094 0 0.00089603354988632676 -0.0015872728450346014 0 0.0011050446965300269 -0.0017799716580634848 0 0.00087490450754670597 -0.0019206922438077094 0 0.00089603354988632676 -0.0015872728450346014 0 0.0010069316914531469 -0.0014283097789281689 0 0.0011050446965300269 -0.0017799716580634848 0 0.00089603354988632676 -0.0015872728450346014 0 0.00069715009979496104 -0.0016954359745442065 0 0.00089603354988632676 -0.0015872728450346014 0 0.00078482877769235615 -0.0015664476283640939 0 0.00069715009979496104 -0.0016954359745442065 0 0.00078482877769235615 -0.0015664476283640939 0 0.00076852261481359532 -0.0016036212927894133 0 0.00078482877769235615 -0.0015664476283640939 0 0.00083991068290879942 -0.001431713473668679 0 0.00078543683277243796 -0.0015091237450804132 0 0.00089603354988632676 -0.0015872728450346014 0 0.00078482877769235615 -0.0015664476283640939 0 0.00083991068290879942 -0.001431713473668679 0 0.0010069316914531469 -0.0014283097789281689 0 0.00089603354988632676 -0.0015872728450346014 0 0.00083991068290879942 -0.001431713473668679 0 0.00078543683277243796 -0.0015091237450804132 0 0.00079659063469881544 -0.0014528602089869875 0 0.00080600106830779603 -0.0013719342566087969 0 0.00079659063469881544 -0.0014528602089869875 0 0.00080849717928658583 -0.001355266159901418 0 0.00080600106830779603 -0.0013719342566087969 0 0.00083991068290879942 -0.001431713473668679 0 0.00078543683277243796 -0.0015091237450804132 0 0.00080600106830779603 -0.0013719342566087969 0 0.00078482877769235615 -0.0015664476283640939 0 0.00078543683277243796 -0.0015091237450804132 0 0.00076852261481359532 -0.0016036212927894133 0 0.00078543683277243796 -0.0015091237450804132 0 0.0007863952672885426 -0.0015472549789294532 0 0.00076852261481359532 -0.0016036212927894133 0 0.00078543683277243796 -0.0015091237450804132 0 0.00079659063469881544 -0.0014528602089869875 0 0.0007863952672885426 -0.0015472549789294532 0 0.0007863952672885426 -0.0015472549789294532 0 0.00078080837037650564 -0.001560042464764944 0 0.00077106611119302879 -0.001514203394419535 0 0.0007863952672885426 -0.0015472549789294532 0 0.0007866364207696271 -0.0015696105427105221 0 0.00078080837037650564 -0.001560042464764944 0 0.0007863952672885426 -0.0015472549789294532 0 0.00076852261481359532 -0.0016036212927894133 0 0.0007866364207696271 -0.0015696105427105221 0 0.00069715009979496104 -0.0016954359745442065 0 0.00076852261481359532 -0.0016036212927894133 0 0.00076728470318152301 -0.0015720957363508238 0 0.00076852261481359532 -0.0016036212927894133 0 0.00076728470318152301 -0.0015720957363508238 0 0.0007866364207696271 -0.0015696105427105221 0 4.096378129416468e-05 -0.0023612947659829662 0 0.00045757107918143586 -0.0023903611522215883 0 0.0002974484416509901 -0.0020456176282429186 0 0.00076728470318152301 -0.0015720957363508238 0 0.0007866364207696271 -0.0015696105427105221 0 0.00079434249702680054 -0.0015860629841592479 0 0.00079260918038387721 -0.0015851887533943603 0 0.00076728470318152301 -0.0015720957363508238 0 0.00079434249702680054 -0.0015860629841592479 0 0.00072823528652349052 -0.002353661300767378 0 0.00055208091858889835 -0.0018029620820164802 0 0.00072823528652349052 -0.002353661300767378 0 0.00064523358336214965 -0.0021574503103651325 0 0.00078080837037650564 -0.001560042464764944 0 0.00079434249702680054 -0.0015860629841592479 0 0.0007591586259136523 -0.0015841562890634338 0 0.0007866364207696271 -0.0015696105427105221 0 0.00078080837037650564 -0.001560042464764944 0 0.00079434249702680054 -0.0015860629841592479 0 0.0010663417616787966 -0.0018103376041276645 0 0.00095809802775850188 -0.0016705014184743179 0 0.00078080837037650564 -0.001560042464764944 0 0.0007591586259136523 -0.0015841562890634338 0 0.00077106611119302879 -0.001514203394419535 0 0.0013868511748097584 -0.0022964633082116267 0 0.0010121329967885655 -0.0023978525667997081 0 0.0011313021596380314 -0.0017548974266848596 0 0.0010121329967885655 -0.0023978525667997081 0 0.00073585561445078734 -0.00214616904028073 0 0.0011313021596380314 -0.0017548974266848596 0 0.00073585561445078734 -0.00214616904028073 0 0.00082990644507083538 -0.0017883060711015245 0 0.0011313021596380314 -0.0017548974266848596 0 0.00067497609556307935 -0.0020000920920974653 0 0.00059611968647961587 -0.0017209422718396357 0 0.00076871222906081389 -0.0016591650309755242 0 0.00024534313624295461 -0.0029004685002398329 0 0.00073585561445078734 -0.00214616904028073 0 0.00027975749716872253 -0.0020230542897268812 0 0.00073585561445078734 -0.00214616904028073 0 0.00027975749716872253 -0.0020230542897268812 0 0.00066286679452712933 -0.001598990769839569 0 0.00073585561445078734 -0.00214616904028073 0 0.00082990644507083538 -0.0017883060711015245 0 0.00066286679452712933 -0.001598990769839569 0 0.00055212349389707868 -0.0014484677937113325 0 0.00053689178611104633 -0.0018577325679430615 0 0.00056485311465716075 -0.0013997153360751982 0 0.00027975749716872253 -0.0020230542897268812 0 0.00066286679452712933 -0.001598990769839569 0 0.00056485311465716075 -0.0013997153360751982 0 0.00066286679452712933 -0.001598990769839569 0 0.00070731569070418561 -0.0013760394300163562 0 0.00066286679452712933 -0.001598990769839569 0 0.00070731569070418561 -0.0013760394300163562 0 0.00083873284220204033 -0.0014141053504860511 0 0.00070731569070418561 -0.0013760394300163562 0 0.00083873284220204033 -0.0014141053504860511 0 0.00077245393186182098 -0.001283531686781484 0 0.00070731569070418561 -0.0013760394300163562 0 0.00070231678685725245 -0.0012468887467872963 0 0.00077245393186182098 -0.001283531686781484 0 0.00056485311465716075 -0.0013997153360751982 0 0.00066429182561269801 -0.001195348148361071 0 0.00070231678685725245 -0.0012468887467872963 0 0.00056485311465716075 -0.0013997153360751982 0 0.00070731569070418561 -0.0013760394300163562 0 0.00070231678685725245 -0.0012468887467872963 0 0.00079659063469881544 -0.0014528602089869875 0 0.0007863952672885426 -0.0015472549789294532 0 0.00077106611119302879 -0.001514203394419535 0 0.00079659063469881544 -0.0014528602089869875 0 0.00077106611119302879 -0.001514203394419535 0 0.00083873284220204033 -0.0014141053504860511 0 0.00095809802775850188 -0.0016705014184743179 0 0.00085284049737883571 -0.0014314517018490993 0 0.00082990644507083538 -0.0017883060711015245 0 0.0011313021596380314 -0.0017548974266848596 0 0.00083873284220204033 -0.0014141053504860511 0 0.00082990644507083538 -0.0017883060711015245 0 0.00066286679452712933 -0.001598990769839569 0 0.00083873284220204033 -0.0014141053504860511 0 0.00083873284220204033 -0.0014141053504860511 0 0.00080849717928658583 -0.001355266159901418 0 0.00077245393186182098 -0.001283531686781484 0 0.00079659063469881544 -0.0014528602089869875 0 0.00083873284220204033 -0.0014141053504860511 0 0.00080849717928658583 -0.001355266159901418 0 0.00080849717928658583 -0.001355266159901418 0 0.00079298831368177663 -0.0012666401759908017 0 0.00077245393186182098 -0.001283531686781484 0 0.00079298831368177663 -0.0012666401759908017 0 0.00077922049600286905 -0.0012337616331282305 0 0.00080138447427772553 -0.0012230578612294619 0 0.00079298831368177663 -0.0012666401759908017 0 0.00077245393186182098 -0.001283531686781484 0 0.00077922049600286905 -0.0012337616331282305 0 0.00080849717928658583 -0.001355266159901418 0 0.00079298831368177663 -0.0012666401759908017 0 0.00082200749285511537 -0.0012593357601806473 0 0.00070231678685725245 -0.0012468887467872963 0 0.00071240941542361576 -0.0011757170121399856 0 0.00074969448594546407 -0.0012055494199717444 0 0.00071240941542361576 -0.0011757170121399856 0 0.00074969448594546407 -0.0012055494199717444 0 0.00074379853633230338 -0.0011624201596682957 0 0.00066429182561269801 -0.001195348148361071 0 0.00070231678685725245 -0.0012468887467872963 0 0.00071240941542361576 -0.0011757170121399856 0 0.00074969448594546407 -0.0012055494199717444 0 0.00077245393186182098 -0.001283531686781484 0 0.00077922049600286905 -0.0012337616331282305 0 0.00070231678685725245 -0.0012468887467872963 0 0.00074969448594546407 -0.0012055494199717444 0 0.00077245393186182098 -0.001283531686781484 0 0.00074969448594546407 -0.0012055494199717444 0 0.00077922049600286905 -0.0012337616331282305 0 0.00078709022000587664 -0.0012085460160957721 0 0.00074969448594546407 -0.0012055494199717444 0 0.00077180261743590832 -0.0011888009128068408 0 0.00078709022000587664 -0.0012085460160957721 0 0.00082564039150493317 -0.0012087310658873114 0 0.00077180261743590832 -0.0011888009128068408 0 0.00078709022000587664 -0.0012085460160957721 0 0.00082564039150493317 -0.0012087310658873114 0 0.00078180483921752803 -0.0011728402921784655 0 0.00077180261743590832 -0.0011888009128068408 0 0.00074969448594546407 -0.0012055494199717444 0 0.00077180261743590832 -0.0011888009128068408 0 0.00074379853633230338 -0.0011624201596682957 0 0.00078180483921752803 -0.0011728402921784655 0 0.00077180261743590832 -0.0011888009128068408 0 0.00074379853633230338 -0.0011624201596682957 0 0.00082564039150493317 -0.0012087310658873114 0 0.00083045067227217439 -0.0012167451812591643 0 0.00078709022000587664 -0.0012085460160957721 0 0.00089999843141530425 -0.0012317891652257808 0 0.00082564039150493317 -0.0012087310658873114 0 0.00083045067227217439 -0.0012167451812591643 0 0.00083045067227217439 -0.0012167451812591643 0 0.00078709022000587664 -0.0012085460160957721 0 0.00080138447427772553 -0.0012230578612294619 0 0.00077922049600286905 -0.0012337616331282305 0 0.00078709022000587664 -0.0012085460160957721 0 0.00080138447427772553 -0.0012230578612294619 0 0.0008213568173788035 -0.0012441175636742016 0 0.00085061171212770439 -0.001226908021479089 0 0.00080138447427772553 -0.0012230578612294619 0 0.00083045067227217439 -0.0012167451812591643 0 0.00085061171212770439 -0.001226908021479089 0 0.00080138447427772553 -0.0012230578612294619 0 0.00089999843141530425 -0.0012317891652257808 0 0.00083045067227217439 -0.0012167451812591643 0 0.00085061171212770439 -0.001226908021479089 0 0.00089999843141530425 -0.0012317891652257808 0 0.00097970319943505458 -0.0012011661713583028 0 0.00085061171212770439 -0.001226908021479089 0 0.00080138447427772553 -0.0012230578612294619 0 0.00080519975301472136 -0.0012303883477162015 0 0.00082200749285511537 -0.0012593357601806473 0 0.0007994094285120318 -0.0012430055060362144 0 0.00080298286261628639 -0.0012766101312181454 0 0.00079298831368177663 -0.0012666401759908017 0 0.00080138447427772553 -0.0012230578612294619 0 0.00082200749285511537 -0.0012593357601806473 0 0.0008213568173788035 -0.0012441175636742016 0 0.00080138447427772553 -0.0012230578612294619 0 0.00080519975301472136 -0.0012303883477162015 0 0.00081204242619368301 -0.0012438463779386873 0 0.00079340736872215718 -0.0012494088290262479 0 0.00082086545592033701 -0.0012565839512079019 0 0.00078815589357854776 -0.0012884237544332124 0 0.00082086545592033701 -0.0012565839512079019 0 0.00085282233083503541 -0.0013092427159077068 0 0.00079340736872215718 -0.0012494088290262479 0 0.00078815589357854776 -0.0012884237544332124 0 0.00082086545592033701 -0.0012565839512079019 0 0.00082086545592033701 -0.0012565839512079019 0 0.00086588794916766664 -0.0012476442618332691 0 0.00085282233083503541 -0.0013092427159077068 0 0.00081204242619368301 -0.0012438463779386873 0 0.00082086545592033701 -0.0012565839512079019 0 0.00084050147845936578 -0.0012355310882020943 0 0.00082086545592033701 -0.0012565839512079019 0 0.00084050147845936578 -0.0012355310882020943 0 0.00086588794916766664 -0.0012476442618332691 0 0.00085933647272547892 -0.0012162899107468564 0 0.00084050147845936578 -0.0012355310882020943 0 0.00086588794916766664 -0.0012476442618332691 0 0.00052078460490841214 -0.00040172375275895867 0 0.00062325123081099598 -0.00052763883350605907 0 0.00085933647272547892 -0.0012162899107468564 0 0.00093133277117204169 -0.0012441271951590129 0 0.00086588794916766664 -0.0012476442618332691 0 0.00017801117950006558 0.00041564114288228881 0 0.00038349731493277583 0.00045000715022441867 0 0.00031214437442295107 0.00019148460548855517 0 0.00093133277117204169 -0.0012441271951590129 0 0.00086588794916766664 -0.0012476442618332691 0 0.00085282233083503541 -0.0013092427159077068 0 0.0010497022922516799 -0.0013034582984311157 0 0.00093133277117204169 -0.0012441271951590129 0 0.0009251983350626802 -0.0013287692770170795 0 0.00093133277117204169 -0.0012441271951590129 0 0.00085282233083503541 -0.0013092427159077068 0 0.0009251983350626802 -0.0013287692770170795 0 0.0010069316914531469 -0.0014283097789281689 0 0.00083991068290879942 -0.001431713473668679 0 0.0009251983350626802 -0.0013287692770170795 0 0.0010497022922516799 -0.0013034582984311157 0 0.0010069316914531469 -0.0014283097789281689 0 0.0009251983350626802 -0.0013287692770170795 0 0.00083991068290879942 -0.001431713473668679 0 0.00085282233083503541 -0.0013092427159077068 0 0.0009251983350626802 -0.0013287692770170795 0 0.00078815589357854776 -0.0012884237544332124 0 0.00085282233083503541 -0.0013092427159077068 0 0.00080600106830779603 -0.0013719342566087969 0 0.00083991068290879942 -0.001431713473668679 0 0.00085282233083503541 -0.0013092427159077068 0 0.00080600106830779603 -0.0013719342566087969 0 0.00080849717928658583 -0.001355266159901418 0 0.00082200749285511537 -0.0012593357601806473 0 0.00080600106830779603 -0.0013719342566087969 0 0.00080298286261628639 -0.0012766101312181454 0 0.00080916725584040969 -0.0013624534673097259 0 
</DataArray>
</PointData>
<CellData Scalars="region_id,cross_section_updated," Vectors="" Tensors="stress,">
<DataArray type="Float64" Name="region_id" format="ascii">
5 5 5 5 5 6 5 5 5 5 5 5 5 5 6 5 5 5 5 5 5 6 5 6 5 6 5 6 5 5 5 6 5 5 6 5 5 5 5 5 5 5 6 5 5 5 5 6 6 5 5 5 5 5 5 6 5 5 5 5 5 5 5 5 5 5 5 5 5 5 5 6 5 5 5 5 5 5 5 5 5 5 6 5 5 6 5 5 6 5 6 6 5 6 6 5 5 5 6 5 5 5 5 6 5 5 6 5 5 6 5 5 5 6 5 5 5 5 6 6 5 5 6 5 5 6 5 5 5 5 6 5 5 5 5 5 5 5 5 5 6 6 5 6 5 5 5 5 6 5 6 5 5 6 5 5 5 6 5 5 5 6 6 5 6 5 5 5 5 5 5 5 5 5 5 5 5 5 5 6 5 6 6 6 5 5 5 5 6 5 5 5 6 5 6 6 5 6 6 5 5 5 6 5 5 6 5 5 5 6 5 5 5 5 5 6 5 5 5 5 5 6 6 5 5 5 5 6 5 5 5 5 5 6 5 5 5 6 5 5 5 5 5 6 5 5 5 5 5 6 5 5 5 5 5 5 5 6 5 5 5 6 5 5 5 5 5 5 5 5 5 5 5 6 5 5 5 5 5 6 5 5 5 6 5 5 5 5 6 5 5 5 6 5 5 5 5 5 6 5 5 5 5 5 5 6 5 5 5 5 5 5 5 5 5 6 5 5 5 5 5 5 6 5 5 5 5 6 5 5 5 5 5 5 6 5 5 5 5 5 6 5 5 5 6 5 5 5 5 5 5 5 5 5 5 6 5 5 5 5 5 5 5 5 5 5 5 5 5 5 5 5 5 5 5 5 5 5 5 5 5 5 5 5 5 5 5 6 5 5 6 5 5 5 5 5 5 6 5 5 5 5 5 5 5 5 5 6 5 5 6 5 5 5 5 6 5 5 6 5 5 5 6 5 5 5 6 5 5 5 6 5 5 5 5 6 5 5 6 5 5 6 5 5 5 5 5 6 5 5 5 5 5 5 5 5 6 5 5 5 6 5 5 5 5 5 6 5 5 5 5 5 5 5 5 5 5 5 5 5 5 5 5 5 6 5 5 5 5 5 5 5 5 5 5 5 5 5 5 5 5 5 5 5 5 5 5 5 5 6 5 5 5 5 6 5 5 5 5 5 5 5 6 5 5 5 5 5 6 5 5 5 5 5 5 5 5 5 5 5 5 5 5 5 5 6 5 6 5 5 6 5 6 5 5 5 5 5 5 6 5 5 5 5 5 5 5 6 5 5 6 5 5 6 5 5 5 5 5 6 5 6 5 6 5 5 5 5 6 5 5 5 6 5 6 5 5 5 5 5 6 5 6 5 5 5 5 5 5 5 5 5 5 5 5 5 5 5 6 5 5 5 5 5 5 5 5 5 5 5 5 5 5 5 6 5 5 5 5 5 5 5 5 5 5 5 5 5 5 5 5 5 5 6 5 5 5 5 5 5 5 5 5 6 5 5 6 5 5 5 5 5 5 5 5 5 5 6 5 6 5 5 5 5 5 5 5 5 5 6 5 5 5 5 5 5 5 6 5 5 5 5 5 5 5 6 5 5 5 5 5 6 5 5 5 5 5 5 5 5 5 5 6 5 5 5 5 5 5 5 5 5 5 5 5 6 5 5 5 5 5 5 5 5 5 5 5 5 5 5 5 5 5 5 5 6 6 5 5 5 5 6 6 5 5 5 5 5 5 5 5 5 5 5 5 5 6 5 5 5 5 5 5 5 5 5 5 5 5 5 5 5 5 5 5 5 5 5 5 5 5 5 5 5 5 5 5 5 5 5 5 5 5 5 5 5 5 5 5 5 5 6 5 5 6 5 5 6 5 5 6 5 5 5 5 6 5 6 5 6 5 5 6 5 5 6 5 5 5 5 6 5 5 5 5 5 5 6 5 6 5 5 5 5 5 5 5 6 5 5 5 5 6 5 5 5 5 5 5 6 5 5 5 6 5 5 5 5 5 5 5 5 5 5 5 5 5 5 6 5 5 5 6 6 5 5 5 5 5 5 5 6 5 5 5 5 5 5 6 5 5 6 5 5 5 5 5 6 6 6 5 5 5 5 6 5 5 6 5 6 5 5 5 5 6 5 5 6 5 5 5 5 5 6 5 5 6 5 5 6 5 5 5 6 5 6 5 5 5 5 5 5 5 5 6 5 5 5 6 6 5 5 6 5 5 6 5 5 5 5 5 5 5 5 5 5 5 5 5 5 5 6 5 5 5 5 5 5 5 6 5 5 5 5 5 5 5 5 5 5 5 5 5 5 5 5 5 6 6 5 5 5 5 5 5 5 5 5 5 5 5 5 5 5 5 5 5 5 5 5 6 5 5 5 5 6 5 5 6 5 5 5 5 5 6 5 5 5 5 5 5 5 5 6 5 5 5 5 5 5 5 5 5 5 5 5 5 5 5 5 5 5 5 5 5 6 5 5 5 6 5 5 5 5 5 5 5 5 5 5 5 5 5 5 5 5 5 5 6 5 5 6 5 5 5 5 5 5 5 5 5 5 5 5 5 5 5 5 5 5 5 5 5 5 5 5 5 5 5 5 5 5 5 5 5 5 5 5 5 5 5 5 6 5 5 6 5 5 6 5 5 5 5 5 5 5 6 5 5 5 5 6 5 5 5 6 5 5 5 6 5 5 5 5 5 6 5 6 5 5 5 5 5 5 5 5 5 5 5 5 5 5 5 5 5 5 5 5 5 5 5 5 5 6 5 6 5 5 5 5 5 5 6 5 5 5 5 5 6 5 5 5 5 5 6 5 5 5 5 5 5 5 5 6 5 5 5 5 5 5 5 5 5 6 5 5 6 5 5 5 5 5 5 5 5 6 5 5 5 5 5 6 5 5 5 5 6 5 5 6 5 5 5 6 5 5 5 5 5 5 5 5 5 5 5 5 5 5 6 5 5 5 5 5 5 5 6 5 6 5 5 5 5 5 5 5 5 5 5 6 5 5 6 5 5 5 5 5 5 6 5 5 5 5 5 5 5 6 5 5 5 5 5 5 5 5 5 5 5 5 5 5 5 5 5 5 5 5 5 5 5 5 5 5 5 5 5 5 5 5 6 5 5 5 6 5 5 5 6 5 5 5 5 6 5 5 5 5 5 6 5 5 5 6 5 5 5 5 5 5 5 5 5 5 5 5 5 5 5 5 6 5 5 5 5 5 5 5 5 5 5 6 5 5 6 5 5 5 6 5 5 5 5 5 6 5 5 6 5 6 5 5 6 5 5 6 5 5 6 5 5 5 5 5 5 5 5 5 5 5 5 6 5 5 5 5 5 5 5 5 6 5 5 5 5 5 5 5 5 5 5 6 5 6 5 5 5 6 5 5 5 5 5 5 6 5 5 5 5 5 5 5 5 5 5 5 5 5 5 5 5 5 5 5 5 5 5 5 5 5 5 5 5 5 5 6 5 5 6 5 6 5 5 5 5 6 5 5 5 5 5 5 5 6 5 5 5 5 5 5 5 5 5 5 5 5 5 5 5 5 5 6 5 5 6 5 5 5 5 5 5 5 5 5 5 5 5 5 5 5 5 5 6 5 5 5 5 5 5 5 5 6 5 5 5 5 5 6 5 6 5 5 5 5 5 5 5 5 5 5 5 5 5 5 6 5 5 6 5 5 5 5 5 5 5 5 5 5 5 5 5 5 5 5 5 5 5 6 5 5 5 5 5 6 5 6 6 5 5 6 5 5 6 5 5 5 5 5 5 6 5 5 6 5 6 5 5 5 6 5 5 5 5 5 5 6 5 5 5 5 5 5 6 5 5 5 5 5 5 5 5 5 5 6 5 5 5 5 5 5 5 5 6 5 5 5 5 5 5 5 5 5 5 6 5 5 5 6 5 5 5 5 5 5 5 5 5 5 6 5 5 6 5 5 5 6 5 5 5 5 5 5 5 5 5 6 5 5 5 6 5 5 5 5 5 5 5 6 5 5 5 5 5 6 5 5 5 5 5 5 5 5 5 5 5 5 6 5 5 5 5 6 5 5 5 6 5 5 5 5 5 5 6 5 5 6 5 5 5 5 5 5 5 5 5 5 5 5 5 6 5 5 5 5 5 5 5 5 5 5 5 5 6 5 6 5 5 5 6 5 5 6 5 5 5 5 5 5 5 5 5 5 5 5 5 5 5 5 5 5 5 5 6 5 5 5 5 5 5 5 5 5 5 5 5 5 5 5 5 5 5 5 5 5 5 5 6 5 5 5 6 5 5 5 5 5 5 5 5 6 5 5 5 5 5 5 5 6 5 5 5 5 5 5 5 5 6 5 5 5 5 6 5 5 6 5 5 5 5 5 5 5 5 5 5 5 5 5 5 5 5 5 5 5 5 5 5 5 5 5 5 5 5 5 5 5 5 5 5 5 5 5 5 5 5 5 5 5 5 5 5 6 5 5 5 5 5 5 5 5 6 5 5 6 5 5 5 5 5 5 5 5 5 5 6 5 5 5 5 5 5 5 5 5 5 5 5 5 5 5 5 5 5 5 5 5 5 5 5 5 5 5 5 5 5 5 5 5 5 5 5 5 5 5 5 5 5 5 5 5 5 5 5 5 5 5 5 5 5 5 5 5 5 5 5 5 5 5 5 5 5 5 5 5 5 5 5 5 5 5 5 5 5 5 5 5 5 6 5 5 5 5 6 5 5 5 5 5 5 5 5 5 5 5 5 5 5 5 5 5 5 5 5 5 5 5 5 5 5 6 5 5 5 5 5 5 5 6 5 5 5 5 5 5 5 5 5 5 5 5 5 6 5 6 5 5 5 5 5 5 5 5 5 5 5 5 5 5 6 5 5 5 5 5 5 5 5 5 5 5 5 5 5 5 5 5 5 5 5 5 6 5 5 5 5 6 5 6 5 5 5 5 5 5 6 6 5 5 5 5 5 5 5 6 5 5 5 5 5 5 5 5 5 5 5 5 5 5 5 5 5 6 5 5 5 5 5 6 5 5 5 5 5 5 5 6 5 5 5 5 5 5 5 5 5 5 5 5 5 5 5 5 5 6 5 5 5 5 5 5 5 5 5 5 5 5 5 5 5 5 5 5 5 6 5 5 5 5 5 6 5 5 5 5 5 5 5 5 5 5 5 5 5 5 5 5 5 5 5 5 5 6 5 5 6 5 5 5 5 5 5 5 5 5 5 5 5 5 5 5 5 5 5 5 5 5 5 5 5 5 5 5 5 5 5 5 5 6 5 5 5 5 5 5 5 5 5 5 5 5 5 5 5 5 6 5 5 5 5 5 5 6 5 5 5 5 5 6 5 6 5 5 5 5 6 5 5 5 5 5 5 5 5 5 5 5 5 6 6 5 5 5 5 5 5 6 5 5 5 6 6 5 5 6 5 6 5 6 5 5 5 5 6 5 5 5 6 5 5 5 5 5 5 6 6 5 5 5 5 5 5 5 5 6 5 5 5 5 6 5 6 5 5 5 5 5 5 5 5 5 5 5 5 6 5 5 5 5 5 5 5 6 5 5 5 5 5 5 5 5 5 5 5 5 5 5 5 5 5 5 5 5 6 5 6 5 5 5 5 5 5 5 5 5 5 5 5 5 5 5 5 5 5 5 5 5 5 6 5 6 5 5 5 5 5 5 5 6 5 5 5 5 5 5 6 5 5 5 5 5 5 5 5 6 5 5 5 5 5 5 5 5 5 5 5 5 5 5 5 5 5 5 5 5 5 5 5 5 5 6 5 5 5 6 6 5 5 5 6 5 5 5 6 5 5 5 5 5 5 5 5 5 6 5 5 5 5 5 5 6 5 6 5 5 5 5 6 6 6 5 5 5 5 5 5 5 5 5 5 5 5 5 5 5 6 5 5 5 5 5 5 5 5 6 5 5 5 5 5 5 5 5 5 5 5 6 5 6 5 5 5 5 5 5 5 5 5 5 5 5 5 5 5 5 5 5 6 6 5 5 5 5 5 5 6 5 5 5 5 5 6 5 5 5 5 5 5 5 5 5 5 5 5 6 5 5 5 5 6 5 5 6 5 5 5 5 5 5 5 5 6 5 5 5 5 5 5 5 5 5 5 5 5 5 6 5 5 5 5 6 5 5 5 6 5 6 5 6 5 5 5 5 5 5 5 5 5 5 5 6 5 5 5 5 5 6 5 5 6 5 6 5 5 5 5 6 5 5 5 5 5 5 6 5 5 5 5 5 5 5 5 5 6 5 5 5 5 5 5 6 5 5 5 5 5 5 5 5 5 5 5 5 5 5 6 5 5 5 6 6 5 6 5 6 6 6 5 5 5 5 5 6 5 5 5 5 5 5 5 6 5 6 5 5 5 5 5 5 5 5 5 6 5 5 5 5 5 5 6 5 5 5 6 5 5 5 5 5 5 5 6 5 5 5 5 5 6 6 5 5 5 5 5 5 6 6 5 5 5 5 6 5 5 5 5 6 6 5 6 5 6 5 5 5 5 5 6 5 5 5 5 6 5 5 5 5 5 5 5 6 5 6 5 5 5 5 5 5 5 5 5 5 5 5 5 5 5 5 6 6 5 5 6 5 5 5 5 5 5 6 5 5 6 5 5 6 5 6 5 5 6 5 5 5 5 5 5 5 5 5 5 5 5 5 5 5 5 5 5 5 6 5 6 5 5 5 5 5 5 5 5 5 6 5 5 5 5 6 5 5 5 6 5 5 6 5 5 5 5 6 5 5 5 6 5 6 5 5 5 5 5 5 5 5 5 5 5 5 5 5 6 5 5 5 5 6 6 5 5 5 5 5 5 5 5 5 5 5 5 6 5 5 5 5 5 5 6 5 5 5 5 6 5 5 5 5 5 5 5 5 5 5 5 5 5 5 5 6 5 5 5 5 5 5 5 5 5 5 5 5 5 5 5 5 5 5 5 5 5 5 5 6 5 5 5 5 6 5 5 6 5 6 5 5 6 5 5 5 5 5 6 6 5 5 5 5 5 5 5 6 5 5 5 5 5 5 5 5 6 5 5 5 5 5 5 5 5 5 5 5 5 5 5 5 5 6 5 5 5 5 5 5 5 5 5 5 5 6 6 5 5 5 5 6 5 5 5 6 5 5 5 5 5 5 6 5 6 5 5 6 5 5 5 6 6 5 6 6 5 6 5 5 5 5 6 5 5 5 5 5 5 5 5 5 5 5 5 5 6 6 5 6 5 5 5 5 5 5 5 5 5 5 5 5 5 5 5 5 6 5 5 5 5 6 6 5 5 5 5 5 5 5 5 5 5 5 5 5 5 5 6 5 5 5 5 5 5 5 5 6 5 5 5 5 5 5 5 5 5 6 5 5 5 5 5 5 5 5 5 5 5 5 5 5 6 5 5 5 5 5 5 5 5 5 5 5 6 5 5 5 5 5 5 5 5 5 6 5 5 6 5 5 6 6 5 5 5 6 5 5 5 6 5 5 5 5 5 6 5 5 5 5 5 5 5 5 5 5 5 5 5 6 5 6 5 5 6 6 5 5 5 5 5 6 5 5 5 5 5 5 5 5 5 5 5 6 5 5 5 5 5 5 5 5 5 5 5 5 5 6 6 5 5 5 5 5 5 5 5 5 5 5 5 5 5 5 5 5 5 5 5 6 5 5 6 5 5 5 5 5 5 5 6 5 5 5 5 5 5 5 6 5 5 5 6 6 5 5 6 5 5 5 5 6 6 5 6 5 5 5 5 5 5 5 5 5 5 5 5 5 6 5 5 6 5 5 5 6 5 5 5 5 5 5 5 5 5 5 5 5 5 6 5 5 5 5 5 5 5 5 5 5 5 5 6 5 5 5 5 5 5 5 5 5 5 5 5 6 5 5 6 5 5 5 5 5 5 5 5 5 5 5 5 5 5 5 5 5 6 5 5 6 5 5 6 5 5 6 5 5 5 5 6 6 6 5 6 5 5 5 5 5 5 6 5 5 5 5 5 5 5 5 5 5 5 5 5 5 5 5 5 5 5 5 5 5 5 5 6 5 5 5 5 6 5 5 5 5 5 5 5 5 5 6 6 5 5 5 5 5 5 5 5 5 6 5 5 5 5 5 5 6 5 6 5 5 6 5 5 5 6 6 5 5 6 6 5 5 5 5 5 5 6 5 5 5 5 6 5 5 5 5 5 5 5 5 5 5 5 5 6 5 5 6 5 5 5 5 5 6 6 5 5 5 6 5 5 5 5 5 5 5 5 5 6 5 5 5 5 5 5 5 5 5 5 5 5 5 5 5 5 5 5 5 5 5 6 5 5 5 5 5 5 5 5 5 6 5 5 5 5 5 5 5 5 6 5 5 5 5 5 5 6 5 5 5 5 5 5 5 5 5 5 5 5 6 5 5 5 6 5 5 5 5 5 5 5 5 5 5 5 5 6 5 5 5 5 5 5 5 5 5 5 6 5 5 5 5 5 5 5 5 5 5 5 6 5 5 5 6 5 5 5 5 5 5 5 5 5 5 5 6 5 5 5 6 5 5 6 5 5 5 5 5 5 5 5 5 5 5 5 5 6 5 5 6 5 5 6 5 5 6 6 5 5 5 6 5 5 6 5 5 5 5 6 5 5 5 5 5 5 5 5 5 5 5 5 5 6 5 5 5 5 6 5 5 5 5 5 6 5 5 5 6 5 5 5 5 5 5 5 5 6 5 5 5 5 5 5 6 5 5 5 5 5 6 5 6 5 5 5 6 6 5 5 5 5 5 5 6 5 5 5 5 5 5 5 5 5 6 5 5 5 6 5 5 6 5 6 5 5 5 5 5 5 5 6 5 5 5 5 6 5 5 5 5 5 5 6 5 5 5 5 5 5 5 5 5 5 5 5 6 5 5 5 5 6 5 6 5 5 5 5 5 6 5 5 5 6 5 5 5 5 6 5 5 5 5 5 5 5 5 5 5 5 5 5 5 5 5 5 5 5 5 5 5 5 5 5 5 5 5 5 5 6 5 5 5 5 5 5 5 5 5 5 5 5 5 5 5 5 5 5 5 5 5 5 5 5 5 5 5 5 5 5 5 5 5 5 5 5 5 5 5 5 5 5 5 5 5 5 5 5 5 5 5 5 5 5 5 5 5 5 5 5 5 5 5 5 5 5 5 6 5 5 5 5 5 5 5 5 5 5 5 5 5 5 5 5 5 5 5 5 5 5 5 5 6 5 5 5 5 5 5 5 5 5 5 6 5 5 5 5 5 5 5 6 6 5 5 5 5 5 5 5 5 5 5 5 5 5 5 5 5 5 5 5 5 5 5 5 5 5 5 5 5 5 5 5 6 5 5 5 5 5 5 5 5 5 5 6 6 5 6 5 5 5 5 5 5 6 5 5 5 5 5 6 5 5 5 5 5 6 5 5 5 5 6 5 5 5 5 5 5 5 5 5 5 5 5 5 5 5 5 5 5 5 6 5 5 5 5 5 5 5 5 5 6 5 5 5 5 5 5 5 5 5 5 6 5 5 5 6 5 5 5 6 5 5 6 6 5 5 5 5 6 5 5 5 5 5 5 5 5 6 5 5 5 5 5 5 5 5 5 5 5 5 5 5 5 5 5 5 5 5 5 5 5 5 5 5 5 5 5 5 5 5 5 6 5 5 6 5 6 5 6 5 5 5 6 6 6 5 5 5 6 5 5 5 5 5 5 5 5 5 5 5 5 5 5 6 5 5 5 5 5 5 5 5 5 5 5 5 5 5 5 6 5 5 6 6 5 5 5 6 5 5 6 5 6 5 6 5 5 5 5 5 5 5 5 6 5 5 6 5 5 5 6 5 6 5 5 5 5 5 5 5 5 5 5 5 5 5 5 5 5 5 5 5 5 5 5 5 5 5 5 5 5 5 5 5 5 5 5 5 5 5 5 5 5 5 5 5 5 5 6 5 5 5 5 5 5 6 6 5 5 5 5 5 6 5 6 6 5 6 6 5 6 5 6 5 5 5 5 5 5 5 5 5 6 5 5 5 5 5 5 6 5 5 5 5 5 5 5 5 5 5 5 6 6 5 5 5 5 5 5 6 6 5 5 6 5 5 5 5 5 5 5 5 6 5 5 5 5 5 5 5 5 5 5 5 5 5 5 5 5 5 5 5 5 6 5 6 5 5 6 5 5 5 5 6 6 6 5 5 5 6 6 5 5 6 5 5 5 6 5 6 5 5 6 5 6 6 5 6 5 5 5 5 5 6 6 5 5 5 5 5 5 5 6 5 5 5 5 5 6 5 5 5 6 5 5 5 5 6 5 6 5 6 5 5 6 6 5 5 5 6 5 6 5 5 5 5 5 5 5 5 5 5 5 5 5 5 5 5 5 5 5 5 6 5 5 5 5 5 5 5 5 5 6 5 5 5 5 6 5 5 5 5 6 5 5 5 5 5 5 5 5 5 5 6 5 5 5 5 6 5 5 5 5 5 5 5 5 5 5 5 5 5 5 5 5 5 5 5 6 5 5 6 5 5 6 5 5 5 6 6 5 5 5 5 5 5 5 5 6 5 5 5 5 5 5 5 5 5 5 5 5 5 5 5 5 5 5 5 5 6 5 5 5 5 5 5 5 5 5 5 5 5 5 5 5 5 5 5 5 5 5 5 5 5 5 5 6 5 5 5 5 5 5 5 5 5 6 5 5 6 5 6 6 5 5 5 5 5 5 6 5 5 5 5 5 5 5 5 5 5 5 5 5 5 5 5 5 5 5 5 5 5 5 5 5 5 5 5 5 5 5 5 5 5 5 6 5 5 5 5 5 5 5 5 5 5 5 5 5 5 5 5 5 5 5 5 5 5 5 5 5 5 5 5 5 6 5 5 5 5 5 5 5 6 5 5 6 5 5 5 5 5 6 5 6 5 5 6 5 5 5 5 5 5 5 5 5 5 5 5 5 5 5 5 5 5 5 5 5 5 5 5 5 5 5 5 5 5 5 5 5 5 5 5 5 5 5 6 5 6 5 5 5 5 5 5 5 6 6 5 5 5 6 5 5 5 5 5 5 5 5 5 5 6 5 5 6 5 5 6 5 5 5 5 5 5 5 6 5 5 5 5 5 5 5 6 5 5 5 5 5 5 5 5 5 5 5 6 5 5 5 5 5 6 5 5 5 5 5 5 6 5 5 5 5 6 5 6 5 5 5 6 6 5 6 5 5 5 5 5 5 6 5 5 5 5 5 5 5 5 6 5 5 6 5 5 5 6 5 5 6 5 5 6 5 5 5 5 6 5 5 5 6 5 5 5 5 6 5 5 5 5 5 5 5 5 5 5 5 5 5 5 5 6 5 5 5 5 5 6 5 5 5 5 5 5 5 5 5 5 5 5 5 5 5 5 5 6 5 5 6 5 5 5 5 5 5 6 5 5 5 5 5 5 5 5 5 5 5 5 5 5 5 5 5 6 5 5 5 5 5 5 5 5 5 6 5 6 5 5 6 5 5 5 6 6 5 5 5 5 5 5 5 5 6 5 5 5 6 5 6 6 5 5 6 5 5 5 5 5 5 5 5 6 5 5 5 6 6 6 5 6 5 5 6 5 5 6 5 6 5 5 5 5 5 5 5 5 5 5 5 5 5 5 5 5 5 5 5 5 5 5 5 5 5 5 5 5 5 5 5 5 5 5 5 5 5 5 5 5 5 5 5 5 5 5 5 5 5 5 5 5 6 5 5 6 5 5 5 5 5 5 5 5 6 5 5 6 5 5 5 6 5 5 5 5 5 5 5 5 5 5 5 5 5 5 5 5 5 5 5 5 6 5 6 5 6 5 5 5 6 5 5 6 5 5 5 5 5 5 5 5 5 5 5 5 5 5 5 5 5 5 5 5 5 6 5 5 6 5 5 6 5 5 5 5 5 5 5 6 5 5 5 5 5 6 5 5 5 6 5 5 6 5 5 5 5 5 5 5 5 5 5 5 5 5 5 5 5 5 5 5 5 5 5 5 5 5 5 5 5 5 5 5 5 6 5 5 6 5 5 5 6 6 5 6 5 6 5 5 5 6 5 5 5 5 5 6 5 5 5 5 5 5 5 5 5 5 6 5 5 5 5 5 6 5 5 5 5 6 5 5 5 5 5 5 5 5 5 5 5 5 6 5 5 5 5 5 5 5 6 5 5 5 5 5 5 5 5 5 5 5 5 5 5 5 5 5 5 5 6 5 5 5 5 5 5 6 5 5 5 5 5 5 5 5 5 5 5 5 6 5 5 5 5 5 5 5 5 5 6 5 6 5 5 5 5 5 5 5 5 5 6 5 6 5 5 5 5 5 5 5 5 5 6 5 5 5 5 5 5 5 6 5 5 5 6 5 5 5 5 5 5 6 5 5 5 5 5 5 6 5 5 5 5 6 5 5 5 6 5 5 5 6 5 5 5 6 5 5 5 5 5 6 6 5 5 5 5 5 5 5 5 5 5 5 5 5 6 5 5 5 5 6 5 5 5 5 5 5 5 5 5 5 5 5 5 5 5 5 5 5 5 6 5 6 5 5 5 5 5 5 5 5 5 5 5 5 6 5 5 5 5 5 6 5 5 5 5 5 5 5 6 5 5 5 6 6 5 5 5 5 5 5 5 5 5 5 6 5 5 5 5 5 5 6 5 5 5 5 5 5 5 5 5 5 5 5 6 5 5 6 5 5 5 5 6 5 5 5 5 5 6 6 5 5 6 5 5 5 5 5 6 5 6 5 6 6 5 6 5 5 6 5 5 5 5 5 5 5 6 6 5 6 5 6 5 5 5 5 5 5 5 5 5 5 5 6 5 5 5 5 5 5 5 5 5 5 5 5 5 5 5 6 5 5 5 5 5 5 5 5 6 5 5 5 5 5 5 5 5 5 5 5 5 5 5 5 5 6 5 5 5 5 5 5 5 5 5 5 5 5 5 6 5 6 5 5 5 5 5 5 5 5 5 5 5 5 5 5 5 5 5 5 5 6 5 5 5 6 5 5 5 5 5 5 5 5 5 5 5 5 5 5 5 5 5 5 5 5 5 5 5 5 5 5 5 6 5 5 5 5 5 5 5 5 6 5 5 5 5 5 5 5 5 6 6 5 5 5 5 5 5 5 5 5 5 5 5 5 5 5 5 5 5 5 5 5 5 5 5 5 5 5 5 5 5 6 5 5 5 5 5 5 5 5 5 5 5 6 6 5 5 5 6 6 5 5 5 6 5 5 5 6 5 5 5 5 5 6 5 5 6 5 5 5 5 5 5 5 5 5 5 5 5 5 5 5 5 5 5 5 5 5 5 5 5 5 5 5 5 5 5 6 5 5 5 5 5 5 5 5 5 5 5 5 5 5 6 5 5 5 5 5 5 5 5 5 5 5 5 5 5 5 5 5 5 5 5 5 6 5 5 5 5 5 5 5 5 6 5 6 5 5 6 6 5 5 6 5 5 5 6 6 5 6 5 6 5 5 6 5 5 5 5 6 5 5 5 5 5 5 5 5 6 5 5 5 5 5 5 5 5 5 5 5 5 5 5 5 5 5 5 5 5 5 5 5 6 5 5 5 5 5 5 5 5 5 5 5 5 5 5 5 5 6 5 5 5 5 5 5 5 5 5 6 6 5 5 5 6 5 5 5 5 5 5 5 5 6 5 5 5 5 5 5 5 5 5 5 5 6 5 6 5 5 5 5 5 5 5 5 5 5 5 6 5 5 5 5 5 5 6 5 5 5 5 5 5 5 5 5 5 5 5 5 5 5 5 5 5 5 5 5 5 5 5 5 5 5 5 5 5 5 5 5 5 5 5 5 6 6 5 5 5 6 5 5 5 5 5 5 5 5 5 5 5 5 5 5 5 5 5 5 5 5 5 5 5 5 5 5 5 5 5 5 5 5 5 5 5 5 5 5 6 5 5 5 5 5 6 5 5 5 5 5 6 5 6 5 5 6 5 5 5 5 5 5 5 6 5 5 5 5 5 5 5 5 5 5 5 5 5 5 5 5 5 5 5 5 5 5 5 5 5 5 5 6 5 5 6 5 5 6 5 5 5 5 6 5 5 5 5 5 5 5 5 5 5 5 5 5 5 5 5 5 5 5 5 5 5 5 6 5 5 6 5 5 5 5 5 5 5 5 5 5 5 5 5 5 5 6 5 5 5 5 5 5 6 5 6 5 5 5 5 5 5 5 5 5 5 5 5 5 5 5 5 5 5 5 5 5 6 5 5 5 6 6 5 5 5 5 6 5 5 5 6 5 5 5 5 5 5 6 5 6 5 5 5 5 6 5 5 5 5 6 5 5 5 5 6 5 5 6 5 5 5 5 5 5 5 5 5 5 5 5 5 5 5 5 5 5 5 5 5 6 5 5 6 5 5 5 5 5 5 5 5 5 5 5 5 5 5 5 5 5 5 5 5 5 5 5 5 5 5 5 5 5 5 5 5 5 5 5 5 5 5 5 5 5 5 5 5 5 5 5 5 5 5 5 5 5 5 5 5 5 5 5 6 5 5 5 5 5 5 5 5 5 5 5 5 5 5 6 5 5 5 5 5 5 5 5 5 5 6 5 5 5 5 5 5 5 5 5 5 5 5 5 5 5 5 5 6 5 5 5 6 5 5 5 5 5 5 5 5 6 5 5 5 5 5 6 5 5 5 5 5 5 5 5 6 5 5 5 5 5 5 6 5 5 5 5 5 5 5 5 5 5 5 5 6 5 5 6 6 5 6 5 5 5 5 5 6 5 5 5 5 5 5 5 5 6 6 5 6 5 5 5 5 5 5 5 5 5 6 5 5 5 5 5 5 5 5 5 5 5 5 5 5 5 5 5 6 5 5 5 5 6 5 5 5 6 5 5 5 6 5 5 5 5 5 5 5 5 6 5 5 5 5 6 5 5 5 5 5 5 5 5 5 6 5 5 5 5 5 5 5 5 5 5 5 5 5 5 5 5 5 5 5 5 5 5 5 5 5 5 6 6 5 5 5 5 5 5 5 5 5 5 5 5 5 6 5 5 5 5 5 5 6 5 5 5 5 5 5 5 5 5 5 5 5 5 5 5 5 6 5 5 5 5 5 5 5 5 5 5 5 5 5 5 5 5 5 5 5 5 5 5 5 5 5 5 5 5 5 5 5 5 6 5 5 5 5 5 5 5 5 5 5 5 5 5 5 5 5 5 5 5 5 5 5 5 5 5 5 5 5 5 5 5 5 5 5 5 5 5 5 5 5 5 5 5 5 5 5 5 5 5 5 5 5 5 5 5 5 5 5 5 5 5 5 5 6 5 5 5 5 5 5 5 5 5 5 6 5 5 5 5 5 5 5 5 6 5 6 5 6 6 5 5 5 5 6 5 5 5 5 6 5 5 5 5 5 5 6 5 5 5 5 5 5 5 5 5 5 5 5 5 5 6 5 5 6 5 5 5 5 5 5 5 5 5 5 5 5 5 5 5 5 5 5 5 5 5 5 5 5 5 5 5 5 5 5 5 5 5 5 5 6 5 6 5 5 5 5 5 5 6 5 5 5 5 5 5 5 5 5 5 5 5 5 5 5 5 5 5 5 5 6 5 5 5 5 5 5 5 5 5 5 5 5 5 5 5 5 5 5 6 6 5 5 5 5 5 5 6 5 5 5 5 5 5 5 5 5 5 5 5 5 5 5 5 5 6 5 5 5 5 5 5 5 5 5 5 5 5 5 5 5 5 5 5 5 5 5 5 6 5 6 6 5 5 5 6 6 5 6 6 5 5 5 6 5 5 6 5 5 5 5 5 5 5 5 5 5 5 5 5 6 5 5 5 6 5 5 6 5 5 5 6 5 5 5 6 5 6 5 5 6 5 5 6 5 5 6 5 5 5 5 5 5 5 5 5 5 5 5 5 6 6 5 5 5 5 6 6 5 5 6 5 5 5 5 5 5 5 5 5 5 5 5 5 5 5 5 5 5 5 5 5 5 5 5 6 5 5 6 5 5 6 5 5 6 5 5 5 6 5 5 5 5 5 5 5 5 5 5 5 5 5 5 6 5 5 5 5 5 5 5 5 5 5 5 5 5 5 5 5 5 5 5 5 5 5 5 5 5 5 5 5 5 5 5 5 5 5 5 5 5 5 5 5 5 5 5 5 5 5 5 5 5 5 5 5 5 5 5 6 5 5 5 5 6 6 5 5 5 5 6 5 5 5 5 6 6 5 5 5 5 5 6 5 5 5 6 5 5 5 5 5 6 5 5 5 5 5 6 5 5 5 5 5 5 5 5 6 5 6 5 5 5 5 5 5 5 6 6 5 5 5 5 6 5 6 5 5 5 5 5 5 5 5 6 5 5 5 6 5 5 5 6 6 5 5 5 5 5 6 5 5 6 5 6 5 5 5 5 6 5 6 6 5 6 6 5 5 5 5 5 5 5 5 5 5 5 5 5 5 5 5 6 5 5 5 6 5 5 5 5 5 5 5 5 5 5 5 5 6 5 5 5 5 5 5 5 5 5 5 5 5 5 6 5 5 5 6 5 5 5 5 5 5 5 5 5 5 5 5 5 5 5 6 5 5 5 6 5 5 5 5 5 5 5 5 5 5 5 5 5 5 5 5 5 5 5 5 5 5 5 5 5 5 5 5 5 5 5 5 5 5 5 5 5 5 5 5 5 6 5 6 5 5 5 5 6 5 6 5 6 5 5 5 5 5 5 5 5 5 5 5 5 5 6 5 5 5 5 5 5 5 6 5 5 6 5 6 5 5 5 5 6 5 5 6 6 6 5 5 5 5 5 5 5 5 5 5 5 5 5 5 5 5 5 5 5 5 5 5 5 5 6 5 5 5 5 5 5 5 6 5 5 6 6 5 5 5 5 5 5 5 5 5 5 5 5 5 5 5 5 5 5 5 5 5 5 5 5 5 5 5 5 6 5 5 5 5 5 6 5 5 5 6 5 5 5 5 5 5 5 5 5 6 6 5 5 5 5 5 5 5 5 5 5 6 5 5 5 5 5 5 5 5 5 6 5 5 5 5 5 5 5 5 5 5 5 5 5 5 5 5 5 6 5 6 5 5 5 5 5 5 5 5 5 5 5 5 5 5 5 5 5 5 5 5 5 5 5 5 5 5 5 5 5 5 5 5 5 5 5 5 5 6 5 6 5 5 5 5 5 5 5 5 5 6 5 5 5 6 5 5 6 5 6 5 5 6 5 5 5 5 5 6 5 5 5 5 5 5 5 5 6 5 6 5 6 5 5 5 5 5 5 5 5 5 5 5 5 6 5 5 5 6 5 5 5 6 5 6 5 5 5 5 5 6 5 6 5 5 5 6 5 5 6 5 5 5 5 5 5 5 5 5 6 5 5 6 5 5 5 5 5 5 5 5 5 5 5 5 6 5 5 6 5 6 5 5 5 5 5 6 5 5 5 6 6 5 5 5 5 5 5 6 5 5 5 5 6 5 5 5 5 6 6 5 5 6 5 5 5 6 5 5 5 5 5 5 6 5 5 6 5 6 5 6 5 5 5 5 5 5 5 5 5 5 5 5 5 5 5 5 5 5 6 5 5 5 5 5 5 5 5 5 5 5 5 5 5 5 5 5 5 5 5 5 5 6 5 5 6 5 5 5 5 5 5 5 5 5 5 6 5 5 6 5 5 5 6 5 5 5 5 6 6 5 5 5 6 5 6 6 5 5 6 5 5 5 5 6 5 6 5 5 5 5 5 6 5 5 6 5 5 5 5 5 5 5 5 5 5 5 5 5 5 5 6 5 5 5 5 5 5 5 5 5 5 5 5 5 5 5 5 5 5 5 6 5 5 5 6 5 5 5 5 5 5 5 5 5 5 5 6 5 6 5 5 5 5 6 5 5 5 5 6 5 5 5 5 5 5 5 5 6 5 5 6 5 5 5 5 5 5 5 5 5 5 5 5 5 5 5 5 5 5 5 5 5 5 5 5 6 5 5 6 5 5 6 5 5 5 6 5 5 5 5 5 5 5 5 5 5 6 5 5 5 5 5 6 5 5 5 5 5 5 5 6 5 5 5 5 5 5 5 5 5 5 5 6 6 6 5 6 5 5 5 6 5 5 5 6 5 5 5 5 6 5 5 5 5 5 5 6 5 5 5 5 5 6 5 5 5 5 5 5 5 5 5 5 5 5 6 5 5 5 5 5 5 5 5 5 5 5 5 5 5 6 5 5 5 5 5 5 5 5 5 6 5 5 5 5 6 5 5 5 5 5 5 5 5 6 6 5 5 5 5 6 5 5 5 5 5 5 5 5 5 5 5 5 5 5 5 5 5 5 5 5 5 5 5 5 5 5 5 5 5 5 5 6 5 5 5 5 5 5 5 5 5 5 5 5 5 6 5 5 5 5 5 5 5 6 5 5 5 5 5 5 6 5 5 6 5 5 5 5 6 5 5 5 5 5 5 6 5 5 5 5 5 5 5 5 5 5 5 5 5 5 5 5 5 5 5 5 5 5 5 5 5 5 5 5 5 5 5 5 5 5 5 5 5 5 6 5 5 6 5 6 5 6 5 5 5 5 5 6 5 5 5 5 5 5 5 5 6 5 5 5 5 5 6 5 5 5 5 5 6 5 5 5 6 5 5 5 6 5 5 5 5 5 5 5 5 5 5 5 5 5 5 5 5 5 5 5 6 5 5 5 5 5 5 5 5 5 6 5 5 6 5 5 5 5 5 5 6 5 5 5 5 5 5 5 5 5 5 5 5 5 5 5 5 5 5 5 5 5 5 5 5 5 5 5 5 5 5 5 5 5 5 5 5 5 5 5 5 5 5 5 5 5 5 5 5 5 5 5 5 5 5 5 5 5 5 5 5 5 5 5 5 5 5 5 5 5 5 5 5 5 5 5 5 5 5 5 5 5 5 5 5 5 5 5 5 5 5 5 5 5 5 5 5 5 5 5 5 5 5 5 5 5 5 5 5 5 5 5 5 5 5 5 5 5 5 5 5 5 5 5 5 5 5 5 5 5 5 5 5 5 5 5 5 5 5 5 5 5 5 5 5 6 5 5 5 5 5 5 5 5 5 5 6 5 5 5 5 5 5 5 5 5 5 5 5 6 5 5 6 6 5 5 6 5 5 5 5 6 5 6 5 5 5 5 6 5 6 6 5 5 5 6 5 5 5 5 6 5 5 5 5 5 5 5 5 5 5 5 5 6 5 5 5 5 5 5 5 5 5 5 5 6 6 5 5 5 5 5 5 5 5 5 5 6 5 5 5 5 5 6 5 5 5 5 6 5 5 5 5 6 5 5 5 5 5 6 5 6 5 5 6 5 5 5 5 6 5 5 5 5 5 5 5 6 5 5 5 5 5 5 5 5 5 6 5 5 5 5 5 5 5 5 5 5 5 5 5 5 5 5 5 5 5 5 5 5 5 5 5 5 5 5 5 5 5 5 5 5 5 5 5 5 5 5 5 5 5 5 5 5 5 5 5 5 5 5 5 5 5 5 5 5 5 6 5 5 5 6 5 5 5 5 5 5 5 5 5 6 5 6 5 5 5 5 5 5 5 5 5 5 6 5 5 5 5 5 5 5 5 5 6 5 5 5 5 5 6 5 6 5 5 5 5 5 6 5 5 5 5 5 5 5 5 5 5 6 5 6 5 5 6 5 6 5 6 6 5 5 5 5 5 5 5 5 5 6 5 5 5 5 5 5 5 6 5 5 5 5 5 5 6 5 5 5 5 5 6 5 6 6 5 5 6 5 5 5 5 5 5 5 5 6 5 5 5 5 5 5 5 5 5 5 6 5 5 5 6 5 5 5 5 5 5 5 5 5 5 5 5 5 5 5 5 5 5 5 5 5 5 5 5 5 5 5 5 5 5 5 5 5 5 5 5 5 5 5 5 5 5 5 5 5 5 5 5 5 5 5 6 5 5 5 6 5 5 5 5 5 6 5 6 5 5 6 5 6 5 5 5 5 5 5 5 6 6 5 5 5 5 5 5 5 5 5 5 5 5 5 5 5 5 5 6 5 5 5 6 5 6 6 6 5 5 6 5 6 5 5 5 5 5 6 6 5 5 5 5 5 5 5 5 5 5 5 5 5 5 5 5 6 5 6 5 5 5 5 6 5 6 5 5 5 5 5 5 6 5 6 5 6 6 5 6 5 5 6 5 6 5 5 5 6 5 5 5 5 5 6 5 5 5 5 5 5 5 5 5 6 5 5 5 5 5 5 6 6 5 6 5 5 6 5 5 5 6 5 5 5 5 6 5 5 5 5 5 5 5 5 5 6 5 5 5 6 6 5 6 5 5 5 5 5 5 5 5 5 5 5 5 6 5 6 5 5 5 5 5 5 5 5 5 6 6 5 5 5 5 5 5 5 5 5 5 6 6 5 5 5 5 5 5 6 5 5 5 5 5 5 5 5 5 6 5 6 5 5 5 5 5 5 6 5 5 6 6 5 5 5 5 5 5 6 5 6 5 5 5 5 6 5 6 5 5 5 5 6 5 5 6 5 5 5 5 5 6 6 5 5 5 5 5 6 5 5 5 5 6 5 5 5 6 6 5 5 5 5 5 5 6 5 5 5 5 5 5 6 5 5 5 6 5 6 5 5 5 5 5 5 5 5 5 5 5 5 5 5 5 5 6 5 6 5 5 5 6 5 5 5 5 5 6 5 5 5 5 5 6 5 5 6 5 5 6 5 5 5 5 5 5 6 5 5 5 6 5 5 5 5 5 5 5 5 5 5 5 5 6 5 6 5 5 5 5 5 5 5 5 5 5 5 5 5 5 5 5 5 5 5 5 5 5 5 5 5 5 5 5 5 5 5 5 5 5 5 5 5 5 5 5 5 5 5 5 5 5 5 6 5 5 5 5 6 5 5 5 5 5 5 5 6 5 5 5 5 6 5 5 5 5 5 5 5 5 5 5 5 5 5 5 6 5 5 5 5 5 5 5 6 5 5 5 5 5 5 5 5 5 5 5 5 5 5 5 5 5 5 5 5 5 5 5 5 6 5 5 6 5 5 5 5 5 5 5 5 5 5 5 5 5 5 5 5 5 5 5 5 5 5 5 5 6 5 5 5 5 5 5 5 5 5 5 5 5 5 5 6 5 5 5 5 5 5 5 6 5 5 5 5 5 5 5 5 5 5 5 5 5 5 5 5 5 5 5 5 5 5 5 5 5 5 5 5 5 5 5 5 5 5 5 5 5 5 5 5 5 5 5 5 5 5 5 5 5 5 5 5 5 5 6 6 5 5 5 6 5 5 6 5 5 5 6 5 5 5 5 5 5 5 5 5 5 5 5 5 5 5 5 5 5 5 5 5 5 5 5 5 5 5 6 5 5 5 5 5 5 6 5 5 5 6 5 5 6 5 6 6 5 5 5 6 5 6 5 5 5 6 6 5 6 5 5 5 6 5 6 6 5 5 6 5 5 5 5 5 5 5 5 5 5 5 6 5 6 5 6 5 5 6 5 6 6 5 5 5 5 5 6 6 5 5 5 5 5 5 5 5 6 5 5 5 5 5 5 5 6 5 6 6 5 5 5 6 6 5 5 6 5 5 6 6 5 6 5 5 5 5 5 5 5 6 5 5 5 5 5 5 5 5 6 5 5 5 5 6 5 5 6 5 6 5 5 5 5 5 5 5 5 5 5 5 5 5 5 5 5 5 5 5 6 5 5 6 5 5 5 5 5 5 6 5 6 5 5 6 5 5 5 6 5 5 6 6 5 6 5 5 5 5 5 5 5 5 6 5 6 5 5 5 5 5 6 5 5 6 6 5 5 5 5 5 6 5 5 6 5 5 6 5 5 6 5 6 5 6 5 6 5 6 5 5 5 5 5 5 5 5 5 6 5 5 5 5 5 6 5 6 5 5 5 5 5 6 5 5 5 5 5 5 5 5 6 5 5 6 5 5 5 5 5 5 5 5 5 5 5 6 5 5 5 5 5 5 6 5 5 5 5 5 6 5 5 5 5 5 5 5 5 5 5 5 5 5 5 5 5 5 5 5 6 6 5 5 5 5 5 5 5 5 6 5 5 5 5 5 5 5 5 5 5 5 5 5 5 5 6 6 5 5 6 5 5 5 6 5 6 5 5 5 5 5 5 6 6 5 5 5 5 5 5 5 5 5 5 5 5 5 5 5 6 6 5 5 5 5 5 5 5 6 5 5 5 5 5 5 5 5 6 5 5 5 5 5 5 5 5 5 5 5 5 5 5 5 5 5 5 5 5 5 5 5 5 5 6 5 5 6 5 5 5 5 5 5 5 5 5 5 5 5 5 5 5 5 5 5 5 5 5 5 5 5 5 5 5 5 5 5 6 5 5 5 5 5 5 6 5 5 5 5 6 5 5 6 5 5 6 5 6 5 5 5 6 5 6 5 5 5 6 5 6 5 5 5 6 6 5 5 5 6 5 5 5 5 5 5 5 5 5 5 5 5 6 5 5 6 5 5 6 5 6 5 6 5 5 6 5 5 5 5 5 5 5 5 5 5 6 5 5 5 6 5 6 5 6 5 5 5 5 5 6 5 6 5 5 5 5 6 5 6 5 5 5 5 5 5 5 5 5 5 5 5 5 5 5 5 5 5 5 5 5 5 5 5 5 5 5 6 5 5 5 5 5 5 5 5 5 5 5 5 5 5 5 5 5 5 6 5 5 5 5 5 5 5 5 5 5 5 5 5 5 6 5 6 5 5 6 6 6 5 5 5 5 5 6 5 6 5 6 5 5 5 6 5 5 6 5 6 6 6 5 5 5 5 5 5 5 6 5 5 5 5 5 6 5 5 5 5 5 5 5 5 5 5 5 5 5 5 5 5 5 5 6 5 5 5 5 5 5 5 6 5 5 5 5 5 5 5 5 5 5 5 5 6 5 5 6 5 5 5 5 5 5 5 5 5 5 6 5 6 5 5 5 5 5 5 5 6 5 5 5 5 6 5 5 5 5 5 5 5 5 5 5 6 5 5 5 5 5 6 5 5 5 5 5 5 6 5 5 5 5 5 5 5 5 5 5 5 5 6 5 5 5 5 5 5 5 5 6 5 5 5 5 6 5 5 5 6 5 5 5 5 5 5 6 5 5 5 6 5 5 5 5 5 5 5 6 5 5 6 5 5 6 5 5 5 5 5 5 5 5 6 5 6 5 5 5 5 5 6 5 5 5 5 5 5 5 5 5 6 5 5 6 5 5 5 5 6 5 5 6 5 5 5 5 6 5 5 5 5 5 5 6 5 5 5 5 5 5 5 6 5 6 5 5 5 5 5 5 5 5 5 5 5 5 5 5 6 5 5 5 5 5 5 5 5 6 6 5 5 5 5 5 5 6 5 5 5 5 5 5 5 5 5 5 5 5 5 5 5 5 5 5 5 5 5 5 5 6 5 5 5 5 5 5 5 5 5 5 5 5 5 5 5 6 5 5 5 5 5 5 5 5 5 5 5 5 5 5 5 5 5 5 5 5 5 5 5 5 5 5 5 5 5 6 5 5 5 5 5 5 5 5 5 5 5 6 5 5 5 6 5 5 5 5 5 5 5 5 5 6 5 5 5 5 5 5 6 5 5 5 6 6 5 6 6 5 6 5 5 5 5 5 5 5 5 5 5 5 6 5 5 5 5 6 5 5 6 5 5 5 5 5 5 5 5 5 5 6 5 5 5 5 5 5 6 5 5 5 6 5 5 5 5 5 5 5 5 5 5 5 5 6 5 5 5 5 5 5 6 6 5 5 5 5 5 5 5 5 5 5 5 5 5 5 5 5 5 5 5 5 5 5 5 5 5 6 5 5 5 5 5 5 5 6 5 5 5 5 5 6 5 6 5 5 5 5 5 5 5 6 5 5 5 5 5 5 5 5 5 5 5 5 5 5 5 5 5 5 5 5 5 5 5 5 5 5 5 5 5 5 5 5 5 5 5 5 5 5 5 5 5 5 5 5 5 5 5 6 5 5 5 6 5 5 5 6 5 5 5 5 5 6 5 5 5 5 5 5 5 5 5 5 5 5 5 5 5 5 5 5 5 5 5 5 6 5 5 5 5 6 6 5 5 5 5 6 5 5 6 5 6 5 6 6 5 5 6 6 5 5 5 5 5 5 6 5 5 5 5 5 5 5 5 6 5 5 5 5 5 5 5 5 5 5 5 5 5 5 5 5 5 5 5 5 5 5 5 5 5 5 5 5 5 5 5 5 5 5 5 5 5 5 5 5 5 5 5 5 5 5 5 5 5 5 5 5 5 5 5 5 5 5 5 5 5 5 6 5 5 5 6 5 5 5 5 5 5 5 5 5 5 5 5 5 5 5 5 5 5 5 5 5 5 5 5 5 5 5 5 6 5 5 5 5 5 5 5 5 5 5 5 5 6 5 5 5 5 6 5 5 5 5 5 5 6 5 6 5 5 5 5 5 5 5 5 6 5 5 5 5 5 5 6 5 6 5 5 6 5 5 5 6 5 5 5 5 5 5 5 5 5 5 5 5 5 5 5 6 5 5 5 5 5 5 5 5 5 5 6 5 5 5 5 5 5 5 5 5 5 5 5 5 5 5 5 5 5 5 5 5 5 5 5 6 6 5 5 6 5 5 5 5 5 5 5 5 6 5 5 5 5 5 5 5 5 5 6 5 5 5 5 5 5 5 5 5 5 5 5 5 5 5 5 5 5 5 5 5 5 5 5 5 5 5 5 6 5 5 5 5 5 5 5 5 5 6 5 5 5 5 5 5 5 5 5 5 5 6 
</DataArray>
<DataArray type="Float64" Name="stress" NumberOfComponents="9" format="ascii">
-0.13320089370245114 -402.20117016906352 0 -402.20117016906352 260.30344410314137 0 0 0 0 161.61999225936688 -389.95389052995961 0 -389.95389052995961 0.14546983991476736 0 0 0 0 7.6638893660214364 -302.43822807952017 0 -302.43822807952017 499.14566639533041 0 0 0 0 7.2833696300275506 -277.0128408122402 0 -277.0128408122402 247.65036270755081 0 0 0 0 138.30080183569407 -268.0017243428274 0 -268.0017243428274 198.17497793468533 0 0 0 0 -4.8062996816152612 -3.5590647868285323 0 -3.5590647868285323 0.17882302514696846 0 0 0 0 6.3212341669650414 -12.1858700713492 0 -12.1858700713492 4.881594040125492 0 0 0 0 122.04869568534014 -222.41564003548592 0 -222.41564003548592 234.01955092560456 0 0 0 0 162.11419118830509 -300.27176124649941 0 -300.27176124649941 171.87079721463579 0 0 0 0 227.59365588440414 -210.43700006334075 0 -210.43700006334075 206.69031586402275 0 0 0 0 332.16419964287934 -321.38209733296844 0 -321.38209733296844 111.97568772348495 0 0 0 0 307.91853023365684 -299.969485283121 0 -299.969485283121 0.14839789911638945 0 0 0 0 214.7284847138435 -287.05255688129819 0 -287.05255688129819 173.72794992159879 0 0 0 0 354.04463314583882 -191.16760110704672 0 -191.16760110704672 99.680009673100358 0 0 0 0 -0.90910631141310816 -1.104906684855397 0 -1.104906684855397 -0.2078459743210459 0 0 0 0 -135.93405350048579 13.930762974099707 0 13.930762974099707 15.123826889874181 0 0 0 0 -16.624637614339008 -24.372932867430791 0 -24.372932867430791 21.087104705951788 0 0 0 0 -4.2370791445749774 -4.3026833600408736 0 -4.3026833600408736 -0.00027641251654131338 0 0 0 0 -34.785762245004662 -251.18122955077888 0 -251.18122955077888 142.67697489487909 0 0 0 0 49.165885390595577 7.391390009756833 0 7.391390009756833 -4.9714003866383791 0 0 0 0 326.3030203238377 -175.52280592943134 0 -175.52280592943134 -0.48408470992325098 0 0 0 0 -0.15853930647443892 -0.27123869737016904 0 -0.27123869737016904 -0.076058375828061742 0 0 0 0 13.543128616602417 -42.11217914712995 0 -42.11217914712995 118.4087578562212 0 0 0 0 0.35684342124888957 -1.0186664237257119 0 -1.0186664237257119 -0.0067273805015553023 0 0 0 0 5.9349952881839272 -18.510791146957672 0 -18.510791146957672 -16.234353811622896 0 0 0 0 0.43997551060567019 -1.764300411692215 0 -1.764300411692215 -1.1044795079183132 0 0 0 0 0.21976727841797583 -4.0688677093532988 0 -4.0688677093532988 -2.3665282309375471 0 0 0 0 -0.73931846283560532 -1.7668502058367039 0 -1.7668502058367039 2.0033550088702441 0 0 0 0 1.3688588588229322 -2.6556688182372454 0 -2.6556688182372454 -0.90009071035819943 0 0 0 0 -23.404800489078298 -14.405992555934063 0 -14.405992555934063 -0.42615638595725613 0 0 0 0 -47.956715785119741 -26.435540514321474 0 -26.435540514321474 1.9343818646048021 0 0 0 0 0.22192049712238937 -1.8254255685491465 0 -1.8254255685491465 0.76507865256225926 0 0 0 0 2.5629163765826206 -1.6683409050881437 0 -1.6683409050881437 -0.63480140531828511 0 0 0 0 -18.886817354855339 -18.217711628753932 0 -18.217711628753932 4.4769765107630519 0 0 0 0 -3.0128216235475023 -2.8272281611454275 0 -2.8272281611454275 -0.32784407027473605 0 0 0 0 -19.250452809944363 -32.743358257913997 0 -32.743358257913997 3.9754184350040305 0 0 0 0 13.530125800538372 -7.5030434643431363 0 -7.5030434643431363 -6.5953265057878525 0 0 0 0 -2.497873799633453 -24.255895102896829 0 -24.255895102896829 -18.219040081628918 0 0 0 0 0.23419374710101692 -10.534856381770624 0 -10.534856381770624 5.9491184147502736 0 0 0 0 5.9493484299655393 -9.4441088451148971 0 -9.4441088451148971 -1.5549321763010084 0 0 0 0 1.3580045518824591 -4.3276520575536779 0 -4.3276520575536779 2.7047478723961831 0 0 0 0 1.3079440239143878 -5.0923301687548701 0 -5.0923301687548701 -1.8817630872763402 0 0 0 0 -6.0534033406559686 -7.0476359300179645 0 -7.0476359300179645 -2.3766074111172415 0 0 0 0 -41.672960803303795 -48.442312272520212 0 -48.442312272520212 111.51292967466679 0 0 0 0 4.079564374182155 22.737106175827648 0 22.737106175827648 44.59625513107494 0 0 0 0 -92.051109162403009 11.192880827125691 0 11.192880827125691 -22.464147356949979 0 0 0 0 64.283040194157365 77.23149395335895 0 77.23149395335895 -3.3044663702366961 0 0 0 0 0.32950616083076056 -0.677370328471401 0 -0.677370328471401 -0.06854652234170544 0 0 0 0 0.5854319362543503 -0.39164506728923598 0 -0.39164506728923598 -0.40578973695314602 0 0 0 0 -76.81938842462705 -88.182452405159438 0 -88.182452405159438 -94.696339024128974 0 0 0 0 -110.58682545907868 -7.2950939812035358 0 -7.2950939812035358 15.79491549019076 0 0 0 0 -19.769990223107925 -62.666003460130014 0 -62.666003460130014 -65.685976773138464 0 0 0 0 67.38473668685765 9.3001862539913418 0 9.3001862539913418 -55.046846718678353 0 0 0 0 -111.75667569618599 -118.48648300873538 0 -118.48648300873538 -10.798414514523756 0 0 0 0 -26.820419175315692 -30.623934812927473 0 -30.623934812927473 105.3587616561299 0 0 0 0 -7.6724465598868647 -7.1998901427139401 0 -7.1998901427139401 -2.1255847718849221 0 0 0 0 -170.89500765503908 -70.194947813910403 0 -70.194947813910403 49.043135494841408 0 0 0 0 2.0885982995014274 -9.4406444944652321 0 -9.4406444944652321 14.562824555097905 0 0 0 0 -12.043767599287094 -3.9475785582944809 0 -3.9475785582944809 71.628036776933641 0 0 0 0 5.8814045171648104 -43.146190853549115 0 -43.146190853549115 20.069920505697155 0 0 0 0 -21.019695249789038 -46.312954159554465 0 -46.312954159554465 -4.1030782488792283 0 0 0 0 5.0108537941514442 -88.660701885896515 0 -88.660701885896515 -33.602836643121918 0 0 0 0 -46.974087682479876 -3.8976349485037645 0 -3.8976349485037645 56.531901605478197 0 0 0 0 3.7847959823448036 -4.0394445587894552 0 -4.0394445587894552 -39.516052989874879 0 0 0 0 -67.665838243672624 -86.557812322600512 0 -86.557812322600512 -46.907580324330297 0 0 0 0 95.973242897980526 -41.298200398423432 0 -41.298200398423432 -42.253352489916097 0 0 0 0 92.509032953681526 0.6219134929797292 0 0.6219134929797292 -28.755796886751796 0 0 0 0 44.268993291701918 -25.742056268531996 0 -25.742056268531996 -38.220282173670512 0 0 0 0 33.857687836908553 -40.262318224656156 0 -40.262318224656156 15.207541207853865 0 0 0 0 24.897359489807059 -36.162876024100115 0 -36.162876024100115 27.91628754285648 0 0 0 0 38.49738415658976 -32.259741593933995 0 -32.259741593933995 5.4633903369031032 0 0 0 0 -0.098824111478023724 -0.96465498692769991 0 -0.96465498692769991 -2.0932820240257897 0 0 0 0 -1.1259039611359185 -10.411341204430755 0 -10.411341204430755 20.272899270743437 0 0 0 0 -1.5677159209169531 -3.6711825079790401 0 -3.6711825079790401 0.91141568277816987 0 0 0 0 -15.921735392041228 -14.795219438005006 0 -14.795219438005006 9.6065805552552774 0 0 0 0 9.765117770893994 -8.0285721581176404 0 -8.0285721581176404 -9.5925597395053046 0 0 0 0 18.331565851356572 -18.447908700767584 0 -18.447908700767584 -9.7318296647489149 0 0 0 0 -43.428383300350106 -82.991922862000138 0 -82.991922862000138 -107.14442001216241 0 0 0 0 -3.2147215823279112 -27.95014221803558 0 -27.95014221803558 -110.20839438056194 0 0 0 0 -3.8893784154170135 -23.881234193368073 0 -23.881234193368073 -66.625198801869828 0 0 0 0 0.0098637755618256051 -12.168145065465524 0 -12.168145065465524 2.7076115617601317 0 0 0 0 -63.131950675041026 261.99642078542911 0 261.99642078542911 -511.35637259095529 0 0 0 0 -0.42440903119533502 -0.98830310367932128 0 -0.98830310367932128 -2.5199448107681377 0 0 0 0 -79.962306095050735 133.49577276520722 0 133.49577276520722 -165.19596056332375 0 0 0 0 190.96468735737653 -37.638248423118057 0 -37.638248423118057 -444.21165589234988 0 0 0 0 0.17567958612142576 -0.45023427061111931 0 -0.45023427061111931 -1.0711197333217495 0 0 0 0 11.520326748164734 -7.5730409462776151 0 -7.5730409462776151 -19.173966122540151 0 0 0 0 -0.41610750320978696 -12.39087348153771 0 -12.39087348153771 10.103979587554022 0 0 0 0 -0.85827347176121194 -4.0399881312627954 0 -4.0399881312627954 -5.4446674386164808 0 0 0 0 -8.066325567639069 -10.603018456783502 0 -10.603018456783502 -6.0140341403402999 0 0 0 0 -3.6485890383185264 -5.508505196357028 0 -5.508505196357028 -0.60004934949804145 0 0 0 0 1.7445499172651928 -4.8407212077915602 0 -4.8407212077915602 1.7214700939742329 0 0 0 0 -14.777357471649793 -17.840821977728183 0 -17.840821977728183 -0.49630454576254124 0 0 0 0 -1.5416428366600812 -1.2939362904974461 0 -1.2939362904974461 -1.0540137207356217 0 0 0 0 -3.3132656985196647 -5.0508620310434722 0 -5.0508620310434722 1.2895587186107349 0 0 0 0 -3.4951241786329774 -14.875794556808614 0 -14.875794556808614 1.0450856831612327 0 0 0 0 -1.4085500677028904 -7.5984668286055239 0 -7.5984668286055239 1.9228985720196761 0 0 0 0 -6.6070772058883449 -8.1934591849203571 0 -8.1934591849203571 8.0356655636351206 0 0 0 0 1.1586539467034953 -3.8439655337204899 0 -3.8439655337204899 2.7854633370411541 0 0 0 0 -2.8875554163805646 -6.9741759693943095 0 -6.9741759693943095 -1.8418639096407787 0 0 0 0 -0.0036760532328249476 -14.349759858477297 0 -14.349759858477297 7.0814372881013696 0 0 0 0 -68.643407087418382 61.726271611122684 0 61.726271611122684 570.89727539692831 0 0 0 0 -0.0074407599859114271 -12.507107943901246 0 -12.507107943901246 -9.3506423852486478 0 0 0 0 1.1838797690404519 -0.94001913926131309 0 -0.94001913926131309 1.3107259520652192 0 0 0 0 27.779454541933319 -63.898000642528586 0 -63.898000642528586 118.11192975770246 0 0 0 0 4.2908494258663268 -9.5368480796296353 0 -9.5368480796296353 5.6968538253040606 0 0 0 0 -4.7091992456509573 -4.7407568813514338 0 -4.7407568813514338 1.1003384173608879 0 0 0 0 16.481614909728478 -26.832484746415048 0 -26.832484746415048 162.87376509774731 0 0 0 0 2.4327908684135764 -7.132951551376209 0 -7.132951551376209 2.9416165145094055 0 0 0 0 -2.5302896992359365 -6.6390609143587298 0 -6.6390609143587298 -1.7048171677627622 0 0 0 0 1.9958739823578071 -6.9752347200064833 0 -6.9752347200064833 6.7896188899549088 0 0 0 0 2.4203977406032209 -6.2721343708690256 0 -6.2721343708690256 5.8973893175134435 0 0 0 0 -1.9670806323520083 -9.7026839669078981 0 -9.7026839669078981 5.8855002673017225 0 0 0 0 0.56798389548573169 -7.2939766554985201 0 -7.2939766554985201 1.9367982388521767 0 0 0 0 -46.118669234013396 11.543837117080329 0 11.543837117080329 42.505135075011822 0 0 0 0 -8.7159779631930405 -8.0822312977507522 0 -8.0822312977507522 1.2046647040970129 0 0 0 0 -25.666224223406971 5.6274680901778993 0 5.6274680901778993 42.431946807373606 0 0 0 0 -8.7427378225330017 -8.2046842348989912 0 -8.2046842348989912 5.2568304824490042 0 0 0 0 1.6708742590744619 -6.010900186726702 0 -6.010900186726702 14.462679790276979 0 0 0 0 -1.5761570488131511 0.19137114887120354 0 0.19137114887120354 2.032453680780506 0 0 0 0 -8.5144828490301734 -4.7711668519605155 0 -4.7711668519605155 13.540452074773498 0 0 0 0 -9.5353980111367491 -11.310366972185079 0 -11.310366972185079 6.9763940019074653 0 0 0 0 -4.7315327314537186 -1.5391070084275285 0 -1.5391070084275285 0.90197087637070217 0 0 0 0 -9.4782360830935204 -11.343837536048227 0 -11.343837536048227 2.8786772488219867 0 0 0 0 -76.240922255742589 25.46572793555697 0 25.46572793555697 19.551696292138388 0 0 0 0 -1.7180320113923209 -0.51408445993106966 0 -0.51408445993106966 -0.20443840856118323 0 0 0 0 -155.5678164292458 -135.4379574111108 0 -135.4379574111108 -91.885929397236396 0 0 0 0 0.84223500916687044 -37.600600024828054 0 -37.600600024828054 -70.033515803745104 0 0 0 0 -38.79215326947633 -134.13427030155526 0 -134.13427030155526 -259.30203469823937 0 0 0 0 -89.487009793523612 -140.93739758182619 0 -140.93739758182619 -116.16116771857924 0 0 0 0 -0.65696368474586819 -0.82755252287489256 0 -0.82755252287489256 -0.25807513265237247 0 0 0 0 -99.321289680989139 -43.400841023249995 0 -43.400841023249995 85.553807311429409 0 0 0 0 -122.27560996255306 -99.552291297462943 0 -99.552291297462943 0.076703307622665307 0 0 0 0 -178.32328871176014 -140.30471428721467 0 -140.30471428721467 -27.230547745464719 0 0 0 0 -47.788960113153735 -54.40067406383605 0 -54.40067406383605 -119.99107978214943 0 0 0 0 -74.588983647567147 -43.139454498551459 0 -43.139454498551459 -9.0430292090113653 0 0 0 0 27.253949521775212 -7.7530910955210857 0 -7.7530910955210857 -52.281290293167331 0 0 0 0 -57.403176949750559 -29.401759347663983 0 -29.401759347663983 11.524799528539006 0 0 0 0 7.7099171343452326 -3.9966775977709403 0 -3.9966775977709403 -4.3170697135574301 0 0 0 0 2.1948919878996094 -15.041783072160797 0 -15.041783072160797 -4.3738927742397209 0 0 0 0 -0.95701513775826808 -0.61318677070159922 0 -0.61318677070159922 -0.18788436213102244 0 0 0 0 0.59269349132338078 -3.0285806176401149 0 -3.0285806176401149 3.032719535332113 0 0 0 0 -80.313703682201776 -80.376299991489759 0 -80.376299991489759 -59.714020833853283 0 0 0 0 -0.16536190188160305 0.40970028935855929 0 0.40970028935855929 -0.025683281167466987 0 0 0 0 -6.8939061519286042 -3.2680940377558727 0 -3.2680940377558727 0.46376400535882567 0 0 0 0 31.484954154919023 -8.4244911007037899 0 -8.4244911007037899 -6.8242837195539323 0 0 0 0 -4.6735942301638715 -15.200929885540972 0 -15.200929885540972 0.0042174670931362348 0 0 0 0 -27.131080551859668 -4.1435192409298907 0 -4.1435192409298907 -2.0747772547983914 0 0 0 0 0.48221396314950127 0.4434557448304588 0 0.4434557448304588 -0.53804652995302149 0 0 0 0 -10.987333580069389 -17.73616761825906 0 -17.73616761825906 1.4400512080937915 0 0 0 0 0.012060251998590843 -1.1281133290958323 0 -1.1281133290958323 0.66983875764871925 0 0 0 0 0.18549237962815823 -4.2986185234469758 0 -4.2986185234469758 0.74917899445063085 0 0 0 0 0.62531599295107299 -1.95546831651518 0 -1.95546831651518 0.91892377405383741 0 0 0 0 0.020465082700546589 -1.6286715678553243 0 -1.6286715678553243 -0.84646693287225006 0 0 0 0 0.65696403548145099 -3.61179447777522 0 -3.61179447777522 0.10176435051107546 0 0 0 0 0.51738862119691476 -3.4620348604094033 0 -3.4620348604094033 -0.005237893483354128 0 0 0 0 -0.40502418750838842 -4.1248944622184354 0 -4.1248944622184354 0.8760004599334934 0 0 0 0 0.37066321809788505 -5.0286198295163729 0 -5.0286198295163729 2.1769561732573104 0 0 0 0 -0.30742477800595225 -13.189130454056794 0 -13.189130454056794 5.2243951568352713 0 0 0 0 4.2618222192700159 -8.415314743926956 0 -8.415314743926956 -7.6306623221789778 0 0 0 0 1.8705037758463732 -14.422770255902833 0 -14.422770255902833 5.5817170886239182 0 0 0 0 0.13873708659404471 -6.0085240225538836 0 -6.0085240225538836 8.1491360902940571 0 0 0 0 -0.20241616328767797 -4.8173449411935989 0 -4.8173449411935989 3.47532196128045 0 0 0 0 -3.8924448364159616 -5.0266391100376495 0 -5.0266391100376495 1.721656879808279 0 0 0 0 -1.5083642204743306 -5.3853796758893928 0 -5.3853796758893928 6.2955710941767329 0 0 0 0 0.13078763204430288 -11.116342698839617 0 -11.116342698839617 11.399292669833812 0 0 0 0 -2.0937888966409446 -21.261601768299442 0 -21.261601768299442 17.771160459022212 0 0 0 0 -13.742344206818416 -16.606559898208161 0 -16.606559898208161 18.827564693148815 0 0 0 0 -8.3739363626773411 -13.507598243393659 0 -13.507598243393659 10.813054572826331 0 0 0 0 -9.6349688206937572 -16.47708888244415 0 -16.47708888244415 18.094829877231859 0 0 0 0 9.4387614601855603 -33.076396705520892 0 -33.076396705520892 20.498363630195854 0 0 0 0 1.190704578471923 -18.511366416209967 0 -18.511366416209967 3.0799366924075002 0 0 0 0 19.272279816390437 -23.547429585600185 0 -23.547429585600185 -5.9913539661392861 0 0 0 0 13.547582137169229 -14.076099976552541 0 -14.076099976552541 -10.169430267442294 0 0 0 0 7.8119102431264764 -15.434977977301969 0 -15.434977977301969 -4.7027655344318191 0 0 0 0 1.8388992016225529 -7.4839775197069685 0 -7.4839775197069685 -7.625927646260152 0 0 0 0 4.3364036322527681 -18.19571161161366 0 -18.19571161161366 4.102123496166314 0 0 0 0 2.255308358366733 -2.696015643297236 0 -2.696015643297236 -9.0274447091760521 0 0 0 0 1.7126797264663765 -7.1980510973371565 0 -7.1980510973371565 -6.7474855519176344 0 0 0 0 -1.6549866077461282 -4.0595913757657662 0 -4.0595913757657662 -6.9062068277132056 0 0 0 0 2.2575513515115304 -5.2127382304107845 0 -5.2127382304107845 -5.4668495983241883 0 0 0 0 0.69634493359534133 -4.2639967235296723 0 -4.2639967235296723 -4.5185849324818044 0 0 0 0 1.0721241532252392 -1.4409233281802969 0 -1.4409233281802969 -3.2414201397988727 0 0 0 0 0.66869626968679086 -3.7991621496080121 0 -3.7991621496080121 -1.3804274692989829 0 0 0 0 0.40323628828991787 -4.9584729881626117 0 -4.9584729881626117 -1.8868490585282416 0 0 0 0 -0.752571189597802 -5.0498448995294893 0 -5.0498448995294893 -3.2031145996043051 0 0 0 0 2.1180775159591576 -6.317254026676892 0 -6.317254026676892 -4.9399420004135663 0 0 0 0 0.84761336307565216 -1.9449432185865589 0 -1.9449432185865589 -3.7009927274884831 0 0 0 0 0.45060644202633426 -2.9873663430327113 0 -2.9873663430327113 -0.42078024625405774 0 0 0 0 3.9908239375872654 -9.0994355768743844 0 -9.0994355768743844 -8.371974327171074 0 0 0 0 0.26497563332668506 -5.2707394413955626 0 -5.2707394413955626 5.3057022105776923 0 0 0 0 0.50899061629752396 -4.1864283169124974 0 -4.1864283169124974 0.056818144439603202 0 0 0 0 0.27815146080433983 -4.8395615010605724 0 -4.8395615010605724 -5.3023762995543748 0 0 0 0 -1.6474003061957774 -7.1193786416688454 0 -7.1193786416688454 -8.8562660211937327 0 0 0 0 -0.63556975684971917 -4.1301080336904548 0 -4.1301080336904548 -0.92590125244261046 0 0 0 0 -0.29821371807515007 -4.7171422054659011 0 -4.7171422054659011 -2.1308185465616232 0 0 0 0 0.48295691268867813 -3.1822957677431987 0 -3.1822957677431987 0.67203942681680928 0 0 0 0 -2.9080490368748961 -4.7909617654576557 0 -4.7909617654576557 4.7436314758213527 0 0 0 0 1.2046174519839781 -3.5411664916735788 0 -3.5411664916735788 -6.1826700885214416 0 0 0 0 -1.3189773909325595 -7.6238178717903793 0 -7.6238178717903793 -11.069680648841313 0 0 0 0 -3.5809554215411481 -4.9596631743661419 0 -4.9596631743661419 -9.27534519512119 0 0 0 0 0.73511193057493074 -5.832223175535546 0 -5.832223175535546 -10.345906287780963 0 0 0 0 -0.16936899697776653 -0.59530839714194883 0 -0.59530839714194883 -1.6592986811647599 0 0 0 0 4.6255051280350017 -10.851352715175381 0 -10.851352715175381 -0.57874056147102237 0 0 0 0 5.4907136236251972 -9.2299619262666965 0 -9.2299619262666965 -9.9533350723031617 0 0 0 0 -0.15850835806669217 -1.2450017450991062 0 -1.2450017450991062 -1.6423574088229742 0 0 0 0 3.7059748056290118 -5.8022095548822108 0 -5.8022095548822108 -2.6349457171963877 0 0 0 0 11.638624361867187 -2.4190347066369213 0 -2.4190347066369213 -1.2318172315735865 0 0 0 0 0.19713843934187025 -0.10238004833536252 0 -0.10238004833536252 0.00036060874481336214 0 0 0 0 -0.40045222906309164 0.2309456768242022 0 0.2309456768242022 0.68653733208946477 0 0 0 0 0.28859396783900593 -5.6340466097608441 0 -5.6340466097608441 -1.4407716158475523 0 0 0 0 2.8927898843721778 -7.7169484505502624 0 -7.7169484505502624 0.0021749406835451625 0 0 0 0 1.6429220338241066 -7.4651323006469283 0 -7.4651323006469283 -2.0572851341494243 0 0 0 0 -0.022713105692673707 -6.2468296355336861 0 -6.2468296355336861 -2.9470785422327026 0 0 0 0 3.6811786659272911 -5.5798275614001795 0 -5.5798275614001795 -3.9913017043836589 0 0 0 0 0.99323349818584816 -2.6357288219961763 0 -2.6357288219961763 1.7053215303392548 0 0 0 0 0.39700543933167864 -7.2355144030168503 0 -7.2355144030168503 -3.5021591474069282 0 0 0 0 -0.43339902940783759 -6.8912996225344614 0 -6.8912996225344614 -0.0028128817320975941 0 0 0 0 -2.284842621849748 -5.2416568757480491 0 -5.2416568757480491 -1.0991505153779144 0 0 0 0 -2.2845402646717048 -4.8437859590812877 0 -4.8437859590812877 -2.1628386495376617 0 0 0 0 -2.2486312563232786 -5.5974100720823117 0 -5.5974100720823117 6.1055583811512406 0 0 0 0 0.010699348727186475 -0.41639110932967682 0 -0.41639110932967682 0.29742993674327023 0 0 0 0 0.75389088480180888 -2.3149093751241985 0 -2.3149093751241985 -2.3815364978286695 0 0 0 0 4.6408715051729814 -3.8991755417137028 0 -3.8991755417137028 -8.6274461481652907 0 0 0 0 -0.72303197125802399 -3.5486916062736782 0 -3.5486916062736782 -2.5359505251381051 0 0 0 0 3.4342556005258302 -5.5632909452524473 0 -5.5632909452524473 -22.230663484084289 0 0 0 0 -5.7998004833934829 -19.029574791270534 0 -19.029574791270534 -10.656993977517232 0 0 0 0 1.9821868729590477 -1.1172621896555626 0 -1.1172621896555626 -1.926119773141032 0 0 0 0 0.11127320395644347 -4.0443384954992325 0 -4.0443384954992325 1.5398051231477439 0 0 0 0 38.82848071045737 39.212921251060834 0 39.212921251060834 -31.527176053919902 0 0 0 0 80.813031705161848 -8.908195566793438 0 -8.908195566793438 -25.779013277075819 0 0 0 0 -8.5251336233395705 11.769321530000525 0 11.769321530000525 -21.862728287771461 0 0 0 0 7.7244859952197658 -26.221668378801041 0 -26.221668378801041 9.0978586102191912 0 0 0 0 -6.5522949782312452 -7.1285346360345301 0 -7.1285346360345301 -3.1354433563678494 0 0 0 0 -3.7865890209086501 -10.808740633628986 0 -10.808740633628986 0.11336103734720382 0 0 0 0 -13.920117640413082 -6.0612751558546734 0 -6.0612751558546734 77.595577614779359 0 0 0 0 -11.281982977658117 16.698505671053681 0 16.698505671053681 111.48714566786157 0 0 0 0 -1.5192281820353539 -1.0386255696737976 0 -1.0386255696737976 1.6794400155414735 0 0 0 0 14.935483059165563 -40.850141372177859 0 -40.850141372177859 86.381630743980622 0 0 0 0 6.4591787936060427 -15.759483271559475 0 -15.759483271559475 78.149778940553915 0 0 0 0 -11.209174827643437 -4.8683898362858145 0 -4.8683898362858145 38.218393399642082 0 0 0 0 -27.705660169693147 -34.171855675866937 0 -34.171855675866937 70.201606577056737 0 0 0 0 -24.648367135510853 16.756742454987034 0 16.756742454987034 -24.20340900881456 0 0 0 0 -0.31464369581877705 -0.22167708375519979 0 -0.22167708375519979 -0.14174489586092598 0 0 0 0 -10.956933721667156 -5.1775481814374871 0 -5.1775481814374871 32.444976778702539 0 0 0 0 8.5995018735848134 -24.826864591041158 0 -24.826864591041158 13.719758975486457 0 0 0 0 36.874841321725853 -2.8698670317337474 0 -2.8698670317337474 32.556303122844838 0 0 0 0 -15.204087090674875 -8.1516649324130412 0 -8.1516649324130412 8.5553054200659062 0 0 0 0 6.1318902987579804 21.764173002296047 0 21.764173002296047 -31.712168118718182 0 0 0 0 -1.2972034980448441 -0.42387766614851685 0 -0.42387766614851685 -0.13665942411785004 0 0 0 0 -5.6631793894503062 -10.388980656965032 0 -10.388980656965032 29.211658369593351 0 0 0 0 -15.607467874107897 13.949268724898502 0 13.949268724898502 31.381945695009563 0 0 0 0 14.124837505473351 -24.809077044910282 0 -24.809077044910282 35.411285376925662 0 0 0 0 1.0464656821095559 -34.281899851373055 0 -34.281899851373055 89.762289831195631 0 0 0 0 5.4860787361212715 -4.4337981154312729 0 -4.4337981154312729 32.389520097104651 0 0 0 0 -2.4943028500256332 -10.746688767733758 0 -10.746688767733758 115.79532093098533 0 0 0 0 34.354076764295314 -62.826965445652604 0 -62.826965445652604 102.84763720184969 0 0 0 0 0.57576978303570314 -0.49570690943003726 0 -0.49570690943003726 -1.2646957586270098 0 0 0 0 3.9085734776017489 -36.815664204274071 0 -36.815664204274071 83.248972594635234 0 0 0 0 7.2783360200396601 -3.222995155856097 0 -3.222995155856097 -19.955200155495731 0 0 0 0 -1.810766900451199 -12.994365665686018 0 -12.994365665686018 -9.2775186568483434 0 0 0 0 -2.7495808590295852 -5.4184195097169052 0 -5.4184195097169052 -8.2133696551895952 0 0 0 0 -8.8239832814360852 -5.2609747878123017 0 -5.2609747878123017 37.222414104142103 0 0 0 0 -7.1185580319834116 -23.851820964404396 0 -23.851820964404396 39.448417359913037 0 0 0 0 -10.578846131597857 -17.760618548392358 0 -17.760618548392358 17.043686908891686 0 0 0 0 -15.385438853404594 -2.7986760806370512 0 -2.7986760806370512 15.877372530339926 0 0 0 0 -10.162269771191859 -9.5225771609957519 0 -9.5225771609957519 23.653446795913624 0 0 0 0 -16.886939183126742 -5.3422381779864736 0 -5.3422381779864736 16.110459351200006 0 0 0 0 -13.305128673466243 -0.4756793496235332 0 -0.4756793496235332 22.551804256412652 0 0 0 0 1.5533842278496195 -2.0709848151986989 0 -2.0709848151986989 26.116323288544663 0 0 0 0 -6.8903632118126552 -7.2991991309881996 0 -7.2991991309881996 24.404187152261045 0 0 0 0 -3.8097382910236774 13.115826315750837 0 13.115826315750837 -10.774411408210653 0 0 0 0 -13.608903045189436 2.133268352228697 0 2.133268352228697 24.879426915555428 0 0 0 0 -2.8032738601289076 -0.77656841048371561 0 -0.77656841048371561 -0.78464096876782108 0 0 0 0 -20.473435072724897 104.09106841657285 0 104.09106841657285 -21.289043987117111 0 0 0 0 -8.0260718170866312 -62.988355784230407 0 -62.988355784230407 88.98814960342861 0 0 0 0 117.91517178377944 -208.11016073508654 0 -208.11016073508654 264.03191033360565 0 0 0 0 -45.960850086679784 75.120067010568846 0 75.120067010568846 232.98498689000735 0 0 0 0 267.23269952580176 -25.807656830207634 0 -25.807656830207634 -136.72832628586002 0 0 0 0 -5.1467820951660848 -3.7140297489804404 0 -3.7140297489804404 2.9649974425994063 0 0 0 0 69.774880706750992 9.4194141115267485 0 9.4194141115267485 -139.29896932583279 0 0 0 0 -11.808290874465456 2.8053514521220677 0 2.8053514521220677 10.878866368677336 0 0 0 0 -52.934356648416724 -139.64100313218114 0 -139.64100313218114 188.8471429537276 0 0 0 0 -1.4340775351595534 -3.4060882888122865 0 -3.4060882888122865 15.11157494189586 0 0 0 0 -172.47061126803146 -119.29361711730144 0 -119.29361711730144 9.6867174095350492 0 0 0 0 79.954803175410689 -215.34710597991398 0 -215.34710597991398 32.993553335156321 0 0 0 0 -184.16115605611594 86.104234030812222 0 86.104234030812222 207.16639195005428 0 0 0 0 202.88194142108159 -202.1735128203768 0 -202.1735128203768 52.142285320856899 0 0 0 0 0.49420847280157965 -1.6459343508889361 0 -1.6459343508889361 2.8584463731495191 0 0 0 0 -182.95295685260749 -36.15361975638757 0 -36.15361975638757 169.56063302744587 0 0 0 0 261.1566943417256 -105.28864744367547 0 -105.28864744367547 -30.207741319438355 0 0 0 0 123.6599633765727 166.71604644885883 0 166.71604644885883 -51.96545652266559 0 0 0 0 -1.1124677665176641 -1.9231880087933035 0 -1.9231880087933035 4.4845435238193545 0 0 0 0 -69.773891512392083 -225.45795904334227 0 -225.45795904334227 175.01702470626697 0 0 0 0 -20.868730128868265 -28.467722129285903 0 -28.467722129285903 -1.6084885486125131 0 0 0 0 -19.794386173229213 -8.7890721499334177 0 -8.7890721499334177 25.142711376573061 0 0 0 0 -62.321643505723614 -27.830626330158566 0 -27.830626330158566 17.381475915532064 0 0 0 0 -21.582942798976546 -4.8610623998383744 0 -4.8610623998383744 22.002384161914961 0 0 0 0 -0.010832665230391836 -5.8140962736046173 0 -5.8140962736046173 15.858972665497447 0 0 0 0 -14.642481692109868 -21.70956011702765 0 -21.70956011702765 4.8680073271571018 0 0 0 0 -25.692315871723622 -20.056098734119587 0 -20.056098734119587 16.349116735604184 0 0 0 0 -5.4515972384915585 -13.041624265360952 0 -13.041624265360952 10.335093251214857 0 0 0 0 -16.588712138951678 10.846942724666633 0 10.846942724666633 34.043649027928041 0 0 0 0 -45.859857592832668 -1.90143890643958 0 -1.90143890643958 29.563457429199843 0 0 0 0 6.4211166703037179 -32.408245396028747 0 -32.408245396028747 -35.707584180323465 0 0 0 0 -0.071252721239353001 -0.26172889259369292 0 -0.26172889259369292 0.64487542493031924 0 0 0 0 -161.61695188020167 -57.071124191278614 0 -57.071124191278614 -39.707298864197583 0 0 0 0 -99.218123238411863 -131.00341004202164 0 -131.00341004202164 46.911610709888919 0 0 0 0 40.432737652806964 -18.033838773070102 0 -18.033838773070102 -9.9354079362710763 0 0 0 0 10.62915104676722 -76.632883543497883 0 -76.632883543497883 -0.34104631860373047 0 0 0 0 -49.008752196023124 -47.666540722009813 0 -47.666540722009813 45.10562644626043 0 0 0 0 -123.66517991360888 2.3151685682441894 0 2.3151685682441894 13.922375589858348 0 0 0 0 -25.507918304788291 -22.019346301360201 0 -22.019346301360201 -62.357825926897931 0 0 0 0 60.744089940562844 29.608269745611324 0 29.608269745611324 -35.423154405914829 0 0 0 0 16.506737172494468 27.810410685984607 0 27.810410685984607 -26.456776732263279 0 0 0 0 1.399333525856072 -2.268933968805682 0 -2.268933968805682 2.6901033355548449 0 0 0 0 24.196306132037535 25.047831417415182 0 25.047831417415182 -66.355671510060347 0 0 0 0 52.742530765815673 45.078202386302678 0 45.078202386302678 -62.35268310156971 0 0 0 0 -8.1545009314941126 1.6344154416747187 0 1.6344154416747187 -54.006103377581894 0 0 0 0 58.800143267647172 16.196322735090462 0 16.196322735090462 -128.78500979585806 0 0 0 0 134.43048601286137 106.62946251281573 0 106.62946251281573 -22.27040502586442 0 0 0 0 -139.01990121738891 2.6623599275817469 0 2.6623599275817469 203.4898948271657 0 0 0 0 0.6202315758606467 -2.6765435254495644 0 -2.6765435254495644 6.4364343501831982 0 0 0 0 181.74850423670841 -154.37624077716418 0 -154.37624077716418 625.09686071199758 0 0 0 0 99.376594143395778 104.98174984039815 0 104.98174984039815 -114.8137261396987 0 0 0 0 -144.7748027774569 160.41799061083657 0 160.41799061083657 322.7570694291353 0 0 0 0 389.85432900292017 -151.77211292267748 0 -151.77211292267748 -80.580334070520621 0 0 0 0 0.27954741751643786 -0.93171586650114335 0 -0.93171586650114335 5.6930475318465952 0 0 0 0 -351.72069000274678 21.12677900511153 0 21.12677900511153 400.08334117043159 0 0 0 0 671.17129571316946 -73.060595116648983 0 -73.060595116648983 -336.89628831240771 0 0 0 0 486.55807522052419 299.24765834771824 0 299.24765834771824 11.7736578100521 0 0 0 0 -342.61054233826871 117.11330903145608 0 117.11330903145608 616.94827752906713 0 0 0 0 -45.052561144525498 -236.43606030193041 0 -236.43606030193041 -159.35706609917543 0 0 0 0 -16.464117569305017 -55.945005763332119 0 -55.945005763332119 -40.535478665935443 0 0 0 0 1.8333162960335248 -3.3721468528078127 0 -3.3721468528078127 4.6581378135456433 0 0 0 0 387.01138169492515 -236.26051512232152 0 -236.26051512232152 -333.58364553442175 0 0 0 0 -10.003173827610226 -40.034054619525932 0 -40.034054619525932 -40.859322790156511 0 0 0 0 88.470950998631452 2.7933446203032872 0 2.7933446203032872 -22.297599661385902 0 0 0 0 185.68250173945216 -43.344604681468809 0 -43.344604681468809 -0.98404046355790342 0 0 0 0 30.135509087491982 -129.47848168840369 0 -129.47848168840369 67.42698333532644 0 0 0 0 0.38990924404933658 -1.3282923417017893 0 -1.3282923417017893 3.3569653326848083 0 0 0 0 6.4006421115109333 -55.796835177814501 0 -55.796835177814501 56.057113227232549 0 0 0 0 53.407986487450216 -49.460065076130377 0 -49.460065076130377 -31.136303453724395 0 0 0 0 32.561209504595354 -85.382252711258843 0 -85.382252711258843 -28.058406055142768 0 0 0 0 0.01676323337519392 -0.40053178562483183 0 -0.40053178562483183 -0.52750503501833634 0 0 0 0 31.18890978635045 -88.289678989694949 0 -88.289678989694949 34.573414703058006 0 0 0 0 20.686201779416479 -51.608599291289465 0 -51.608599291289465 -41.463278980900213 0 0 0 0 -12.979464188936618 -51.709933509771417 0 -51.709933509771417 5.7211731147035607 0 0 0 0 -29.118681312447734 -19.737594220067876 0 -19.737594220067876 2.8322973143949639 0 0 0 0 -1.1539871347240478 -6.4202595691158422 0 -6.4202595691158422 6.9486951725816652 0 0 0 0 2.5209150096179656 -40.638437185867588 0 -40.638437185867588 -4.3961493837396119 0 0 0 0 12.888904509483837 -19.656266896819943 0 -19.656266896819943 35.948062239884607 0 0 0 0 54.689933105575619 -21.975113752194829 0 -21.975113752194829 5.5089368144326727 0 0 0 0 58.690381614145736 -52.13632438483728 0 -52.13632438483728 25.997356665218831 0 0 0 0 10.006416938905204 -26.685965227055476 0 -26.685965227055476 27.415797926556479 0 0 0 0 -0.15003895261338229 -0.72874858658570929 0 -0.72874858658570929 -0.93291490478513595 0 0 0 0 55.466623559678737 -51.301796169429963 0 -51.301796169429963 31.774496515002284 0 0 0 0 -7.526622290087289 -18.716604982451372 0 -18.716604982451372 42.17419350399723 0 0 0 0 49.697336647256748 -25.386963839286977 0 -25.386963839286977 6.1088239786104168 0 0 0 0 1.9654234100362373 -33.903786902390948 0 -33.903786902390948 4.6831163776487301 0 0 0 0 32.993994510187349 -68.923881796858495 0 -68.923881796858495 42.342471888421642 0 0 0 0 -25.195129323348738 -34.963063855420842 0 -34.963063855420842 43.569424290299139 0 0 0 0 4.3990223449900441 -25.417726030510948 0 -25.417726030510948 22.68221387275571 0 0 0 0 4.5392484303274614 -37.309140617240701 0 -37.309140617240701 6.8472882782177749 0 0 0 0 -0.17594025980224615 -12.40782481724716 0 -12.40782481724716 1.6111457087790768 0 0 0 0 -19.121685264743974 -33.198667392266543 0 -33.198667392266543 -14.564502869687203 0 0 0 0 -37.663874661187492 -7.508908583816492 0 -7.508908583816492 -4.491207886750999 0 0 0 0 -46.594517518347857 -25.010814393578585 0 -25.010814393578585 8.5832672548776827 0 0 0 0 -35.498582822844583 -25.585070264124624 0 -25.585070264124624 6.3601814853809628 0 0 0 0 -27.97875191392086 -12.530222897428985 0 -12.530222897428985 14.639554478557329 0 0 0 0 -18.179416201157437 -41.259876479145532 0 -41.259876479145532 15.04247478522673 0 0 0 0 -38.282575502681539 -25.735176267735824 0 -25.735176267735824 8.0058708328269859 0 0 0 0 -42.743891235380488 -40.134782934841269 0 -40.134782934841269 -8.8004854281880398 0 0 0 0 -21.358923652779595 -71.977826469956199 0 -71.977826469956199 -35.609101895659478 0 0 0 0 -14.167181084226286 -81.877962159960589 0 -81.877962159960589 -24.063691385996663 0 0 0 0 -14.450400118818834 -80.839142860068023 0 -80.839142860068023 48.626755806876929 0 0 0 0 -19.46229250741635 -67.579861541145874 0 -67.579861541145874 -33.839811114616623 0 0 0 0 -33.082331979949231 -89.447645302510409 0 -89.447645302510409 -13.062567894770837 0 0 0 0 -21.554791738626591 -88.027882861996886 0 -88.027882861996886 1.9386133155749121 0 0 0 0 -4.4933476375917962 -38.727907769782178 0 -38.727907769782178 35.070232794363164 0 0 0 0 -34.286936752141628 -57.162675980745917 0 -57.162675980745917 47.520460203583298 0 0 0 0 -11.590584809361644 -62.25627114564486 0 -62.25627114564486 -9.0190552735548408 0 0 0 0 -17.001609016932889 -69.553821447308792 0 -69.553821447308792 -4.1455265543427231 0 0 0 0 -11.345505425830197 -34.980444087501382 0 -34.980444087501382 17.451284759605642 0 0 0 0 -4.4941301938870311 -50.856934251667553 0 -50.856934251667553 -20.21891643353365 0 0 0 0 11.512963000439413 -23.168229958669599 0 -23.168229958669599 -18.835806518962272 0 0 0 0 14.427598335852053 -37.372769081380284 0 -37.372769081380284 -93.972235369691589 0 0 0 0 0.20128482934810421 -0.38318557425406041 0 -0.38318557425406041 -0.31335024082745022 0 0 0 0 23.122539272728318 -83.436714284314803 0 -83.436714284314803 58.314907319831036 0 0 0 0 19.194882261891507 -106.52500899526149 0 -106.52500899526149 -47.473190452676135 0 0 0 0 -0.0090914257679521882 -0.36228231103949327 0 -0.36228231103949327 -0.49241760374664878 0 0 0 0 39.506973263056352 -31.184142999393771 0 -31.184142999393771 -28.414698362199488 0 0 0 0 32.19659002084245 -24.785908977601139 0 -24.785908977601139 20.260940933988877 0 0 0 0 40.927984794494364 -22.303117648985449 0 -22.303117648985449 20.069533982818029 0 0 0 0 35.952609852644855 -13.071474025076327 0 -13.071474025076327 0.67755578659489402 0 0 0 0 9.9012223827703565 -25.465697544986142 0 -25.465697544986142 14.573334259961484 0 0 0 0 25.890155934928089 -20.45488323794666 0 -20.45488323794666 -7.3614232280651777 0 0 0 0 0.19726922311427231 -0.59215633118901323 0 -0.59215633118901323 -0.48636951255832628 0 0 0 0 17.949206481942383 -36.613529568418926 0 -36.613529568418926 8.9672756766485691 0 0 0 0 10.861465912484618 -25.134496411057853 0 -25.134496411057853 -1.5103044970346673 0 0 0 0 6.8716430301547007 -36.468946125231014 0 -36.468946125231014 -5.4641554820345846 0 0 0 0 6.4528354847507217 -33.921901193763915 0 -33.921901193763915 4.843489241802672 0 0 0 0 12.601592747164432 -30.576449192631117 0 -30.576449192631117 -14.623578658443876 0 0 0 0 4.7671697086846052 -18.668981155951997 0 -18.668981155951997 -6.0051577622980403 0 0 0 0 -6.0062384735338128 -21.090861971903905 0 -21.090861971903905 -3.2466361072732752 0 0 0 0 -8.9197767141013173 -33.163715767146186 0 -33.163715767146186 -5.5118793397185755 0 0 0 0 -100.47080514887966 -38.370824087183792 0 -38.370824087183792 26.036326503414784 0 0 0 0 0.046276893925486284 -0.29913256442210123 0 -0.29913256442210123 0.73142584081868023 0 0 0 0 -26.03503132423657 -5.4973002230076418 0 -5.4973002230076418 -21.870296942062851 0 0 0 0 -44.956172710245937 -80.700627909935974 0 -80.700627909935974 21.28349112649812 0 0 0 0 0.063465328661089337 -0.6357034270473676 0 -0.6357034270473676 1.3358072462159427 0 0 0 0 -64.873849882734248 -36.763277884972467 0 -36.763277884972467 8.281771009723343 0 0 0 0 -15.602185962093927 -2.3226115010684225 0 -2.3226115010684225 18.549220299391891 0 0 0 0 -17.08039048997216 -22.206619425061945 0 -22.206619425061945 57.488534697626164 0 0 0 0 -9.6831774886959465 -59.281135196950345 0 -59.281135196950345 66.332529720162029 0 0 0 0 0.10516204209382707 -0.31783423980476755 0 -0.31783423980476755 -0.24723672383708006 0 0 0 0 5.1983025263089075 -18.522912598800758 0 -18.522912598800758 -69.666872515366776 0 0 0 0 24.424199276113541 -58.564864317670072 0 -58.564864317670072 -0.67499877219051996 0 0 0 0 0.42902096879991625 -0.67495513129205964 0 -0.67495513129205964 0.85345386390696376 0 0 0 0 -149.27949767795894 -12.88957411232127 0 -12.88957411232127 -9.13443459496375 0 0 0 0 126.19853561147374 32.229544168293614 0 32.229544168293614 -9.7946989012161794 0 0 0 0 -56.506593044254259 -36.680990958367147 0 -36.680990958367147 9.7291907638445991 0 0 0 0 -7.9496960119531224 -4.7253231024005693 0 -4.7253231024005693 1.5354875097866287 0 0 0 0 -31.361827586842992 -33.749535061087045 0 -33.749535061087045 -6.8142808746451919 0 0 0 0 9.2941814255136705 240.9000086644628 0 240.9000086644628 -10.956585895181888 0 0 0 0 -74.548648116763388 -120.2031937518733 0 -120.2031937518733 -18.763343419481316 0 0 0 0 -2.8995634852818171 -1.0024417470066744 0 -1.0024417470066744 -0.87172887432824098 0 0 0 0 80.545050672877551 -252.4827305554827 0 -252.4827305554827 -358.77803784705793 0 0 0 0 -131.96189220374981 -58.768498245547562 0 -58.768498245547562 69.309393227538749 0 0 0 0 -100.34582210214649 -17.300079208751413 0 -17.300079208751413 110.99850866488305 0 0 0 0 -0.22458880788626701 -0.65058769050064669 0 -0.65058769050064669 -1.7339083181498793 0 0 0 0 -15.272421429801398 -42.757391607178761 0 -42.757391607178761 19.801409045625405 0 0 0 0 -28.856765249454838 -20.922605074812054 0 -20.922605074812054 25.618900276820568 0 0 0 0 -73.306434357557919 -49.533061101311887 0 -49.533061101311887 28.779896642969106 0 0 0 0 11.118412606434504 -14.656732524580548 0 -14.656732524580548 12.740396836140462 0 0 0 0 4.6334908789676632 -9.9905121143065081 0 -9.9905121143065081 8.0294414776240544 0 0 0 0 -15.416455721971033 -43.272082460837282 0 -43.272082460837282 -9.2532025087057264 0 0 0 0 9.2922866138178506 -28.048808800293045 0 -28.048808800293045 -62.351139466555651 0 0 0 0 0.185667393892885 -1.2020861594854146 0 -1.2020861594854146 2.100105721105411 0 0 0 0 0.3709665702899656 -9.0758039827132961 0 -9.0758039827132961 16.034958947995619 0 0 0 0 -0.86311361631123873 -10.249503120333429 0 -10.249503120333429 15.298744526474366 0 0 0 0 -0.44773402058272183 -3.9608621218538751 0 -3.9608621218538751 8.3038884871592451 0 0 0 0 2.109748649746507 1.500987663939668 0 1.500987663939668 19.439335983843193 0 0 0 0 -52.541946815736082 -39.276446207071785 0 -39.276446207071785 25.502979611740329 0 0 0 0 -13.322861385258875 48.158549258778294 0 48.158549258778294 172.67414460581494 0 0 0 0 -0.30112677961733425 -233.43707624528633 0 -233.43707624528633 437.63159550030832 0 0 0 0 250.79151683338932 -160.03710486446289 0 -160.03710486446289 78.621565295235541 0 0 0 0 0.40194130460713851 -1.0078913081796301 0 -1.0078913081796301 3.1608584466750784 0 0 0 0 26.37840379607951 59.813918004701918 0 59.813918004701918 -473.23777640552544 0 0 0 0 366.21994950873159 -267.51204912216008 0 -267.51204912216008 -425.13120438951046 0 0 0 0 1.1981373876042198 -517.13325607636943 0 -517.13325607636943 -1150.1921162792132 0 0 0 0 10.320211119767919 -318.34184540570641 0 -318.34184540570641 246.04484731771481 0 0 0 0 -31.198024578388868 -144.56952729266868 0 -144.56952729266868 -123.25118440503684 0 0 0 0 71.979606554422389 -160.46877891915528 0 -160.46877891915528 -122.24456214638849 0 0 0 0 -99.867596203061112 -176.30612427394453 0 -176.30612427394453 -93.089267775500048 0 0 0 0 -39.734989710075752 -164.35322574775978 0 -164.35322574775978 -102.46994715211258 0 0 0 0 2.17817690900306 -2.4747563917278983 0 -2.4747563917278983 2.7611026063005077 0 0 0 0 -140.45706258771497 -57.43184919118994 0 -57.43184919118994 10.680534247951073 0 0 0 0 -45.878687372075092 -53.356157596458388 0 -53.356157596458388 -10.473433721721449 0 0 0 0 134.59322781278206 -63.688672376234535 0 -63.688672376234535 85.567606181661176 0 0 0 0 0.36963536928217877 -1.0191083798828782 0 -1.0191083798828782 1.466113451831724 0 0 0 0 -175.26897201241991 -162.42686729611069 0 -162.42686729611069 -14.71641093704693 0 0 0 0 25.544296241235543 6.8255272397711906 0 6.8255272397711906 0.79122690205804247 0 0 0 0 108.65072008030802 35.963282757594243 0 35.963282757594243 6.7504372199673526 0 0 0 0 171.88012914038518 -17.982142306761489 0 -17.982142306761489 -45.079885206935614 0 0 0 0 -124.04794210952832 -41.023837472403102 0 -41.023837472403102 10.738668850926842 0 0 0 0 -0.054618895130918332 -0.37734317440508036 0 -0.37734317440508036 -1.2427264843954191 0 0 0 0 -60.884028984836505 -72.491711719955902 0 -72.491711719955902 -16.051296213030582 0 0 0 0 -74.048667974359432 -20.121005817979608 0 -20.121005817979608 7.6997313600822963 0 0 0 0 7.8584439089390798 -14.732849873053055 0 -14.732849873053055 2.8656503851548223 0 0 0 0 -119.24358165208105 -69.862060936945454 0 -69.862060936945454 257.35530533174824 0 0 0 0 -20.117864644999827 -21.303347268613834 0 -21.303347268613834 -28.008336164412867 0 0 0 0 -6.7281130292385569 -37.718948809458198 0 -37.718948809458198 -22.92866332399899 0 0 0 0 -17.213449030117772 -56.503498684070109 0 -56.503498684070109 -31.57894771732208 0 0 0 0 -46.00911714960057 -46.455214141832585 0 -46.455214141832585 2.8074986740871282 0 0 0 0 -38.74386700240575 -46.166193503608156 0 -46.166193503608156 -18.778616526157748 0 0 0 0 -37.794664948509308 -50.842664289110871 0 -50.842664289110871 4.2456122122002853 0 0 0 0 -45.674889895171873 -36.057533172899639 0 -36.057533172899639 0.89495720630657161 0 0 0 0 -60.913540870552424 -20.091356039294624 0 -20.091356039294624 9.4675936774465299 0 0 0 0 -46.869445442027427 -45.505956692146356 0 -45.505956692146356 9.6703489955998521 0 0 0 0 -68.2596135144031 -44.771725234246333 0 -44.771725234246333 12.917733732309443 0 0 0 0 -130.27827128460558 -48.040195640087404 0 -48.040195640087404 7.9618683243697888 0 0 0 0 -56.917634757803626 -39.54493632212052 0 -39.54493632212052 4.4893999776268174 0 0 0 0 -63.651890519544395 -97.914732741821354 0 -97.914732741821354 -476.30766846596089 0 0 0 0 -0.3343945453530921 -1.0785514254665607 0 -1.0785514254665607 -2.9489475435050281 0 0 0 0 33.840934751178793 -41.98647268930381 0 -41.98647268930381 -6.4104611883994949 0 0 0 0 5.506824142080859 -37.6052810771439 0 -37.6052810771439 21.548547294894888 0 0 0 0 4.2170812714539352 -43.205606439973053 0 -43.205606439973053 -0.17527933050860156 0 0 0 0 -43.192470531980689 -51.121485891236716 0 -51.121485891236716 8.3622669277756358 0 0 0 0 -4.5198239008896053 -31.154581120405055 0 -31.154581120405055 10.68495184710082 0 0 0 0 -37.781751545940551 -68.272691758749261 0 -68.272691758749261 -20.394749696619328 0 0 0 0 13.835621971305955 -41.863230189501337 0 -41.863230189501337 -15.416174894864298 0 0 0 0 82.508054445490416 -9.3765809575534149 0 -9.3765809575534149 -50.024455182088786 0 0 0 0 26.297735973499584 -33.910825395425491 0 -33.910825395425491 -41.078454702874296 0 0 0 0 44.411816673711655 4.0332272249656853 0 4.0332272249656853 23.293096139665067 0 0 0 0 66.886046392065509 -27.832005386001128 0 -27.832005386001128 -71.513707898962821 0 0 0 0 52.780677664271934 -16.72401270017599 0 -16.72401270017599 -33.835629808889735 0 0 0 0 36.441304492296695 -46.49695409976448 0 -46.49695409976448 -60.023741367796902 0 0 0 0 46.135478559648618 -43.220428279167209 0 -43.220428279167209 58.008774912483204 0 0 0 0 76.398844284324696 -17.651805834485458 0 -17.651805834485458 -39.447953738645083 0 0 0 0 45.492211829396183 -51.234422443250878 0 -51.234422443250878 -41.688414071200896 0 0 0 0 -47.573602161641247 -82.868483087896493 0 -82.868483087896493 -17.481003115459316 0 0 0 0 16.187526300413992 -79.617764002171953 0 -79.617764002171953 -67.490121622284278 0 0 0 0 -1.5079994045099738 -33.67268715656428 0 -33.67268715656428 31.990955963037777 0 0 0 0 -77.444364364528155 -0.79605588334197819 0 -0.79605588334197819 -51.487080140482249 0 0 0 0 -21.519961542783506 -68.188991197255788 0 -68.188991197255788 -87.264140340929771 0 0 0 0 80.931391134360126 -82.812817673206411 0 -82.812817673206411 -61.245002930514602 0 0 0 0 -66.864726819600037 -110.84208220490018 0 -110.84208220490018 -46.82975294361313 0 0 0 0 -180.1471925436399 38.178313694073495 0 38.178313694073495 -65.668702720147849 0 0 0 0 -0.64433485404952506 -0.75693867700968553 0 -0.75693867700968553 -0.75627382141641419 0 0 0 0 -74.87002655048309 -102.55953248465539 0 -102.55953248465539 -36.939966696768352 0 0 0 0 -98.992749450842894 -87.816152628771306 0 -87.816152628771306 121.18382558588837 0 0 0 0 -15.304001064908675 -59.398245490213867 0 -59.398245490213867 -10.23656126604692 0 0 0 0 25.944141908501479 -79.008797233776022 0 -79.008797233776022 -62.468032476704622 0 0 0 0 2.2757902793408498 -1.9812071309058688 0 -1.9812071309058688 2.0178899529080461 0 0 0 0 -24.009237189402484 216.29575530546026 0 216.29575530546026 402.473830511676 0 0 0 0 -32.303527875962573 -21.298916499350071 0 -21.298916499350071 120.51752284736631 0 0 0 0 56.988084786696163 7.2886021296799299 0 7.2886021296799299 106.10394222984723 0 0 0 0 74.763101469017784 -39.656107941042137 0 -39.656107941042137 23.967124124979819 0 0 0 0 -20.79949012749239 -18.948442865295874 0 -18.948442865295874 40.984787226032495 0 0 0 0 24.485738525608213 -61.561353091067758 0 -61.561353091067758 39.550162924948381 0 0 0 0 -254.13067259665331 -146.82083302291358 0 -146.82083302291358 366.90085632392038 0 0 0 0 -3.5232058892213587 -3.1278039788124978 0 -3.1278039788124978 -2.7550419330340041 0 0 0 0 81.0577063363653 -95.860485677763791 0 -95.860485677763791 19.035025326568757 0 0 0 0 141.55089016531747 306.53943997633905 0 306.53943997633905 451.19794105656183 0 0 0 0 34.097814025903972 -140.58621625085289 0 -140.58621625085289 -262.71249326154248 0 0 0 0 30.865344857771333 -106.1512946250148 0 -106.1512946250148 -152.34246498033008 0 0 0 0 33.829588198745114 -57.464555931353061 0 -57.464555931353061 47.685905676809853 0 0 0 0 -2.5470431982993418 -8.5953753164985756 0 -8.5953753164985756 -6.1625209992740402 0 0 0 0 31.604283244945691 -37.027368224766178 0 -37.027368224766178 51.433708317235869 0 0 0 0 33.933244938376447 -54.772441531686127 0 -54.772441531686127 50.659340062401952 0 0 0 0 31.627776816622664 -31.110697952588332 0 -31.110697952588332 31.193577752834244 0 0 0 0 42.109206405344594 -56.298542946642556 0 -56.298542946642556 24.487999441429565 0 0 0 0 63.936709264176898 -83.218675255422568 0 -83.218675255422568 -1.6050234635131346 0 0 0 0 -92.89541826189361 6.5149499312501575 0 6.5149499312501575 31.884187081250275 0 0 0 0 33.542261435264663 -43.053318256281273 0 -43.053318256281273 6.116441675329952 0 0 0 0 49.356400334485443 -30.648158066427641 0 -30.648158066427641 7.6561201551630802 0 0 0 0 69.308966440603399 -119.51187016154108 0 -119.51187016154108 116.32194650200836 0 0 0 0 -24.67565314588137 68.192947518975416 0 68.192947518975416 -51.344754604871923 0 0 0 0 326.39757505738089 -60.199328568756755 0 -60.199328568756755 -267.55706845846362 0 0 0 0 -25.880871371243302 -21.280195873328921 0 -21.280195873328921 27.791519971382513 0 0 0 0 15.350984247857923 -37.047253495205041 0 -37.047253495205041 39.223931981206988 0 0 0 0 -11.170525462850492 -3.6578887053947255 0 -3.6578887053947255 14.385897774032856 0 0 0 0 -4.5057183232383977 -10.185343835434651 0 -10.185343835434651 10.932710472173312 0 0 0 0 -73.966593985744112 -36.86472367539136 0 -36.86472367539136 13.447326777444687 0 0 0 0 4.9394335124096251 -10.218802346650431 0 -10.218802346650431 12.939498307450378 0 0 0 0 -19.344151058022362 -23.360904278060389 0 -23.360904278060389 0.12203684393534786 0 0 0 0 7.1554065108763183 -10.100685257111421 0 -10.100685257111421 9.7027727728505475 0 0 0 0 -34.014299180142189 7.7681757223117529 0 7.7681757223117529 32.198998280389787 0 0 0 0 21.322208378087453 6.2901200219225757 0 6.2901200219225757 14.212164824985848 0 0 0 0 -1.553505696237707 -1.1730799586949003 0 -1.1730799586949003 2.4861443660643889 0 0 0 0 -22.186286903350265 -5.5816102877779485 0 -5.5816102877779485 34.855605455895784 0 0 0 0 -6.5154571892567859 -3.2501516629844431 0 -3.2501516629844431 6.7971965722886907 0 0 0 0 -23.715993519166659 -8.1408663676029391 0 -8.1408663676029391 33.30332256424299 0 0 0 0 -16.054221590624365 -14.723220058042898 0 -14.723220058042898 38.901647884642443 0 0 0 0 -86.621939940974698 -26.29641433541201 0 -26.29641433541201 38.770727088799049 0 0 0 0 -45.596312197583757 37.714455223844197 0 37.714455223844197 9.9871213617389003 0 0 0 0 -72.020494645001691 -92.486083255647372 0 -92.486083255647372 -15.034561101769214 0 0 0 0 38.947538805469776 -14.400911234492014 0 -14.400911234492014 -67.529046280662442 0 0 0 0 6.1867041036316284 -9.6740051301718513 0 -9.6740051301718513 9.0705686081298182 0 0 0 0 -17.652312226757203 -30.834072448508095 0 -30.834072448508095 94.258247734080214 0 0 0 0 0.11417909975534712 -62.015352164195065 0 -62.015352164195065 5.4316800908081859 0 0 0 0 -7.0544595086248592 -40.685005485441252 0 -40.685005485441252 -10.1451641786864 0 0 0 0 -58.693975393051915 -29.492689922442196 0 -29.492689922442196 44.314096514119228 0 0 0 0 28.207995969865806 -8.3903178585469504 0 -8.3903178585469504 7.3200172778997512 0 0 0 0 -20.047567972750585 35.659456042569218 0 35.659456042569218 108.62685634478476 0 0 0 0 0.01631971097413043 -94.79988278933115 0 -94.79988278933115 -37.985613684186319 0 0 0 0 0.50316371645137536 0.037101714747056924 0 0.037101714747056924 -0.28962654390059406 0 0 0 0 -10.637570215882079 29.692522113686664 0 29.692522113686664 38.170573319963751 0 0 0 0 -31.017639183563915 -12.050720529263344 0 -12.050720529263344 16.091860361083491 0 0 0 0 0.54954045623066961 -0.42397050322730223 0 -0.42397050322730223 0.1254719480071067 0 0 0 0 0.0029716428398387507 0.40535250606717455 0 0.40535250606717455 3.7535349373893041 0 0 0 0 2.22189853949385 0.9721395663345902 0 0.9721395663345902 3.6894960298163824 0 0 0 0 0.87864520025834381 -0.94943786174208888 0 -0.94943786174208888 1.2633769620963378 0 0 0 0 2.8394686101455591 5.9904654410188414 0 5.9904654410188414 6.5766538952766496 0 0 0 0 -10.415115237288774 -2.6810899776100996 0 -2.6810899776100996 17.708486266389059 0 0 0 0 0.35073589115199866 -2.482291952088417 0 -2.482291952088417 6.5814203274492442 0 0 0 0 -3.8555279388674535e-05 2.1479252112819722 0 2.1479252112819722 3.5555504152980575 0 0 0 0 2.5911893302854878 -0.9716827093284337 0 -0.9716827093284337 -8.1485572955534735 0 0 0 0 7.9729978679446525 -12.892941333435321 0 -12.892941333435321 10.058698563430564 0 0 0 0 58.422766313202374 -163.43689687999722 0 -163.43689687999722 114.83657569776369 0 0 0 0 15.825319696654141 -5.6161318170784007 0 -5.6161318170784007 -15.271614845855009 0 0 0 0 -19.428835977859308 -4.0663640750121886 0 -4.0663640750121886 -18.824497661003988 0 0 0 0 3.1463759263443478 -1.2563681180762512 0 -1.2563681180762512 -5.4197024647550052 0 0 0 0 28.461854801877053 -56.803069464354849 0 -56.803069464354849 139.2322430526583 0 0 0 0 34.104896115233714 -53.851984338181865 0 -53.851984338181865 91.426428109582048 0 0 0 0 -12.154700705568757 -9.1790581639656921 0 -9.1790581639656921 10.986208984333416 0 0 0 0 2.0093213678301254 -10.653707722408853 0 -10.653707722408853 -0.90812610114790004 0 0 0 0 1.3586614079213781 -2.4404202006783891 0 -2.4404202006783891 1.1432944620889067 0 0 0 0 10.328121385775376 8.3638784662848593 0 8.3638784662848593 -8.0786147445387542 0 0 0 0 -0.48365998809458688 -11.989335490627582 0 -11.989335490627582 -0.87704643240333269 0 0 0 0 11.721299418748458 -12.873943772516441 0 -12.873943772516441 -35.385092369338963 0 0 0 0 1.9779675173057214 -4.3856693707759824 0 -4.3856693707759824 -7.4613157838549373 0 0 0 0 13.372140703312652 -7.6189583126227944 0 -7.6189583126227944 -23.321474518852483 0 0 0 0 4.0073352526355599 -2.9672829326085939 0 -2.9672829326085939 -2.7421921889287724 0 0 0 0 47.993291367214624 -8.7960347024290968 0 -8.7960347024290968 -38.096023896354382 0 0 0 0 -14.72893270093482 21.608116803529811 0 21.608116803529811 -0.14366885404888308 0 0 0 0 29.13767677584292 14.28007065872589 0 14.28007065872589 -63.976002667303874 0 0 0 0 15.616875730942411 24.766396407871071 0 24.766396407871071 -65.742773034632592 0 0 0 0 19.39094994325842 -7.3923489528629034 0 -7.3923489528629034 -3.5456781507391497 0 0 0 0 -0.91762508953694422 -2.3232721879023259 0 -2.3232721879023259 -3.2485135625740007 0 0 0 0 -32.806525019896071 24.628824840965535 0 24.628824840965535 -55.764837746949524 0 0 0 0 0.87518302723809072 -1.255697750150091 0 -1.255697750150091 -2.1446475343845055 0 0 0 0 -27.194496710202657 50.354199657966547 0 50.354199657966547 -76.331898245880438 0 0 0 0 -20.033169670150528 45.826243864702974 0 45.826243864702974 -79.651854848357061 0 0 0 0 -14.814877077164056 64.478874810671641 0 64.478874810671641 -109.50652155926673 0 0 0 0 -6.7216155851638177 45.735778905263487 0 45.735778905263487 -81.046501690264449 0 0 0 0 20.301500635854609 32.322808427297787 0 32.322808427297787 -82.385735365633138 0 0 0 0 26.425583757337336 42.055678696853533 0 42.055678696853533 -95.566872993347715 0 0 0 0 55.639847293350613 32.573666461214543 0 32.573666461214543 -93.008354539806533 0 0 0 0 -22.284056310860251 -11.899490970421084 0 -11.899490970421084 -6.2154341383181873 0 0 0 0 -46.240520586243292 -51.436010810116841 0 -51.436010810116841 2.4879478899082415 0 0 0 0 3.8209291515486257 13.554204485970558 0 13.554204485970558 -25.114236170709773 0 0 0 0 -0.057387073569771019 -8.7411225893683877 0 -8.7411225893683877 -46.103630276769763 0 0 0 0 -14.873127421678873 -82.804101457533989 0 -82.804101457533989 -148.16519901932043 0 0 0 0 -73.718187560045408 -92.467726180568889 0 -92.467726180568889 -40.516082858401887 0 0 0 0 -84.35885385828351 15.013465889393729 0 15.013465889393729 -59.13123228938457 0 0 0 0 0.065359468823297379 -17.226263192294255 0 -17.226263192294255 -205.34794733390027 0 0 0 0 -0.55272852648419502 -0.65123593964634097 0 -0.65123593964634097 -1.2740777404720021 0 0 0 0 -102.61718146601197 143.0226609208114 0 143.0226609208114 -180.57908028869042 0 0 0 0 14.536853413599601 -30.10982028318881 0 -30.10982028318881 -62.063398876718111 0 0 0 0 11.761742394224711 -0.077406264952514903 0 -0.077406264952514903 -247.58715483181072 0 0 0 0 65.062359760850995 7.6143341983520259 0 7.6143341983520259 -117.93919611432466 0 0 0 0 52.920663349743336 37.168199995046507 0 37.168199995046507 -164.7142512071332 0 0 0 0 38.89691559925086 -4.3965041733893031 0 -4.3965041733893031 -35.365473659682721 0 0 0 0 -23.488773255641036 -32.534563993749373 0 -32.534563993749373 23.806515153900818 0 0 0 0 -6.0896678381795937 -92.993350988595466 0 -92.993350988595466 80.070299928083386 0 0 0 0 47.47740632723071 -131.86950831019021 0 -131.86950831019021 150.23642270318163 0 0 0 0 22.037595241488816 -44.609986253601164 0 -44.609986253601164 149.02012342513626 0 0 0 0 -29.911026101944117 -112.57077964737721 0 -112.57077964737721 111.6578370683244 0 0 0 0 -36.65089605256253 -61.792526867968036 0 -61.792526867968036 66.751448129635946 0 0 0 0 -0.094591091144133013 -79.584123509981609 0 -79.584123509981609 13.443667021912461 0 0 0 0 79.977570740697047 -18.237961587672544 0 -18.237961587672544 343.18073368347268 0 0 0 0 -40.54326445949664 100.24854438059947 0 100.24854438059947 314.71077348196593 0 0 0 0 0.32808962026233601 -1.2169930498163275 0 -1.2169930498163275 3.7593432231381883 0 0 0 0 185.25457231386281 -244.43255862644924 0 -244.43255862644924 100.39219391246343 0 0 0 0 117.65311226778067 -260.42469280849127 0 -260.42469280849127 297.37495782014366 0 0 0 0 210.88963435893129 -85.193996072471919 0 -85.193996072471919 151.26095732090153 0 0 0 0 194.7988966528028 -241.94882708576097 0 -241.94882708576097 166.50379237466814 0 0 0 0 95.181512325567383 -63.121644107674456 0 -63.121644107674456 248.59249805444415 0 0 0 0 109.1200446087314 -120.15938815340951 0 -120.15938815340951 157.62646858253538 0 0 0 0 68.376428883595509 -12.885056421322588 0 -12.885056421322588 99.143916489430922 0 0 0 0 74.968265469531616 -11.342229161309206 0 -11.342229161309206 64.030333905088696 0 0 0 0 116.57101614334624 -43.329106478666176 0 -43.329106478666176 52.779342389257181 0 0 0 0 65.677236871965761 -55.460678137353966 0 -55.460678137353966 24.642579751433914 0 0 0 0 91.570590901945252 12.229790189455798 0 12.229790189455798 -64.876891320044251 0 0 0 0 57.65315702816406 18.849186854723484 0 18.849186854723484 -59.380821780466249 0 0 0 0 61.807229742127674 -34.949183320705288 0 -34.949183320705288 -100.09409066615444 0 0 0 0 150.56735162170844 24.460282662733107 0 24.460282662733107 -76.754715075962849 0 0 0 0 60.943742503113299 -99.859190133204493 0 -99.859190133204493 -9.4734643935976237 0 0 0 0 246.78886666815379 -4.8089325989660665 0 -4.8089325989660665 30.291177645977314 0 0 0 0 69.748523896893403 -234.06747387816904 0 -234.06747387816904 151.36801133516838 0 0 0 0 11.436957800548043 -24.391407244977017 0 -24.391407244977017 -98.163896766789776 0 0 0 0 12.155735092229719 -6.5093511348795428 0 -6.5093511348795428 2.3941067288428108 0 0 0 0 0.15409738264679618 -146.70006192031883 0 -146.70006192031883 -213.27170937319715 0 0 0 0 19.037038041921051 -20.879908817565394 0 -20.879908817565394 -100.72856477576715 0 0 0 0 -13.504800131566299 -96.958553334565295 0 -96.958553334565295 -50.058536348500866 0 0 0 0 50.440065657836385 66.148613018498054 0 66.148613018498054 -17.332401078223029 0 0 0 0 65.484504920321342 19.885734339850046 0 19.885734339850046 -90.89916778720908 0 0 0 0 44.464134159919922 -1.9223717408058292 0 -1.9223717408058292 -111.28548321029012 0 0 0 0 116.27183610306747 13.10289526470774 0 13.10289526470774 -109.63841015526941 0 0 0 0 0.67831239755105344 -68.456134116170233 0 -68.456134116170233 -131.79476070324887 0 0 0 0 60.733427869419756 -11.831312283767375 0 -11.831312283767375 -124.52784834246586 0 0 0 0 16.547860402598872 -9.0352040448423097 0 -9.0352040448423097 4.4119503337776873 0 0 0 0 59.082571515089512 8.1479132955296336 0 8.1479132955296336 -94.499366501080999 0 0 0 0 27.659657927100852 -13.447945163224404 0 -13.447945163224404 -46.700007462335179 0 0 0 0 20.998761723476754 -13.579630720445138 0 -13.579630720445138 2.6121906705398423 0 0 0 0 54.943502299342072 -11.416426080801557 0 -11.416426080801557 -48.455173248035408 0 0 0 0 19.843880356205773 -36.207597596697269 0 -36.207597596697269 -31.549523525581208 0 0 0 0 -12.997697635760233 -95.504189401835333 0 -95.504189401835333 -66.912496764516618 0 0 0 0 19.590759867347288 -4.6054045847947691 0 -4.6054045847947691 -10.592736860336117 0 0 0 0 -75.03901389781322 -106.23189490633831 0 -106.23189490633831 -53.863553724297162 0 0 0 0 -15.148274207576833 -35.836870453881147 0 -35.836870453881147 -151.82651934187288 0 0 0 0 28.320274685670483 32.068850545992063 0 32.068850545992063 -22.513142384425919 0 0 0 0 -36.963581781680659 -48.941687513317902 0 -48.941687513317902 -131.07099750025736 0 0 0 0 26.214764818027106 45.881542700552927 0 45.881542700552927 116.61992627929652 0 0 0 0 -77.2232688837762 -186.24250001578554 0 -186.24250001578554 -166.69501429239062 0 0 0 0 5.2152835663545822 -6.4779836928967409 0 -6.4779836928967409 6.9078231580807348 0 0 0 0 8.3748715591209475 3.7885631777271556 0 3.7885631777271556 46.831623476108234 0 0 0 0 7.8482313131211647 -10.301356363818726 0 -10.301356363818726 11.341410986877211 0 0 0 0 -5.1043808214358251 -10.030274003493332 0 -10.030274003493332 44.14709981901251 0 0 0 0 -18.86915199790019 -20.66131008509592 0 -20.66131008509592 63.112756863401046 0 0 0 0 -11.597575691192105 -35.594496775284824 0 -35.594496775284824 18.152061457508353 0 0 0 0 -9.1167734516168366 -25.771760475689689 0 -25.771760475689689 32.510980602597556 0 0 0 0 -3.7686175894039025 -36.678467788259695 0 -36.678467788259695 4.8208944617799716 0 0 0 0 0.57975069423991954 -16.893375468710474 0 -16.893375468710474 31.273280856825181 0 0 0 0 -1.008079541062898 -26.907851092763622 0 -26.907851092763622 22.437573580213211 0 0 0 0 -1.4254646023427995 -13.601443266951264 0 -13.601443266951264 26.580965268789441 0 0 0 0 6.8969987670213868 -15.578436591356876 0 -15.578436591356876 26.338722190881526 0 0 0 0 8.2517303134350826 -10.53960144706131 0 -10.53960144706131 -11.611776315942707 0 0 0 0 4.5871696307042384 -21.69217760777633 0 -21.69217760777633 24.963054943675161 0 0 0 0 24.369682811513485 -156.71085860061703 0 -156.71085860061703 -289.80547483573264 0 0 0 0 -54.172475992818363 -29.604133416297373 0 -29.604133416297373 -319.10121348727307 0 0 0 0 -274.81258005844575 48.230533099733293 0 48.230533099733293 -290.94217485348418 0 0 0 0 -349.00764910608996 -37.017657282625805 0 -37.017657282625805 -250.93719476128172 0 0 0 0 -304.18544240694246 -159.3805576204179 0 -159.3805576204179 -114.44643301478027 0 0 0 0 -25.087918173661819 -350.16501256448237 0 -350.16501256448237 -478.76915732897635 0 0 0 0 8.1352266134359681 -13.404764539767616 0 -13.404764539767616 13.882381130109348 0 0 0 0 -82.284285585112229 14.046916454568418 0 14.046916454568418 -357.90603683904737 0 0 0 0 -112.58077229187256 46.2161300505295 0 46.2161300505295 -371.67869861931467 0 0 0 0 122.20687581411039 -19.08014047066581 0 -19.08014047066581 -222.99386944613775 0 0 0 0 108.15928744957637 -45.766558307736432 0 -45.766558307736432 -122.60057598621052 0 0 0 0 -195.26281768773151 -279.85044027627873 0 -279.85044027627873 -188.59803514019904 0 0 0 0 -161.03306472427175 -37.346099694233544 0 -37.346099694233544 -68.329346629638167 0 0 0 0 -21.926065395523437 -105.7580220818287 0 -105.7580220818287 -27.637160289588792 0 0 0 0 7.116815135291013 -4.0447830021908171 0 -4.0447830021908171 1.7684136662314138 0 0 0 0 48.821559578344022 116.53652817144939 0 116.53652817144939 62.551200746725954 0 0 0 0 27.334699327749149 -48.597716718638594 0 -48.597716718638594 -216.40860416741725 0 0 0 0 -137.80443112556668 -236.93113340265677 0 -236.93113340265677 -203.40494025155795 0 0 0 0 19.572025685451081 -60.221970618214527 0 -60.221970618214527 19.949953600901608 0 0 0 0 -33.266213602985772 -58.772644112404578 0 -58.772644112404578 29.424378109817553 0 0 0 0 2.1431725521219889 -13.455048724531537 0 -13.455048724531537 -13.252340789416735 0 0 0 0 0.8024955291302831 -50.584185010025976 0 -50.584185010025976 16.374086380057634 0 0 0 0 12.783928517074855 -27.319285409163058 0 -27.319285409163058 16.716411197308389 0 0 0 0 0.61285986907341794 -32.653625519813431 0 -32.653625519813431 14.537564718460999 0 0 0 0 2.0148534751242551 -25.978271588218831 0 -25.978271588218831 22.18800444592307 0 0 0 0 6.3981818370048131 -28.875493679736792 0 -28.875493679736792 1.0727847033035687 0 0 0 0 8.7638687501957975 -21.96251716750885 0 -21.96251716750885 24.137017246953292 0 0 0 0 66.053129620953769 -70.001814008836845 0 -70.001814008836845 -46.838413324141584 0 0 0 0 62.536710483318984 -96.165631046684098 0 -96.165631046684098 -205.91496661826386 0 0 0 0 86.446030857892765 -103.01115898950184 0 -103.01115898950184 1.9919816635106145 0 0 0 0 6.2852649242012149 -34.350031578346318 0 -34.350031578346318 31.355657950452951 0 0 0 0 5.1398128270868568 -12.507567596988501 0 -12.507567596988501 -13.225061766475356 0 0 0 0 51.969758992884636 -138.3073338251786 0 -138.3073338251786 38.419131319077906 0 0 0 0 -47.53551389351469 -104.09068774721209 0 -104.09068774721209 171.65261322965671 0 0 0 0 -154.49257550551556 -154.25505229217652 0 -154.25505229217652 40.474850845364699 0 0 0 0 59.728535198440568 -91.470095208871442 0 -91.470095208871442 58.567601687818296 0 0 0 0 -77.035836565375575 -46.17514611192064 0 -46.17514611192064 62.196827064681202 0 0 0 0 -91.265798819327756 14.402625725389782 0 14.402625725389782 -44.833083335655374 0 0 0 0 5.1188775711184462 -24.76949572101455 0 -24.76949572101455 67.677001906315581 0 0 0 0 -333.70375911824613 -81.642151023884708 0 -81.642151023884708 20.074573976561396 0 0 0 0 -124.80683261079685 -74.24539381942941 0 -74.24539381942941 -4.1645661589407155 0 0 0 0 -164.9260146282304 -162.2539904092273 0 -162.2539904092273 -49.401136233517263 0 0 0 0 214.81404770129302 -164.67555182313299 0 -164.67555182313299 -42.912703327597228 0 0 0 0 111.18594624694742 -199.77361421726027 0 -199.77361421726027 -53.771117427829267 0 0 0 0 -0.4099784943590894 -0.75694915056187462 0 -0.75694915056187462 -1.4491596570723537 0 0 0 0 -367.18039145626312 67.684887743031538 0 67.684887743031538 -4.3041537703866197 0 0 0 0 172.12768640927243 -94.022550607857056 0 -94.022550607857056 28.943429797287536 0 0 0 0 -125.45827119010937 9.7286758413847565 0 9.7286758413847565 6.0802017105592085 0 0 0 0 22.580413215535373 -94.58807142071646 0 -94.58807142071646 136.41733455634858 0 0 0 0 29.345661864155772 -79.532364002941449 0 -79.532364002941449 134.74306991944286 0 0 0 0 141.08253873920626 -98.617689084810593 0 -98.617689084810593 41.607499035053479 0 0 0 0 136.41385479206292 -121.21014215608102 0 -121.21014215608102 66.172125739301009 0 0 0 0 91.555956926053341 -109.81218390101822 0 -109.81218390101822 -31.445498601349755 0 0 0 0 144.15236005802035 -133.7187531968998 0 -133.7187531968998 -25.188982194967139 0 0 0 0 101.58167742576734 -101.68651067839119 0 -101.68651067839119 41.375967791918811 0 0 0 0 65.853609843496088 -154.21305359542521 0 -154.21305359542521 -35.786176414294687 0 0 0 0 -27.290645346225574 -141.22009357065372 0 -141.22009357065372 89.102356112269263 0 0 0 0 -62.111141092982507 -108.16705404896811 0 -108.16705404896811 133.7483876510305 0 0 0 0 2.9618898992212053 -126.59778765625583 0 -126.59778765625583 89.737249950668229 0 0 0 0 -8.8695009879620557 -84.971956966136986 0 -84.971956966136986 142.77781464346572 0 0 0 0 -1.4504722125966509 -85.627463678033791 0 -85.627463678033791 78.650460713459324 0 0 0 0 7.7887144836313382 -68.942265220198806 0 -68.942265220198806 88.814039281701298 0 0 0 0 6.346560721322021 -64.337919180001563 0 -64.337919180001563 76.61058244468677 0 0 0 0 6.9305059860816982 -30.521763601424027 0 -30.521763601424027 40.889009212244673 0 0 0 0 -1.9452961574331713 0.56311525950299135 0 0.56311525950299135 -0.43127542266799423 0 0 0 0 -4.1145300917967624 -5.2355293919373409 0 -5.2355293919373409 -4.119490734061344 0 0 0 0 -13.507292326722563 -8.6941595030715462 0 -8.6941595030715462 0.3622060231409705 0 0 0 0 47.954979778260167 -135.40088362317238 0 -135.40088362317238 123.71829184341459 0 0 0 0 54.140173948620941 -43.451622192354989 0 -43.451622192354989 8.1130056155216153 0 0 0 0 173.56529803455942 -105.73049094940586 0 -105.73049094940586 20.249768728592244 0 0 0 0 -2.4697611584547623 -0.61610955485756058 0 -0.61610955485756058 0.49426305541068061 0 0 0 0 -2.0300765775999565 -2.60797559837461 0 -2.60797559837461 -3.4428287746329431 0 0 0 0 -116.56378995909381 -0.88619198388596487 0 -0.88619198388596487 1.3888031386777584 0 0 0 0 -105.35536178697475 -0.8185941003807784 0 -0.8185941003807784 -0.45752122969543052 0 0 0 0 -73.327257309015295 -27.956249598370732 0 -27.956249598370732 1.0215855192273011 0 0 0 0 -55.590225947225008 -14.441155639499812 0 -14.441155639499812 -0.85470718013448277 0 0 0 0 -56.856543370049621 -50.428218245723201 0 -50.428218245723201 -0.23382518997141233 0 0 0 0 -90.267674747197816 -55.071769173615849 0 -55.071769173615849 5.3179966933323612 0 0 0 0 -96.570074711382745 -50.371370839387453 0 -50.371370839387453 18.562440492907626 0 0 0 0 -180.29868539473318 -39.98530810422244 0 -39.98530810422244 17.27444158572689 0 0 0 0 -89.288449520698123 -165.3575501816108 0 -165.3575501816108 152.22462498837103 0 0 0 0 -170.21729408570718 -169.36980960224071 0 -169.36980960224071 152.17938684450246 0 0 0 0 -73.597546485605562 -40.279965172961965 0 -40.279965172961965 -2.3724483400815188 0 0 0 0 -70.368687402610021 -236.49612929067933 0 -236.49612929067933 -141.08199539998077 0 0 0 0 200.41679557226234 164.03073628309812 0 164.03073628309812 81.464070590776998 0 0 0 0 1.9851666347434929 -1.4358738452646351 0 -1.4358738452646351 1.1564260296958082 0 0 0 0 -47.718204699453054 -35.070563806935752 0 -35.070563806935752 65.590118901392088 0 0 0 0 166.11370809294385 -191.56761470978881 0 -191.56761470978881 70.295054723526391 0 0 0 0 -23.871231356010867 -169.63104702828036 0 -169.63104702828036 -118.36610872746678 0 0 0 0 -68.588904010903207 -24.782562124002652 0 -24.782562124002652 -44.737019582971925 0 0 0 0 -92.420851608199882 -206.13387321438222 0 -206.13387321438222 1.0364137090309669 0 0 0 0 -246.2370505110157 -206.17024065837359 0 -206.17024065837359 -102.75476299017782 0 0 0 0 -82.118429655205546 -136.74386660022992 0 -136.74386660022992 -74.850803560585518 0 0 0 0 -165.63977218192667 -179.287649242322 0 -179.287649242322 -140.77154974145196 0 0 0 0 -104.64948090935854 -217.3188630232944 0 -217.3188630232944 41.568249324111093 0 0 0 0 -42.024838317880494 -176.5122502760878 0 -176.5122502760878 12.019887071707217 0 0 0 0 -99.087638565822999 -122.75451966760738 0 -122.75451966760738 123.41372577997981 0 0 0 0 -51.570214217883404 -75.951096085362678 0 -75.951096085362678 200.11087052104995 0 0 0 0 -71.83191596810866 -139.9060557933376 0 -139.9060557933376 132.61456807164177 0 0 0 0 -2.0079165845654643 2.1779521490466323 0 2.1779521490466323 238.7513936343189 0 0 0 0 -83.780703376830616 -101.41853556368881 0 -101.41853556368881 299.35856489199523 0 0 0 0 65.921088851487184 -33.355651666795438 0 -33.355651666795438 128.29729682297875 0 0 0 0 -31.966095557951121 -57.50849394124225 0 -57.50849394124225 140.29698142018242 0 0 0 0 -20.786695313006931 -47.847697064555177 0 -47.847697064555177 145.78312385411937 0 0 0 0 -21.540393407118245 -53.993105882918371 0 -53.993105882918371 96.219466393464245 0 0 0 0 0.16939399049260828 -24.755347540551156 0 -24.755347540551156 61.900178779623047 0 0 0 0 3.9825308860454243 -43.547904078314332 0 -43.547904078314332 56.731488818964863 0 0 0 0 -5.3802725442619703 -41.162897927794802 0 -41.162897927794802 134.71029371097211 0 0 0 0 9.8371121685049729 -21.214904524590111 0 -21.214904524590111 82.516594356808582 0 0 0 0 -36.151845331611185 -40.907152608842807 0 -40.907152608842807 151.85949391270969 0 0 0 0 9.7099418787820468 -29.920036168710567 0 -29.920036168710567 56.037947490408442 0 0 0 0 33.893940690114505 -100.51120708232747 0 -100.51120708232747 166.05791402839259 0 0 0 0 -95.715523350578223 -105.13922863152493 0 -105.13922863152493 365.37239827061558 0 0 0 0 -37.252664850523615 -24.898028322203345 0 -24.898028322203345 57.586450431826961 0 0 0 0 -55.462962453336331 -27.94692697503524 0 -27.94692697503524 58.938560695784872 0 0 0 0 -13.304957842108706 -39.618479681335884 0 -39.618479681335884 -4.8405861967386272 0 0 0 0 -11.689479236465559 -25.750573357521716 0 -25.750573357521716 -2.9904980352463895 0 0 0 0 -11.898061123425578 -27.997665184441757 0 -27.997665184441757 -9.634740469999997 0 0 0 0 -7.3656406484333274 -37.059221288123808 0 -37.059221288123808 -0.55517087265707232 0 0 0 0 -14.923789601065437 -22.574877697672036 0 -22.574877697672036 30.812463465334076 0 0 0 0 -12.12142837292231 -40.477573763152805 0 -40.477573763152805 52.294115169362158 0 0 0 0 -5.1657094912698085 -11.22471680566241 0 -11.22471680566241 41.134102217455847 0 0 0 0 8.0779161866603317 -31.253487324085199 0 -31.253487324085199 18.903816011883464 0 0 0 0 8.060330785429187 -22.742246688643775 0 -22.742246688643775 6.4279951202533994 0 0 0 0 -0.712992876799035 -2.1131131250035651 0 -2.1131131250035651 -20.088577146231728 0 0 0 0 -23.066107052649386 -5.0955417272462 0 -5.0955417272462 5.056071915211362 0 0 0 0 -25.16297886632492 -37.38023538483003 0 -37.38023538483003 -6.2774743520321863 0 0 0 0 -9.3000733761849688 -19.293966018001925 0 -19.293966018001925 11.657772849421235 0 0 0 0 -5.8919492229033494 -31.391905598395169 0 -31.391905598395169 -36.988195936481134 0 0 0 0 -49.391488009558088 -22.048401633952381 0 -22.048401633952381 -7.7619159824862436 0 0 0 0 -4.5780909006859574 -1.5237453059948258 0 -1.5237453059948258 0.67098181799021006 0 0 0 0 -8.3523596765398906 -6.8990661933146384 0 -6.8990661933146384 -30.64609787032532 0 0 0 0 -12.817108353890944 -26.92125194770324 0 -26.92125194770324 -31.758637315774649 0 0 0 0 -6.8883568564862969 -9.2029422108401064 0 -9.2029422108401064 -12.148626776869829 0 0 0 0 -7.9670936669926959 -21.670507489189504 0 -21.670507489189504 -26.350444579066789 0 0 0 0 -20.888587281205218 -0.95765262464146872 0 -0.95765262464146872 7.7436643045730307 0 0 0 0 -17.228177104583345 -3.5214164835213086 0 -3.5214164835213086 1.5254576182642783 0 0 0 0 -25.096230057015418 -3.3904584321935545 0 -3.3904584321935545 -0.30453734470393101 0 0 0 0 -21.151906161023817 -7.6859206897354397 0 -7.6859206897354397 1.7129031895383378 0 0 0 0 -6.9883953805051764 -7.0610306747117946 0 -7.0610306747117946 2.4933989042872504 0 0 0 0 -8.085113690867729 -15.282020527907207 0 -15.282020527907207 -1.9685655120256342 0 0 0 0 -13.971961864535842 -11.208511685170379 0 -11.208511685170379 -1.6051889434520277 0 0 0 0 -16.054854213442013 -13.528441009762901 0 -13.528441009762901 3.0059467519395184 0 0 0 0 -24.046366859551199 -3.7169445470126448 0 -3.7169445470126448 6.3942045062362922 0 0 0 0 -10.792592005303309 -5.8734766454506602 0 -5.8734766454506602 6.1995036401436368 0 0 0 0 -10.62642961669826 -10.658645825205213 0 -10.658645825205213 -3.705727547103379 0 0 0 0 0.93533419866898271 -9.7935828076261693 0 -9.7935828076261693 1.6013093241885308 0 0 0 0 -49.491150835019653 -0.96441089500876842 0 -0.96441089500876842 -1.6969028058556432 0 0 0 0 -0.28822451323133258 -0.43849866899752499 0 -0.43849866899752499 0.23787561202529872 0 0 0 0 -26.170600492539961 -31.387305717925301 0 -31.387305717925301 9.2315488060783082 0 0 0 0 -55.465327363082906 -8.3417634896220534 0 -8.3417634896220534 16.829568553624085 0 0 0 0 0.17960848956954223 -5.8850982791666233 0 -5.8850982791666233 11.35799782571217 0 0 0 0 -18.74359334894325 -41.37717005808895 0 -41.37717005808895 -23.569916348478728 0 0 0 0 -27.788367803959773 -35.052536423455422 0 -35.052536423455422 -5.3752693158130569 0 0 0 0 -2.4253991012312781 -2.4122217806730033 0 -2.4122217806730033 2.9403489544907764 0 0 0 0 -12.84706228692994 -26.341238826641074 0 -26.341238826641074 -15.109463990123913 0 0 0 0 -12.160423029763479 -11.437162661818547 0 -11.437162661818547 -7.8032698825063562 0 0 0 0 -5.895898276790831 -30.28599548388047 0 -30.28599548388047 -13.171323751957061 0 0 0 0 -24.91489079956591 -29.132353435032201 0 -29.132353435032201 -16.980244847944732 0 0 0 0 -0.80185253791574951 -1.8805179281281168 0 -1.8805179281281168 0.47985064316705106 0 0 0 0 -24.366005951818352 -25.885139140494744 0 -25.885139140494744 -23.464864803973342 0 0 0 0 -37.134424155864735 -52.2892664363211 0 -52.2892664363211 -9.0936419672607371 0 0 0 0 -42.741251983845359 -40.146987254955548 0 -40.146987254955548 -22.711881312392507 0 0 0 0 -16.542407524854752 -16.128166043042256 0 -16.128166043042256 -15.053847767951993 0 0 0 0 -36.576534674007917 -19.338403815757147 0 -19.338403815757147 2.9860876343709606 0 0 0 0 -21.355062789305066 -1.405924731706591 0 -1.405924731706591 4.6504650383803892 0 0 0 0 -0.45787175920253453 0.38147619423310708 0 0.38147619423310708 1.5474400323582032 0 0 0 0 -35.525367355097842 -20.404935991064121 0 -20.404935991064121 -6.8680642777426328 0 0 0 0 -0.055412409355152903 0.13334611529650608 0 0.13334611529650608 0.23413479440538842 0 0 0 0 -21.501761182893461 -23.518481629756025 0 -23.518481629756025 -0.95329160597430018 0 0 0 0 -14.80733854455093 -14.284579312800133 0 -14.284579312800133 -20.121798796695657 0 0 0 0 -32.694443843734916 6.257293108088561 0 6.257293108088561 -0.15148936626451359 0 0 0 0 -22.779695806521886 -3.4760937530550109 0 -3.4760937530550109 1.6503919446386135 0 0 0 0 23.722559537308371 -42.07611046746797 0 -42.07611046746797 9.0245794590937294 0 0 0 0 5.2644540991103668 0.49728278738854215 0 0.49728278738854215 3.1856447095397016 0 0 0 0 -6.6915284440110554 -3.585146446550425 0 -3.585146446550425 2.9455085088457054 0 0 0 0 -4.7662499214947243 -7.2008151800948283 0 -7.2008151800948283 -8.357904740239082 0 0 0 0 9.8484237828874939 -17.875991052168274 0 -17.875991052168274 -8.9646508041637389 0 0 0 0 9.3064747046978482 -0.36929116260409955 0 -0.36929116260409955 -16.039843666473644 0 0 0 0 1.625423505015533 0.015250462182848423 0 0.015250462182848423 -7.3263802917374505 0 0 0 0 18.075759197816751 -14.310898415434622 0 -14.310898415434622 -22.64437504608668 0 0 0 0 -0.26442010654516679 -0.20372857167214775 0 -0.20372857167214775 -0.36371710959330272 0 0 0 0 -0.12948390679230215 7.5516247198615929 0 7.5516247198615929 -33.409180228515254 0 0 0 0 -33.659102517715155 -3.7278728048722769 0 -3.7278728048722769 -0.43871319539266551 0 0 0 0 -48.573150424474079 -17.656944608643698 0 -17.656944608643698 -2.660793402618765 0 0 0 0 -16.238529948421274 -26.318667990653012 0 -26.318667990653012 -39.732408775670251 0 0 0 0 -38.219369778273176 -16.495101936522133 0 -16.495101936522133 -2.7416591585961214 0 0 0 0 -15.00605877268481 -8.9430928204255906 0 -8.9430928204255906 -12.096647404424402 0 0 0 0 -0.097638676976862016 -0.37841085528074281 0 -0.37841085528074281 -0.95305777558266058 0 0 0 0 -39.1149156709198 -2.416736452823443 0 -2.416736452823443 -10.703524764812755 0 0 0 0 -5.6324172273748445 -67.921771385890338 0 -67.921771385890338 -27.302252145712373 0 0 0 0 -44.294323916679787 -42.288576141925205 0 -42.288576141925205 -43.915045401855423 0 0 0 0 -0.0018404758392795983 -0.036373445232291246 0 -0.036373445232291246 -0.27899946954216404 0 0 0 0 46.467301129164298 -43.689711520547689 0 -43.689711520547689 27.921386337175136 0 0 0 0 53.566188086425882 -105.40737098220518 0 -105.40737098220518 6.2032188068224059 0 0 0 0 21.779571993065474 -49.357296827404753 0 -49.357296827404753 53.431704552202973 0 0 0 0 8.4927194626279743 -14.396635363100359 0 -14.396635363100359 41.30814959679185 0 0 0 0 3.9408936866078648 -7.9580054616987468 0 -7.9580054616987468 7.7914972377789127 0 0 0 0 31.32126920128394 -9.7675375268179323 0 -9.7675375268179323 -3.6642845611145276 0 0 0 0 54.911205590390637 -80.731698499117556 0 -80.731698499117556 215.28329793735293 0 0 0 0 52.372827647481529 -128.76981097555134 0 -128.76981097555134 146.46635467072883 0 0 0 0 67.566884056084746 -57.919288662112649 0 -57.919288662112649 -27.784630058373978 0 0 0 0 13.442414176824968 -75.589023044869236 0 -75.589023044869236 82.10829332868434 0 0 0 0 62.104649758921596 -31.771553038674256 0 -31.771553038674256 107.04588639444501 0 0 0 0 88.954175277722243 -141.28421992017002 0 -141.28421992017002 85.286677078486917 0 0 0 0 135.94678928273606 -60.628827054524891 0 -60.628827054524891 37.686643952900511 0 0 0 0 171.55856123183003 -200.7515927367208 0 -200.7515927367208 164.84987145435207 0 0 0 0 0.040273511650859461 0.045997385650449196 0 0.045997385650449196 -0.52184200053634555 0 0 0 0 19.378072991528825 2.269766366218505 0 2.269766366218505 -2.2486239814779765 0 0 0 0 71.421509039267221 -77.301935373760671 0 -77.301935373760671 30.212846054878355 0 0 0 0 16.458536545439529 -35.389067480613676 0 -35.389067480613676 -28.230460508349097 0 0 0 0 0.26110717622854551 -0.27692841832716386 0 -0.27692841832716386 -3.0533641879063174 0 0 0 0 -1.8033357547541939 -2.0407856765971015 0 -2.0407856765971015 -0.98779057251579161 0 0 0 0 -30.514720098339239 29.028457631999572 0 29.028457631999572 8.9205960725321347 0 0 0 0 -12.183035990899725 29.056055413977901 0 29.056055413977901 55.462434578867033 0 0 0 0 54.012816741774031 -110.83233649698832 0 -110.83233649698832 165.23859251737122 0 0 0 0 115.43946377030761 -159.3120966890134 0 -159.3120966890134 136.18187786262661 0 0 0 0 110.33604768608348 -111.64004563386709 0 -111.64004563386709 120.0628328144503 0 0 0 0 119.41266389432622 -146.0023975451179 0 -146.0023975451179 118.27259357608887 0 0 0 0 21.791174708733251 -200.51215198748309 0 -200.51215198748309 441.20589171469828 0 0 0 0 1.3185265341182131 -0.14466506197127948 0 -0.14466506197127948 0.32900680281967842 0 0 0 0 27.898213873962959 -52.993742116216708 0 -52.993742116216708 20.047075734197733 0 0 0 0 124.43812789910862 -183.57152014361372 0 -183.57152014361372 137.1149981580752 0 0 0 0 36.582830359001719 -160.23337629867547 0 -160.23337629867547 279.80299809120106 0 0 0 0 -142.93881897812207 -51.299136460665068 0 -51.299136460665068 80.157146083645785 0 0 0 0 -48.580594890796419 -30.703302083652034 0 -30.703302083652034 -92.290970411728267 0 0 0 0 -44.293602528859992 9.8376154771012807 0 9.8376154771012807 -16.41784211449567 0 0 0 0 -8.2984075957120655 -2.1769700212563374 0 -2.1769700212563374 1.1274278057704894 0 0 0 0 -51.047117114094362 18.23460808845266 0 18.23460808845266 -18.429869510105618 0 0 0 0 -49.438045476026673 12.199125647117853 0 12.199125647117853 -5.4678798289132828 0 0 0 0 -9.322979137787792 -17.79497184441172 0 -17.79497184441172 6.9598950389402852 0 0 0 0 -44.509972948902941 -23.488443128911058 0 -23.488443128911058 -0.6637187573992378 0 0 0 0 -52.809831409225808 -18.77791316605601 0 -18.77791316605601 21.172492056906776 0 0 0 0 -43.105021051697804 6.8416890231919751 0 6.8416890231919751 -13.872118342565045 0 0 0 0 -28.821486579947305 -14.681779618104429 0 -14.681779618104429 5.4560697783230125 0 0 0 0 -80.081705325104053 -51.54397412587366 0 -51.54397412587366 15.270190326999909 0 0 0 0 -2.9593877184795474 -7.5189926159015101 0 -7.5189926159015101 8.2141958618224784 0 0 0 0 -8.2401049747033213 3.626944308691745 0 3.626944308691745 3.2733126330449487 0 0 0 0 -5.098766095007166 -16.186230921660993 0 -16.186230921660993 -0.089038159652826465 0 0 0 0 -37.169603499648701 -4.1668473518494693 0 -4.1668473518494693 -7.261532820550201 0 0 0 0 -29.023274992539882 -11.129637659362288 0 -11.129637659362288 3.9368111345906982 0 0 0 0 -29.789291214841796 -5.9492754875964238 0 -5.9492754875964238 8.6924293486708848 0 0 0 0 -37.243000318457234 17.59177598090082 0 17.59177598090082 -5.5250258144496911 0 0 0 0 -4.5585069358725994 -6.980507395835982 0 -6.980507395835982 -2.4146823106366107 0 0 0 0 6.0753336908537676 -26.619167885925435 0 -26.619167885925435 -19.931869574640587 0 0 0 0 -33.382322882425797 0.11897300478813122 0 0.11897300478813122 3.8022332344539791 0 0 0 0 -4.1464854020238917 -1.714458250082183 0 -1.714458250082183 -0.041168359863341664 0 0 0 0 18.978797154459244 -78.935937853758787 0 -78.935937853758787 -3.0326872798232216 0 0 0 0 -1.066683170231137 -0.76880423746955273 0 -0.76880423746955273 0.10385361784125635 0 0 0 0 -84.308139242018569 36.309554333074857 0 36.309554333074857 21.619621198595269 0 0 0 0 70.028980075277104 -8.9463431269250577 0 -8.9463431269250577 -14.91590068262559 0 0 0 0 65.713144142632245 -30.551569768350305 0 -30.551569768350305 -49.976049760061869 0 0 0 0 -70.692568105610917 -49.43493681282871 0 -49.43493681282871 3.4429599933000645 0 0 0 0 -0.6277194815375573 -0.60520934833575701 0 -0.60520934833575701 -0.22340496876663352 0 0 0 0 -92.432478548847939 16.749633908464602 0 16.749633908464602 12.199617622670303 0 0 0 0 -86.978704515140635 19.24346919094387 0 19.24346919094387 54.79493470799116 0 0 0 0 -1.9808810894632014 -1.0118515736149867 0 -1.0118515736149867 -0.47326770986447109 0 0 0 0 32.518907135714471 49.174324033894663 0 49.174324033894663 -52.417148656384143 0 0 0 0 17.031837078155149 -26.68729018154454 0 -26.68729018154454 15.747140357914759 0 0 0 0 -5.0753494294640404 7.7703606531492824 0 7.7703606531492824 10.016696591630534 0 0 0 0 -40.058169628079895 4.406389860374702 0 4.406389860374702 3.1746882414036008 0 0 0 0 -20.366615742532304 -23.682412509872847 0 -23.682412509872847 47.155662600305277 0 0 0 0 -1.9622864354847458 -1.6450741172052865 0 -1.6450741172052865 -0.47545706545775879 0 0 0 0 30.191695882069325 -37.431693051049422 0 -37.431693051049422 68.352823183007331 0 0 0 0 -28.207152516554743 -8.270998106149591 0 -8.270998106149591 -1.0220735217902757 0 0 0 0 -2.0413140290154068 -1.3364427077261656 0 -1.3364427077261656 0.54268508621907863 0 0 0 0 77.092562578395246 -104.71246886793796 0 -104.71246886793796 119.78251783246833 0 0 0 0 86.179475138171256 -120.61784052038752 0 -120.61784052038752 120.38811723117692 0 0 0 0 -1.1478571521344918 -0.64629479140817203 0 -0.64629479140817203 0.80943753568767463 0 0 0 0 -73.352237703804349 33.686405344902369 0 33.686405344902369 14.488557219744052 0 0 0 0 -18.281291586717998 -59.735654556420513 0 -59.735654556420513 43.808830637566643 0 0 0 0 5.996300060816111 -69.586645170689849 0 -69.586645170689849 45.908282709224295 0 0 0 0 -1.3976286107807461 -1.7293530161166117 0 -1.7293530161166117 1.4388264079785245 0 0 0 0 -0.82573920623508457 -38.866558097981624 0 -38.866558097981624 35.060078040763074 0 0 0 0 -1.6753627340368613 -2.0992626064983764 0 -2.0992626064983764 -1.0855187725124846 0 0 0 0 12.404530655465351 -39.002836338585325 0 -39.002836338585325 38.88699051223557 0 0 0 0 -7.0725924440398558 -7.7500368158202946 0 -7.7500368158202946 7.5973942284767872 0 0 0 0 -14.835513167011413 8.710738167176487 0 8.710738167176487 -42.064473904643819 0 0 0 0 29.297150980652077 -26.291810220443949 0 -26.291810220443949 29.172474498327574 0 0 0 0 -69.049557009453565 136.15784803917097 0 136.15784803917097 -67.065571904055105 0 0 0 0 -12.532113813756951 -1.6141060589209246 0 -1.6141060589209246 -1.3649604191186882 0 0 0 0 -37.308935667873357 31.340043325086526 0 31.340043325086526 -5.9651419202455145 0 0 0 0 21.118609827388468 1.1757535979178328 0 1.1757535979178328 -11.712775067968323 0 0 0 0 -2.2774449269222767 -1.930667199091479 0 -1.930667199091479 1.4488661429570744 0 0 0 0 -65.926287273878188 39.280934968659494 0 39.280934968659494 36.681324761110318 0 0 0 0 -99.635772440063192 -6.0156626283760488 0 -6.0156626283760488 51.891241523470853 0 0 0 0 -89.001910461648549 7.1227595224954712 0 7.1227595224954712 5.4235637142755877 0 0 0 0 -8.7814532395090321 -19.447288536354176 0 -19.447288536354176 3.8143196818330001 0 0 0 0 -5.7981251929189774 -3.4936063244853877 0 -3.4936063244853877 5.5573585838907524 0 0 0 0 -95.102762637966407 10.644169214709791 0 10.644169214709791 18.968237070082978 0 0 0 0 -47.502529057978336 -5.6119254038891881 0 -5.6119254038891881 5.5013120580201758 0 0 0 0 -12.093129900044779 -0.8628199823380287 0 -0.8628199823380287 0.27188184078191568 0 0 0 0 -284.21887058879474 16.070908303245687 0 16.070908303245687 35.069544309149023 0 0 0 0 -86.299255916947914 40.942372032476328 0 40.942372032476328 -23.518751006211005 0 0 0 0 -14.685164641602231 -20.37597362210164 0 -20.37597362210164 8.076019499008428 0 0 0 0 -141.91156373722697 -44.092256023687867 0 -44.092256023687867 6.5173935363172859 0 0 0 0 -93.030034390138098 -20.298948563627221 0 -20.298948563627221 -21.910081337891825 0 0 0 0 -38.166904826251994 -29.480278001311149 0 -29.480278001311149 -3.8432318639623304 0 0 0 0 -61.602224051119265 0.4984747989871039 0 0.4984747989871039 21.547418568784821 0 0 0 0 -42.682528069593559 -7.460020563312872 0 -7.460020563312872 15.89416953489615 0 0 0 0 -43.64906756224218 -23.501952719514861 0 -23.501952719514861 30.438416515322388 0 0 0 0 29.013087174065731 -47.214517321192389 0 -47.214517321192389 27.164396502732302 0 0 0 0 7.1151383622491267 -6.4296807943181307 0 -6.4296807943181307 26.588165038712589 0 0 0 0 6.3062314923445228 -69.834895394644946 0 -69.834895394644946 29.888487749631281 0 0 0 0 -38.339344560303289 -29.045351989948358 0 -29.045351989948358 69.664269453464385 0 0 0 0 -56.829135552512525 -52.098686314631664 0 -52.098686314631664 22.993633922733238 0 0 0 0 -37.100563157316174 -24.790463507162542 0 -24.790463507162542 -15.260854651530735 0 0 0 0 5.6479638676919421 -23.002758610622891 0 -23.002758610622891 -23.830245502746038 0 0 0 0 -1.8233563582525676 -39.79410537059448 0 -39.79410537059448 56.795844171642784 0 0 0 0 31.12418770610202 -39.030755925141193 0 -39.030755925141193 -16.654415372787298 0 0 0 0 1.7393023227365312 -0.85900516991694431 0 -0.85900516991694431 1.4242025301426917 0 0 0 0 5.065347562088391 23.276693381320683 0 23.276693381320683 0.13629289297296054 0 0 0 0 24.899781984617221 -23.308719688043368 0 -23.308719688043368 -59.15823119498873 0 0 0 0 3.5123049503090442 -37.732757395727504 0 -37.732757395727504 0.89300407953498961 0 0 0 0 -20.337911567034098 -15.036725293544691 0 -15.036725293544691 -10.020833503129893 0 0 0 0 -13.425200655467052 -63.291890061920725 0 -63.291890061920725 -29.347107285614811 0 0 0 0 -11.790535466951951 -11.313209375378662 0 -11.313209375378662 16.170569038679218 0 0 0 0 21.832689440350805 -62.155637566620726 0 -62.155637566620726 -68.950455674271666 0 0 0 0 0.85705219658191822 -0.32310800154471053 0 -0.32310800154471053 0.036810375374258353 0 0 0 0 -18.058864081702268 -41.917238025518628 0 -41.917238025518628 99.855204946871083 0 0 0 0 16.807708799984539 -59.367664398199054 0 -59.367664398199054 49.522860941855129 0 0 0 0 -23.567792306851516 -26.627310720190096 0 -26.627310720190096 61.659929273633907 0 0 0 0 -11.569282365959225 -43.368733322099814 0 -43.368733322099814 74.831931984483333 0 0 0 0 -7.5699941018519894 -37.22812832232843 0 -37.22812832232843 58.689953783758341 0 0 0 0 -14.294407021627194 -18.569611998078486 0 -18.569611998078486 86.92695661238406 0 0 0 0 1.4553270605083526 -4.2194439909488395 0 -4.2194439909488395 73.180399634272845 0 0 0 0 11.564318247373194 -19.406311095184179 0 -19.406311095184179 30.267613687499875 0 0 0 0 -31.095104171938146 -30.646333091165332 0 -30.646333091165332 28.030080872394507 0 0 0 0 -1.6163187892734641 2.0273418209951615 0 2.0273418209951615 -0.96198030162747727 0 0 0 0 -9.0430806732183555 -55.132977631218523 0 -55.132977631218523 -32.219776314776311 0 0 0 0 19.450692764765336 -18.193623988327033 0 -18.193623988327033 50.399015640105432 0 0 0 0 18.48130444841081 -25.7273216343429 0 -25.7273216343429 31.854075094492316 0 0 0 0 0.079665272312922752 -40.562425431090276 0 -40.562425431090276 26.325787318597918 0 0 0 0 52.489890523758731 -94.401573085536711 0 -94.401573085536711 66.304998632440061 0 0 0 0 49.657163932412629 -56.326928967373547 0 -56.326928967373547 -70.588075875748359 0 0 0 0 -0.016206466589210322 -71.955940353749611 0 -71.955940353749611 124.56903043858256 0 0 0 0 1.5233300797276641 -0.8913376909426951 0 -0.8913376909426951 0.34514468485966265 0 0 0 0 0.92742721948652473 -0.36291713157811856 0 -0.36291713157811856 0.080082913233623376 0 0 0 0 -18.633446604770143 -76.060156423715512 0 -76.060156423715512 151.42305473883278 0 0 0 0 -10.330777510922417 -23.596564227058138 0 -23.596564227058138 8.7942343345334848 0 0 0 0 57.205120683816858 -89.413825149161426 0 -89.413825149161426 43.172877037412491 0 0 0 0 22.14377223397787 -128.39385229624691 0 -128.39385229624691 100.77639841004429 0 0 0 0 17.248525357406834 -109.545808360259 0 -109.545808360259 63.517696674058698 0 0 0 0 46.41879062447515 -81.056806432629514 0 -81.056806432629514 114.73442692198364 0 0 0 0 39.267359343699354 -123.01016911687236 0 -123.01016911687236 89.777718372581489 0 0 0 0 0.043678108022504603 -101.65741813593957 0 -101.65741813593957 106.51872404796893 0 0 0 0 6.3938299129677034 -103.76735060006183 0 -103.76735060006183 106.49274318608286 0 0 0 0 4.0947037264496657 -128.49747399600193 0 -128.49747399600193 104.63996447600221 0 0 0 0 -0.031010216945101695 -105.65711323126835 0 -105.65711323126835 106.46198208313081 0 0 0 0 21.403189262124897 -140.68820741693835 0 -140.68820741693835 114.35477129097626 0 0 0 0 69.985822478854971 -153.6657416064395 0 -153.6657416064395 93.040740554623653 0 0 0 0 20.493886152748019 -145.35295431364898 0 -145.35295431364898 121.87781032349403 0 0 0 0 -14.531927224201354 -100.53669971507748 0 -100.53669971507748 120.23244956597728 0 0 0 0 -10.241511523254303 -129.9982448417727 0 -129.9982448417727 189.97153308549241 0 0 0 0 61.082265720013311 -163.50670758344472 0 -163.50670758344472 127.43074060246568 0 0 0 0 68.762182206216494 -193.71628381201515 0 -193.71628381201515 245.8353947744904 0 0 0 0 103.14129161555911 -104.24262799055384 0 -104.24262799055384 -1.6232844955070505 0 0 0 0 198.10709484357358 -199.82732410842868 0 -199.82732410842868 75.866640772009987 0 0 0 0 210.39847009636821 -40.1916978200301 0 -40.1916978200301 -80.805488770640295 0 0 0 0 1.401131622559042 -1.3588581325452651 0 -1.3588581325452651 1.33106938152428 0 0 0 0 31.173571012028333 -122.63938953247225 0 -122.63938953247225 304.26885531539415 0 0 0 0 43.880632334974507 29.502378548773322 0 29.502378548773322 -2.3962226201925887 0 0 0 0 -49.241280141095103 -3.5917844580828273 0 -3.5917844580828273 28.280687342224155 0 0 0 0 -63.564801810649442 -48.817782681262543 0 -48.817782681262543 6.769143377171531 0 0 0 0 1.1820738972937335 -3.2645728156519311 0 -3.2645728156519311 9.1168579132921508 0 0 0 0 -56.013792108666166 -9.7597460436281835 0 -9.7597460436281835 17.206657451184128 0 0 0 0 17.234767374498915 31.061448918650512 0 31.061448918650512 15.203686147495546 0 0 0 0 2.6453502869143932 -3.4595557252197668 0 -3.4595557252197668 4.1998151628073579 0 0 0 0 24.903754677594407 41.34442308320763 0 41.34442308320763 -23.573789416155932 0 0 0 0 -23.480948777545564 -86.961098592510751 0 -86.961098592510751 -85.468282260027081 0 0 0 0 -34.329077554677497 30.706674641503923 0 30.706674641503923 11.146948651421553 0 0 0 0 -0.81399098433803374 -44.792340154811257 0 -44.792340154811257 9.1216029818997413 0 0 0 0 -87.541649257689528 36.106576052781939 0 36.106576052781939 32.550551529387121 0 0 0 0 3.9139609972038514 -4.5095300083925949 0 -4.5095300083925949 5.9762157320306759 0 0 0 0 -83.794359578661897 -176.27604924706077 0 -176.27604924706077 35.840432983665778 0 0 0 0 -2.152634748545097 7.6631398694495374 0 7.6631398694495374 69.955964396443051 0 0 0 0 8.2855989982253959 -14.633382482232037 0 -14.633382482232037 27.947386258683991 0 0 0 0 -3.6206916083801843 -3.4585519306267543 0 -3.4585519306267543 18.258545773664991 0 0 0 0 -8.24271159197815 -59.183164834589661 0 -59.183164834589661 55.982283075903979 0 0 0 0 36.295824339667888 -73.776228723547774 0 -73.776228723547774 31.969873515397467 0 0 0 0 -5.2357683613699919 -11.73391945020694 0 -11.73391945020694 25.118079379405572 0 0 0 0 66.972206485086645 -32.254009237071386 0 -32.254009237071386 -11.078253694006662 0 0 0 0 -0.21305756136411702 -0.18317264977684111 0 -0.18317264977684111 0.31242252590445574 0 0 0 0 138.74480308994004 -188.03274988016943 0 -188.03274988016943 96.176500813156053 0 0 0 0 23.523168500954398 -19.759522451415705 0 -19.759522451415705 51.443327602497902 0 0 0 0 8.2599113841533836 -146.6641237097374 0 -146.6641237097374 179.03592093820032 0 0 0 0 96.195185338019428 -68.5516742482788 0 -68.5516742482788 64.675903156997265 0 0 0 0 75.908330162150833 -41.195110944182034 0 -41.195110944182034 -40.535431397671346 0 0 0 0 46.253199693006991 -110.7702469039823 0 -110.7702469039823 44.05503499085853 0 0 0 0 100.38731596175808 -84.683715748790291 0 -84.683715748790291 -20.996084887976394 0 0 0 0 0.17849258979777005 -64.288884804246209 0 -64.288884804246209 26.75673691661359 0 0 0 0 33.592416865387804 -108.95570129389148 0 -108.95570129389148 80.843833909300884 0 0 0 0 18.909268624000561 -110.93512574469514 0 -110.93512574469514 54.019390973702684 0 0 0 0 -30.533776794659389 -102.21390460788461 0 -102.21390460788461 65.905646193915118 0 0 0 0 -62.841248429375241 -195.543400816646 0 -195.543400816646 142.49673345653628 0 0 0 0 -15.472217386275929 -140.29576678217057 0 -140.29576678217057 140.01472889032812 0 0 0 0 116.12995892720892 -117.53749735531937 0 -117.53749735531937 143.92326244435435 0 0 0 0 -5.9639681701007703 -180.36971057645474 0 -180.36971057645474 161.7459564767596 0 0 0 0 11.296041197621207 -218.08562090656278 0 -218.08562090656278 243.09356481160557 0 0 0 0 -37.389539375241839 -98.767579504392415 0 -98.767579504392415 283.85244286064119 0 0 0 0 108.29523178849831 -253.21167991814445 0 -253.21167991814445 382.32446477783446 0 0 0 0 35.679441833164788 -66.350999301204865 0 -66.350999301204865 317.52928301085194 0 0 0 0 64.73073502443458 -132.68301229055078 0 -132.68301229055078 155.3558937387088 0 0 0 0 59.799966573294824 -25.78535647616161 0 -25.78535647616161 119.7976371796085 0 0 0 0 -0.9574383106386275 -0.10908127059956207 0 -0.10908127059956207 1.152340126532156 0 0 0 0 102.79090223549974 -184.21891036954821 0 -184.21891036954821 173.18694689170445 0 0 0 0 91.274243562921271 -106.84183984424601 0 -106.84183984424601 224.00169307921806 0 0 0 0 49.731441813138645 -133.49818491284486 0 -133.49818491284486 207.05684288645671 0 0 0 0 -1.1663441610290377 0.1459646181928278 0 0.1459646181928278 1.6746250210854523 0 0 0 0 38.384695444815407 -90.165888558836741 0 -90.165888558836741 206.52654964675276 0 0 0 0 -24.530655294476333 -91.914374263709789 0 -91.914374263709789 189.78415632843553 0 0 0 0 -24.074609327146504 -97.679535470409135 0 -97.679535470409135 189.83628442804911 0 0 0 0 -24.708119523931146 -120.81187324913844 0 -120.81187324913844 156.15361332694511 0 0 0 0 -27.001879461828594 -75.056052506893593 0 -75.056052506893593 148.44374268042384 0 0 0 0 32.360618001330749 -84.629228821330344 0 -84.629228821330344 178.42820009978459 0 0 0 0 246.2328443311726 -90.46225679460531 0 -90.46225679460531 291.0148376676716 0 0 0 0 21.987247179548831 -37.749710261779001 0 -37.749710261779001 314.76816476227214 0 0 0 0 22.084993490945635 -184.43274251863295 0 -184.43274251863295 422.51103500740101 0 0 0 0 -0.4853015631542803 -108.70512534742375 0 -108.70512534742375 199.08023409750376 0 0 0 0 -0.79395945287706127 -111.68222044175263 0 -111.68222044175263 191.96737705409669 0 0 0 0 20.306478981957298 -113.0148100002375 0 -113.0148100002375 172.36016265591206 0 0 0 0 35.290948083482135 -139.7979535765046 0 -139.7979535765046 199.76115162235874 0 0 0 0 107.67935699904638 -131.60158906749939 0 -131.60158906749939 103.63677631372229 0 0 0 0 69.371116659418476 -78.652655379828047 0 -78.652655379828047 62.191185226796733 0 0 0 0 311.37810665204688 -264.00084964326743 0 -264.00084964326743 54.28771849025361 0 0 0 0 2.4907763978103858 -54.969753506929365 0 -54.969753506929365 -20.574405180354006 0 0 0 0 -1.1213191694726987 11.770845437344676 0 11.770845437344676 5.9238511734611166 0 0 0 0 -3.3929255073606948 -4.0670134516234864 0 -4.0670134516234864 -4.261869603719342 0 0 0 0 62.216698770430071 -96.937527548248795 0 -96.937527548248795 127.18710180142534 0 0 0 0 62.47515554327174 -97.473113626992927 0 -97.473113626992927 101.2561618176868 0 0 0 0 -1.2039300121792316 -1.495303365001778 0 -1.495303365001778 -1.6900152694755057 0 0 0 0 46.875106858237359 35.879192268356519 0 35.879192268356519 -360.51229453133965 0 0 0 0 26.815693012337761 -21.990647444108163 0 -21.990647444108163 -266.88003421528992 0 0 0 0 100.01843349846877 -39.61631855896394 0 -39.61631855896394 -403.02129716883246 0 0 0 0 22.015319365178811 14.311103447026426 0 14.311103447026426 -290.99746503385177 0 0 0 0 -28.005083666781047 12.899605275402791 0 12.899605275402791 -38.117054303242753 0 0 0 0 3.5710705664794204 -31.569157461041414 0 -31.569157461041414 -183.5957384741414 0 0 0 0 -16.660667438414862 -2.7468147981189759 0 -2.7468147981189759 -69.821490786953291 0 0 0 0 33.369175891391251 -74.476944340800515 0 -74.476944340800515 111.59999841496574 0 0 0 0 -56.60443539008611 -164.77314663963443 0 -164.77314663963443 50.149125493051542 0 0 0 0 -24.029886879857258 -51.472015908409048 0 -51.472015908409048 103.71827821819124 0 0 0 0 -97.258073910964413 -146.18162101088819 0 -146.18162101088819 73.069075097911309 0 0 0 0 -14.876422250943278 -202.61413402025642 0 -202.61413402025642 -202.00744679836862 0 0 0 0 -176.02163776663838 -219.01961118590771 0 -219.01961118590771 -247.06798143870492 0 0 0 0 -29.444496214005085 43.306765679029922 0 43.306765679029922 -273.23609285474095 0 0 0 0 27.474449344432287 -33.558277814790017 0 -33.558277814790017 -75.578346846551085 0 0 0 0 -12.726429290508349 -89.92090415587063 0 -89.92090415587063 16.943779309655383 0 0 0 0 25.293323775632416 -49.925239210902873 0 -49.925239210902873 -131.39388664686521 0 0 0 0 67.638793649860872 -109.02390319243295 0 -109.02390319243295 -92.825492657465475 0 0 0 0 56.206434811099427 -19.744750135287063 0 -19.744750135287063 -120.21242273078133 0 0 0 0 27.203319642365386 -14.690161125697159 0 -14.690161125697159 -80.356403633747505 0 0 0 0 29.382334426617945 14.431867283831707 0 14.431867283831707 -97.456617148030091 0 0 0 0 12.783629822371722 22.190939034073381 0 22.190939034073381 -158.78183725702365 0 0 0 0 -45.496715604887868 2.3917681059147071 0 2.3917681059147071 -119.88068349748221 0 0 0 0 -205.96005971713203 2.7670533582004282 0 2.7670533582004282 -118.70466446988576 0 0 0 0 53.240483802216659 -56.55698190897283 0 -56.55698190897283 -168.70026332957241 0 0 0 0 -78.91496209852221 -65.767699913737715 0 -65.767699913737715 -140.42204528576258 0 0 0 0 -52.933146979249159 0.53547006467579195 0 0.53547006467579195 -92.789183490960568 0 0 0 0 -20.407369852277498 -7.0392661855407823 0 -7.0392661855407823 -77.67334502610106 0 0 0 0 -41.947170496983063 2.213264656096726 0 2.213264656096726 -76.575971179543558 0 0 0 0 -2.6269040218994633 13.159427572664754 0 13.159427572664754 -95.091845500171189 0 0 0 0 -16.173855797384476 -15.984103498799186 0 -15.984103498799186 -116.92620635314324 0 0 0 0 7.7818848907995744 18.33915204398545 0 18.33915204398545 -76.990271316407444 0 0 0 0 -9.4859634641356934 25.172323041697382 0 25.172323041697382 -42.711293326603027 0 0 0 0 17.602819636146023 12.242605574614345 0 12.242605574614345 -67.618966502937838 0 0 0 0 -5.4570504980019905 14.555247461271847 0 14.555247461271847 -67.841046606499731 0 0 0 0 -20.085140400253067 -40.385850316861251 0 -40.385850316861251 -169.9569074314868 0 0 0 0 -72.790437561513045 -84.071203268511454 0 -84.071203268511454 -163.23548220006683 0 0 0 0 3.8136373489876405 -135.46952227580368 0 -135.46952227580368 -299.66153328478174 0 0 0 0 35.373515058349767 -12.653593363397704 0 -12.653593363397704 -164.77251807054108 0 0 0 0 4.4876159158920927 -14.215230311477171 0 -14.215230311477171 -164.43947176434449 0 0 0 0 0.65521098946827028 -0.60012010839660057 0 -0.60012010839660057 -0.01262210680303788 0 0 0 0 3.0547440307445868 -20.944873671090136 0 -20.944873671090136 -116.0110655703138 0 0 0 0 -6.8045844210064388 12.730594791467411 0 12.730594791467411 -143.40685961995996 0 0 0 0 0.15773900367974836 -0.8551156278596963 0 -0.8551156278596963 -0.88907042206518128 0 0 0 0 -13.223015572820714 4.3616280648111569 0 4.3616280648111569 -83.124714907395173 0 0 0 0 45.614372785418254 -74.090580592613151 0 -74.090580592613151 23.48232831831956 0 0 0 0 0.22202844163891378 -0.45785401747916943 0 -0.45785401747916943 -0.57740018061348497 0 0 0 0 -7.6505814076172101 -53.830247810006767 0 -53.830247810006767 -351.46818163057833 0 0 0 0 37.177867096045702 -113.80043670964278 0 -113.80043670964278 -93.107419754174316 0 0 0 0 46.173140930076897 -27.295383276381472 0 -27.295383276381472 -18.542231909475049 0 0 0 0 57.566150423246199 -10.554841518433022 0 -10.554841518433022 4.8844999670145626 0 0 0 0 113.03285961935262 -8.6623722333988553 0 -8.6623722333988553 3.3558409746945017 0 0 0 0 70.034496491100299 -5.4462242411150328 0 -5.4462242411150328 -48.629345416899923 0 0 0 0 37.299419107838617 29.3357446990982 0 29.3357446990982 -10.617921460125217 0 0 0 0 0.70269893216382506 -0.58181231293742819 0 -0.58181231293742819 0.54600403099428441 0 0 0 0 93.904590037260277 -7.6281183003425213 0 -7.6281183003425213 -15.525739345447619 0 0 0 0 26.575962295944009 -132.14760085745093 0 -132.14760085745093 411.01568596300422 0 0 0 0 148.63589534545372 -124.4383398736004 0 -124.4383398736004 131.89951675122438 0 0 0 0 0.85939349638625373 6.0294283380188034 0 6.0294283380188034 -35.761279119768915 0 0 0 0 0.09498156221763665 -1.0842162404736726 0 -1.0842162404736726 -0.81651190249864491 0 0 0 0 -11.902099164127321 -4.28819243355656 0 -4.28819243355656 -2.5903857221837825 0 0 0 0 -15.02547392502629 1.6052934763056328 0 1.6052934763056328 24.048772347156955 0 0 0 0 -21.874707010396378 112.66988420978578 0 112.66988420978578 7.8282598204850729 0 0 0 0 0.80260151593640749 -0.74857603965138697 0 -0.74857603965138697 -0.12887810370041031 0 0 0 0 -21.538791606284803 15.112089295222177 0 15.112089295222177 16.090454553694144 0 0 0 0 41.332123340032467 -17.021234253759303 0 -17.021234253759303 -89.862214642187155 0 0 0 0 -7.566648869042524 25.683597250913408 0 25.683597250913408 5.6345728335318199 0 0 0 0 -2.4744906877032538 -1.6496528864989486 0 -1.6496528864989486 -0.78683814228817095 0 0 0 0 119.24247973455294 -52.071497006997561 0 -52.071497006997561 19.090132711658953 0 0 0 0 -11.413228187609093 12.096962878186332 0 12.096962878186332 11.266278556398674 0 0 0 0 243.94478412824901 45.977633572012564 0 45.977633572012564 -78.803174540456894 0 0 0 0 90.551002650174269 122.8214489392617 0 122.8214489392617 -79.233480564846104 0 0 0 0 147.81140166389059 48.231395870803681 0 48.231395870803681 3.0068671591925522 0 0 0 0 0.54906718045853076 -0.13053080778650106 0 -0.13053080778650106 -0.04615015913392817 0 0 0 0 -17.798568166039331 -13.758460128759907 0 -13.758460128759907 19.456790747671974 0 0 0 0 1.1236649594773418 -0.60844193413654946 0 -0.60844193413654946 -0.67250269177124089 0 0 0 0 0.67461360645484092 1.9074334619106281 0 1.9074334619106281 -50.063801969192355 0 0 0 0 20.175372155243622 0.90204057832897888 0 0.90204057832897888 -55.541761073754969 0 0 0 0 32.323712051914043 -11.603462453398123 0 -11.603462453398123 -56.845543532414922 0 0 0 0 15.257279914828928 6.5489610778429324 0 6.5489610778429324 -61.518440237376126 0 0 0 0 42.864196220009944 -39.751897230979012 0 -39.751897230979012 -46.663226718534133 0 0 0 0 21.910072587679224 -41.101324827880944 0 -41.101324827880944 -61.392660230137153 0 0 0 0 52.856759337153562 -16.459990009997455 0 -16.459990009997455 -42.497359419638087 0 0 0 0 61.03617345388534 -64.344712251185456 0 -64.344712251185456 -22.794708633664413 0 0 0 0 65.224338682963207 -23.577524634546535 0 -23.577524634546535 -82.544523576480969 0 0 0 0 47.875743560031424 -39.639264766637098 0 -39.639264766637098 -45.59666552204726 0 0 0 0 60.907485376761315 -51.501565808230168 0 -51.501565808230168 -46.45678374011186 0 0 0 0 -77.522537744778816 -108.87972158096981 0 -108.87972158096981 67.262130044975493 0 0 0 0 -80.285228803801601 -67.429180614453344 0 -67.429180614453344 41.193658149488783 0 0 0 0 -42.288954478099186 -60.490374089295074 0 -60.490374089295074 42.403319848939645 0 0 0 0 -54.587639016620869 24.088943914156516 0 24.088943914156516 32.497871535403647 0 0 0 0 35.095848265904465 -25.282118006255473 0 -25.282118006255473 -18.199235195326764 0 0 0 0 52.249287189154899 1.3651822802291207 0 1.3651822802291207 -12.665482334901753 0 0 0 0 -124.2189175480471 -81.044116175670524 0 -81.044116175670524 18.354405961434168 0 0 0 0 -147.61740418073668 -46.361666969781254 0 -46.361666969781254 56.180958321942853 0 0 0 0 -116.81656348296656 -45.461616345726725 0 -45.461616345726725 -22.203492516438928 0 0 0 0 -143.39735490278008 -137.97249222747587 0 -137.97249222747587 -72.19214565639686 0 0 0 0 -215.90343596005505 -208.25730999705456 0 -208.25730999705456 -118.9213327782054 0 0 0 0 -36.020205257908856 -8.37312291712351 0 -8.37312291712351 20.336279804443393 0 0 0 0 -416.32065256758005 48.090148531318846 0 48.090148531318846 84.681812586960405 0 0 0 0 -450.48136435179231 -193.41094745041892 0 -193.41094745041892 83.231661583964296 0 0 0 0 -2.1055117927718978 -0.58065181829275936 0 -0.58065181829275936 -0.035832169511751388 0 0 0 0 24.75798894654713 240.04638400379122 0 240.04638400379122 -35.630655405136167 0 0 0 0 -3.7599681014780195 -1.1231916672313069 0 -1.1231916672313069 -0.2937077081780588 0 0 0 0 -83.654115826710949 -156.21485425774426 0 -156.21485425774426 -182.46793898796568 0 0 0 0 -184.20926296515563 -31.361479033987962 0 -31.361479033987962 119.30408251833614 0 0 0 0 -40.287487778890977 39.528473070870064 0 39.528473070870064 6.4105174818350861 0 0 0 0 -11.380150905893515 -98.549833393089102 0 -98.549833393089102 -152.80469403472489 0 0 0 0 -69.504136117830058 -115.99800504046789 0 -115.99800504046789 -16.807443078857432 0 0 0 0 -8.0081066849065792 18.177379868728622 0 18.177379868728622 -51.338997443175344 0 0 0 0 -0.31139773405565307 -0.76074983369491633 0 -0.76074983369491633 -1.1245762563073409 0 0 0 0 -31.562804354070295 -34.037095080950962 0 -34.037095080950962 56.137185464634968 0 0 0 0 67.837362113624295 -59.090601329260608 0 -59.090601329260608 -18.73087936360912 0 0 0 0 199.7071132757128 -131.6027707424164 0 -131.6027707424164 44.89464356452936 0 0 0 0 57.55700399931311 -29.865596647440043 0 -29.865596647440043 101.72148227224534 0 0 0 0 -86.287820564506546 -18.916407034467738 0 -18.916407034467738 156.07041272906554 0 0 0 0 -1.2056220032016061 -0.75087502301885678 0 -0.75087502301885678 1.176032022815658 0 0 0 0 133.34621604286804 -51.505487840402111 0 -51.505487840402111 -10.719198184714969 0 0 0 0 135.92400369927464 -156.53529236462055 0 -156.53529236462055 63.785702872026718 0 0 0 0 113.63177680842819 -180.1377599526063 0 -180.1377599526063 135.76805241688874 0 0 0 0 63.12036128259615 -211.34345586029735 0 -211.34345586029735 169.05136671874607 0 0 0 0 149.43256956111054 -205.10266092560551 0 -205.10266092560551 169.48712089893201 0 0 0 0 -1.7138553551273814 -1.3538964474524118 0 -1.3538964474524118 1.0537150347748483 0 0 0 0 110.9144243438609 -185.30838774158485 0 -185.30838774158485 173.86947470713949 0 0 0 0 -125.240622866374 -89.591710949310482 0 -89.591710949310482 66.490315606085005 0 0 0 0 -81.91850985457404 -31.133996467615361 0 -31.133996467615361 76.465257348177943 0 0 0 0 -141.72136567619623 -82.935850806822145 0 -82.935850806822145 72.984850683359582 0 0 0 0 -133.42459275947931 -46.327466086401046 0 -46.327466086401046 38.408301872202173 0 0 0 0 -10.448886551231681 -40.015343445501003 0 -40.015343445501003 80.138537591091335 0 0 0 0 36.766877657698615 -119.87578719339308 0 -119.87578719339308 51.657612767520732 0 0 0 0 -6.3345819716842016 -41.112054503507807 0 -41.112054503507807 160.5711348867419 0 0 0 0 4.1541674007973484 -0.49523391161987185 0 -0.49523391161987185 0.15400047840774844 0 0 0 0 23.467148360809006 -123.86615710734941 0 -123.86615710734941 190.44997503072318 0 0 0 0 99.413689919900207 -236.70070754295898 0 -236.70070754295898 195.46993276498529 0 0 0 0 102.53765355901851 -266.07392560672247 0 -266.07392560672247 166.91219157649221 0 0 0 0 440.36928525949406 -537.61999889403046 0 -537.61999889403046 384.56890710606785 0 0 0 0 643.83738113874824 -135.73831029214199 0 -135.73831029214199 11.162261746906552 0 0 0 0 -250.22810580999612 -245.76280990151281 0 -245.76280990151281 767.85448426305766 0 0 0 0 741.3607426322551 -314.61851254845419 0 -314.61851254845419 423.03933607551062 0 0 0 0 265.27619016655808 -469.32152967913044 0 -469.32152967913044 537.01256396626025 0 0 0 0 -65.864736573437312 -2.0495545536227837 0 -2.0495545536227837 404.83796048319255 0 0 0 0 1.9839466556889533 -2.694249308831699 0 -2.694249308831699 5.2525588826093816 0 0 0 0 65.987381309187185 -6.9157126084223819 0 -6.9157126084223819 -28.331823644429733 0 0 0 0 -30.829609545076892 173.42692599632483 0 173.42692599632483 0.27208983066429937 0 0 0 0 0.1495367264124372 0.092853572543790008 0 0.092853572543790008 0.062382703819309882 0 0 0 0 -171.60017081348178 162.34209551397726 0 162.34209551397726 22.660135902402999 0 0 0 0 -3.220563892620703 -97.227229610006134 0 -97.227229610006134 316.03197744415229 0 0 0 0 -8.6370381395563527 -162.86790901804522 0 -162.86790901804522 159.03268834861501 0 0 0 0 151.38549228267266 -341.00294174050168 0 -341.00294174050168 297.26370344888983 0 0 0 0 327.27079685041645 -250.25277407091778 0 -250.25277407091778 54.286902090442709 0 0 0 0 155.30776493703615 -126.50081998766927 0 -126.50081998766927 25.695544376612588 0 0 0 0 154.08491406794474 -72.429533625258046 0 -72.429533625258046 45.976648740661858 0 0 0 0 64.361381620012253 -20.749318638982459 0 -20.749318638982459 16.793614513597731 0 0 0 0 2.9373531210062112 -0.65618676249112262 0 -0.65618676249112262 0.11289316088238044 0 0 0 0 52.49065130073086 -107.19500714938977 0 -107.19500714938977 94.416664271332593 0 0 0 0 53.166989679957624 -106.9875617337716 0 -106.9875617337716 95.221471950785826 0 0 0 0 33.651721509612798 -102.1379654032371 0 -102.1379654032371 100.408757215695 0 0 0 0 42.505122187530105 -114.23463830303513 0 -114.23463830303513 116.48581986875024 0 0 0 0 25.900500137222252 -82.241293241470544 0 -82.241293241470544 148.4262291161067 0 0 0 0 0.21553538470561406 -1.876840734954226 0 -1.876840734954226 0.28512645196496833 0 0 0 0 9.7450448943873198 -44.836886929834691 0 -44.836886929834691 89.867167334917909 0 0 0 0 45.120100936947438 -113.90489358311527 0 -113.90489358311527 87.324746179989233 0 0 0 0 45.805135013348263 -111.32814730949576 0 -111.32814730949576 93.661374566772906 0 0 0 0 39.905826588695618 -58.594067430771247 0 -58.594067430771247 85.731202621715056 0 0 0 0 0.30245646237467838 -0.90319978712254301 0 -0.90319978712254301 0.18936370477879061 0 0 0 0 23.69328937239743 -66.837382530729201 0 -66.837382530729201 190.58080383555762 0 0 0 0 111.11389005101773 -184.06265279922627 0 -184.06265279922627 328.19544679681894 0 0 0 0 0.10467307412104532 -0.59136548852399784 0 -0.59136548852399784 -0.36457146139884422 0 0 0 0 98.728124867823681 -185.82225846675601 0 -185.82225846675601 196.31394255543728 0 0 0 0 180.55917021571781 -187.21677012679288 0 -187.21677012679288 152.78266269897813 0 0 0 0 117.01648934500258 -188.13822591194162 0 -188.13822591194162 169.77589707803872 0 0 0 0 -0.24232543366268366 -1.2965572085824544 0 -1.2965572085824544 -0.95587875219306184 0 0 0 0 143.73348170321788 -172.12977972092312 0 -172.12977972092312 150.32945592966274 0 0 0 0 97.719536661925304 -111.03751021835433 0 -111.03751021835433 157.82214381515496 0 0 0 0 124.36422209721513 -135.54227240639102 0 -135.54227240639102 -105.88953513357592 0 0 0 0 23.436347038189524 -40.031214371925671 0 -40.031214371925671 -35.563818404648828 0 0 0 0 42.016440899683403 -50.84996663337779 0 -50.84996663337779 -58.606653804909683 0 0 0 0 18.678420890160453 -66.106663113800437 0 -66.106663113800437 -62.405534017884747 0 0 0 0 85.820288506014549 -58.726363852704253 0 -58.726363852704253 -232.65687215067737 0 0 0 0 -6.4243751560304645 -61.621817588263411 0 -61.621817588263411 -97.385693327720674 0 0 0 0 -28.568116852650292 -25.39396326399833 0 -25.39396326399833 -95.006549892918883 0 0 0 0 -18.118253004558028 -45.886572844233342 0 -45.886572844233342 -38.502188895318852 0 0 0 0 -39.924100366688037 -67.803840274319754 0 -67.803840274319754 -40.187586585589088 0 0 0 0 17.470496668891428 -225.03452594592454 0 -225.03452594592454 215.94248575151613 0 0 0 0 -247.40796175554897 -2.1071427157462495 0 -2.1071427157462495 80.383441504208577 0 0 0 0 -214.90198845479836 -125.56935275736464 0 -125.56935275736464 116.87631120217384 0 0 0 0 -0.68847851019159556 -0.69750136569119014 0 -0.69750136569119014 0.35449702144696005 0 0 0 0 253.34758279109838 -269.93360460078907 0 -269.93360460078907 212.86191112889674 0 0 0 0 136.23109512434985 -165.32184474374799 0 -165.32184474374799 178.3994556365983 0 0 0 0 118.79253995422823 -185.31072048912165 0 -185.31072048912165 179.82739496861586 0 0 0 0 143.9899471254603 -167.77251224353782 0 -167.77251224353782 190.40699253711227 0 0 0 0 146.99727347641829 -162.34363981130537 0 -162.34363981130537 185.8422832394549 0 0 0 0 147.75235461791624 -164.33753120454247 0 -164.33753120454247 170.55926618220565 0 0 0 0 134.12546795573712 -174.29656045909633 0 -174.29656045909633 83.433026225619869 0 0 0 0 -0.4360080859771216 -1.4881022899197429 0 -1.4881022899197429 -1.2232416526316872 0 0 0 0 89.444714745910915 -24.369474592248025 0 -24.369474592248025 12.156624330693148 0 0 0 0 -0.023756461143014107 -0.77553057983169182 0 -0.77553057983169182 -0.73120056242766296 0 0 0 0 93.013944331692983 -154.32935228627593 0 -154.32935228627593 -44.732799402564069 0 0 0 0 -23.129904606507807 -166.78395220268885 0 -166.78395220268885 191.66565423377824 0 0 0 0 -24.276884362175387 -238.80798341702098 0 -238.80798341702098 166.21660824834544 0 0 0 0 -42.014610322593398 -189.73660994767806 0 -189.73660994767806 209.94896161913584 0 0 0 0 -40.121719262011993 -173.7299961874387 0 -173.7299961874387 161.99927399941089 0 0 0 0 4.5692610322539622 -158.8544497463281 0 -158.8544497463281 194.31383273271058 0 0 0 0 12.685705960282121 -175.22150788987665 0 -175.22150788987665 21.880341339001461 0 0 0 0 79.875292521999995 -85.73293303131112 0 -85.73293303131112 77.309681546568754 0 0 0 0 -52.319426282743507 -26.211208913364317 0 -26.211208913364317 4.2743418800173458 0 0 0 0 -21.920320274033202 -78.131723752317612 0 -78.131723752317612 101.89541539988022 0 0 0 0 -0.38749194209219029 -0.082989211852792621 0 -0.082989211852792621 0.67936952621712976 0 0 0 0 -22.926130211501004 -48.536784165168228 0 -48.536784165168228 -59.898749029051487 0 0 0 0 4.3646581254533885 25.923457447907367 0 25.923457447907367 -47.588643588119226 0 0 0 0 -5.1573527431306339 -1.7464915329748969 0 -1.7464915329748969 0.2575904608415831 0 0 0 0 -53.264140314147369 -120.65106611666337 0 -120.65106611666337 -48.189111258090634 0 0 0 0 -52.747259012875475 -109.13380867999695 0 -109.13380867999695 108.14729530883506 0 0 0 0 79.303010405709301 -93.208214517112538 0 -93.208214517112538 -86.474941531733748 0 0 0 0 -2.7963417420569385 -77.133873043165295 0 -77.133873043165295 -20.47092154519305 0 0 0 0 63.70909261803763 -16.922953350717876 0 -16.922953350717876 -204.65803521467706 0 0 0 0 108.04568169492745 -33.597998183003028 0 -33.597998183003028 -60.501760972263128 0 0 0 0 -1.367625307755798 -0.29580245995047427 0 -0.29580245995047427 -0.33760359922689331 0 0 0 0 -29.197237668322941 38.885759223710011 0 38.885759223710011 69.896134189263648 0 0 0 0 327.26798675905593 17.616335224966861 0 17.616335224966861 73.040055904510837 0 0 0 0 56.455493971359374 -28.454437233798217 0 -28.454437233798217 65.293614527692625 0 0 0 0 45.696478431686955 -63.757396112451715 0 -63.757396112451715 369.86060204197247 0 0 0 0 42.465513086590363 -31.693765008111313 0 -31.693765008111313 156.25623843057656 0 0 0 0 25.934408254976915 -70.9206778139162 0 -70.9206778139162 94.214339438352454 0 0 0 0 -4.6347579437915556 3.4928649883345315 0 3.4928649883345315 10.765288835337969 0 0 0 0 -2.8345025524890026 -6.765356690279499 0 -6.765356690279499 0.5977543046463154 0 0 0 0 -49.3843317684059 7.4854422006779942 0 7.4854422006779942 27.703370969426942 0 0 0 0 -35.58806271058711 -100.92990042249721 0 -100.92990042249721 -6.089352991692067 0 0 0 0 -18.006833435009867 -88.287143582078443 0 -88.287143582078443 -21.963344204895293 0 0 0 0 -73.824214201115183 -88.855983106819167 0 -88.855983106819167 -8.000776597172262 0 0 0 0 -16.134429915928422 -89.228307455217191 0 -89.228307455217191 -45.173010402714681 0 0 0 0 68.362938781812773 -121.84518344114304 0 -121.84518344114304 -36.43701622609251 0 0 0 0 -33.071987448478467 -127.59636258704359 0 -127.59636258704359 16.380846933217981 0 0 0 0 85.750177676745807 -23.406996650314113 0 -23.406996650314113 -72.0756887081277 0 0 0 0 80.750085836061487 -85.749143208364586 0 -85.749143208364586 -117.88584337586963 0 0 0 0 56.314626117493845 -51.065484258547372 0 -51.065484258547372 -95.852541636499154 0 0 0 0 162.45128458496856 -187.75792107411826 0 -187.75792107411826 -47.721126532646394 0 0 0 0 249.62745938572175 -243.44297615455912 0 -243.44297615455912 150.95787130086501 0 0 0 0 -22.981100915321804 -19.832493696582787 0 -19.832493696582787 107.69154293285146 0 0 0 0 5.5358232342250631 -106.94094692174122 0 -106.94094692174122 373.76731844515507 0 0 0 0 82.164184230183309 -100.5297329012601 0 -100.5297329012601 36.668061986221801 0 0 0 0 17.987259506280225 -158.15765114638714 0 -158.15765114638714 144.15813227647732 0 0 0 0 -17.401990016715445 -85.709473486564093 0 -85.709473486564093 1.0013737152603426 0 0 0 0 -32.472327089500141 -30.169330027306387 0 -30.169330027306387 96.620481477864814 0 0 0 0 -59.681640248893018 -99.527143804563821 0 -99.527143804563821 63.981625698438847 0 0 0 0 -26.760091505879245 -18.054710130242711 0 -18.054710130242711 -2.0348352760515809 0 0 0 0 -129.71532025535095 -107.74522253147501 0 -107.74522253147501 18.327143811900896 0 0 0 0 -77.582657793986982 -57.402068540691403 0 -57.402068540691403 -34.821836652458842 0 0 0 0 -28.20871250360824 -2.1194528525026044 0 -2.1194528525026044 96.682603115294114 0 0 0 0 -8.046414881153396 10.119293167141905 0 10.119293167141905 70.850990209258839 0 0 0 0 -64.718286186782393 21.760599616006289 0 21.760599616006289 63.704316356618619 0 0 0 0 -43.314807936161742 6.9766424516103598 0 6.9766424516103598 70.689988982594059 0 0 0 0 -20.757568005667508 42.911685180377276 0 42.911685180377276 98.225293371667703 0 0 0 0 -7.1025116154887655 10.894352305968141 0 10.894352305968141 43.991342301620989 0 0 0 0 -9.2370846640383206 12.288534529830827 0 12.288534529830827 67.089674280346117 0 0 0 0 19.253052067192584 40.867357416941559 0 40.867357416941559 57.880753454999422 0 0 0 0 -26.999484597570699 -1.7989027211572193 0 -1.7989027211572193 43.629709458585694 0 0 0 0 15.772300612458821 3.8625826238199323 0 3.8625826238199323 31.005278227416056 0 0 0 0 0.71634963043555011 -1.3719699803624881 0 -1.3719699803624881 3.6891876699013313 0 0 0 0 45.426135347453965 114.64641048466774 0 114.64641048466774 179.97872250335581 0 0 0 0 332.2662366747752 -83.630564032949451 0 -83.630564032949451 -10.840994362000856 0 0 0 0 18.408927332169924 -34.871720826447699 0 -34.871720826447699 35.336980338392095 0 0 0 0 1.2030357895453108 -2.9891304600064905 0 -2.9891304600064905 10.610993746202027 0 0 0 0 65.839577622165052 -39.053356311876541 0 -39.053356311876541 12.744059858587207 0 0 0 0 -19.298351028255183 -11.034840030949226 0 -11.034840030949226 26.527536053912627 0 0 0 0 -10.807235633514665 -4.1893631207399267 0 -4.1893631207399267 -0.24561125248692406 0 0 0 0 -0.51344658909941376 -8.1278048457077983 0 -8.1278048457077983 13.881634064180458 0 0 0 0 -18.179444333526135 -14.993984175170681 0 -14.993984175170681 10.187314176408108 0 0 0 0 -3.3402919506502258 13.439843210537788 0 13.439843210537788 24.844629220377101 0 0 0 0 -12.407960594245878 -30.544521750089189 0 -30.544521750089189 18.191429569406409 0 0 0 0 4.7756761320506484 -23.794407887426587 0 -23.794407887426587 42.180501704795006 0 0 0 0 -1.8925044146023176 -14.861337168797458 0 -14.861337168797458 -11.703157910801684 0 0 0 0 -5.3793149719558642 -17.812334620184856 0 -17.812334620184856 40.092012329604131 0 0 0 0 22.229070815069463 27.191609509484806 0 27.191609509484806 -45.792935516130456 0 0 0 0 -17.135969094108987 -32.988327507719077 0 -32.988327507719077 24.409951475731759 0 0 0 0 58.586882389628954 -19.097049634626273 0 -19.097049634626273 -48.653320070166046 0 0 0 0 -4.7873943442955351 -42.39715501499154 0 -42.39715501499154 118.91112862465729 0 0 0 0 0.20028913856781827 -13.898440149083225 0 -13.898440149083225 -13.665686650485927 0 0 0 0 66.830637175479467 -147.38033406632388 0 -147.38033406632388 89.817094331426233 0 0 0 0 107.9061166231196 -105.10089551885881 0 -105.10089551885881 100.63896707229469 0 0 0 0 99.660250861121312 -140.6731896929482 0 -140.6731896929482 76.620900175911629 0 0 0 0 -0.079914139500754544 -2.027502515232257 0 -2.027502515232257 1.6422273048688973 0 0 0 0 25.205370517232041 -95.133733078303521 0 -95.133733078303521 80.473426545543816 0 0 0 0 -19.509116362054101 -17.545132192236451 0 -17.545132192236451 -1.6863511972742344 0 0 0 0 35.464308748025246 -99.041684934223667 0 -99.041684934223667 63.002436478566779 0 0 0 0 68.2230837229381 -185.16677086229447 0 -185.16677086229447 184.82451700024558 0 0 0 0 29.79986887383518 -132.45473480572298 0 -132.45473480572298 115.0765447569438 0 0 0 0 129.76900316294677 -149.0344537190249 0 -149.0344537190249 75.343800384716815 0 0 0 0 184.28240354407853 -246.35681859837132 0 -246.35681859837132 232.34559548110133 0 0 0 0 80.278638241670706 -118.04001740624017 0 -118.04001740624017 57.690685332780049 0 0 0 0 82.754983667782653 -162.68553216167538 0 -162.68553216167538 91.348681143512749 0 0 0 0 66.890104940058336 -148.25957574919858 0 -148.25957574919858 78.717124334708387 0 0 0 0 56.704755816271245 -103.90369604739681 0 -103.90369604739681 41.827412716501385 0 0 0 0 34.559018782154453 -131.01148623485528 0 -131.01148623485528 90.965663976037831 0 0 0 0 56.500492083079735 -117.90649451929448 0 -117.90649451929448 68.350529491990073 0 0 0 0 -12.658534296088874 -2.9056637692751792 0 -2.9056637692751792 11.396786656697259 0 0 0 0 -5.7839482364047399 -34.862350573732328 0 -34.862350573732328 26.807776829769864 0 0 0 0 -17.5697077711784 -60.710517526818876 0 -60.710517526818876 58.522094155099694 0 0 0 0 -1.2160791677479263 -1.3608720311827893 0 -1.3608720311827893 -0.51220349088175254 0 0 0 0 -12.343182808021993 -47.234545756423358 0 -47.234545756423358 48.821741590804777 0 0 0 0 -23.545255742204972 -59.730511590252718 0 -59.730511590252718 76.354962489627269 0 0 0 0 6.3589246960123091 -97.250020528763798 0 -97.250020528763798 100.53196187871799 0 0 0 0 43.924783379409291 -139.96863251603543 0 -139.96863251603543 181.96595010450801 0 0 0 0 28.60329260760227 -89.496000434097368 0 -89.496000434097368 93.593265231730584 0 0 0 0 57.310456928150415 -153.57660683518316 0 -153.57660683518316 107.75685743296845 0 0 0 0 82.400953329135973 -136.24954480231509 0 -136.24954480231509 89.569518853972113 0 0 0 0 149.87197718441439 -182.2946494425114 0 -182.2946494425114 110.77010645789596 0 0 0 0 170.13314041826482 -111.89048290872495 0 -111.89048290872495 70.450268468985087 0 0 0 0 453.78127111594995 -254.33646469044697 0 -254.33646469044697 103.9674292987138 0 0 0 0 0.38326988624101155 -0.11629996599879888 0 -0.11629996599879888 3.1468425819114749 0 0 0 0 -93.059931418466476 11.003455106056663 0 11.003455106056663 58.163797416331363 0 0 0 0 -13.040624911649502 -40.873750798102265 0 -40.873750798102265 10.263829882364007 0 0 0 0 0.17438671114572424 -1.6183190559215292 0 -1.6183190559215292 1.6821261564144834 0 0 0 0 13.807601389843057 -32.387596724744526 0 -32.387596724744526 31.468682242048999 0 0 0 0 26.320110685944883 -14.013794746041185 0 -14.013794746041185 -6.2443984762639957 0 0 0 0 3.3564067830666318 5.7866985183827637 0 5.7866985183827637 5.703489688303307 0 0 0 0 0.22924545328862078 -3.0717010172619554 0 -3.0717010172619554 0.48061464973512358 0 0 0 0 -10.031606792781645 -23.406906177783867 0 -23.406906177783867 -33.153739537614456 0 0 0 0 -11.830898313033686 -5.4470448873098576 0 -5.4470448873098576 -0.14407936165753199 0 0 0 0 -7.3056606023196764 -11.188964584674977 0 -11.188964584674977 -6.0127765608822301 0 0 0 0 6.0224211806880703 -7.3943691074487106 0 -7.3943691074487106 -11.458362467550614 0 0 0 0 -6.2852906312984942 -6.0218049329037058 0 -6.0218049329037058 20.856008429888789 0 0 0 0 -5.4502086390840034 -6.6095800363466495 0 -6.6095800363466495 1.0263020340802995 0 0 0 0 -19.964081360675209 -6.0283477291432064 0 -6.0283477291432064 30.238364016403011 0 0 0 0 9.3630446173265227 5.3806490003807994 0 5.3806490003807994 32.715211423845545 0 0 0 0 -2.2810092651952276 -0.89739597808198113 0 -0.89739597808198113 8.028162173847317 0 0 0 0 10.032927449881754 2.7137014087948046 0 2.7137014087948046 34.859921059178305 0 0 0 0 -0.12392085806493514 -4.7472426532242196 0 -4.7472426532242196 -0.74575924955125927 0 0 0 0 -44.829332073960813 -16.905350169083249 0 -16.905350169083249 15.461644000425622 0 0 0 0 132.40237994389281 -115.41008748568856 0 -115.41008748568856 73.672063902637319 0 0 0 0 -2.1335767983398859 -0.98884913597687429 0 -0.98884913597687429 9.5330397170633461 0 0 0 0 -17.313400866612938 -13.4929520839014 0 -13.4929520839014 5.5505116265840115 0 0 0 0 -14.467821298701892 -22.592319140854215 0 -22.592319140854215 6.1868833346807151 0 0 0 0 -9.6828500879340211 -6.9804227035542894 0 -6.9804227035542894 1.7121680780470676 0 0 0 0 -3.823438362808929 -16.228471705014272 0 -16.228471705014272 0.036904954848068883 0 0 0 0 -10.148939440353388 -14.33880001355783 0 -14.33880001355783 15.567728301954048 0 0 0 0 -3.3848731525761506 -7.9266671207515991 0 -7.9266671207515991 0.21717430718493347 0 0 0 0 -2.396747400357981 -18.236328079642135 0 -18.236328079642135 -4.4145603387987649 0 0 0 0 1.5220604211574482 -8.346488671968018 0 -8.346488671968018 -2.7676888109445485 0 0 0 0 6.7988400411416023 -10.471855013983372 0 -10.471855013983372 -7.0998036656815202 0 0 0 0 -11.307104091758561 -12.743086972397919 0 -12.743086972397919 -20.046000446992821 0 0 0 0 -1.9471041905121638 -18.724269302452058 0 -18.724269302452058 -33.627699123361708 0 0 0 0 -28.831833655853188 -24.915877688499222 0 -24.915877688499222 6.1797563567070029 0 0 0 0 -23.283932239200112 -15.40739158838096 0 -15.40739158838096 1.9282126326074831 0 0 0 0 -5.864999779192658 -15.552371995409885 0 -15.552371995409885 32.312770871557092 0 0 0 0 -52.025999381835391 -14.338959314315161 0 -14.338959314315161 1.5739859660227467 0 0 0 0 -14.842180769784136 1.5596162851329609 0 1.5596162851329609 7.8692093739227857 0 0 0 0 136.80567443003298 -102.65994721202048 0 -102.65994721202048 65.092831962723722 0 0 0 0 135.80308284347993 -95.864461967724992 0 -95.864461967724992 79.196007934682711 0 0 0 0 -1.8479015970511785 0.17703130757714192 0 0.17703130757714192 6.7911060178131599 0 0 0 0 124.17723606901336 -90.16161107332664 0 -90.16161107332664 79.51739957994323 0 0 0 0 131.65244922266402 -103.30464588519453 0 -103.30464588519453 98.347346446194933 0 0 0 0 150.1345990412492 -97.53009765270599 0 -97.53009765270599 82.651418381750318 0 0 0 0 141.39689617834642 -89.440055565186867 0 -89.440055565186867 85.32614963631022 0 0 0 0 150.31970829854293 -114.19191408219834 0 -114.19191408219834 98.546899557473807 0 0 0 0 -36.735483877307615 -39.948888942525627 0 -39.948888942525627 -41.094179972320489 0 0 0 0 -13.224152210533248 2.7709097776687486 0 2.7709097776687486 -93.703244186032862 0 0 0 0 208.62264017355142 -182.29911320442955 0 -182.29911320442955 154.77853938427234 0 0 0 0 -1.2371511443151793 0.23104076967235621 0 0.23104076967235621 5.7524395580984837 0 0 0 0 -46.072192297937363 111.30219824755204 0 111.30219824755204 115.1216260465344 0 0 0 0 107.82758122552332 -104.84273760439373 0 -104.84273760439373 147.05340193535812 0 0 0 0 193.55658824984039 -132.5941542457831 0 -132.5941542457831 109.2198793788566 0 0 0 0 119.31884190874098 -140.1880481627195 0 -140.1880481627195 181.11132526595247 0 0 0 0 110.92892673843085 -119.39671885432608 0 -119.39671885432608 157.26074427796993 0 0 0 0 79.751692665752671 -149.24022622451139 0 -149.24022622451139 249.29409968928439 0 0 0 0 151.91883770764616 -164.73073163793015 0 -164.73073163793015 197.58602643190079 0 0 0 0 387.13795110788124 -320.77547924709643 0 -320.77547924709643 251.87700035706803 0 0 0 0 149.29474039065417 -175.63942766257333 0 -175.63942766257333 168.95215380528134 0 0 0 0 -152.98816611945574 42.33058926941311 0 42.33058926941311 118.95695207293829 0 0 0 0 -0.23863179616146457 0.14284941175793975 0 0.14284941175793975 2.326136903273909 0 0 0 0 -182.92731581488169 152.92613328484822 0 152.92613328484822 41.820328346856513 0 0 0 0 3.5103439495651703 -1.3254028304854728 0 -1.3254028304854728 -0.17188467342745506 0 0 0 0 35.906857607954407 -78.121522469599768 0 -78.121522469599768 65.325227945545407 0 0 0 0 42.811198888045737 -66.770154255407306 0 -66.770154255407306 82.526896299424152 0 0 0 0 -171.96265976148777 -63.591375700660819 0 -63.591375700660819 196.67787081921824 0 0 0 0 0.78235571747430654 0.17428144007699942 0 0.17428144007699942 0.15430072504492509 0 0 0 0 -16.052578949231702 40.124795331968926 0 40.124795331968926 -24.043496462443727 0 0 0 0 7.1514821338205365 -12.571965019451682 0 -12.571965019451682 111.08409699579443 0 0 0 0 -90.051908054385422 -79.051880016907489 0 -79.051880016907489 194.49529565950456 0 0 0 0 44.834234669843454 -35.58532176050835 0 -35.58532176050835 207.33255629364612 0 0 0 0 -7.3951515010890034 -76.135552977322732 0 -76.135552977322732 264.91316553797424 0 0 0 0 -83.714778010241844 76.019974861992068 0 76.019974861992068 134.56752816200651 0 0 0 0 -0.58369617860776479 0.10465500801659111 0 0.10465500801659111 1.0088093417479165 0 0 0 0 91.074061132916086 -179.70240909451923 0 -179.70240909451923 290.81995670950801 0 0 0 0 55.019424693125075 -110.83848074932757 0 -110.83848074932757 220.40535127567341 0 0 0 0 47.073039003542817 -118.30564595491887 0 -118.30564595491887 213.40714378490156 0 0 0 0 83.143722394101133 -112.51229525751569 0 -112.51229525751569 220.504403534787 0 0 0 0 77.518665462952185 -85.725192550759161 0 -85.725192550759161 170.58668020274854 0 0 0 0 110.68163489948938 -111.06811067974286 0 -111.06811067974286 137.28254716040919 0 0 0 0 -0.8554894774231343 -56.276254416023448 0 -56.276254416023448 287.92064251563716 0 0 0 0 77.339907178991325 -94.773765688921685 0 -94.773765688921685 145.8418481316312 0 0 0 0 48.16997526519026 -54.5902496614558 0 -54.5902496614558 76.7580295668904 0 0 0 0 66.696847196052659 -96.138711650834011 0 -96.138711650834011 145.76026256050756 0 0 0 0 89.003222881355214 -86.356155116611262 0 -86.356155116611262 118.25908237476506 0 0 0 0 84.839190864487591 -76.933544309023091 0 -76.933544309023091 96.939276746477844 0 0 0 0 106.26383320592231 -93.231086282790784 0 -93.231086282790784 73.663310071204251 0 0 0 0 113.7158817696627 -106.91339268449519 0 -106.91339268449519 97.568518478018632 0 0 0 0 124.95720034134047 -87.277793811744232 0 -87.277793811744232 49.758805995847069 0 0 0 0 102.33874422404642 -86.895676049501162 0 -86.895676049501162 49.868439262430002 0 0 0 0 92.517450964422096 -96.046946019359893 0 -96.046946019359893 75.330492916403273 0 0 0 0 102.86247904534684 -100.83301489166843 0 -100.83301489166843 43.473679888988045 0 0 0 0 26.9223524186541 -100.41499649327125 0 -100.41499649327125 52.853410401232395 0 0 0 0 80.752391189730929 -109.84875337986375 0 -109.84875337986375 40.638023865894866 0 0 0 0 89.259625168421735 -86.808368141095343 0 -86.808368141095343 56.051895470296586 0 0 0 0 30.263671742234237 -116.84740635966864 0 -116.84740635966864 -42.795219057258691 0 0 0 0 22.975548238172109 -108.59286539676225 0 -108.59286539676225 57.921925398161875 0 0 0 0 -47.384539165015667 -79.41300768262272 0 -79.41300768262272 53.513138888150024 0 0 0 0 -42.176908154621856 -101.94307514331649 0 -101.94307514331649 -83.583725296829471 0 0 0 0 -37.244075073225076 -113.01501471274673 0 -113.01501471274673 -181.78099005055901 0 0 0 0 -21.732252728761978 -165.89664563629776 0 -165.89664563629776 -2.8596294215526541 0 0 0 0 16.97511442973547 -189.47666989908691 0 -189.47666989908691 -71.326949496062298 0 0 0 0 106.30419868249282 -253.51391307048198 0 -253.51391307048198 -35.975502400704499 0 0 0 0 54.961568453867358 -119.41438581056696 0 -119.41438581056696 90.896321415635612 0 0 0 0 -0.14974353125588813 -0.95907336587823266 0 -0.95907336587823266 0.23358207575006507 0 0 0 0 62.405034122879897 -75.387092407552245 0 -75.387092407552245 80.674936406916459 0 0 0 0 10.942392942703123 -12.476139628784267 0 -12.476139628784267 -10.071130900800199 0 0 0 0 1.4560808285376137 -8.6049761939726075 0 -8.6049761939726075 -0.57046412254799761 0 0 0 0 69.983328275460281 -106.13409413987392 0 -106.13409413987392 157.0965498972746 0 0 0 0 0.52733895108668349 -0.88659480979726801 0 -0.88659480979726801 0.61812254663574406 0 0 0 0 11.045212715983951 -171.4087836035003 0 -171.4087836035003 70.756555626334375 0 0 0 0 83.823725261016534 -119.53514568309311 0 -119.53514568309311 13.868866748571236 0 0 0 0 86.506677915847831 -133.11046803447243 0 -133.11046803447243 81.375637596147499 0 0 0 0 -128.4450139045955 -230.56547529947238 0 -230.56547529947238 51.447453313929145 0 0 0 0 -0.62472624276643973 -2.3487796239534298 0 -2.3487796239534298 -1.2338943739785577 0 0 0 0 1.1664530544880733 -19.399433009932181 0 -19.399433009932181 -42.138821898859533 0 0 0 0 -112.0485677749848 -1.4370767927639463 0 -1.4370767927639463 0.94941111720262938 0 0 0 0 3.4990704616498078 5.2563515225911033 0 5.2563515225911033 26.889312348685564 0 0 0 0 4.504104453362288 -24.66656409714551 0 -24.66656409714551 -51.662527110632254 0 0 0 0 -177.9253943487638 2.1481447502364972 0 2.1481447502364972 139.30454431804174 0 0 0 0 -158.27628864725989 -113.84521894205363 0 -113.84521894205363 -30.27700324195871 0 0 0 0 -144.71287736624004 -89.037622704589012 0 -89.037622704589012 7.8827974737314435 0 0 0 0 0.17499181207726133 -2.6963633802910425 0 -2.6963633802910425 4.8743433403557432 0 0 0 0 349.48730915886608 -181.46753859799674 0 -181.46753859799674 34.941146588542324 0 0 0 0 -13.363147910372845 -61.621505227504713 0 -61.621505227504713 -60.444707237357306 0 0 0 0 -20.416709478942721 -292.53850298286534 0 -292.53850298286534 32.981414321459852 0 0 0 0 35.597045751519317 -206.23438062912714 0 -206.23438062912714 332.14576813350322 0 0 0 0 7.6257541806035078 107.75910730345686 0 107.75910730345686 231.87766936692447 0 0 0 0 292.60482386578292 -8.5406275519135306 0 -8.5406275519135306 34.572062638702846 0 0 0 0 9.873413175161204 22.349387985305384 0 22.349387985305384 33.797578917427018 0 0 0 0 -26.988435398007255 10.821180897896625 0 10.821180897896625 33.705010759997094 0 0 0 0 3.7464399169659259 53.898583791881379 0 53.898583791881379 8.4988044238561997 0 0 0 0 -72.407668672604188 27.947529713249082 0 27.947529713249082 20.542154868529906 0 0 0 0 -14.100329644957355 -19.273464547952813 0 -19.273464547952813 -13.379265632573151 0 0 0 0 -84.665702505515583 -47.548596820583953 0 -47.548596820583953 -5.3389082550750118 0 0 0 0 -212.23396201744163 -211.48790433694739 0 -211.48790433694739 -149.95285665154461 0 0 0 0 -48.783189007267566 -31.375843857173152 0 -31.375843857173152 -80.492126962326438 0 0 0 0 -139.58037768736335 -6.4162144282140616 0 -6.4162144282140616 57.445221648347797 0 0 0 0 24.773153547418588 30.246570128480016 0 30.246570128480016 -20.201240378172315 0 0 0 0 -282.71939422446053 -369.95753048792449 0 -369.95753048792449 -105.90141260282417 0 0 0 0 -2.6503960009868592 -0.4475166741796972 0 -0.4475166741796972 0.13169626487300601 0 0 0 0 -30.852852189419536 -357.82768550558194 0 -357.82768550558194 -638.80894996644929 0 0 0 0 -109.09682450119908 -80.092614295874228 0 -80.092614295874228 -333.66077002393286 0 0 0 0 4.7272441876763143 -3.083917108281625 0 -3.083917108281625 -1.7720907085034305 0 0 0 0 67.943970136663665 -240.92623981543829 0 -240.92623981543829 319.69928177009251 0 0 0 0 -63.020609991037873 6.1774214598017352 0 6.1774214598017352 525.80127056747187 0 0 0 0 281.01497886392099 -140.50852733940155 0 -140.50852733940155 120.36820440783163 0 0 0 0 -5.6747939199012762 -33.898750599731102 0 -33.898750599731102 112.30860467315267 0 0 0 0 13.171562795592308 -38.76560431291 0 -38.76560431291 87.462224058108404 0 0 0 0 126.8574147827735 -143.27056611897069 0 -143.27056611897069 154.8239753100188 0 0 0 0 16.831842792487805 -201.68242194934101 0 -201.68242194934101 218.21536002262837 0 0 0 0 -138.25090264796017 -40.708197703137557 0 -40.708197703137557 131.9959996835828 0 0 0 0 -81.754446755668596 -8.3393895986555435 0 -8.3393895986555435 34.180101552311839 0 0 0 0 24.500173523382273 -9.2873922816143022 0 -9.2873922816143022 33.970824583726426 0 0 0 0 -32.746962286289545 59.458282522006357 0 59.458282522006357 55.390926684820442 0 0 0 0 -84.994994596665947 8.5232640111880755 0 8.5232640111880755 -22.990366627774165 0 0 0 0 52.941308999134435 -22.230794737709402 0 -22.230794737709402 18.098539137285115 0 0 0 0 262.21924225204839 -176.15558339495419 0 -176.15558339495419 99.551868317965273 0 0 0 0 101.96893651403207 -212.42328770121048 0 -212.42328770121048 216.61010951143726 0 0 0 0 199.18453995871209 -263.75826347232464 0 -263.75826347232464 226.42731454189925 0 0 0 0 -296.90808496176192 -72.46689776318226 0 -72.46689776318226 140.42719877696527 0 0 0 0 0.095180813985913826 -0.79472105198211906 0 -0.79472105198211906 1.1267713932706478 0 0 0 0 334.10796350023429 -241.98882067036766 0 -241.98882067036766 129.65376918944457 0 0 0 0 94.202434369910407 9.689605248349153 0 9.689605248349153 172.05144579482203 0 0 0 0 42.555073350397635 -163.07578631396095 0 -163.07578631396095 260.43262262085955 0 0 0 0 109.15396772472832 -241.81671454143543 0 -241.81671454143543 169.02564223296486 0 0 0 0 -39.072082696903635 -33.665819700036081 0 -33.665819700036081 72.647074297001154 0 0 0 0 101.92804363548203 -214.38963183200622 0 -214.38963183200622 132.87164327131359 0 0 0 0 199.27863566803262 -161.51844803665244 0 -161.51844803665244 86.07476575934561 0 0 0 0 6.9344922077575575 -15.805057335559013 0 -15.805057335559013 -19.106752575457904 0 0 0 0 2.2099043058526462 -1.0926666597112735 0 -1.0926666597112735 -0.10187613529939976 0 0 0 0 108.84552960285237 -41.238601383082369 0 -41.238601383082369 -171.31537338009821 0 0 0 0 -23.803829917014809 -44.346921678798481 0 -44.346921678798481 -134.17764469007579 0 0 0 0 -4.3505087643509341 -193.6833888344064 0 -193.6833888344064 250.80365722772331 0 0 0 0 22.357170314967789 7.6494812985533827 0 7.6494812985533827 -91.137713182157313 0 0 0 0 -68.281825332910557 -31.897309789230803 0 -31.897309789230803 17.795264408554431 0 0 0 0 7.5301084197605759 -9.1762411682736147 0 -9.1762411682736147 7.0425013884505532 0 0 0 0 -20.190366518035262 -20.127894345499953 0 -20.127894345499953 -6.3033748864372683 0 0 0 0 1.5984124566853293 -3.4900792839694077 0 -3.4900792839694077 1.0192378084040588 0 0 0 0 -6.1445285487725414 -61.407517687849577 0 -61.407517687849577 -70.832420294636904 0 0 0 0 12.839565699249306 -30.527194691270324 0 -30.527194691270324 -34.655727845214642 0 0 0 0 10.138989802269862 -32.762869331439106 0 -32.762869331439106 -25.944872093470167 0 0 0 0 26.991524980397116 -207.6471674268214 0 -207.6471674268214 189.79567835596572 0 0 0 0 175.18678841858127 -251.43787047245587 0 -251.43787047245587 172.9771018120955 0 0 0 0 168.3022719238279 -208.99822304007284 0 -208.99822304007284 102.61909969201406 0 0 0 0 74.790552475127697 -230.94349750070796 0 -230.94349750070796 197.7297808085641 0 0 0 0 121.51343257777262 -219.18946773605603 0 -219.18946773605603 183.60270051065163 0 0 0 0 199.13920720243914 -260.62048314258936 0 -260.62048314258936 271.35791621871977 0 0 0 0 203.53534411034525 -195.96982095430758 0 -195.96982095430758 311.22692299012851 0 0 0 0 132.79793047472708 -161.17833374281258 0 -161.17833374281258 295.70768636292632 0 0 0 0 127.94047044326544 -104.00327773641038 0 -104.00327773641038 -110.78216069538666 0 0 0 0 202.54223795404141 -231.06803694347673 0 -231.06803694347673 222.03852369775814 0 0 0 0 85.268416043625621 -205.42660948863886 0 -205.42660948863886 247.84029596927735 0 0 0 0 1.1123991938395612 -1.0057810957096365 0 -1.0057810957096365 0.10095609308711695 0 0 0 0 5.3545232674416638 -7.1033694516563628 0 -7.1033694516563628 75.158856558226034 0 0 0 0 -8.4374011093441368 37.444509137596469 0 37.444509137596469 -118.70054715247898 0 0 0 0 11.22629621088041 -1.8631266916507911 0 -1.8631266916507911 -1.9932359621138129 0 0 0 0 163.60225661688128 -50.474529120763691 0 -50.474529120763691 -82.802402905869712 0 0 0 0 43.702559469714672 44.161766373093997 0 44.161766373093997 13.146290730330293 0 0 0 0 70.230989056996805 -143.50129652939358 0 -143.50129652939358 232.7620805225738 0 0 0 0 48.926157290728042 -85.959117656047056 0 -85.959117656047056 81.895276748091419 0 0 0 0 38.639763281757155 -35.344677479009079 0 -35.344677479009079 -144.57425346252421 0 0 0 0 -120.11605982128231 -102.93313695470169 0 -102.93313695470169 -141.42613982694633 0 0 0 0 -16.58688775892864 43.580351600218364 0 43.580351600218364 19.860083489940735 0 0 0 0 22.706827822580408 -8.4086936603416689 0 -8.4086936603416689 -108.07178487050624 0 0 0 0 3.7699161709872726 19.795900231983751 0 19.795900231983751 38.587847885719384 0 0 0 0 -54.646431223334957 -93.566094958116082 0 -93.566094958116082 -75.121600314388161 0 0 0 0 0.63004967454147653 -26.719385554863948 0 -26.719385554863948 -59.139706607664266 0 0 0 0 -86.666034927561043 -173.72903454009474 0 -173.72903454009474 43.798605733489239 0 0 0 0 -44.278182903106199 -141.80161870663323 0 -141.80161870663323 -93.7146226044797 0 0 0 0 96.469147658856173 -155.76496486886481 0 -155.76496486886481 -871.31719545308988 0 0 0 0 -160.72833720998642 -352.29256189633088 0 -352.29256189633088 -298.88464223435778 0 0 0 0 -2.8519401461908274 -71.692861146108044 0 -71.692861146108044 -284.22264367628668 0 0 0 0 -10.538830947346469 -29.306767398018565 0 -29.306767398018565 24.137608241808266 0 0 0 0 18.153711218122226 -42.733584313230494 0 -42.733584313230494 -22.374594013881961 0 0 0 0 45.751464508259232 -28.657250209042104 0 -28.657250209042104 -2.1656185647061648 0 0 0 0 -0.85991182696099155 -3.6967736628777628 0 -3.6967736628777628 -2.4242804116267962 0 0 0 0 7.5495393209894246 -48.042384535590827 0 -48.042384535590827 24.011577840960854 0 0 0 0 -15.308247648751149 -11.965620408616815 0 -11.965620408616815 7.1778325754767138 0 0 0 0 33.695840571284307 -54.970396403319683 0 -54.970396403319683 -38.202166827062683 0 0 0 0 -3.5331068609157228 -40.340992246235146 0 -40.340992246235146 19.12747551418579 0 0 0 0 74.005792277373473 9.0227411021387525 0 9.0227411021387525 -32.260815326126249 0 0 0 0 8.4245026477545011 -12.789804099419575 0 -12.789804099419575 10.372586074306287 0 0 0 0 -29.693097071015472 -63.830605829542037 0 -63.830605829542037 53.244622894560052 0 0 0 0 2.3424503293359646 -3.2779920244403336 0 -3.2779920244403336 2.4519125924294265 0 0 0 0 5.8264925598085444 -11.538962128029391 0 -11.538962128029391 -0.089907916148220579 0 0 0 0 1.1607297164741794 -14.864836597553222 0 -14.864836597553222 -1.0970142103715261 0 0 0 0 34.556479100960587 -28.306993612329279 0 -28.306993612329279 -1.9022661260059976 0 0 0 0 7.3106090467655811 -11.757204765792601 0 -11.757204765792601 -2.4476877172293161 0 0 0 0 6.6386924331579849 -6.8917107717534236 0 -6.8917107717534236 -13.992700439925102 0 0 0 0 1.1241970135637587 -15.629762646857557 0 -15.629762646857557 -0.84657871558374609 0 0 0 0 9.6308545777369368 -11.320438069159554 0 -11.320438069159554 1.3514997993334248 0 0 0 0 1.7631599185200457 -41.47571555016475 0 -41.47571555016475 -10.249949350391034 0 0 0 0 7.1847854650841896 -20.203873241802285 0 -20.203873241802285 -22.560493768229207 0 0 0 0 -6.1184327973775581 -49.570847278594556 0 -49.570847278594556 -59.413359069996659 0 0 0 0 -119.02401516188149 -48.929448665785458 0 -48.929448665785458 -0.66893757508114504 0 0 0 0 3.290359607141454 7.2901714410309069 0 7.2901714410309069 24.530612309750722 0 0 0 0 -26.049590137472023 -31.525724592514962 0 -31.525724592514962 42.806007441397014 0 0 0 0 7.484036303088752 -11.046956885639226 0 -11.046956885639226 2.3941965087930797 0 0 0 0 -107.51611680630231 -124.15877963443563 0 -124.15877963443563 -159.18640943862192 0 0 0 0 -3.2547020452298057 -12.630501543981154 0 -12.630501543981154 0.3112112254962085 0 0 0 0 -13.370475245599769 0.25442107967628758 0 0.25442107967628758 0.53358316529421757 0 0 0 0 -184.95565929462714 -578.01469530847135 0 -578.01469530847135 313.24722211291555 0 0 0 0 1.1639317445030324 -1.5824830550567448 0 -1.5824830550567448 -0.28801603585683822 0 0 0 0 -259.40429704066264 -378.56965084054809 0 -378.56965084054809 879.63448536762371 0 0 0 0 -265.73541680060214 -22.209822775673274 0 -22.209822775673274 101.26647802689331 0 0 0 0 -118.35057279823292 -62.418113257133882 0 -62.418113257133882 47.085632062124205 0 0 0 0 -4.2340996889722398 0.98541184469289078 0 0.98541184469289078 -0.50629318441622573 0 0 0 0 -252.79323859605256 -315.16401220310217 0 -315.16401220310217 -376.14983453742479 0 0 0 0 -111.31205822932338 41.213601560651114 0 41.213601560651114 120.19269108178378 0 0 0 0 132.68021430431168 -164.07452346796799 0 -164.07452346796799 -280.23574569780794 0 0 0 0 -299.99731308317155 -8.694586343285664 0 -8.694586343285664 -95.731909410079425 0 0 0 0 73.221674936234535 -55.913163072742464 0 -55.913163072742464 336.69159881635278 0 0 0 0 173.95634554546712 -183.9925082948871 0 -183.9925082948871 21.483516120031709 0 0 0 0 5.2157184793000315 -4.7945502426942355 0 -4.7945502426942355 -1.1194073676942278 0 0 0 0 45.083885567235598 -176.42723756278974 0 -176.42723756278974 340.5099350675282 0 0 0 0 46.988583162836051 -70.650174460964536 0 -70.650174460964536 61.683882610270302 0 0 0 0 36.548298482304574 -100.31912400548481 0 -100.31912400548481 81.370264630365682 0 0 0 0 59.352348020368289 -41.509509431425272 0 -41.509509431425272 -80.347993778226737 0 0 0 0 21.245960325112947 3.6467961269536318 0 3.6467961269536318 -56.194499741963227 0 0 0 0 -6.2924167079481776 -36.707856555145554 0 -36.707856555145554 -81.638960471582322 0 0 0 0 11.191959794449735 -4.7427131416763331 0 -4.7427131416763331 -1.1797319426940973 0 0 0 0 18.026956836171848 -66.531247175063527 0 -66.531247175063527 -330.37144756097769 0 0 0 0 -35.735094223080523 -270.09081472381013 0 -270.09081472381013 -385.80088512989096 0 0 0 0 -117.39219816379682 -212.05170311080656 0 -212.05170311080656 -222.57070056640259 0 0 0 0 -61.905428523545652 -15.427597559367769 0 -15.427597559367769 -84.13376336651163 0 0 0 0 4.8230903126759586 -96.584633739783385 0 -96.584633739783385 -25.956193857857215 0 0 0 0 115.19274576271073 -285.16907289352821 0 -285.16907289352821 576.07944355515519 0 0 0 0 -34.227466170301341 -51.692328904816804 0 -51.692328904816804 71.66654091016062 0 0 0 0 38.409867761676807 -8.1158766416408241 0 -8.1158766416408241 60.542806859742996 0 0 0 0 41.366068001438293 -71.923353027996569 0 -71.923353027996569 66.9929347982943 0 0 0 0 -386.38790125139235 -615.17704326484227 0 -615.17704326484227 602.90121477151752 0 0 0 0 0.29610737992217295 -1.4634843010084708 0 -1.4634843010084708 -0.55400859087181864 0 0 0 0 43.141876683366263 -45.638675573575256 0 -45.638675573575256 -367.51682173623885 0 0 0 0 62.930130989732334 -93.991301139357347 0 -93.991301139357347 -614.21707265279292 0 0 0 0 -69.941434553464433 -100.78600051799549 0 -100.78600051799549 -65.465802545068073 0 0 0 0 -19.284186474803391 -15.354148916794657 0 -15.354148916794657 -158.44877771282881 0 0 0 0 -0.7644379535444159 -96.541694155844311 0 -96.541694155844311 -370.10617895813448 0 0 0 0 -18.055079448997731 -144.07757554957652 0 -144.07757554957652 -389.68090532735368 0 0 0 0 -26.538134496500788 -14.698427713598903 0 -14.698427713598903 -437.50680151964661 0 0 0 0 -8.5549355731641299 -114.21541024272847 0 -114.21541024272847 -335.18894824428639 0 0 0 0 0.81861698157907448 -2.4382057573409748 0 -2.4382057573409748 4.839136149754637 0 0 0 0 41.24449832530081 -66.995115820328465 0 -66.995115820328465 29.944211013114909 0 0 0 0 -33.974790327401934 -47.592832103936416 0 -47.592832103936416 45.868355536471427 0 0 0 0 98.347802396678162 -101.19915669945385 0 -101.19915669945385 -21.022378545408856 0 0 0 0 145.73614142472979 -84.004243770588801 0 -84.004243770588801 3.0734220154990908 0 0 0 0 80.696974807075094 -52.72032307029076 0 -52.72032307029076 -8.3796080281717877 0 0 0 0 111.6730442446933 -55.799181014579517 0 -55.799181014579517 -15.007619266501933 0 0 0 0 98.445878180751606 -85.938048471227376 0 -85.938048471227376 -23.680482424588263 0 0 0 0 92.802799870993113 -40.139942907775549 0 -40.139942907775549 -15.57212776414417 0 0 0 0 71.371163245438765 -37.418532135308851 0 -37.418532135308851 -6.5953312044584891 0 0 0 0 286.46522862787242 13.720335360915669 0 13.720335360915669 -49.273506724925255 0 0 0 0 0.3040958391390074 -0.044586459216646723 0 -0.044586459216646723 -0.26048085332293169 0 0 0 0 -45.436037280183882 -36.465570845190996 0 -36.465570845190996 3.3716523347975453 0 0 0 0 -75.382143181030187 14.060468465351732 0 14.060468465351732 32.393891516983786 0 0 0 0 5.8332739316056177 11.8375053646987 0 11.8375053646987 0.16038873479556059 0 0 0 0 0.5025145021983386 -1.0285263536750344 0 -1.0285263536750344 1.811471590351168 0 0 0 0 -36.171449466542981 55.905660567832456 0 55.905660567832456 15.897774780280088 0 0 0 0 -34.500004959929356 -1.8273357454963843 0 -1.8273357454963843 15.701570209595957 0 0 0 0 126.15578631907283 -107.14804360872586 0 -107.14804360872586 21.021567866597252 0 0 0 0 106.42209802790831 -92.92129761529668 0 -92.92129761529668 11.116029320786765 0 0 0 0 134.28923354040717 -73.109777674680117 0 -73.109777674680117 -24.802233339672966 0 0 0 0 -66.712296587284072 -12.302969669984122 0 -12.302969669984122 8.3820902335974097 0 0 0 0 166.72296628836921 -92.769399428694669 0 -92.769399428694669 -12.886632891424597 0 0 0 0 155.6859286294507 -170.24939303785322 0 -170.24939303785322 70.554417281204223 0 0 0 0 78.891434206675058 97.846838162082577 0 97.846838162082577 -15.882847290071368 0 0 0 0 -10.212730031831597 -8.193458409107734 0 -8.193458409107734 -13.532901929289892 0 0 0 0 -0.74828134760068377 -2.115940188093985 0 -2.115940188093985 -3.490471084140168 0 0 0 0 -13.886971908170381 -17.028674495295718 0 -17.028674495295718 -11.147311551501843 0 0 0 0 -11.70411994328424 -13.01197784886881 0 -13.01197784886881 -4.1545386041325401 0 0 0 0 -9.6324105071542032 -6.7710150549237795 0 -6.7710150549237795 -2.6747083704616141 0 0 0 0 -0.83974909415519505 -9.9662509648546802 0 -9.9662509648546802 -11.576704288653673 0 0 0 0 -9.1233456447162098 -14.111312791172168 0 -14.111312791172168 -8.9395595780297299 0 0 0 0 17.329281347867436 -9.2803721301997939 0 -9.2803721301997939 -16.363315223617064 0 0 0 0 2.2682865543272994 -5.1127176683645219 0 -5.1127176683645219 -10.533746798627153 0 0 0 0 -5.7042991497764888 -7.6975277491274028 0 -7.6975277491274028 -7.8924030500570552 0 0 0 0 -2.8199228727735317 -16.753627200803749 0 -16.753627200803749 -8.7072687910931563 0 0 0 0 -30.658973202636844 -11.495702536476529 0 -11.495702536476529 -6.9584116856221954 0 0 0 0 -14.890341363536209 -20.386433491572461 0 -20.386433491572461 -8.2273860289351433 0 0 0 0 -2.8410905303317122 -49.281575361319483 0 -49.281575361319483 4.16647765253947 0 0 0 0 1.9203476070288161 -20.351094093462962 0 -20.351094093462962 -10.096793619410164 0 0 0 0 0.56431463784792868 4.8759751533998497 0 4.8759751533998497 -9.9891991273425447 0 0 0 0 30.863657406187485 -28.418532676965697 0 -28.418532676965697 -72.629297288949601 0 0 0 0 -1.8355676244154893 24.561396101449645 0 24.561396101449645 -65.577242478259677 0 0 0 0 -0.36034997157303117 -0.077508640180681709 0 -0.077508640180681709 0.54059433216714581 0 0 0 0 2.8434927016742222 -19.457298245735728 0 -19.457298245735728 -18.992026181511392 0 0 0 0 -199.71542936055903 -100.161923993458 0 -100.161923993458 73.079719001120793 0 0 0 0 134.83706628750565 101.01734543354382 0 101.01734543354382 -263.78809901297791 0 0 0 0 -3.0923303084642981 -1.1813074477220979 0 -1.1813074477220979 -0.54579172865416226 0 0 0 0 -160.05381154735187 37.901200173441794 0 37.901200173441794 52.286037150935044 0 0 0 0 42.776607318635797 11.346348025653242 0 11.346348025653242 -264.74629750101303 0 0 0 0 -42.00081122769916 -52.525836998306659 0 -52.525836998306659 17.371477694505302 0 0 0 0 -154.72868858775928 -133.41256866320145 0 -133.41256866320145 -24.682415439567194 0 0 0 0 -192.35366099748535 -22.439094550378286 0 -22.439094550378286 88.726196529751178 0 0 0 0 -79.829859180314998 51.209739361366701 0 51.209739361366701 103.6762872623849 0 0 0 0 8.2834160747815986 35.987904053182319 0 35.987904053182319 20.442346073439694 0 0 0 0 0.69321740431841894 -5.2998762172987401 0 -5.2998762172987401 -9.8273408677424925 0 0 0 0 -125.70084392527588 -16.660754461352099 0 -16.660754461352099 50.314266749221133 0 0 0 0 -64.05721730283949 38.094880907404331 0 38.094880907404331 6.6680656448825175 0 0 0 0 -48.912585795371342 0.14635156074473343 0 0.14635156074473343 53.867264067612268 0 0 0 0 -38.845389733423872 -42.593379262810231 0 -42.593379262810231 -14.614806143526948 0 0 0 0 -80.997934730059569 35.378668607288091 0 35.378668607288091 -38.10883699104852 0 0 0 0 1.390257953566751 -1.1268103526019502 0 -1.1268103526019502 -2.5250333349865191 0 0 0 0 -48.227242343749822 -54.681992412571162 0 -54.681992412571162 24.95976551802778 0 0 0 0 -23.518707965935391 -21.827445615015677 0 -21.827445615015677 47.519017924466425 0 0 0 0 -9.0250816868210677 -51.436916449569708 0 -51.436916449569708 17.489856749787577 0 0 0 0 -19.487438018830289 -5.9318424788161792 0 -5.9318424788161792 -32.233735566869655 0 0 0 0 -7.6717269032978948 -29.556302380970237 0 -29.556302380970237 9.8336868396108912 0 0 0 0 -0.079782604300362436 -16.071038079327991 0 -16.071038079327991 9.2563238280645237 0 0 0 0 -49.508332764241061 -5.7761917069306605 0 -5.7761917069306605 17.093553666283697 0 0 0 0 25.80489109448763 -96.735857361275748 0 -96.735857361275748 95.953159249093005 0 0 0 0 76.131852602151412 -68.808757047746894 0 -68.808757047746894 107.26969481916831 0 0 0 0 102.96297306818633 -214.07862874747207 0 -214.07862874747207 321.40351710461618 0 0 0 0 1.077986613693156 44.241277055466981 0 44.241277055466981 19.036699529065345 0 0 0 0 2.2213980161786822 -105.41191052352224 0 -105.41191052352224 51.684115400711107 0 0 0 0 1.0862067617782145 -0.3073937413726604 0 -0.3073937413726604 -0.076580624611769843 0 0 0 0 23.950294133344642 -32.829974072643381 0 -32.829974072643381 -155.46415039912881 0 0 0 0 -18.244307920678693 -27.359762018026231 0 -27.359762018026231 64.743241625437236 0 0 0 0 0.94156855845790233 -72.137284131703836 0 -72.137284131703836 -15.609456497433712 0 0 0 0 14.579839757157515 -25.825547718846792 0 -25.825547718846792 -21.993598298358847 0 0 0 0 -11.761192402553519 -8.7162413131072185 0 -8.7162413131072185 -2.808877145901425 0 0 0 0 -4.6821819139622676 -20.399154501385965 0 -20.399154501385965 -15.453091978929933 0 0 0 0 -2.8534026451425234 -25.629910971312711 0 -25.629910971312711 -8.0547645130736782 0 0 0 0 -23.029888102780205 -57.364900799229872 0 -57.364900799229872 56.744487051429132 0 0 0 0 -8.3601920496048443 -4.0991352592876957 0 -4.0991352592876957 -2.2707458363111854 0 0 0 0 18.068781038041379 1.910741068522384 0 1.910741068522384 -79.737364683128362 0 0 0 0 -34.288158807578839 -32.519547662050172 0 -32.519547662050172 43.573500186737874 0 0 0 0 15.972255452668833 -49.337450277394964 0 -49.337450277394964 -10.019275579881651 0 0 0 0 16.997161080835212 -44.3437830166813 0 -44.3437830166813 14.308067346989446 0 0 0 0 26.540822497944646 -37.816960006238332 0 -37.816960006238332 -11.793208673796471 0 0 0 0 13.8482313621098 -31.833523927210081 0 -31.833523927210081 -7.7537994534450263 0 0 0 0 9.5370556748573989 -10.556243611628293 0 -10.556243611628293 0.70648795754087246 0 0 0 0 81.301539150474127 4.3487761789110664 0 4.3487761789110664 -50.865634003995183 0 0 0 0 -3.2808407679122524 -14.516965675813537 0 -14.516965675813537 -0.78560854435272631 0 0 0 0 -2.0260782770262029 -8.6511787504854958 0 -8.6511787504854958 2.6600777242680334 0 0 0 0 106.11198098204659 60.668781737093013 0 60.668781737093013 -185.68319650370631 0 0 0 0 26.541884789010965 69.700698149781147 0 69.700698149781147 88.63343268900644 0 0 0 0 18.429012001010051 -28.862975973230277 0 -28.862975973230277 -17.778391933179591 0 0 0 0 7.0660821006586048 -25.219995873813787 0 -25.219995873813787 -10.382618017119967 0 0 0 0 -5.2545085323356489 -57.033597782904053 0 -57.033597782904053 -60.773575847548273 0 0 0 0 -221.88525038143666 59.376570009735872 0 59.376570009735872 -10.553469677535759 0 0 0 0 -162.37307788885664 -61.597033135339188 0 -61.597033135339188 11.515902962919426 0 0 0 0 -105.86833345521336 39.522283297399554 0 39.522283297399554 -16.277773036600138 0 0 0 0 -211.95674325087111 -157.12988256551489 0 -157.12988256551489 -103.02126899716859 0 0 0 0 37.90411096788921 -94.904107502513398 0 -94.904107502513398 -81.258983219567199 0 0 0 0 27.042429194723809 -136.03123651543774 0 -136.03123651543774 -128.72501793345214 0 0 0 0 55.952112973169278 -56.521590381869828 0 -56.521590381869828 -120.12377020532938 0 0 0 0 55.119781238922258 -34.94961577319549 0 -34.94961577319549 -15.432379708952794 0 0 0 0 -2.6897993682889556 -1.6337897109980659 0 -1.6337897109980659 -0.78218424869947256 0 0 0 0 -47.969364591771864 1.9757500344407219 0 1.9757500344407219 -0.37208723338153504 0 0 0 0 -46.170954833687574 -34.246707983556462 0 -34.246707983556462 48.02926985322847 0 0 0 0 -90.998820070935835 3.9356970698099758 0 3.9356970698099758 16.010985035013618 0 0 0 0 -48.115786912260035 -0.026304252357533642 0 -0.026304252357533642 9.0923251578242343 0 0 0 0 -108.82144391485235 -8.7979136040084995 0 -8.7979136040084995 41.693579839693484 0 0 0 0 -33.236923868376834 -35.831019362252846 0 -35.831019362252846 16.482526703346593 0 0 0 0 -100.63686256612345 16.33038920978197 0 16.33038920978197 57.60669956321135 0 0 0 0 -22.458776850763243 -15.256079401209689 0 -15.256079401209689 41.725482027028193 0 0 0 0 -26.876259530119569 -93.834437232507298 0 -93.834437232507298 59.558989968944843 0 0 0 0 -117.54860984533843 -38.025398148251952 0 -38.025398148251952 53.610186092535514 0 0 0 0 15.192254453741953 3.0064376290420114 0 3.0064376290420114 -13.057442953670943 0 0 0 0 45.946365194682585 -40.57010844648903 0 -40.57010844648903 0.4695628509252856 0 0 0 0 1.2920465525410778 -6.4031819598886255 0 -6.4031819598886255 -8.6121405480839996 0 0 0 0 119.80041238780444 -55.50330288006036 0 -55.50330288006036 34.044854315625344 0 0 0 0 1.8886278545874191 0.078195195259123551 0 0.078195195259123551 -0.94396593780712834 0 0 0 0 121.18930510111696 -95.150277421545923 0 -95.150277421545923 37.900183441215631 0 0 0 0 77.444726890837501 -36.946704797778239 0 -36.946704797778239 19.424795612208982 0 0 0 0 103.08507591103262 -92.538982635389402 0 -92.538982635389402 73.987037425669769 0 0 0 0 -0.66464449915878721 -1.9736889761025944 0 -1.9736889761025944 -0.1536914625078154 0 0 0 0 190.00682833176324 -88.045918873498522 0 -88.045918873498522 34.69149027565436 0 0 0 0 11.1216521342958 -45.280682844990224 0 -45.280682844990224 94.811353577588307 0 0 0 0 -4.5413220024185783 -5.2793709046186876 0 -5.2793709046186876 -3.8980112068430373 0 0 0 0 -28.357921333458307 -9.8205988638044346 0 -9.8205988638044346 -3.5168954827477137 0 0 0 0 67.782659836249877 -90.598204634572539 0 -90.598204634572539 53.60252902454431 0 0 0 0 118.94771776545122 -38.624411084746043 0 -38.624411084746043 -25.745951573277125 0 0 0 0 75.20526964443161 -85.184291511871379 0 -85.184291511871379 -94.866678073853109 0 0 0 0 52.373449153969659 -34.886756552180486 0 -34.886756552180486 -25.936566621930979 0 0 0 0 39.128075141245063 -4.9319361590041808 0 -4.9319361590041808 -36.225924993749686 0 0 0 0 69.159095431854439 -43.795340762088927 0 -43.795340762088927 -63.233913161615419 0 0 0 0 78.004225987865084 -13.054255550364815 0 -13.054255550364815 -16.367170979225193 0 0 0 0 61.565352101207282 -21.197131352357246 0 -21.197131352357246 56.375533091846592 0 0 0 0 31.338479281697801 -50.213837434006564 0 -50.213837434006564 20.975306767069924 0 0 0 0 34.356976063356342 -22.827805502282899 0 -22.827805502282899 -48.119607176930003 0 0 0 0 30.36078403335523 -25.25940485740648 0 -25.25940485740648 -17.87569979593718 0 0 0 0 39.955663412903959 -12.490763462289578 0 -12.490763462289578 -60.465936900578527 0 0 0 0 25.957712819736116 -12.341089548848686 0 -12.341089548848686 -44.940615339452961 0 0 0 0 -119.34993322734954 -63.764769677518416 0 -63.764769677518416 -5.9238453069192474 0 0 0 0 -26.312755219648352 -64.510652822257725 0 -64.510652822257725 -47.623871050778689 0 0 0 0 -50.26038984384013 -8.9480330501519347 0 -8.9480330501519347 -11.01276669411709 0 0 0 0 -5.3914616143429157 -32.693809991555099 0 -32.693809991555099 -19.93935167249083 0 0 0 0 -81.953139103542526 -39.841428732294844 0 -39.841428732294844 26.002656944456248 0 0 0 0 -3.0382191641606369 5.7809388302798652 0 5.7809388302798652 -18.403440377262086 0 0 0 0 0.76973806827463775 -2.7514523602394148 0 -2.7514523602394148 6.455910044880298 0 0 0 0 -12.082969223223699 11.936329203618243 0 11.936329203618243 5.6867911223980627 0 0 0 0 45.176269403155857 -66.361797027707325 0 -66.361797027707325 46.160605388643489 0 0 0 0 7.4837481483255033 -11.890883995847616 0 -11.890883995847616 13.645128670588747 0 0 0 0 60.552539808443726 -53.568841869586322 0 -53.568841869586322 -4.7798957110389892 0 0 0 0 90.385247641410388 -118.20714518874593 0 -118.20714518874593 81.623092520356295 0 0 0 0 166.71633678123726 -158.26432684928841 0 -158.26432684928841 54.313686386496556 0 0 0 0 57.762211569952342 -55.241517708333959 0 -55.241517708333959 53.075279556993337 0 0 0 0 65.185114194428479 -56.708661416678297 0 -56.708661416678297 -19.103256962993328 0 0 0 0 17.809294841097653 43.753214493951418 0 43.753214493951418 34.788572222723815 0 0 0 0 20.930847180752608 -21.486993427741254 0 -21.486993427741254 22.652884502830602 0 0 0 0 -47.221815301893912 -32.42726498833872 0 -32.42726498833872 21.104458888482895 0 0 0 0 -9.4213907144712721 -23.441063196397863 0 -23.441063196397863 84.01583415805726 0 0 0 0 144.42133081970724 -90.324976365223847 0 -90.324976365223847 94.05435338055031 0 0 0 0 -24.764827786335445 -90.975748810222285 0 -90.975748810222285 -23.342706116486625 0 0 0 0 -32.205546161889288 11.608240655168629 0 11.608240655168629 33.643126119264707 0 0 0 0 -51.692233790902492 5.8346667579762652 0 5.8346667579762652 39.011061580837122 0 0 0 0 -114.88946188140551 -87.388573729630025 0 -87.388573729630025 213.1979182630439 0 0 0 0 -3.7208771115738273 -23.696745057878161 0 -23.696745057878161 177.74459143437343 0 0 0 0 -106.24604300387455 -116.87861248055378 0 -116.87861248055378 234.90936788838462 0 0 0 0 -50.947092466426511 -24.479147808042399 0 -24.479147808042399 -32.767819785080064 0 0 0 0 24.918069048813322 -136.68361093029671 0 -136.68361093029671 127.22684443616527 0 0 0 0 92.86879807285959 -79.344859402101065 0 -79.344859402101065 -65.539646223316595 0 0 0 0 -19.286688007919111 -76.281300470939641 0 -76.281300470939641 438.52166310447637 0 0 0 0 1.7111163425192402 -1.0409231321249521 0 -1.0409231321249521 0.51306497059996303 0 0 0 0 -19.331313613227394 -33.349529989468465 0 -33.349529989468465 -63.257827510915376 0 0 0 0 72.025009076363403 -29.09407225512723 0 -29.09407225512723 -179.30318942389022 0 0 0 0 27.726854174278515 -102.6307346704707 0 -102.6307346704707 -87.097862824855838 0 0 0 0 4.7819435334062099 -2.9478212361587204 0 -2.9478212361587204 1.1345579833992616 0 0 0 0 25.790417433888706 -32.631696542544887 0 -32.631696542544887 137.10864091495932 0 0 0 0 -9.0220094169824279 -49.116794869746627 0 -49.116794869746627 195.10581362525954 0 0 0 0 0.43703403547601738 -125.76896585629083 0 -125.76896585629083 48.294736073785316 0 0 0 0 -39.788284603435386 -94.578611251492475 0 -94.578611251492475 168.67106470313456 0 0 0 0 -26.767017758854308 -66.134377127303196 0 -66.134377127303196 4.287504306496885 0 0 0 0 70.280567841866286 -77.043633805015361 0 -77.043633805015361 4.7000837650248286 0 0 0 0 -216.94960841107377 -127.03644677174543 0 -127.03644677174543 64.268837762869225 0 0 0 0 161.10823823819783 -105.61794985353299 0 -105.61794985353299 -18.399944260096163 0 0 0 0 -0.0093958351415133201 -0.32589537539400126 0 -0.32589537539400126 0.28777732653341559 0 0 0 0 -3.5542132932764616 -161.16128526888679 0 -161.16128526888679 64.703809479701704 0 0 0 0 -5.3023151531006079 -80.749366473335613 0 -80.749366473335613 58.747904853209548 0 0 0 0 1.6181613690923768 -99.937243861639217 0 -99.937243861639217 32.407229075908617 0 0 0 0 -2.0185197981254532 -104.36354300450421 0 -104.36354300450421 107.86844333193949 0 0 0 0 13.194467863601858 -31.422168438672998 0 -31.422168438672998 94.80277239328575 0 0 0 0 -251.11391552531586 -47.211976835613314 0 -47.211976835613314 180.38035040317482 0 0 0 0 2.0463601172755261 -24.887251983621354 0 -24.887251983621354 62.817635219524163 0 0 0 0 8.5527901637141497 -3.630273190103722 0 -3.630273190103722 1.4207043675404094 0 0 0 0 9.6730274336036928 -47.6151494067974 0 -47.6151494067974 29.159987530640137 0 0 0 0 5.070148037767467 -25.679462007838083 0 -25.679462007838083 -2.3671226570986619 0 0 0 0 -13.811936709395923 -98.792277201680918 0 -98.792277201680918 -10.667985031125681 0 0 0 0 -12.810102296566583 -110.62353056603024 0 -110.62353056603024 -47.439737337466795 0 0 0 0 -37.559739668789916 -117.62985049928466 0 -117.62985049928466 -45.19079620987759 0 0 0 0 50.08885223510697 -25.780521777356626 0 -25.780521777356626 -32.502290658971106 0 0 0 0 3.4306882592336478 -75.470919009832869 0 -75.470919009832869 -77.814888047139902 0 0 0 0 13.227240760992572 -38.028359284715407 0 -38.028359284715407 9.7995389644520401 0 0 0 0 14.076912881556407 -5.6585514394524346 0 -5.6585514394524346 1.0910838605933897 0 0 0 0 31.393712008958573 -9.7172202408073645 0 -9.7172202408073645 7.4661812534895944 0 0 0 0 10.56962596747826 -18.763448269281071 0 -18.763448269281071 3.8537006238693721 0 0 0 0 7.533634342276855 -82.150072607759284 0 -82.150072607759284 -109.54708526344621 0 0 0 0 54.096192695133595 -8.6380616585759071 0 -8.6380616585759071 -12.562227694696048 0 0 0 0 2.3822480563650679 -0.42731639623959161 0 -0.42731639623959161 -0.67259628876333011 0 0 0 0 -11.353374955891923 -4.5414437002391423 0 -4.5414437002391423 -7.2219811596523869 0 0 0 0 -127.69056006426536 -141.99455880149799 0 -141.99455880149799 -136.34653130759034 0 0 0 0 -2.0652890282293797 -0.66232346640332107 0 -0.66232346640332107 -0.87723207069058873 0 0 0 0 -104.47920376486763 -150.82682365202891 0 -150.82682365202891 -135.62726410761388 0 0 0 0 -36.36569325482003 -125.19628050451956 0 -125.19628050451956 -68.377410997636616 0 0 0 0 -88.315827403897856 -147.65784655186144 0 -147.65784655186144 -66.705320986080551 0 0 0 0 -117.28082783507944 -105.29895442484394 0 -105.29895442484394 -59.769868559953466 0 0 0 0 -82.351665203348603 -130.38066267052636 0 -130.38066267052636 -69.425250321486601 0 0 0 0 -85.867002922104803 -131.80032016519544 0 -131.80032016519544 -36.094071648301906 0 0 0 0 -88.877189613244809 -114.84104783342082 0 -114.84104783342082 -137.67660457102102 0 0 0 0 -87.578218943853244 -139.88500433755326 0 -139.88500433755326 -44.778397301539371 0 0 0 0 -102.01979812379341 -125.17481262980527 0 -125.17481262980527 -72.981075009527558 0 0 0 0 -108.94387207515229 -136.66779364382182 0 -136.66779364382182 -36.962068115579314 0 0 0 0 -99.473986472226898 -151.38863837791178 0 -151.38863837791178 -19.814045872376028 0 0 0 0 -106.35056957080269 -130.49863206903865 0 -130.49863206903865 -25.990302385809628 0 0 0 0 -84.540004841538575 -156.39746961436867 0 -156.39746961436867 -2.8163868719848324 0 0 0 0 -71.369976698184473 -132.57176413991692 0 -132.57176413991692 -13.783878497117257 0 0 0 0 -89.484194423299414 -139.42190243330515 0 -139.42190243330515 -15.45565237646224 0 0 0 0 -63.909844451385197 -141.66890152889573 0 -141.66890152889573 -46.948200450889999 0 0 0 0 -60.03990041554357 -129.20133802862347 0 -129.20133802862347 -13.118178193166386 0 0 0 0 -9.4541398218916584 -101.76247612021393 0 -101.76247612021393 -20.55425316155015 0 0 0 0 -43.591985869385098 -113.15209291722749 0 -113.15209291722749 29.230223031911009 0 0 0 0 -56.875760536921916 -140.5441963235844 0 -140.5441963235844 -24.449276597937569 0 0 0 0 -20.273294206503579 -128.07725050840463 0 -128.07725050840463 7.5008910330288927 0 0 0 0 -57.928184943084489 -155.12300759749451 0 -155.12300759749451 8.0609500149421365 0 0 0 0 -59.467571865236209 -147.06213170634624 0 -147.06213170634624 -3.1275367827474838 0 0 0 0 -87.534582357995532 -151.81342803841653 0 -151.81342803841653 14.055876970272948 0 0 0 0 -91.793560426760905 -160.4905833494031 0 -160.4905833494031 -3.2945240819863102 0 0 0 0 -93.677837423501614 -141.45456859243177 0 -141.45456859243177 -4.4985089554829756 0 0 0 0 -85.276711546532169 -170.00644762661068 0 -170.00644762661068 5.9796792352321972 0 0 0 0 -87.81818883146525 -164.84735912608539 0 -164.84735912608539 -4.4625681796751451 0 0 0 0 -69.131619594384119 -156.2814376389465 0 -156.2814376389465 -2.9850412484483968 0 0 0 0 -71.382452792556251 -159.95256520465955 0 -159.95256520465955 34.082406055586034 0 0 0 0 -74.847582992498701 -162.60587632640636 0 -162.60587632640636 -27.272700494408127 0 0 0 0 -102.12890905152472 -156.76217426386756 0 -156.76217426386756 -0.30686772347780789 0 0 0 0 -79.584286000258999 -174.16934415543437 0 -174.16934415543437 -18.180043234877303 0 0 0 0 -83.567507351766835 -168.47826429164434 0 -168.47826429164434 -2.9914161582237284 0 0 0 0 -92.421752239064062 -177.53678277063409 0 -177.53678277063409 -12.038069517000622 0 0 0 0 -146.4148615601091 -189.06857817435412 0 -189.06857817435412 -21.426027913345024 0 0 0 0 -104.0666224695957 -173.14877307415259 0 -173.14877307415259 75.367964996330556 0 0 0 0 -110.82541522502015 -158.82844930552164 0 -158.82844930552164 -0.031821992191908066 0 0 0 0 -98.45695365737231 -173.7867014035819 0 -173.7867014035819 -47.886408702421249 0 0 0 0 -89.252605244274491 -145.58546289344076 0 -145.58546289344076 -44.887399851042574 0 0 0 0 -103.39018812719769 -139.07092834461037 0 -139.07092834461037 -31.977968497218171 0 0 0 0 -139.80016874034845 -118.88382350522716 0 -118.88382350522716 -39.695413392864793 0 0 0 0 -277.4475292669963 -97.537286920576662 0 -97.537286920576662 4.4456323840186087 0 0 0 0 -177.01673869404885 -137.08971813902008 0 -137.08971813902008 -0.069702962569863303 0 0 0 0 -132.83839391445031 -75.220228816678173 0 -75.220228816678173 -29.265040418495119 0 0 0 0 -89.808013485095216 -96.76607931481567 0 -96.76607931481567 -18.692176446988015 0 0 0 0 0.072821973573324872 -0.84370537241328858 0 -0.84370537241328858 0.43062848903127104 0 0 0 0 -79.94366979755506 -128.43448849412334 0 -128.43448849412334 -30.181474086968592 0 0 0 0 -26.259888136220525 -150.44962970331198 0 -150.44962970331198 -22.898378178102575 0 0 0 0 -60.126088444071229 -72.525813808594876 0 -72.525813808594876 -4.6161863506731606 0 0 0 0 -30.835087966362607 -52.238850491025914 0 -52.238850491025914 -40.947569531908812 0 0 0 0 -18.210896031861921 -46.405753127854041 0 -46.405753127854041 -33.40393032216889 0 0 0 0 1.0061553908844871 -65.132030937824311 0 -65.132030937824311 -66.307876507382389 0 0 0 0 -55.338236824371961 -75.086456688742146 0 -75.086456688742146 -41.865276817615552 0 0 0 0 49.217991273784264 -57.571541194560041 0 -57.571541194560041 -2.1903839974729635 0 0 0 0 -0.1690820110352913 -0.32288354214550274 0 -0.32288354214550274 0.21934461832417895 0 0 0 0 -196.71053866863895 -167.50973087241982 0 -167.50973087241982 1.0953365702598059 0 0 0 0 14.312727557628932 31.340652829367173 0 31.340652829367173 30.32383422957173 0 0 0 0 -0.56231475503167871 -0.5395738476378078 0 -0.5395738476378078 -0.11194795678772707 0 0 0 0 -5.6297667968901806 2.6881562616472365 0 2.6881562616472365 0.0012805940295494414 0 0 0 0 -44.512869449795289 5.8112930751949534 0 5.8112930751949534 73.74489702406936 0 0 0 0 -14.94855929170717 -18.835122127144132 0 -18.835122127144132 -24.749496037905374 0 0 0 0 -13.884433097038709 -9.2102302420498745 0 -9.2102302420498745 8.5799062215264712 0 0 0 0 -1.4491700998196393 19.325761229094496 0 19.325761229094496 -116.22043651635795 0 0 0 0 6.8552601743049308 -40.754739327538118 0 -40.754739327538118 -40.038178915807293 0 0 0 0 33.913051557581639 -1.6857297106362239 0 -1.6857297106362239 -27.824079933642679 0 0 0 0 -84.878916563932762 -34.470665442867357 0 -34.470665442867357 102.91971477409606 0 0 0 0 16.005855919793248 -15.471152071012511 0 -15.471152071012511 14.371549651943496 0 0 0 0 40.885002234268541 -21.23130275888434 0 -21.23130275888434 0.050471532148601818 0 0 0 0 -1.3635386465246668 -1.0069943846748934 0 -1.0069943846748934 -0.22726621322299145 0 0 0 0 -211.94329062801808 -139.32007807281843 0 -139.32007807281843 -88.769490271725772 0 0 0 0 61.625252818043009 -10.716366880946225 0 -10.716366880946225 -56.330723964398203 0 0 0 0 -148.54074342676176 -98.692142325734494 0 -98.692142325734494 -19.817939471688078 0 0 0 0 -12.426853836457667 -100.69015756983754 0 -100.69015756983754 -140.62720017457286 0 0 0 0 -33.145703957459432 -27.114548009598252 0 -27.114548009598252 8.5971099929902266 0 0 0 0 -10.475536793099309 -90.369720930659241 0 -90.369720930659241 -52.132421402726322 0 0 0 0 23.187541498941641 -140.89789104992178 0 -140.89789104992178 -86.686408549044245 0 0 0 0 23.716322082940845 -98.987813761824441 0 -98.987813761824441 -89.204517139551172 0 0 0 0 -42.030729477351088 -109.2991235579475 0 -109.2991235579475 -54.859085822879933 0 0 0 0 -5.6294989908375328 -147.76878672002749 0 -147.76878672002749 -69.552411583731555 0 0 0 0 0.55962046340972904 -165.45535129851464 0 -165.45535129851464 -38.135879855040912 0 0 0 0 -4.7747859210011541 -182.03955096036043 0 -182.03955096036043 -81.18134832533849 0 0 0 0 -30.392873936610513 -173.00969275110765 0 -173.00969275110765 -25.167017357856821 0 0 0 0 10.528224268248835 -178.61654923474543 0 -178.61654923474543 -80.726117870046664 0 0 0 0 81.129995735849548 -159.25885166096487 0 -159.25885166096487 -117.02019278889361 0 0 0 0 36.622327829963318 -174.95333735554402 0 -174.95333735554402 -120.41205844246906 0 0 0 0 30.932837499202407 -196.13350419603239 0 -196.13350419603239 -102.69805106599233 0 0 0 0 103.66697030162788 -160.86820223236828 0 -160.86820223236828 -66.548930785626908 0 0 0 0 72.148308989612332 -126.1416500446212 0 -126.1416500446212 -102.54953003531409 0 0 0 0 41.450131053208011 -139.71394086609837 0 -139.71394086609837 -105.92725788298776 0 0 0 0 -27.97276501323995 -69.228525211377018 0 -69.228525211377018 -96.927294859537824 0 0 0 0 77.40530227572242 -70.214081693447042 0 -70.214081693447042 -27.123669108124886 0 0 0 0 47.60871323396907 -119.02053128600983 0 -119.02053128600983 -105.9535620082097 0 0 0 0 3.6451746533875848 -26.505272214842989 0 -26.505272214842989 -140.67864563437342 0 0 0 0 -183.40720205196459 -48.302292813531039 0 -48.302292813531039 -71.020218753692461 0 0 0 0 -167.28514904181347 -169.46816192516587 0 -169.46816192516587 -139.98896796611552 0 0 0 0 -37.407347576620396 -88.001138076716416 0 -88.001138076716416 -75.615814879519348 0 0 0 0 -118.62608452842198 -120.41381260474509 0 -120.41381260474509 -152.20267078427423 0 0 0 0 -106.95088515516363 -130.39992779633758 0 -130.39992779633758 -143.73992612967777 0 0 0 0 -106.59524967481411 -115.60110290526791 0 -115.60110290526791 -180.43483051292242 0 0 0 0 -109.79686505897371 -125.43683418640558 0 -125.43683418640558 -153.2185955744244 0 0 0 0 -110.31615968688106 -121.41190036947614 0 -121.41190036947614 -147.93412593747416 0 0 0 0 -132.3299124990649 -118.60693093751888 0 -118.60693093751888 -71.67890307502239 0 0 0 0 -129.78649975421072 -146.35566911048795 0 -146.35566911048795 -91.883771006774623 0 0 0 0 -108.95691083078509 -119.32052257680152 0 -119.32052257680152 -81.896317834905858 0 0 0 0 -108.28262972561913 -140.8076617633966 0 -140.8076617633966 -112.16051319245526 0 0 0 0 -107.06379389702261 -132.58446950913822 0 -132.58446950913822 -145.48974911153482 0 0 0 0 -109.59054031920641 -135.60210420152544 0 -135.60210420152544 -79.165374701808105 0 0 0 0 -108.41333928136282 -119.46301404777114 0 -119.46301404777114 -89.984068503608796 0 0 0 0 -109.61867771083598 -123.98831434011481 0 -123.98831434011481 -140.309882871029 0 0 0 0 -109.6843202170603 -140.51159549428303 0 -140.51159549428303 -40.150818489117228 0 0 0 0 -108.6149520339377 -124.42760830262114 0 -124.42760830262114 -51.032837775008375 0 0 0 0 -116.4049408208316 -138.95163638621852 0 -138.95163638621852 -65.64152250331972 0 0 0 0 -107.14185566598235 -144.93436351417586 0 -144.93436351417586 -35.762188267386591 0 0 0 0 -102.89981168342979 -113.54428905556415 0 -113.54428905556415 -71.22505734356298 0 0 0 0 -114.06394619243633 -135.69933622077406 0 -135.69933622077406 -49.14769908659764 0 0 0 0 -111.8474572744226 -123.07212891747804 0 -123.07212891747804 -32.791616012964369 0 0 0 0 -99.282658615312698 -129.89020279371516 0 -129.89020279371516 -17.412797735312779 0 0 0 0 -89.968851281484149 -136.90952995593034 0 -136.90952995593034 -28.430145469341369 0 0 0 0 -102.61303881433787 -147.12577406648506 0 -147.12577406648506 -9.0155551578609447 0 0 0 0 -99.354638475340835 -151.93987268547426 0 -151.93987268547426 -6.0195793496654915 0 0 0 0 -95.335503727315881 -152.02032467629942 0 -152.02032467629942 -14.751946236923686 0 0 0 0 -107.37080341928504 -136.48283176280347 0 -136.48283176280347 -18.878775005374337 0 0 0 0 -86.027529267071486 -76.713738793157972 0 -76.713738793157972 -59.079421131885283 0 0 0 0 -108.12515820175429 -121.46937343714717 0 -121.46937343714717 -37.237121015319644 0 0 0 0 -84.719886757103723 -106.8564090403961 0 -106.8564090403961 -29.235467280939702 0 0 0 0 -41.922338187411242 -107.80077837558019 0 -107.80077837558019 -42.735937221532367 0 0 0 0 -71.326340186205741 -101.93199906202324 0 -101.93199906202324 -22.490180166645587 0 0 0 0 -63.738470223850982 -118.96386859902668 0 -118.96386859902668 -3.6265115717924346 0 0 0 0 -76.530720422447757 -116.97571000849439 0 -116.97571000849439 -10.307984059607406 0 0 0 0 -68.9202259512289 -117.58697452016656 0 -117.58697452016656 -22.072958640637808 0 0 0 0 -42.05843620648966 -104.68279577351313 0 -104.68279577351313 -10.497577095741946 0 0 0 0 -73.432382129126154 -100.89423893349976 0 -100.89423893349976 10.99143665299016 0 0 0 0 -73.419539220964978 -101.2561816969606 0 -101.2561816969606 20.990745608432917 0 0 0 0 -65.915770829734811 -157.02518271440567 0 -157.02518271440567 -13.190847778117131 0 0 0 0 -87.253588799199861 -163.83183357740745 0 -163.83183357740745 -2.8769943472916566 0 0 0 0 -90.468619518887806 -150.33977946363939 0 -150.33977946363939 -13.783877575620863 0 0 0 0 -74.254135868034609 -137.37253104828869 0 -137.37253104828869 -15.343466386837463 0 0 0 0 -64.261412132826081 -131.11528353448011 0 -131.11528353448011 -17.420216047491294 0 0 0 0 -51.821901163403254 -133.90213043722929 0 -133.90213043722929 -24.395544057621009 0 0 0 0 -1.4704611205902438 -109.60679515106131 0 -109.60679515106131 -12.681436197257426 0 0 0 0 -74.737870118589854 -168.68022558039047 0 -168.68022558039047 -15.661671633426977 0 0 0 0 -82.057654262135429 -167.45094692690418 0 -167.45094692690418 -15.809826421278558 0 0 0 0 54.108937416646313 -111.96050157532045 0 -111.96050157532045 -42.32225586249524 0 0 0 0 -7.2282553499235291 -173.39321639228001 0 -173.39321639228001 -100.43212720205338 0 0 0 0 -32.405223455394207 -178.97341505361055 0 -178.97341505361055 -62.676849606279575 0 0 0 0 64.24390157757216 -15.925315699722887 0 -15.925315699722887 51.396413087017208 0 0 0 0 -30.623725465824919 -99.088954847049536 0 -99.088954847049536 -12.622744212798352 0 0 0 0 62.598515948884199 -25.339554535335196 0 -25.339554535335196 0.049697378504788503 0 0 0 0 52.745380159009528 -12.157831895191975 0 -12.157831895191975 100.69234674237123 0 0 0 0 -28.367284236300293 -122.53912177944767 0 -122.53912177944767 0.13718319973167331 0 0 0 0 -83.152800174575532 -135.95086623140014 0 -135.95086623140014 130.76946974222483 0 0 0 0 -0.36027021039791229 -0.89207951390316964 0 -0.89207951390316964 -0.40427336927008639 0 0 0 0 -96.464257414675103 -128.55678828180498 0 -128.55678828180498 59.770432861710105 0 0 0 0 -25.603073822494309 -60.466540135739706 0 -60.466540135739706 43.710841714299022 0 0 0 0 -100.8779839429817 -53.863076811820974 0 -53.863076811820974 194.42508696914956 0 0 0 0 -136.64315645567808 -105.65622931957114 0 -105.65622931957114 121.65241542995682 0 0 0 0 -0.41487466245467175 -0.83826984873141086 0 -0.83826984873141086 -0.30525740185805716 0 0 0 0 -94.047551272879105 -174.19739560171729 0 -174.19739560171729 0.3529053637648758 0 0 0 0 -149.04618765254872 -161.68103997792696 0 -161.68103997792696 40.249834592885236 0 0 0 0 -35.454975454373141 -154.73946199551983 0 -154.73946199551983 -1.3127749771729214 0 0 0 0 -70.39681905902205 -153.27780964728845 0 -153.27780964728845 15.066076613082259 0 0 0 0 -62.990108821058925 -167.01517796788767 0 -167.01517796788767 -0.07413898089362192 0 0 0 0 -91.387635774564842 -151.15664345560162 0 -151.15664345560162 15.427930660006496 0 0 0 0 -60.152394484420597 -139.05288498728987 0 -139.05288498728987 10.374013289716459 0 0 0 0 -26.418948407991479 -154.25863905782444 0 -154.25863905782444 -15.196806980367001 0 0 0 0 -59.590833036171894 -151.12191098932047 0 -151.12191098932047 4.5897670065423881 0 0 0 0 -31.708363976016109 -139.99390386221455 0 -139.99390386221455 -35.166848357421259 0 0 0 0 -31.435798418593269 -128.18480333115104 0 -128.18480333115104 -32.192506929039155 0 0 0 0 -63.751963717164244 -124.11321370950009 0 -124.11321370950009 -8.5405814689765975 0 0 0 0 -5.1370888324479864 -151.2346642115258 0 -151.2346642115258 -20.252375389054578 0 0 0 0 -26.715990541199233 -157.29227518197149 0 -157.29227518197149 -37.870257591323792 0 0 0 0 -24.22982304830299 -170.02628074957647 0 -170.02628074957647 0.61709721366605663 0 0 0 0 -34.702896455467339 -149.31595678541225 0 -149.31595678541225 16.873911410295477 0 0 0 0 -11.509681045122335 -152.51261000101113 0 -152.51261000101113 -7.2516948490110735 0 0 0 0 -13.492136518152599 -150.97634082680156 0 -150.97634082680156 29.86314494628823 0 0 0 0 -6.6408400374580978 -160.12705589268444 0 -160.12705589268444 0.038078450314060319 0 0 0 0 92.554677057379308 -133.58331400119823 0 -133.58331400119823 0.013257740791244029 0 0 0 0 106.49247716723033 -153.30712276609665 0 -153.30712276609665 -3.0931724790652879 0 0 0 0 24.38532718427652 -138.12681097160021 0 -138.12681097160021 47.493416471666933 0 0 0 0 25.850544507361946 -134.28696637075745 0 -134.28696637075745 5.8487329940380732 0 0 0 0 -139.48573568140182 -163.81919352899604 0 -163.81919352899604 -11.223467855208582 0 0 0 0 37.216120620315905 -105.02460948587759 0 -105.02460948587759 -0.015581236641082796 0 0 0 0 85.883413620265856 -149.31249577970493 0 -149.31249577970493 39.439168385979428 0 0 0 0 0.2149243345544094 -0.9405740226297894 0 -0.9405740226297894 0.049123468603063714 0 0 0 0 334.58003091269416 -116.41740264557757 0 -116.41740264557757 -28.308240684522389 0 0 0 0 -405.89326384940318 -175.25635829634757 0 -175.25635829634757 59.781853035777203 0 0 0 0 -256.77154468677372 -31.434178641247399 0 -31.434178641247399 12.88192470503418 0 0 0 0 -75.266512006980065 -77.357107760841245 0 -77.357107760841245 -77.794041429636309 0 0 0 0 94.141360710221875 -33.049082344410635 0 -33.049082344410635 16.618262154073818 0 0 0 0 64.245185739781391 -64.197174568412265 0 -64.197174568412265 -4.4104900505540172 0 0 0 0 -2.1676558260167624 -41.311675067583792 0 -41.311675067583792 2.499339404532293 0 0 0 0 0.78739062790364445 -2.481662247292423 0 -2.481662247292423 -0.90043331813797067 0 0 0 0 -232.06376400412415 -145.07555774211346 0 -145.07555774211346 -14.991253218255224 0 0 0 0 16.409022997001443 -170.20883348543884 0 -170.20883348543884 -3.6955232647478624 0 0 0 0 15.876437515851762 -116.31790100666058 0 -116.31790100666058 10.602055595329148 0 0 0 0 14.292510241110108 -138.51544091940286 0 -138.51544091940286 -16.616101278075803 0 0 0 0 -23.099069663277163 -173.04080459877196 0 -173.04080459877196 -49.576019000101951 0 0 0 0 -23.274926259662379 -222.92984719145852 0 -222.92984719145852 -126.91224123301981 0 0 0 0 -124.10091239355108 -190.26072332647982 0 -190.26072332647982 -48.463561322253099 0 0 0 0 -53.894499183960193 -132.21929574591195 0 -132.21929574591195 -47.348335817820043 0 0 0 0 -91.736372609763066 -125.86006448081753 0 -125.86006448081753 -46.57705129666283 0 0 0 0 -53.955264316660788 -119.3129645458248 0 -119.3129645458248 -15.234464262672191 0 0 0 0 -97.668323298907694 -65.090894214798027 0 -65.090894214798027 -0.51459104188643323 0 0 0 0 -61.798569545945384 -108.65677604768439 0 -108.65677604768439 -11.195638392200635 0 0 0 0 -44.342005488311429 -32.081785817819764 0 -32.081785817819764 -16.413078378698629 0 0 0 0 1.0500916803108449 -2.7022303796300937 0 -2.7022303796300937 -3.0352671994359213 0 0 0 0 -202.77793255637948 -55.312431744127935 0 -55.312431744127935 0.088582232592216315 0 0 0 0 1.0325801879992151 -2.0919976440617614 0 -2.0919976440617614 -4.8491250643294563 0 0 0 0 -106.44411456439195 -63.502634539228893 0 -63.502634539228893 -110.6729814651444 0 0 0 0 -411.01385292418911 -143.37030940029126 0 -143.37030940029126 -9.0004319521449361 0 0 0 0 -169.91478627428984 -124.39503759944637 0 -124.39503759944637 -151.73885697872356 0 0 0 0 -260.16396029179123 -332.70953418244244 0 -332.70953418244244 -294.4663243926525 0 0 0 0 -123.29333402607108 -308.40240987580728 0 -308.40240987580728 -267.35412371118349 0 0 0 0 99.902934469142565 -28.96004980619 0 -28.96004980619 -279.35304695724528 0 0 0 0 13.64550361335202 -170.04700018626454 0 -170.04700018626454 -132.41394458374816 0 0 0 0 -168.18512887955501 -191.40690906360271 0 -191.40690906360271 -94.483694303251468 0 0 0 0 59.771346532417738 -86.228930790553932 0 -86.228930790553932 12.790696201259379 0 0 0 0 275.24065687745542 -169.47355669515582 0 -169.47355669515582 73.794505575580843 0 0 0 0 375.95883799545527 -173.19295259332921 0 -173.19295259332921 73.197432016228049 0 0 0 0 292.35599376112788 -271.75699590824138 0 -271.75699590824138 -87.860968243592652 0 0 0 0 378.61354961823031 -197.46472667800799 0 -197.46472667800799 -26.088712355917778 0 0 0 0 301.45409749496986 -153.01645321445557 0 -153.01645321445557 10.078657761081558 0 0 0 0 -0.81933845092821267 -1.3109545409260273 0 -1.3109545409260273 -0.84615146961199628 0 0 0 0 -134.23379253999997 -114.9657147893422 0 -114.9657147893422 10.753511256855745 0 0 0 0 117.7068865378117 -180.47894646214809 0 -180.47894646214809 -177.32154633500249 0 0 0 0 142.39735948359635 -38.272142690982037 0 -38.272142690982037 28.871210609365335 0 0 0 0 35.155906394313888 -77.785225405265919 0 -77.785225405265919 -18.057483862909976 0 0 0 0 181.80175057699728 -87.968380548567097 0 -87.968380548567097 -55.487097610655837 0 0 0 0 49.5448910804202 -103.30089337757454 0 -103.30089337757454 -15.606643516764962 0 0 0 0 55.755937369380376 -77.759347052961857 0 -77.759347052961857 -17.864890028968148 0 0 0 0 -21.445270347970563 -73.377955277126603 0 -73.377955277126603 -9.5776185870872723 0 0 0 0 6.2349257984760698 -74.517943505185031 0 -74.517943505185031 -13.988283902515832 0 0 0 0 38.171636283830821 -105.86744851941603 0 -105.86744851941603 -34.678996413207642 0 0 0 0 0.079763858146861821 -90.388793707135846 0 -90.388793707135846 -54.301762238367701 0 0 0 0 36.403168475656912 -106.86218994795672 0 -106.86218994795672 -18.623888038018777 0 0 0 0 118.32232595460391 -71.856564715601053 0 -71.856564715601053 -27.039750791485517 0 0 0 0 91.244851729507218 -98.216721002711893 0 -98.216721002711893 -25.841473208831701 0 0 0 0 132.33748611661053 -80.823545724500946 0 -80.823545724500946 -27.293695633121388 0 0 0 0 153.72615801893016 -43.936540340061583 0 -43.936540340061583 6.043520620718482 0 0 0 0 158.7795426671014 -42.511653364668746 0 -42.511653364668746 -13.199214419525561 0 0 0 0 122.19511073529156 -69.367203610108845 0 -69.367203610108845 -23.443184012922757 0 0 0 0 99.143850929411883 -59.641498594135555 0 -59.641498594135555 -8.1495658253224974 0 0 0 0 92.813185188075295 -67.277318833534082 0 -67.277318833534082 -17.129275012986909 0 0 0 0 50.653614154627576 -65.882053014960547 0 -65.882053014960547 -17.124378682972747 0 0 0 0 -0.84679848871174634 -3.5437266288385523 0 -3.5437266288385523 -2.7163619444987006 0 0 0 0 38.268691077308205 -30.392658058870438 0 -30.392658058870438 -5.9638496956231393 0 0 0 0 117.25508754374187 -166.56540399017922 0 -166.56540399017922 216.31993894837797 0 0 0 0 58.022668100636338 -29.901801629699548 0 -29.901801629699548 -2.1944716835314466 0 0 0 0 72.071124542057078 -21.168584140743405 0 -21.168584140743405 -18.04710896495817 0 0 0 0 1.7739033128321053 -4.9506510251529594 0 -4.9506510251529594 -1.2872405115324383 0 0 0 0 176.01649252708762 -38.210277332601436 0 -38.210277332601436 -21.094654093565623 0 0 0 0 0.10085167474626647 -0.18475833857166535 0 -0.18475833857166535 -0.020165474619901147 0 0 0 0 22.294102813494874 2.0438130740585621 0 2.0438130740585621 2.2334615264844615 0 0 0 0 27.118145859450806 -3.2072384660395983 0 -3.2072384660395983 6.0707267351435803 0 0 0 0 144.79847438900856 -16.213060787598351 0 -16.213060787598351 -3.5225260660772619 0 0 0 0 28.586382436264557 -0.59772144449834741 0 -0.59772144449834741 -1.2532136120735231 0 0 0 0 261.46035477054215 -12.775545076944582 0 -12.775545076944582 -25.441326430698609 0 0 0 0 -38.733050987314527 -72.066034587642207 0 -72.066034587642207 -23.222257372057356 0 0 0 0 1.8758607649394559 0.095648867682489147 0 0.095648867682489147 0.24644488993869373 0 0 0 0 2.1229184182891059 -4.5834294898430645 0 -4.5834294898430645 -1.5075532337635735 0 0 0 0 202.44821654977932 4.1554453512908367 0 4.1554453512908367 6.6916482388942029 0 0 0 0 140.25052924719739 -44.88269349930124 0 -44.88269349930124 -13.874862867665797 0 0 0 0 181.71770833110759 -60.803602830119416 0 -60.803602830119416 -28.530878873749316 0 0 0 0 350.0995885926161 4.0276559364087916 0 4.0276559364087916 -1.232468830407015 0 0 0 0 218.1681827844543 -21.10821505817421 0 -21.10821505817421 3.2212447333295131 0 0 0 0 225.37966903538882 -20.283711600806782 0 -20.283711600806782 -23.630016204438107 0 0 0 0 302.31068802581012 34.452002427675325 0 34.452002427675325 -14.108377135913088 0 0 0 0 0.9340573047863483 -1.9076206616738052 0 -1.9076206616738052 1.9212157423030618 0 0 0 0 -106.22728484960589 -29.380744004631197 0 -29.380744004631197 -14.893465595119778 0 0 0 0 -11.819820228068238 -88.140505500712607 0 -88.140505500712607 -14.685306853443763 0 0 0 0 -126.19326622448079 -51.444067048678335 0 -51.444067048678335 -10.103451433747068 0 0 0 0 126.18919889827703 -96.739468195481095 0 -96.739468195481095 -42.739051899251535 0 0 0 0 84.45001879884785 -64.346482210572503 0 -64.346482210572503 -17.595913101516089 0 0 0 0 172.81607036990317 -27.151148495506277 0 -27.151148495506277 -19.705401746671669 0 0 0 0 172.11141682865775 -101.615938663821 0 -101.615938663821 -32.494487436470081 0 0 0 0 39.810663104848004 -131.29739614656364 0 -131.29739614656364 -38.347731194289736 0 0 0 0 -70.361501441762812 -55.715469163596026 0 -55.715469163596026 -9.6814739297865344 0 0 0 0 -18.247532013395357 -46.520272066067264 0 -46.520272066067264 33.924163920626597 0 0 0 0 -50.08629422844615 -118.2409054668824 0 -118.2409054668824 -12.848763346493797 0 0 0 0 112.47461057900432 -135.32258868798181 0 -135.32258868798181 -12.414599457228178 0 0 0 0 171.64972481565445 -37.255120687746739 0 -37.255120687746739 -32.412702394167354 0 0 0 0 165.95859572830034 -22.626658975520968 0 -22.626658975520968 92.592480820239871 0 0 0 0 -132.48540088601851 -54.55178410214512 0 -54.55178410214512 21.08495409583702 0 0 0 0 -8.5031252560265784 -103.4936435839445 0 -103.4936435839445 0.14948831054839251 0 0 0 0 21.87345919591877 -7.9967180942048799 0 -7.9967180942048799 -23.102587088331347 0 0 0 0 1.4895065918878272 -1.3400264223125982 0 -1.3400264223125982 -2.4779657193702107 0 0 0 0 -212.81266955783244 -72.003318715047158 0 -72.003318715047158 40.804035219851357 0 0 0 0 -15.47515057003784 -0.013183963962546841 0 -0.013183963962546841 47.930501830342109 0 0 0 0 -222.51366523342222 15.162305252377337 0 15.162305252377337 -45.630340846540548 0 0 0 0 -123.41358078890789 -91.506804253165683 0 -91.506804253165683 -32.944920909563734 0 0 0 0 221.83571334156522 -81.451356759906957 0 -81.451356759906957 23.349797748389392 0 0 0 0 0.49116624252124419 -0.35586427064851023 0 -0.35586427064851023 0.73337314558956734 0 0 0 0 320.22399321018884 52.865504244327894 0 52.865504244327894 50.173648140920704 0 0 0 0 638.136188241127 4.8928685227456299 0 4.8928685227456299 -44.853299579299346 0 0 0 0 403.27685997101162 -71.732634924770537 0 -71.732634924770537 -33.288522913144334 0 0 0 0 296.35200485667519 -110.06344292299491 0 -110.06344292299491 86.524286006573675 0 0 0 0 366.11326081359539 -36.091757303347549 0 -36.091757303347549 -0.15487733623558597 0 0 0 0 169.28818401086482 -128.67695895870293 0 -128.67695895870293 55.907333419869246 0 0 0 0 -381.77520712141478 -27.415682028322948 0 -27.415682028322948 83.404285730139236 0 0 0 0 -0.28882080920318293 -0.24443944970394593 0 -0.24443944970394593 -0.59677671539091648 0 0 0 0 -178.83111177004184 -128.47045719846346 0 -128.47045719846346 -0.087120661692097201 0 0 0 0 130.85596667858317 -4.7027427634102423 0 -4.7027427634102423 -8.0430122975376435 0 0 0 0 47.829151894840834 -90.248111677054112 0 -90.248111677054112 -32.651999520565369 0 0 0 0 -165.40237547635047 -107.47092419714545 0 -107.47092419714545 29.854977952498302 0 0 0 0 12.043522168185518 -89.441515691416498 0 -89.441515691416498 -33.497040594844293 0 0 0 0 16.207620543674579 -113.06684287850521 0 -113.06684287850521 55.537639033587766 0 0 0 0 -121.88410246048215 -81.217388076534917 0 -81.217388076534917 32.134361292064568 0 0 0 0 307.68645105941687 -189.72369689603693 0 -189.72369689603693 32.849803146814338 0 0 0 0 138.76116423269923 -142.68316994134329 0 -142.68316994134329 62.93563154936146 0 0 0 0 135.25497630254085 -99.149741786979575 0 -99.149741786979575 -5.7886579701034862 0 0 0 0 287.80988279599751 -205.40417609331234 0 -205.40417609331234 48.468827463748312 0 0 0 0 194.77007627074624 -150.85434853770084 0 -150.85434853770084 0.070679235612260527 0 0 0 0 412.19527692962311 -54.338852171084 0 -54.338852171084 10.338094607579478 0 0 0 0 413.8595553686128 -24.942627083279149 0 -24.942627083279149 166.89569193570787 0 0 0 0 417.75346591895885 -75.942876484926501 0 -75.942876484926501 202.29245991690186 0 0 0 0 552.9091609035122 -148.46571758572099 0 -148.46571758572099 -16.727782649037181 0 0 0 0 277.12281334370255 -75.013763958270829 0 -75.013763958270829 -0.060716343910826254 0 0 0 0 1.2345702497686935 -1.739822141567231 0 -1.739822141567231 2.0151991444696549 0 0 0 0 884.02437281161656 -94.39814723804011 0 -94.39814723804011 -34.750769707366999 0 0 0 0 -55.439596917122799 -186.62421266554338 0 -186.62421266554338 155.63791477680388 0 0 0 0 131.33134356473647 -126.09532604549986 0 -126.09532604549986 54.691593885101611 0 0 0 0 86.888929154941252 -196.46479042624105 0 -196.46479042624105 82.022287685897027 0 0 0 0 507.45863342715347 -179.42345364592256 0 -179.42345364592256 253.13228830035951 0 0 0 0 516.57827238552818 -86.143494980220567 0 -86.143494980220567 33.07347558357651 0 0 0 0 611.66792592920956 -108.14844451329373 0 -108.14844451329373 21.983645312677254 0 0 0 0 714.91114019553697 -271.41548172229886 0 -271.41548172229886 80.280952716868342 0 0 0 0 426.57484534730702 -135.09434287015756 0 -135.09434287015756 25.950255868647218 0 0 0 0 441.14433420832756 -180.03945225995449 0 -180.03945225995449 96.897697393367707 0 0 0 0 306.85376669450125 -184.72664827917106 0 -184.72664827917106 59.494770713126854 0 0 0 0 444.83257683245438 -164.90076220140645 0 -164.90076220140645 2.3450953336941893 0 0 0 0 549.71967332737313 -113.35206325826584 0 -113.35206325826584 -7.0603442106694274 0 0 0 0 436.48037002579531 -155.43997692599442 0 -155.43997692599442 58.04659217482822 0 0 0 0 381.10545193658891 -127.75824521943832 0 -127.75824521943832 51.275697774248329 0 0 0 0 408.58191482256461 -173.40826163527345 0 -173.40826163527345 -31.349545498731459 0 0 0 0 317.15834308774538 -184.99268098504035 0 -184.99268098504035 39.743735319552798 0 0 0 0 -46.960511849255056 149.30590570830535 0 149.30590570830535 -104.19427814907976 0 0 0 0 898.30187984146698 28.455920536505346 0 28.455920536505346 -63.903256548594072 0 0 0 0 -0.18781564681371332 0.076353259880750812 0 0.076353259880750812 0.75507181253027511 0 0 0 0 538.20910956294301 -77.327873272606666 0 -77.327873272606666 27.377235698480945 0 0 0 0 674.1495524198624 122.96355312492233 0 122.96355312492233 81.771527284567128 0 0 0 0 344.94288713861897 -2.8641147357502632 0 -2.8641147357502632 96.038668883524224 0 0 0 0 262.58186847286856 40.418424972536741 0 40.418424972536741 -70.293124569157953 0 0 0 0 -90.718649711456237 -78.738234479229504 0 -78.738234479229504 74.350464886367263 0 0 0 0 2.4844667665273934 -4.6834386565647659 0 -4.6834386565647659 5.3357506462617579 0 0 0 0 295.05216511321214 -86.246335988640567 0 -86.246335988640567 -26.211330372178054 0 0 0 0 31.933167653294731 -194.20063219614713 0 -194.20063219614713 53.121565440042104 0 0 0 0 378.10956703986812 -19.766860727628227 0 -19.766860727628227 -125.69836755229699 0 0 0 0 318.79081386817961 -165.3708910124551 0 -165.3708910124551 -19.532546052577345 0 0 0 0 284.88121790873447 -66.476693941014673 0 -66.476693941014673 -45.849123353834898 0 0 0 0 477.10449180575961 -90.926857171692973 0 -90.926857171692973 -44.655075879807555 0 0 0 0 332.65674154939165 -168.26285461021826 0 -168.26285461021826 -37.769287858285679 0 0 0 0 274.29768846389197 -197.06230721453721 0 -197.06230721453721 -19.648098625100829 0 0 0 0 317.35793157697651 -204.46464639279793 0 -204.46464639279793 -41.998067870976229 0 0 0 0 192.4022072240632 -122.16105557919218 0 -122.16105557919218 -45.775918723159293 0 0 0 0 293.14057901791784 -173.25271173236979 0 -173.25271173236979 -55.159692678380907 0 0 0 0 304.32070094174651 -197.07755948312342 0 -197.07755948312342 -26.482223415125191 0 0 0 0 -2.5627887977439059 -46.109029589843885 0 -46.109029589843885 -62.760210115899099 0 0 0 0 34.158484144366412 -64.23941963958714 0 -64.23941963958714 -53.973170579472935 0 0 0 0 102.59711058364383 -165.45175936283749 0 -165.45175936283749 -0.79531055773986736 0 0 0 0 6.3610975582751053 -132.99576613272257 0 -132.99576613272257 2.5863375674653071 0 0 0 0 154.85302675281127 -177.00023823332049 0 -177.00023823332049 16.784308997521293 0 0 0 0 40.949704525966581 -89.990234249956757 0 -89.990234249956757 -3.8630383386007452 0 0 0 0 162.80275091758631 -152.08730820916026 0 -152.08730820916026 40.965173417904225 0 0 0 0 256.46901173852757 -198.52245817327821 0 -198.52245817327821 -3.7676479446654412 0 0 0 0 319.52764386966601 -180.97048264764544 0 -180.97048264764544 -25.214284039051563 0 0 0 0 -0.12333231690530387 0.22730132824524851 0 0.22730132824524851 -0.46027882726778557 0 0 0 0 -142.96880215983401 -16.173930235161606 0 -16.173930235161606 32.01451735223236 0 0 0 0 -70.294685506172755 -6.5436548994530312 0 -6.5436548994530312 33.279802327315338 0 0 0 0 -0.16029951042359708 0.43570459262233641 0 0.43570459262233641 -0.16167935680416434 0 0 0 0 -67.416202827142385 -0.63494955606671954 0 -0.63494955606671954 23.828403196697764 0 0 0 0 -47.470238366529884 -5.1389218366766727 0 -5.1389218366766727 -0.011309963589155814 0 0 0 0 -21.499993607409124 -23.9461856179405 0 -23.9461856179405 13.199668737430329 0 0 0 0 -29.034405570754643 -32.060103967009127 0 -32.060103967009127 2.5100887249391235 0 0 0 0 -74.700047337872093 -19.050424596787707 0 -19.050424596787707 21.278598022598999 0 0 0 0 -69.661850004283224 -64.954194795837793 0 -64.954194795837793 -15.440619796143437 0 0 0 0 -5.7914421352870704 -20.65730283200719 0 -20.65730283200719 -19.066892868107971 0 0 0 0 -28.312367570642891 -24.862866396802019 0 -24.862866396802019 4.3217659019501298 0 0 0 0 0.41401930635583994 -5.788294039441098 0 -5.788294039441098 8.4537866146056331 0 0 0 0 -1.5735948793026182 3.6258354580695595 0 3.6258354580695595 15.409820577746359 0 0 0 0 2.9317069730471985 -19.911996012864847 0 -19.911996012864847 24.968530490252306 0 0 0 0 -18.502858316904621 -15.268346781022046 0 -15.268346781022046 26.693461820414086 0 0 0 0 1.9160473331066896 -12.690152032742844 0 -12.690152032742844 4.8348221370270039 0 0 0 0 32.271969830919261 -23.333027859565391 0 -23.333027859565391 0.11145982510788599 0 0 0 0 -12.408041001226366 -44.916150462891665 0 -44.916150462891665 24.826176461268915 0 0 0 0 111.14440120932159 -76.783955303044422 0 -76.783955303044422 29.280583609811373 0 0 0 0 137.56446083546871 -155.27492019775309 0 -155.27492019775309 96.573718242153518 0 0 0 0 63.668006798121496 -78.777554553915252 0 -78.777554553915252 54.880018684083552 0 0 0 0 14.39527138638914 -10.233915125891144 0 -10.233915125891144 30.883855784263176 0 0 0 0 73.110691232096542 -70.954894546734067 0 -70.954894546734067 58.178469795264391 0 0 0 0 -13.577351451507639 -17.347162222432416 0 -17.347162222432416 28.313163869715936 0 0 0 0 11.139196286827428 -15.403514119387182 0 -15.403514119387182 17.443700176652783 0 0 0 0 -38.241199530579252 -66.280915062947315 0 -66.280915062947315 47.439038378364785 0 0 0 0 39.736317009030245 -105.35175663010523 0 -105.35175663010523 66.90510131312567 0 0 0 0 -90.564571903270007 -27.899822357499943 0 -27.899822357499943 32.301778571756586 0 0 0 0 -6.6175489936340455 -6.4989210040293983 0 -6.4989210040293983 -11.245758699536964 0 0 0 0 -24.497984084758514 9.9071768661447095 0 9.9071768661447095 1.6259344233258162 0 0 0 0 -22.536330446278953 2.5054480869184772 0 2.5054480869184772 -15.399097370223899 0 0 0 0 -21.460972215939364 2.0425977745244381 0 2.0425977745244381 -37.150049000498257 0 0 0 0 -53.597475782930815 -30.772013858990249 0 -30.772013858990249 -5.3801405795802566 0 0 0 0 -18.180088495269956 -19.200042530454084 0 -19.200042530454084 -42.576135979132232 0 0 0 0 -45.684253878001073 -6.1787809467969055 0 -6.1787809467969055 7.0473402134921344 0 0 0 0 0.51122530315079207 -0.86388385363462916 0 -0.86388385363462916 2.7693040409196428 0 0 0 0 37.347280660452071 -13.520906562445134 0 -13.520906562445134 14.204221603933547 0 0 0 0 -19.90487662943633 -19.093080116781493 0 -19.093080116781493 -25.600525748969631 0 0 0 0 -10.060297449072095 -2.7016346508535207 0 -2.7016346508535207 -8.3741324787552003 0 0 0 0 31.035016155405174 -32.781246859509338 0 -32.781246859509338 0.6405690091469296 0 0 0 0 -19.530488811627947 -21.680737788617989 0 -21.680737788617989 -12.035800088558062 0 0 0 0 -7.6841285863793019 -4.3908368171905749 0 -4.3908368171905749 1.223208723575226 0 0 0 0 6.4410658151373354 4.345699517729372 0 4.345699517729372 1.8903272010938963 0 0 0 0 6.1664962354334421 -14.226408528278625 0 -14.226408528278625 24.010171325127885 0 0 0 0 10.730968184121593 -15.431291142600458 0 -15.431291142600458 -8.4844719895809249 0 0 0 0 12.74550797246593 -2.0501616999108592 0 -2.0501616999108592 -11.083505277940276 0 0 0 0 2.0234466137972049 7.119539750574404 0 7.119539750574404 -10.57107998747415 0 0 0 0 -1.6887282632960705 -7.3476158836238028 0 -7.3476158836238028 -14.901026195388113 0 0 0 0 4.1654159829840864 0.20672368304985866 0 0.20672368304985866 -5.6749529997105128 0 0 0 0 6.5136825076497189 2.0828581532368844 0 2.0828581532368844 -5.2803359147183073 0 0 0 0 5.4647477673588583 -0.33996645156548766 0 -0.33996645156548766 -10.544825908396888 0 0 0 0 32.584700727600648 -22.136771561916476 0 -22.136771561916476 -21.83053577620376 0 0 0 0 -0.49391615957421919 -0.58743821779267869 0 -0.58743821779267869 -0.99207065497729729 0 0 0 0 15.310500473144202 -4.8675226126888447 0 -4.8675226126888447 -13.949138228977063 0 0 0 0 -11.493790373977845 -42.117409924970161 0 -42.117409924970161 -30.872283885426441 0 0 0 0 15.768991018048837 6.8535094298640615 0 6.8535094298640615 7.1700044181197882 0 0 0 0 -20.663928448529987 -14.601340426027491 0 -14.601340426027491 -48.011275256138561 0 0 0 0 -90.580002316570244 -64.058753523228006 0 -64.058753523228006 27.608306802938387 0 0 0 0 -106.87718789064184 -31.708756880531837 0 -31.708756880531837 -29.153182114932861 0 0 0 0 -0.085906123391303033 0.03146223784982638 0 0.03146223784982638 -0.29873118913125296 0 0 0 0 -26.594544992498001 20.190420708646336 0 20.190420708646336 -126.90572816003623 0 0 0 0 -196.85432581578698 62.883706200859706 0 62.883706200859706 -27.815215674896081 0 0 0 0 -187.06717530301921 -40.178507013753915 0 -40.178507013753915 85.719517696928961 0 0 0 0 -22.364292229465718 -44.112565972904122 0 -44.112565972904122 -27.45835791751233 0 0 0 0 -12.26842482574466 -22.275755799330909 0 -22.275755799330909 -26.952875289770702 0 0 0 0 0.47133289220995778 -0.52352937628189267 0 -0.52352937628189267 0.49619746225428685 0 0 0 0 -35.62066873778457 30.100983809863806 0 30.100983809863806 100.22503761165899 0 0 0 0 -1.6143744823745845 -2.0118736464519449 0 -2.0118736464519449 -2.8535981332188101 0 0 0 0 -71.196560984184543 82.291534535441542 0 82.291534535441542 45.353598150817561 0 0 0 0 -22.153018918751513 -41.530474667709314 0 -41.530474667709314 0.73089672312926268 0 0 0 0 -34.730267546430696 -29.83834463337098 0 -29.83834463337098 -9.9719728542659141 0 0 0 0 -12.927576192467313 -11.280846924829348 0 -11.280846924829348 3.1985108200542527 0 0 0 0 -3.1865390521678076 -4.720204507701701 0 -4.720204507701701 -3.3943319290649399 0 0 0 0 -39.621556888920168 -9.0825798866690093 0 -9.0825798866690093 5.1626065141535946 0 0 0 0 -0.79971061107426067 -8.942918123673735 0 -8.942918123673735 4.7657082601044749 0 0 0 0 -13.713962740403076 -24.074594552806957 0 -24.074594552806957 13.486314924383805 0 0 0 0 19.324664413413757 0.43793977095856462 0 0.43793977095856462 2.7191449730598833 0 0 0 0 -6.3677914180516382 -20.759142667195192 0 -20.759142667195192 -2.2719119613889234 0 0 0 0 -13.884022345690937 -25.427865662352815 0 -25.427865662352815 2.8447708894350399 0 0 0 0 -15.053454294870789 2.0706030561696025 0 2.0706030561696025 -7.9315410869348852 0 0 0 0 -84.628334677554449 83.138429661548798 0 83.138429661548798 32.584973249591712 0 0 0 0 10.652221220481806 -61.136147194853038 0 -61.136147194853038 -61.174314055127979 0 0 0 0 9.6521142537402511 -13.797779867121932 0 -13.797779867121932 -15.93537374844891 0 0 0 0 -39.183470031617617 -32.116430632131596 0 -32.116430632131596 6.0609063860720198 0 0 0 0 54.20304526379141 -28.956299441344981 0 -28.956299441344981 27.261707198395015 0 0 0 0 0.64328297338628548 -7.2642349674092621 0 -7.2642349674092621 6.4435644860945871 0 0 0 0 -1.5804518160634622 -3.57997782850682 0 -3.57997782850682 5.8606695400710436 0 0 0 0 -34.66999611726169 -6.298910534769675 0 -6.298910534769675 24.251552833178721 0 0 0 0 -35.930686694661745 -3.1966549817552732 0 -3.1966549817552732 20.375894926175533 0 0 0 0 -18.797338643975309 -16.648815022719646 0 -16.648815022719646 17.434205105329966 0 0 0 0 60.665945666416519 -13.681630123752257 0 -13.681630123752257 -13.570775393931399 0 0 0 0 -35.231511464357027 -29.043807752775137 0 -29.043807752775137 -18.336577045183731 0 0 0 0 -31.345543867819288 -31.63545996861194 0 -31.63545996861194 -9.4682636317756987 0 0 0 0 -1.7829675167480694 -4.7910355799182796 0 -4.7910355799182796 0.43330623740152152 0 0 0 0 34.169629410675043 -18.113059417592922 0 -18.113059417592922 -36.227382964298158 0 0 0 0 0.77443818821870991 -33.562098367020553 0 -33.562098367020553 -21.593415467868908 0 0 0 0 -20.85256947515154 -2.3593083987502723 0 -2.3593083987502723 -17.725897045602323 0 0 0 0 -6.7747756039964582 -15.585050764763245 0 -15.585050764763245 -3.4634979167094446 0 0 0 0 -7.3319387379851957 -13.200945283480806 0 -13.200945283480806 1.4203378688049355 0 0 0 0 -8.3576559304747207 -15.260754291106423 0 -15.260754291106423 0.29850469484881614 0 0 0 0 -43.939433553507115 -8.9341588256393152 0 -8.9341588256393152 -12.943201446796593 0 0 0 0 -15.014477505069603 -11.982718997176079 0 -11.982718997176079 -3.7527143189679082 0 0 0 0 -20.875724257955881 -26.027435307760243 0 -26.027435307760243 -12.734944929907215 0 0 0 0 -7.3707305485010171 -13.133173114665761 0 -13.133173114665761 -3.2498984487867446 0 0 0 0 -1.3681213162053609 -10.411650194815593 0 -10.411650194815593 0.25466725762271381 0 0 0 0 -5.2612087476642717 -17.945324644599964 0 -17.945324644599964 -5.3525955997684633 0 0 0 0 -51.906803220339498 -20.868654940959459 0 -20.868654940959459 -13.524034745477366 0 0 0 0 -56.992604302105974 -10.971188023886498 0 -10.971188023886498 -9.0414669417514233 0 0 0 0 11.149812417484782 -56.111022347670996 0 -56.111022347670996 -16.75641645104588 0 0 0 0 28.387298515071222 -45.361897378780895 0 -45.361897378780895 -33.528368665192829 0 0 0 0 6.4750416516627762 -16.280900355434369 0 -16.280900355434369 -13.044170403076521 0 0 0 0 16.748402851787432 -49.260841301817891 0 -49.260841301817891 19.860492477992011 0 0 0 0 -18.728157030972397 -7.4087459902548289 0 -7.4087459902548289 -22.539956674305358 0 0 0 0 -67.844337830685618 -41.112545020308971 0 -41.112545020308971 -3.8104637518481468 0 0 0 0 -2.5894189843981259 -3.3892109380269986 0 -3.3892109380269986 -4.9706454828391031 0 0 0 0 -15.331963027447273 -15.559936488681842 0 -15.559936488681842 -16.883134907531712 0 0 0 0 -46.867223535623452 -54.321709312424218 0 -54.321709312424218 -12.174378779214749 0 0 0 0 5.9619049786961114 -4.5306366688146227 0 -4.5306366688146227 -3.3591678754582972 0 0 0 0 -14.188842674664556 -11.794154473386698 0 -11.794154473386698 -5.9202905083111546 0 0 0 0 -28.300105185526263 -10.345594285787229 0 -10.345594285787229 17.772006662884451 0 0 0 0 -8.9296616550454928 -14.244529114853322 0 -14.244529114853322 -24.473302377039545 0 0 0 0 -14.928844382828849 -12.044003675984946 0 -12.044003675984946 5.4762685316006845 0 0 0 0 -12.46585806789134 -12.441181932626634 0 -12.441181932626634 4.6058123006899194 0 0 0 0 -17.172512030245343 -17.854811104863984 0 -17.854811104863984 -7.1368607004351361 0 0 0 0 -8.1652219665411394 -10.158531492615111 0 -10.158531492615111 -20.464378752087214 0 0 0 0 -4.199847648756986 -20.323799953334856 0 -20.323799953334856 -1.7893336212091526 0 0 0 0 -0.81140353062801296 -22.265030098350508 0 -22.265030098350508 -6.0456151173057151 0 0 0 0 -13.386627619544015 -24.052778665452024 0 -24.052778665452024 -10.478322093867973 0 0 0 0 -14.068487427953642 -26.310123382678739 0 -26.310123382678739 -3.9930009488452924 0 0 0 0 -11.160010730040085 -26.431997448686161 0 -26.431997448686161 -3.9968085832674092 0 0 0 0 -27.308999820688769 -18.448976673031666 0 -18.448976673031666 1.0298753137776657 0 0 0 0 -15.287249015943978 -12.018673332668088 0 -12.018673332668088 4.3459758157421495 0 0 0 0 249.85602323653438 -162.99006689222006 0 -162.99006689222006 75.258003055163499 0 0 0 0 262.85700954433469 -183.54863336788731 0 -183.54863336788731 117.87362094627679 0 0 0 0 290.45941672742038 -126.86771338043945 0 -126.86771338043945 88.634428366431621 0 0 0 0 327.86647387328094 -204.56105998556814 0 -204.56105998556814 229.52398302719484 0 0 0 0 0.068101036211904997 -1.4524940464098854 0 -1.4524940464098854 0.51086329818738818 0 0 0 0 606.27148999718065 -156.69183691980516 0 -156.69183691980516 32.106958878001024 0 0 0 0 1.3940922262064586 -0.48725096333699192 0 -0.48725096333699192 -0.42928217834884208 0 0 0 0 347.56406302670581 -212.31133365760115 0 -212.31133365760115 35.042025905353512 0 0 0 0 6.7075103144545665 7.2289787172267097 0 7.2289787172267097 -31.855496051020964 0 0 0 0 275.42134871013559 -140.64801383102076 0 -140.64801383102076 19.998967834049836 0 0 0 0 362.85079020516787 -108.1053464877441 0 -108.1053464877441 30.687952436092928 0 0 0 0 279.2452942390355 -176.68863003280967 0 -176.68863003280967 19.095540454694856 0 0 0 0 258.37378282763461 -160.70985664056684 0 -160.70985664056684 21.973200553587958 0 0 0 0 286.07073226610464 -187.41657359898818 0 -187.41657359898818 -16.575349586345965 0 0 0 0 268.63773131303606 -180.21667397538658 0 -180.21667397538658 29.467619218632535 0 0 0 0 252.8482241292204 -133.63987541849019 0 -133.63987541849019 -43.147645891765023 0 0 0 0 206.92003639568384 -138.31923173839459 0 -138.31923173839459 34.271431298460811 0 0 0 0 266.24762796839377 -93.040352669500862 0 -93.040352669500862 27.279536018028011 0 0 0 0 140.73048107577142 25.824095443266742 0 25.824095443266742 -52.075009627920736 0 0 0 0 -0.12874053462449897 -0.50893139581526903 0 -0.50893139581526903 -0.28784613940837289 0 0 0 0 287.5727531415755 -11.732103578948227 0 -11.732103578948227 16.045875790328864 0 0 0 0 120.55481760747489 -77.758148564431394 0 -77.758148564431394 66.59182137425887 0 0 0 0 105.5393922822891 26.385598701373965 0 26.385598701373965 27.00979751371915 0 0 0 0 105.00319221561949 -40.705175479120953 0 -40.705175479120953 19.827318316471064 0 0 0 0 84.755005672585412 -62.377043629102445 0 -62.377043629102445 -2.9502593514498585 0 0 0 0 115.87806185156626 -67.826489672569551 0 -67.826489672569551 0.50821409718992072 0 0 0 0 196.35394129832002 -144.30004565272611 0 -144.30004565272611 89.876983588417716 0 0 0 0 -0.4192481804350372 -1.1264779720104885 0 -1.1264779720104885 -1.3391105067674403 0 0 0 0 194.13783189072274 -111.8256058468487 0 -111.8256058468487 32.548889969984998 0 0 0 0 93.721400328834534 -25.79849182354701 0 -25.79849182354701 -19.361050290143794 0 0 0 0 81.2477587838777 -14.029340228128007 0 -14.029340228128007 -20.160450102121104 0 0 0 0 81.628300734177984 -1.6062133349851706 0 -1.6062133349851706 -15.24750784027492 0 0 0 0 90.899648249096572 -56.247602849863142 0 -56.247602849863142 9.8615745038723617 0 0 0 0 49.43599510631384 -39.7311848182635 0 -39.7311848182635 -25.142792600574467 0 0 0 0 80.439456279521437 -27.516325640395735 0 -27.516325640395735 -31.590528462405928 0 0 0 0 30.093810367181618 -18.705518807955741 0 -18.705518807955741 -28.544731942369253 0 0 0 0 25.724358750980514 -37.763258655039863 0 -37.763258655039863 -14.312589030098025 0 0 0 0 79.822897668999303 -38.817377068780843 0 -38.817377068780843 -29.507926605379907 0 0 0 0 127.17063156878612 -39.13933100275608 0 -39.13933100275608 -30.605098815260135 0 0 0 0 78.591057880552739 -35.085121784784178 0 -35.085121784784178 -24.35099327644275 0 0 0 0 70.936537610649793 -39.092266098764412 0 -39.092266098764412 -12.149477432150888 0 0 0 0 72.086543593785791 -39.237839451583568 0 -39.237839451583568 -23.33606390325258 0 0 0 0 113.59765512044305 -5.6443809268403129 0 -5.6443809268403129 -18.340891846811246 0 0 0 0 95.286304932887106 -2.6760644772257365 0 -2.6760644772257365 -14.70950393530984 0 0 0 0 94.983465520367417 -1.4314288015696093 0 -1.4314288015696093 -15.303661177280446 0 0 0 0 313.99177858113057 -165.80994055099291 0 -165.80994055099291 42.811323469672061 0 0 0 0 354.72881081728337 -103.70577955936096 0 -103.70577955936096 73.028556270444824 0 0 0 0 430.15851570918039 -106.31986012248672 0 -106.31986012248672 63.229259486339288 0 0 0 0 0.73662881707843031 -0.57004852653246374 0 -0.57004852653246374 -0.57819377930509575 0 0 0 0 346.50914859526711 -133.60944786380787 0 -133.60944786380787 74.237693924435007 0 0 0 0 -0.082904034268084459 -1.9543612908653776 0 -1.9543612908653776 -2.6926338930977991 0 0 0 0 249.69671063923033 -80.845507337189702 0 -80.845507337189702 81.964840318421921 0 0 0 0 134.00025995762553 -126.27207471777365 0 -126.27207471777365 115.32726816115974 0 0 0 0 288.83536363975008 -133.17400754103073 0 -133.17400754103073 76.915989777673531 0 0 0 0 340.78772452425846 -76.978697207094228 0 -76.978697207094228 119.23117622543305 0 0 0 0 310.3649017700709 -108.74315302250943 0 -108.74315302250943 77.689061234916153 0 0 0 0 295.34648176432779 -115.41891578709419 0 -115.41891578709419 89.875602686002821 0 0 0 0 334.01004389533682 -152.97424645030878 0 -152.97424645030878 49.346789729970624 0 0 0 0 277.99084187934113 -166.15939494179656 0 -166.15939494179656 50.535503468399838 0 0 0 0 303.99994663377311 -126.39184136793119 0 -126.39184136793119 60.447490632101108 0 0 0 0 304.01480288166476 -122.18741826659425 0 -122.18741826659425 93.626404035683663 0 0 0 0 289.21302054347962 -115.85698196643716 0 -115.85698196643716 52.94249301452146 0 0 0 0 226.59785522347647 -234.40540900973429 0 -234.40540900973429 -27.146324388439098 0 0 0 0 301.69841697930951 -165.25499842947875 0 -165.25499842947875 -95.372783718339633 0 0 0 0 307.58024060901926 -188.0222532281432 0 -188.0222532281432 -7.6581956870559225 0 0 0 0 -137.69552111855364 -219.86756290380617 0 -219.86756290380617 -79.901768597763294 0 0 0 0 197.40612251960147 -136.74343355160636 0 -136.74343355160636 -72.183094691456063 0 0 0 0 190.33372625308311 -78.595067792755799 0 -78.595067792755799 -412.25419727995541 0 0 0 0 125.84538765405591 -41.146745796935193 0 -41.146745796935193 -156.26264834589165 0 0 0 0 53.744789303176276 -293.54437333871192 0 -293.54437333871192 -326.68784074450969 0 0 0 0 60.335842532099832 -252.18279439353591 0 -252.18279439353591 -125.03745004454777 0 0 0 0 22.236360863500522 -135.74725671335909 0 -135.74725671335909 -241.99461713578421 0 0 0 0 -9.3859051382821121 -98.678869539926382 0 -98.678869539926382 -101.5276132707495 0 0 0 0 1.3372946065087161 0.8273468074663084 0 0.8273468074663084 0.52054983437701452 0 0 0 0 4.6468151242835347 5.993099238046284 0 5.993099238046284 -105.82451478773146 0 0 0 0 3.2042529615250746 -2.4249561211270603 0 -2.4249561211270603 -4.7662475675862552 0 0 0 0 5.6829262754622505 12.274403905712461 0 12.274403905712461 -122.88382067733255 0 0 0 0 9.6616227985660146 -20.517702549831938 0 -20.517702549831938 -70.129591361826897 0 0 0 0 12.531410554509876 -15.592236953238171 0 -15.592236953238171 -161.00675843079443 0 0 0 0 160.75631080782023 -9.5065552909300095 0 -9.5065552909300095 7.5377265575880301 0 0 0 0 59.624479963750673 -11.172940094073056 0 -11.172940094073056 19.963504922319771 0 0 0 0 71.087982843339887 29.358831517076396 0 29.358831517076396 57.660074074163276 0 0 0 0 164.85802393379254 28.146085389287691 0 28.146085389287691 -1.0929895662884519 0 0 0 0 1.4715696703896679 -0.20546319417325876 0 -0.20546319417325876 -0.084244474536717462 0 0 0 0 -0.6591486407883167 -16.630376225714826 0 -16.630376225714826 34.360315440749673 0 0 0 0 43.387929591918237 -58.898108723637961 0 -58.898108723637961 44.020348823327367 0 0 0 0 178.72687525488209 -68.32059879351857 0 -68.32059879351857 -8.6566908882487041 0 0 0 0 194.01104785344307 -42.05717382399439 0 -42.05717382399439 -132.74888496396125 0 0 0 0 200.43341607985462 -18.621570020119179 0 -18.621570020119179 -7.1831388066439104 0 0 0 0 136.91387411378582 70.423829798960469 0 70.423829798960469 -131.63200683513969 0 0 0 0 2.8890590760576145 -2.2997374809369475 0 -2.2997374809369475 -3.5381473623054802 0 0 0 0 258.68646941272937 36.608522221583371 0 36.608522221583371 -73.561721625926111 0 0 0 0 -126.93074563767505 -187.76007855876833 0 -187.76007855876833 -90.513711650823097 0 0 0 0 -280.21114867379242 -68.300343949181865 0 -68.300343949181865 40.198846861438142 0 0 0 0 -32.313192530250035 -157.93278485197334 0 -157.93278485197334 -126.18125027136557 0 0 0 0 454.71000892748452 192.52604776755925 0 192.52604776755925 -11.104707083514768 0 0 0 0 133.14644135292087 -31.229989690302091 0 -31.229989690302091 -0.15073676023530425 0 0 0 0 204.03326655148612 152.4436075229878 0 152.4436075229878 90.429475596651173 0 0 0 0 329.47902824906396 70.021410594015833 0 70.021410594015833 -6.9317168582747399 0 0 0 0 1.1565849401355368 -0.93587793559813903 0 -0.93587793559813903 -1.2650790381458137 0 0 0 0 -344.20786417425131 -285.43807696729527 0 -285.43807696729527 43.770108103104576 0 0 0 0 434.99187534330554 -30.489727923685678 0 -30.489727923685678 -33.535126506958477 0 0 0 0 353.38182490283589 -76.41738150404035 0 -76.41738150404035 45.960517125589831 0 0 0 0 116.73112025201181 -219.0216673488012 0 -219.0216673488012 -215.11466329238465 0 0 0 0 -191.22976772806499 -111.67555748280301 0 -111.67555748280301 242.15590461471675 0 0 0 0 27.33108587111974 -5.4273291953263652 0 -5.4273291953263652 150.94593350282503 0 0 0 0 -8.5048511676241105 -139.66597525922316 0 -139.66597525922316 58.809062723510806 0 0 0 0 -30.365686312468824 -159.82747759679205 0 -159.82747759679205 42.752025593958024 0 0 0 0 -14.18806248524487 -92.56054772115931 0 -92.56054772115931 255.37379333800618 0 0 0 0 24.202039537872224 -339.45526917327766 0 -339.45526917327766 142.86136067329062 0 0 0 0 -33.053395444650796 -140.24162296665605 0 -140.24162296665605 15.174757889069951 0 0 0 0 -21.061244824510368 -35.504426338050052 0 -35.504426338050052 -1.6276274176107108 0 0 0 0 -19.063605601058953 -52.351927956838153 0 -52.351927956838153 -8.0953241294555482 0 0 0 0 -20.648892461936157 -37.513412654034255 0 -37.513412654034255 4.7612235537853849 0 0 0 0 21.037155988160521 -36.216051082458762 0 -36.216051082458762 -5.7963441584806787 0 0 0 0 -25.241575132916296 -44.873627473250281 0 -44.873627473250281 2.3089423580186121 0 0 0 0 -22.225010363394631 -27.641765018359365 0 -27.641765018359365 5.3138602246726805 0 0 0 0 -19.63962417597304 -33.211225934332106 0 -33.211225934332106 4.8738664640550269 0 0 0 0 -6.2879777119705977 -36.676180419588945 0 -36.676180419588945 2.391209634801271 0 0 0 0 3.0646936477496638 -26.200987962187355 0 -26.200987962187355 -0.50218321857300907 0 0 0 0 1.759336241224446 -24.994705303783576 0 -24.994705303783576 6.056057842757582 0 0 0 0 21.97189229275682 -25.0454772859689 0 -25.0454772859689 -1.6028933432535268 0 0 0 0 -8.0242109589489701 -30.2266867271519 0 -30.2266867271519 -0.012202149560835096 0 0 0 0 12.974776855393429 -17.815729868336348 0 -17.815729868336348 -2.3600573035812431 0 0 0 0 11.353834970226671 -28.436888565306617 0 -28.436888565306617 5.5919901521983775 0 0 0 0 0.20185076358845855 -0.51490690113689652 0 -0.51490690113689652 -0.61983315277797502 0 0 0 0 119.27365402849864 -3.4540313685170076 0 -3.4540313685170076 -41.405249715722221 0 0 0 0 20.648923879353092 -12.829109231130101 0 -12.829109231130101 10.053162458758379 0 0 0 0 -54.464285062624185 12.271093013367135 0 12.271093013367135 -63.491875570919774 0 0 0 0 12.223862651325943 -13.729558800044011 0 -13.729558800044011 -13.218831158592735 0 0 0 0 7.7510471439416833 -15.349278959775598 0 -15.349278959775598 -13.284216010458216 0 0 0 0 -58.817110070705894 -5.1399962679988676 0 -5.1399962679988676 -36.567233478027447 0 0 0 0 -107.29362466059592 -85.756757154064189 0 -85.756757154064189 4.2819983067802241 0 0 0 0 26.109257619038544 -9.1440204227928916 0 -9.1440204227928916 -7.6454999949755802 0 0 0 0 0.65309574419842065 -0.36417913411869307 0 -0.36417913411869307 -1.6463988851752092 0 0 0 0 -30.101760783401915 -34.140747114730402 0 -34.140747114730402 4.1845407713553868 0 0 0 0 -60.673469188328227 -24.377646363026088 0 -24.377646363026088 15.903693486758129 0 0 0 0 -4.416961988778894 -13.576800075401479 0 -13.576800075401479 10.006762847771824 0 0 0 0 -1.4563669310058738 -2.8271258289406234 0 -2.8271258289406234 -0.19580026037645837 0 0 0 0 -3.3770202199580126 -4.4459400508549152 0 -4.4459400508549152 -16.815531523530808 0 0 0 0 -24.40628219793507 -7.1588508552790699 0 -7.1588508552790699 -14.328567821396064 0 0 0 0 -135.47082109692997 -65.347397668234407 0 -65.347397668234407 -0.78357759672508109 0 0 0 0 -32.715056447720031 -197.820744977495 0 -197.820744977495 -115.80943877561185 0 0 0 0 140.07606931831151 -19.312281749902468 0 -19.312281749902468 -44.534151108845435 0 0 0 0 -16.809036907427071 -77.26762791884903 0 -77.26762791884903 -132.51099123003769 0 0 0 0 -18.855439282817315 -120.16698789173279 0 -120.16698789173279 -5.2341953350587573 0 0 0 0 114.74476895279804 -28.243588171499141 0 -28.243588171499141 -46.061858118852342 0 0 0 0 104.1874835765243 -79.073309961266204 0 -79.073309961266204 133.48837412309695 0 0 0 0 -15.969906887309325 -10.719560747935137 0 -10.719560747935137 -3.7299671019984233 0 0 0 0 80.967121167295772 -62.397842529244372 0 -62.397842529244372 133.82769800364565 0 0 0 0 135.67902797151328 -77.532732693302933 0 -77.532732693302933 49.001003559056699 0 0 0 0 -45.849837881906524 -13.590527544968609 0 -13.590527544968609 112.6580840727238 0 0 0 0 -89.445413089419617 -65.242091919543327 0 -65.242091919543327 21.073404621958616 0 0 0 0 -28.537696850680732 -33.021825871731608 0 -33.021825871731608 -53.225604548784759 0 0 0 0 -170.93044755362644 -131.6709614864626 0 -131.6709614864626 8.0093188775745148 0 0 0 0 4.2581986614930418 0.92853043960784021 0 0.92853043960784021 -0.11437232736591341 0 0 0 0 -268.90313520671043 -127.82848318761353 0 -127.82848318761353 -29.895628075134027 0 0 0 0 22.509982066100182 -7.7125457967057258 0 -7.7125457967057258 -9.4749385173418261 0 0 0 0 20.366396912187611 -15.457634966577189 0 -15.457634966577189 -34.716809126479347 0 0 0 0 -13.416797506648436 -23.437627970482936 0 -23.437627970482936 -93.129176481378636 0 0 0 0 44.827703150986054 -67.501284795408083 0 -67.501284795408083 -65.296030397466893 0 0 0 0 10.693166877919793 -49.937635168371344 0 -49.937635168371344 -64.20550437617112 0 0 0 0 -22.418724959380153 -15.013367984181773 0 -15.013367984181773 -3.8667531687074979 0 0 0 0 1.0474542840063776 -3.615846682355806 0 -3.615846682355806 -2.228365957699149 0 0 0 0 0.36017600520060711 -5.5031855797474201 0 -5.5031855797474201 1.1721862745643037 0 0 0 0 -49.942708553220655 -33.240043829890055 0 -33.240043829890055 -10.64384277287536 0 0 0 0 12.770080650782802 -55.007527267976457 0 -55.007527267976457 -119.87975635898965 0 0 0 0 -56.673028487708507 -62.741132073390872 0 -62.741132073390872 -56.335548999424873 0 0 0 0 1.8602845252353291 -31.184172544315516 0 -31.184172544315516 -22.903530451805636 0 0 0 0 -7.2136861316585055 -47.710963673078822 0 -47.710963673078822 -52.541034024237888 0 0 0 0 -52.254387907318232 -55.818239980330418 0 -55.818239980330418 -14.214334356674044 0 0 0 0 72.609773986354412 -74.348131201484193 0 -74.348131201484193 -142.07018735814017 0 0 0 0 -102.26495776072716 -169.73369837470113 0 -169.73369837470113 -75.224443403034456 0 0 0 0 -101.17246637457356 -169.47532239757584 0 -169.47532239757584 -92.185735763570392 0 0 0 0 -36.946665314834263 -60.851780035410627 0 -60.851780035410627 -11.450041781218715 0 0 0 0 36.682839026776037 203.40170426334834 0 203.40170426334834 44.351149157459986 0 0 0 0 -424.89823823200823 -178.8448640182778 0 -178.8448640182778 79.840119377956967 0 0 0 0 82.635257689837317 64.640130618342425 0 64.640130618342425 -275.20233845384701 0 0 0 0 23.162653436635537 -190.1357631494061 0 -190.1357631494061 -427.15364785610564 0 0 0 0 -475.45441905169537 -388.7177546904868 0 -388.7177546904868 -204.85015238050664 0 0 0 0 -2.2935451391523891 -3.3520654748687644 0 -3.3520654748687644 -4.320939006202881 0 0 0 0 461.72780286101715 -368.71727856349935 0 -368.71727856349935 -336.58790947169678 0 0 0 0 -718.0339485194072 -38.558407843154896 0 -38.558407843154896 14.682450832370705 0 0 0 0 143.96134278636418 -304.10041263845142 0 -304.10041263845142 -349.53537014686844 0 0 0 0 322.44085585268431 -13.163358488793847 0 -13.163358488793847 -507.57229676447696 0 0 0 0 123.38701332768949 -151.55487321932907 0 -151.55487321932907 -323.73751292974339 0 0 0 0 186.92560010732996 -96.630221315257586 0 -96.630221315257586 -558.90688140470661 0 0 0 0 238.63428217339379 -77.435579473060898 0 -77.435579473060898 138.41342295256163 0 0 0 0 470.83134535302088 -84.023221858509714 0 -84.023221858509714 -365.98309643883931 0 0 0 0 -7.1261010522312986 -9.1389893896949665 0 -9.1389893896949665 -8.4923507439070427 0 0 0 0 538.5791690272431 -446.88542890583881 0 -446.88542890583881 78.98005800168994 0 0 0 0 -98.175673775776886 -52.169803395522877 0 -52.169803395522877 16.212238617102685 0 0 0 0 -89.124989356843798 -21.926506588272332 0 -21.926506588272332 27.795157237448848 0 0 0 0 -228.65446452197648 19.572361335367077 0 19.572361335367077 17.95853719498075 0 0 0 0 -341.55313473691194 -223.71649123731731 0 -223.71649123731731 -12.563137401260065 0 0 0 0 -148.73066874791039 -130.49983005413787 0 -130.49983005413787 13.510942793777758 0 0 0 0 -148.38729781336224 -139.3703847938682 0 -139.3703847938682 20.958465937598703 0 0 0 0 -129.45207506069028 65.291490550898516 0 65.291490550898516 -496.47402189229706 0 0 0 0 7.0751901221656226 107.23465707799369 0 107.23465707799369 -484.65317243279105 0 0 0 0 -170.71438429859245 -70.11781954356934 0 -70.11781954356934 -826.81603748288671 0 0 0 0 -34.637035668358067 -36.845192621719434 0 -36.845192621719434 292.40667833661973 0 0 0 0 -3.490901706345678 -2.1356307553876697 0 -2.1356307553876697 -1.0718504848009118 0 0 0 0 75.769548700808627 49.865985522446863 0 49.865985522446863 -658.32606931900364 0 0 0 0 -9.4851736623322438 -6.7875966323127397 0 -6.7875966323127397 -2.6344415854217065 0 0 0 0 72.046218684744417 216.71137839466064 0 216.71137839466064 -730.78723200480499 0 0 0 0 178.18377384368068 3.5753451827840763 0 3.5753451827840763 -441.3339488107913 0 0 0 0 -275.91275270157439 115.47154654221549 0 115.47154654221549 -421.56443062190283 0 0 0 0 -26.689697994111157 -69.508345179460775 0 -69.508345179460775 -289.16622537829062 0 0 0 0 73.456556159550018 42.956295830878844 0 42.956295830878844 -129.46659870251733 0 0 0 0 291.43714489080412 -163.34454725540809 0 -163.34454725540809 -324.36608590061928 0 0 0 0 -81.169147338801849 136.89088474399568 0 136.89088474399568 -421.66515937153963 0 0 0 0 65.8891141914728 -93.696081875202253 0 -93.696081875202253 -389.17664731063837 0 0 0 0 182.57213415109027 -265.07958293916545 0 -265.07958293916545 -65.948805354622323 0 0 0 0 256.92508615627116 -132.48920121549872 0 -132.48920121549872 162.9026824581033 0 0 0 0 6.2656775100670075 -45.087648313365889 0 -45.087648313365889 -48.811857573412453 0 0 0 0 42.570578590181867 -293.44945839676348 0 -293.44945839676348 62.053891230009185 0 0 0 0 -107.0026938520723 -99.762894551874979 0 -99.762894551874979 -96.599992933844987 0 0 0 0 -46.827483124176069 -246.65875023621766 0 -246.65875023621766 -356.26376948893994 0 0 0 0 -286.17663030534027 -96.925072022828772 0 -96.925072022828772 3.3119038311733675 0 0 0 0 -14.956333732283383 -21.805484627350324 0 -21.805484627350324 -30.91326659330548 0 0 0 0 -22.36378424500208 -18.248409774978882 0 -18.248409774978882 -14.626103195626456 0 0 0 0 -2.6910969995258256 10.186662240662372 0 10.186662240662372 -102.20645119514484 0 0 0 0 -2.7971882945147861 -3.8611544941408491 0 -3.8611544941408491 -4.2667760299707993 0 0 0 0 -1.5454235846556283 -4.2875278547950266 0 -4.2875278547950266 -1.9550978325845341 0 0 0 0 -26.793915371762523 -2.1418420224545116 0 -2.1418420224545116 23.874048020446935 0 0 0 0 -3.0393365611180343 -0.15773442124555004 0 -0.15773442124555004 -4.1796374444675166 0 0 0 0 6.2003097661399806 -8.621667383626118 0 -8.621667383626118 -100.13882190220102 0 0 0 0 -29.554469585059906 80.571351602537106 0 80.571351602537106 -198.88636320315254 0 0 0 0 6.9203259499856813 -24.484971862503926 0 -24.484971862503926 -120.02387700124564 0 0 0 0 4.2778860330546991 -14.813317579966679 0 -14.813317579966679 -97.348609883840254 0 0 0 0 -0.81398072707500635 -1.3312219913165935 0 -1.3312219913165935 -2.4591521005777892 0 0 0 0 -4.6240341638520022 114.85092023091966 0 114.85092023091966 -569.40866268548962 0 0 0 0 -142.0586738176562 -212.31842799745391 0 -212.31842799745391 -548.52121628162627 0 0 0 0 -5.3861183477092709 -13.125562945029287 0 -13.125562945029287 -351.98179677180633 0 0 0 0 182.66509614755114 -35.360425486381246 0 -35.360425486381246 -405.93653911897854 0 0 0 0 329.17751956393249 0.74711061795824207 0 0.74711061795824207 -372.06709821995491 0 0 0 0 -1.6732093444377125 -2.8271959147995052 0 -2.8271959147995052 -2.6509068743886672 0 0 0 0 382.85407022936238 -294.87605512745813 0 -294.87605512745813 -384.25191760896814 0 0 0 0 -70.645533228985471 -465.60758670152291 0 -465.60758670152291 151.83697538423894 0 0 0 0 188.84753353290975 -160.85977168082411 0 -160.85977168082411 -277.97055828984048 0 0 0 0 54.65622443807456 -280.34681935066328 0 -280.34681935066328 -382.71369677134135 0 0 0 0 -187.88064907958665 -265.50695316792189 0 -265.50695316792189 -127.52248416479597 0 0 0 0 158.51206556446527 -443.24752543394152 0 -443.24752543394152 -344.947631799796 0 0 0 0 155.74510297660075 -421.77521958686151 0 -421.77521958686151 109.54385588562582 0 0 0 0 -124.35962553100649 -5.2224500746706326 0 -5.2224500746706326 -25.268451487494531 0 0 0 0 172.98925196054734 -204.59719880942794 0 -204.59719880942794 -32.568387356210224 0 0 0 0 315.41612997609059 -59.831961273568595 0 -59.831961273568595 -37.155472042363726 0 0 0 0 -28.682538447257386 -65.340602716219678 0 -65.340602716219678 -2.4528736072170432 0 0 0 0 -27.865975163243775 -71.614095361689579 0 -71.614095361689579 -97.267913046880494 0 0 0 0 0.50746101721969561 -0.50601818279211486 0 -0.50601818279211486 0.52938665637626414 0 0 0 0 -15.101690683838569 -141.90680300246549 0 -141.90680300246549 -204.56029610410405 0 0 0 0 -7.7469602015671626 -108.26427247471474 0 -108.26427247471474 -53.04379780403724 0 0 0 0 -22.697290751072387 -43.241620500724821 0 -43.241620500724821 -48.120627759937634 0 0 0 0 13.59255961072131 -28.721444207440072 0 -28.721444207440072 -170.40367434440896 0 0 0 0 0.94198233756373684 -1.6968904714744184 0 -1.6968904714744184 0.44487427386942002 0 0 0 0 -5.2169785468400356 -3.5624996883101474 0 -3.5624996883101474 -56.988970050631906 0 0 0 0 -27.302835898267858 -26.253800539474469 0 -26.253800539474469 -28.816095609127387 0 0 0 0 -0.7908512619694994 -0.98583273809153837 0 -0.98583273809153837 -0.44734141289712692 0 0 0 0 -57.881022082926165 -8.7008566865679313 0 -8.7008566865679313 -1.4787105061750481 0 0 0 0 -4.6835638756533626 -30.096385894323248 0 -30.096385894323248 -19.345269648885733 0 0 0 0 -57.556528537092817 -17.683004131724857 0 -17.683004131724857 41.151634568539521 0 0 0 0 154.82204306768938 17.624177148844865 0 17.624177148844865 -37.518585233710837 0 0 0 0 171.34537053168071 -172.40516364644009 0 -172.40516364644009 174.72806612567274 0 0 0 0 553.38256400560135 -242.71330751930782 0 -242.71330751930782 -21.928291454082682 0 0 0 0 -366.61084983135987 -309.46375578568427 0 -309.46375578568427 137.65606117031894 0 0 0 0 681.45383631619302 -71.564712053579569 0 -71.564712053579569 -91.998062848942936 0 0 0 0 0.65812993133566655 -1.1736197439515892 0 -1.1736197439515892 1.9190435134987993 0 0 0 0 386.28858314347917 -21.460278810929594 0 -21.460278810929594 -75.622377399283323 0 0 0 0 331.98634875906015 -161.65286245336949 0 -161.65286245336949 2.0882587352098199 0 0 0 0 427.1862449402513 -130.97243095260183 0 -130.97243095260183 -39.196118628202385 0 0 0 0 -43.25236372840709 -100.90384459893085 0 -100.90384459893085 96.048162501720981 0 0 0 0 91.813423085404793 -176.32785078018901 0 -176.32785078018901 4.0309019220840128 0 0 0 0 -67.662987249319258 -203.36694434605124 0 -203.36694434605124 139.51447607087721 0 0 0 0 -197.68077246817472 -90.251802637000765 0 -90.251802637000765 43.947613584873579 0 0 0 0 -63.920420921313735 -166.49737367952093 0 -166.49737367952093 -84.039764281867065 0 0 0 0 -58.405212217877761 -95.211245503590362 0 -95.211245503590362 -39.74719784532499 0 0 0 0 -61.07765936220494 -100.32143734610099 0 -100.32143734610099 -193.45880833040883 0 0 0 0 -71.125343690429645 -174.39690077239902 0 -174.39690077239902 -111.75844554017658 0 0 0 0 -58.189230433517594 -116.04796081344506 0 -116.04796081344506 -119.83353144763805 0 0 0 0 -147.02449168354383 -140.12354451790543 0 -140.12354451790543 -92.338104795315303 0 0 0 0 -15.620684169239595 -2.52875213305283 0 -2.52875213305283 2.4982968598319353 0 0 0 0 -10.998048403670509 -5.1541133427917885 0 -5.1541133427917885 29.762770618237482 0 0 0 0 -42.718746155443114 -20.239538796810848 0 -20.239538796810848 30.758977917254924 0 0 0 0 -68.97681245785941 -184.52373903112868 0 -184.52373903112868 -287.99235389482237 0 0 0 0 -18.260912820645899 -28.114965526006017 0 -28.114965526006017 138.67464841305537 0 0 0 0 -8.0662785496587368 -0.21741981114037046 0 -0.21741981114037046 0.31186832997004466 0 0 0 0 218.63797178153879 -192.5945693442477 0 -192.5945693442477 147.34917367574781 0 0 0 0 513.15261512891584 -141.6975879752672 0 -141.6975879752672 -45.651475814862351 0 0 0 0 453.29198717219299 18.924854597467856 0 18.924854597467856 -110.43939021685583 0 0 0 0 -0.12556205677074117 -4.1499806246482169 0 -4.1499806246482169 3.8073179921425933 0 0 0 0 32.835691135126012 -91.507052955104427 0 -91.507052955104427 135.86689531444063 0 0 0 0 2.0140071045018164 -3.5441220362094903 0 -3.5441220362094903 0.76109975627765714 0 0 0 0 -55.897993493535068 -37.238825296198229 0 -37.238825296198229 21.577913337444443 0 0 0 0 5.9947350388781331 -16.909028950957747 0 -16.909028950957747 3.0482007115459666 0 0 0 0 134.58152799268009 -18.612526321272526 0 -18.612526321272526 -50.015096985217497 0 0 0 0 379.49874277169545 -271.54944625405778 0 -271.54944625405778 -22.526138081550016 0 0 0 0 21.339151240171532 -148.46672472816635 0 -148.46672472816635 37.095060205914706 0 0 0 0 -26.262294007102128 -207.50159004948546 0 -207.50159004948546 -31.854466905335585 0 0 0 0 -27.879492269137245 -4.8395246192440027 0 -4.8395246192440027 16.227633128541129 0 0 0 0 -69.667625777398143 -22.065219424286624 0 -22.065219424286624 9.924223016401811 0 0 0 0 -125.58927120626038 23.725023209135088 0 23.725023209135088 27.307862865807692 0 0 0 0 -216.4350752259711 -142.36748055825501 0 -142.36748055825501 36.980681239722628 0 0 0 0 -68.353363574041509 -152.73344169079883 0 -152.73344169079883 -129.66444050659356 0 0 0 0 4.3728214132715948 -51.445566533405326 0 -51.445566533405326 56.697125042621337 0 0 0 0 14.823841305291353 -60.114316256379425 0 -60.114316256379425 -12.63576713895236 0 0 0 0 7.3077563120420468 -16.614883822336317 0 -16.614883822336317 3.0202964856095278 0 0 0 0 -23.566014859239658 -48.648370445451292 0 -48.648370445451292 7.7672589089706889 0 0 0 0 -1.3562654746474436 -62.70602507068179 0 -62.70602507068179 16.515711976192279 0 0 0 0 13.731251836143656 -36.939259633702932 0 -36.939259633702932 -9.919570354055395 0 0 0 0 35.409236884126585 -56.402031784045903 0 -56.402031784045903 -86.016762424486842 0 0 0 0 27.472476577013822 -52.334758595366566 0 -52.334758595366566 -14.406811771070352 0 0 0 0 19.109988515318459 -6.1480075163904786 0 -6.1480075163904786 -2.0354387965797187 0 0 0 0 21.613429964708303 -21.742433034311034 0 -21.742433034311034 -15.662391550629764 0 0 0 0 29.987793469986173 -19.562416272961855 0 -19.562416272961855 -23.757797267498063 0 0 0 0 8.695093358901822 -17.246983450519576 0 -17.246983450519576 2.8146392913997147 0 0 0 0 -165.04415510410342 -264.31183184705469 0 -264.31183184705469 -397.86643591408574 0 0 0 0 2.4007173734139595 -1.0036033956133021 0 -1.0036033956133021 -2.7565310097595983 0 0 0 0 -0.69877981402476053 -43.154446332444422 0 -43.154446332444422 58.216833778228647 0 0 0 0 68.460567004268484 22.682218704014758 0 22.682218704014758 -64.751829647768318 0 0 0 0 54.150687494010278 -77.356591918286199 0 -77.356591918286199 -74.567216496088804 0 0 0 0 -281.865863738896 -380.26969941583474 0 -380.26969941583474 -308.52096639585761 0 0 0 0 -3.4967075078544898 -3.1392109131093164 0 -3.1392109131093164 0.16304443746922637 0 0 0 0 -284.46661494497289 -80.044910319046721 0 -80.044910319046721 12.826226418515148 0 0 0 0 -60.852910260153322 24.479195799645595 0 24.479195799645595 -22.601526429680234 0 0 0 0 -185.81566734505464 -316.3669643864323 0 -316.3669643864323 -504.16566848770162 0 0 0 0 -271.66582800785926 -368.65316002468762 0 -368.65316002468762 -390.32049121259843 0 0 0 0 -286.49935030783206 -261.78556923850465 0 -261.78556923850465 -402.96837182567378 0 0 0 0 429.81711370035686 64.714616838016582 0 64.714616838016582 -162.17167516048539 0 0 0 0 0.55555638981238031 -1.0216577100467843 0 -1.0216577100467843 -2.7998897047599698 0 0 0 0 288.3842177261231 -77.217148761395038 0 -77.217148761395038 -263.79388005533264 0 0 0 0 152.45552536196908 -300.84656585999983 0 -300.84656585999983 -273.08928820477939 0 0 0 0 216.06158124636568 -51.976527842907672 0 -51.976527842907672 -116.85636333548973 0 0 0 0 126.3696012015065 -197.23337773718231 0 -197.23337773718231 -190.53235683582716 0 0 0 0 221.5329217438898 -286.00429223921674 0 -286.00429223921674 -127.16117845823192 0 0 0 0 220.53979631205311 -321.63294249279534 0 -321.63294249279534 -98.293081607164822 0 0 0 0 261.63712939724292 -225.80353274155277 0 -225.80353274155277 -79.15623955515548 0 0 0 0 239.96525573187364 -289.60737038632305 0 -289.60737038632305 -227.5106807060929 0 0 0 0 108.73761376511811 -310.73007927692925 0 -310.73007927692925 -117.00454579959478 0 0 0 0 -1.6297576479577423 -2.469025656550226 0 -2.469025656550226 -2.1806979210422384 0 0 0 0 313.75049831086721 -217.6877047285534 0 -217.6877047285534 -351.22783064927489 0 0 0 0 157.20114498832731 -380.25413513883268 0 -380.25413513883268 -294.05284652321825 0 0 0 0 325.36896194232736 -108.15500963270279 0 -108.15500963270279 -157.59615664155763 0 0 0 0 -23.131438446857146 -55.807165209901996 0 -55.807165209901996 214.04035107687832 0 0 0 0 108.42074370064853 -423.78543942321119 0 -423.78543942321119 166.65980454919281 0 0 0 0 180.63606259264111 -178.63192236624946 0 -178.63192236624946 101.02127777856913 0 0 0 0 -3.3605144049203099 -5.1948432251857435 0 -5.1948432251857435 -4.9654548972386898 0 0 0 0 360.20420359302193 -354.63416320600254 0 -354.63416320600254 57.098083380042226 0 0 0 0 38.150434968084028 -202.4071821378302 0 -202.4071821378302 279.25387361373532 0 0 0 0 25.557829180146427 -297.37213908781723 0 -297.37213908781723 20.252679998340682 0 0 0 0 -109.75184650828584 -162.097688997982 0 -162.097688997982 102.27254592969439 0 0 0 0 -0.48263453343224683 -2.5312335960802557 0 -2.5312335960802557 11.711084063717863 0 0 0 0 -0.21684879105305299 -2.0232230967330906 0 -2.0232230967330906 8.3889297993758873 0 0 0 0 0.0085495601415459532 -3.8592346643945348 0 -3.8592346643945348 7.8808959845162008 0 0 0 0 2.7816779613895051 -3.4269258196231931 0 -3.4269258196231931 7.5377251558732041 0 0 0 0 1.8160376101932343 1.0967577610335866 0 1.0967577610335866 7.2723529262693773 0 0 0 0 -5.7425390767839417 -3.5092814873305542 0 -3.5092814873305542 8.2041733019221965 0 0 0 0 -8.3222411817278044 -5.4140496145219004 0 -5.4140496145219004 11.517944843473742 0 0 0 0 -5.0625501679114677 -5.3025630618212745 0 -5.3025630618212745 9.5203828044413967 0 0 0 0 -6.7813297622378741 -6.8886741810615604 0 -6.8886741810615604 8.147698456496073 0 0 0 0 -77.253190037732793 -95.289317554318814 0 -95.289317554318814 -76.981482394037812 0 0 0 0 3.4685001687576005 -6.063273034560158 0 -6.063273034560158 8.3373199069089381 0 0 0 0 -8.5343464303296059 -7.7998461362649323 0 -7.7998461362649323 10.581410684050752 0 0 0 0 -5.8225620558732771 -8.6144440398711595 0 -8.6144440398711595 10.723167270369231 0 0 0 0 -157.0626847761996 -76.907898375063041 0 -76.907898375063041 -13.30796574557462 0 0 0 0 1.6303704447318674 -2.190060613705846 0 -2.190060613705846 -0.66427970817545656 0 0 0 0 -0.43863612714030875 -1.8419694994829747 0 -1.8419694994829747 6.3452531095556957 0 0 0 0 -1.7262523888057331 -11.573344629741769 0 -11.573344629741769 3.6339951638365164 0 0 0 0 -1.9913469770750396 -3.7675767054834548 0 -3.7675767054834548 4.4584673316055117 0 0 0 0 6.4884992224233429 -5.0421553610570982 0 -5.0421553610570982 11.754278274016542 0 0 0 0 0.94503381876331005 -4.9891521418402824 0 -4.9891521418402824 6.6388811297903487 0 0 0 0 0.22928568134993732 -4.7576204937999691 0 -4.7576204937999691 6.303094277574516 0 0 0 0 -0.85226904640406786 -1.5493631415389792 0 -1.5493631415389792 4.3032020299959797 0 0 0 0 -5.1135231833759462 -1.920922542201879 0 -1.920922542201879 1.4665473683708115 0 0 0 0 4.904056959108857 -8.0831130624592333 0 -8.0831130624592333 -12.921055247796176 0 0 0 0 -3.8461804538746946 -10.815003234147298 0 -10.815003234147298 12.807748936887037 0 0 0 0 -2.4475587237866421 -9.1017289998653723 0 -9.1017289998653723 1.5063631897419327 0 0 0 0 -2.7844399453751976 -5.327012364600705 0 -5.327012364600705 6.9820895541056416 0 0 0 0 -0.17430222378124682 0.41462005054054529 0 0.41462005054054529 0.16042438691555194 0 0 0 0 -1.0506750752174412 -0.70365289704386669 0 -0.70365289704386669 10.261678905772897 0 0 0 0 -0.73853320162788805 -8.3461139054929845 0 -8.3461139054929845 13.68589745789086 0 0 0 0 -10.998382556608703 -2.699456289513364 0 -2.699456289513364 10.880672482235241 0 0 0 0 -0.41182672142531374 -9.4587155484305185 0 -9.4587155484305185 7.0263423573887849 0 0 0 0 -9.6780831783471513 -0.53220113170937111 0 -0.53220113170937111 13.967845104067237 0 0 0 0 -4.6810850187139295 0.97583279363061592 0 0.97583279363061592 9.754181136169791 0 0 0 0 7.8173865048156586 -9.1216617164827767 0 -9.1216617164827767 -8.838356154748908 0 0 0 0 -3.6944906308767109 -3.1906329851438606 0 -3.1906329851438606 2.0109800866242935 0 0 0 0 7.5620127541994862 -18.235473477131166 0 -18.235473477131166 2.5615801695021219 0 0 0 0 -0.30779510318357239 -1.2111928109645511 0 -1.2111928109645511 1.1415372660432794 0 0 0 0 -6.5014350369237945 -3.2416179090982951 0 -3.2416179090982951 2.4751452285236155 0 0 0 0 -0.44616347466580919 -2.5757797876158293 0 -2.5757797876158293 9.5024842857055773 0 0 0 0 -8.3167049206876982 -12.576408717245158 0 -12.576408717245158 -10.272723979971488 0 0 0 0 -9.5851252031498007 -11.931357827143074 0 -11.931357827143074 6.7544630707234319 0 0 0 0 0.73904093420787831 -5.3932950984162744 0 -5.3932950984162744 0.96067040780690149 0 0 0 0 -3.7780090104861301 -5.3642742734109561 0 -5.3642742734109561 6.6283031246348401 0 0 0 0 -1.2204422600880207 -6.8011206184783077 0 -6.8011206184783077 1.937740569112151 0 0 0 0 1.9992809036702965 -4.246797710264218 0 -4.246797710264218 1.9156626426018661 0 0 0 0 1.0198855283451849 -6.246925981806271 0 -6.246925981806271 -1.5300620908092242 0 0 0 0 -0.18440915505119904 0.4439304610309236 0 0.4439304610309236 0.16853101911012391 0 0 0 0 -0.59944637053922634 -7.4435848023031213 0 -7.4435848023031213 2.1834268761831481 0 0 0 0 0.0028527544600365218 -8.0049154075813931 0 -8.0049154075813931 0.80385500938064069 0 0 0 0 -0.0032903515093494207 -8.6869411351372037 0 -8.6869411351372037 7.8126852469449659 0 0 0 0 -0.68835317265984486 -5.9820025568378696 0 -5.9820025568378696 2.150626584885174 0 0 0 0 -1.5813725660973432 -7.2175842352507971 0 -7.2175842352507971 1.7042844408115343 0 0 0 0 -12.122539703144867 -56.650235217202862 0 -56.650235217202862 -304.24364124097065 0 0 0 0 -3.7118985682023009 -2.6383930826037485 0 -2.6383930826037485 -0.50488815949154642 0 0 0 0 42.788066132437962 -193.85161254974264 0 -193.85161254974264 -260.07341458951214 0 0 0 0 -16.970889152860764 -216.91903883318628 0 -216.91903883318628 -203.74333293420932 0 0 0 0 42.84132581934864 -122.65592940541046 0 -122.65592940541046 -755.93173457578723 0 0 0 0 -1.350555975431341 -0.67342783673575823 0 -0.67342783673575823 -0.819202587844023 0 0 0 0 0.20574584708980198 -399.69577013385782 0 -399.69577013385782 -405.50826844167568 0 0 0 0 -158.78421796130078 -336.29217793651787 0 -336.29217793651787 -0.34649716314106627 0 0 0 0 -137.12196198459787 -309.29294528284845 0 -309.29294528284845 -257.41775435529144 0 0 0 0 -132.84966399226596 -176.51566358806485 0 -176.51566358806485 -0.03558625275400118 0 0 0 0 -180.09942320317941 -264.78811050028185 0 -264.78811050028185 -149.64455397100028 0 0 0 0 -200.04732217726632 -193.16950879778051 0 -193.16950879778051 -306.00098302777042 0 0 0 0 -239.88369216985393 -156.04156679430798 0 -156.04156679430798 -85.304382602400437 0 0 0 0 -0.77776007854378548 -0.88443983803086645 0 -0.88443983803086645 -1.1345953666986475 0 0 0 0 1.7700055593686557 -87.056696632634157 0 -87.056696632634157 -286.72858872695815 0 0 0 0 -20.875284076342723 -4.702184364755567 0 -4.702184364755567 -8.51722988551046 0 0 0 0 -11.462668379775096 -10.867885275673871 0 -10.867885275673871 -4.4785579834569944 0 0 0 0 29.279128498229056 -6.5413604308214417 0 -6.5413604308214417 -7.2506700297672069 0 0 0 0 11.898488422979426 40.841031676131024 0 40.841031676131024 1.2391442687703602 0 0 0 0 -1.9863331173317889 -2.4417614114070787 0 -2.4417614114070787 -2.3354596083275325 0 0 0 0 1.6206115381742734 -1.7691418295899055 0 -1.7691418295899055 -0.99809799605976579 0 0 0 0 -65.401613022097081 -0.54127061825511191 0 -0.54127061825511191 32.321156283087475 0 0 0 0 -137.43904006105004 -129.25234420039033 0 -129.25234420039033 -68.229456479984947 0 0 0 0 -70.23356055993645 -29.711440049304656 0 -29.711440049304656 5.5773974911899131 0 0 0 0 -159.31504658582708 -30.882493311119106 0 -30.882493311119106 -11.907823365148943 0 0 0 0 -74.895717201568914 -25.718818121216827 0 -25.718818121216827 2.348983917856458 0 0 0 0 100.48142701895995 -40.115184224050608 0 -40.115184224050608 -59.945638975589645 0 0 0 0 -1.0412241606680439 -1.0942656975763168 0 -1.0942656975763168 1.422327053662201 0 0 0 0 -4.1636127312273885 -4.1995916222127949 0 -4.1995916222127949 0.99134566073577446 0 0 0 0 -4.5853596793858742 -4.1805904088823809 0 -4.1805904088823809 1.4936999627357181 0 0 0 0 3.9338603651740414 -7.9336818407355167 0 -7.9336818407355167 -0.52087140493131301 0 0 0 0 12.998339349591333 -5.7556152519828174 0 -5.7556152519828174 -3.0115182126392028 0 0 0 0 -1.0666377698562428 -4.9109158270430271 0 -4.9109158270430271 -11.676840370355421 0 0 0 0 -0.87180327750894548 -2.6591871375535128 0 -2.6591871375535128 -2.8745598685416205 0 0 0 0 1.9969304687351723 0.76685364830245817 0 0.76685364830245817 -2.5078658242819074 0 0 0 0 -2.7778813947243179 -7.6937614758862765 0 -7.6937614758862765 -1.0644454564389889 0 0 0 0 -5.6045309406763408 -5.6609422825968068 0 -5.6609422825968068 1.609879622608787 0 0 0 0 -7.5356023248596102 -9.4858742217975305 0 -9.4858742217975305 -4.1226254246466851 0 0 0 0 -1.847755591576604 -5.1924542104906735 0 -5.1924542104906735 -4.826657888341348 0 0 0 0 -0.37213421631320465 -5.4661070201561266 0 -5.4661070201561266 -3.1548122774389284 0 0 0 0 9.5523432803474861 -9.7621214519622299 0 -9.7621214519622299 -0.46711891389350058 0 0 0 0 -0.84799107610427882 -1.3715799100749102 0 -1.3715799100749102 -2.0851048226299511 0 0 0 0 -8.440989235374218 -9.6308693433820736 0 -9.6308693433820736 -0.62539770410512574 0 0 0 0 -0.28067132382187054 -0.4588231391185964 0 -0.4588231391185964 -0.16321210377696005 0 0 0 0 4.2732988392854168 -13.764727290941664 0 -13.764727290941664 -57.299280752886261 0 0 0 0 3.0812355224388739 -11.158789850476751 0 -11.158789850476751 -14.251440341607577 0 0 0 0 5.8838318610814895 1.0958291465485672 0 1.0958291465485672 -37.028186551844556 0 0 0 0 6.4762854352084105 -21.528276306171392 0 -21.528276306171392 19.197628294001333 0 0 0 0 6.8907041434954408 -15.907256130128872 0 -15.907256130128872 0.53745783150225179 0 0 0 0 -0.8804251646793837 -0.75627180388971738 0 -0.75627180388971738 -1.1359881717259697 0 0 0 0 13.481850829377436 -11.687195447977501 0 -11.687195447977501 -0.50296902733862225 0 0 0 0 13.188829705224634 -12.287550017103968 0 -12.287550017103968 -1.4226429516693315 0 0 0 0 16.897223662043871 -17.326610169176092 0 -17.326610169176092 0.7118924239257467 0 0 0 0 21.675059469982898 -23.655423405471538 0 -23.655423405471538 0.011840639428555733 0 0 0 0 -0.038784031041461553 0.22645307416949834 0 0.22645307416949834 -0.43737366120132037 0 0 0 0 -140.22441181174872 -120.87632160729936 0 -120.87632160729936 -102.23454514588502 0 0 0 0 49.565854492680955 -8.8107489173535214 0 -8.8107489173535214 -6.2431040880437649 0 0 0 0 -14.306098495978404 -8.4019581810180171 0 -8.4019581810180171 -5.7457694150725729 0 0 0 0 14.287468506759069 -10.170677280743803 0 -10.170677280743803 -5.3512165417214419 0 0 0 0 -3.7315565790831897 -21.044493566495476 0 -21.044493566495476 -0.0055717952664146213 0 0 0 0 -3.1081820818271808 -10.668609097646822 0 -10.668609097646822 -7.5198332816198672 0 0 0 0 11.585650317550972 -23.468493181970189 0 -23.468493181970189 -3.4322877602262452 0 0 0 0 -0.13569035711187638 -0.13406766752407151 0 -0.13406766752407151 0.67266980415962507 0 0 0 0 -18.93450325176309 -22.892051175801953 0 -22.892051175801953 -4.9963403256824677 0 0 0 0 -0.25436993264112218 0.0075329833687192149 0 0.0075329833687192149 0.54084783871156361 0 0 0 0 -59.341058262786191 -26.760062988792924 0 -26.760062988792924 45.876408684165654 0 0 0 0 35.871975273748831 -36.607519498516922 0 -36.607519498516922 0.78675666862727667 0 0 0 0 11.859496923629194 -21.887223525660374 0 -21.887223525660374 -8.2367189616001042 0 0 0 0 -15.508755196333368 -20.020409866170667 0 -20.020409866170667 22.098974722866842 0 0 0 0 -23.195586023572105 -61.646781614963402 0 -61.646781614963402 26.214376128329604 0 0 0 0 14.973466357947473 -2.6714054237963865 0 -2.6714054237963865 -22.900878499242026 0 0 0 0 44.940659199044603 -28.917660947830882 0 -28.917660947830882 -8.3508360802443349 0 0 0 0 33.185942195712414 -1.3449634198495914 0 -1.3449634198495914 -33.310145819988975 0 0 0 0 -68.433104661598918 -28.339307524780452 0 -28.339307524780452 -13.16041890089673 0 0 0 0 -56.775918913514033 -58.988185212672761 0 -58.988185212672761 20.6044764894541 0 0 0 0 -16.523288420159588 -4.7632693468440266 0 -4.7632693468440266 29.753194482236722 0 0 0 0 -25.109881775344547 -22.407827011804329 0 -22.407827011804329 11.644941970975196 0 0 0 0 13.149631531130581 -7.2038838488479087 0 -7.2038838488479087 14.150823577500432 0 0 0 0 8.7661897410798701 -41.056596188078402 0 -41.056596188078402 0.63111100064270431 0 0 0 0 -8.1586042154813185 -5.2162099377310369 0 -5.2162099377310369 22.32320305416215 0 0 0 0 -5.5428445661746082 -10.953263475117637 0 -10.953263475117637 -13.984166973876199 0 0 0 0 -3.8844462544750868 -6.1999027798312234 0 -6.1999027798312234 0.8942241696478419 0 0 0 0 5.4539692426391007 -1.7714309318439021 0 -1.7714309318439021 -7.3473606334648096 0 0 0 0 -48.199969305209663 -105.15310355688268 0 -105.15310355688268 -39.893691340963414 0 0 0 0 -42.650567686660111 -18.837181324850803 0 -18.837181324850803 -23.660442483491352 0 0 0 0 3.7691231184638099 -6.2165273459822217 0 -6.2165273459822217 -7.5644990565062287 0 0 0 0 4.3741598555029668 -48.025734313669432 0 -48.025734313669432 -11.638460718997521 0 0 0 0 7.3185197574493941 -26.182364964261069 0 -26.182364964261069 -24.340143074867228 0 0 0 0 0.22215999121544883 -26.808715468922856 0 -26.808715468922856 16.746669932894292 0 0 0 0 3.7304845600239105 -56.904062422678294 0 -56.904062422678294 23.532604012572847 0 0 0 0 -2.6765926832167679 -14.667619914825991 0 -14.667619914825991 -7.0790914414010331 0 0 0 0 4.3627861880449927 -14.777688975691945 0 -14.777688975691945 -13.182432338990111 0 0 0 0 -3.9619888885390182 -8.6827252188280806 0 -8.6827252188280806 -10.430152208254675 0 0 0 0 -25.124444594366651 -7.007382997946479 0 -7.007382997946479 3.854080250570405 0 0 0 0 -0.30134405265107489 -10.637297421230414 0 -10.637297421230414 -6.6021191103573074 0 0 0 0 -2.1447439590673483 -6.7096957955368595 0 -6.7096957955368595 -1.190645706753946 0 0 0 0 -3.956510090845768 -7.4228309460340824 0 -7.4228309460340824 -8.6255299398087573 0 0 0 0 -1.7439907725492958 -23.816269342558371 0 -23.816269342558371 -14.119452106431254 0 0 0 0 -5.68986428825378 -7.9971364996335215 0 -7.9971364996335215 -5.6769458193529196 0 0 0 0 0.060987401842794497 -6.7452555009331263 0 -6.7452555009331263 -2.0526405316795717 0 0 0 0 -1.9281735319427042 -6.6673158787011992 0 -6.6673158787011992 -1.4797795531789264 0 0 0 0 -10.817060508965369 -13.565534628355636 0 -13.565534628355636 4.2268763432377909 0 0 0 0 -9.0823729423846089 -12.278115356730268 0 -12.278115356730268 4.9989701266695192 0 0 0 0 -0.35965928632146493 -3.6130059278250357 0 -3.6130059278250357 7.67462455175869 0 0 0 0 -15.702003128030583 -20.805856771696881 0 -20.805856771696881 0.71596395965570991 0 0 0 0 -16.774108981724567 -20.410888402124328 0 -20.410888402124328 0.57223422258539358 0 0 0 0 -34.727991454223229 -15.640279898623703 0 -15.640279898623703 6.1652762674939368 0 0 0 0 -17.150915583738652 -11.333522123578632 0 -11.333522123578632 7.2122780311037786 0 0 0 0 -2.8949232022969227 -19.706844793170148 0 -19.706844793170148 -2.8149777213375273 0 0 0 0 -4.2441161755377834 -15.968305968608547 0 -15.968305968608547 2.6613137562981137 0 0 0 0 -5.9187997438511957 -28.620635166580541 0 -28.620635166580541 -10.666954352840548 0 0 0 0 5.823227606335422 -18.346389175570948 0 -18.346389175570948 -4.6589027973773227 0 0 0 0 13.369302424007401 -30.151178050196904 0 -30.151178050196904 -19.561479293060984 0 0 0 0 -4.0794761824145098 -24.911452902523706 0 -24.911452902523706 -11.065067857161921 0 0 0 0 -24.291436413314841 0.23838099235945265 0 0.23838099235945265 18.061372629872494 0 0 0 0 -43.868057822939591 -26.663387852344385 0 -26.663387852344385 0.63836136221925699 0 0 0 0 -20.65024579976307 -23.71526049649674 0 -23.71526049649674 -0.71382961044946569 0 0 0 0 -9.5924541431704711 -39.242776557338857 0 -39.242776557338857 -25.775744322534592 0 0 0 0 -35.201325213525706 -44.331885453808354 0 -44.331885453808354 -24.850924869915616 0 0 0 0 -72.790554036917456 -47.418137697477505 0 -47.418137697477505 -10.175840932355641 0 0 0 0 -40.805526795622427 -37.631221321429621 0 -37.631221321429621 -20.116558198193161 0 0 0 0 -66.123922607173881 -61.751608032491276 0 -61.751608032491276 -28.995562747226359 0 0 0 0 -131.84409972568392 -39.405438917099673 0 -39.405438917099673 -7.5896387365019109 0 0 0 0 -0.037070479721876382 -0.92246344627955423 0 -0.92246344627955423 0.84524384641733974 0 0 0 0 -6.3331075428341137 1.7823284987771331 0 1.7823284987771331 -4.8832181363759446 0 0 0 0 -1.6847938385764039 0.70504509948348826 0 0.70504509948348826 1.4467935670928291 0 0 0 0 -72.853388849965995 -44.375792094844655 0 -44.375792094844655 -7.2018334772001253 0 0 0 0 0.10742231490621634 -5.3818298687347124 0 -5.3818298687347124 -74.582775392348935 0 0 0 0 -18.975146560773283 -74.371416806723573 0 -74.371416806723573 -58.161378160795721 0 0 0 0 -110.93022125748394 -44.039931000323122 0 -44.039931000323122 -23.769806211423202 0 0 0 0 -116.76842093537562 -56.879634997086214 0 -56.879634997086214 -23.744473217757331 0 0 0 0 15.80845385385328 -19.733649809971212 0 -19.733649809971212 -42.357898646004287 0 0 0 0 -92.793706885335268 -95.798226585789962 0 -95.798226585789962 -57.455158361308349 0 0 0 0 71.059549780453381 32.105250261952278 0 32.105250261952278 -35.593024649958124 0 0 0 0 -1.8773523493528046 -17.341254729997218 0 -17.341254729997218 -7.4462109198657345 0 0 0 0 1.4594610459195678 -0.60573602982444896 0 -0.60573602982444896 0.44876976127120116 0 0 0 0 -13.598831854114906 -12.271548457014433 0 -12.271548457014433 -11.877576412542908 0 0 0 0 -2.6719373151008767 -15.358356303079745 0 -15.358356303079745 -6.8568464544688368 0 0 0 0 -11.176404026298769 -18.713198892437958 0 -18.713198892437958 -4.8632901519977167 0 0 0 0 1.2405170228848874 -8.6227211960958812 0 -8.6227211960958812 -16.328205027364675 0 0 0 0 -10.056117981149463 -13.171256276273025 0 -13.171256276273025 -13.686149637834241 0 0 0 0 -11.465476467604503 -21.779222136245096 0 -21.779222136245096 -5.0994295546479407 0 0 0 0 -11.343369223157424 -21.321333172025788 0 -21.321333172025788 -9.5968175802790938 0 0 0 0 22.092356944642233 -12.193102174504475 0 -12.193102174504475 -14.651109561810927 0 0 0 0 0.076331119978870987 -4.2851051426076978 0 -4.2851051426076978 -1.4056542599898343 0 0 0 0 -13.193334223544298 -37.636134464708448 0 -37.636134464708448 -5.4185810628405306 0 0 0 0 -24.340165825204167 -36.624039822925624 0 -36.624039822925624 -1.6443551852007658 0 0 0 0 0.0043394671735379475 -2.5046767190079962 0 -2.5046767190079962 -0.8291531344531009 0 0 0 0 -13.095479247585899 -20.428880520905295 0 -20.428880520905295 -7.1352229330468617 0 0 0 0 -5.7349647685678065 -19.34957163087347 0 -19.34957163087347 2.6166975040626994 0 0 0 0 2.7133627633184005 -20.414869434296179 0 -20.414869434296179 -9.1806490159870009 0 0 0 0 -3.6680255884821236 -21.470854632535065 0 -21.470854632535065 -13.738766132493765 0 0 0 0 -10.014403602652429 -11.21166088123282 0 -11.21166088123282 -10.403742127245483 0 0 0 0 -10.132368334407147 -22.920743270082312 0 -22.920743270082312 -8.3486584155598393 0 0 0 0 -12.787182834286796 -4.8673987468273481 0 -4.8673987468273481 -3.3754030062773381 0 0 0 0 -40.860580961833875 -24.142554409289914 0 -24.142554409289914 3.7415035396388703 0 0 0 0 -3.5964703411927275 -8.46521883107253 0 -8.46521883107253 -3.5579476492925952 0 0 0 0 18.815484151658438 -15.389683279508972 0 -15.389683279508972 -7.6240107995072322 0 0 0 0 0.83980729251027242 -9.4027386131746233 0 -9.4027386131746233 4.452504942054845 0 0 0 0 -6.1105791959780618 -14.038340228274137 0 -14.038340228274137 9.1177925370334378 0 0 0 0 -2.8779944472553325 -15.082453408414949 0 -15.082453408414949 -1.4169590885467187 0 0 0 0 10.59931549751127 -12.760157566327507 0 -12.760157566327507 -3.7737422042137041 0 0 0 0 -1.3873590470379895 -10.948197791126631 0 -10.948197791126631 3.4063587452601496 0 0 0 0 -7.4467694701197615 -15.234871581002153 0 -15.234871581002153 1.9112729047046741 0 0 0 0 -5.9674874576048751 -24.470230883220211 0 -24.470230883220211 -4.032197556391111 0 0 0 0 12.310291094021522 -19.918841491255989 0 -19.918841491255989 -3.2193820999800664 0 0 0 0 -10.501600478422915 -23.616703287978453 0 -23.616703287978453 -4.1031446661763766 0 0 0 0 -6.1222001125242969 -23.099523040695203 0 -23.099523040695203 -5.227561987205263 0 0 0 0 -0.71921610163872174 -15.484952339217216 0 -15.484952339217216 -4.5644336739005666 0 0 0 0 -12.76486671654493 -16.449012951745317 0 -16.449012951745317 -4.5966918606214904 0 0 0 0 -12.291701651851326 -23.647230524373299 0 -23.647230524373299 -16.16336939210305 0 0 0 0 -8.0916349353001351 -15.314064948549913 0 -15.314064948549913 -16.173247720373183 0 0 0 0 -19.596768560877535 31.089258030942801 0 31.089258030942801 79.199706445058837 0 0 0 0 0.018448611014122207 0.48804351774364108 0 0.48804351774364108 -0.21375664737188949 0 0 0 0 -2.9957194879680173 -24.284385322051094 0 -24.284385322051094 -48.569949608641764 0 0 0 0 -10.402422040671809 -40.372359593115107 0 -40.372359593115107 -48.307413504727322 0 0 0 0 -4.014256646787544 -7.2590299554158264 0 -7.2590299554158264 -30.138055099789199 0 0 0 0 10.215196978755557 45.048562377305643 0 45.048562377305643 39.15753320254953 0 0 0 0 -1.7326000989423598 0.68109701394055122 0 0.68109701394055122 -0.41642759932232565 0 0 0 0 -0.30681468973176607 0.31261927342291784 0 0.31261927342291784 -0.090208940491512735 0 0 0 0 -9.6045282673949259 -12.90178285987713 0 -12.90178285987713 4.2099188771790068 0 0 0 0 0.6703630111333041 4.5566528693252621 0 4.5566528693252621 74.212185153261544 0 0 0 0 -8.6483268066585879 -7.9393453471493558 0 -7.9393453471493558 -10.012779739008238 0 0 0 0 -41.886158562894707 -4.4141814061731566 0 -4.4141814061731566 73.383047124623999 0 0 0 0 198.5262697349317 -344.52971856514159 0 -344.52971856514159 49.437043772093602 0 0 0 0 -310.12339839525521 78.786014899254951 0 78.786014899254951 -7.4558328646362497 0 0 0 0 -30.989133071153219 -52.055431242019949 0 -52.055431242019949 -115.12045930224122 0 0 0 0 3.969343037406361 -12.33896706935775 0 -12.33896706935775 2.3091789453701494 0 0 0 0 5.532233851012279 -14.736028243258261 0 -14.736028243258261 -6.7972049007638589 0 0 0 0 9.3591904171414626 10.559744010218537 0 10.559744010218537 25.564481306497328 0 0 0 0 -18.864196022735996 -18.108110690164722 0 -18.108110690164722 7.7725924909136666 0 0 0 0 -19.600705445714993 -2.2973631653294433 0 -2.2973631653294433 77.837777485328843 0 0 0 0 -0.042541550184353127 0.35931772809001217 0 0.35931772809001217 -0.22095382437204591 0 0 0 0 7.896487950685696 -27.525646888541814 0 -27.525646888541814 3.4842859258365024 0 0 0 0 -3.4993309345918533 -9.7102446012577275 0 -9.7102446012577275 30.819849927447649 0 0 0 0 -8.7714188877434935 -24.563890567906128 0 -24.563890567906128 20.036355430002004 0 0 0 0 -12.66657385166036 -43.839830667100614 0 -43.839830667100614 58.376997555642447 0 0 0 0 44.66303429792606 -73.971993877352361 0 -73.971993877352361 -124.26529047504846 0 0 0 0 59.37951864243405 -35.472424064337247 0 -35.472424064337247 -105.55420743728428 0 0 0 0 1.0841024077842505 -1.0248126895934817 0 -1.0248126895934817 -1.4423245023538751 0 0 0 0 46.197624396249012 -69.185243159539823 0 -69.185243159539823 -113.57533931570288 0 0 0 0 0.0041186076414305717 15.687839417679243 0 15.687839417679243 54.144941631693655 0 0 0 0 -7.8296229665611463 -6.8087310295031784 0 -6.8087310295031784 20.851034421744771 0 0 0 0 81.960830585901931 -65.050325226662608 0 -65.050325226662608 40.928488930261665 0 0 0 0 -0.23451684356231794 -1.3321206071862193 0 -1.3321206071862193 -0.58360249166280909 0 0 0 0 30.661626078077916 -87.641550245105009 0 -87.641550245105009 -136.19225786061361 0 0 0 0 32.219905057654614 -103.77963352085135 0 -103.77963352085135 25.888918743446993 0 0 0 0 13.03173142608648 5.0371627217155037 0 5.0371627217155037 59.430009321339639 0 0 0 0 -16.190643244370222 -30.168683719808541 0 -30.168683719808541 -9.7795011212128884 0 0 0 0 7.0716548577952381 -21.465112965297976 0 -21.465112965297976 -33.518977149804414 0 0 0 0 32.963576673129865 -6.0704118522098724 0 -6.0704118522098724 -25.924684987074215 0 0 0 0 71.741444337240864 21.803936064590431 0 21.803936064590431 -16.658038567518815 0 0 0 0 -24.038237037761064 -3.055420465181669 0 -3.055420465181669 1.2490489263946074 0 0 0 0 18.511500777677611 -12.697397924482175 0 -12.697397924482175 -27.70782201214206 0 0 0 0 74.242991856370281 -69.101949202975447 0 -69.101949202975447 27.913238369312239 0 0 0 0 40.010464390480593 -18.294201676433659 0 -18.294201676433659 -22.457446392903876 0 0 0 0 2.5834778598891717 -34.41156516835872 0 -34.41156516835872 -18.923950569732369 0 0 0 0 22.455511621319602 -3.7978516567336555 0 -3.7978516567336555 -25.204388761216251 0 0 0 0 16.997574372571762 -38.416631506324393 0 -38.416631506324393 -0.040976262664116803 0 0 0 0 78.254224127713314 -12.371190395477242 0 -12.371190395477242 -23.464637881051203 0 0 0 0 -0.22560870605554584 0.072946932874579318 0 0.072946932874579318 0.47200865697784167 0 0 0 0 -29.183733906053931 -17.799400342521039 0 -17.799400342521039 -0.0066219341460964642 0 0 0 0 -30.721556038040944 -39.984717201984495 0 -39.984717201984495 0.14780241378684877 0 0 0 0 -19.112366333953105 -32.922788919625418 0 -32.922788919625418 3.2775249080714275 0 0 0 0 -17.829790284420596 -18.879334611079685 0 -18.879334611079685 -0.35363280680576281 0 0 0 0 -20.757233913076561 -14.697908549215754 0 -14.697908549215754 -14.406857778920312 0 0 0 0 -11.854298674377787 -28.821384486392162 0 -28.821384486392162 -2.7029351981307173 0 0 0 0 -68.264060705447264 -48.284135620221605 0 -48.284135620221605 12.405643727754068 0 0 0 0 -46.83003037481194 -28.701831145628603 0 -28.701831145628603 -12.540980336631037 0 0 0 0 -49.029614186587423 -29.059824869029399 0 -29.059824869029399 4.5774733393091083 0 0 0 0 -80.709815500611512 -43.3758903639864 0 -43.3758903639864 -11.359849093634693 0 0 0 0 -72.881894962323713 -46.410342530802154 0 -46.410342530802154 -12.470056406361593 0 0 0 0 -83.413123005207581 -36.949014195264226 0 -36.949014195264226 -20.753447407139902 0 0 0 0 -57.530339454144269 -43.076208147462239 0 -43.076208147462239 -20.196795001294959 0 0 0 0 -71.569614641479347 -34.159900637381725 0 -34.159900637381725 -22.762435178792657 0 0 0 0 -56.59007002838905 -19.92491121169877 0 -19.92491121169877 -5.517307828518824 0 0 0 0 -61.750844534870339 -31.908292751937552 0 -31.908292751937552 -17.58044220677948 0 0 0 0 -28.757953513061693 10.865026247331571 0 10.865026247331571 -33.481761481853027 0 0 0 0 -100.76919060422006 -16.450312744795156 0 -16.450312744795156 -19.366609588734718 0 0 0 0 91.860838587715989 -169.34963891014195 0 -169.34963891014195 -157.34727582015694 0 0 0 0 -18.345529628384611 -40.244684527038771 0 -40.244684527038771 -45.407947966014945 0 0 0 0 -59.91435029106924 26.000880991546182 0 26.000880991546182 -150.74079980354145 0 0 0 0 -76.363965077121975 -43.952375748986015 0 -43.952375748986015 -32.643464611082891 0 0 0 0 -82.727674699784984 -44.162310778066967 0 -44.162310778066967 -24.595764844152427 0 0 0 0 -6.9149426504397624 1.7978134757095567 0 1.7978134757095567 -0.31505085361958507 0 0 0 0 -20.424817614564745 8.9788387793669244 0 8.9788387793669244 76.390069406970724 0 0 0 0 -0.70064923313475447 -5.9684143403646885 0 -5.9684143403646885 21.074719018971606 0 0 0 0 2.9699534645915264 20.693280219158623 0 20.693280219158623 21.139732125429873 0 0 0 0 -15.049817653787613 2.2647638189373538 0 2.2647638189373538 8.0794518777402118 0 0 0 0 -4.0887511252193178 -3.8492942865136559 0 -3.8492942865136559 1.2021573985616243 0 0 0 0 -6.7733751475352619 -2.1825770497162011 0 -2.1825770497162011 -0.345024147638469 0 0 0 0 -23.244623315984427 -11.17083560870833 0 -11.17083560870833 60.157080736573334 0 0 0 0 -0.75418857269652673 -2.8016859813395989 0 -2.8016859813395989 0.17868832290481862 0 0 0 0 -6.9390988531777111 -2.1446444687489929 0 -2.1446444687489929 0.59103331871028786 0 0 0 0 -5.809284847792398 -2.4634046880993665 0 -2.4634046880993665 1.5804198031199306 0 0 0 0 5.2015465975655388 1.598508043169204 0 1.598508043169204 3.393125904707631 0 0 0 0 48.929108588677991 14.524999638862027 0 14.524999638862027 6.3703196072901846 0 0 0 0 0.36765601681631921 -1.0953048989483669 0 -1.0953048989483669 0.37240027899920491 0 0 0 0 -1.0946977268049523 -16.785253474912679 0 -16.785253474912679 79.431836026153178 0 0 0 0 13.472362847413024 -33.749122495704796 0 -33.749122495704796 19.242491977676764 0 0 0 0 11.270515640204394 -46.890891820340585 0 -46.890891820340585 76.688697411744215 0 0 0 0 -6.1182910228208129 -8.3061908937743283 0 -8.3061908937743283 3.7677274373309046 0 0 0 0 -9.4354645880139287 -0.23727625184983481 0 -0.23727625184983481 2.0688601523070247 0 0 0 0 -1.8335826385944554 0.42095156409970613 0 0.42095156409970613 -0.57285450949577665 0 0 0 0 -0.2402303867965947 0.085556473462052196 0 0.085556473462052196 0.041606017231508474 0 0 0 0 4.9633073399418208 -7.8741566477692686 0 -7.8741566477692686 46.633061350621574 0 0 0 0 -19.151358501747382 -83.276476460028789 0 -83.276476460028789 -23.899472280616465 0 0 0 0 6.3185488563649415 -59.444836597343965 0 -59.444836597343965 25.42972670913332 0 0 0 0 -11.757878205560701 -51.673171952542589 0 -51.673171952542589 25.396399551322247 0 0 0 0 31.933674910144873 -50.970759353232097 0 -50.970759353232097 13.400539173278958 0 0 0 0 13.857384305913001 -49.270704703563752 0 -49.270704703563752 14.633506713686074 0 0 0 0 38.189806336042238 -66.284145889964748 0 -66.284145889964748 42.009046290904735 0 0 0 0 0.56517320762321432 -0.16831970843243838 0 -0.16831970843243838 -0.49526370411164322 0 0 0 0 25.749556315187874 -21.011715859256583 0 -21.011715859256583 0.014201304758898914 0 0 0 0 -7.9595098045956547 -54.152411103549639 0 -54.152411103549639 7.0729786695055736 0 0 0 0 -6.8495089176867623 -68.811440721273357 0 -68.811440721273357 10.511356572236991 0 0 0 0 -100.22973186485862 -1.5514182249696047 0 -1.5514182249696047 15.202202468761243 0 0 0 0 -50.737754109774869 -24.362176840508255 0 -24.362176840508255 -0.0036974418162571965 0 0 0 0 -9.5087463852451037 -24.13786403640006 0 -24.13786403640006 -14.770043957225425 0 0 0 0 7.4978076050369964 2.9234497342176837 0 2.9234497342176837 27.127499297470422 0 0 0 0 74.123657725162047 37.334200035036702 0 37.334200035036702 32.844278367369043 0 0 0 0 0.4338525833387834 -0.12527401620656775 0 -0.12527401620656775 -0.4063533170899376 0 0 0 0 -9.7453764719684841 -49.156278131233194 0 -49.156278131233194 14.528183304536469 0 0 0 0 -40.999120061836948 2.1303301489424484 0 2.1303301489424484 -28.0064056926185 0 0 0 0 5.9516330257520167 -29.920376986223346 0 -29.920376986223346 -17.411737124861247 0 0 0 0 -44.407853747989066 -18.673919220352218 0 -18.673919220352218 23.700468936916877 0 0 0 0 -86.401444968935877 -13.886185400746331 0 -13.886185400746331 26.142883271593746 0 0 0 0 -37.030021998529264 25.072014205750747 0 25.072014205750747 24.966990507367882 0 0 0 0 -18.028067735263903 -31.555219273857801 0 -31.555219273857801 -7.3427061856182263 0 0 0 0 5.5999030060465884 -76.566877645587738 0 -76.566877645587738 17.174820081965663 0 0 0 0 85.25137195652951 -32.763196368448007 0 -32.763196368448007 -10.396673573177395 0 0 0 0 10.356720693725947 -36.808947699475539 0 -36.808947699475539 -10.589320505877595 0 0 0 0 -22.101687466069052 -35.604901076581882 0 -35.604901076581882 7.222839070520422 0 0 0 0 -14.180704583610378 -39.404823776168115 0 -39.404823776168115 4.209148791818734 0 0 0 0 -20.900529829757943 -41.149338636729226 0 -41.149338636729226 13.288524858964593 0 0 0 0 -41.711808029661654 -41.605017494711149 0 -41.605017494711149 17.111243626339274 0 0 0 0 -8.2584711525851162 -49.267647346436206 0 -49.267647346436206 5.7092676678184944 0 0 0 0 -16.793662770125593 -15.261838934336993 0 -15.261838934336993 17.618624824266817 0 0 0 0 1.2961494675903076 -1.3719567610271319 0 -1.3719567610271319 1.9602492469062298 0 0 0 0 -19.494538882740017 -30.995693580021907 0 -30.995693580021907 19.246733337755359 0 0 0 0 -4.9647692741764331 -20.354580175866431 0 -20.354580175866431 -1.0552703985213157 0 0 0 0 -10.286193744533648 -13.035499187663845 0 -13.035499187663845 -10.500855854606925 0 0 0 0 -0.43975139702661181 -20.839915858517543 0 -20.839915858517543 -1.2898014150123345 0 0 0 0 4.0373855415605249 -32.524865752224287 0 -32.524865752224287 2.6226528633924318 0 0 0 0 -10.743305230203987 -32.036338330712169 0 -32.036338330712169 2.6594092844388797 0 0 0 0 33.046334721018866 -19.552726091053046 0 -19.552726091053046 -8.1262572925916174 0 0 0 0 26.976164991696805 -0.45096217244667969 0 -0.45096217244667969 -4.7521404901563074 0 0 0 0 9.6961619416797475 -4.7898547808617877 0 -4.7898547808617877 -4.4405936968232709 0 0 0 0 7.0043544516647671 -20.751267995066883 0 -20.751267995066883 -8.1669037554938768 0 0 0 0 -16.879669462720813 -22.76713692557496 0 -22.76713692557496 -11.465852329809422 0 0 0 0 -2.8467785060004704 -3.2786100657168475 0 -3.2786100657168475 -1.017039847106652 0 0 0 0 -0.44198444664171177 -4.6464602668134667 0 -4.6464602668134667 -0.96637298002099215 0 0 0 0 -7.0943088382373389 -1.6557020969303267 0 -1.6557020969303267 -0.739841779118251 0 0 0 0 -84.990509143273812 -37.04632712311286 0 -37.04632712311286 18.820709122766857 0 0 0 0 -19.183073502270418 -28.238750516358778 0 -28.238750516358778 -16.834632002846774 0 0 0 0 -14.803200240839942 -22.757432688229528 0 -22.757432688229528 -23.43275555290893 0 0 0 0 -3.4090742301970791 -5.2282454270019301 0 -5.2282454270019301 -2.0826244547110235 0 0 0 0 2.9055530361729325 -10.165951612715617 0 -10.165951612715617 -2.7202660711491262 0 0 0 0 -16.146356692229347 -10.1443060959391 0 -10.1443060959391 1.7028580016412889 0 0 0 0 3.580645084896787 -9.2787824182696568 0 -9.2787824182696568 -5.7453900017062551 0 0 0 0 0.037703213210527053 -4.0914610699219507 0 -4.0914610699219507 -2.807502665844666 0 0 0 0 7.9473203960569663 -12.754944553471432 0 -12.754944553471432 -5.0391338375044796 0 0 0 0 13.89742146181743 8.613680227259465 0 8.613680227259465 -9.0157138192880666 0 0 0 0 16.57543471597819 -8.277607271056695 0 -8.277607271056695 -5.1022169796669914 0 0 0 0 -1.9797219846877852 -18.258500941496095 0 -18.258500941496095 -9.2911127565766947 0 0 0 0 -7.9424913780076167 -16.446768660633097 0 -16.446768660633097 -3.8203529747934226 0 0 0 0 1.1370558668750164 -22.477283151021766 0 -22.477283151021766 2.3195470767473125 0 0 0 0 -3.3700289903128722 -8.5725134995467762 0 -8.5725134995467762 -7.0669982522904391 0 0 0 0 -0.27921370472608942 -8.9173256104056691 0 -8.9173256104056691 -1.0815319993853336 0 0 0 0 -1.0699262700784491 -6.9742250085305617 0 -6.9742250085305617 1.8502932962783447 0 0 0 0 -4.5362239760434022 -7.7339799534220219 0 -7.7339799534220219 2.0797008381032356 0 0 0 0 8.0278058069343388 -10.683090135865314 0 -10.683090135865314 1.949312168940196 0 0 0 0 3.1647152740531652 -10.429983458169625 0 -10.429983458169625 1.7705232306679459 0 0 0 0 -2.3142085046874854 -11.183230186787114 0 -11.183230186787114 5.342911379857469 0 0 0 0 7.6604642982911173 -16.466586274768815 0 -16.466586274768815 -9.9941190754191211 0 0 0 0 -3.9970056665015363 -14.706066774627288 0 -14.706066774627288 -15.177255365124438 0 0 0 0 -6.8518439252555936 -8.9870442440356193 0 -8.9870442440356193 2.4312591498294012 0 0 0 0 -6.9802933758178334 -8.5125382258298856 0 -8.5125382258298856 3.1502886823186484 0 0 0 0 -6.6994587888616479 -11.671190827169085 0 -11.671190827169085 -5.0433836628799327 0 0 0 0 -1.4867191678066689 -9.6796354183885356 0 -9.6796354183885356 -6.0079379825758608 0 0 0 0 -6.1133044306718887 -11.151350261391517 0 -11.151350261391517 1.624480935792235 0 0 0 0 -5.5159763381452649 -12.609628114234511 0 -12.609628114234511 1.1950908074768449 0 0 0 0 0.96109577935695167 -8.5029525864051738 0 -8.5029525864051738 -7.2134195017241183 0 0 0 0 -1.0562143558768184 -5.8558384642276451 0 -5.8558384642276451 -10.056653361520148 0 0 0 0 -6.551184556876251 -11.334248637951532 0 -11.334248637951532 1.720662115199957 0 0 0 0 -4.0523440607612429 -11.832753263073755 0 -11.832753263073755 0.96653369957130053 0 0 0 0 -4.6622797838390397 -10.955011627575004 0 -10.955011627575004 1.6207689272323478 0 0 0 0 -2.7033221401368692 -3.61142519319786 0 -3.61142519319786 1.6833711581241744 0 0 0 0 -21.266868745304237 -1.2646715513101299 0 -1.2646715513101299 11.362125390996027 0 0 0 0 -12.243607721509761 -0.29636662153370708 0 -0.29636662153370708 11.316810246912667 0 0 0 0 -27.723412302231736 -12.982436754644368 0 -12.982436754644368 10.407404696216872 0 0 0 0 -9.1899739991877141 -10.338090508468895 0 -10.338090508468895 10.783162141098728 0 0 0 0 -23.885148724946703 -16.752764116915387 0 -16.752764116915387 16.088348692836007 0 0 0 0 -19.058349342561996 -18.794626901081301 0 -18.794626901081301 13.537115619365068 0 0 0 0 -26.673811447519256 -15.589362326079026 0 -15.589362326079026 12.206737629362578 0 0 0 0 -25.6753664076532 -21.26438356934068 0 -21.26438356934068 8.6659767984019709 0 0 0 0 -19.227031937884021 -21.397164570667883 0 -21.397164570667883 2.2700973472415171 0 0 0 0 -20.225786451350359 -16.285893731172564 0 -16.285893731172564 12.327863044838068 0 0 0 0 -23.931869552330681 -26.484442014110755 0 -26.484442014110755 -11.277320312590746 0 0 0 0 -15.961965036722177 -31.412079841663399 0 -31.412079841663399 -32.67680041798485 0 0 0 0 -10.698210455448134 -24.991491802738892 0 -24.991491802738892 -12.58234987398464 0 0 0 0 -15.505104730254001 -11.669960866839018 0 -11.669960866839018 6.9658636612098519 0 0 0 0 0.45413897299435035 -5.1914673330378172 0 -5.1914673330378172 -1.6561727497365553 0 0 0 0 -10.061334408101175 -13.810657786962111 0 -13.810657786962111 -7.0793570655441727 0 0 0 0 0.078388566545408267 0.099004913506647085 0 0.099004913506647085 0.41263496846712755 0 0 0 0 -55.488261916798365 24.063360837647906 0 24.063360837647906 28.492334346807183 0 0 0 0 -32.970004768791114 -1.6294686717828881 0 -1.6294686717828881 8.7262113236495225 0 0 0 0 -34.310635171483682 4.000562857515888 0 4.000562857515888 -13.866038983380349 0 0 0 0 -55.894312041522426 20.005740455381783 0 20.005740455381783 79.957501910168503 0 0 0 0 -73.26002219441034 -6.0334516479642843 0 -6.0334516479642843 81.346374868997373 0 0 0 0 -51.022845111758215 3.0052681664146803 0 3.0052681664146803 8.207329405260225 0 0 0 0 -83.522390318701582 -43.10337149793213 0 -43.10337149793213 16.017881217596141 0 0 0 0 -39.383549201345886 -19.574122713373072 0 -19.574122713373072 21.972967441113042 0 0 0 0 -45.434052453318145 -28.758162550974703 0 -28.758162550974703 11.52384979058661 0 0 0 0 -27.031139725841058 -29.230777260087962 0 -29.230777260087962 11.341690921977715 0 0 0 0 -31.509464686265346 -19.818645919583332 0 -19.818645919583332 8.9516181849630811 0 0 0 0 -33.934836593190994 -14.23719354449895 0 -14.23719354449895 7.3510401436124084 0 0 0 0 -22.904412481249892 -16.200597423464387 0 -16.200597423464387 7.2874543110265222 0 0 0 0 -44.422660702693975 -10.649775182162557 0 -10.649775182162557 7.1514161901104671 0 0 0 0 -28.205305538633183 -18.358823589258009 0 -18.358823589258009 7.7848152565111377 0 0 0 0 -26.376692237487077 -10.629413755978021 0 -10.629413755978021 -4.9874956643943733 0 0 0 0 -1.5138345608890198 -1.4532835605823244 0 -1.4532835605823244 2.1029500805955621 0 0 0 0 -7.6229226607247256 -1.8522199585868293 0 -1.8522199585868293 2.0450534924802923 0 0 0 0 -30.884724295170599 -7.7892381394599397 0 -7.7892381394599397 6.9568539737774699 0 0 0 0 -0.61600567925597716 -13.431459124923549 0 -13.431459124923549 -0.24094387801596895 0 0 0 0 12.539787696689018 -18.444229531811288 0 -18.444229531811288 14.246627073353011 0 0 0 0 -0.88529312119726278 -1.0715186368477134 0 -1.0715186368477134 0.18085664016424019 0 0 0 0 -0.25426592678761395 -0.54642547892963478 0 -0.54642547892963478 -0.85547312341739357 0 0 0 0 2.5224842263123719 -31.918132637742929 0 -31.918132637742929 14.643432481379932 0 0 0 0 19.469876115821535 -6.3194689894662588 0 -6.3194689894662588 2.0565956121445197 0 0 0 0 2.2100500453634595 -15.932396689293455 0 -15.932396689293455 14.211661260937944 0 0 0 0 6.910839890465013 -22.146273806645013 0 -22.146273806645013 1.6914867222076282 0 0 0 0 16.071004022935085 -24.40826679282236 0 -24.40826679282236 0.065095202324300772 0 0 0 0 15.838088504367192 -20.401164416583242 0 -20.401164416583242 1.2783950352604734 0 0 0 0 -1.6555940930957149 -0.57017363329350701 0 -0.57017363329350701 39.359449640653679 0 0 0 0 3.5506952123760129 -27.491904472090027 0 -27.491904472090027 35.134399208935974 0 0 0 0 64.788664642679578 -55.725641680502349 0 -55.725641680502349 62.270245210875146 0 0 0 0 49.745596810982533 -21.897441213332968 0 -21.897441213332968 9.6788348662557837 0 0 0 0 12.166505735174724 -24.676351915617488 0 -24.676351915617488 18.84737733892689 0 0 0 0 22.599291057938899 -44.198317283398865 0 -44.198317283398865 53.314690900999267 0 0 0 0 1.9317740414535365 -28.636603591698758 0 -28.636603591698758 150.90704521853331 0 0 0 0 -6.8704782363001868 -4.0173208672504188 0 -4.0173208672504188 86.51295138993828 0 0 0 0 -2.2257724080673142 -1.2809602637466924 0 -1.2809602637466924 38.59281908850835 0 0 0 0 -1.4538650661582508 -0.44144734499516325 0 -0.44144734499516325 0.24274022650278138 0 0 0 0 -16.39579982575583 -21.490706443681347 0 -21.490706443681347 -45.518839595322333 0 0 0 0 -17.659733296814011 -41.122763798754249 0 -41.122763798754249 -58.006675562132841 0 0 0 0 -21.741271017280269 -44.506568057730419 0 -44.506568057730419 -103.74822973534356 0 0 0 0 -47.213230368799486 -58.009607313108972 0 -58.009607313108972 -64.760839426498791 0 0 0 0 -52.262174018049336 -61.760670489935364 0 -61.760670489935364 -68.281373427782455 0 0 0 0 -51.449055465200217 -53.633464575686503 0 -53.633464575686503 -80.482693406778708 0 0 0 0 -53.864050018430135 -59.965276750992416 0 -59.965276750992416 -64.861008561844926 0 0 0 0 16.289791282790247 -7.8829003912396729 0 -7.8829003912396729 135.95593301194458 0 0 0 0 -0.46230649171634042 -0.18987747300408309 0 -0.18987747300408309 0.082155704408475749 0 0 0 0 -37.278579385041667 -78.130576337342518 0 -78.130576337342518 -131.08195681655434 0 0 0 0 -80.231970481552707 -79.908513748441692 0 -79.908513748441692 -84.804007758892112 0 0 0 0 -81.586975997104673 15.827641578903695 0 15.827641578903695 131.58919760968092 0 0 0 0 -49.80321489220978 -39.595410190102541 0 -39.595410190102541 -31.062789404939394 0 0 0 0 -79.983525889183511 -52.772577432485377 0 -52.772577432485377 -36.485041825286771 0 0 0 0 -50.471367217499392 -42.303054770772178 0 -42.303054770772178 -72.075578839987429 0 0 0 0 -56.931197358726422 -48.319708528066712 0 -48.319708528066712 -74.775500727075723 0 0 0 0 -35.1581119396551 -64.16357306004079 0 -64.16357306004079 -63.254106825516828 0 0 0 0 -59.584515942537109 -64.760629294321461 0 -64.760629294321461 -58.609128451603965 0 0 0 0 1.2770175499097363 -1.3999504820658721 0 -1.3999504820658721 1.9822675814381014 0 0 0 0 -59.931147812666495 -67.298538988478867 0 -67.298538988478867 -40.953920733831183 0 0 0 0 -54.848333356863805 -54.604833152846368 0 -54.604833152846368 -53.537780046120133 0 0 0 0 -42.308878656707748 -85.271857353475298 0 -85.271857353475298 -31.622220587207494 0 0 0 0 50.793047261233369 28.5088055514193 0 28.5088055514193 24.49013228273634 0 0 0 0 -13.066897924468321 -104.92407240698094 0 -104.92407240698094 -42.823854333630152 0 0 0 0 -18.487525666928377 -15.706603272357825 0 -15.706603272357825 118.86242922974179 0 0 0 0 -61.215207437226127 -120.87266356431087 0 -120.87266356431087 -5.4626958158960406 0 0 0 0 -141.58177298727423 -172.22591987258397 0 -172.22591987258397 -3.1825115884450952 0 0 0 0 -61.394750155071641 -135.86113845495476 0 -135.86113845495476 0.21942769113411487 0 0 0 0 -37.490776378990631 -58.206910196529861 0 -58.206910196529861 13.504439941716555 0 0 0 0 -64.829177719200743 -137.24158053498059 0 -137.24158053498059 30.56979854536371 0 0 0 0 -111.15420549020746 -18.908280351832218 0 -18.908280351832218 62.701645864450256 0 0 0 0 -61.269612666114881 -75.671726726241104 0 -75.671726726241104 73.873521675448046 0 0 0 0 -45.162524509042669 -93.043130282474067 0 -93.043130282474067 -10.216077836130353 0 0 0 0 0.27054055207689487 -0.62218313972656603 0 -0.62218313972656603 0.58357588040806618 0 0 0 0 -44.155511634657159 -78.045503532744078 0 -78.045503532744078 -98.167771121973146 0 0 0 0 -37.722072408499571 -40.358381139586527 0 -40.358381139586527 -47.120227770380552 0 0 0 0 -30.637780286249836 -57.714683132019672 0 -57.714683132019672 -55.01419992852334 0 0 0 0 -30.650304920786766 -61.217148257727615 0 -61.217148257727615 4.6344658387661184 0 0 0 0 -22.093895574003909 -15.636651423288868 0 -15.636651423288868 -0.60889934340775653 0 0 0 0 -11.844466969138921 -27.701534820424058 0 -27.701534820424058 -31.667111854135101 0 0 0 0 -9.7972598353062494 -7.8110226073765716 0 -7.8110226073765716 3.9191282192264225 0 0 0 0 -24.123024721215188 -20.749935809763883 0 -20.749935809763883 5.445612969296235 0 0 0 0 -42.770681661297203 -12.541836192518417 0 -12.541836192518417 17.971174803582471 0 0 0 0 -67.022269823944953 -48.065133680823237 0 -48.065133680823237 11.843141418300775 0 0 0 0 -82.716191487239485 1.9995126288335996 0 1.9995126288335996 17.366195548536169 0 0 0 0 -4.886425664861747 -3.6484613613087156 0 -3.6484613613087156 2.1823450815169458 0 0 0 0 136.80450671634026 -156.65552869522571 0 -156.65552869522571 113.71277445230589 0 0 0 0 -78.22377440996388 -0.37954126785029985 0 -0.37954126785029985 10.884474207957282 0 0 0 0 33.10340084584459 -101.61625349252063 0 -101.61625349252063 117.86191598297125 0 0 0 0 15.500650051770208 -72.497955639529664 0 -72.497955639529664 97.571782818444262 0 0 0 0 56.217944984720816 -86.39408181488443 0 -86.39408181488443 85.242528996760143 0 0 0 0 81.786614740855839 -82.379111115210208 0 -82.379111115210208 83.753338519428326 0 0 0 0 17.897520487675138 -81.788316169802783 0 -81.788316169802783 101.64206088450192 0 0 0 0 50.75414188180639 -76.828133338947055 0 -76.828133338947055 77.56327939004268 0 0 0 0 21.299624857043455 -49.323047679632509 0 -49.323047679632509 53.653181277352815 0 0 0 0 -5.2102191702927207 -3.2988839371195589 0 -3.2988839371195589 3.5368240858293731 0 0 0 0 4.2023281669517019 -13.042662479053945 0 -13.042662479053945 5.4269609920329458 0 0 0 0 3.4096363764292619 -9.6058705746540909 0 -9.6058705746540909 -0.091492044693950447 0 0 0 0 -4.2757325539833069 -3.2415405468652256 0 -3.2415405468652256 5.0663238920959728 0 0 0 0 11.055280917184064 -28.511918181472538 0 -28.511918181472538 59.311317816289943 0 0 0 0 7.0684450248750181 -9.9233137520978971 0 -9.9233137520978971 7.0043138345517946 0 0 0 0 0.0350074843623851 -1.3967167283785482 0 -1.3967167283785482 0.14554158930522121 0 0 0 0 6.0021464627080476 -6.3402860270381591 0 -6.3402860270381591 1.7913954715416942 0 0 0 0 5.9167326794358814 -6.3613532129700161 0 -6.3613532129700161 3.899233578975327 0 0 0 0 4.4804645371714287 -5.1011147638093917 0 -5.1011147638093917 2.385333802740206 0 0 0 0 2.9750897419980902 -6.510431634986162 0 -6.510431634986162 7.8373538935666147 0 0 0 0 1.5651326751179164 -5.5177593496335398 0 -5.5177593496335398 4.964836014333887 0 0 0 0 -8.3820773344104964 -2.1745757771732315 0 -2.1745757771732315 10.968086163837143 0 0 0 0 -11.634492892220806 -5.1756388267190232 0 -5.1756388267190232 11.430314992311651 0 0 0 0 4.3761740219460989 -6.8334755678752117 0 -6.8334755678752117 6.0189140208540266 0 0 0 0 -3.3948702863270057 -1.1743957180280642 0 -1.1743957180280642 2.3745536777678184 0 0 0 0 -7.4875377525386284 -6.595893166703263 0 -6.595893166703263 8.1394633133204479 0 0 0 0 0.9700526439009991 -5.9012781555338734 0 -5.9012781555338734 11.224943790555699 0 0 0 0 0.32018969431646838 -8.6940419250513514 0 -8.6940419250513514 2.0640683007723055 0 0 0 0 -6.0495019636873621 -5.6251355145968773 0 -5.6251355145968773 2.4247191919371289 0 0 0 0 -8.9618232799934958 -13.588799096690536 0 -13.588799096690536 -16.21004735689894 0 0 0 0 -2.293696148970497 -0.29497862382583229 0 -0.29497862382583229 0.29140169125825466 0 0 0 0 -0.54828793776414386 -1.7206740407680172 0 -1.7206740407680172 19.403898062217195 0 0 0 0 -2.9516876403995411 -5.5231288090317321 0 -5.5231288090317321 14.230243894074192 0 0 0 0 -2.868317833378569 -2.7025940337866814 0 -2.7025940337866814 8.6442152804411307 0 0 0 0 -5.8915430128945445 0.41365405704164004 0 0.41365405704164004 21.221469745474906 0 0 0 0 -3.3118581049875502 -12.033954268272282 0 -12.033954268272282 3.9837863312568516 0 0 0 0 -7.6055332600080874 -4.5486888776362093 0 -4.5486888776362093 15.18255836453136 0 0 0 0 -9.7839521098894693 -10.955958312222037 0 -10.955958312222037 6.3669462864854722 0 0 0 0 -3.2993252389223926 -12.529991499852258 0 -12.529991499852258 22.626925517395421 0 0 0 0 -1.5029999937221419 -15.329643837821322 0 -15.329643837821322 7.8584335431132786 0 0 0 0 1.5642873892484204 -18.227277553473414 0 -18.227277553473414 10.275063467553991 0 0 0 0 -1.4756234811427476 -15.505993648406843 0 -15.505993648406843 8.4570660605368175 0 0 0 0 -8.6035819125281705 -18.426850781757821 0 -18.426850781757821 7.3854554557983647 0 0 0 0 -12.60609455848271 -11.211236270003837 0 -11.211236270003837 10.846575196910635 0 0 0 0 -2.8934502585280581 -8.0466156252372301 0 -8.0466156252372301 6.0024323969366868 0 0 0 0 4.5371377079281956 -9.6732422536169906 0 -9.6732422536169906 10.513383106394031 0 0 0 0 0.98809316980223372 -1.1230124228841811 0 -1.1230124228841811 1.1215334809832189 0 0 0 0 -0.66567412185668218 -8.945482782066847 0 -8.945482782066847 -0.4893832134330296 0 0 0 0 -6.268431097996654 -10.209778141740117 0 -10.209778141740117 4.0182309340852953 0 0 0 0 -4.7993823725005775 -7.1988977925410733 0 -7.1988977925410733 1.2136860852488383 0 0 0 0 -0.76795946550937089 -2.5097995522982259 0 -2.5097995522982259 -2.582453694188521 0 0 0 0 -4.1340153740202368 -14.942794896935993 0 -14.942794896935993 14.413197871976763 0 0 0 0 -5.3844608648178109 -22.807606165240941 0 -22.807606165240941 -2.4892481060269347 0 0 0 0 1.5183755780590218 -8.3056315566545891 0 -8.3056315566545891 1.2899748730205829 0 0 0 0 5.7856701691689523 -11.327067031582828 0 -11.327067031582828 -6.1160043479358137 0 0 0 0 -0.86788878860534169 -10.061951700477948 0 -10.061951700477948 2.2131003420040543 0 0 0 0 0.19125088144733482 -5.5915434351043025 0 -5.5915434351043025 3.8746989127216587 0 0 0 0 -2.3485043658392897 -11.461096146737418 0 -11.461096146737418 -0.6231757177019972 0 0 0 0 -18.548845809029444 -14.890869281279265 0 -14.890869281279265 -23.197802465771389 0 0 0 0 -20.857086242278911 10.150003418926531 0 10.150003418926531 -21.913233299921558 0 0 0 0 15.316247655689949 -12.427108284397036 0 -12.427108284397036 -5.3037558202686341 0 0 0 0 -5.5198565442915424 -21.377674826147086 0 -21.377674826147086 -8.1125606328264439 0 0 0 0 -11.484298987976672 -11.641642330481773 0 -11.641642330481773 -5.7401971012905051 0 0 0 0 -38.019274635453257 -16.147403727669371 0 -16.147403727669371 1.0677659789498648 0 0 0 0 -20.482409051311151 -19.958615739961942 0 -19.958615739961942 -20.322596329318003 0 0 0 0 11.081094529312395 -10.395431675306099 0 -10.395431675306099 -23.860231978813545 0 0 0 0 -2.573389813290305 -32.61706815848629 0 -32.61706815848629 34.095146825037773 0 0 0 0 91.952011180968839 99.211158176051867 0 99.211158176051867 -7.3806741171006252 0 0 0 0 0.43930838851949616 -0.23583951872641506 0 -0.23583951872641506 -0.15592662643483735 0 0 0 0 -37.820525974260818 -34.951504791361003 0 -34.951504791361003 -16.85724716616096 0 0 0 0 39.537984462123859 -46.407666842130766 0 -46.407666842130766 -15.242852035760507 0 0 0 0 61.081156724174434 -38.372088102149519 0 -38.372088102149519 101.92140462103998 0 0 0 0 123.07122776355754 22.358513727574064 0 22.358513727574064 36.705775828013429 0 0 0 0 80.316130816336226 -74.66837720372132 0 -74.66837720372132 400.74186216045928 0 0 0 0 80.251100831215808 -69.299921938449643 0 -69.299921938449643 130.51422173369065 0 0 0 0 269.37195260587578 -11.071542908403444 0 -11.071542908403444 102.14939648965174 0 0 0 0 12.884020875742863 -31.375097938041563 0 -31.375097938041563 80.507462538733307 0 0 0 0 34.908330564143398 -85.966782438734754 0 -85.966782438734754 149.61770461406604 0 0 0 0 -34.200599885216434 -16.189108973494513 0 -16.189108973494513 83.634468598464991 0 0 0 0 1.0781558197850245 -47.823948724419552 0 -47.823948724419552 58.584901161183552 0 0 0 0 14.272682805267777 29.029015360859489 0 29.029015360859489 35.28169045775212 0 0 0 0 -77.483139353783372 38.920770158975301 0 38.920770158975301 20.902256696342192 0 0 0 0 -0.22085397646738869 -0.15252797234747462 0 -0.15252797234747462 -0.22521738116334689 0 0 0 0 -0.55533611972737873 -0.46971871814128008 0 -0.46971871814128008 0.91341393034989604 0 0 0 0 -33.225154480820493 -24.94804926198276 0 -24.94804926198276 23.891337484833457 0 0 0 0 -30.9274501069076 -19.485910200817671 0 -19.485910200817671 -6.5820768413232145 0 0 0 0 17.030298833611596 -39.18026411377673 0 -39.18026411377673 73.397241551163461 0 0 0 0 -37.225305282347108 -51.821072538861699 0 -51.821072538861699 101.31081402358268 0 0 0 0 24.974852401810494 -57.224777526048456 0 -57.224777526048456 48.034188917525171 0 0 0 0 26.632513336995089 -78.878018065044103 0 -78.878018065044103 106.21462570169297 0 0 0 0 22.812317253505171 -83.436698608708411 0 -83.436698608708411 100.80925309315221 0 0 0 0 17.190714387191974 -79.841363625364664 0 -79.841363625364664 100.04578421949918 0 0 0 0 30.490821398230764 -86.809961767841742 0 -86.809961767841742 77.952592700645255 0 0 0 0 23.484053311472962 -87.063145407708362 0 -87.063145407708362 101.2402887607285 0 0 0 0 40.605655087871128 -104.0316757543892 0 -104.0316757543892 106.33152288683101 0 0 0 0 2.2088910609545565 3.5458454345634891 0 3.5458454345634891 35.818267781831764 0 0 0 0 33.862634105015331 -32.513427901874195 0 -32.513427901874195 14.504480807078835 0 0 0 0 35.434879246817388 -67.713105536822908 0 -67.713105536822908 69.825314708328733 0 0 0 0 26.831783386249299 -65.494466950547121 0 -65.494466950547121 98.651785446539179 0 0 0 0 29.953965813969262 -67.892208288718848 0 -67.892208288718848 75.11089918849018 0 0 0 0 -10.075755916790513 -8.1955504277839282 0 -8.1955504277839282 1.9848176808063727 0 0 0 0 -8.3207101708740083 -4.3620499670264508 0 -4.3620499670264508 -1.0527990444343232 0 0 0 0 33.822750913632262 -57.478211963186823 0 -57.478211963186823 38.095994779838747 0 0 0 0 76.062390065230829 -64.678133809176188 0 -64.678133809176188 25.606962993286288 0 0 0 0 -2.2356592787841221 -0.70569819950384982 0 -0.70569819950384982 1.7854548895863438 0 0 0 0 31.526292895938241 -25.622859348686688 0 -25.622859348686688 -22.723136340194287 0 0 0 0 -9.7859037047163042 -3.3684799356016697 0 -3.3684799356016697 -15.474308201715758 0 0 0 0 -6.6770481675374 -3.8673880044299764 0 -3.8673880044299764 1.3050469422238855 0 0 0 0 -10.584866435317963 0.011642816299172409 0 0.011642816299172409 1.5391475000537866 0 0 0 0 85.567524140489695 -151.05660217846707 0 -151.05660217846707 116.10335840597349 0 0 0 0 22.464637036147906 -98.462329195143411 0 -98.462329195143411 90.727976169700923 0 0 0 0 38.370033527174201 -117.35556236843115 0 -117.35556236843115 154.47877697322656 0 0 0 0 117.14860761630553 -106.10110152268226 0 -106.10110152268226 108.85389338009554 0 0 0 0 204.24871054920914 -144.5782568952477 0 -144.5782568952477 75.286947482464711 0 0 0 0 -61.716114030863537 -31.29824253687184 0 -31.29824253687184 85.017635675127167 0 0 0 0 -0.044987513542947166 -0.45331814038379292 0 -0.45331814038379292 0.67802208940527819 0 0 0 0 53.777892147205421 -96.684066690267173 0 -96.684066690267173 108.63753612704929 0 0 0 0 20.015282884772887 -93.939663710548416 0 -93.939663710548416 140.43440246423597 0 0 0 0 81.832624297821894 -145.02613255510323 0 -145.02613255510323 176.15077696907974 0 0 0 0 79.616605372297272 -102.50482137963127 0 -102.50482137963127 79.204742313513634 0 0 0 0 123.87274789313597 -146.95110650493189 0 -146.95110650493189 97.11357867074787 0 0 0 0 177.60452056333907 -172.77693677853199 0 -172.77693677853199 121.7159748836475 0 0 0 0 -3.2106196760705643 -3.8101690125927234 0 -3.8101690125927234 -1.2909972630759512 0 0 0 0 -0.7687811413164205 -1.9360210987391788 0 -1.9360210987391788 2.0728382974261024 0 0 0 0 -8.9269423606201599 -31.37358705776478 0 -31.37358705776478 290.59929844351609 0 0 0 0 156.27923871416169 -64.06628328523675 0 -64.06628328523675 2.1111262858967166 0 0 0 0 163.695089465313 -88.176208545367331 0 -88.176208545367331 32.864793123755589 0 0 0 0 -1.1955279370679257 -0.66643314611128446 0 -0.66643314611128446 0.85545209321570681 0 0 0 0 -0.9612446577784155 -0.72192489171772323 0 -0.72192489171772323 -0.31613960285483245 0 0 0 0 -5.5927770106637809 50.156879159220722 0 50.156879159220722 220.5549673852729 0 0 0 0 -12.874983199617418 -56.622507734609826 0 -56.622507734609826 -63.545935204536363 0 0 0 0 -3.6293940959043098 -3.2908067342376883 0 -3.2908067342376883 -0.14569751520581065 0 0 0 0 -285.92153525170579 -32.315944678472988 0 -32.315944678472988 -28.061054129628246 0 0 0 0 -5.6619278807866067 -1.9552075533861171 0 -1.9552075533861171 -2.0363111716769708 0 0 0 0 -13.668040114875112 -8.0450572377289973 0 -8.0450572377289973 4.5361151918787073 0 0 0 0 -163.02537634851615 -95.918962316621219 0 -95.918962316621219 0.15989900862041395 0 0 0 0 -0.81603169116209884 -0.62167370844539604 0 -0.62167370844539604 0.06146936951532922 0 0 0 0 -1.5018479831720555 -0.20599493499220856 0 -0.20599493499220856 0.22294052606969217 0 0 0 0 104.67742149367132 -15.885598430505979 0 -15.885598430505979 -17.322455874821571 0 0 0 0 -6.698514465228655 -3.1777380718654413 0 -3.1777380718654413 1.7999494085602201 0 0 0 0 -23.49809734547398 29.903449409741597 0 29.903449409741597 21.04730155685138 0 0 0 0 -7.1486013751564315 1.1175002732607027 0 1.1175002732607027 -0.75293794569552119 0 0 0 0 -6.7985408922722854 -0.83941528367540741 0 -0.83941528367540741 3.6009336765364424 0 0 0 0 -8.6330586680492161 -3.9184751516811502 0 -3.9184751516811502 -0.069000494264400913 0 0 0 0 -7.1373252255170705 -2.207530290771885 0 -2.207530290771885 0.31557311485357786 0 0 0 0 -2.4079729630357178 -3.0312651978829308 0 -3.0312651978829308 0.32551456659439282 0 0 0 0 -4.7516020636903704 3.9335764448842383 0 3.9335764448842383 13.531139624146817 0 0 0 0 -10.258714137860807 -5.777620124978057 0 -5.777620124978057 22.349544581053578 0 0 0 0 -0.36456652542074153 2.0973207453666873 0 2.0973207453666873 5.6715368078548636 0 0 0 0 -7.0985980988152733 -1.4433168984451186 0 -1.4433168984451186 8.1867712241055415 0 0 0 0 -10.354887334375235 -4.676610124986837 0 -4.676610124986837 17.110652205674342 0 0 0 0 -10.685202077205759 -6.9062972849615107 0 -6.9062972849615107 9.035605583094366 0 0 0 0 -9.8106026385976293 -5.9609254226268149 0 -5.9609254226268149 9.6498984945010307 0 0 0 0 0.32729902434416402 -0.16172703940436506 0 -0.16172703940436506 -0.29567033413989563 0 0 0 0 -7.632124353918698 2.0794830927816292 0 2.0794830927816292 42.990764348322045 0 0 0 0 -10.633658058401124 -18.461825486436737 0 -18.461825486436737 0.73237839635191904 0 0 0 0 0.59586726462816841 -0.16826334571608115 0 -0.16826334571608115 -0.23054685118702878 0 0 0 0 2.9554893016170354 13.191973641389609 0 13.191973641389609 28.47435890792076 0 0 0 0 -2.1229482123708294 10.87922620329482 0 10.87922620329482 -1.9418531838906006 0 0 0 0 -63.222150697117513 -135.49610617332797 0 -135.49610617332797 -110.06430721182187 0 0 0 0 -0.034362201932047753 -0.16375763352867878 0 -0.16375763352867878 0.10383950628815697 0 0 0 0 -0.14630430072793388 -54.771242777024327 0 -54.771242777024327 -95.221830313587816 0 0 0 0 -50.044018478822181 -65.384758258951933 0 -65.384758258951933 -82.15854570697411 0 0 0 0 0.13567105137190083 -91.407532356422053 0 -91.407532356422053 -70.446717012042427 0 0 0 0 -140.60725894417919 -164.28119016767232 0 -164.28119016767232 1.7270301470580307 0 0 0 0 -11.745673664769129 -82.885291645326106 0 -82.885291645326106 -91.608747067463355 0 0 0 0 -214.5597561659888 -140.03101621223959 0 -140.03101621223959 21.869051054984084 0 0 0 0 62.449210385917468 -196.02020643674905 0 -196.02020643674905 -0.32153483649835835 0 0 0 0 93.595623547214927 42.863464848784588 0 42.863464848784588 82.21120359057204 0 0 0 0 -33.388585485001386 -89.457174721508181 0 -89.457174721508181 12.361943234010141 0 0 0 0 -0.13450428034138667 -60.962258762680271 0 -60.962258762680271 299.02353893611144 0 0 0 0 46.384235043897206 -123.10814760439007 0 -123.10814760439007 175.48273372195308 0 0 0 0 -177.86385043326663 44.472562484903847 0 44.472562484903847 319.35798019638378 0 0 0 0 71.623345725325635 -64.432946041615651 0 -64.432946041615651 1.0850306810716575 0 0 0 0 0.98243370146117925 -1.7157779788166962 0 -1.7157779788166962 2.8228517480107342 0 0 0 0 -290.43760679949628 -43.033662450665361 0 -43.033662450665361 339.50186457025666 0 0 0 0 -356.22550220528865 -202.64316705248075 0 -202.64316705248075 241.8315655171964 0 0 0 0 -191.9918408304311 -98.595356296792488 0 -98.595356296792488 303.71403243538407 0 0 0 0 -163.06739301687048 -77.996283391265933 0 -77.996283391265933 300.73608915440082 0 0 0 0 94.031268202001229 -172.80221694733882 0 -172.80221694733882 269.50741901256106 0 0 0 0 -132.7123147610364 -154.83337134537533 0 -154.83337134537533 308.36484566008767 0 0 0 0 91.052198761630279 -155.77198780285198 0 -155.77198780285198 192.72876706490752 0 0 0 0 84.714943891103758 -66.935103592710448 0 -66.935103592710448 -16.394246070100053 0 0 0 0 -48.638450563454171 -95.32787743484505 0 -95.32787743484505 166.59974814241059 0 0 0 0 -176.4641973113321 -24.654985109918016 0 -24.654985109918016 181.19088701926557 0 0 0 0 -51.835140951125595 -79.259797851203984 0 -79.259797851203984 126.44330479020937 0 0 0 0 -84.639289166119852 -1.5115762855007233 0 -1.5115762855007233 -2.825403778710097 0 0 0 0 2.9047626258242047 -4.5539975657874763 0 -4.5539975657874763 6.4621937271363983 0 0 0 0 -94.456220084384768 -171.6191071004996 0 -171.6191071004996 -42.649776961211955 0 0 0 0 -63.248062359951291 -4.5465003811682436 0 -4.5465003811682436 -12.945102898994264 0 0 0 0 60.447275692767789 -111.1747803763368 0 -111.1747803763368 9.9065431931412604 0 0 0 0 -37.594450380115177 -117.94179539039112 0 -117.94179539039112 -69.174592191200645 0 0 0 0 -20.039080241547879 -16.115464565198636 0 -16.115464565198636 3.8890623071183654 0 0 0 0 -20.600414800171336 -3.4181846664241959 0 -3.4181846664241959 14.689516402038862 0 0 0 0 -0.014796944124100264 -5.814466883959085 0 -5.814466883959085 5.8160108714728267 0 0 0 0 0.12538565815611938 -22.754426778464371 0 -22.754426778464371 34.264622608679929 0 0 0 0 20.962179838168595 -19.401628496731064 0 -19.401628496731064 13.726624857359639 0 0 0 0 9.3881853022248833 19.538341140569173 0 19.538341140569173 12.974603156138983 0 0 0 0 -17.093232241008991 -15.606346819314808 0 -15.606346819314808 -7.7017760531034583 0 0 0 0 1.1639846410944301 -16.972964683334339 0 -16.972964683334339 16.213523137302303 0 0 0 0 1.1780113769007912 -1.1958741667320822 0 -1.1958741667320822 1.1586280715322417 0 0 0 0 -15.878866474490678 -18.147572675659831 0 -18.147572675659831 -10.339571340469774 0 0 0 0 -11.48896112957118 -6.4697085728244019 0 -6.4697085728244019 -2.3865705981038445 0 0 0 0 0.59218926019153173 -0.46913605223525678 0 -0.46913605223525678 0.34159610418177522 0 0 0 0 0.034188969948445447 -37.839430861189953 0 -37.839430861189953 192.12637899199035 0 0 0 0 22.339020663670453 -31.114945715065915 0 -31.114945715065915 -9.1576932093058758 0 0 0 0 -17.518290862293725 8.5671819177709949 0 8.5671819177709949 172.7989599900875 0 0 0 0 -18.016174591139134 -5.5596770257764092 0 -5.5596770257764092 46.741011434102802 0 0 0 0 -0.52395896469897707 -16.546528574172498 0 -16.546528574172498 16.173465257999851 0 0 0 0 10.478543050739063 -19.662333679163794 0 -19.662333679163794 9.5383812971895168 0 0 0 0 -0.76234179836683325 -16.913072926301538 0 -16.913072926301538 39.969987312514149 0 0 0 0 3.9072917383000458 -6.8415017666025051 0 -6.8415017666025051 2.2173141980947548 0 0 0 0 -0.96521235041109321 -5.1577382280886468 0 -5.1577382280886468 0.73869018331333791 0 0 0 0 -1.7979456939374359 -4.6259093205032968 0 -4.6259093205032968 5.798005706396907 0 0 0 0 0.015531013516010717 -3.3983133740430276 0 -3.3983133740430276 -0.56086997345755663 0 0 0 0 -1.8626899568844237 -5.4298957978398903 0 -5.4298957978398903 -1.181895558210158 0 0 0 0 -0.54276865476913372 -3.5513844310476088 0 -3.5513844310476088 -1.8349975966748389 0 0 0 0 -6.2168413994331786 -11.083190315719094 0 -11.083190315719094 10.030376599091966 0 0 0 0 -1.4672058999676665 -4.9166642516361208 0 -4.9166642516361208 -5.4555898506932863 0 0 0 0 -14.262289665162825 -5.1192682213945773 0 -5.1192682213945773 5.6298366189321314 0 0 0 0 7.5209264288837403 11.777547467647707 0 11.777547467647707 -6.9174217810650589 0 0 0 0 0.095714754035633121 -0.1190975723066785 0 -0.1190975723066785 -0.071370947602297008 0 0 0 0 -5.0602954663590936 -7.2709966857241852 0 -7.2709966857241852 -3.1575862295972001 0 0 0 0 2.5792137885728152 -10.71258127045985 0 -10.71258127045985 -4.546748669601385 0 0 0 0 0.44597386401536454 -0.74333835973086337 0 -0.74333835973086337 -0.51294989957690618 0 0 0 0 -15.473901872257557 -14.694453312978339 0 -14.694453312978339 -4.7991779473832139 0 0 0 0 -15.832789530173613 -14.304877358160411 0 -14.304877358160411 -4.2789546192871057 0 0 0 0 1.1658168992847138 -1.7460775997681708 0 -1.7460775997681708 1.7737765363047888 0 0 0 0 -1.4468259186241994 -3.3906748904782944 0 -3.3906748904782944 -1.3891959935263003 0 0 0 0 -1.7718984900075156 -5.2683585380939633 0 -5.2683585380939633 -2.6399122824213919 0 0 0 0 -3.419690232823541 -4.1294777906584237 0 -4.1294777906584237 -1.8566790274054057 0 0 0 0 -7.7552007249978487 -7.6061406128060298 0 -7.6061406128060298 -1.3188462765189541 0 0 0 0 6.7412369049125118 -13.645865845418257 0 -13.645865845418257 -1.129990476923922 0 0 0 0 6.1027533024061995 1.2341398503983783 0 1.2341398503983783 0.55004963417422914 0 0 0 0 -17.588091143619749 -16.624718784632933 0 -16.624718784632933 -10.176820832060002 0 0 0 0 5.0163891467589075 -3.2306597350248474 0 -3.2306597350248474 -0.82123703523960678 0 0 0 0 1.102814602742292 -1.9325279191309725 0 -1.9325279191309725 0.40626586594224889 0 0 0 0 -0.78310617790354797 -1.9867681930282863 0 -1.9867681930282863 0.33843878218162615 0 0 0 0 0.14608540248082136 -1.5861548930133722 0 -1.5861548930133722 -0.98662901916213741 0 0 0 0 4.1805545045104395 -2.0910110242635334 0 -2.0910110242635334 0.77609670056058988 0 0 0 0 -15.977331130394305 -14.977233380303005 0 -14.977233380303005 -4.6156321778917118 0 0 0 0 -18.243367023344035 -15.808243790722372 0 -15.808243790722372 -3.4950791765619442 0 0 0 0 -16.394121406083286 -15.562562848992684 0 -15.562562848992684 -3.4833479174249078 0 0 0 0 -18.233997270668624 -13.89752352920641 0 -13.89752352920641 -4.3479268281071199 0 0 0 0 -8.7975907035543059 -5.1043044581087997 0 -5.1043044581087997 -0.25611892928463931 0 0 0 0 -21.283872158768645 -20.697407878103149 0 -20.697407878103149 -11.319778323068022 0 0 0 0 0.49298595221222286 -0.42080871398687592 0 -0.42080871398687592 0.30853213523998768 0 0 0 0 -33.274553009512601 -9.4709636253901408 0 -9.4709636253901408 2.8534404376046041 0 0 0 0 -18.668037388517405 -12.739266415218481 0 -12.739266415218481 -11.419676985350023 0 0 0 0 -17.98921603603776 -15.304244478429723 0 -15.304244478429723 -4.2530412372962019 0 0 0 0 -14.293313881300492 -17.399957664562407 0 -17.399957664562407 -9.0111968943692773 0 0 0 0 -12.4799368396707 -14.331602774993371 0 -14.331602774993371 -5.5644426363178354 0 0 0 0 -11.507854251056415 -15.756216166410013 0 -15.756216166410013 -4.0035590128236436 0 0 0 0 -4.9618423590327438 -14.855076860917961 0 -14.855076860917961 -6.8518744559423794 0 0 0 0 -14.739278135784843 -16.361583525888364 0 -16.361583525888364 -5.1117481180281175 0 0 0 0 -11.502842094778316 -14.539834633470036 0 -14.539834633470036 -6.0462282646331005 0 0 0 0 -12.033207000757102 -13.348908327186109 0 -13.348908327186109 -6.5033589688432585 0 0 0 0 -6.64568745849283 -11.522164301338762 0 -11.522164301338762 -7.8506114061847256 0 0 0 0 -13.663448753888133 -11.317040087352098 0 -11.317040087352098 -5.2186381298270135 0 0 0 0 -12.60434786184851 -14.510892775843786 0 -14.510892775843786 -11.553831987556123 0 0 0 0 -15.362679173864763 -12.887524057945399 0 -12.887524057945399 -6.6832001291659253 0 0 0 0 0.01385712560841057 -9.2948811357712202 0 -9.2948811357712202 -10.330252244017629 0 0 0 0 -6.535769924856595 -11.850213862301302 0 -11.850213862301302 -7.4285923545248806 0 0 0 0 -5.1318925695755411 -10.687120161812231 0 -10.687120161812231 -7.2097187139625021 0 0 0 0 -0.0029210905831860146 -14.915924712205651 0 -14.915924712205651 -3.7438782011522562 0 0 0 0 -6.8806727195733401 -13.495436457615597 0 -13.495436457615597 7.746733713033791 0 0 0 0 -5.6787955242225507 -12.90668825964508 0 -12.90668825964508 -5.5606085118379269 0 0 0 0 -14.143061649203446 -14.371032186923458 0 -14.371032186923458 -0.62725713847976294 0 0 0 0 -4.5821691711563517 -6.8789829753249165 0 -6.8789829753249165 -5.3599854003405198 0 0 0 0 -4.2310057227423385 0.6494422296727862 0 0.6494422296727862 12.95382003606187 0 0 0 0 0.0016552982451685239 -14.859237304166072 0 -14.859237304166072 -21.332987954443524 0 0 0 0 0.42191199669323254 0.15761534019896928 0 0.15761534019896928 -0.36716543155234938 0 0 0 0 -3.2670711418977589 0.40850619981392811 0 0.40850619981392811 -1.0183180055410048 0 0 0 0 4.3123892286312184 -4.5648084822742021 0 -4.5648084822742021 0.5009632200692522 0 0 0 0 -11.863006360055806 -9.9219995214032224 0 -9.9219995214032224 6.6354510716073491 0 0 0 0 -2.0674754424107959 -19.178425764268241 0 -19.178425764268241 -12.484600719310038 0 0 0 0 0.38913273896206846 0.089564441512393955 0 0.089564441512393955 -0.29296057991819957 0 0 0 0 -13.591177905336735 -5.69808028009993 0 -5.69808028009993 43.138235521181741 0 0 0 0 6.8140629407971574 -20.215809326683484 0 -20.215809326683484 12.078666016138413 0 0 0 0 -0.0023210861896895952 -14.112763041513896 0 -14.112763041513896 26.640947560375025 0 0 0 0 -11.795281795441042 -3.878795253523549 0 -3.878795253523549 28.342491370130574 0 0 0 0 -15.930874157451399 -13.440161558819 0 -13.440161558819 15.231008359798579 0 0 0 0 -15.511516503513121 -10.973974285776421 0 -10.973974285776421 23.803329971395215 0 0 0 0 -7.966356139158961 -6.1465714417922754 0 -6.1465714417922754 20.651629386620698 0 0 0 0 -11.552869650644425 -2.41262692251712 0 -2.41262692251712 18.083749030368836 0 0 0 0 -34.506321318449409 -20.194082649531083 0 -20.194082649531083 -14.380898633344714 0 0 0 0 0.31393401245029651 0.11781047790509902 0 0.11781047790509902 -0.27866661149989724 0 0 0 0 0.56844880228185346 -0.8241097053794455 0 -0.8241097053794455 0.10086035813891669 0 0 0 0 14.390048620207381 4.4391718595570637 0 4.4391718595570637 0.40814390453147098 0 0 0 0 -18.386861622274409 -17.468516708067909 0 -17.468516708067909 -14.400938452748051 0 0 0 0 -34.472363379136368 -18.863569997616878 0 -18.863569997616878 -5.6423248761357172 0 0 0 0 -11.785862691973307 -8.8427286349585756 0 -8.8427286349585756 -10.774004562032133 0 0 0 0 -12.32262559238734 -8.2831569415689046 0 -8.2831569415689046 -2.9596084131690077 0 0 0 0 -17.49624334021064 -15.39961476237022 0 -15.39961476237022 -6.0215871184163916 0 0 0 0 -21.644492668925523 -14.920703805620178 0 -14.920703805620178 -2.8616968593023557 0 0 0 0 -22.451109708268177 -13.008294738486768 0 -13.008294738486768 -4.5776771605451358 0 0 0 0 -15.264158607118588 -11.803877983764551 0 -11.803877983764551 -5.4808773565619049 0 0 0 0 1.194786642755691 -1.079612724816986 0 -1.079612724816986 0.34823295531217013 0 0 0 0 8.0863545445763521 -1.9897892211604358 0 -1.9897892211604358 -1.61218069133065 0 0 0 0 -22.865511865938061 -12.080727376398272 0 -12.080727376398272 -6.7710412815631571 0 0 0 0 -22.321931184577238 -15.324864848638342 0 -15.324864848638342 -5.0430463776683609 0 0 0 0 11.915046120220723 2.5467864610800461 0 2.5467864610800461 -1.4904229890175884 0 0 0 0 19.232896616619485 6.8752805751799997 0 6.8752805751799997 -12.954353012687534 0 0 0 0 9.4148555541214591 -1.8117340811102167 0 -1.8117340811102167 -4.2711375662788669 0 0 0 0 1.0874808786588934 -0.42170816732468097 0 -0.42170816732468097 0.73151732447468376 0 0 0 0 10.829699384197738 -7.6688390260242159 0 -7.6688390260242159 -1.3122991825230201 0 0 0 0 5.5580820424456121 -3.8281952369713608 0 -3.8281952369713608 0.1347349498631214 0 0 0 0 -39.148666708455949 -34.926277825611123 0 -34.926277825611123 5.3325098180084751 0 0 0 0 18.082156836673676 4.9497877841386071 0 4.9497877841386071 0.94985852268405324 0 0 0 0 0.40078961724469409 -0.4958420000023871 0 -0.4958420000023871 -0.16919511418941724 0 0 0 0 52.403457256936235 1.4310676728978251 0 1.4310676728978251 -8.8937421140080914 0 0 0 0 -12.278991117380428 -10.780779835328303 0 -10.780779835328303 14.484270146029303 0 0 0 0 -1.7182416413102146 -3.0437516457235461 0 -3.0437516457235461 1.5572196408338641 0 0 0 0 1.391855210337531 -4.2453709579852124 0 -4.2453709579852124 0.75264330990271588 0 0 0 0 0.3481571915816275 -1.799371597729607 0 -1.799371597729607 1.7538296713001884 0 0 0 0 -1.3070365752148518 -3.5877156112318076 0 -3.5877156112318076 1.5977274778088031 0 0 0 0 -22.495933526749013 -0.98303915932072528 0 -0.98303915932072528 10.567359303760895 0 0 0 0 -2.3198746126563776 -1.8753886420746149 0 -1.8753886420746149 0.97786294155595144 0 0 0 0 -2.2317596863396969 -3.7847812328303583 0 -3.7847812328303583 2.0795028495901846 0 0 0 0 7.7036554102014634 -6.1712718669023161 0 -6.1712718669023161 0.35030774632105022 0 0 0 0 -6.2272353586849931 -23.421456193213544 0 -23.421456193213544 5.4711114191904926 0 0 0 0 -9.3711438076170452 7.1975081669256724 0 7.1975081669256724 7.3622142444783094 0 0 0 0 21.556179459121267 -31.38272194828005 0 -31.38272194828005 0.43680235230567632 0 0 0 0 30.991974066346302 -45.770084649464934 0 -45.770084649464934 15.947808053505469 0 0 0 0 -16.728499611353982 -47.874560099197424 0 -47.874560099197424 95.945862664302012 0 0 0 0 -0.2001348490803494 -0.41574699285748551 0 -0.41574699285748551 -0.080913358333138063 0 0 0 0 -7.7562965529523353 -25.91907172517358 0 -25.91907172517358 79.736215238274895 0 0 0 0 -0.96760566235752776 3.4245290727772044 0 3.4245290727772044 10.38858484028151 0 0 0 0 -0.70499264232793735 -7.5228223259318625 0 -7.5228223259318625 13.445016165342167 0 0 0 0 -23.536664962666691 6.8012867666943748 0 6.8012867666943748 17.877488791084033 0 0 0 0 -1.422241332093698 -1.1387833483822174 0 -1.1387833483822174 -0.15124639473564905 0 0 0 0 -10.261422163697716 1.6737755018114058 0 1.6737755018114058 -8.1201148529962666 0 0 0 0 -13.000101323292256 -4.4245961708033974 0 -4.4245961708033974 12.887460879876471 0 0 0 0 -11.786915779252013 6.3520220249351951 0 6.3520220249351951 9.8390927811329902 0 0 0 0 -26.894206526947528 -11.346465961077683 0 -11.346465961077683 16.930530209804147 0 0 0 0 -68.346514454817225 -51.803789993041391 0 -51.803789993041391 -37.845672036656197 0 0 0 0 -144.469551777569 -104.19101814676617 0 -104.19101814676617 -47.221582513703652 0 0 0 0 -56.19897903144556 -56.875994757439457 0 -56.875994757439457 -66.970071013747656 0 0 0 0 -99.493653784928938 -39.705698960363861 0 -39.705698960363861 -37.485029165310152 0 0 0 0 -31.457701614282087 0.82308084294550099 0 0.82308084294550099 -11.566556379011672 0 0 0 0 -77.660152241012838 -58.692739084594223 0 -58.692739084594223 -27.358210230062468 0 0 0 0 -22.78751512753206 -11.275379742499126 0 -11.275379742499126 -37.053039956312205 0 0 0 0 18.825940761294987 -15.111901393469225 0 -15.111901393469225 -38.767016660326135 0 0 0 0 -0.12853365022655416 -0.18718780512785926 0 -0.18718780512785926 0.14867402090488113 0 0 0 0 7.2437451431887894 -0.21599233180108968 0 -0.21599233180108968 7.4744650265365635 0 0 0 0 51.046558807600832 3.9083338031886683 0 3.9083338031886683 -17.274978301990814 0 0 0 0 -1.0714932267392463 -1.0977103157596666 0 -1.0977103157596666 -0.20755255706590248 0 0 0 0 -2.5526415548556542 -6.9665911835045335 0 -6.9665911835045335 -0.74918867505311937 0 0 0 0 -37.185180276814208 -53.02229659382283 0 -53.02229659382283 -19.819090188665996 0 0 0 0 -63.840468665117442 26.384653509172495 0 26.384653509172495 31.782331658135263 0 0 0 0 51.201132958234666 -35.362927771541763 0 -35.362927771541763 -18.854214418209722 0 0 0 0 -5.8142778450223886 -5.3242723518090429 0 -5.3242723518090429 19.05576997938897 0 0 0 0 -2.4562380675567859 -2.9175986856933935 0 -2.9175986856933935 -2.6851181273943308 0 0 0 0 -0.92276054292663545 -1.945996392980053 0 -1.945996392980053 0.94459737558854862 0 0 0 0 -35.53070422001656 11.767884217341361 0 11.767884217341361 12.677290122957288 0 0 0 0 9.8227010946357041 -61.034771782352436 0 -61.034771782352436 -167.62380461687098 0 0 0 0 -263.93239064916816 -74.742477567292781 0 -74.742477567292781 9.2473961019094304 0 0 0 0 -1.3083831803801118 -1.1371469489910435 0 -1.1371469489910435 -1.0372870888446553 0 0 0 0 -168.04201277603897 -113.43481541024357 0 -113.43481541024357 -16.001394156841798 0 0 0 0 -254.31387362150053 -208.09979261659896 0 -208.09979261659896 -109.86486692201152 0 0 0 0 -165.58693355014913 -155.51281564142221 0 -155.51281564142221 -126.23580568702255 0 0 0 0 -171.03453493734469 -112.25455369256565 0 -112.25455369256565 -52.142244905574444 0 0 0 0 -149.67929271857429 -120.35252619712946 0 -120.35252619712946 -61.15135227276528 0 0 0 0 -180.90958150988627 -100.21232067862934 0 -100.21232067862934 -28.815853893399435 0 0 0 0 -101.25938936003331 -34.748893177350965 0 -34.748893177350965 3.7800705247555015 0 0 0 0 -145.57968744836126 -135.9129260330958 0 -135.9129260330958 -102.07856357670425 0 0 0 0 -186.71453306920557 -175.48378326901548 0 -175.48378326901548 -135.1243447547397 0 0 0 0 0.18133237209177011 -0.22159464901385206 0 -0.22159464901385206 -1.5917194144588755 0 0 0 0 -130.23403936737486 -122.26610986222886 0 -122.26610986222886 -106.85399043449479 0 0 0 0 -213.87872139439787 -175.73827368056573 0 -175.73827368056573 -113.01336095297273 0 0 0 0 -82.850364107398491 -134.27492690749295 0 -134.27492690749295 -178.26401314571615 0 0 0 0 -99.953870519666452 -174.54112689399244 0 -174.54112689399244 -161.22447669296753 0 0 0 0 -80.992450366104094 -124.91260937861216 0 -124.91260937861216 -131.82142541968005 0 0 0 0 -90.739538303831068 -159.34782458344989 0 -159.34782458344989 -151.53999814476902 0 0 0 0 -94.241136520962755 -155.27232164198813 0 -155.27232164198813 -123.04998637739209 0 0 0 0 -106.42225318802775 -141.52220908857225 0 -141.52220908857225 -106.26000653933443 0 0 0 0 -81.780350310044014 -165.53816881974399 0 -165.53816881974399 -146.02305617295815 0 0 0 0 -109.1883725302614 -167.71806903794095 0 -167.71806903794095 -127.91639663114483 0 0 0 0 -80.749071212097988 -143.57029673609304 0 -143.57029673609304 -118.12231995743218 0 0 0 0 -95.172031444264576 -161.8179559144412 0 -161.8179559144412 -129.50994408537917 0 0 0 0 -52.203704397957836 -121.01265156894328 0 -121.01265156894328 -114.61594583793703 0 0 0 0 -72.340447473322456 -141.27162862218097 0 -141.27162862218097 -131.25088451641886 0 0 0 0 -107.04200169667092 -172.96203631628896 0 -172.96203631628896 -140.44422550556646 0 0 0 0 -70.068458206194919 -150.76354391264113 0 -150.76354391264113 -143.91457844652632 0 0 0 0 -58.144378986400625 -163.95526417621801 0 -163.95526417621801 -129.42590037196533 0 0 0 0 -58.025422755159525 -115.30477585511971 0 -115.30477585511971 -75.451740413254356 0 0 0 0 -48.090990147190951 -157.16554783518984 0 -157.16554783518984 -138.09083858622125 0 0 0 0 -43.585573226539054 -158.40105030991253 0 -158.40105030991253 -91.9549815641235 0 0 0 0 -103.90641319115912 -107.19289984952616 0 -107.19289984952616 -71.590842709937078 0 0 0 0 0.038857595790549482 -0.25071689223099725 0 -0.25071689223099725 -0.5932943159765518 0 0 0 0 -194.55967702065573 -189.73671839824237 0 -189.73671839824237 -133.76648641581687 0 0 0 0 -44.153494959931777 -77.646010185224895 0 -77.646010185224895 -84.029198641274206 0 0 0 0 -165.26336722863016 -82.616978459622942 0 -82.616978459622942 -59.727640744705695 0 0 0 0 -102.50656979295309 -51.445840269951987 0 -51.445840269951987 -28.942591543920116 0 0 0 0 -100.21096918499308 -84.596156270404137 0 -84.596156270404137 -92.73012205033092 0 0 0 0 -1.562710242463254 -55.809924307729716 0 -55.809924307729716 -84.781968124791092 0 0 0 0 -97.437841568569752 -85.894235736874407 0 -85.894235736874407 22.795636241846296 0 0 0 0 -112.90834784114668 33.327617362152978 0 33.327617362152978 -2.1745150020724395 0 0 0 0 -24.132998598066479 -69.171432776631434 0 -69.171432776631434 -44.407917617619205 0 0 0 0 -0.65543729920964466 -0.31402162233241349 0 -0.31402162233241349 -0.096592604341557475 0 0 0 0 -2.2915687332715606 -21.936113566373024 0 -21.936113566373024 11.550235375656371 0 0 0 0 -50.844285678722372 -22.7032767319497 0 -22.7032767319497 78.479807556596825 0 0 0 0 8.0240589472177817 -88.67937507940826 0 -88.67937507940826 21.507696867230152 0 0 0 0 19.717648343530527 -44.500017919136553 0 -44.500017919136553 108.0499576694866 0 0 0 0 1.0044951324052818 -68.472044631234894 0 -68.472044631234894 112.31176524295188 0 0 0 0 57.458841195388231 -132.70288333390022 0 -132.70288333390022 109.25629310709337 0 0 0 0 5.7367308842040075 -76.24468520209939 0 -76.24468520209939 87.861191828985284 0 0 0 0 270.00529148863188 -226.85773048696728 0 -226.85773048696728 111.99551886739846 0 0 0 0 -3.8795993816479779 -3.2731042166777922 0 -3.2731042166777922 0.68274242847834188 0 0 0 0 -185.04659843968329 38.273859181288572 0 38.273859181288572 3.2519806970599348 0 0 0 0 93.075716459603427 -102.39783463373715 0 -102.39783463373715 122.63809087682978 0 0 0 0 55.314264925630141 -184.36675531077975 0 -184.36675531077975 160.17541168899379 0 0 0 0 320.23663730333647 -57.101581072121007 0 -57.101581072121007 -2.7142458264720517 0 0 0 0 238.9196468284681 -289.09393175569267 0 -289.09393175569267 -397.37952357554605 0 0 0 0 -105.22060856476674 -224.79809313649776 0 -224.79809313649776 -41.560696621176703 0 0 0 0 -1.3194773254082648 -0.89749457695391044 0 -0.89749457695391044 0.51396124839161583 0 0 0 0 -82.389041729013115 -0.28502631779065268 0 -0.28502631779065268 187.66727195647036 0 0 0 0 -66.743532857094579 -176.10150247376532 0 -176.10150247376532 34.522863736778163 0 0 0 0 24.865203206278238 -57.30535606870535 0 -57.30535606870535 -95.743950878569649 0 0 0 0 -66.907626164746034 -75.080692459981947 0 -75.080692459981947 -48.531289832690163 0 0 0 0 -156.69509936088434 -125.22807054009445 0 -125.22807054009445 -46.477172935975432 0 0 0 0 -11.062187179042667 -141.67698800030257 0 -141.67698800030257 -109.92709709386054 0 0 0 0 -259.84666869522698 -324.65521184346107 0 -324.65521184346107 -218.20565031356773 0 0 0 0 -93.672721492951496 -206.71188864604289 0 -206.71188864604289 -165.28597832295236 0 0 0 0 -197.61571947076754 -155.2268665401109 0 -155.2268665401109 -124.90620220657638 0 0 0 0 -147.53642187718651 -189.03380545285427 0 -189.03380545285427 -113.51673729480899 0 0 0 0 -171.13197450114967 -117.8519177576045 0 -117.8519177576045 -75.838695247881788 0 0 0 0 -130.84382920952339 -138.51117584355461 0 -138.51117584355461 -73.398495572999309 0 0 0 0 -2.9341203176873449 -1.5644661270048132 0 -1.5644661270048132 1.1178811226670398 0 0 0 0 -401.85095876958076 -18.859330428165777 0 -18.859330428165777 -131.44342527702793 0 0 0 0 -9.778802723652916 -330.47686725502854 0 -330.47686725502854 83.652356028909708 0 0 0 0 -616.05317456926514 93.480603613380936 0 93.480603613380936 22.590931340299903 0 0 0 0 -1.4130535340557699 -1.3107014623090638 0 -1.3107014623090638 -0.23949905474159294 0 0 0 0 318.64867142062434 -404.88445114944744 0 -404.88445114944744 -88.07083364981645 0 0 0 0 8.5819959164837201 -83.765350641559053 0 -83.765350641559053 -60.219970593525431 0 0 0 0 -328.0404977599519 -256.54170035564357 0 -256.54170035564357 -44.20457421832316 0 0 0 0 -254.03024548022222 -54.788252092523862 0 -54.788252092523862 23.153895830335387 0 0 0 0 -131.29724681939115 -185.75470566016611 0 -185.75470566016611 -16.973131601572277 0 0 0 0 -139.33885731984719 -18.673623927331164 0 -18.673623927331164 -18.042294515063986 0 0 0 0 -185.42618881317685 -73.704996438767466 0 -73.704996438767466 25.420282058966222 0 0 0 0 -195.38380617588336 -0.11571057196943002 0 -0.11571057196943002 -18.930279626201354 0 0 0 0 -134.56877042548831 -164.73540896094869 0 -164.73540896094869 17.779748070646292 0 0 0 0 -51.524755660373557 -109.5135092854739 0 -109.5135092854739 -1.5383591985444127 0 0 0 0 -47.482408661283671 12.346675888124366 0 12.346675888124366 163.36400412714374 0 0 0 0 -100.94616712968218 -117.32925265562108 0 -117.32925265562108 72.289239201386408 0 0 0 0 -1.6712048705207181 -0.77251410340291571 0 -0.77251410340291571 0.4500686157100704 0 0 0 0 -180.60054653485622 -217.09120936792635 0 -217.09120936792635 -176.50537374121996 0 0 0 0 -21.92629104396292 -172.04163696013848 0 -172.04163696013848 -306.67238422773153 0 0 0 0 -62.293862423757673 -281.11326604548731 0 -281.11326604548731 -380.27400631105775 0 0 0 0 52.125798391275566 -122.74062000276535 0 -122.74062000276535 -68.603921789183005 0 0 0 0 -123.84765408174098 -97.927852940707567 0 -97.927852940707567 -71.44050244004211 0 0 0 0 71.828824640680068 -55.075726378605623 0 -55.075726378605623 -28.533121826773822 0 0 0 0 103.54785657181321 -25.292185240906974 0 -25.292185240906974 -35.723965173676334 0 0 0 0 67.095871823218886 -48.630112731355041 0 -48.630112731355041 -3.8185311277252367 0 0 0 0 60.902342213466909 -60.006050514461094 0 -60.006050514461094 -13.225784359060526 0 0 0 0 -497.05937134059241 -366.80104688556366 0 -366.80104688556366 -108.5073134787267 0 0 0 0 0.40160085964766878 -0.80867409568512727 0 -0.80867409568512727 -0.33131509242969059 0 0 0 0 266.07055210554972 -2.4281887470558559 0 -2.4281887470558559 -44.854946521044894 0 0 0 0 -409.24284455796442 -159.76875751334364 0 -159.76875751334364 -100.48986549842357 0 0 0 0 -250.93261504482325 -255.09929598440021 0 -255.09929598440021 -143.106715779355 0 0 0 0 -131.57678231210957 -186.82066612536937 0 -186.82066612536937 -76.651757678899003 0 0 0 0 -155.94713656430031 -146.69720812919218 0 -146.69720812919218 -142.29638214141778 0 0 0 0 -200.14582511301705 -220.9881807112215 0 -220.9881807112215 -145.00901582551415 0 0 0 0 -127.57409006877788 -186.21318771940605 0 -186.21318771940605 -120.45326229765942 0 0 0 0 -138.02542002500559 -168.33802045623634 0 -168.33802045623634 -147.64933186869803 0 0 0 0 -114.32067511399327 -160.81113829682931 0 -160.81113829682931 -150.58288037308739 0 0 0 0 -169.08727245419504 -199.30560573643015 0 -199.30560573643015 -141.29324249291108 0 0 0 0 -244.56665809097467 -210.33391414893276 0 -210.33391414893276 -137.61660002288909 0 0 0 0 2.3993962434543086 -2.9288102111517063 0 -2.9288102111517063 -2.474629922992051 0 0 0 0 -243.12984631880954 -163.62038262756232 0 -163.62038262756232 -166.14363395431974 0 0 0 0 -268.46217300471108 -194.98810429028526 0 -194.98810429028526 -132.50158952350466 0 0 0 0 104.71013119145795 16.772194339197839 0 16.772194339197839 -27.405490750434183 0 0 0 0 1.7894636591202158 -0.82038286520497117 0 -0.82038286520497117 -0.14403342916132544 0 0 0 0 34.075994090075255 -1.490897685357595 0 -1.490897685357595 19.074559364767993 0 0 0 0 -237.37398783132994 -159.6998769907209 0 -159.6998769907209 -116.84078170334669 0 0 0 0 -147.13657436583162 -178.6357366371949 0 -178.6357366371949 -136.7257819569877 0 0 0 0 -155.81545874008589 -144.07526998964931 0 -144.07526998964931 -143.52491108933646 0 0 0 0 -170.95052849102831 -181.53397955748687 0 -181.53397955748687 -133.06261354735943 0 0 0 0 -303.79633686658053 -109.12962042118988 0 -109.12962042118988 57.827020060385621 0 0 0 0 -135.45167740045872 -166.07319886665209 0 -166.07319886665209 -108.09448659851114 0 0 0 0 -108.76791019613847 -162.81210693137214 0 -162.81210693137214 -130.85912250813635 0 0 0 0 -140.27605265060993 -133.87005717085412 0 -133.87005717085412 -60.963991956512473 0 0 0 0 -89.621958507734234 -46.176567986713508 0 -46.176567986713508 -52.973741031755253 0 0 0 0 -95.541081974202825 -135.17737082273652 0 -135.17737082273652 -114.96966916321617 0 0 0 0 2.7682836255461112 -7.476947012852019 0 -7.476947012852019 9.248210337023858 0 0 0 0 -103.37243093564757 -134.23941471628677 0 -134.23941471628677 -89.294690524320686 0 0 0 0 -95.712701078517057 -132.78369122376125 0 -132.78369122376125 -111.11235595200014 0 0 0 0 -81.100069478427031 -112.16219020128119 0 -112.16219020128119 -99.874919824999324 0 0 0 0 -1.5061849042072382 -1.0398526850024048 0 -1.0398526850024048 2.1758204095441398 0 0 0 0 10.632169228390921 -16.804065713734758 0 -16.804065713734758 20.140810391048944 0 0 0 0 15.988105166527021 -42.167144520983129 0 -42.167144520983129 -3.8559328038481908 0 0 0 0 1.704248345997577 -5.5701241934065422 0 -5.5701241934065422 -10.9791648205422 0 0 0 0 6.6551559173885835 -28.99228148203656 0 -28.99228148203656 -5.3000985918670267 0 0 0 0 2.8616598896805954 -31.269248238734463 0 -31.269248238734463 -42.80772965475785 0 0 0 0 3.9766824338566948 -22.761493461482132 0 -22.761493461482132 1.2413260142761828 0 0 0 0 21.18398393183088 10.586047164199499 0 10.586047164199499 -13.929085235455659 0 0 0 0 32.821075882489822 -74.943605495935572 0 -74.943605495935572 22.548236654592074 0 0 0 0 26.923867488687392 -34.305567299994436 0 -34.305567299994436 17.50547955527054 0 0 0 0 33.186552285125799 -59.218809716019905 0 -59.218809716019905 57.391752574836573 0 0 0 0 58.379623002363587 -74.397329175032155 0 -74.397329175032155 -10.642036932837073 0 0 0 0 78.458258698548889 -38.282183669059123 0 -38.282183669059123 17.167930220246035 0 0 0 0 72.643645860808761 -51.658346490468546 0 -51.658346490468546 -17.98582722361698 0 0 0 0 74.964381001835704 -69.935444065865738 0 -69.935444065865738 -6.7820847019211215 0 0 0 0 122.57568233981056 -62.263157167694544 0 -62.263157167694544 -17.545138442743337 0 0 0 0 -75.45476754986521 -21.799907314569282 0 -21.799907314569282 16.769266697343483 0 0 0 0 0.0086264563685762852 0.023488257425864134 0 0.023488257425864134 -0.36379035938325899 0 0 0 0 5.1714501858550648 -71.27608058505939 0 -71.27608058505939 -36.638778577960252 0 0 0 0 4.0981165650146067 2.8735459394690395 0 2.8735459394690395 -8.5459512827801518 0 0 0 0 0.64872554686514405 -0.40481309591082004 0 -0.40481309591082004 -1.6236883182513435 0 0 0 0 40.928233897986502 1.2650464815974374 0 1.2650464815974374 -17.033154324835778 0 0 0 0 -0.52677250411397836 11.05214313890383 0 11.05214313890383 -11.983566204236922 0 0 0 0 2.8999409926281459 -0.034848783738097744 0 -0.034848783738097744 -6.2049522992885686 0 0 0 0 0.27153079809727387 -9.8066487980992321 0 -9.8066487980992321 25.134294369310737 0 0 0 0 3.80018230251153 -3.257788945862103 0 -3.257788945862103 -2.2502073755021001 0 0 0 0 1.7693090593928176 -1.8200007162519629 0 -1.8200007162519629 -4.9502062279412904 0 0 0 0 1.8141335263917888 -2.3581402498909654 0 -2.3581402498909654 -6.0447136754894899 0 0 0 0 19.003988368980572 -29.431378986340633 0 -29.431378986340633 32.772553601933396 0 0 0 0 21.066025320502376 -24.926140468232006 0 -24.926140468232006 4.8329471187812487 0 0 0 0 7.620851400475658 -28.81779808070587 0 -28.81779808070587 47.278009024232233 0 0 0 0 1.5823761554898539 -2.6598774391096516 0 -2.6598774391096516 -11.406070500398094 0 0 0 0 27.412828248232472 -1.2950331319202633 0 -1.2950331319202633 -17.325519141862969 0 0 0 0 -3.4561969186343049 -23.092231871812601 0 -23.092231871812601 10.514376626515286 0 0 0 0 0.20283271661294755 -1.8272797943316519 0 -1.8272797943316519 -0.46538372810269735 0 0 0 0 27.301721040947008 -18.535871048886165 0 -18.535871048886165 -23.343486450914497 0 0 0 0 48.727993310412785 -12.662173304054932 0 -12.662173304054932 -22.305674204238585 0 0 0 0 -18.281898102261039 -17.360814356276705 0 -17.360814356276705 -6.3770333586194283 0 0 0 0 -31.203719590488163 -50.850282046721361 0 -50.850282046721361 -13.744202010172557 0 0 0 0 0.73631671558243639 -0.45335471942172489 0 -0.45335471942172489 -0.16910702358288798 0 0 0 0 -18.189900112422947 -3.2061601142164022 0 -3.2061601142164022 -15.867781292699874 0 0 0 0 -14.871605014281158 -15.460579867569777 0 -15.460579867569777 28.877282228651893 0 0 0 0 17.305591316165192 -51.192706497140307 0 -51.192706497140307 -1.5311076376983692 0 0 0 0 31.273290269808058 -0.8266512871505256 0 -0.8266512871505256 -0.94313096408359343 0 0 0 0 43.14949561972935 -35.904443671269519 0 -35.904443671269519 8.9020092179725907 0 0 0 0 -9.7074729957378167 -24.842596423555364 0 -24.842596423555364 -3.1261331759392306 0 0 0 0 -14.659446772644742 -8.7536539981452961 0 -8.7536539981452961 11.951989285576929 0 0 0 0 7.6873976290726205 -2.1092781855757039 0 -2.1092781855757039 -4.2440575963530591 0 0 0 0 43.504740881351609 -31.016277002205697 0 -31.016277002205697 3.0758373986452625 0 0 0 0 -1.065877307939445 -18.289074325481351 0 -18.289074325481351 17.803214554856822 0 0 0 0 32.307804324822428 -34.970277069322492 0 -34.970277069322492 31.274755070359447 0 0 0 0 46.720022349749343 -25.985152749061967 0 -25.985152749061967 4.3518485585454982 0 0 0 0 5.5083524765359471 -2.1189207262164018 0 -2.1189207262164018 -6.2318266440172465 0 0 0 0 0.72259879160636054 -0.8034255086404869 0 -0.8034255086404869 -4.1803992673876493 0 0 0 0 2.1318871216876687 2.755963368230141 0 2.755963368230141 -3.4406396937706631 0 0 0 0 18.594748251514829 -18.864589685684905 0 -18.864589685684905 12.56220024744016 0 0 0 0 57.195122835662914 -22.177598015158765 0 -22.177598015158765 -17.712125764322991 0 0 0 0 8.2315215979811001 -0.9336551108800677 0 -0.9336551108800677 -4.6815855145896421 0 0 0 0 0.055069474527472018 -0.1527047427230066 0 -0.1527047427230066 -1.4419913289703388 0 0 0 0 257.93076940630272 -156.34072708126769 0 -156.34072708126769 -197.24592103965188 0 0 0 0 77.89661682557653 -21.755117321533589 0 -21.755117321533589 -12.463571894999404 0 0 0 0 -128.61968198824616 37.462217680595586 0 37.462217680595586 305.06234384108029 0 0 0 0 29.273056874643771 -48.616215283090469 0 -48.616215283090469 45.433995419006806 0 0 0 0 65.923633054015227 3.6776675195206963 0 3.6776675195206963 -59.682438807737526 0 0 0 0 2.3075739341180466 -1.1847260648997118 0 -1.1847260648997118 0.54587751172478605 0 0 0 0 35.546280009540169 25.201143373964896 0 25.201143373964896 -36.40642405271592 0 0 0 0 60.278950740359505 4.8487275480867993 0 4.8487275480867993 -33.494451544323056 0 0 0 0 52.224815163177482 3.8382761565653709 0 3.8382761565653709 -11.580253086194261 0 0 0 0 0.20343819161376508 -0.25896654821695719 0 -0.25896654821695719 -0.077120866753750406 0 0 0 0 17.35462824541537 -3.0474433840237225 0 -3.0474433840237225 -14.77803486447101 0 0 0 0 19.222508149119676 -5.4659135074655296 0 -5.4659135074655296 -13.501918791083256 0 0 0 0 39.114608164913989 17.442222969984527 0 17.442222969984527 10.625717514426015 0 0 0 0 30.068365568414265 -33.599880520313036 0 -33.599880520313036 6.1655142892334993 0 0 0 0 64.716221414640131 -15.935984554789911 0 -15.935984554789911 -53.871322336096455 0 0 0 0 24.429745992764765 -18.331087970878912 0 -18.331087970878912 -34.856096738276392 0 0 0 0 -17.358011148288824 0.7351982866086928 0 0.7351982866086928 -37.378270868710388 0 0 0 0 38.702527142164399 10.685185354268015 0 10.685185354268015 -80.74475031950422 0 0 0 0 0.68928482981352346 -0.14309226895199778 0 -0.14309226895199778 -0.0017966664852704373 0 0 0 0 -3.6299310229751427 -31.321847603604283 0 -31.321847603604283 121.51364924603797 0 0 0 0 83.693856845280607 -20.820434006082792 0 -20.820434006082792 -10.25365946058082 0 0 0 0 28.3507913961339 -7.6882775017231779 0 -7.6882775017231779 6.1258484050335937 0 0 0 0 -34.005074622948086 -16.76787987823127 0 -16.76787987823127 9.1477900817495765 0 0 0 0 38.343853595477412 -37.146973141828425 0 -37.146973141828425 -91.34938209845609 0 0 0 0 -3.2564580689631839 -13.605700827935834 0 -13.605700827935834 -10.408328269989859 0 0 0 0 6.5079671927747782 -3.1805794352391406 0 -3.1805794352391406 1.3238363360340468 0 0 0 0 3.5707404278381887 -11.965659789187184 0 -11.965659789187184 -13.369510310389614 0 0 0 0 3.5472738102450592 -10.498506805585645 0 -10.498506805585645 -13.306067059724228 0 0 0 0 11.619415322964414 -12.235245366436175 0 -12.235245366436175 -13.483263070516841 0 0 0 0 6.0772291412795312 -11.34344737860954 0 -11.34344737860954 -13.35802300850537 0 0 0 0 8.8149857755533958 -65.268764787713963 0 -65.268764787713963 -56.641940926419011 0 0 0 0 9.810691286170794 -4.4905975781655787 0 -4.4905975781655787 2.3284458919974886 0 0 0 0 9.435223215707083 -14.736340191469935 0 -14.736340191469935 -18.702276383114395 0 0 0 0 2.0924053844559332 0.088712472594988157 0 0.088712472594988157 0.18220794170011917 0 0 0 0 10.111855078561348 13.874895635179655 0 13.874895635179655 -14.433862733219712 0 0 0 0 -20.968333751967293 -34.846184269889022 0 -34.846184269889022 71.942836294328572 0 0 0 0 -7.7538355320416485 -47.316124311105796 0 -47.316124311105796 2.4168567620708927 0 0 0 0 4.0790749820093168 -3.1131351665176705 0 -3.1131351665176705 -2.0281632477639624 0 0 0 0 11.288660158907241 -7.26638424198938 0 -7.26638424198938 0.18839604158016865 0 0 0 0 5.2182374530057132 -41.4246594687163 0 -41.4246594687163 -23.843994208278673 0 0 0 0 -12.997144670534908 -31.857238293382579 0 -31.857238293382579 20.609610957725181 0 0 0 0 25.241643660045156 -21.454983694214889 0 -21.454983694214889 -23.037557754760201 0 0 0 0 9.116909620490901 -24.341889261077796 0 -24.341889261077796 -19.525828785261183 0 0 0 0 1.8884074478762614 1.6395251778577062 0 1.6395251778577062 -25.604062832672753 0 0 0 0 16.282383050003773 -11.41559835748626 0 -11.41559835748626 -65.812077160173516 0 0 0 0 -0.47871118799244528 0.48107785459075103 0 0.48107785459075103 -0.74573726078856772 0 0 0 0 62.021226107157418 6.1523373616688559 0 6.1523373616688559 -0.7701455471456029 0 0 0 0 -56.684195686299063 -179.54951675006305 0 -179.54951675006305 -47.95477912143923 0 0 0 0 117.20890863118257 -79.062794065388971 0 -79.062794065388971 -74.016764030872793 0 0 0 0 97.484288142164587 -175.92787460629143 0 -175.92787460629143 -83.244229566748231 0 0 0 0 201.54832162969979 -92.92876724688881 0 -92.92876724688881 25.309452837189838 0 0 0 0 133.75069657284621 -33.713556326761136 0 -33.713556326761136 47.665637646291543 0 0 0 0 82.516445819943328 -123.11191582507422 0 -123.11191582507422 18.466303309250407 0 0 0 0 36.275638847157097 -34.029892169497316 0 -34.029892169497316 47.667650258262256 0 0 0 0 -6.5462389278327464 -101.69686713300734 0 -101.69686713300734 21.39993610960596 0 0 0 0 -10.558767153118456 -12.437152516299065 0 -12.437152516299065 -6.5171105224471528 0 0 0 0 56.342519430234006 -30.57754704207585 0 -30.57754704207585 -1.2538631520287709 0 0 0 0 53.877281331679114 -25.681271888524691 0 -25.681271888524691 0.27272296927674233 0 0 0 0 1.0987954648117011 -7.1691846500009433 0 -7.1691846500009433 -5.9042733225055599 0 0 0 0 1.4589354208701586 -8.919637304490017 0 -8.919637304490017 -4.3530938971042676 0 0 0 0 7.9747187294415198 3.1941066503532056 0 3.1941066503532056 -19.893071186499583 0 0 0 0 23.145073852927453 -8.5428960407901968 0 -8.5428960407901968 -12.537412599765844 0 0 0 0 -5.5731673478104895 -7.0495322379659777 0 -7.0495322379659777 -1.6316110330860445 0 0 0 0 -131.80616784612357 -29.62618263234765 0 -29.62618263234765 64.944786828453289 0 0 0 0 4.0839218237310035 -3.35186796849929 0 -3.35186796849929 -3.8353032867030699 0 0 0 0 14.783438283036958 -19.327434544110019 0 -19.327434544110019 -16.761500539219696 0 0 0 0 20.988016539289674 5.9954735420772067 0 5.9954735420772067 14.926382381980147 0 0 0 0 158.8748288265997 5.8724205501271172 0 5.8724205501271172 86.74008719336598 0 0 0 0 45.775580013199942 -61.907155425612018 0 -61.907155425612018 227.9178376138766 0 0 0 0 49.789051474464941 -36.407583650949618 0 -36.407583650949618 102.70815189523501 0 0 0 0 125.73318231632584 15.932666736715646 0 15.932666736715646 138.76433219134469 0 0 0 0 118.47050969886914 -132.28495732984834 0 -132.28495732984834 309.02402504028305 0 0 0 0 0.28824386890769205 0.093196317337419843 0 0.093196317337419843 -0.81109072496387724 0 0 0 0 153.02710071227921 34.147656890962935 0 34.147656890962935 -114.98434993925076 0 0 0 0 171.59951527650992 -144.92561557432782 0 -144.92561557432782 106.57720846313305 0 0 0 0 103.00301455784938 -59.028481855861628 0 -59.028481855861628 1.3425573459235238 0 0 0 0 66.522280462108029 -51.069273756760822 0 -51.069273756760822 5.6150715304747791 0 0 0 0 -0.078266564106339587 -7.5382439726229968 0 -7.5382439726229968 -12.020551783571261 0 0 0 0 23.344700190713411 -8.2023401197732255 0 -8.2023401197732255 -15.717043562868184 0 0 0 0 -39.873041917377122 -6.1219016135999027 0 -6.1219016135999027 2.3626498792145867 0 0 0 0 9.9595012647569092 -12.824685882353606 0 -12.824685882353606 -16.794166231626605 0 0 0 0 9.1518275493990586 -13.381740866145037 0 -13.381740866145037 -10.760549958308729 0 0 0 0 9.5759469274134972 -8.5415720550073502 0 -8.5415720550073502 -15.28980212182978 0 0 0 0 9.1125506513126311 -7.0685882846582899 0 -7.0685882846582899 -11.094391728463933 0 0 0 0 -2.5687163497052907 -4.283598355717757 0 -4.283598355717757 -8.0063127649476744 0 0 0 0 9.7403354003636196 -6.754480766130655 0 -6.754480766130655 -15.933144835531493 0 0 0 0 -13.447606376603289 -39.22668100551607 0 -39.22668100551607 -29.420971586730047 0 0 0 0 0.4491965000224809 40.843202534778015 0 40.843202534778015 -167.51252422177504 0 0 0 0 11.786149539730104 -8.3502002895802434 0 -8.3502002895802434 -16.931912233835419 0 0 0 0 -45.426563778193668 -39.457583589402361 0 -39.457583589402361 177.57963147931196 0 0 0 0 0.59553433364271768 -44.396767316380419 0 -44.396767316380419 -22.771913937030661 0 0 0 0 12.343473747260759 -8.612742273367644 0 -8.612742273367644 -23.187232796615717 0 0 0 0 12.653073790814233 -11.505136285754361 0 -11.505136285754361 -14.670073920750042 0 0 0 0 10.791943381100282 -10.946290626487098 0 -10.946290626487098 -12.17167229236577 0 0 0 0 11.201270275093975 -14.222475931603242 0 -14.222475931603242 -4.8415927452915639 0 0 0 0 10.5970318022828 -18.26513773773263 0 -18.26513773773263 -5.4323499803713275 0 0 0 0 59.046069812028691 -5.3837294694354796 0 -5.3837294694354796 -0.43386643252733847 0 0 0 0 -0.48440507885082695 0.29898675439025624 0 0.29898675439025624 0.61589446026539463 0 0 0 0 -72.780105076852124 -33.232910601850563 0 -33.232910601850563 12.78946038293725 0 0 0 0 6.6879976912296115 -30.015187131207881 0 -30.015187131207881 10.672990376283906 0 0 0 0 24.67801432520173 -38.109683191867362 0 -38.109683191867362 -1.5855828043364681 0 0 0 0 11.679045746937391 -31.362537112762254 0 -31.362537112762254 9.2829216247905606 0 0 0 0 2.2317663646295429 -4.2841391013921832 0 -4.2841391013921832 2.9759574203550727 0 0 0 0 -2.0695514949311473 0.85009044267280842 0 0.85009044267280842 4.8411920566345543 0 0 0 0 3.7238657170642426 -5.8969068307392529 0 -5.8969068307392529 5.4690387090893227 0 0 0 0 14.228371094901377 -5.5493985790384954 0 -5.5493985790384954 -14.320903490563296 0 0 0 0 -93.214101529134496 -122.00823166234386 0 -122.00823166234386 -111.26285383989261 0 0 0 0 -115.3518121863699 -187.90961343994081 0 -187.90961343994081 -240.92813922726032 0 0 0 0 -131.26591195004221 -147.73994808639191 0 -147.73994808639191 -227.78954264533422 0 0 0 0 -215.12673995966179 -212.95227610431948 0 -212.95227610431948 -193.5537601262854 0 0 0 0 0.48867194745611897 -1.858764430211723 0 -1.858764430211723 1.1251295463460496 0 0 0 0 -139.96312309543464 -188.85664672518465 0 -188.85664672518465 -356.48689932409206 0 0 0 0 -211.77679485158114 -378.98050449306515 0 -378.98050449306515 -438.1158403231309 0 0 0 0 -270.71378478764427 -233.77710139193695 0 -233.77710139193695 -198.951591533787 0 0 0 0 -0.1575366960265363 0.0093292304890653099 0 0.0093292304890653099 -1.3651251836712817 0 0 0 0 -183.71762614371983 -73.119926666074662 0 -73.119926666074662 -76.115955160479984 0 0 0 0 -335.62907514559993 -313.34001921333675 0 -313.34001921333675 -154.64950819901333 0 0 0 0 -282.44247977977648 -279.58567500379968 0 -279.58567500379968 -223.80619211311523 0 0 0 0 -119.24187671728214 -128.1386530959569 0 -128.1386530959569 -135.22488527424673 0 0 0 0 0.035947233709528348 0.099357043651867372 0 0.099357043651867372 -2.3051586572245437 0 0 0 0 -202.75674384854187 -138.97899429276276 0 -138.97899429276276 -154.26390026279387 0 0 0 0 -297.8569660905323 -97.812557219801874 0 -97.812557219801874 -55.854713293198756 0 0 0 0 -131.44922644244707 -170.17089298225892 0 -170.17089298225892 -238.35718677214572 0 0 0 0 -178.56357938895235 -182.27732966387043 0 -182.27732966387043 -146.63412954848275 0 0 0 0 -95.239220060228945 -68.051949540616022 0 -68.051949540616022 -26.385246843549339 0 0 0 0 9.4076524080919626 -12.6105388857859 0 -12.6105388857859 -87.931652910913272 0 0 0 0 -91.832086002867072 -133.75216883388566 0 -133.75216883388566 -137.16145300324433 0 0 0 0 -133.49574666931949 -132.35519890787884 0 -132.35519890787884 -94.454735225852346 0 0 0 0 -101.23100197399071 -156.59507097510277 0 -156.59507097510277 -135.95072259774236 0 0 0 0 -64.418774361036412 -112.30705937335836 0 -112.30705937335836 -149.96365439701367 0 0 0 0 -157.18574470295425 -91.668698097674792 0 -91.668698097674792 -204.90933822551824 0 0 0 0 -147.22145928053396 -201.24167467815028 0 -201.24167467815028 -167.73906814729571 0 0 0 0 -48.766097328312753 -119.51839037598324 0 -119.51839037598324 -138.83173067516782 0 0 0 0 -73.098265734730376 -214.88467288119114 0 -214.88467288119114 -73.180901912354102 0 0 0 0 24.943501086361721 -207.83759978334399 0 -207.83759978334399 -164.80448233773404 0 0 0 0 -52.465425905842494 -187.81179969989125 0 -187.81179969989125 -140.08279856456102 0 0 0 0 -54.867310472958707 -177.93573827549221 0 -177.93573827549221 -175.65131005027479 0 0 0 0 -91.126107973149374 -171.7491503351622 0 -171.7491503351622 -167.31950757276991 0 0 0 0 -102.91037682953538 -223.90253605157386 0 -223.90253605157386 -140.29770126110111 0 0 0 0 -143.02474689161863 -188.28220015139459 0 -188.28220015139459 -125.49970304743601 0 0 0 0 -152.96916643318946 -212.03013594223557 0 -212.03013594223557 -180.99946828657994 0 0 0 0 -260.27177458048754 -200.34565820831085 0 -200.34565820831085 -95.745303262200423 0 0 0 0 -271.3106124065298 -139.89336025691469 0 -139.89336025691469 -98.590034753942746 0 0 0 0 -247.91203596592095 -124.301227050855 0 -124.301227050855 -202.79782426542761 0 0 0 0 -342.56534312391886 -144.38811016861064 0 -144.38811016861064 -265.01144264815821 0 0 0 0 -223.73247962513051 -113.34656717161192 0 -113.34656717161192 -257.53840628273338 0 0 0 0 -170.48422981537442 -363.49034868353374 0 -363.49034868353374 -269.06592465422455 0 0 0 0 -319.38756493659457 -225.27967476440926 0 -225.27967476440926 10.424920208252843 0 0 0 0 -427.13827334501184 31.24954837690666 0 31.24954837690666 -121.09749561245712 0 0 0 0 -283.1106073995943 -24.409825770879252 0 -24.409825770879252 -390.72610231690487 0 0 0 0 -1.0977911156814244 -1.592546636056742 0 -1.592546636056742 -2.8567145793863169 0 0 0 0 -420.93380407922268 -94.021529915400151 0 -94.021529915400151 -48.884571844716447 0 0 0 0 -334.30232187078946 -263.21387912667956 0 -263.21387912667956 -293.1513386132724 0 0 0 0 -245.82446869179694 -111.75906511182433 0 -111.75906511182433 -3.8086418581356156 0 0 0 0 -131.37880205947295 63.047330639044276 0 63.047330639044276 31.180097332244827 0 0 0 0 -159.16235321340719 -154.6933590943438 0 -154.6933590943438 -48.943534170041175 0 0 0 0 -183.5690509167689 -139.00495877611888 0 -139.00495877611888 -98.95087617912759 0 0 0 0 -202.50304093411251 -200.53806668120365 0 -200.53806668120365 -96.688654861262364 0 0 0 0 -130.76878855928953 -143.692404881534 0 -143.692404881534 -48.901527249068522 0 0 0 0 -165.01205101441337 -105.39785231272009 0 -105.39785231272009 3.3142014685049617 0 0 0 0 -85.088032441290125 -65.310626787731167 0 -65.310626787731167 14.460441618650464 0 0 0 0 -130.2074828206878 -110.02297733163573 0 -110.02297733163573 -5.5685278109790488 0 0 0 0 -106.22037174491197 -115.45504687564869 0 -115.45504687564869 -29.56260082949575 0 0 0 0 -74.149220717137723 -58.288840080314458 0 -58.288840080314458 -1.2859848172734019 0 0 0 0 -86.172021515056258 -45.422314686195023 0 -45.422314686195023 9.6474312466578738 0 0 0 0 -14.027907812094782 -37.636691824985292 0 -37.636691824985292 -1.1537144523030172 0 0 0 0 -14.296993791147543 -37.342091208111469 0 -37.342091208111469 -1.2850581214461272 0 0 0 0 51.460368415850098 -40.290916709772091 0 -40.290916709772091 -2.0933426915979112 0 0 0 0 -30.386384477278625 -72.465970693110989 0 -72.465970693110989 50.423413197647733 0 0 0 0 25.412461045285454 -79.41884680170142 0 -79.41884680170142 49.282522115207485 0 0 0 0 35.772651644758298 -105.43482129585163 0 -105.43482129585163 114.56970759091382 0 0 0 0 -16.053102156205568 -37.461321414476515 0 -37.461321414476515 82.397021352042884 0 0 0 0 -40.733884989036596 -59.762065935594023 0 -59.762065935594023 69.391117925063099 0 0 0 0 9.2363189837633399 -68.348655450532533 0 -68.348655450532533 101.78324336601895 0 0 0 0 41.275963302934542 -15.623828345118909 0 -15.623828345118909 74.04955626105766 0 0 0 0 47.812066235062957 -48.097549801376431 0 -48.097549801376431 103.66078153924354 0 0 0 0 -46.20983189362596 -43.620242670273683 0 -43.620242670273683 27.378651300832871 0 0 0 0 -81.910438887276541 -57.33535829494167 0 -57.33535829494167 45.148854434587406 0 0 0 0 -68.756185542712046 -79.440235378993634 0 -79.440235378993634 20.967149365351361 0 0 0 0 -29.899610420314275 -67.818884928202294 0 -67.818884928202294 17.270790847266653 0 0 0 0 -101.25629177272276 -74.908666204758106 0 -74.908666204758106 15.645311121605118 0 0 0 0 -80.097139323690499 -46.894005905105359 0 -46.894005905105359 11.070825214871377 0 0 0 0 -83.409778862325766 -68.679194088201712 0 -68.679194088201712 3.4543167721240025 0 0 0 0 -73.875638601050014 -38.230900550980721 0 -38.230900550980721 -11.080108727890433 0 0 0 0 -89.070542044637477 -62.187556125370691 0 -62.187556125370691 -13.469298904673224 0 0 0 0 -64.432550361466383 -42.368708093145457 0 -42.368708093145457 -31.354779979868681 0 0 0 0 -55.579696526252519 -48.370863457820917 0 -48.370863457820917 -38.520864754940334 0 0 0 0 -61.968832174213276 -32.17433137510092 0 -32.17433137510092 -9.0746242338727825 0 0 0 0 -52.674360096054443 -11.73893233585477 0 -11.73893233585477 -49.793904126260088 0 0 0 0 -66.232702327717561 -13.714834755557717 0 -13.714834755557717 3.8149069495918866 0 0 0 0 -114.08487830657396 -16.111987706172727 0 -16.111987706172727 -37.325411962425534 0 0 0 0 -18.862647191992437 -50.057675873527387 0 -50.057675873527387 -26.626193400848592 0 0 0 0 -4.5483198850232611 -21.60833619663908 0 -21.60833619663908 4.0692996018826761 0 0 0 0 46.597913506688201 -39.814873968649181 0 -39.814873968649181 8.539390549379732 0 0 0 0 -12.414391195048665 -40.339146300363211 0 -40.339146300363211 63.074200143990311 0 0 0 0 -21.261196991394172 -14.15429964584041 0 -14.15429964584041 42.671082577126072 0 0 0 0 -40.980213630391518 -38.707065749716321 0 -38.707065749716321 12.446193018327051 0 0 0 0 -73.393034431579508 -29.045420339911288 0 -29.045420339911288 39.026659663851433 0 0 0 0 -72.360787824121871 -99.844673396234384 0 -99.844673396234384 -49.212376651451564 0 0 0 0 -73.228447057095764 -95.213015095637587 0 -95.213015095637587 -55.632586931379819 0 0 0 0 -71.249338649744459 -74.265065005309566 0 -74.265065005309566 -35.739240027043962 0 0 0 0 -79.097894015849306 -77.309414959225634 0 -77.309414959225634 -36.901572909487754 0 0 0 0 -93.162654443587599 -92.387586587678697 0 -92.387586587678697 -23.158904962908991 0 0 0 0 -106.90525758464219 -107.22039285874672 0 -107.22039285874672 -35.57097910429934 0 0 0 0 -94.642923089611543 -117.78763975979572 0 -117.78763975979572 -57.465934937516408 0 0 0 0 -89.3660472657848 -116.34487821382038 0 -116.34487821382038 -61.345737435346734 0 0 0 0 -99.635760594760995 -144.47528909541631 0 -144.47528909541631 -84.028172100614938 0 0 0 0 -75.407053664579507 -146.40481198852189 0 -146.40481198852189 -90.69886751500826 0 0 0 0 -95.731397051055865 -132.05645597049335 0 -132.05645597049335 -54.295147048927447 0 0 0 0 -122.71665848755219 -124.97816600826786 0 -124.97816600826786 -31.085339330489262 0 0 0 0 -121.22412597594302 -162.9427618489533 0 -162.9427618489533 -80.778173781264286 0 0 0 0 -130.67888248904637 -134.55514515899335 0 -134.55514515899335 -30.694148532971141 0 0 0 0 -103.70879857075124 -168.75420430862096 0 -168.75420430862096 -78.904503125617794 0 0 0 0 -143.46896824660189 -206.76723356897392 0 -206.76723356897392 -114.7486991340129 0 0 0 0 -94.596142958729615 -178.85902736196977 0 -178.85902736196977 -141.53786719532036 0 0 0 0 -76.523291717569009 -137.03775547193106 0 -137.03775547193106 -146.23316367690018 0 0 0 0 -68.682505079792463 -109.05248773822416 0 -109.05248773822416 -187.92739142418532 0 0 0 0 -34.763609083638585 -151.57662834389589 0 -151.57662834389589 -141.44696382436803 0 0 0 0 1.4223513723337149 -1.0898711812325281 0 -1.0898711812325281 0.0044108859809375289 0 0 0 0 -114.61114660818021 -125.34054063495978 0 -125.34054063495978 -135.59993222622518 0 0 0 0 -92.764996735208115 -152.94721736511099 0 -152.94721736511099 -158.83613014177661 0 0 0 0 -85.376399044427671 -119.04496603222447 0 -119.04496603222447 -141.32817537198423 0 0 0 0 -102.72307788546004 -123.14767415209607 0 -123.14767415209607 -70.111575587625339 0 0 0 0 -86.47470509507184 -125.48592482741662 0 -125.48592482741662 -91.707021725528762 0 0 0 0 -90.199784146795537 -130.53788771147902 0 -130.53788771147902 -91.460199677717242 0 0 0 0 -95.144773442463702 -126.9404617455146 0 -126.9404617455146 -63.738700116330449 0 0 0 0 -89.921640056512501 -133.1494831899104 0 -133.1494831899104 -73.778138495336179 0 0 0 0 -87.700327187440053 -144.28207876763474 0 -144.28207876763474 -58.65866293667284 0 0 0 0 -104.38827031018081 -126.96417986884819 0 -126.96417986884819 -67.719416657279112 0 0 0 0 -82.405486605133774 -142.00146167077139 0 -142.00146167077139 -66.302954121260711 0 0 0 0 -77.429965272513073 -137.99094437746857 0 -137.99094437746857 -66.370578185019269 0 0 0 0 -73.575166523605731 -142.87013842994196 0 -142.87013842994196 -66.405364472988481 0 0 0 0 -75.08414084056858 -129.90277932479052 0 -129.90277932479052 -68.786821085106823 0 0 0 0 -84.735030573590848 -114.1325844680299 0 -114.1325844680299 -58.367875443308947 0 0 0 0 -71.150604178186768 -126.06058329539024 0 -126.06058329539024 -65.03990650166935 0 0 0 0 -17.001273373572985 -155.42327716247678 0 -155.42327716247678 -86.415905635247128 0 0 0 0 0.037804997045896016 -173.63314975624019 0 -173.63314975624019 -84.531054021583316 0 0 0 0 -73.709264609467937 -148.74460472300888 0 -148.74460472300888 -65.812735588452597 0 0 0 0 -75.193945772135521 -153.57006017948638 0 -153.57006017948638 -60.677465358882841 0 0 0 0 -38.974142772134655 -179.33030213036852 0 -179.33030213036852 -50.833429465824338 0 0 0 0 -37.838392134261085 -167.34078904732485 0 -167.34078904732485 -67.43811020382509 0 0 0 0 -0.027978232456042022 -197.01476732816678 0 -197.01476732816678 -44.250454095411897 0 0 0 0 -77.63654789298198 -150.18974135258446 0 -150.18974135258446 9.2468550652723707 0 0 0 0 0.74598256847851019 -0.46325551426855327 0 -0.46325551426855327 -0.15020451799028045 0 0 0 0 -92.233819532346388 -125.13217624945622 0 -125.13217624945622 -33.262621152917347 0 0 0 0 -90.922160030251689 -104.42364702483997 0 -104.42364702483997 -138.29256176825857 0 0 0 0 -0.1759021627731272 -73.553821573773916 0 -73.553821573773916 -151.46211625601586 0 0 0 0 -35.321726904168827 -64.283559010650379 0 -64.283559010650379 -148.95341886080402 0 0 0 0 -0.0070901064045756357 -91.098915325015582 0 -91.098915325015582 -129.18945337057585 0 0 0 0 -8.401287106991731 -48.406819383054426 0 -48.406819383054426 -77.1695823192224 0 0 0 0 -26.951518668849531 -102.86851830654564 0 -102.86851830654564 -54.596360398117895 0 0 0 0 -40.710208876539582 -140.83146842821324 0 -140.83146842821324 -184.51873407746257 0 0 0 0 -27.340701549059304 -61.435101362180376 0 -61.435101362180376 -145.32159038899908 0 0 0 0 -4.2431862702214858 -145.07861179610859 0 -145.07861179610859 -190.80399719381012 0 0 0 0 0.80383149914327134 -0.64132582597936505 0 -0.64132582597936505 -0.13812763187061794 0 0 0 0 -6.537902423307969 -207.03511859615674 0 -207.03511859615674 -108.78459229851251 0 0 0 0 -5.1558697575719634 -218.76961369874141 0 -218.76961369874141 -134.49590449879634 0 0 0 0 -95.443741480305107 -148.33470146015952 0 -148.33470146015952 -57.870967195907724 0 0 0 0 -21.546436463746431 -79.29939805730146 0 -79.29939805730146 32.86354996868522 0 0 0 0 58.754158531475696 -145.0357333074578 0 -145.0357333074578 -58.791168098658943 0 0 0 0 -177.14091739871401 -196.94000220935141 0 -196.94000220935141 -112.20596315970261 0 0 0 0 192.18401552485375 -39.180312811543786 0 -39.180312811543786 -20.443553901129235 0 0 0 0 0.19643693193577327 -0.70366406279986293 0 -0.70366406279986293 -0.30836133804871579 0 0 0 0 0.50412587533667796 -1.0676217510939594 0 -1.0676217510939594 0.021131384051848556 0 0 0 0 34.891113522588057 -28.448339309633184 0 -28.448339309633184 16.19738067547155 0 0 0 0 20.173420716521832 -41.970877513365821 0 -41.970877513365821 3.8211324751687243 0 0 0 0 24.274331936642284 -62.885239475776586 0 -62.885239475776586 48.539920145952237 0 0 0 0 -2.179345883849237 -86.455704078932513 0 -86.455704078932513 33.711543599756624 0 0 0 0 -8.7487969530666305 -36.9179893194746 0 -36.9179893194746 28.152368831916874 0 0 0 0 -21.53004879470609 -77.377276969455579 0 -77.377276969455579 76.950814364715598 0 0 0 0 -13.873479379020864 -68.13973309012772 0 -68.13973309012772 68.242097555676082 0 0 0 0 -12.36764621830207 -39.491298604265069 0 -39.491298604265069 100.42454143366012 0 0 0 0 -7.3252645808133821 -93.720883589975529 0 -93.720883589975529 126.70788925572469 0 0 0 0 54.076885807912731 -66.775907454413982 0 -66.775907454413982 64.154351584594224 0 0 0 0 -11.511968436807365 -66.227221899023107 0 -66.227221899023107 67.036715824043767 0 0 0 0 0.024975746075142524 -96.394097564062577 0 -96.394097564062577 -13.054294199080232 0 0 0 0 -4.8885338833497372 -66.599114015682289 0 -66.599114015682289 -28.356392619442431 0 0 0 0 -18.530144630948371 -104.52262349203352 0 -104.52262349203352 40.223439839992352 0 0 0 0 21.774832688682636 -128.23248623425479 0 -128.23248623425479 129.01985932902198 0 0 0 0 34.293179790733831 -151.837388063329 0 -151.837388063329 114.19056722597634 0 0 0 0 32.429581515123004 -140.41404052002326 0 -140.41404052002326 111.85068696883809 0 0 0 0 94.630144380694176 -175.84259355133327 0 -175.84259355133327 131.94987321959525 0 0 0 0 23.64710375024481 -80.882074735208789 0 -80.882074735208789 48.430503776613932 0 0 0 0 96.089997076440099 -128.66949096687938 0 -128.66949096687938 79.482783778843441 0 0 0 0 -29.095616670902245 -134.81919626473973 0 -134.81919626473973 121.5491691903037 0 0 0 0 20.144001247515689 -146.23715663910934 0 -146.23715663910934 113.50376588750441 0 0 0 0 53.404187555212957 -158.85128071354575 0 -158.85128071354575 102.35234440233944 0 0 0 0 68.474046808266849 -144.09109881174209 0 -144.09109881174209 91.454282737958238 0 0 0 0 87.758323391482804 -186.21851813533885 0 -186.21851813533885 110.01727532417863 0 0 0 0 52.985266640748023 -155.78150348137206 0 -155.78150348137206 83.50992567879257 0 0 0 0 21.999246630173502 -150.98962189162557 0 -150.98962189162557 104.42478669015782 0 0 0 0 73.795164830779413 -137.59245147156071 0 -137.59245147156071 69.564618984969457 0 0 0 0 117.94252322516604 -129.0450977829064 0 -129.0450977829064 62.81286740370706 0 0 0 0 82.630491533287568 -122.5699459148359 0 -122.5699459148359 43.621458509475815 0 0 0 0 6.0769269128991255 -70.278826506372752 0 -70.278826506372752 121.09169934915371 0 0 0 0 -0.71538670489069656 -0.94185927852709206 0 -0.94185927852709206 0.43451171262590549 0 0 0 0 -67.511424418836214 -35.298024753785285 0 -35.298024753785285 -17.386159646124725 0 0 0 0 47.215834078971511 -133.12634613362661 0 -133.12634613362661 112.88844646874531 0 0 0 0 19.537196568627678 -146.39892431695716 0 -146.39892431695716 116.87464994008269 0 0 0 0 19.16359147585203 -107.00924806098612 0 -107.00924806098612 30.070015230860008 0 0 0 0 22.136606230928237 -24.778026052858422 0 -24.778026052858422 -100.70403642574092 0 0 0 0 38.099080074461881 -142.16097846209368 0 -142.16097846209368 -21.099453542401534 0 0 0 0 37.0548974316971 -73.585048957105755 0 -73.585048957105755 58.528495905646196 0 0 0 0 -96.66512810900258 -75.702779027034012 0 -75.702779027034012 -52.565375978709199 0 0 0 0 7.2512548518634503 -8.2168553266146773 0 -8.2168553266146773 -73.037925459842882 0 0 0 0 -8.428146981397731 -13.946515909774462 0 -13.946515909774462 -8.0868908927222947 0 0 0 0 -0.51960715057025908 -6.5276659944921693 0 -6.5276659944921693 -1.7689959361311054 0 0 0 0 0.92421602287783866 -0.63290161435281433 0 -0.63290161435281433 -0.96841026091178861 0 0 0 0 -33.724378434912069 -32.484632031883166 0 -32.484632031883166 40.895157233104328 0 0 0 0 -4.5868283390449189 -8.8701263742384047 0 -8.8701263742384047 -0.13876250289518771 0 0 0 0 -1.7788955368669122 8.63894849836106 0 8.63894849836106 -2.8956377940058928 0 0 0 0 -18.338299884601838 4.3101129755832517 0 4.3101129755832517 -2.6665808099892274 0 0 0 0 -4.6560654518889351 -24.606833371182802 0 -24.606833371182802 5.6971528279218546 0 0 0 0 8.8017731496631768 -11.475899980273425 0 -11.475899980273425 0.65088635060237721 0 0 0 0 0.55680067645153031 3.5865247319970877 0 3.5865247319970877 -12.302549090160483 0 0 0 0 10.398309472235894 -13.519761739295063 0 -13.519761739295063 64.704472230072497 0 0 0 0 -2.850559032164782 -8.9656344984630909 0 -8.9656344984630909 -0.38616170881423462 0 0 0 0 -4.1226710959475668 -82.05938819919902 0 -82.05938819919902 73.642255601202123 0 0 0 0 17.349715513591491 -40.991118259179302 0 -40.991118259179302 102.40378790208524 0 0 0 0 -49.754912754360902 -21.189305991515539 0 -21.189305991515539 158.70439279117682 0 0 0 0 12.330158348473567 -142.21597966813613 0 -142.21597966813613 235.21533509770416 0 0 0 0 30.499504628174691 65.17842278579792 0 65.17842278579792 148.44774381769093 0 0 0 0 -2.0544746139275825 -8.4908028250803849 0 -8.4908028250803849 -0.96620811386898975 0 0 0 0 370.46331779833054 -192.91824916965197 0 -192.91824916965197 89.072454049271698 0 0 0 0 -7.4880299226342686 -96.481696564731465 0 -96.481696564731465 86.685023011494536 0 0 0 0 31.305663116553205 -245.4851544308176 0 -245.4851544308176 320.80831446179218 0 0 0 0 191.81151919597687 -317.6333405944697 0 -317.6333405944697 337.81307305963855 0 0 0 0 405.16096272663663 -509.44688186571284 0 -509.44688186571284 342.10183723125374 0 0 0 0 -1.1478749963085104 -1.2703650586930353 0 -1.2703650586930353 2.3470700431975118 0 0 0 0 691.70863175483873 -348.6084990802774 0 -348.6084990802774 116.60186043857448 0 0 0 0 -27.107204874162335 -29.414880637247904 0 -29.414880637247904 137.83100890339938 0 0 0 0 302.99739335411812 -274.32372132470391 0 -274.32372132470391 675.77863526731289 0 0 0 0 -10.331346494382387 -109.88683157632113 0 -109.88683157632113 274.99160426809976 0 0 0 0 0.059951647862377389 -0.42247037930982323 0 -0.42247037930982323 0.48025063929033962 0 0 0 0 8.4624447622637149 -143.73789706517323 0 -143.73789706517323 371.532768052748 0 0 0 0 315.04174241155783 -313.59957556691506 0 -313.59957556691506 219.92205375329377 0 0 0 0 -20.387629606655764 -112.00057338061742 0 -112.00057338061742 271.46781593840387 0 0 0 0 163.59401815785213 -146.06312750157576 0 -146.06312750157576 272.17344528224021 0 0 0 0 69.844423244810969 -222.23765150208783 0 -222.23765150208783 312.74981690089953 0 0 0 0 -63.297961538152322 -166.57513639482659 0 -166.57513639482659 321.99041743186399 0 0 0 0 46.925697084551757 -244.91734534315037 0 -244.91734534315037 348.29586360367557 0 0 0 0 32.171036486090998 -185.19841818941677 0 -185.19841818941677 293.64608247853539 0 0 0 0 -26.862492653372556 -231.72082491136553 0 -231.72082491136553 356.25565785825893 0 0 0 0 37.296518008186467 -256.5602777478216 0 -256.5602777478216 337.56362632149558 0 0 0 0 60.648907242837595 -269.34867781309731 0 -269.34867781309731 338.98027628046611 0 0 0 0 8.3268156290732804 -272.75675451871939 0 -272.75675451871939 392.88403254692821 0 0 0 0 -38.251601567452781 -188.59980055057986 0 -188.59980055057986 363.14704790439782 0 0 0 0 -25.209038454639995 -235.84983911363179 0 -235.84983911363179 501.15722072145672 0 0 0 0 36.600860959451438 -116.96203449671248 0 -116.96203449671248 145.13055580449145 0 0 0 0 -26.375819434928417 -214.75087951157593 0 -214.75087951157593 247.278462798482 0 0 0 0 -1.311375232091109 -172.69435148914272 0 -172.69435148914272 94.159344953061009 0 0 0 0 35.649700011697632 -93.564006467178388 0 -93.564006467178388 138.71075779151943 0 0 0 0 -323.0584798219752 -107.64360899676421 0 -107.64360899676421 111.62666563066387 0 0 0 0 -0.013923485490692666 -0.18639708917874964 0 -0.18639708917874964 -0.77890164712165344 0 0 0 0 94.184630259018832 -146.69725903594735 0 -146.69725903594735 120.63943230628001 0 0 0 0 216.26267825964277 -94.340985361907656 0 -94.340985361907656 29.548687423890442 0 0 0 0 80.519328608557771 -30.048890443169967 0 -30.048890443169967 -0.6552220764510821 0 0 0 0 11.728067876169916 -17.577898277751046 0 -17.577898277751046 22.95481388182634 0 0 0 0 103.71226936315252 -146.88264199190428 0 -146.88264199190428 88.825381760136224 0 0 0 0 77.943871472255978 -88.408653506445717 0 -88.408653506445717 55.633639899597256 0 0 0 0 109.08176288399204 -104.49783995734151 0 -104.49783995734151 63.124327122099203 0 0 0 0 75.675896552010727 -110.1777462011737 0 -110.1777462011737 79.430686207015242 0 0 0 0 100.11533651161093 -143.92330574315633 0 -143.92330574315633 91.004490520665968 0 0 0 0 -0.6448309983985876 -0.961577051145726 0 -0.961577051145726 0.69148450029832276 0 0 0 0 136.34507887590712 -169.1848811424311 0 -169.1848811424311 91.338554614328132 0 0 0 0 51.047621184156242 -108.89966804620644 0 -108.89966804620644 133.91722788691527 0 0 0 0 254.3303593437289 -107.0251185807698 0 -107.0251185807698 35.001565568000842 0 0 0 0 56.870718911735793 -47.972483326719271 0 -47.972483326719271 27.948582456278018 0 0 0 0 34.091364523788343 -65.652362200508833 0 -65.652362200508833 14.241967561689307 0 0 0 0 38.281213043605476 -46.928932758206429 0 -46.928932758206429 -33.294906624942087 0 0 0 0 -3.6818223893515096 -32.82447463135577 0 -32.82447463135577 17.55059888130063 0 0 0 0 -7.8330331341317105 -14.722136394087784 0 -14.722136394087784 -8.158172505798575 0 0 0 0 -13.934725271083266 -9.3470197848660064 0 -9.3470197848660064 69.38516511306716 0 0 0 0 1.5495429921738832 -16.070949463255602 0 -16.070949463255602 -15.42418133830688 0 0 0 0 4.3476492444515404 -9.2683793620621238 0 -9.2683793620621238 -3.5301137595191303 0 0 0 0 19.182603887080859 -12.479926868215443 0 -12.479926868215443 -45.494899826609981 0 0 0 0 15.975900941421969 -41.458617260683241 0 -41.458617260683241 24.648847531296269 0 0 0 0 -11.778896677487865 -13.766423406465037 0 -13.766423406465037 -7.1744139981210537 0 0 0 0 0.1169615293523254 -0.43539851941801722 0 -0.43539851941801722 -0.29977007481040019 0 0 0 0 2.5720893129221167 -49.960338918858724 0 -49.960338918858724 14.711799263106514 0 0 0 0 18.260313311567813 -28.646477376664052 0 -28.646477376664052 34.64514942329788 0 0 0 0 -10.406897813124857 -7.876918387142041 0 -7.876918387142041 3.9121705149691479 0 0 0 0 0.4851690559470736 -1.1605777423569261 0 -1.1605777423569261 0.30268578094844401 0 0 0 0 121.89913667697363 -40.913552388285098 0 -40.913552388285098 76.087256030737308 0 0 0 0 6.3223017980453733 -13.828648586160853 0 -13.828648586160853 38.268105720830135 0 0 0 0 0.48421053643051915 -1.5392090033617922 0 -1.5392090033617922 0.86802479174696145 0 0 0 0 5.6530368496210226 -8.5756453833067834 0 -8.5756453833067834 -4.7876593081034091 0 0 0 0 -6.5746253833689252 -1.8723798827328437 0 -1.8723798827328437 9.7368063646908922 0 0 0 0 -136.48131803714841 -137.94611972968232 0 -137.94611972968232 -34.195670676866484 0 0 0 0 22.244626634370661 -9.3253310807581329 0 -9.3253310807581329 -16.83792658972925 0 0 0 0 17.389101503885513 -15.607986321778753 0 -15.607986321778753 -0.62626635798278585 0 0 0 0 0.87988451876611284 -1.6003642437100158 0 -1.6003642437100158 -4.7188249571457703 0 0 0 0 14.0038775415278 -2.9698277063939713 0 -2.9698277063939713 10.799980496334683 0 0 0 0 -5.9676958805357572 -20.819127320904954 0 -20.819127320904954 -5.5573572119428718 0 0 0 0 50.330662518445251 -23.0426888209563 0 -23.0426888209563 -7.5178195525495539 0 0 0 0 11.981904823357922 2.5438060817466521 0 2.5438060817466521 -22.786491537660368 0 0 0 0 5.6390729498389192 -18.703051778300505 0 -18.703051778300505 -8.3641562545744819 0 0 0 0 -27.99917920607453 3.1239262603441489 0 3.1239262603441489 52.814377019461972 0 0 0 0 -26.137593756670412 -36.711586627390716 0 -36.711586627390716 45.981796544574536 0 0 0 0 58.991879368342779 10.381082027168304 0 10.381082027168304 -21.587121171618492 0 0 0 0 2.1196765481801041 -9.9993533904993459 0 -9.9993533904993459 -2.9356880953419395 0 0 0 0 -15.304967128906355 28.513643318719915 0 28.513643318719915 263.19283735081262 0 0 0 0 43.456867473454849 66.339594048799427 0 66.339594048799427 105.12650036155537 0 0 0 0 -62.544433416878746 -97.740318224425209 0 -97.740318224425209 156.43520671513488 0 0 0 0 -16.70418672407493 -2.490198250616686 0 -2.490198250616686 68.927131988926703 0 0 0 0 -18.325989210694047 -57.265983155398317 0 -57.265983155398317 58.04515440103205 0 0 0 0 -46.928206417015872 -45.258598124813943 0 -45.258598124813943 176.83598479308239 0 0 0 0 -72.830151271471294 -116.88699379371556 0 -116.88699379371556 193.22194238892553 0 0 0 0 -62.31977395046215 -106.59333798808893 0 -106.59333798808893 369.47741677328395 0 0 0 0 143.73732650924705 -257.58865881880365 0 -257.58865881880365 226.67190093440513 0 0 0 0 41.000740106897069 5.6204800570194493 0 5.6204800570194493 -70.722023455773524 0 0 0 0 58.255625493157595 -53.872381677951125 0 -53.872381677951125 4.6342847039613844 0 0 0 0 60.477565046343557 -4.5907414666926343 0 -4.5907414666926343 -37.260393777929494 0 0 0 0 20.881115607031234 3.849833672477871 0 3.849833672477871 -3.791524741161993 0 0 0 0 25.21191354003281 -25.887986742215617 0 -25.887986742215617 -50.107507383565462 0 0 0 0 -20.946587197310009 4.0773829679492337 0 4.0773829679492337 -9.1826556822343264 0 0 0 0 10.657942259319498 -12.244514047219127 0 -12.244514047219127 -19.325280461262082 0 0 0 0 23.379704235513032 -67.226727770789239 0 -67.226727770789239 13.054702695935703 0 0 0 0 -22.825606824307563 -24.750605791812518 0 -24.750605791812518 1.3909544567286503 0 0 0 0 34.974544472139769 -45.803100347464351 0 -45.803100347464351 -2.9955498525305302 0 0 0 0 -19.49334510256881 -53.621396089467453 0 -53.621396089467453 46.697991544933757 0 0 0 0 56.267673359727723 -126.87981646096887 0 -126.87981646096887 87.928611876066498 0 0 0 0 27.726525363770207 -58.861477334754909 0 -58.861477334754909 15.727796838760696 0 0 0 0 -74.548063090054683 -153.20009546172142 0 -153.20009546172142 114.75824258678767 0 0 0 0 192.79194155794465 -106.5762762587924 0 -106.5762762587924 29.513369313084695 0 0 0 0 83.875792729313673 -243.00083941367575 0 -243.00083941367575 141.96176962870186 0 0 0 0 94.569109755608281 -15.136399185390928 0 -15.136399185390928 71.696860057745653 0 0 0 0 95.161889498024038 -38.543264822423225 0 -38.543264822423225 9.6490736318592099 0 0 0 0 -37.982517620768249 11.545139218860641 0 11.545139218860641 51.546860196360285 0 0 0 0 -47.840982653398214 -26.192536510304762 0 -26.192536510304762 1.1322592858923599 0 0 0 0 -1.0648593115097356 6.2527529290136954 0 6.2527529290136954 -19.822941732001709 0 0 0 0 41.950594869550059 48.348953740182878 0 48.348953740182878 11.65845325391183 0 0 0 0 2.729028147130748 -8.0641176091085072 0 -8.0641176091085072 0.058671542482443328 0 0 0 0 -0.2811551069894449 -2.6820239706576103 0 -2.6820239706576103 -9.2825398839759146 0 0 0 0 0.22391933338350523 -1.6977839356820699 0 -1.6977839356820699 -4.3840167003353052 0 0 0 0 -30.73849372163204 2.8231009260507562 0 2.8231009260507562 21.344354766949436 0 0 0 0 -31.313859118354856 -1.5759456715697979 0 -1.5759456715697979 -8.760933848334389 0 0 0 0 1.4470572587167005 -3.7062987809462058 0 -3.7062987809462058 -7.3296343651391922 0 0 0 0 6.1212007515994173 -9.0513430598416562 0 -9.0513430598416562 0.16577759601204889 0 0 0 0 2.0555426671137855 -5.0355034088026045 0 -5.0355034088026045 -2.4895757311614748 0 0 0 0 35.165602580245832 -80.306775343371555 0 -80.306775343371555 154.00547193425155 0 0 0 0 0.3550752855026853 -0.28957574658330643 0 -0.28957574658330643 -2.2386697200142969 0 0 0 0 -10.91226248308385 -23.170110901631233 0 -23.170110901631233 213.16503403493243 0 0 0 0 -14.914872477380982 43.391275570615107 0 43.391275570615107 -16.596062536459613 0 0 0 0 3.95019044172534 -10.108509004435291 0 -10.108509004435291 6.2111011123670323 0 0 0 0 1.9711574307531388 -4.916216806456525 0 -4.916216806456525 -4.3210174364130864 0 0 0 0 1.2444351082049909 -3.3289315888492421 0 -3.3289315888492421 -1.3878046113612701 0 0 0 0 2.8903646718576126 -3.4972195384421596 0 -3.4972195384421596 -5.0455585106449803 0 0 0 0 1.1987177286246151 -4.7917706589578302 0 -4.7917706589578302 5.9713849835388828 0 0 0 0 -10.231629656416317 -17.524667031690115 0 -17.524667031690115 -18.107809416864256 0 0 0 0 85.923642846112841 -186.80249206336339 0 -186.80249206336339 144.47958688328072 0 0 0 0 0.27337681975130435 -5.6118629741208359 0 -5.6118629741208359 12.954166801457482 0 0 0 0 59.750290343150283 -148.87103881440271 0 -148.87103881440271 176.79545073166446 0 0 0 0 31.96944914550005 -217.17091045471216 0 -217.17091045471216 273.76602256086153 0 0 0 0 72.110564768182073 -105.79217478103601 0 -105.79217478103601 80.298883548707636 0 0 0 0 0.58235534541927336 -122.61498929599384 0 -122.61498929599384 204.75075127015771 0 0 0 0 20.08181387681725 -72.848825741757082 0 -72.848825741757082 133.58693641470927 0 0 0 0 -34.686591634586648 -85.935646727084531 0 -85.935646727084531 264.51652554208795 0 0 0 0 -85.597063040504736 -163.28930153934743 0 -163.28930153934743 158.15568316328336 0 0 0 0 -23.035854547257713 -89.145554609608553 0 -89.145554609608553 187.60293756770625 0 0 0 0 -16.995766651718554 -43.350847654078734 0 -43.350847654078734 225.96376769130256 0 0 0 0 -17.899872250256976 -123.26148152888891 0 -123.26148152888891 152.15005327662402 0 0 0 0 -18.440068175417963 -90.14021775993649 0 -90.14021775993649 186.08934815942121 0 0 0 0 -21.949456116255988 -140.6063036284695 0 -140.6063036284695 105.32045220703958 0 0 0 0 -62.08736949306433 -119.28614608413045 0 -119.28614608413045 164.39657386846739 0 0 0 0 0.7062447810883441 -172.29515698248042 0 -172.29515698248042 128.97807608150652 0 0 0 0 0.045604631559588715 -0.40048565945180226 0 -0.40048565945180226 -0.20460055433089863 0 0 0 0 238.1927724945912 -292.97473124824228 0 -292.97473124824228 157.52541828886569 0 0 0 0 -180.2368636102662 -32.159903146929992 0 -32.159903146929992 128.6992253338276 0 0 0 0 283.06061407505649 -185.59249819575302 0 -185.59249819575302 67.466354238993517 0 0 0 0 44.076465933617897 -177.77682114387017 0 -177.77682114387017 245.04036357251789 0 0 0 0 136.84710245143833 -237.17832936527338 0 -237.17832936527338 181.64496805208273 0 0 0 0 181.54485676428794 -173.00672500625228 0 -173.00672500625228 84.568652167990876 0 0 0 0 73.715166330837747 -170.49456634426042 0 -170.49456634426042 116.56955306863165 0 0 0 0 27.375997981120463 -182.84530227194819 0 -182.84530227194819 176.96920824300287 0 0 0 0 15.298015818254044 -154.05651502264027 0 -154.05651502264027 110.40200360365088 0 0 0 0 39.795236003123136 -159.00244635526178 0 -159.00244635526178 164.34777295934191 0 0 0 0 -14.416085309379469 -139.8367019330808 0 -139.8367019330808 226.15538157995252 0 0 0 0 -30.116027406833382 -89.717935472374847 0 -89.717935472374847 212.03398651433099 0 0 0 0 -7.6796863025429047 -141.95938753279506 0 -141.95938753279506 326.40459446868044 0 0 0 0 100.58247201022846 -271.698947485899 0 -271.698947485899 499.13576697765711 0 0 0 0 55.14278505654238 -161.27478738615901 0 -161.27478738615901 233.63833071318822 0 0 0 0 1.8252004810368962 -2.8498878197567201 0 -2.8498878197567201 1.832464292078555 0 0 0 0 0.40689261440624591 15.369635641465308 0 15.369635641465308 540.33710121956028 0 0 0 0 49.196607521997976 14.492281677623851 0 14.492281677623851 9.5427103045046806 0 0 0 0 0.49041848760097118 -1.6732369197736414 0 -1.6732369197736414 0.28372731099531379 0 0 0 0 1.3930300287251116 -5.7156661068563164 0 -5.7156661068563164 -2.2215867875409643 0 0 0 0 -0.82646502761690499 41.906471079532821 0 41.906471079532821 261.25178200708842 0 0 0 0 11.759446501090224 -20.932659261892695 0 -20.932659261892695 124.31243918417658 0 0 0 0 -1.8114365352812456 -12.211877121606449 0 -12.211877121606449 -11.703099011469021 0 0 0 0 4.1182302293029016 -3.4570017811262943 0 -3.4570017811262943 -1.9513131313747074 0 0 0 0 2.9776848683077333 -6.6921607868807769 0 -6.6921607868807769 -3.7830807673421987 0 0 0 0 0.18057899486666429 -3.6622186048080039 0 -3.6622186048080039 -4.7025534590238749 0 0 0 0 -0.96913618350019703 -5.4949431908650377 0 -5.4949431908650377 -3.6306410137433964 0 0 0 0 -8.7954756509659546 -12.029845430795831 0 -12.029845430795831 4.5114490740115798 0 0 0 0 -1.2249041021179448 -1.4105202008617006 0 -1.4105202008617006 -0.98919536779315642 0 0 0 0 -15.727605454743752 -27.218835853562268 0 -27.218835853562268 -19.873182169455504 0 0 0 0 -0.32620330083757665 -0.26073084451449624 0 -0.26073084451449624 0.33484815021338221 0 0 0 0 2.6451823947750199 4.5031393929564274 0 4.5031393929564274 29.854970339370084 0 0 0 0 135.95996993669087 -170.39422053818271 0 -170.39422053818271 256.95640693889072 0 0 0 0 300.80484916260548 -283.35078794741776 0 -283.35078794741776 109.43037267819727 0 0 0 0 111.57515951447476 -322.76268569605736 0 -322.76268569605736 430.00986079600625 0 0 0 0 16.964007888995638 -227.15781866118186 0 -227.15781866118186 241.88100086659597 0 0 0 0 73.603319467714755 -237.29008028830231 0 -237.29008028830231 243.66303597296292 0 0 0 0 211.83047024049893 -186.43127222993917 0 -186.43127222993917 126.29999006596063 0 0 0 0 371.17903707593996 -430.59110723628783 0 -430.59110723628783 191.04417747297259 0 0 0 0 -9.9851520205654847 -11.57508722335276 0 -11.57508722335276 -8.7860305222457953 0 0 0 0 87.522182388925103 -292.29850266797894 0 -292.29850266797894 227.17388305271561 0 0 0 0 140.57376159994647 -295.20006823830681 0 -295.20006823830681 220.24285067369419 0 0 0 0 -11.136041318572662 -11.640151806905239 0 -11.640151806905239 -7.0003481103901528 0 0 0 0 111.27989239689225 -227.03798479254567 0 -227.03798479254567 236.29179993151229 0 0 0 0 57.853498546349329 -94.072328293052806 0 -94.072328293052806 -6.7882102468838639 0 0 0 0 21.834139746697474 -101.93672277925361 0 -101.93672277925361 75.892942590150369 0 0 0 0 0.59680229116970196 -0.31770965399670592 0 -0.31770965399670592 -0.75279648910419006 0 0 0 0 2.526312276227145 62.150141339811171 0 62.150141339811171 -74.909514626328928 0 0 0 0 -10.466087233069324 -10.220878282082005 0 -10.220878282082005 -5.2448365304862996 0 0 0 0 85.536471404999702 -60.928120741671592 0 -60.928120741671592 -41.756796975647376 0 0 0 0 -32.79706411632651 -11.827029290534938 0 -11.827029290534938 167.226014158623 0 0 0 0 104.25065452225317 -5.55333163155683 0 -5.55333163155683 197.73382009603665 0 0 0 0 17.99822823787963 -127.696447709312 0 -127.696447709312 25.641714491761377 0 0 0 0 130.18607046366583 -147.37675876235085 0 -147.37675876235085 166.02836447495974 0 0 0 0 217.18852720367522 -127.81754145061404 0 -127.81754145061404 17.979276215880873 0 0 0 0 146.57748723122586 -11.678809107520919 0 -11.678809107520919 436.32612799351136 0 0 0 0 413.41444362107723 -208.58204525828296 0 -208.58204525828296 165.70543161021033 0 0 0 0 73.550169317323707 -43.56591367521105 0 -43.56591367521105 108.41261763056536 0 0 0 0 77.308113570305068 -143.33390039532787 0 -143.33390039532787 218.89172774128576 0 0 0 0 -121.69811836917233 -158.59523826419854 0 -158.59523826419854 -72.460288142703263 0 0 0 0 -111.62661475741697 -129.17935852245864 0 -129.17935852245864 10.053448881511031 0 0 0 0 -125.43970588738102 -106.91029046016365 0 -106.91029046016365 -25.678994908982531 0 0 0 0 -60.238424757357279 -57.421697706363375 0 -57.421697706363375 -37.874776239078074 0 0 0 0 -65.938321920040835 -43.129190622294573 0 -43.129190622294573 -5.8561737747327243 0 0 0 0 -50.105884091428379 -54.050912018852159 0 -54.050912018852159 -14.711799296130266 0 0 0 0 -89.368198959463371 -54.99868047361997 0 -54.99868047361997 34.588444875273126 0 0 0 0 -181.81457769621329 -80.211196875343489 0 -80.211196875343489 32.18880123296276 0 0 0 0 37.548349536356909 -71.087255663861242 0 -71.087255663861242 9.3655476150679533 0 0 0 0 -2.1411486256965873 -10.539228269547948 0 -10.539228269547948 -0.13555765841942957 0 0 0 0 -47.750770670232669 -42.978967334584468 0 -42.978967334584468 35.893054487990867 0 0 0 0 -33.57594224335844 -37.682093279731362 0 -37.682093279731362 -20.98106788851419 0 0 0 0 -46.047148750163615 -14.988567382170459 0 -14.988567382170459 -21.930320667966043 0 0 0 0 33.903738492422235 -97.182846923804391 0 -97.182846923804391 -33.426847177882337 0 0 0 0 -35.964106231846017 -13.801834952316312 0 -13.801834952316312 -53.291485446927709 0 0 0 0 -35.630537042104152 -21.985216043679202 0 -21.985216043679202 -34.427650377846476 0 0 0 0 -36.019810644166 -27.2190015848592 0 -27.2190015848592 -37.632737448140688 0 0 0 0 -26.546555985316445 -49.254847519705663 0 -49.254847519705663 -81.43450293267415 0 0 0 0 -22.740776038095646 -16.371271018577772 0 -16.371271018577772 -49.026971194034331 0 0 0 0 -43.418876075677872 -37.729617251164882 0 -37.729617251164882 -57.136347909763572 0 0 0 0 -16.81910990050892 -32.67098023442577 0 -32.67098023442577 -72.928853582935062 0 0 0 0 -78.464323593565496 -72.45165617793009 0 -72.45165617793009 -49.032324686799711 0 0 0 0 -70.273866998128142 -78.090594344421334 0 -78.090594344421334 -80.705405407598391 0 0 0 0 18.08705269785878 -70.494879465222766 0 -70.494879465222766 -10.39435669509021 0 0 0 0 -39.506339426055547 -29.902386245649268 0 -29.902386245649268 -17.109157083618811 0 0 0 0 -30.198331939609488 -27.551946133191905 0 -27.551946133191905 -26.682067969750733 0 0 0 0 -21.450281157456629 -29.424296581631779 0 -29.424296581631779 -28.274434090145405 0 0 0 0 -26.764150443237668 -32.946477256965636 0 -32.946477256965636 -17.261911589390365 0 0 0 0 -26.286111381290539 -9.1095111098888992 0 -9.1095111098888992 -2.0971168940695861 0 0 0 0 -11.904333300974031 -19.998153137120426 0 -19.998153137120426 -14.057243327201149 0 0 0 0 -35.562078201004624 -29.22820489176047 0 -29.22820489176047 -10.941408673172418 0 0 0 0 -13.866321103470909 -0.030825001458651968 0 -0.030825001458651968 -3.6728914975412863 0 0 0 0 -25.232127887369643 -24.094108378557848 0 -24.094108378557848 -57.531992730534739 0 0 0 0 -8.8548906675500803 22.575858373431174 0 22.575858373431174 -14.09000295590522 0 0 0 0 -49.804412266589679 -30.496286684551933 0 -30.496286684551933 -19.949575733623078 0 0 0 0 0.034814043747012136 0.2576481980246399 0 0.2576481980246399 -0.96559157888075475 0 0 0 0 19.362795246617679 23.131160137715597 0 23.131160137715597 -54.159919513832619 0 0 0 0 -1.2906965363672498 10.749951307283482 0 10.749951307283482 3.7716920856037177 0 0 0 0 -3.1139204947101007 -3.7121964519146218 0 -3.7121964519146218 -5.9235732608358376 0 0 0 0 9.4808082837262191 -3.7665435704211632 0 -3.7665435704211632 -7.4568636809999589 0 0 0 0 8.3413875599781022 -7.0274159137616152 0 -7.0274159137616152 -11.067502333447919 0 0 0 0 7.4053582713841024 -8.4874100151755556 0 -8.4874100151755556 -11.871074273354679 0 0 0 0 -0.14517543261656307 -0.3730002450091412 0 -0.3730002450091412 -2.394363782000255 0 0 0 0 0.14733190487353554 0.0029115552220591034 0 0.0029115552220591034 -0.21077794599239397 0 0 0 0 -1.6791102431961917 1.0599718770445179 0 1.0599718770445179 7.2835387912200531 0 0 0 0 -8.5896071804600069 17.268266165067871 0 17.268266165067871 -43.076195513336415 0 0 0 0 -0.45421729411100387 4.2455540462779027 0 4.2455540462779027 10.767703313525999 0 0 0 0 -0.45421729410645639 4.2455540461849068 0 4.2455540461849068 10.767703313787933 0 0 0 0 4.7604351906161355 -4.8548977866652194 0 -4.8548977866652194 -39.462457440789876 0 0 0 0 0.71185630289988211 -0.59436954309298518 0 -0.59436954309298518 0.12692087506037808 0 0 0 0 1.5455744413702632 -2.612433599846554 0 -2.612433599846554 -1.0226488080352283 0 0 0 0 -0.51157358994371993 -3.0638454405387243 0 -3.0638454405387243 -0.45458588026306757 0 0 0 0 1.6686807497917506 -3.0613408685820147 0 -3.0613408685820147 -1.9074699632709766 0 0 0 0 -0.45421729415102163 4.245554046221514 0 4.245554046221514 10.767703313744278 0 0 0 0 -1.1372476060152024 -1.0420175592596408 0 -1.0420175592596408 1.1556287188241434 0 0 0 0 -1.2716762315194945 -4.085963054010346 0 -4.085963054010346 0.34126187232323701 0 0 0 0 -1.5133173655267456 -0.4317245876754896 0 -0.4317245876754896 0.53978819752956042 0 0 0 0 -2.4974630870920027 -1.4270322654809071 0 -1.4270322654809071 2.4503909422050185 0 0 0 0 1.1835999647228164 -2.5943951421959355 0 -2.5943951421959355 -0.68928248321753927 0 0 0 0 1.1963555088745998 -3.0087569423942062 0 -3.0087569423942062 2.1584514999109778 0 0 0 0 -38.693565475903597 13.600065539012576 0 13.600065539012576 -8.0128452382323303 0 0 0 0 -20.620064804798858 12.349698968845018 0 12.349698968845018 -9.440990263607091 0 0 0 0 -0.81438512954991893 -3.1653642594283156 0 -3.1653642594283156 4.9574804532312555 0 0 0 0 -33.992466697105556 7.6174294097727397 0 7.6174294097727397 -11.110173317583758 0 0 0 0 -26.614704425759555 18.037980002515724 0 18.037980002515724 16.419873868651848 0 0 0 0 -34.003559053133358 5.5278669891322352 0 5.5278669891322352 -4.7084517414950824 0 0 0 0 -38.908820800530521 8.3318251794662501 0 8.3318251794662501 -5.0640661401159832 0 0 0 0 -16.592919739958234 2.9396572345872301 0 2.9396572345872301 -27.712849657136758 0 0 0 0 12.052305079083453 33.744311086595189 0 33.744311086595189 -36.541858526396027 0 0 0 0 -1.1776404715519035 -0.64437878072886079 0 -0.64437878072886079 -0.3413030085670572 0 0 0 0 1.9822611831550603 20.201448286473351 0 20.201448286473351 -12.472127477889444 0 0 0 0 -1.069779349003511 5.5489738078958908 0 5.5489738078958908 33.208833279304145 0 0 0 0 -8.640248738365699 56.061017739477393 0 56.061017739477393 2.6209480350071317 0 0 0 0 -7.5446246590654482 -7.4105235669185276 0 -7.4105235669185276 -8.5581787246344447 0 0 0 0 1.3622464307736664 -11.185717501638692 0 -11.185717501638692 -8.2052655323604995 0 0 0 0 1.079994310971415 -18.953636637910677 0 -18.953636637910677 -64.949861292139758 0 0 0 0 -0.16071647415407142 -0.25507858494115254 0 -0.25507858494115254 -0.080471875253364189 0 0 0 0 129.56901106912846 -47.385363262485498 0 -47.385363262485498 8.8920370165806162 0 0 0 0 49.962519727846257 -64.336705612203843 0 -64.336705612203843 17.863062631809953 0 0 0 0 39.262151466611158 -100.83964579253103 0 -100.83964579253103 77.097014038070483 0 0 0 0 34.875134344167236 -68.156635704405289 0 -68.156635704405289 -17.340612145973637 0 0 0 0 29.546031072470214 -54.478986597296171 0 -54.478986597296171 -32.27066811279542 0 0 0 0 26.66780110952277 -28.891315736250363 0 -28.891315736250363 7.6157411139170108 0 0 0 0 31.227608626823439 -14.963256593633332 0 -14.963256593633332 1.3473337904179061 0 0 0 0 26.337563509010579 -13.949799197561333 0 -13.949799197561333 -13.293498452571839 0 0 0 0 10.373345564739793 -20.010972679637234 0 -20.010972679637234 6.5335234106844382 0 0 0 0 20.368916596531449 -14.083550214381376 0 -14.083550214381376 -19.763342570377063 0 0 0 0 11.353737314569116 -15.083940842270749 0 -15.083940842270749 -8.9273834334771891 0 0 0 0 -2.7057753341352733 -6.0262986079288012 0 -6.0262986079288012 -4.1268521677480692 0 0 0 0 -1.4687165087594387 -5.6486159226899684 0 -5.6486159226899684 -3.74051116039481 0 0 0 0 5.4379292189387343 -6.9091561193490634 0 -6.9091561193490634 0.55299679323434248 0 0 0 0 -4.0435563507844563 33.676588567678664 0 33.676588567678664 1.4877006034694205 0 0 0 0 103.63070911477962 -65.045905845445986 0 -65.045905845445986 6.3850581180395238 0 0 0 0 12.270601992137472 -82.262466917361053 0 -82.262466917361053 36.955908250034099 0 0 0 0 61.930390199899193 -80.072336854489549 0 -80.072336854489549 59.556706839833168 0 0 0 0 52.206639783829814 -32.147641484433734 0 -32.147641484433734 -26.571706125860146 0 0 0 0 3.0721196345523332 -2.2446152630561302 0 -2.2446152630561302 -2.6787020057938147 0 0 0 0 -10.630776893785882 -9.1071923251573352 0 -9.1071923251573352 -3.8153854242325913 0 0 0 0 144.26888788822271 -11.83848884645613 0 -11.83848884645613 -78.931505213025048 0 0 0 0 46.607177140685963 -57.999367453702689 0 -57.999367453702689 37.878960810145145 0 0 0 0 0.51153765210743529 -0.52046665675969317 0 -0.52046665675969317 -1.1499168365869785 0 0 0 0 -6.5063240829258575 45.854373823780406 0 45.854373823780406 1.0989352762780982 0 0 0 0 64.822908004984129 -43.210292355822276 0 -43.210292355822276 12.328272595232193 0 0 0 0 35.161070139787626 -12.222227308019683 0 -12.222227308019683 4.4143078886004332 0 0 0 0 26.027063911900768 -31.693994627760731 0 -31.693994627760731 40.942425900956664 0 0 0 0 26.071730537843905 -14.620216011657249 0 -14.620216011657249 9.4961304299695257 0 0 0 0 45.488338325298173 1.5601252947426474 0 1.5601252947426474 21.92601204864286 0 0 0 0 2.3024253186576971 18.533586929139346 0 18.533586929139346 -14.024750341672188 0 0 0 0 -1.5679705490074412 0.61810590848108404 0 0.61810590848108404 -46.581294658179104 0 0 0 0 -0.42214247973410224 0.53491400554740309 0 0.53491400554740309 0.23505097784894602 0 0 0 0 14.366051623899693 -0.1149781898980109 0 -0.1149781898980109 -18.794769284259019 0 0 0 0 3.9198346770645003 27.470120484385916 0 27.470120484385916 -72.948097966465866 0 0 0 0 13.499118157355042 -0.94575202908390565 0 -0.94575202908390565 -18.697434845093085 0 0 0 0 -15.658126797665318 -20.253411800242247 0 -20.253411800242247 -6.4181141674525861 0 0 0 0 -14.310480282489152 -17.583608857042236 0 -17.583608857042236 -8.4507280751054168 0 0 0 0 24.901345246024448 -24.955553068277368 0 -24.955553068277368 -10.205842980081798 0 0 0 0 26.780066366278334 -0.48537002775992732 0 -0.48537002775992732 -21.74374740255098 0 0 0 0 23.71509464474002 -7.2843587732368178 0 -7.2843587732368178 -14.643634415542692 0 0 0 0 21.43517273614998 1.105017303083514 0 1.105017303083514 -20.606929598937313 0 0 0 0 34.133602528721894 -9.365417213755336 0 -9.365417213755336 -21.398133226965001 0 0 0 0 25.494584648035016 -19.047789218270736 0 -19.047789218270736 -0.79708452631211912 0 0 0 0 16.957222093773453 -2.2533956088127525 0 -2.2533956088127525 -16.369770641287687 0 0 0 0 20.683894134070215 -4.458506289678553 0 -4.458506289678553 -18.241286631815456 0 0 0 0 13.722953193297144 0.97853705091347365 0 0.97853705091347365 -17.202139602528405 0 0 0 0 18.613220626191833 -0.37825296332539438 0 -0.37825296332539438 -19.035794257088128 0 0 0 0 8.0137647363626456 2.9748443212920392 0 2.9748443212920392 -17.503920738474335 0 0 0 0 13.471067259986739 -2.3317629472030603 0 -2.3317629472030603 -12.612119733543295 0 0 0 0 13.608574510747417 -5.641010900201934 0 -5.641010900201934 -18.235545366227598 0 0 0 0 -0.87282556886566454 -15.613589477230107 0 -15.613589477230107 41.755653580188664 0 0 0 0 -0.025943730065591808 4.9851416482711102 0 4.9851416482711102 -11.646994757981702 0 0 0 0 -0.043793003073131942 -0.56824471747359695 0 -0.56824471747359695 -0.94157003656772531 0 0 0 0 -0.19906378352970933 -6.6303059338570165 0 -6.6303059338570165 -3.2183911362226354 0 0 0 0 0.41440803371447643 -0.59884076086964555 0 -0.59884076086964555 -0.39160952588014908 0 0 0 0 13.601659740029504 4.0794986889799247 0 4.0794986889799247 -25.616285991633049 0 0 0 0 5.2191408222779501 -0.047730943447959362 0 -0.047730943447959362 -8.9874158182337851 0 0 0 0 2.7858427301780964 -5.392983001280518 0 -5.392983001280518 -0.030512067143623867 0 0 0 0 -0.87275150834830129 0.78699491759152806 0 0.78699491759152806 -6.8078401102502539 0 0 0 0 8.0403783509718778 -9.3680204478114319 0 -9.3680204478114319 -17.205047964578625 0 0 0 0 5.44687011440692 -0.86207955483860133 0 -0.86207955483860133 -7.9388418530215858 0 0 0 0 1.0663740589443478 -4.3754343518558017 0 -4.3754343518558017 1.7452294751924455 0 0 0 0 1.17172583451093 -3.3675430844247423 0 -3.3675430844247423 -0.5375926554984487 0 0 0 0 0.95626182548793359 -5.4879914223271591 0 -5.4879914223271591 2.6123529909711429 0 0 0 0 -0.42858447303157732 -5.6468903098340135 0 -5.6468903098340135 2.9423476966257462 0 0 0 0 6.4760729477147834 -6.1131899983956828 0 -6.1131899983956828 0.54515380889324661 0 0 0 0 2.0316999243241298 -7.6795690483646695 0 -7.6795690483646695 10.187071124162685 0 0 0 0 -9.9839338364472496 0.40928228513621434 0 0.40928228513621434 -1.6024082973235636 0 0 0 0 -1.3786887339802831 -5.4813477483081172 0 -5.4813477483081172 4.5280652080289592 0 0 0 0 -0.011144285672276766 -3.5902459736129222 0 -3.5902459736129222 4.5285822436283993 0 0 0 0 0.95809126168751391 -4.7967682020935172 0 -4.7967682020935172 3.6382039813287577 0 0 0 0 0.98931814761817805 -4.2643845895095183 0 -4.2643845895095183 3.6316232247445441 0 0 0 0 0.71543394230284818 -3.9247497017286781 0 -3.9247497017286781 3.2144540532622941 0 0 0 0 6.8598314931150526 -5.283982203423875 0 -5.283982203423875 -5.9636240706813624 0 0 0 0 11.050631562073249 -8.4001175910070742 0 -8.4001175910070742 -13.428432303448062 0 0 0 0 4.0745384160927642 -9.1221135925179624 0 -9.1221135925179624 -7.4738976031876518 0 0 0 0 0.074969856357256504 -0.51634148676845903 0 -0.51634148676845903 -1.3653275377031604 0 0 0 0 -3.2547526925773127 -13.386517480241309 0 -13.386517480241309 7.8336682668194726 0 0 0 0 -1.9245891904042196 -11.4289529859849 0 -11.4289529859849 3.7436925985993077 0 0 0 0 3.7929080784379039 -9.2626038312328092 0 -9.2626038312328092 -6.1076239164399908 0 0 0 0 3.4086755296823412 -3.0730388522012859 0 -3.0730388522012859 15.600976391383597 0 0 0 0 3.3419189272732126 -10.823412571249152 0 -10.823412571249152 0.21803810349053732 0 0 0 0 -18.385033755726909 -19.032928558197227 0 -19.032928558197227 55.516313934388762 0 0 0 0 -6.0652643451405677 -10.479261605212692 0 -10.479261605212692 -2.8865788212331132 0 0 0 0 -4.471699639288623 -11.110594784016266 0 -11.110594784016266 0.65373526167530471 0 0 0 0 -16.986371699935717 -34.517757768822776 0 -34.517757768822776 -12.480834163005966 0 0 0 0 13.743327008692873 -3.874520926861468 0 -3.874520926861468 -8.0805977152426092 0 0 0 0 12.640392334174294 -14.548121423025009 0 -14.548121423025009 -21.661085704678044 0 0 0 0 12.555063091009288 -7.5727532455694018 0 -7.5727532455694018 -18.302880618192376 0 0 0 0 16.689792295142524 -12.581989734586614 0 -12.581989734586614 -12.775087491610975 0 0 0 0 7.8092158082533842 -21.572298609493487 0 -21.572298609493487 -11.270755487453243 0 0 0 0 1.7860454352121451 -30.482925663221977 0 -30.482925663221977 -70.14249872113578 0 0 0 0 3.606179183993321 0.57153295548249794 0 0.57153295548249794 -2.197750536207117 0 0 0 0 13.642977282902425 -3.8181997520934807 0 -3.8181997520934807 -2.5845406658081984 0 0 0 0 -2.1029239538547699 -31.176512238454961 0 -31.176512238454961 19.998302506819641 0 0 0 0 9.0855015734828157 -50.276182141489699 0 -50.276182141489699 -55.13103858712293 0 0 0 0 1.0781429162927907 0.45019675284666505 0 0.45019675284666505 17.630989350702976 0 0 0 0 -26.940105067193144 1.6857153131614382 0 1.6857153131614382 44.829251396217842 0 0 0 0 -104.59606170850748 -21.662528421209345 0 -21.662528421209345 23.850519446783665 0 0 0 0 -27.711427419917072 -64.654518206314265 0 -64.654518206314265 -57.437872265116312 0 0 0 0 -20.597221377336609 -15.333819435514215 0 -15.333819435514215 8.5181805205857017 0 0 0 0 0.79604700403599793 -0.6600226652981056 0 -0.6600226652981056 -1.6667783903223725 0 0 0 0 -23.15400382432199 28.058658139052113 0 28.058658139052113 20.637001840028006 0 0 0 0 -27.206137900959561 15.723975403126076 0 15.723975403126076 5.0542537169260413 0 0 0 0 19.461522972874036 -59.301818906973949 0 -59.301818906973949 -30.169275195021783 0 0 0 0 -2.2773013380319753 -28.561687529675964 0 -28.561687529675964 -24.622770844384831 0 0 0 0 38.61517004822781 17.053851822697936 0 17.053851822697936 18.836255548052577 0 0 0 0 1.3546240416213386 -0.30975914514024971 0 -0.30975914514024971 -1.2445384743759353 0 0 0 0 -1.5755145717521373 -8.2436633321048021 0 -8.2436633321048021 10.294172108378461 0 0 0 0 -9.1102472170787223 -9.189996652409036 0 -9.189996652409036 22.72140318352848 0 0 0 0 6.85563058986736 -14.781637743790782 0 -14.781637743790782 21.609384489016975 0 0 0 0 0.14020731461813085 -1.8752487160517832 0 -1.8752487160517832 0.27741582620305349 0 0 0 0 12.097325356753572 -0.20783066421591911 0 -0.20783066421591911 23.979668614714569 0 0 0 0 -10.133564609612222 -20.445329931770175 0 -20.445329931770175 60.086271341215706 0 0 0 0 6.1738285128303687 -13.067028003008545 0 -13.067028003008545 13.172439554017274 0 0 0 0 -4.1648876052331616 1.7940333322299011 0 1.7940333322299011 16.422008008860303 0 0 0 0 1.4683464980140855 -1.2031185492841736 0 -1.2031185492841736 1.8676247826828343 0 0 0 0 5.311068474118656 -17.936935076047803 0 -17.936935076047803 34.637431488262337 0 0 0 0 -1.1645970053014381 -3.0148159214179309 0 -3.0148159214179309 6.8958235088475082 0 0 0 0 -3.0882631766762643 -3.4246791460664099 0 -3.4246791460664099 4.9397039892705834 0 0 0 0 -0.33193153486564775 -3.2560415485548617 0 -3.2560415485548617 4.3458153427220925 0 0 0 0 -2.0441874183597974 -3.5081745726508871 0 -3.5081745726508871 6.1129288199163057 0 0 0 0 1.1204269502559328 -6.813415503143915 0 -6.813415503143915 10.839586533033071 0 0 0 0 -0.77492726060746264 -3.5362674110117025 0 -3.5362674110117025 6.0216728027446544 0 0 0 0 0.1080491018370644 -6.9463301663588135 0 -6.9463301663588135 3.6316768709539651 0 0 0 0 10.544806263666942 -10.455529794384347 0 -10.455529794384347 23.857514960358458 0 0 0 0 7.9748216498992406 -4.1203308700164598 0 -4.1203308700164598 11.323779178615496 0 0 0 0 -0.15410426663947874 5.1323778984083219 0 5.1323778984083219 21.56379874954655 0 0 0 0 -3.6236533529365857 1.0269403683752287 0 1.0269403683752287 10.212056198276908 0 0 0 0 2.3415025274880463 6.8356168323036854 0 6.8356168323036854 19.190130208466144 0 0 0 0 -1.2414934972376095 -0.29230645663822941 0 -0.29230645663822941 7.4273432007045317 0 0 0 0 -4.2205940652420395 8.5270883724510895 0 8.5270883724510895 23.278133385667104 0 0 0 0 0.029053814090730157 4.6283071333523367 0 4.6283071333523367 22.841733294662845 0 0 0 0 -4.0362876782965031 2.1755601928712167 0 2.1755601928712167 31.471575818665542 0 0 0 0 -8.5790640459672431 6.8851848740516743 0 6.8851848740516743 26.639886690162712 0 0 0 0 -4.1241813402320986 7.9977470640583306 0 7.9977470640583306 26.183728126058668 0 0 0 0 0.30849036694598908 9.7384653327776505 0 9.7384653327776505 15.418251252298887 0 0 0 0 5.2133549300515369 8.864480294722739 0 8.864480294722739 15.482621121412649 0 0 0 0 -8.064769403590617 12.733961501920021 0 12.733961501920021 62.20097235043977 0 0 0 0 -23.232486687840719 -2.1854185236270496 0 -2.1854185236270496 49.323104071598209 0 0 0 0 -15.845473414148728 -4.2004446371361155 0 -4.2004446371361155 49.252624829614433 0 0 0 0 -14.485493356367442 4.4107682441672296 0 4.4107682441672296 27.309736942600466 0 0 0 0 -26.262657317682169 15.817231926286695 0 15.817231926286695 23.487914972616181 0 0 0 0 -30.255603259050986 -7.4078122424548383 0 -7.4078122424548383 21.646066574799079 0 0 0 0 -22.836859718652704 -26.726565048020802 0 -26.726565048020802 -12.151872702359015 0 0 0 0 -2.6544156218178614 -4.8412088737786689 0 -4.8412088737786689 -17.905517775687258 0 0 0 0 24.090699658616359 0.052816676718066446 0 0.052816676718066446 -0.88164077014425857 0 0 0 0 -34.425612679000551 -68.463120925866065 0 -68.463120925866065 -61.617528919514371 0 0 0 0 -43.555148558745714 -20.729354471163333 0 -20.729354471163333 -19.118081082257646 0 0 0 0 -23.487686006195872 -32.900405722253709 0 -32.900405722253709 -76.558409162502358 0 0 0 0 70.618396975931319 31.610475492953356 0 31.610475492953356 3.2843887607150464 0 0 0 0 0.39899350378734377 -0.52261623560037762 0 -0.52261623560037762 0.75749604657382896 0 0 0 0 -65.604670932338195 -17.869153240425476 0 -17.869153240425476 22.206889293127915 0 0 0 0 -3.5487082664876652 19.986738928482282 0 19.986738928482282 13.305977896048717 0 0 0 0 -17.96553920043516 33.976249354358515 0 33.976249354358515 48.066871791943413 0 0 0 0 -16.841777350040502 -44.616917140220721 0 -44.616917140220721 -40.993783881625404 0 0 0 0 -22.88724620667108 63.49969178764735 0 63.49969178764735 76.079551519062079 0 0 0 0 50.310541868368091 39.42162548332044 0 39.42162548332044 82.72227867829497 0 0 0 0 -60.001335252622084 -70.664736765620546 0 -70.664736765620546 172.27520623853161 0 0 0 0 90.376734896432026 -161.95025928859104 0 -161.95025928859104 -456.40739966038655 0 0 0 0 -27.878319176630612 13.60602665711076 0 13.60602665711076 121.15426878917305 0 0 0 0 -3.0513253504629105 -0.93626221942615118 0 -0.93626221942615118 -0.085489764599221418 0 0 0 0 15.655845008952383 -237.0639314929449 0 -237.0639314929449 -330.53431741938311 0 0 0 0 -22.031729719282339 -19.794075248032186 0 -19.794075248032186 -303.85100463400158 0 0 0 0 -45.976741416980076 -96.400018108604399 0 -96.400018108604399 3.5090525843479554 0 0 0 0 -15.374186113962878 -72.458137452038727 0 -72.458137452038727 -187.66880537781481 0 0 0 0 -9.6530766343119758 -1.8127425284445984 0 -1.8127425284445984 0.19028924848215389 0 0 0 0 -91.8594141613994 -36.135964971793328 0 -36.135964971793328 -76.40370158569624 0 0 0 0 -34.748638060173107 -25.281531111096683 0 -25.281531111096683 -96.743810483043035 0 0 0 0 -23.209700982262802 2.6489660243746584 0 2.6489660243746584 107.63507415892775 0 0 0 0 -40.231342378877343 -12.43690895025793 0 -12.43690895025793 82.005900501136239 0 0 0 0 -16.638262832657798 -1.6042671013730221 0 -1.6042671013730221 0.25810087554213212 0 0 0 0 -27.817551857970102 -26.337196196040168 0 -26.337196196040168 -89.078264953637699 0 0 0 0 -29.669533232741742 -40.680878011412005 0 -40.680878011412005 -66.684482612597094 0 0 0 0 -58.52165500405863 -32.648545999730004 0 -32.648545999730004 -66.568360024820322 0 0 0 0 -34.548778628465698 -15.004630192629293 0 -15.004630192629293 -70.767206559452461 0 0 0 0 -45.394717890076208 -50.016622672898848 0 -50.016622672898848 -43.651033562252906 0 0 0 0 1.7983409028511232 -59.854001330222673 0 -59.854001330222673 -95.510419029180412 0 0 0 0 -18.025705594805913 -74.250899922607005 0 -74.250899922607005 -35.503183870984458 0 0 0 0 16.665346537085497 -29.881468582525031 0 -29.881468582525031 -41.065705089015864 0 0 0 0 -2.2612859461460175 0.75429925207163251 0 0.75429925207163251 40.674219959882066 0 0 0 0 15.457863594960145 0.32378433104167925 0 0.32378433104167925 -22.609815020213318 0 0 0 0 2.4676633325417825 -2.2987240143369512 0 -2.2987240143369512 -1.8437027802381549 0 0 0 0 9.8162208420744719 -23.606876596427355 0 -23.606876596427355 16.003363814554177 0 0 0 0 -5.9677661752434688 -36.703879922828946 0 -36.703879922828946 99.752144486456018 0 0 0 0 17.685642609356364 -12.432006871316844 0 -12.432006871316844 111.63784045305692 0 0 0 0 72.568159671407557 -104.91113167203457 0 -104.91113167203457 105.83057747549174 0 0 0 0 0.73528841808520262 -0.82866088880618705 0 -0.82866088880618705 1.2325377096756611 0 0 0 0 152.28633094812994 -90.139303423068668 0 -90.139303423068668 53.105870470561513 0 0 0 0 102.45611367355332 -91.980282671962755 0 -91.980282671962755 85.769900481106561 0 0 0 0 102.62718260486145 -89.697657746893128 0 -89.697657746893128 61.140188941158158 0 0 0 0 84.646457845898112 -109.71432009036653 0 -109.71432009036653 80.605050459475024 0 0 0 0 68.917911149379506 -87.201083690010819 0 -87.201083690010819 65.908478885474324 0 0 0 0 125.25330919113185 -82.640421915260958 0 -82.640421915260958 58.110503133768361 0 0 0 0 123.88023563520255 -88.953941295738332 0 -88.953941295738332 61.697087756110705 0 0 0 0 57.085953196663468 -33.444752418441567 0 -33.444752418441567 -30.577447208055673 0 0 0 0 70.156173556111753 -90.310343790237766 0 -90.310343790237766 41.821889475289936 0 0 0 0 62.107462770323764 -74.777455900911264 0 -74.777455900911264 53.958588865578349 0 0 0 0 102.9491308198867 -98.198615617166979 0 -98.198615617166979 28.309708417689762 0 0 0 0 59.887863706275766 -47.432804037520782 0 -47.432804037520782 19.785085241699562 0 0 0 0 15.514742836443475 -35.904058238957077 0 -35.904058238957077 65.154234465927402 0 0 0 0 39.395629751299566 -1.323998611138677 0 -1.323998611138677 17.420881982161518 0 0 0 0 3.7225703627136681 6.3230435643874898 0 6.3230435643874898 3.4771904130320763 0 0 0 0 19.976509109679682 -28.546410303606535 0 -28.546410303606535 29.071065756952521 0 0 0 0 -30.118358566269308 39.76664284154549 0 39.76664284154549 -43.654093226248733 0 0 0 0 -72.132829152364138 -4.6293135870946571 0 -4.6293135870946571 28.039008464866129 0 0 0 0 -3.3877563826972619 -3.7055644755591857 0 -3.7055644755591857 5.6151369458766567 0 0 0 0 -0.83482641340241592 0.025321086630547995 0 0.025321086630547995 0.42760256187390056 0 0 0 0 -7.8954375463397355 16.734513412000126 0 16.734513412000126 3.4276659741626645 0 0 0 0 -6.4664456536193029 -3.0771752886439572 0 -3.0771752886439572 6.6272337163754855 0 0 0 0 -0.64531085088549478 -2.7902179227351596 0 -2.7902179227351596 5.1767548143513089 0 0 0 0 -41.680602580556297 -4.9251469000610086 0 -4.9251469000610086 25.541446844227266 0 0 0 0 -40.411457861093368 -10.145429943087038 0 -10.145429943087038 -1.5381436248371756 0 0 0 0 -1.138418841187459 -0.29003328523197425 0 -0.29003328523197425 1.8041504844763843 0 0 0 0 46.308162109136447 27.303394944200505 0 27.303394944200505 21.157947596415397 0 0 0 0 25.949188752369082 -65.723054651434722 0 -65.723054651434722 75.176008460330195 0 0 0 0 -46.254844483475608 12.75755062614553 0 12.75755062614553 -18.945144953650015 0 0 0 0 0.29604343558308344 -0.32315773653535373 0 -0.32315773653535373 -0.048321639293043006 0 0 0 0 -0.075494587207373787 -2.0492090641271332 0 -2.0492090641271332 7.0276252195102646 0 0 0 0 -68.453533137777413 20.53020492252881 0 20.53020492252881 22.668351985763366 0 0 0 0 -7.8087904983221961 -1.8682748476935558 0 -1.8682748476935558 4.009484907494425 0 0 0 0 -36.5725064093931 -8.7083234924893986 0 -8.7083234924893986 15.876642018116399 0 0 0 0 61.681368313784333 -60.158134031346208 0 -60.158134031346208 -12.381316576238532 0 0 0 0 47.954050568943785 2.6603870461676706 0 2.6603870461676706 -15.499552266555838 0 0 0 0 -14.697755124439936 49.046950499781815 0 49.046950499781815 -18.12399767846 0 0 0 0 18.294213970999408 -1.1465688878924993 0 -1.1465688878924993 -18.477731299739283 0 0 0 0 26.770551233764309 35.614953620454571 0 35.614953620454571 101.07098520597719 0 0 0 0 -0.10636818995111241 -0.8943422455125507 0 -0.8943422455125507 7.5177645647220324 0 0 0 0 -66.313633825662691 -29.365088688728974 0 -29.365088688728974 90.129613480432454 0 0 0 0 -20.55957337759537 -53.194759643885845 0 -53.194759643885845 65.615248045387489 0 0 0 0 18.317935988909994 1.3802599408827518 0 1.3802599408827518 107.0829919286989 0 0 0 0 21.911427536408155 -12.316302788615758 0 -12.316302788615758 157.22921331223552 0 0 0 0 -4.2466814707004232 -57.460146714183793 0 -57.460146714183793 160.37984096139189 0 0 0 0 54.38536698020107 -103.99530913281455 0 -103.99530913281455 184.77290682527382 0 0 0 0 41.953406642123809 -59.815907953017359 0 -59.815907953017359 102.80984260148398 0 0 0 0 -14.581819394254126 -34.789716285129543 0 -34.789716285129543 122.2809259097412 0 0 0 0 21.351668842835352 -41.131893619749462 0 -41.131893619749462 86.8049124866493 0 0 0 0 83.00219173583173 -82.818639926415926 0 -82.818639926415926 77.132527159019901 0 0 0 0 27.878638671878434 -36.190565048533244 0 -36.190565048533244 37.941873312958705 0 0 0 0 84.599477495388783 -80.085970785419249 0 -80.085970785419249 66.693287694299215 0 0 0 0 129.49894729079642 -80.347341516003326 0 -80.347341516003326 -4.2358732996544859 0 0 0 0 140.56394218833884 -63.570952412406768 0 -63.570952412406768 -4.540648029971635 0 0 0 0 85.525459360746027 -8.2541840037047223 0 -8.2541840037047223 -37.080978970314391 0 0 0 0 29.370719134307933 18.182406891727297 0 18.182406891727297 4.7466137283809076 0 0 0 0 256.18353352481972 -82.99766924129699 0 -82.99766924129699 -42.247830023316055 0 0 0 0 -104.68796493215163 79.06158825451287 0 79.06158825451287 -444.40015958675212 0 0 0 0 -106.82833301359278 -209.49012597127876 0 -209.49012597127876 -34.055153238814228 0 0 0 0 186.15697294145502 -34.000182441499419 0 -34.000182441499419 -31.290944558099 0 0 0 0 0.29144281898418534 -0.85714185018146338 0 -0.85714185018146338 2.1483372161162393 0 0 0 0 218.1544932833549 -142.25106416028439 0 -142.25106416028439 1.8769412125329836 0 0 0 0 110.42646591726225 -127.98268252161324 0 -127.98268252161324 37.848557791345229 0 0 0 0 186.37857947456359 -102.10124252818923 0 -102.10124252818923 -9.6502504194286303 0 0 0 0 142.91474417346035 -98.683214468814185 0 -98.683214468814185 -5.7789657878138314 0 0 0 0 164.34436972324329 -97.397962043856751 0 -97.397962043856751 -13.953125669830115 0 0 0 0 141.75109824901665 -85.748093268152843 0 -85.748093268152843 -10.11177767393383 0 0 0 0 108.90423589136481 -59.750628793174656 0 -59.750628793174656 -11.891932299102336 0 0 0 0 130.6536036921425 -97.36122644893112 0 -97.36122644893112 -5.6575558788435956 0 0 0 0 143.02217469362438 -93.099542158738402 0 -93.099542158738402 -10.748622036328015 0 0 0 0 81.38916862075348 -85.845707767733984 0 -85.845707767733984 11.948226400651947 0 0 0 0 83.892567681738001 -81.34129521714658 0 -81.34129521714658 18.96005936466554 0 0 0 0 5.9280150530812534 -41.388284487125929 0 -41.388284487125929 16.276144891338845 0 0 0 0 46.912054802432976 -39.331884727434954 0 -39.331884727434954 7.177487572271275 0 0 0 0 106.62290962153202 -58.036845846098458 0 -58.036845846098458 6.7030635068658739 0 0 0 0 168.62298608463607 -60.419427387111682 0 -60.419427387111682 -13.760563352158513 0 0 0 0 118.72420469375356 -24.51779729235659 0 -24.51779729235659 -14.354074223099815 0 0 0 0 141.12125971674686 -79.452167390141767 0 -79.452167390141767 -0.085272672369683278 0 0 0 0 157.72872952631576 -74.303194382250126 0 -74.303194382250126 -1.0914593218585651 0 0 0 0 157.49582664419722 -106.32286685044892 0 -106.32286685044892 16.624610784350807 0 0 0 0 192.56101749010122 -124.61268197421668 0 -124.61268197421668 47.042698276847659 0 0 0 0 151.34907045828004 -123.10040394027601 0 -123.10040394027601 89.105062107078993 0 0 0 0 145.07641335082735 -107.05098372301291 0 -107.05098372301291 175.57619120111485 0 0 0 0 81.208086663653376 6.5357231740326824 0 6.5357231740326824 120.29713544304832 0 0 0 0 166.40176284300105 48.442184876515967 0 48.442184876515967 134.81636380698637 0 0 0 0 190.58926501446695 -62.799630842207989 0 -62.799630842207989 69.623959828088118 0 0 0 0 124.17404725583765 -109.77358007306611 0 -109.77358007306611 79.654256140036978 0 0 0 0 1.7036224470247561 0.08329501570641451 0 0.08329501570641451 0.27209354202029745 0 0 0 0 59.554809479052892 -10.447709852124717 0 -10.447709852124717 -32.502765965364688 0 0 0 0 -1.9851259408769693 0.49625873557397426 0 0.49625873557397426 -4.7202761531175383 0 0 0 0 99.811602549856616 -104.83160849284923 0 -104.83160849284923 90.67236163484813 0 0 0 0 -29.047591032958735 -7.5306036981901343 0 -7.5306036981901343 8.0605317597355395 0 0 0 0 50.181981126914934 -4.9235189120371956 0 -4.9235189120371956 -12.365475814842284 0 0 0 0 -9.8142556788689035 -19.854078487135212 0 -19.854078487135212 16.560050117319861 0 0 0 0 -27.446756015911888 9.9896754473043075 0 9.9896754473043075 7.8900573216082215 0 0 0 0 20.213229765508004 -22.622977128065827 0 -22.622977128065827 0.92453857392592909 0 0 0 0 -1.4767487559138317 -1.9295069346351283 0 -1.9295069346351283 2.446832229310985 0 0 0 0 0.065627343212790734 -0.68426458525267719 0 -0.68426458525267719 -0.22124755051417289 0 0 0 0 -26.867413340812163 9.9549870754344738 0 9.9549870754344738 -6.779063682179185 0 0 0 0 -3.2890536959894234 -4.0947870932802743 0 -4.0947870932802743 8.5866475180173438 0 0 0 0 -1.1800732995494343 -1.563452958308428 0 -1.563452958308428 -1.0930056294148685 0 0 0 0 2.030762312013394 -2.1861130873830916 0 -2.1861130873830916 -1.6181639976257429 0 0 0 0 0.89152861498286029 -1.1315008162665254 0 -1.1315008162665254 -1.5062219508268022 0 0 0 0 1.6346505311326656 -2.6210513919176179 0 -2.6210513919176179 -1.3882642732509822 0 0 0 0 -28.08212310880117 -6.6523529939349828 0 -6.6523529939349828 3.1247071534512543 0 0 0 0 -13.304996929546178 -15.390564362357509 0 -15.390564362357509 -11.909767903637658 0 0 0 0 -14.558589821115675 -19.935678147621957 0 -19.935678147621957 -21.656007001963417 0 0 0 0 -7.7937788882991299 5.0988396119200843 0 5.0988396119200843 -3.3597155240372558 0 0 0 0 5.4728389181100283 -6.7771510233556 0 -6.7771510233556 -35.261575341879052 0 0 0 0 -93.079063074315854 27.592298106720591 0 27.592298106720591 -1.5545392628497154 0 0 0 0 -0.85607167116760152 -0.50718216108367997 0 -0.50718216108367997 -0.074849552512453954 0 0 0 0 -11.350425036197521 -32.756971514177195 0 -32.756971514177195 -40.742354039177371 0 0 0 0 -53.598365035577444 -35.000121726473935 0 -35.000121726473935 -17.248414366622455 0 0 0 0 -39.696275761757988 -1.8937515076208342 0 -1.8937515076208342 -18.803127303202018 0 0 0 0 59.785285227801069 2.5452800302828109 0 2.5452800302828109 -63.605815797871173 0 0 0 0 30.939178329059359 -85.237405298054 0 -85.237405298054 -40.044809518836701 0 0 0 0 -34.739588783171712 -83.298241610957348 0 -83.298241610957348 8.0400930468949809 0 0 0 0 9.6232416814109456 -42.199298107322193 0 -42.199298107322193 26.795559254904219 0 0 0 0 92.023719011993308 -56.367440898794939 0 -56.367440898794939 -30.313131479700132 0 0 0 0 165.39007110336752 -148.40818559117452 0 -148.40818559117452 40.947568181172755 0 0 0 0 85.403109753660829 -66.634310737454143 0 -66.634310737454143 78.05312385628622 0 0 0 0 -240.31995858902337 23.10400110321234 0 23.10400110321234 330.86718671714243 0 0 0 0 81.214471256029356 -165.91203757120081 0 -165.91203757120081 189.72070775794418 0 0 0 0 162.85456055088071 -74.392303054621379 0 -74.392303054621379 -9.8605829463422197 0 0 0 0 49.355559952811745 -54.103445985463168 0 -54.103445985463168 17.317640946585243 0 0 0 0 82.773531994998848 -45.415733405325227 0 -45.415733405325227 -28.690999686677969 0 0 0 0 37.730379689071924 -31.384416955555935 0 -31.384416955555935 -24.703328887008865 0 0 0 0 38.684881943048822 -34.121613561339018 0 -34.121613561339018 -35.102808673897016 0 0 0 0 1.5540265869412906 -35.819189024155321 0 -35.819189024155321 -34.947715275599421 0 0 0 0 35.193343543891388 -54.048946841896623 0 -54.048946841896623 -57.00750691074154 0 0 0 0 -28.329242949199397 -43.560860339680403 0 -43.560860339680403 -28.038605588508972 0 0 0 0 4.3084805748435429 -28.467477982745436 0 -28.467477982745436 -23.988545557012458 0 0 0 0 -29.558016767338813 -27.783511175602598 0 -27.783511175602598 -22.306895126837844 0 0 0 0 15.666888959203789 -1.5759091989671106 0 -1.5759091989671106 -23.219921990588318 0 0 0 0 -23.499232523616229 -18.765873587201213 0 -18.765873587201213 -11.454566396697373 0 0 0 0 -32.681514165918998 -26.320939299896509 0 -26.320939299896509 -14.419202797389858 0 0 0 0 -49.302688172063881 -19.650502609753062 0 -19.650502609753062 -11.262608193446795 0 0 0 0 -9.2978195573668927 -23.721595988935633 0 -23.721595988935633 -9.004334177835517 0 0 0 0 -15.684718347310991 -10.017558150791047 0 -10.017558150791047 -38.408332183980896 0 0 0 0 -20.646759084100268 -22.690085144746035 0 -22.690085144746035 -18.29252501110318 0 0 0 0 -0.17469927083948278 -53.945851637962051 0 -53.945851637962051 -27.736438245889531 0 0 0 0 -30.480285202893015 -47.879060605978168 0 -47.879060605978168 -10.912480735537429 0 0 0 0 -0.96141483386600157 -24.654716982433456 0 -24.654716982433456 3.7803175374588136 0 0 0 0 -28.325551315139251 -21.305513267391646 0 -21.305513267391646 5.583847398225771 0 0 0 0 -37.802699036241393 -30.117714244490344 0 -30.117714244490344 -37.207226198561443 0 0 0 0 -56.801398698356934 -61.084083168712823 0 -61.084083168712823 -31.561307984790574 0 0 0 0 1.0944975236170951 -0.04247791157225933 0 -0.04247791157225933 -0.13892794448928214 0 0 0 0 -114.52935141831404 -85.022728557984919 0 -85.022728557984919 -72.503991217822204 0 0 0 0 -47.825761953074107 -54.826559168128369 0 -54.826559168128369 -29.846956051345842 0 0 0 0 -44.488271821290255 -42.303710873749878 0 -42.303710873749878 -68.089685826382038 0 0 0 0 -62.720718797023437 -38.88623250951423 0 -38.88623250951423 -5.2695867565598746 0 0 0 0 -54.831146512782652 -35.408113773700734 0 -35.408113773700734 -27.288903000093342 0 0 0 0 -47.507882303174483 -30.322777209276865 0 -30.322777209276865 29.522597807585953 0 0 0 0 -34.126295674555877 -10.628047556132969 0 -10.628047556132969 8.9800835407711475 0 0 0 0 -30.558427806992313 -41.856169642405916 0 -41.856169642405916 -7.0835771803067473 0 0 0 0 -35.198152696179022 -28.859913858631216 0 -28.859913858631216 43.480268623636675 0 0 0 0 -0.69953289085060533 -3.1051246989595711 0 -3.1051246989595711 42.492940604208798 0 0 0 0 2.174135196813495 3.6930387300296843 0 3.6930387300296843 112.44207515746893 0 0 0 0 -0.65314788923751621 -14.888489820838458 0 -14.888489820838458 61.67160035077768 0 0 0 0 -9.4289543567738292 -24.194336541660505 0 -24.194336541660505 65.630110205801657 0 0 0 0 9.4973661192270811 -50.513506227360722 0 -50.513506227360722 79.300625619205221 0 0 0 0 7.7740516098565422 -59.048640519754144 0 -59.048640519754144 47.949341233677842 0 0 0 0 52.847340515563701 -79.796885776111139 0 -79.796885776111139 29.698722603038732 0 0 0 0 28.09576580119392 -41.82946913738374 0 -41.82946913738374 -10.050069907084435 0 0 0 0 22.69913981749778 -54.564267627121353 0 -54.564267627121353 6.0455962467700601 0 0 0 0 11.671078351359029 -27.211339056248107 0 -27.211339056248107 13.236690641957466 0 0 0 0 33.684864922321538 -55.099576291818835 0 -55.099576291818835 -40.559282731633175 0 0 0 0 5.5854432326905226 -29.79153488053862 0 -29.79153488053862 -25.475960696885522 0 0 0 0 52.649624782247884 -56.773532948866318 0 -56.773532948866318 -33.48822480837589 0 0 0 0 34.254793646758117 -42.157385422072821 0 -42.157385422072821 -42.396976310505352 0 0 0 0 38.391067303203272 -47.528074753864303 0 -47.528074753864303 -49.18192593169897 0 0 0 0 48.018462746837031 -39.966390379253653 0 -39.966390379253653 -54.444431577249702 0 0 0 0 23.405110982492261 -35.898307182798817 0 -35.898307182798817 -35.022321054865643 0 0 0 0 -8.4210445989920117 -40.010482135960046 0 -40.010482135960046 -35.502184576429727 0 0 0 0 -11.876402866149874 -17.528989801077387 0 -17.528989801077387 9.7116431377446588 0 0 0 0 -6.5974471252593503 -4.0164949988734406 0 -4.0164949988734406 16.276553307383438 0 0 0 0 0.13197306545257348 -0.030720565847655479 0 -0.030720565847655479 -0.2590450138375946 0 0 0 0 -28.927520620955875 -71.794371419480171 0 -71.794371419480171 -34.548085499949593 0 0 0 0 -30.671224505312239 -62.166900850332468 0 -62.166900850332468 -81.121855385802519 0 0 0 0 -72.781989147089917 -56.16015760463506 0 -56.16015760463506 -35.427413746245293 0 0 0 0 -20.86296458036577 -57.900315644297166 0 -57.900315644297166 -46.181114330107448 0 0 0 0 -31.03462246089839 -28.855390835336038 0 -28.855390835336038 -47.882495644056689 0 0 0 0 -2.3525808957601839 -10.296560490887714 0 -10.296560490887714 -6.4251718570412777 0 0 0 0 3.9873690594968139 -9.749981628720775 0 -9.749981628720775 -5.134063660276297 0 0 0 0 4.7239450795453486 -6.6030674592840288 0 -6.6030674592840288 -2.9102191707969123 0 0 0 0 -49.546489281015965 -54.334131547034303 0 -54.334131547034303 -64.138801836621496 0 0 0 0 -64.243442078903172 -84.688782411783905 0 -84.688782411783905 -57.040392123465494 0 0 0 0 -1.7271584003669957 -0.71932574650838177 0 -0.71932574650838177 -0.048990720337366511 0 0 0 0 -41.739861465430295 -11.720472248798615 0 -11.720472248798615 -0.042322845373291784 0 0 0 0 -13.560083116281021 2.6850543885484512 0 2.6850543885484512 3.4699144544965748 0 0 0 0 -3.4925885425382148 -6.0134040243016216 0 -6.0134040243016216 -3.4387861962022725 0 0 0 0 -14.280815516447547 -16.257790085674287 0 -16.257790085674287 5.7401699185020334 0 0 0 0 -0.44523275973824639 -8.9101506240637036 0 -8.9101506240637036 -2.920610567208314 0 0 0 0 2.6032448142378684 0.89944394812565776 0 0.89944394812565776 -0.69211453758194352 0 0 0 0 -4.7659971582452272 -11.528940288332706 0 -11.528940288332706 -12.644972704260454 0 0 0 0 5.9746115618335347 -4.2462743130952223 0 -4.2462743130952223 -2.9464869671307419 0 0 0 0 45.431652584261201 -10.599178073042367 0 -10.599178073042367 -21.018474187786978 0 0 0 0 48.271423974313166 -2.4519746089381442 0 -2.4519746089381442 -10.07640517616619 0 0 0 0 2.9338473773628788 -9.7456862984101225 0 -9.7456862984101225 -3.9847013284197512 0 0 0 0 23.424604138648874 -12.496295981432013 0 -12.496295981432013 -10.818815566280136 0 0 0 0 22.125666678399739 -23.207427188845941 0 -23.207427188845941 -29.963289222385356 0 0 0 0 11.494039330083297 -20.256820748117207 0 -20.256820748117207 -20.069010109875308 0 0 0 0 31.461113885659643 -6.3361331291380338 0 -6.3361331291380338 -26.53587934999814 0 0 0 0 45.864728070685032 12.472486003571248 0 12.472486003571248 -5.7619155202102661 0 0 0 0 29.100298705704745 -10.176219819100425 0 -10.176219819100425 -6.8820467009754793 0 0 0 0 -58.588614350101693 -95.736745579108174 0 -95.736745579108174 -99.063416802992833 0 0 0 0 -67.157908450890545 -4.5333630016416464 0 -4.5333630016416464 -98.77846522139771 0 0 0 0 -54.477303693947761 -74.367431151826167 0 -74.367431151826167 -67.056581783972433 0 0 0 0 -90.33543985391384 -69.977572066342873 0 -69.977572066342873 0.017070947336833342 0 0 0 0 -44.248808931606845 -46.316585283903351 0 -46.316585283903351 -31.750656974923913 0 0 0 0 0.82156784145104211 -36.361094579017845 0 -36.361094579017845 -57.275204265729371 0 0 0 0 -7.2943348777150732 -38.644774929437972 0 -38.644774929437972 -36.434768552123387 0 0 0 0 -35.65670099673639 -52.821035675483927 0 -52.821035675483927 -37.545861296408475 0 0 0 0 -9.946206488626558 -36.639378244903128 0 -36.639378244903128 -28.721085772921469 0 0 0 0 -2.6456151947411399 -23.210381513086304 0 -23.210381513086304 -25.772849470601614 0 0 0 0 15.062791839276997 -23.43975222561312 0 -23.43975222561312 -36.233360240666116 0 0 0 0 20.235982385034447 -24.991841356826626 0 -24.991841356826626 -32.78567703940098 0 0 0 0 13.896562027356595 -8.2949228983743524 0 -8.2949228983743524 -19.134068253128135 0 0 0 0 17.855905172697845 -30.532799801203396 0 -30.532799801203396 -36.533203502451215 0 0 0 0 -21.092880286381842 -22.54066586227782 0 -22.54066586227782 -34.195136204298251 0 0 0 0 -34.324535936260105 -51.607086650915107 0 -51.607086650915107 -31.618683226863141 0 0 0 0 -7.5254564181050227 -38.03849913379554 0 -38.03849913379554 -25.295498876529564 0 0 0 0 -4.6664278694521499 -40.860169683498043 0 -40.860169683498043 -28.745867851180947 0 0 0 0 -14.235996741424913 -132.60218923805951 0 -132.60218923805951 52.54888776478947 0 0 0 0 -38.570640877316464 -89.770693654865681 0 -89.770693654865681 -19.459912664482545 0 0 0 0 82.248510496245615 -49.248404184666242 0 -49.248404184666242 -53.0490224068526 0 0 0 0 48.425532645182074 -71.717221231681719 0 -71.717221231681719 -66.287966600824802 0 0 0 0 15.339508911602934 -92.177201913317731 0 -92.177201913317731 -31.319124133175592 0 0 0 0 39.125483649795399 -40.76318188424591 0 -40.76318188424591 -34.752905229446696 0 0 0 0 35.184123176614321 -8.0295883465405495 0 -8.0295883465405495 -26.396103737336944 0 0 0 0 35.515984011369994 4.4783321225644386 0 4.4783321225644386 -0.48850195606883062 0 0 0 0 54.112702822790538 -29.511373167359579 0 -29.511373167359579 -33.871542258323416 0 0 0 0 121.26568307346338 58.06000569486423 0 58.06000569486423 17.736218505002284 0 0 0 0 72.855755099311494 36.029116518253659 0 36.029116518253659 15.43057244909869 0 0 0 0 39.517553930769282 9.3575983515399912 0 9.3575983515399912 -5.8791664390457754 0 0 0 0 59.918032544269977 -25.954789047784288 0 -25.954789047784288 -29.127811022946389 0 0 0 0 100.60644171970853 -29.315740474959966 0 -29.315740474959966 -37.33706090499436 0 0 0 0 102.91296561010961 0.59307093716279269 0 0.59307093716279269 -10.160562629217111 0 0 0 0 10.874954188420901 -7.6876462951366413 0 -7.6876462951366413 -3.2665161818167334 0 0 0 0 -24.303080710410541 -51.353911909541807 0 -51.353911909541807 -61.092895426945688 0 0 0 0 5.8048443113477468 -7.0757506530080061 0 -7.0757506530080061 -1.8996712508335296 0 0 0 0 -2.549358737491275 -11.56858895589744 0 -11.56858895589744 -4.4377397523999207 0 0 0 0 -46.794589182278287 -64.221910068123634 0 -64.221910068123634 -28.873922558317645 0 0 0 0 57.649110398157404 10.333115435047148 0 10.333115435047148 -8.0865666970803431 0 0 0 0 27.304614859155663 3.408349051235291 0 3.408349051235291 1.9252574215406639 0 0 0 0 45.627503622399672 -1.0595706788944881 0 -1.0595706788944881 0.97642960424309422 0 0 0 0 43.227740381677222 21.475760079691099 0 21.475760079691099 15.004761209854905 0 0 0 0 -37.018273353159202 -29.189687210288298 0 -29.189687210288298 14.95761881983799 0 0 0 0 7.4927074116562196 -9.4081231731272297 0 -9.4081231731272297 -1.911612191993072 0 0 0 0 3.4746507335977341 -6.6394285573021632 0 -6.6394285573021632 0.34063821823776941 0 0 0 0 -3.1588772098975824 -10.85774827435398 0 -10.85774827435398 -6.8451101927571472 0 0 0 0 -14.147865659964737 -8.0500188975120182 0 -8.0500188975120182 19.4465205779793 0 0 0 0 -26.50393211491064 -35.823480728523009 0 -35.823480728523009 -29.408499847027848 0 0 0 0 -23.533261267834906 -2.950201085450443 0 -2.950201085450443 0.9239585780981594 0 0 0 0 -32.469272168809312 -34.818199743895889 0 -34.818199743895889 20.983053935610769 0 0 0 0 -17.378148200901705 -19.534994183363779 0 -19.534994183363779 -45.118338929162746 0 0 0 0 -20.405135705751036 -10.81108112848267 0 -10.81108112848267 -57.119340844109047 0 0 0 0 -12.498117055453349 -34.819307056583284 0 -34.819307056583284 -54.713198254615236 0 0 0 0 -15.400753777154478 -28.708494271313157 0 -28.708494271313157 -38.511527017490153 0 0 0 0 55.949546812284098 -80.721321390211415 0 -80.721321390211415 -20.747531493113797 0 0 0 0 -33.599056661802024 -64.365686973287211 0 -64.365686973287211 -9.6037161730455409 0 0 0 0 -2.5544200169388205 -51.554196715681428 0 -51.554196715681428 -20.665760652181234 0 0 0 0 -44.893814540447238 -34.515050383216931 0 -34.515050383216931 -36.774490871039916 0 0 0 0 19.577612790527382 -26.039901857089717 0 -26.039901857089717 -8.0651054050431412 0 0 0 0 -5.7577021505390746 -0.84279978991134197 0 -0.84279978991134197 0.17725371730709583 0 0 0 0 1.2880121500320456 -43.506847865355667 0 -43.506847865355667 -35.063643770135968 0 0 0 0 -3.6747128262938986 -11.393782703762668 0 -11.393782703762668 -4.5703698504148633 0 0 0 0 5.4165597413513167 -2.1153391569670905 0 -2.1153391569670905 -1.2531385306082399 0 0 0 0 34.120852829973273 27.528304569904321 0 27.528304569904321 53.124313654032449 0 0 0 0 -8.168970772197099 -21.830808601755962 0 -21.830808601755962 21.249276975887597 0 0 0 0 -4.245599446824837 -6.1128220477467439 0 -6.1128220477467439 0.034641806288763677 0 0 0 0 25.789534602152344 -57.72752626113288 0 -57.72752626113288 142.34127031982644 0 0 0 0 11.37022450808854 -5.6649399415719017 0 -5.6649399415719017 28.021614832703563 0 0 0 0 -17.561177941265669 -20.879699291912402 0 -20.879699291912402 22.414263417667826 0 0 0 0 130.81788454935531 -20.92632497977138 0 -20.92632497977138 5.3494194190525377 0 0 0 0 362.78923122436504 -3.9798639141299645 0 -3.9798639141299645 2.3854130446748059 0 0 0 0 180.37361354131235 143.23948884658193 0 143.23948884658193 95.550536853255835 0 0 0 0 157.93340914425698 -188.05699628140246 0 -188.05699628140246 269.58540933088534 0 0 0 0 1.2612944600734894 -1.5151225943857938 0 -1.5151225943857938 -0.79152157576240456 0 0 0 0 463.25419406366359 -108.20027015034839 0 -108.20027015034839 -13.805324263747025 0 0 0 0 122.60328508381269 -116.20923840486421 0 -116.20923840486421 200.21638035743854 0 0 0 0 116.15381135337884 106.46132680779374 0 106.46132680779374 234.09346608252474 0 0 0 0 72.322012210830167 7.0309088692995374 0 7.0309088692995374 35.530936818822738 0 0 0 0 -50.60475753410784 85.743471657969167 0 85.743471657969167 39.543298170974595 0 0 0 0 282.89124515056665 -48.287135304230105 0 -48.287135304230105 -33.631245060470974 0 0 0 0 67.235767032004787 -153.01650691499844 0 -153.01650691499844 -74.23031186367507 0 0 0 0 -0.70013400596028319 -0.87179447516904496 0 -0.87179447516904496 0.50717758070677599 0 0 0 0 172.89954302767285 -123.42624227035503 0 -123.42624227035503 -194.87788112889643 0 0 0 0 -8.9723558692121514 -2.2880700421346774 0 -2.2880700421346774 -70.601026455889951 0 0 0 0 -32.100014288116654 -57.518076127394124 0 -57.518076127394124 -26.853259348723441 0 0 0 0 44.329079737389293 -52.811965894499735 0 -52.811965894499735 -57.554111471767101 0 0 0 0 74.007798945786817 -121.95572473621269 0 -121.95572473621269 35.823706014540392 0 0 0 0 92.84128898570998 -167.0849085862128 0 -167.0849085862128 105.93881698011 0 0 0 0 20.990939781947191 -1.9827322102312337 0 -1.9827322102312337 -18.379486518137355 0 0 0 0 74.827769365017843 12.410571853561962 0 12.410571853561962 -15.768737001884119 0 0 0 0 64.659190164185929 -28.155544928696713 0 -28.155544928696713 -32.694672570440616 0 0 0 0 -7.0678206003231026 -13.613166865355367 0 -13.613166865355367 -21.765478583546042 0 0 0 0 -3.7716990258763019 -16.957559556634493 0 -16.957559556634493 -0.66181346874600422 0 0 0 0 -1.4011871719107383 -10.37772825282261 0 -10.37772825282261 -2.9638581501194006 0 0 0 0 28.12719891705774 -13.222200483488393 0 -13.222200483488393 -34.410958350833226 0 0 0 0 14.262803367313609 -19.681301079568129 0 -19.681301079568129 -34.047078314983992 0 0 0 0 9.9504150299272851 -39.561894305834215 0 -39.561894305834215 -18.166417051741519 0 0 0 0 -5.9877961083075206 -30.767181998310662 0 -30.767181998310662 3.2531100058065476 0 0 0 0 -18.318892501826895 -47.902114540185536 0 -47.902114540185536 25.916421794293512 0 0 0 0 -3.276340853625797 -10.76681148465026 0 -10.76681148465026 -4.0392556685513972 0 0 0 0 -26.732690137961072 -49.551901005127206 0 -49.551901005127206 -3.8902476941671011 0 0 0 0 -0.55307923191867303 -52.756901177703867 0 -52.756901177703867 -33.997001795740061 0 0 0 0 4.2998604869762858 -43.519035863020008 0 -43.519035863020008 -17.141292118707042 0 0 0 0 17.313127570168035 -47.464997435940631 0 -47.464997435940631 -30.985268238024219 0 0 0 0 18.287930382250124 -54.592222521665008 0 -54.592222521665008 -26.915820401231713 0 0 0 0 -8.6389351035833783 3.0251233453045643 0 3.0251233453045643 0.58424722057134204 0 0 0 0 -2.438377337224626 -2.7265451373858642 0 -2.7265451373858642 -3.1313055604413309 0 0 0 0 -5.0560071374172821 -2.2382394582255074 0 -2.2382394582255074 8.315803622974272 0 0 0 0 5.0160144721448887 -19.236066669403044 0 -19.236066669403044 12.33956232391597 0 0 0 0 -20.327490008605309 -7.6474863618677773 0 -7.6474863618677773 13.416122171100938 0 0 0 0 -22.391969418704775 -26.105277735849086 0 -26.105277735849086 32.157990254673223 0 0 0 0 -5.686807493196854 -6.4039981284460756 0 -6.4039981284460756 -4.6387528004779313 0 0 0 0 -8.9248728605675751 -34.02245927246986 0 -34.02245927246986 26.46847865445261 0 0 0 0 0.34296228816086405 -2.165716541155069 0 -2.165716541155069 -1.6614314368374066 0 0 0 0 88.723335357603901 -71.347498182227355 0 -71.347498182227355 33.260005921911215 0 0 0 0 84.660587845275131 3.990485548325978 0 3.990485548325978 -8.1389456546930887 0 0 0 0 -7.6559560019792343 -5.432923887371544 0 -5.432923887371544 16.349478677955631 0 0 0 0 -4.9262846679140306 -4.2162180724395402 0 -4.2162180724395402 3.8460751589583779 0 0 0 0 -1.0143620651826311 -7.1275460125364845 0 -7.1275460125364845 -4.4581690471544899 0 0 0 0 -1.4469951329556352 -3.430363288945955 0 -3.430363288945955 3.7806145828362787 0 0 0 0 -3.9091165182085916 -5.9455412053223267 0 -5.9455412053223267 -1.7302470629879294 0 0 0 0 106.59686149814479 -181.08967851692205 0 -181.08967851692205 402.93087430826199 0 0 0 0 116.29307912412514 -127.4689407538126 0 -127.4689407538126 477.28197510362588 0 0 0 0 93.430029633274899 -112.2149285263049 0 -112.2149285263049 506.04514381529589 0 0 0 0 12.72072126366038 4.788731984255719 0 4.788731984255719 11.329763005171117 0 0 0 0 141.49108886449494 -253.84359666821638 0 -253.84359666821638 512.77449991340109 0 0 0 0 58.787923164363747 -148.73189408166036 0 -148.73189408166036 589.57289050828695 0 0 0 0 1.3695881760811801 -1.7502201428208934 0 -1.7502201428208934 -0.21856856347011799 0 0 0 0 83.226882957878843 -169.35661303685083 0 -169.35661303685083 515.65127861798919 0 0 0 0 132.53940609155234 -191.56770522637999 0 -191.56770522637999 368.29835051895861 0 0 0 0 70.695792360984342 -144.970389561312 0 -144.970389561312 355.10720870224759 0 0 0 0 50.39043865336248 -221.50268418841711 0 -221.50268418841711 354.40109706696239 0 0 0 0 86.804840933979904 -178.34946616445268 0 -178.34946616445268 391.10536397334363 0 0 0 0 94.558600437327186 -189.37146067141111 0 -189.37146067141111 400.75431838368968 0 0 0 0 29.307547549673473 -219.78322748497794 0 -219.78322748497794 362.26407744858079 0 0 0 0 -34.264959441557039 10.525080202978643 0 10.525080202978643 15.216614276843757 0 0 0 0 -0.74402229545307641 -1.0096544333279667 0 -1.0096544333279667 1.5529863792100471 0 0 0 0 59.036476114213656 -227.2426752056781 0 -227.2426752056781 363.8823937862071 0 0 0 0 -17.872679564226019 -4.7956065101634522 0 -4.7956065101634522 7.9728665658212776 0 0 0 0 -2.3157181121473771 -5.8952607986163734 0 -5.8952607986163734 -3.0487240827729511 0 0 0 0 10.03386777655669 -5.7243014274054076 0 -5.7243014274054076 -9.2483568578177255 0 0 0 0 61.81497838003088 -234.11429585282121 0 -234.11429585282121 368.58192661078283 0 0 0 0 -83.456002701135731 -18.636825433067315 0 -18.636825433067315 61.344648668709851 0 0 0 0 -0.0038964986258719914 -5.0151644184591309 0 -5.0151644184591309 -7.7923827559588972 0 0 0 0 66.653552755363762 -89.408212017390724 0 -89.408212017390724 20.192431179422783 0 0 0 0 27.199897319774209 -21.570635956648402 0 -21.570635956648402 14.151988055324182 0 0 0 0 0.61281498336850737 -9.8283899897190317 0 -9.8283899897190317 -5.375728059640994 0 0 0 0 0.14775800704614994 -1.3485056575400449 0 -1.3485056575400449 -11.271398935163603 0 0 0 0 -1.6940579627316765 -8.8498742726569617 0 -8.8498742726569617 -4.4769439760170826 0 0 0 0 -2.1469565213835544 0.037681281845110437 0 0.037681281845110437 -1.3495038496657714 0 0 0 0 -5.554211632959948 31.071697339266848 0 31.071697339266848 -114.13745713381491 0 0 0 0 0.25417989276544972 1.5899569779429754 0 1.5899569779429754 -30.349276103563284 0 0 0 0 -5.6731963869124229 -4.317661678731838 0 -4.317661678731838 -19.313802727983784 0 0 0 0 -1.0713236112983395 -4.5147064209813834 0 -4.5147064209813834 -9.6852443633692928 0 0 0 0 -1.1039887140629898 -3.5949985145948791 0 -3.5949985145948791 -10.935389973642266 0 0 0 0 2.8662422399150387 1.6690698979941772 0 1.6690698979941772 -3.1554501727007391 0 0 0 0 -47.821341299581462 64.559554915982517 0 64.559554915982517 17.555579569711881 0 0 0 0 -44.733244671561096 35.618919611747515 0 35.618919611747515 -37.245551634673575 0 0 0 0 -0.50741924828050533 0.50809187626696728 0 0.50809187626696728 -3.739626963218651 0 0 0 0 -2.5962653495776919 77.15026057574778 0 77.15026057574778 -82.365576038973359 0 0 0 0 -44.383496600442768 2.0074623189020713 0 2.0074623189020713 123.28966798857618 0 0 0 0 -41.763816720250787 8.6904373486036093 0 8.6904373486036093 6.2704394527822274 0 0 0 0 78.158425197999648 -14.68793997608941 0 -14.68793997608941 -0.84205703867792181 0 0 0 0 0.085979701567733158 0.36833959992162546 0 0.36833959992162546 -1.3835133434776488 0 0 0 0 -109.40120428142211 46.192124688163631 0 46.192124688163631 -8.9320064230914795 0 0 0 0 -48.401954219785864 -61.81497755910118 0 -61.81497755910118 -64.059662595746886 0 0 0 0 -42.756750685511179 -2.0635918056395894 0 -2.0635918056395894 0.9319190127089314 0 0 0 0 -14.895747661175392 -56.291918948472812 0 -56.291918948472812 -122.59441538343663 0 0 0 0 -5.2089194980543425 9.8250457086815004 0 9.8250457086815004 -9.3839839618931364 0 0 0 0 -24.812379624636833 7.7338891093886559 0 7.7338891093886559 5.3947069102887326 0 0 0 0 -20.224760329462924 -13.479675989134194 0 -13.479675989134194 3.2737890838770909 0 0 0 0 -16.989970479495696 0.39548380707719843 0 0.39548380707719843 -12.774507979671398 0 0 0 0 -10.547317900389544 -23.42973035420664 0 -23.42973035420664 -59.728032097482355 0 0 0 0 -14.753044316771707 -23.487389881572881 0 -23.487389881572881 -74.162240450075842 0 0 0 0 -12.573711769753118 -15.04171609775949 0 -15.04171609775949 -81.387026283996875 0 0 0 0 -5.8794709070175486 -30.63972310774443 0 -30.63972310774443 -145.6766433901621 0 0 0 0 -7.8431722124591943 -65.306771782685246 0 -65.306771782685246 -177.16658275385441 0 0 0 0 -15.32474320612755 -54.624063056657178 0 -54.624063056657178 -140.02717888573989 0 0 0 0 14.846384517137267 -116.25040840185466 0 -116.25040840185466 -270.07551390724257 0 0 0 0 2.1339457795996699 -1.3090918760367325 0 -1.3090918760367325 0.14575581027115447 0 0 0 0 -17.930000852131116 -61.578818855374266 0 -61.578818855374266 -154.8196864124337 0 0 0 0 -1.8944979059186835 -44.858581276163477 0 -44.858581276163477 -155.36631767407289 0 0 0 0 -22.592512049452239 -57.025723558013397 0 -57.025723558013397 -112.72077180751603 0 0 0 0 -9.8257622436487679 -46.166856659591872 0 -46.166856659591872 -152.6251646847586 0 0 0 0 -68.134706090163718 -13.952461608822887 0 -13.952461608822887 -152.84371280209598 0 0 0 0 2.0491587711816415 -1.8145109488533784 0 -1.8145109488533784 0.8144854514528177 0 0 0 0 -19.152201907767449 -201.30726569737226 0 -201.30726569737226 -171.01152096930582 0 0 0 0 -79.777416148798693 -41.422396003387348 0 -41.422396003387348 -105.00700469868707 0 0 0 0 -99.455849545684259 -56.276409928602789 0 -56.276409928602789 -55.01753013335383 0 0 0 0 34.70999984344428 -87.979341217972205 0 -87.979341217972205 -293.12362957986079 0 0 0 0 20.348042249626999 -37.347117827985585 0 -37.347117827985585 -43.488093990612469 0 0 0 0 96.774707373005 -92.423530314658308 0 -92.423530314658308 -5.1565136284179971 0 0 0 0 -138.89531402134378 -60.466929576079337 0 -60.466929576079337 -84.479198808924593 0 0 0 0 4.8209400772655329 -76.59437656205273 0 -76.59437656205273 -142.67621520241391 0 0 0 0 -56.588686881104991 -78.981163910802024 0 -78.981163910802024 -85.75584843329662 0 0 0 0 -15.077505453372055 -67.175336039321337 0 -67.175336039321337 -111.27854489281799 0 0 0 0 54.321511649615559 -93.092361104539577 0 -93.092361104539577 -93.026040370386909 0 0 0 0 8.0734547975269919 -116.63898499519064 0 -116.63898499519064 -69.667726205636427 0 0 0 0 25.090475637290638 -111.33905068060267 0 -111.33905068060267 -71.465510776837505 0 0 0 0 -161.31243202039894 -172.42242791066928 0 -172.42242791066928 164.814079476193 0 0 0 0 -179.73693720112027 -41.522261341355261 0 -41.522261341355261 17.8383029829306 0 0 0 0 0.42409987685402939 -146.39549376665673 0 -146.39549376665673 -65.883853203103399 0 0 0 0 75.041103449158655 -204.81024043156503 0 -204.81024043156503 -20.263427495821816 0 0 0 0 0.52939891413189866 -1.1156138811717922 0 -1.1156138811717922 0.75149759254404636 0 0 0 0 36.453237294746117 -122.08822499248515 0 -122.08822499248515 -118.86740611462028 0 0 0 0 -20.249496595298069 -169.58399263135925 0 -169.58399263135925 38.402936060562752 0 0 0 0 -1.9268345993492217 -1.0360883171392548 0 -1.0360883171392548 -0.22866697092192378 0 0 0 0 -96.775347858102919 -44.68585646615611 0 -44.68585646615611 60.408519500992043 0 0 0 0 59.910036482688838 -182.34397601922319 0 -182.34397601922319 -9.3992549712538676 0 0 0 0 -104.66573724048646 -101.8534485497994 0 -101.8534485497994 -42.921690366982148 0 0 0 0 25.831521824949505 -14.272126054663204 0 -14.272126054663204 7.1850244641586869 0 0 0 0 -12.657115057837359 -102.58466105236994 0 -102.58466105236994 -31.659488936229536 0 0 0 0 -20.282852463865719 12.108051787060099 0 12.108051787060099 -36.305896598786603 0 0 0 0 -4.8665320727448771 -1.2606619011538243 0 -1.2606619011538243 0.0066758981212231561 0 0 0 0 -75.986979410650747 -64.397660024691504 0 -64.397660024691504 220.72878049775954 0 0 0 0 -27.416422458322359 -128.44137204243725 0 -128.44137204243725 252.68153036492527 0 0 0 0 43.728801437980223 -107.12112820947823 0 -107.12112820947823 153.44435279002028 0 0 0 0 49.245665690071746 -39.360852814154896 0 -39.360852814154896 180.43921327552675 0 0 0 0 4.2096736263075627 -8.8064817620623899 0 -8.8064817620623899 6.3050097757732146 0 0 0 0 3.6278289671410562 -6.8849416555767675 0 -6.8849416555767675 7.8558338480061138 0 0 0 0 1.8941270827134247 -25.614421816471349 0 -25.614421816471349 35.794646040074667 0 0 0 0 9.906952978996074 -11.057716236170563 0 -11.057716236170563 3.3192712843010668 0 0 0 0 7.4469292132030347 1.0736349314561267 0 1.0736349314561267 -15.982435080020196 0 0 0 0 5.4911335681686628 -7.2381823159279577 0 -7.2381823159279577 0.016718915888304764 0 0 0 0 5.4712038728865418 -9.080985498130552 0 -9.080985498130552 -0.9402193973728572 0 0 0 0 -48.861386063631926 1.1192954356829432 0 1.1192954356829432 42.870720965943747 0 0 0 0 -65.054727096511897 -42.77223927601608 0 -42.77223927601608 -4.0494441650289446 0 0 0 0 7.5821277737911146 -32.536360636827339 0 -32.536360636827339 -18.547485857810898 0 0 0 0 -89.028304480131169 -46.370427500832193 0 -46.370427500832193 -3.6790031377058767 0 0 0 0 13.329761786433338 -24.865136816415315 0 -24.865136816415315 -3.8317937127258119 0 0 0 0 -24.143926168719872 15.743644379979742 0 15.743644379979742 9.3807176610243914 0 0 0 0 -0.17363613234135877 -0.10739907253240233 0 -0.10739907253240233 -0.58072920121713878 0 0 0 0 -16.371281996098475 -28.253829318336557 0 -28.253829318336557 1.1083581948412302 0 0 0 0 -12.614113931884901 5.1671929773729062 0 5.1671929773729062 -18.839332954792553 0 0 0 0 4.3176524976497603 -4.5784675312970649 0 -4.5784675312970649 26.069586606815392 0 0 0 0 25.156654209132228 -31.310843627353506 0 -31.310843627353506 14.55663400946105 0 0 0 0 -4.902926692851608 -6.3699116858988418 0 -6.3699116858988418 13.476771557610846 0 0 0 0 -21.246811861613377 8.2914617226757343 0 8.2914617226757343 5.6211943689022519 0 0 0 0 -5.0791688005921856 -6.1709575246716213 0 -6.1709575246716213 0.64882661582032597 0 0 0 0 -1.1190148903767465 -12.091305575235765 0 -12.091305575235765 7.2722332372204619 0 0 0 0 -0.93919164824086465 -10.749582767669835 0 -10.749582767669835 9.7867828845146505 0 0 0 0 -1.077708803645125 -1.8401065742626586 0 -1.8401065742626586 -3.4151159081912681 0 0 0 0 3.874721664586275 -8.0344854058134842 0 -8.0344854058134842 0.085153132445213942 0 0 0 0 0.45853371210731525 -1.8016378859974829 0 -1.8016378859974829 0.28827218501337626 0 0 0 0 3.5520179901591007 -9.6299335199631173 0 -9.6299335199631173 -0.40191279737791774 0 0 0 0 -4.9776794629366359 -7.6819508511911323 0 -7.6819508511911323 6.9119046760833953 0 0 0 0 1.2432556751742101 -4.9078981537839432 0 -4.9078981537839432 5.5858835680048964 0 0 0 0 -3.1399204515736017 -10.600584240645276 0 -10.600584240645276 5.2180975269525334 0 0 0 0 3.8132927393603495 -5.5659522945691151 0 -5.5659522945691151 1.4665244437846923 0 0 0 0 1.5824202583364695 -5.375209704212466 0 -5.375209704212466 7.177103260446529 0 0 0 0 5.1384469763679004 -8.6516826297023037 0 -8.6516826297023037 -0.29898299343859591 0 0 0 0 3.0895642170699347 -4.8221476023915155 0 -4.8221476023915155 2.0425533738127291 0 0 0 0 3.9848053432795183 -8.9348950862539809 0 -8.9348950862539809 -0.10418085602668725 0 0 0 0 3.7780597777842786 -6.2353263528153775 0 -6.2353263528153775 -5.2297851604512289 0 0 0 0 2.6291987625429556 -9.8633213330095089 0 -9.8633213330095089 -2.3615756880674326 0 0 0 0 2.0901755221188978 -8.2095793806933557 0 -8.2095793806933557 -7.390890182394287 0 0 0 0 9.2038429207177614 -8.3860251392241025 0 -8.3860251392241025 -9.2179585019684964 0 0 0 0 5.320167576564927 -12.341123215552955 0 -12.341123215552955 -11.6600019995617 0 0 0 0 5.37093827459762 -12.155186069658555 0 -12.155186069658555 -11.034723562019735 0 0 0 0 2.552077866376294 -12.776536943574001 0 -12.776536943574001 -6.5252279363292018 0 0 0 0 4.4424988696170544 -5.3623270467032 0 -5.3623270467032 0.31562025088085832 0 0 0 0 2.5470294487009042 -12.619443963348957 0 -12.619443963348957 -6.7419618265373629 0 0 0 0 3.9827054380502886 -12.35622188977095 0 -12.35622188977095 -7.3563526879891015 0 0 0 0 3.951649989965631 -11.077324277005573 0 -11.077324277005573 -13.528794727022159 0 0 0 0 4.2614082731159701 -3.5985823925804059 0 -3.5985823925804059 -0.81465211176900176 0 0 0 0 3.855663710440183 -17.413923555243855 0 -17.413923555243855 -2.0234348435690208 0 0 0 0 0.98732244350091669 -6.1598172890543994 0 -6.1598172890543994 1.5391079995560482 0 0 0 0 1.1601184827804265 -5.3070004880737072 0 -5.3070004880737072 2.9597131224280711 0 0 0 0 -7.2479478274179456 -15.968690792773714 0 -15.968690792773714 -2.590992826405909 0 0 0 0 -1.4919804731111981 -12.175505304956459 0 -12.175505304956459 -11.477996753335901 0 0 0 0 -1.1004790343574986 -4.650061518682107 0 -4.650061518682107 -4.7431190160501231 0 0 0 0 3.5676563196959137 -17.644256807931924 0 -17.644256807931924 1.6357942620343238 0 0 0 0 -20.137120059715585 -7.8642108309185232 0 -7.8642108309185232 2.3216493599884416 0 0 0 0 -17.466866251463387 -13.794002626611814 0 -13.794002626611814 2.2547147350423984 0 0 0 0 -11.835560667855816 -7.6926530417320009 0 -7.6926530417320009 -1.0492322201225761 0 0 0 0 -15.361685645289299 -13.142711183900474 0 -13.142711183900474 2.7973624752848991 0 0 0 0 -11.272052602702161 -15.91271794546401 0 -15.91271794546401 1.1748370167606481 0 0 0 0 -11.770882866992451 -15.016455163784485 0 -15.016455163784485 3.563008263437041 0 0 0 0 -11.988077241309384 -13.495038527139513 0 -13.495038527139513 -5.1401017294483609 0 0 0 0 -0.13325504003694899 0.0064741065093301131 0 0.0064741065093301131 2.5226752013554847 0 0 0 0 -7.923521063530643 -11.126873445845419 0 -11.126873445845419 -8.2337669856279945 0 0 0 0 -0.23930962461417948 -5.9790604934705698 0 -5.9790604934705698 -0.93710154577274807 0 0 0 0 -3.0714611242042906 -5.5826395351414249 0 -5.5826395351414249 -0.18139174974749039 0 0 0 0 -6.1614413522954194 -7.5505458494962259 0 -7.5505458494962259 6.9199878399940502 0 0 0 0 -0.41356560753745475 -6.7569242664122644 0 -6.7569242664122644 -2.4103262484334342 0 0 0 0 -4.719795829832254 -14.992193164897728 0 -14.992193164897728 6.4806047132472333 0 0 0 0 -9.5924452046015176 -18.083755318030796 0 -18.083755318030796 -21.969481044033444 0 0 0 0 -6.1335530223936514 -6.9692442599306608 0 -6.9692442599306608 7.0268943111635513 0 0 0 0 -7.101842248993762 -19.166205604721085 0 -19.166205604721085 -30.050614299803556 0 0 0 0 -0.68642784497637876 -22.220133687293419 0 -22.220133687293419 -15.791315511966729 0 0 0 0 -0.032721958476821023 -8.3962635825754361 0 -8.3962635825754361 -6.3992118452480318 0 0 0 0 1.7533642408362766 -8.6375214252884689 0 -8.6375214252884689 -2.0117344640688657 0 0 0 0 -1.2464451516989357 -14.023717843606391 0 -14.023717843606391 -6.143480411632936 0 0 0 0 10.074313897682726 -8.0824106662302668 0 -8.0824106662302668 -0.32106320854753179 0 0 0 0 7.0257509067123465 -7.7447959701203217 0 -7.7447959701203217 0.76517218921117092 0 0 0 0 3.8517665802649468 0.94184379280261155 0 0.94184379280261155 -1.3955595169787345 0 0 0 0 8.0355799357030264 -16.80108995234491 0 -16.80108995234491 -12.162204294526418 0 0 0 0 1.7305566156455825 -8.9490689606305978 0 -8.9490689606305978 -1.7438051570134121 0 0 0 0 -0.82862696116171719 -12.494525683819802 0 -12.494525683819802 -2.1622507323272657 0 0 0 0 1.8375632331699308 -10.206748713532306 0 -10.206748713532306 -6.7584960471558588 0 0 0 0 -10.18880261517188 -20.059223625525647 0 -20.059223625525647 -10.206753208377449 0 0 0 0 -64.909852015664455 -11.761504400801641 0 -11.761504400801641 1.9265085354379607 0 0 0 0 -3.0918034624899207 -13.698681758985193 0 -13.698681758985193 -32.697173519522153 0 0 0 0 -3.333415543655974 -5.3287052675379982 0 -5.3287052675379982 -20.622360001479692 0 0 0 0 -17.365712932845327 -15.371857618360764 0 -15.371857618360764 -7.1735705340610139 0 0 0 0 -19.577475742423871 5.4324555606683589 0 5.4324555606683589 -21.122429800959708 0 0 0 0 15.689443271474602 5.541776934237987 0 5.541776934237987 -43.118603553978573 0 0 0 0 17.708322794625019 14.919206780348759 0 14.919206780348759 -18.7561681069119 0 0 0 0 126.89494775583717 -121.48359077083364 0 -121.48359077083364 20.675985393507744 0 0 0 0 185.35975795929971 -3.3727005088766759 0 -3.3727005088766759 -54.911585236740848 0 0 0 0 58.186313436324781 125.67447770828198 0 125.67447770828198 -36.16611810486711 0 0 0 0 -74.504028668744013 58.589807787968425 0 58.589807787968425 15.202249852020486 0 0 0 0 24.313408036230612 -0.64498123949402952 0 -0.64498123949402952 6.8852228561702304 0 0 0 0 15.701622945552572 -11.237968007856921 0 -11.237968007856921 7.1197792067569026 0 0 0 0 -3.3992010577039764 -14.155090063382659 0 -14.155090063382659 6.8848645824343748 0 0 0 0 -1.778852703978373 -13.312094663606899 0 -13.312094663606899 2.002107597201757 0 0 0 0 -0.97806049672999507 -10.886842091319863 0 -10.886842091319863 2.2976691971703076 0 0 0 0 2.6736972882026748 -11.989242107504197 0 -11.989242107504197 7.4989002636650639 0 0 0 0 1.0870333833113364 -9.5993717402187713 0 -9.5993717402187713 6.3764311723875835 0 0 0 0 -5.7418928354036325 -11.589257563179444 0 -11.589257563179444 11.192809315498153 0 0 0 0 -0.17398711300302239 -8.6904496383483547 0 -8.6904496383483547 13.57622340996204 0 0 0 0 0.5384654875333581 -10.616712200920006 0 -10.616712200920006 10.498774122318878 0 0 0 0 -9.9393538600088505 -16.995650821254003 0 -16.995650821254003 11.662406027798397 0 0 0 0 -5.2175913497259216 -15.030243693922714 0 -15.030243693922714 6.5880959692631222 0 0 0 0 -8.7172938578296453 -21.988030525675867 0 -21.988030525675867 4.4510641250535627 0 0 0 0 -3.432938083398767 -20.698909117189544 0 -20.698909117189544 4.6763504115626802 0 0 0 0 -5.0159566806851217 -17.734786466198216 0 -17.734786466198216 -0.86761609017821684 0 0 0 0 -3.3801657822641573 -23.074998092513283 0 -23.074998092513283 -4.7397332977149063 0 0 0 0 -1.5718293241980064 -34.078541641100628 0 -34.078541641100628 -1.4261836144958124 0 0 0 0 11.62673433238524 -37.70178403402133 0 -37.70178403402133 -18.993634178711169 0 0 0 0 1.0678727949015183 -39.420177898819048 0 -39.420177898819048 -8.2517237037129689 0 0 0 0 8.3731032256700928 -25.799754968170362 0 -25.799754968170362 -19.067126349376395 0 0 0 0 4.0731174747261321 -24.467588402580759 0 -24.467588402580759 -7.6088342403185152 0 0 0 0 5.2621753363114294 -24.477083614768446 0 -24.477083614768446 -16.129076305025137 0 0 0 0 -0.86382550189364338 -26.416502216603703 0 -26.416502216603703 -8.3725767736113994 0 0 0 0 8.9841100927415027 -18.050537493947729 0 -18.050537493947729 -25.599146893158149 0 0 0 0 8.7227291231374693 -18.354094354027438 0 -18.354094354027438 -14.010970004247554 0 0 0 0 4.770850717898611 -16.865847121558772 0 -16.865847121558772 -12.723539942651541 0 0 0 0 2.5352140899703954 -13.993268706106505 0 -13.993268706106505 -9.1152056104788244 0 0 0 0 3.0065576616434555 -15.720783367626154 0 -15.720783367626154 -7.764541875733812 0 0 0 0 1.5905830208994303 -13.111415027323119 0 -13.111415027323119 -6.0115776995896795 0 0 0 0 0.92419677377563403 -16.3256175137372 0 -16.3256175137372 -7.4388059118127785 0 0 0 0 1.1373885785715174 -15.024192714600304 0 -15.024192714600304 -6.0697729430551135 0 0 0 0 -0.56769397913762987 -13.28885903443782 0 -13.28885903443782 -1.3684358693826653 0 0 0 0 0.50781114145956963 -20.865525314826641 0 -20.865525314826641 -10.186088834297152 0 0 0 0 1.1221514685657894 -18.553172537061528 0 -18.553172537061528 -2.3882327350891046 0 0 0 0 4.119005199057483 -16.859953971942787 0 -16.859953971942787 -8.5736643663863106 0 0 0 0 -13.115216076839715 -20.845545724624799 0 -20.845545724624799 -9.9922763151143954 0 0 0 0 -3.6911286706622901 -8.225885480966781 0 -8.225885480966781 -5.0468714343915062 0 0 0 0 -9.4382427353029925 -10.765774640165546 0 -10.765774640165546 -2.5186705065161732 0 0 0 0 -8.2916051450574741 -9.6651796993031667 0 -9.6651796993031667 -1.8193024022048121 0 0 0 0 2.1753189075832324 -7.831609076041266 0 -7.831609076041266 2.3711401260498484 0 0 0 0 9.0100141635957698 -1.5346337510250123 0 -1.5346337510250123 -5.5009170977066333 0 0 0 0 17.524961084860479 2.5501440105363145 0 2.5501440105363145 -8.743976964549347 0 0 0 0 -7.5003562609272194 -23.723727689318139 0 -23.723727689318139 -23.559354165086006 0 0 0 0 -1.2250002661439794 -13.458911586287627 0 -13.458911586287627 -8.5131435477660489 0 0 0 0 22.171669740837842 -11.881571544538588 0 -11.881571544538588 -13.90635915438088 0 0 0 0 0.021474939081599587 -4.6221863483358447 0 -4.6221863483358447 -31.34711128705851 0 0 0 0 -42.7628578161939 -22.420913800145286 0 -22.420913800145286 -3.7392862137053271 0 0 0 0 2.098489060310385 -10.046554554474369 0 -10.046554554474369 -10.324741420170312 0 0 0 0 -0.3134981060793578 -0.67428009065722527 0 -0.67428009065722527 1.0693970461085129 0 0 0 0 -9.1945385751823778 -21.606236946827266 0 -21.606236946827266 29.353579780580276 0 0 0 0 -12.670569792112474 -2.0806619767865868 0 -2.0806619767865868 37.327648669427759 0 0 0 0 -0.47952674231876102 -2.6419008435523761 0 -2.6419008435523761 1.2796623551439903 0 0 0 0 -6.8747289203538458 -3.5234015958784539 0 -3.5234015958784539 -7.1332297525445938 0 0 0 0 3.6375559745583814 -14.954475502280729 0 -14.954475502280729 9.5482204917007039 0 0 0 0 -36.626828681585266 -11.483271515031902 0 -11.483271515031902 0.22965052249901419 0 0 0 0 -0.98349595430911574 -0.65043537743016699 0 -0.65043537743016699 0.4219450669932856 0 0 0 0 -27.379133438800636 -26.956790107207098 0 -26.956790107207098 10.569198035298541 0 0 0 0 -30.205823640311792 -22.41819320170498 0 -22.41819320170498 28.272499122056161 0 0 0 0 2.2143382357271548 -17.322162392635867 0 -17.322162392635867 -8.7326158082209702 0 0 0 0 -46.473986013465037 -44.834712577352548 0 -44.834712577352548 -0.8814515529793141 0 0 0 0 -72.282744161907431 -26.869001233874883 0 -26.869001233874883 16.90381701254546 0 0 0 0 -53.259614010801215 -7.4592692575474757 0 -7.4592692575474757 -1.5653801326097891 0 0 0 0 -14.498608817419154 -21.397922270943582 0 -21.397922270943582 -3.8104093632697129 0 0 0 0 -10.377692010639294 -55.360247118172992 0 -55.360247118172992 66.803912623325232 0 0 0 0 -30.097426672798974 -18.562486677818015 0 -18.562486677818015 44.850076583586315 0 0 0 0 -41.997203770048145 -22.757678720207423 0 -22.757678720207423 19.089224508128837 0 0 0 0 -35.71544905815972 -7.9277043491865697 0 -7.9277043491865697 12.042387183027586 0 0 0 0 -34.205888556171885 -19.192069666408997 0 -19.192069666408997 14.516036869405525 0 0 0 0 -31.776543609584223 -45.239356458483144 0 -45.239356458483144 -13.770003691100555 0 0 0 0 -28.161998417273935 -59.962839518409851 0 -59.962839518409851 35.474847631692228 0 0 0 0 79.665532824642469 -102.39578076445912 0 -102.39578076445912 33.325569089275177 0 0 0 0 8.8777417681176303 -40.136595096084875 0 -40.136595096084875 -14.501658801895559 0 0 0 0 -17.702801832831028 -41.242274830675967 0 -41.242274830675967 -26.234237553319801 0 0 0 0 -18.306003576051353 -32.930636187308224 0 -32.930636187308224 -24.967544622910623 0 0 0 0 4.4139719250269991 -53.447422857630102 0 -53.447422857630102 -15.565868467010503 0 0 0 0 38.413635437397716 -12.316027144697642 0 -12.316027144697642 -33.126442519014859 0 0 0 0 -10.91951467421811 -3.6414612908410997 0 -3.6414612908410997 7.810183958541546 0 0 0 0 -13.386032292700293 -12.481388370430011 0 -12.481388370430011 -26.41864746972459 0 0 0 0 -2.9777370982075086 -1.6267587765881544 0 -1.6267587765881544 -0.46780809678666557 0 0 0 0 -89.565051118794145 -45.568133827282878 0 -45.568133827282878 5.1771645845814476 0 0 0 0 -6.8097451409062266 -4.3495786033251731 0 -4.3495786033251731 3.7543506666726998 0 0 0 0 -8.9032253339310046 -10.563203520437227 0 -10.563203520437227 -1.7004879026169206 0 0 0 0 -9.6453253212093841 -8.5630000087508051 0 -8.5630000087508051 0.018818398702023842 0 0 0 0 -10.99083054222865 -9.6822120324377465 0 -9.6822120324377465 -0.40434601863034914 0 0 0 0 -9.4152821722226268 -3.2836600788606649 0 -3.2836600788606649 5.5160061284562376 0 0 0 0 -23.933144742322611 -20.88737544194737 0 -20.88737544194737 -6.9776758192647321 0 0 0 0 -11.91428719234591 -10.589915106664193 0 -10.589915106664193 -1.2760016411266406 0 0 0 0 -1.412103163717892 -7.9828643400618784 0 -7.9828643400618784 -3.5016267493876914 0 0 0 0 -18.346523623671516 -13.718594994662681 0 -13.718594994662681 -0.6544859011828521 0 0 0 0 -10.879843140382945 -11.260968796254019 0 -11.260968796254019 -2.307267287761988 0 0 0 0 -1.9404206158178567 -9.2426707761405851 0 -9.2426707761405851 -7.410298380862514 0 0 0 0 -16.495366091554843 -15.321896253853538 0 -15.321896253853538 -4.5650249545196857 0 0 0 0 -15.408782399096708 -12.283370461202594 0 -12.283370461202594 0.085782744632524555 0 0 0 0 -15.102657335401091 -13.799543917425581 0 -13.799543917425581 4.2870686617770843 0 0 0 0 -14.083207325395961 -14.413349205757186 0 -14.413349205757186 -10.513490995544998 0 0 0 0 -12.174966392960528 -15.712801574007017 0 -15.712801574007017 7.048222341994915 0 0 0 0 -11.879009788058738 -16.057148926636728 0 -16.057148926636728 2.3250694508533343 0 0 0 0 -14.689960600338054 -12.057191103677724 0 -12.057191103677724 -1.9470086560540949 0 0 0 0 -14.599688986468337 -15.350746227887825 0 -15.350746227887825 3.6453980446349306 0 0 0 0 -14.375708667133495 -15.315228346091317 0 -15.315228346091317 3.5388532125807615 0 0 0 0 -13.762836956029332 -16.506298100017375 0 -16.506298100017375 4.227125835157878 0 0 0 0 -11.524538369372522 -11.065809036907922 0 -11.065809036907922 5.699336649916404 0 0 0 0 -12.519232528027032 -13.250076068962244 0 -13.250076068962244 1.0943298982892884 0 0 0 0 -13.962565714543871 -15.246617687986145 0 -15.246617687986145 3.3160120164693581 0 0 0 0 -13.683580637637533 -13.690080749023309 0 -13.690080749023309 10.13222073869656 0 0 0 0 -13.232819218804309 -9.7072409749578128 0 -9.7072409749578128 10.154391625950666 0 0 0 0 -12.876830667421018 -12.870070245977786 0 -12.870070245977786 6.0267679138196399 0 0 0 0 -32.737279001536763 -14.359278483261278 0 -14.359278483261278 -5.905099783391961 0 0 0 0 -35.701541607946851 -17.693642601890986 0 -17.693642601890986 -4.7981072323218541 0 0 0 0 -3.9946973721385959 -3.4006233799912327 0 -3.4006233799912327 5.7130679920966188 0 0 0 0 -34.172464399202227 -21.263673339271008 0 -21.263673339271008 1.2492565409916097 0 0 0 0 -18.908198399260186 -27.823070836457646 0 -27.823070836457646 -4.4878036050722585 0 0 0 0 -7.018406016361693 -16.581778829088886 0 -16.581778829088886 -11.643161354591578 0 0 0 0 26.336728326096363 -25.997653607720281 0 -25.997653607720281 -19.367890742716554 0 0 0 0 -5.4249019560738816 -7.1058505195416046 0 -7.1058505195416046 -13.086780027930672 0 0 0 0 -7.5404066473918876 -15.61525038938632 0 -15.61525038938632 -12.312473442795168 0 0 0 0 16.634729385027185 -37.142798049920884 0 -37.142798049920884 -17.187588156666607 0 0 0 0 21.979636671966773 -38.674441365488065 0 -38.674441365488065 -13.728254375049801 0 0 0 0 -32.712847345101395 -42.209267606628345 0 -42.209267606628345 5.6430935499483894 0 0 0 0 28.895561468992128 -24.632582270468902 0 -24.632582270468902 -24.643695335785196 0 0 0 0 -41.643604174663523 -21.845426213417113 0 -21.845426213417113 4.9860578050693221 0 0 0 0 15.437389972096753 -27.491934101114225 0 -27.491934101114225 -18.361172571116185 0 0 0 0 46.435653360485844 -50.017582975132655 0 -50.017582975132655 -19.532324347566828 0 0 0 0 -7.7333897264659974 -15.601820962072797 0 -15.601820962072797 -11.638184868077817 0 0 0 0 -7.9102765668967265 -31.769152047477178 0 -31.769152047477178 6.4220252652212366 0 0 0 0 19.073126666965152 -11.199169692346004 0 -11.199169692346004 -5.0057079272237388 0 0 0 0 -61.414583734177313 11.145818512887672 0 11.145818512887672 13.60439837429476 0 0 0 0 -16.239778663372135 -0.20855085280163621 0 -0.20855085280163621 -11.844945902677409 0 0 0 0 -71.405615430336525 -28.639530187939727 0 -28.639530187939727 5.533884518943978 0 0 0 0 -0.5553427346724773 -1.350751949460244 0 -1.350751949460244 4.1757978876076258 0 0 0 0 -31.07407515223926 -28.667049112991549 0 -28.667049112991549 -22.471899707991724 0 0 0 0 -126.38626284606198 -25.203219747827916 0 -25.203219747827916 8.8187728767925364 0 0 0 0 -44.556719137892458 -6.1821442591860887 0 -6.1821442591860887 -22.414705402753498 0 0 0 0 0.048855776403144452 -0.48650107302894297 0 -0.48650107302894297 1.3517040257226469 0 0 0 0 37.442791396800658 13.379735139526019 0 13.379735139526019 -38.893149513083699 0 0 0 0 -48.747372248938973 -17.165488455756076 0 -17.165488455756076 26.303844965627377 0 0 0 0 -0.42242345712822948 -0.7393681600999833 0 -0.7393681600999833 -0.99443284653108677 0 0 0 0 -225.60933356204532 -110.90047874426773 0 -110.90047874426773 90.106660795136122 0 0 0 0 75.982317983107009 -65.975632813195716 0 -65.975632813195716 -19.675602456924935 0 0 0 0 -51.49955003248715 -72.414556710960824 0 -72.414556710960824 -4.9968454581121478 0 0 0 0 37.762006218738406 46.557641152230644 0 46.557641152230644 -103.0676976910745 0 0 0 0 -164.19071902289264 -81.470368324662957 0 -81.470368324662957 16.097198089990343 0 0 0 0 -28.467724465304855 -97.927510982183776 0 -97.927510982183776 -24.314335085110542 0 0 0 0 71.962647612026558 -79.734053340735045 0 -79.734053340735045 -50.50793128487021 0 0 0 0 -39.593262939810757 -51.456251904393866 0 -51.456251904393866 -23.301830035663443 0 0 0 0 -42.462699523623201 -36.631850195541574 0 -36.631850195541574 -13.008665064047818 0 0 0 0 -55.54351758333496 -65.294007587244323 0 -65.294007587244323 -22.521630962250129 0 0 0 0 -13.843746707008791 -34.191615330386639 0 -34.191615330386639 -18.419595797864531 0 0 0 0 -15.975127730923191 -47.633218914735835 0 -47.633218914735835 -37.252261968049424 0 0 0 0 -37.772177963997819 -40.070890109589527 0 -40.070890109589527 -28.295915286413219 0 0 0 0 -13.351443737202999 -59.36257292598566 0 -59.36257292598566 -21.704762607386783 0 0 0 0 -27.005232577498646 -31.16097377058486 0 -31.16097377058486 -73.210113446246396 0 0 0 0 -38.691415961326697 -27.354245474530671 0 -27.354245474530671 -18.379850372284636 0 0 0 0 -156.50778765924701 29.278577366017089 0 29.278577366017089 -33.551138552777047 0 0 0 0 -35.785273415156581 -52.072772627289226 0 -52.072772627289226 -33.335666618424511 0 0 0 0 -85.251575728352918 -39.1499529028697 0 -39.1499529028697 -20.561465197966982 0 0 0 0 -73.355779156225935 -57.231241302199123 0 -57.231241302199123 -2.7876939243230936 0 0 0 0 -80.44587419710038 -62.394147945536929 0 -62.394147945536929 -6.4654516031368985 0 0 0 0 -68.270400828158017 -63.515706583501924 0 -63.515706583501924 -8.242536838884007 0 0 0 0 -136.78770520229969 -64.08084611106608 0 -64.08084611106608 5.8062174123206205 0 0 0 0 38.061369474969979 -9.7624774449427605 0 -9.7624774449427605 -2.8188991786462338 0 0 0 0 -36.663174845635467 -31.113898805984718 0 -31.113898805984718 -6.3506294709459326 0 0 0 0 2.1926285259633005 -17.064293565780645 0 -17.064293565780645 -16.848569275646241 0 0 0 0 -23.567555376444489 -44.438925681803539 0 -44.438925681803539 -21.449963930992453 0 0 0 0 20.80131347304382 -32.402588015624588 0 -32.402588015624588 -22.821005590907589 0 0 0 0 4.0291562735326352 -36.880215912203766 0 -36.880215912203766 -27.245961880422328 0 0 0 0 7.5740032321161834 -21.3174901542925 0 -21.3174901542925 -21.993816413652894 0 0 0 0 13.352159560080395 -19.737594362398568 0 -19.737594362398568 -13.561326080035542 0 0 0 0 55.873201978083898 -28.382355751343539 0 -28.382355751343539 -22.969931229772556 0 0 0 0 -4.9778376375795377 -15.355786986928061 0 -15.355786986928061 -10.322416823347972 0 0 0 0 39.820995779584337 -18.156456251111194 0 -18.156456251111194 -21.722456819032232 0 0 0 0 40.034417975223732 -21.687235899026746 0 -21.687235899026746 -2.5415712848669045 0 0 0 0 -5.9112567008142118 -3.2353856086751165 0 -3.2353856086751165 0.3370453847839876 0 0 0 0 -7.7877685858074983 -16.119421121569303 0 -16.119421121569303 -16.377935015781986 0 0 0 0 -8.4299683163834516 3.3207065080740392 0 3.3207065080740392 4.0264227661737095 0 0 0 0 -3.6881453858022724 -4.8599821036143567 0 -4.8599821036143567 -2.3919110023816756 0 0 0 0 1.1679279615493394 -4.1074398555326823 0 -4.1074398555326823 -1.4734084110099381 0 0 0 0 -3.2293194660415239 -1.9847905792453222 0 -1.9847905792453222 0.68177240076125134 0 0 0 0 -24.33097818940405 -18.570263273919409 0 -18.570263273919409 -21.809676355142074 0 0 0 0 0.0090073810394031284 0.053486798897472099 0 0.053486798897472099 0.071014533263109136 0 0 0 0 -39.228493965362077 -28.360372045628509 0 -28.360372045628509 -7.0798424724016513 0 0 0 0 1.0850064523296092 -1.2760709464001891 0 -1.2760709464001891 -2.2422668295668391 0 0 0 0 -21.40876041546835 -31.793107444133057 0 -31.793107444133057 -10.439399743464492 0 0 0 0 -40.978644822062051 -1.2992244550414398 0 -1.2992244550414398 -2.4367529195342286 0 0 0 0 -39.327080204097001 -32.900837882482847 0 -32.900837882482847 -1.1922987181824283 0 0 0 0 0.021357525081825202 -0.20616840760669675 0 -0.20616840760669675 -0.21816394183576548 0 0 0 0 -41.242099295754997 -26.019085710034233 0 -26.019085710034233 -2.0906022450085402 0 0 0 0 -25.45354394381684 -11.63863706387815 0 -11.63863706387815 8.8156517774900749 0 0 0 0 -25.35205755705465 -19.595685647860819 0 -19.595685647860819 -15.255564702386437 0 0 0 0 3.4428850609747315 -11.248606910902936 0 -11.248606910902936 -10.33094072474978 0 0 0 0 8.6887822869721276 -7.0788677696466493 0 -7.0788677696466493 -12.277950083445376 0 0 0 0 2.1041693675903232 -2.9650214950809293 0 -2.9650214950809293 1.4686397690417916 0 0 0 0 -7.8368333704866018 -17.018515555211366 0 -17.018515555211366 -2.7493919956987156 0 0 0 0 -7.7120977885024331 -12.717123141980665 0 -12.717123141980665 -10.451839643964149 0 0 0 0 -12.697145142688896 -12.772408407474472 0 -12.772408407474472 -2.6587066389856773 0 0 0 0 -2.7959727491306694 -31.710264247570876 0 -31.710264247570876 -26.321030353387869 0 0 0 0 26.456798483028251 -14.10963502055688 0 -14.10963502055688 -16.192804970715997 0 0 0 0 32.590105201818005 -27.786462572285018 0 -27.786462572285018 -36.033350881057686 0 0 0 0 30.855288064583874 -23.97833090719314 0 -23.97833090719314 -38.24967072416996 0 0 0 0 57.856895927987352 -3.3595147379621721 0 -3.3595147379621721 -23.44039254065774 0 0 0 0 72.854983772990181 -38.571043262994294 0 -38.571043262994294 -51.857193616467612 0 0 0 0 3.5944918557482879 -10.210065339256744 0 -10.210065339256744 -10.400856748564365 0 0 0 0 2.1644335763919713 -1.5807891678505968 0 -1.5807891678505968 1.1682772700821396 0 0 0 0 1.0586445258486492 -18.545791125226287 0 -18.545791125226287 -24.332644430916844 0 0 0 0 32.66080428402347 1.3806157092656122 0 1.3806157092656122 -6.8347631913375153 0 0 0 0 32.969403150298604 -7.9150205603151562 0 -7.9150205603151562 -12.359417150698505 0 0 0 0 82.556422960378768 21.231504672643268 0 21.231504672643268 -0.44599443336073819 0 0 0 0 186.21250800678899 19.756922571958739 0 19.756922571958739 -1.7643504979298541 0 0 0 0 0.82211005502147572 -0.5861012683663418 0 -0.5861012683663418 0.44666377648169941 0 0 0 0 -9.7635579096331639 -42.940032137827984 0 -42.940032137827984 43.893099422166642 0 0 0 0 15.30754731182742 7.1652917994022118 0 7.1652917994022118 -15.818703311523223 0 0 0 0 14.118576396245771 5.6259449902590859 0 5.6259449902590859 -11.489919365084461 0 0 0 0 -73.542150229595791 -27.461022945009745 0 -27.461022945009745 2.1420058739324759 0 0 0 0 0.3503194811199144 -0.87062201173208464 0 -0.87062201173208464 -1.1871177938025497 0 0 0 0 7.4783223643844394 5.1271239121954295 0 5.1271239121954295 10.162503931618005 0 0 0 0 -30.29971256564113 -28.632633301631586 0 -28.632633301631586 -19.621182933950877 0 0 0 0 -25.577607976323634 -9.9966725658989617 0 -9.9966725658989617 -5.0724392307090511 0 0 0 0 -23.623152993728581 -34.322087624294682 0 -34.322087624294682 2.0917406218629822 0 0 0 0 -33.239485569361022 -8.8046250029663611 0 -8.8046250029663611 -14.832009670600655 0 0 0 0 -4.6127575829946181 -0.25542649977779774 0 -0.25542649977779774 6.8293821664410643 0 0 0 0 -21.306670009223126 -31.390873746648936 0 -31.390873746648936 -25.994265578386148 0 0 0 0 -15.044671161034785 -35.343801232771057 0 -35.343801232771057 -38.993189389485401 0 0 0 0 -20.25912684773175 -14.435400071101299 0 -14.435400071101299 -81.367379246181827 0 0 0 0 -52.175485358753576 -70.966265610486971 0 -70.966265610486971 -66.519084024913298 0 0 0 0 -161.65593727781561 -27.456954220947409 0 -27.456954220947409 -6.2878242838653478 0 0 0 0 95.262333531379227 -43.726177984455035 0 -43.726177984455035 -60.7641461961299 0 0 0 0 -0.55450260566303911 -0.85119959290404168 0 -0.85119959290404168 -0.67051309193044162 0 0 0 0 33.853775940460764 -86.060782302726921 0 -86.060782302726921 -77.206141065702013 0 0 0 0 -104.83627702165541 -40.323283370694298 0 -40.323283370694298 -28.166680616537064 0 0 0 0 52.108381355725214 -33.94888590220603 0 -33.94888590220603 -51.046819889042354 0 0 0 0 44.062884611275877 -46.309503465468424 0 -46.309503465468424 -61.224856465727953 0 0 0 0 66.759399579274032 -18.763866367700189 0 -18.763866367700189 -14.190698232481964 0 0 0 0 101.05597045741661 -56.959404421917384 0 -56.959404421917384 13.530494003988679 0 0 0 0 115.99378051123813 -103.29926216013695 0 -103.29926216013695 90.348866068378356 0 0 0 0 -1.134641338152969 -1.9685519186664067 0 -1.9685519186664067 -2.2420354420878539 0 0 0 0 52.824985703175116 -32.058966083992459 0 -32.058966083992459 36.346300952388333 0 0 0 0 -53.4349399513344 1.8662896746075717 0 1.8662896746075717 -4.7517901904623159 0 0 0 0 -39.24054289619562 -18.903297562924195 0 -18.903297562924195 -3.6244808340655936 0 0 0 0 -45.253537992422935 -15.177237224654732 0 -15.177237224654732 -5.9259543143568862 0 0 0 0 -42.537747672256955 -18.520320803768186 0 -18.520320803768186 1.6289383170649216 0 0 0 0 -26.34030232488476 -38.398341793083887 0 -38.398341793083887 -0.82311936106046346 0 0 0 0 -61.001298706358739 -37.459759981181435 0 -37.459759981181435 -0.8298331214271002 0 0 0 0 -12.400884108264108 -48.874408592336863 0 -48.874408592336863 -33.535031269902447 0 0 0 0 -13.745414979201087 -30.486298752913342 0 -30.486298752913342 13.142590445339124 0 0 0 0 -16.587554396690976 -32.123704779271598 0 -32.123704779271598 2.0025131460340617 0 0 0 0 -17.867567453982701 -36.447580389865948 0 -36.447580389865948 4.5672371040077451 0 0 0 0 -20.894441094862486 -27.778617872611051 0 -27.778617872611051 4.3313266921486502 0 0 0 0 -15.764688007442601 -32.328765048284708 0 -32.328765048284708 16.864848358559556 0 0 0 0 -23.613229590646824 -25.640382209549983 0 -25.640382209549983 12.557924043131152 0 0 0 0 -16.098347404997185 -20.416478338285543 0 -20.416478338285543 13.134233071614013 0 0 0 0 -8.8671001169022929 -10.046356831462163 0 -10.046356831462163 -5.2219709896569384 0 0 0 0 -28.241044438729659 -21.843718265436564 0 -21.843718265436564 12.966629279801538 0 0 0 0 85.568810938173556 10.609119829344536 0 10.609119829344536 -7.4841522521292063 0 0 0 0 147.67491711030016 14.012012392723591 0 14.012012392723591 -29.039596898252967 0 0 0 0 -1.564524897817666 -3.0172046071400977 0 -3.0172046071400977 -4.5186940297524369 0 0 0 0 19.021430935932813 2.0394571424199057 0 2.0394571424199057 -13.587951269616838 0 0 0 0 -25.460974398672079 6.7735838013151124 0 6.7735838013151124 0.11698382665656482 0 0 0 0 -7.6027157341586644 -30.008169752638501 0 -30.008169752638501 44.621673322874756 0 0 0 0 15.544613316642426 -23.98720443456142 0 -23.98720443456142 0.5965842384706832 0 0 0 0 1.6888995466606502 -56.743252414541857 0 -56.743252414541857 8.8271737786458857 0 0 0 0 -1.1449430120774196 -66.877927576343552 0 -66.877927576343552 -25.030897941943806 0 0 0 0 0.48155628569845632 -0.51439689015927215 0 -0.51439689015927215 0.15600495952356175 0 0 0 0 4.6920660597379538 -48.588424071143621 0 -48.588424071143621 48.385155303436534 0 0 0 0 -13.670171122812462 7.0047246500486153 0 7.0047246500486153 55.672070915528309 0 0 0 0 -16.354388922840371 -8.8625182721419264 0 -8.8625182721419264 25.139813776868266 0 0 0 0 -16.023813390819214 -4.9473542642545336 0 -4.9473542642545336 7.1329406313036898 0 0 0 0 -10.140637888291167 -10.645375467538521 0 -10.645375467538521 5.4897168605012325 0 0 0 0 -19.337740527911592 -24.219123619073514 0 -24.219123619073514 32.821433827374392 0 0 0 0 -16.288384644254165 -27.400008948021636 0 -27.400008948021636 12.93070626921542 0 0 0 0 -40.354324914396784 -14.784452072800605 0 -14.784452072800605 -33.325590385460089 0 0 0 0 -26.550002456990114 -36.886084818464724 0 -36.886084818464724 -25.049978874954263 0 0 0 0 -30.354974967849557 -29.065402139188336 0 -29.065402139188336 -37.08582907345226 0 0 0 0 -39.78600207420277 -22.884960391315644 0 -22.884960391315644 -12.693066006530216 0 0 0 0 -93.65745785065883 -34.86202037184205 0 -34.86202037184205 -7.8554205145255764 0 0 0 0 0.3342524504242359 -0.81229761543871248 0 -0.81229761543871248 -0.57866347287662023 0 0 0 0 46.984304361523755 -20.752881398667114 0 -20.752881398667114 12.59697695822112 0 0 0 0 39.254468852075661 -28.02436777721141 0 -28.02436777721141 13.425743372824854 0 0 0 0 163.4052707269293 -37.081853884311613 0 -37.081853884311613 -21.115229322241248 0 0 0 0 99.403063559098882 -83.038140107007621 0 -83.038140107007621 34.100786626648301 0 0 0 0 94.382274771103766 -29.637963706023811 0 -29.637963706023811 -10.951680726202767 0 0 0 0 84.073543619684642 -31.634727680729384 0 -31.634727680729384 6.393765275458918 0 0 0 0 82.974263279505976 -32.500336851846896 0 -32.500336851846896 6.6636941283261422 0 0 0 0 83.587638247998257 -32.574532907610319 0 -32.574532907610319 6.650592646807354 0 0 0 0 27.380220550076046 -6.7705922026016196 0 -6.7705922026016196 -87.247051395650033 0 0 0 0 0.15456789482932365 -0.50225074538817704 0 -0.50225074538817704 -0.6137547553959477 0 0 0 0 193.79275142996448 -47.3083055557222 0 -47.3083055557222 -118.60477734855385 0 0 0 0 -2.1638564345860161 -4.5332050030400541 0 -4.5332050030400541 -7.5296277279681014 0 0 0 0 83.179488132616825 -31.550443987060589 0 -31.550443987060589 6.3950502448201405 0 0 0 0 119.09135707920359 -57.476059055600899 0 -57.476059055600899 -38.679248613696927 0 0 0 0 -5.3216679442430177 40.908981141624281 0 40.908981141624281 52.503606602057516 0 0 0 0 18.415131695925083 -150.27466351961073 0 -150.27466351961073 215.95064491503399 0 0 0 0 85.655987339632702 -64.107144869794183 0 -64.107144869794183 94.974604744803401 0 0 0 0 -115.58007175135026 -35.279631428679068 0 -35.279631428679068 212.75340015224461 0 0 0 0 104.66860883822574 -247.28673150337795 0 -247.28673150337795 -12.324687458102289 0 0 0 0 -1.2463702435088635 -25.847537228934016 0 -25.847537228934016 19.608226281141583 0 0 0 0 132.33507333470698 -202.31213586861941 0 -202.31213586861941 55.271379551029895 0 0 0 0 1.4588881182209867 -1.0952675832279271 0 -1.0952675832279271 -0.84650114715789648 0 0 0 0 -29.503815558609858 -10.895349426712073 0 -10.895349426712073 24.528850591644527 0 0 0 0 0.097707110447355916 -0.26947598379761217 0 -0.26947598379761217 -0.13456417284374922 0 0 0 0 20.33221437037173 -10.899500945966338 0 -10.899500945966338 -75.754453495555481 0 0 0 0 -144.99722282351422 -116.87906307929597 0 -116.87906307929597 -57.713100146467696 0 0 0 0 -94.872187258465601 -29.105727652925452 0 -29.105727652925452 -15.518926426072085 0 0 0 0 4.9779984296728799 -17.489598377679613 0 -17.489598377679613 -35.724886014841559 0 0 0 0 -13.7992301727827 -27.980430300700391 0 -27.980430300700391 -50.962150597815253 0 0 0 0 -9.3559459263415192 -1.8838885799468699 0 -1.8838885799468699 -4.8887851384920396 0 0 0 0 -3.830471394227061 -11.472590994191705 0 -11.472590994191705 6.9875804426701507 0 0 0 0 2.3970736910341657 -59.850736291033513 0 -59.850736291033513 -38.953403016806533 0 0 0 0 -2.7523264093906619 16.341019969169338 0 16.341019969169338 11.247813644092275 0 0 0 0 3.8970177244062292 -3.1378012796386354 0 -3.1378012796386354 3.0717544950839573 0 0 0 0 6.2938779478135984 15.533102916536791 0 15.533102916536791 10.641344874141396 0 0 0 0 -10.447203747658932 8.875318207908208 0 8.875318207908208 -17.036912751523232 0 0 0 0 -11.634482942208706 -4.4386834493288916 0 -4.4386834493288916 8.1625888476285127 0 0 0 0 20.465281763930761 -3.4522885209289598 0 -3.4522885209289598 8.0273392195394422 0 0 0 0 59.806006507196798 -51.548184660597371 0 -51.548184660597371 -56.307572085225729 0 0 0 0 76.058202608168358 62.069187308401069 0 62.069187308401069 -2.5710750387181633 0 0 0 0 21.866106223489169 -66.996399250245759 0 -66.996399250245759 178.87223521123269 0 0 0 0 -0.12472308541460819 -0.29357964553557281 0 -0.29357964553557281 0.60128989215814865 0 0 0 0 22.124387076331004 -72.250945953514019 0 -72.250945953514019 273.73295681344462 0 0 0 0 93.32072298975072 -156.79527121377851 0 -156.79527121377851 155.35425051753009 0 0 0 0 89.520020124804432 -130.61913667434055 0 -130.61913667434055 66.549929333712043 0 0 0 0 0.64916770639444366 -0.91165045565983682 0 -0.91165045565983682 -0.39418840651047571 0 0 0 0 32.008263448942671 -75.3968290878679 0 -75.3968290878679 96.843932214249435 0 0 0 0 53.75587823468959 -62.275141353671813 0 -62.275141353671813 100.68117435661134 0 0 0 0 131.29050969100354 -53.59176361632899 0 -53.59176361632899 -41.813686440868992 0 0 0 0 44.91055124529521 5.6254370446145003 0 5.6254370446145003 -27.53915490673046 0 0 0 0 59.227087334886619 -54.434775660137234 0 -54.434775660137234 7.7479880572009279 0 0 0 0 159.17281093171914 -175.56108883739535 0 -175.56108883739535 -60.722185015971718 0 0 0 0 -0.65726644049457761 -1.1269733496098322 0 -1.1269733496098322 -2.2254799383211665 0 0 0 0 126.05388449070665 72.105117679311675 0 72.105117679311675 26.156421388677245 0 0 0 0 -71.806123153012777 27.867023170173525 0 27.867023170173525 61.180145776964537 0 0 0 0 258.82691925300605 -39.533588925750337 0 -39.533588925750337 109.10677206276 0 0 0 0 -74.229260999298276 39.285539235483725 0 39.285539235483725 36.15862834339805 0 0 0 0 92.998460115997659 -68.261906132278909 0 -68.261906132278909 -101.78360191866659 0 0 0 0 60.88042474001486 -43.16028678779027 0 -43.16028678779027 -19.10327078882699 0 0 0 0 -2.7230469414827319 -5.8472150217473704 0 -5.8472150217473704 -10.212920070883344 0 0 0 0 53.38096173564918 -9.9877950179970867 0 -9.9877950179970867 -24.166483711006094 0 0 0 0 22.84201616714563 -25.039606938860288 0 -25.039606938860288 -5.2030207915853453 0 0 0 0 25.893863810567382 -46.10780227003238 0 -46.10780227003238 -1.0691314422647906 0 0 0 0 62.28875938728288 -19.139651046797269 0 -19.139651046797269 -22.90751907297772 0 0 0 0 -2.9804134492113743 -6.2749936615883009 0 -6.2749936615883009 -11.605986446724504 0 0 0 0 51.976936008540065 -11.452045232318696 0 -11.452045232318696 -32.068809972320878 0 0 0 0 23.745212779451322 0.532838953944065 0 0.532838953944065 -5.2867852059116558 0 0 0 0 52.961175557056777 -4.6650279418449827 0 -4.6650279418449827 -15.856179796077811 0 0 0 0 -3.3260847373955187 -7.116520711865995 0 -7.116520711865995 -11.185758869312156 0 0 0 0 25.197103820654775 -2.689671153067934 0 -2.689671153067934 -8.3864562378448682 0 0 0 0 3.47861207211281 -20.247868583746765 0 -20.247868583746765 -3.5457880430793693 0 0 0 0 -5.7379187292299321 -17.719404700491964 0 -17.719404700491964 3.0568215278688058 0 0 0 0 -5.0811959413004679 -9.1282374387641596 0 -9.1282374387641596 -10.165889332887552 0 0 0 0 -12.09959090238317 -9.690510186195354 0 -9.690510186195354 -2.0568097141808721 0 0 0 0 26.174857961264934 -69.82082829193314 0 -69.82082829193314 -12.17162234735315 0 0 0 0 54.350028072815576 -8.3806004892558121 0 -8.3806004892558121 -41.377789634551846 0 0 0 0 -1.8638547022841685 -3.7038642464814462 0 -3.7038642464814462 -7.7005959112558386 0 0 0 0 -19.733932345548965 0.40451614800360858 0 0.40451614800360858 -0.74192759629022476 0 0 0 0 -3.7147823928298749 -9.1297611464946442 0 -9.1297611464946442 -4.5164347695656417 0 0 0 0 -13.096998921437262 -12.283573763726366 0 -12.283573763726366 -3.2949924335961214 0 0 0 0 -13.244778813620997 -6.7730948166558953 0 -6.7730948166558953 2.5336204366614652 0 0 0 0 -15.979911261780217 -12.183075993066012 0 -12.183075993066012 5.6779491142337832 0 0 0 0 0.51312069957349848 -0.88549679087379829 0 -0.88549679087379829 1.0086518061175831 0 0 0 0 0.35841719092336177 -0.81472616157292599 0 -0.81472616157292599 1.5225728637433891 0 0 0 0 -51.465739671763913 -62.382070999490878 0 -62.382070999490878 -43.678608912771779 0 0 0 0 -33.684113356421676 -22.700933960132062 0 -22.700933960132062 -13.640234699697658 0 0 0 0 13.882990120146133 -32.193091482793648 0 -32.193091482793648 -39.659767412938351 0 0 0 0 21.517385089504387 -40.936533338571166 0 -40.936533338571166 -39.672293667009853 0 0 0 0 25.862933696120308 -19.328474342284949 0 -19.328474342284949 -21.755903127600504 0 0 0 0 24.29895593540823 -14.871553476940335 0 -14.871553476940335 -34.214382682002366 0 0 0 0 45.080767175581059 -0.70282217338683495 0 -0.70282217338683495 -17.066253558575681 0 0 0 0 16.723607668313889 -13.040620988854243 0 -13.040620988854243 -29.918611746685514 0 0 0 0 -50.044362595512212 -26.751002093904731 0 -26.751002093904731 -16.396952588151294 0 0 0 0 -12.672032977869094 -51.836861081122208 0 -51.836861081122208 -35.662791636041675 0 0 0 0 -80.899213143645284 -77.228953732254979 0 -77.228953732254979 -36.925226575833904 0 0 0 0 -0.8390492118178372 -74.306789119193581 0 -74.306789119193581 -54.884625869829506 0 0 0 0 -67.654936887053736 -43.167201864803246 0 -43.167201864803246 -22.500422893030873 0 0 0 0 -0.63360182383267016 -1.098438268904669 0 -1.098438268904669 1.2185579192358178 0 0 0 0 -124.28983764130226 -95.672820901554019 0 -95.672820901554019 -22.630975155611395 0 0 0 0 -127.13957503879863 -50.089252916151153 0 -50.089252916151153 -8.5084985181683805 0 0 0 0 -211.44238911733373 -47.55047323706026 0 -47.55047323706026 100.03288077393563 0 0 0 0 -94.181716420666817 7.5437619833505778 0 7.5437619833505778 -140.5719238713541 0 0 0 0 -0.7234548546547579 -1.1548776388619792 0 -1.1548776388619792 -1.1899520515605211 0 0 0 0 -313.07937738917644 -27.986157493057135 0 -27.986157493057135 2.296205464119339 0 0 0 0 -202.34550993919675 -189.2405432804162 0 -189.2405432804162 -38.372292027910589 0 0 0 0 -33.615251398962755 -64.668553974387464 0 -64.668553974387464 -22.508373034928354 0 0 0 0 117.24842625491874 5.0882796893254181 0 5.0882796893254181 -61.289751984554186 0 0 0 0 -26.999111539391379 -77.630181019182373 0 -77.630181019182373 -52.221910627804846 0 0 0 0 18.915477488202669 2.2307972883399998 0 2.2307972883399998 104.35290978002377 0 0 0 0 -50.710901759319313 -111.69682544996351 0 -111.69682544996351 154.28353562058328 0 0 0 0 18.853282744937303 5.6874812872209084 0 5.6874812872209084 45.742408980517666 0 0 0 0 37.769774375441557 2.4721947992989044 0 2.4721947992989044 6.8942982214826145 0 0 0 0 33.299850914946546 -35.962471621119789 0 -35.962471621119789 1.7291281727498244 0 0 0 0 33.80085283311746 -7.1482143282210018 0 -7.1482143282210018 46.407964857761726 0 0 0 0 62.257596698780617 13.387120687867991 0 13.387120687867991 50.980408954777545 0 0 0 0 39.197131823530071 -15.32827521044544 0 -15.32827521044544 23.045959106006649 0 0 0 0 120.15943814435423 -41.372412367842514 0 -41.372412367842514 29.63305873466652 0 0 0 0 69.076427771778981 16.092802615533401 0 16.092802615533401 14.517511176663902 0 0 0 0 -4.2833670490763325 -3.2197582950270771 0 -3.2197582950270771 13.261315979449051 0 0 0 0 91.184276449234858 38.972307112942076 0 38.972307112942076 -18.072190464653431 0 0 0 0 63.489861966205353 -128.67950443648078 0 -128.67950443648078 196.67884491842551 0 0 0 0 171.49719749182987 17.445477876969107 0 17.445477876969107 -376.91510581079319 0 0 0 0 1.1916600416548917 -0.18965268090311405 0 -0.18965268090311405 -0.1707380387867512 0 0 0 0 -84.155677116952575 48.085724446938002 0 48.085724446938002 -13.86328136805696 0 0 0 0 1.3594756831631969 -0.24897276378988309 0 -0.24897276378988309 -0.11835822714086275 0 0 0 0 28.583399045977785 -45.869452783898851 0 -45.869452783898851 69.890827612917064 0 0 0 0 153.24402564750926 -136.33275840684382 0 -136.33275840684382 -214.50225347669584 0 0 0 0 201.72044098049446 2.9675950968812685 0 2.9675950968812685 -93.02455554187145 0 0 0 0 8.1294593232378247 143.38384060802036 0 143.38384060802036 -168.77739085387759 0 0 0 0 0.20642401521217835 -6.488430510352714 0 -6.488430510352714 34.518010032888469 0 0 0 0 38.617019967030501 -25.342157657408279 0 -25.342157657408279 65.873358230667918 0 0 0 0 31.607291544210966 -40.039729945134013 0 -40.039729945134013 38.982380503584864 0 0 0 0 9.408748104418919 8.3018128866447114 0 8.3018128866447114 -3.6749231253975267 0 0 0 0 15.934058685483251 -41.502199238062985 0 -41.502199238062985 67.087477286480862 0 0 0 0 18.140244349957584 -27.701197091341683 0 -27.701197091341683 10.532966026130907 0 0 0 0 -17.739905111688131 -67.343125100528596 0 -67.343125100528596 -103.77090914848122 0 0 0 0 7.4663325618712406 2.3658470101458988 0 2.3658470101458988 -0.11354672450966063 0 0 0 0 2.2733342575157991 -0.89745448317487941 0 -0.89745448317487941 0.14464948227413732 0 0 0 0 19.18395783402957 -0.16163390355632146 0 -0.16163390355632146 -3.4917782498487213 0 0 0 0 -126.82113200525782 -27.148460315118427 0 -27.148460315118427 2.4389650125212938 0 0 0 0 -2.7724743669623422 9.5754869957249866 0 9.5754869957249866 0.67375591282825553 0 0 0 0 -11.81767967697624 -5.7162912608896477 0 -5.7162912608896477 5.1894318942122482 0 0 0 0 -46.565786335295343 98.134500488094773 0 98.134500488094773 88.991426168742805 0 0 0 0 0.58632477948649608 -0.78629348163080159 0 -0.78629348163080159 1.5379989318390361 0 0 0 0 -5.3287387724867585 -23.713867212114963 0 -23.713867212114963 22.101391435297955 0 0 0 0 4.2094846710388083 -25.166996799746812 0 -25.166996799746812 3.8808627053338114 0 0 0 0 -14.64639743524458 -31.271664319255251 0 -31.271664319255251 15.117697530998839 0 0 0 0 -13.982779304086307 -20.244808345730558 0 -20.244808345730558 -4.0687632907788611 0 0 0 0 -15.345509156675689 -23.023728331141228 0 -23.023728331141228 1.0364482931004204 0 0 0 0 -13.952932347776368 -21.37287188567916 0 -21.37287188567916 2.4399493731571056 0 0 0 0 -14.545889129090938 -16.452394885166086 0 -16.452394885166086 -3.1733951570708996 0 0 0 0 -5.6504065618231678 -7.5688166995197577 0 -7.5688166995197577 1.1397458001644658 0 0 0 0 -1.7434338916291381 -13.504469825752153 0 -13.504469825752153 -6.7183216092612383 0 0 0 0 -26.592445532558486 -15.20658942933278 0 -15.20658942933278 -0.5065691618603978 0 0 0 0 3.0029881126101827 -10.89597499558522 0 -10.89597499558522 12.162792606771518 0 0 0 0 -1.4280132152587939 -1.8367402966720583 0 -1.8367402966720583 1.5060969253996852 0 0 0 0 1.3838373310085643 -1.6156020434702429 0 -1.6156020434702429 -1.9023774864214444 0 0 0 0 -1.6131279738801823 -11.596701697262915 0 -11.596701697262915 29.02231492138435 0 0 0 0 20.804519141580386 -1.9302352483648519 0 -1.9302352483648519 -6.1532464069503021 0 0 0 0 22.057902237673261 -5.7325794579990088 0 -5.7325794579990088 -10.860342979724692 0 0 0 0 86.898953798679941 -38.44867361015713 0 -38.44867361015713 15.918581586708342 0 0 0 0 72.549680017498758 30.394327284509927 0 30.394327284509927 -6.6271936464481769 0 0 0 0 127.02602571186981 12.764789447370504 0 12.764789447370504 34.355507608999233 0 0 0 0 34.112507764903057 -0.1104202294515062 0 -0.1104202294515062 89.984127206593257 0 0 0 0 14.454086953179285 -50.113402288307725 0 -50.113402288307725 114.95099334973929 0 0 0 0 5.9303382538755613 -19.769698821269571 0 -19.769698821269571 23.218320139759726 0 0 0 0 1.0234976318170084 -24.239250772040577 0 -24.239250772040577 21.782713451521658 0 0 0 0 0.86491821346560016 0.018053074885638676 0 0.018053074885638676 -0.12534961784830356 0 0 0 0 -0.82766885170212845 -38.79114291906825 0 -38.79114291906825 37.839578943474862 0 0 0 0 29.283690355287035 -63.569384369708359 0 -63.569384369708359 -0.022968954599036806 0 0 0 0 16.913252816106251 -38.694656266691254 0 -38.694656266691254 -25.196693649634199 0 0 0 0 25.256822319646744 -22.510977397636907 0 -22.510977397636907 22.228759918068363 0 0 0 0 23.499944174043776 -9.6689437530362738 0 -9.6689437530362738 5.009096140877773 0 0 0 0 29.683796001876544 -28.228987071804568 0 -28.228987071804568 -33.358387796300121 0 0 0 0 2.4022392495328972 -0.10937644545112946 0 -0.10937644545112946 -0.37662168396703954 0 0 0 0 -46.902072345548277 -58.34008449131926 0 -58.34008449131926 -28.485830251591324 0 0 0 0 21.464824046173817 -20.527554088408351 0 -20.527554088408351 -134.29210389941545 0 0 0 0 4.4290035275917035 -33.364112154661825 0 -33.364112154661825 -23.859587903544821 0 0 0 0 11.10640291491336 -29.579620963048342 0 -29.579620963048342 -36.992259171882324 0 0 0 0 8.182785599021372 -29.867336757581597 0 -29.867336757581597 -11.992317806934807 0 0 0 0 2.8238235961598548 -42.694148157800441 0 -42.694148157800441 6.1468258799768591 0 0 0 0 -3.5974471038161937 -32.485639607764369 0 -32.485639607764369 -9.3201492023440551 0 0 0 0 -0.87873463811183683 -35.836383749260222 0 -35.836383749260222 1.8667063547509315 0 0 0 0 -13.956220372923781 -24.770237158555574 0 -24.770237158555574 2.6992674390244247 0 0 0 0 -3.6699041917307795 -6.7225990461917036 0 -6.7225990461917036 9.0638588840520242 0 0 0 0 8.2381634205285081 -6.3403262831134271 0 -6.3403262831134271 3.7002535705260016 0 0 0 0 -2.0458663328292914 -15.93307510647827 0 -15.93307510647827 4.843931628075552 0 0 0 0 13.337406105975361 -10.076772371415247 0 -10.076772371415247 3.5611351599427667 0 0 0 0 -0.79230937607235319 -1.2424192343503364 0 -1.2424192343503364 5.8842941179746049 0 0 0 0 0.79212390417660572 1.2947756510075124 0 1.2947756510075124 9.3525555328687915 0 0 0 0 6.4370270391288305 -6.8319449604736455 0 -6.8319449604736455 7.5343984399773483 0 0 0 0 -40.83797368731166 -1.592223758511409 0 -1.592223758511409 16.798422783979731 0 0 0 0 -23.63098154803356 -24.680290183708848 0 -24.680290183708848 1.1350467036154441 0 0 0 0 -30.423649123601535 -13.665402914090919 0 -13.665402914090919 22.863703791083481 0 0 0 0 -15.701238359733907 -15.710408988330528 0 -15.710408988330528 1.7908330832160573 0 0 0 0 5.3991726420044941 -7.5192013237732382 0 -7.5192013237732382 9.6062691886289429 0 0 0 0 -6.0597768294264824 -26.905566912595077 0 -26.905566912595077 2.4592787386791315 0 0 0 0 0.61644021952884032 -14.426008447108984 0 -14.426008447108984 5.1752715019028983 0 0 0 0 1.9623682503497548 -19.7564134205968 0 -19.7564134205968 -9.7069501719697655 0 0 0 0 -13.454053697023937 -23.268896070997954 0 -23.268896070997954 -1.5741892820983594 0 0 0 0 -5.1554751540434154 -24.88670632617459 0 -24.88670632617459 -26.83176919113248 0 0 0 0 9.8445416697708161 -9.6893680740904742 0 -9.6893680740904742 2.8633888713949691 0 0 0 0 2.5576507805226232 -1.3114573912670178 0 -1.3114573912670178 0.54884495199765304 0 0 0 0 -24.241857598623028 -36.465056277033 0 -36.465056277033 46.12439800230004 0 0 0 0 -15.780461971123259 -41.97772355585812 0 -41.97772355585812 12.985774535857445 0 0 0 0 3.1823971052153546 -11.551617465678506 0 -11.551617465678506 8.8496232910405581 0 0 0 0 -10.340187881336078 -24.467817225544422 0 -24.467817225544422 11.276459996186531 0 0 0 0 -15.900845856628848 -17.008986214273705 0 -17.008986214273705 -35.453793492808472 0 0 0 0 -31.639760099591058 -20.269580706466627 0 -20.269580706466627 4.0650270386017837 0 0 0 0 -18.969884503901994 -23.761699314110956 0 -23.761699314110956 3.0477840105268115 0 0 0 0 -1.2219619978086484 -15.748701934603162 0 -15.748701934603162 -1.440512842226326 0 0 0 0 -1.9604416562875002 -9.9295878902389347 0 -9.9295878902389347 5.2238001381944033 0 0 0 0 19.045792323147225 -22.810131131862022 0 -22.810131131862022 10.966264349237463 0 0 0 0 0.48625742093155822 -19.398729379815407 0 -19.398729379815407 3.812792260328119 0 0 0 0 7.0524489726558386 -16.515027916384611 0 -16.515027916384611 3.7408356079804435 0 0 0 0 -14.329208380419809 -25.69481429268868 0 -25.69481429268868 -5.2873808131976485 0 0 0 0 7.8047294524731523 -17.633601960897213 0 -17.633601960897213 5.4004316375848056 0 0 0 0 7.5560874228522152 -17.076470046540635 0 -17.076470046540635 3.3096533171963074 0 0 0 0 -3.5407578229981524 -22.286230432899067 0 -22.286230432899067 3.0011995819061958 0 0 0 0 -1.2144103687833763 -15.89188939526845 0 -15.89188939526845 0.93457395686766631 0 0 0 0 -10.755635323384922 -19.775172594151854 0 -19.775172594151854 -4.0044719011010557 0 0 0 0 -6.4896521439933448 -12.832593516601969 0 -12.832593516601969 -4.6783460516526389 0 0 0 0 40.713414011240275 -43.813185972738552 0 -43.813185972738552 -31.610854593339525 0 0 0 0 24.060016666277761 2.9428921117105062 0 2.9428921117105062 -109.95059153678631 0 0 0 0 -7.802509027600081 -24.866638866876954 0 -24.866638866876954 -22.943682069431844 0 0 0 0 31.292202380607705 -4.6818255359847711 0 -4.6818255359847711 -45.315227528824479 0 0 0 0 51.845048335710999 -38.399871174363852 0 -38.399871174363852 4.4867362009525777 0 0 0 0 49.353321571767538 -30.874312025148981 0 -30.874312025148981 -10.358822958556857 0 0 0 0 48.849907547180919 -34.195014023825863 0 -34.195014023825863 -17.817187838051012 0 0 0 0 -10.563288119679717 -16.189644758090118 0 -16.189644758090118 -1.2888253836557959 0 0 0 0 0.15404326306138927 -11.965514813812032 0 -11.965514813812032 -9.014044605793309 0 0 0 0 51.834204696990128 -76.490684549764353 0 -76.490684549764353 44.454666800083487 0 0 0 0 -14.44195212654836 -14.56557336802819 0 -14.56557336802819 -11.666040746456463 0 0 0 0 100.10601064903858 -132.08605115781734 0 -132.08605115781734 7.5300317941938602 0 0 0 0 -6.8034198075418608 -5.3776372570505444 0 -5.3776372570505444 -2.402739476086559 0 0 0 0 20.276894379779151 -59.024339568725736 0 -59.024339568725736 39.196944099645407 0 0 0 0 24.240827428961893 -41.377921374772086 0 -41.377921374772086 2.342153605492058 0 0 0 0 -80.800760697228725 9.9161160224593914 0 9.9161160224593914 87.531948060510331 0 0 0 0 132.87186327852487 -76.067089100066823 0 -76.067089100066823 -12.318139747453188 0 0 0 0 66.934139367935131 -109.05770718353165 0 -109.05770718353165 -17.016409518224464 0 0 0 0 65.817364545127248 -51.725668387588428 0 -51.725668387588428 -67.074522101252342 0 0 0 0 24.693933807364374 -105.32275690857023 0 -105.32275690857023 -107.20515874383011 0 0 0 0 50.157568754389786 -52.76146851661764 0 -52.76146851661764 -2.5304955402680207 0 0 0 0 103.99195033806427 -25.487479849346073 0 -25.487479849346073 50.584117904071718 0 0 0 0 62.378024185990398 -77.461310975874994 0 -77.461310975874994 -12.566949053926237 0 0 0 0 -32.432579697890105 -108.65200724002443 0 -108.65200724002443 138.74867091801028 0 0 0 0 -19.529714522207033 -15.044062170790259 0 -15.044062170790259 -10.464656807226783 0 0 0 0 48.99594917897798 -82.767958924049253 0 -82.767958924049253 -107.07756898278785 0 0 0 0 -47.38890899884791 -101.65801277892888 0 -101.65801277892888 86.425417355368609 0 0 0 0 6.9829238631118642 -48.50567043981755 0 -48.50567043981755 138.16758267126534 0 0 0 0 81.38088427445382 -11.199029564421835 0 -11.199029564421835 7.5751914963857416 0 0 0 0 36.531049043219355 -1.5396047383883342 0 -1.5396047383883342 61.657996341111357 0 0 0 0 -16.129428043491245 -34.507898484278869 0 -34.507898484278869 38.61632716166605 0 0 0 0 -0.73171370864565688 -42.240587211002094 0 -42.240587211002094 35.040287236179211 0 0 0 0 0.17321139042360301 -31.604022873911163 0 -31.604022873911163 70.643161531970691 0 0 0 0 -1.3636276890247245 -31.460511108267383 0 -31.460511108267383 38.154597896871564 0 0 0 0 2.3569269332401745 -14.638189699066061 0 -14.638189699066061 25.995008347810199 0 0 0 0 -26.027833483561153 -19.617162311877109 0 -19.617162311877109 26.57516148389368 0 0 0 0 -42.683946646175173 -67.838144589127296 0 -67.838144589127296 -21.97932911220903 0 0 0 0 19.698358154538255 -52.950445200641298 0 -52.950445200641298 -23.783490217714643 0 0 0 0 -49.674544471330591 -21.98632374562203 0 -21.98632374562203 0.99249009728475812 0 0 0 0 71.078345339480734 -75.669230282613569 0 -75.669230282613569 -33.828032773257291 0 0 0 0 -1.0170380577778246 -1.3745497584215389 0 -1.3745497584215389 -1.7592612207016742 0 0 0 0 21.625714128525942 -48.810037225395718 0 -48.810037225395718 -15.554611848490822 0 0 0 0 64.954809955443125 -26.718595873234335 0 -26.718595873234335 -5.0941820109474065 0 0 0 0 60.399509816265891 -69.473041170480428 0 -69.473041170480428 -47.528466168689192 0 0 0 0 32.502573547550128 -93.866594094216907 0 -93.866594094216907 -40.964783292836728 0 0 0 0 -198.19342458774281 72.732138616270277 0 72.732138616270277 187.57905007015688 0 0 0 0 110.77165212173531 -132.06949658663598 0 -132.06949658663598 -343.11299060578858 0 0 0 0 -10.292136289885093 -35.175345802828133 0 -35.175345802828133 48.655052275396628 0 0 0 0 -31.814124921834264 -8.0597841822284408 0 -8.0597841822284408 46.294751397522873 0 0 0 0 -17.474145799631238 -14.105155226254798 0 -14.105155226254798 -10.742065765943682 0 0 0 0 -13.343083867544919 -22.422895024370291 0 -22.422895024370291 14.566716376827571 0 0 0 0 -43.179754536538894 28.705948182787665 0 28.705948182787665 -2.9102312206741772 0 0 0 0 -14.492152472092585 -12.012076207108976 0 -12.012076207108976 26.705126081813205 0 0 0 0 8.2655281636507425 -142.88684629812747 0 -142.88684629812747 102.45479130031026 0 0 0 0 -122.37376135295926 -51.83399158675843 0 -51.83399158675843 75.36730470476482 0 0 0 0 -38.32872192834111 -48.841365013058294 0 -48.841365013058294 54.329418769028962 0 0 0 0 -47.157559899374974 -63.35474511770326 0 -63.35474511770326 79.137473115564205 0 0 0 0 -6.8515878758134932 -123.45558801496963 0 -123.45558801496963 71.577610449254053 0 0 0 0 56.170710556991253 -71.631584506394347 0 -71.631584506394347 54.493380604547838 0 0 0 0 -2.1872599326409272 -5.8323524943571101 0 -5.8323524943571101 24.402788204341959 0 0 0 0 10.994884102844537 -20.631314896539152 0 -20.631314896539152 8.3573952160750196 0 0 0 0 -12.43838004338695 -25.350798947332578 0 -25.350798947332578 7.4673384071938926 0 0 0 0 -13.828320041796587 -17.323643741885917 0 -17.323643741885917 16.33317632167109 0 0 0 0 -17.196309538929199 -18.419708899954912 0 -18.419708899954912 28.79332574514126 0 0 0 0 -12.152009487739178 -14.765731135504438 0 -14.765731135504438 13.813152662879475 0 0 0 0 -14.664913114840147 -12.441328110083305 0 -12.441328110083305 30.190666724231477 0 0 0 0 -7.4319457666823681 -3.1753058178949898 0 -3.1753058178949898 -1.6205291951736049 0 0 0 0 -4.8817847610071112 -15.931348172471417 0 -15.931348172471417 24.817042368106769 0 0 0 0 -15.74203234370566 -13.540827189269919 0 -13.540827189269919 30.548551507738864 0 0 0 0 -18.285243871588477 -1.3154180823962349 0 -1.3154180823962349 20.506792808642672 0 0 0 0 9.4215069291883538 -25.170681111499078 0 -25.170681111499078 -28.05959369999988 0 0 0 0 -54.073246019298949 -48.549845387373338 0 -48.549845387373338 -28.02295863366199 0 0 0 0 -39.071830981787116 -30.324865809829916 0 -30.324865809829916 4.2511894691107841 0 0 0 0 -12.940670572536419 -12.669680263446395 0 -12.669680263446395 -3.9162918309821464 0 0 0 0 -198.44498504395142 -138.79204036430019 0 -138.79204036430019 -47.820734091736085 0 0 0 0 -1.5795445028652466 -70.399694561251863 0 -70.399694561251863 -249.71810681185923 0 0 0 0 0.97410121382017678 -43.224489041158904 0 -43.224489041158904 -64.172761435030225 0 0 0 0 -100.70418776045335 -43.562156962610345 0 -43.562156962610345 44.588849756657964 0 0 0 0 -32.18684845070311 -75.193718603763386 0 -75.193718603763386 36.742226615061327 0 0 0 0 -27.836963089097026 -69.432616740317627 0 -69.432616740317627 -57.149899071068631 0 0 0 0 -2.7972504842967965 -1.0465676783059905 0 -1.0465676783059905 -0.22691953677855325 0 0 0 0 -130.50458379819975 48.825852636988202 0 48.825852636988202 3.6156951424379713 0 0 0 0 0.33185017439369524 -0.33978114825731076 0 -0.33978114825731076 0.045420348382443965 0 0 0 0 -58.949154785786504 -40.276457697038722 0 -40.276457697038722 11.60970384123582 0 0 0 0 -202.84292638464194 -80.908821967275003 0 -80.908821967275003 12.101607274952073 0 0 0 0 -67.204973510344644 82.250207771949732 0 82.250207771949732 -163.14563684397717 0 0 0 0 -28.840951480464355 3.9663282413940806 0 3.9663282413940806 -33.027822571354903 0 0 0 0 -33.623160819820441 10.628150914842408 0 10.628150914842408 -31.880179390555114 0 0 0 0 -65.317394032255265 -82.491024160849136 0 -82.491024160849136 -64.220574422942036 0 0 0 0 -79.396970902097564 -19.946247868046459 0 -19.946247868046459 -0.96745106977996898 0 0 0 0 -12.468968363296426 -39.116671837069219 0 -39.116671837069219 -34.351383799592725 0 0 0 0 -32.440948840658166 -20.857770106929422 0 -20.857770106929422 -44.725175530005288 0 0 0 0 -59.338838458108285 -32.893133885335885 0 -32.893133885335885 -18.238500380811445 0 0 0 0 -27.519362535763321 -36.325987375554064 0 -36.325987375554064 -25.388971721771838 0 0 0 0 -34.97321364918389 -17.126151211338936 0 -17.126151211338936 5.8931008074155216 0 0 0 0 -17.665445285396231 -1.5698660657092631 0 -1.5698660657092631 4.0208121918407187 0 0 0 0 16.138324193472272 -10.609487829200063 0 -10.609487829200063 -10.495387226891552 0 0 0 0 -24.279587374735911 -34.214063525672714 0 -34.214063525672714 -25.813284551315689 0 0 0 0 -18.480896814589869 -59.108446127965038 0 -59.108446127965038 -15.205687610086663 0 0 0 0 -13.98545674175557 -26.56591802414647 0 -26.56591802414647 -25.418126448310204 0 0 0 0 -20.558218649467562 -41.755703613297484 0 -41.755703613297484 -47.410087362780942 0 0 0 0 -62.261030781954105 -74.560202679761886 0 -74.560202679761886 -44.181975671967209 0 0 0 0 0.55411392715922148 -0.68277977899725784 0 -0.68277977899725784 0.35897801024824938 0 0 0 0 -44.226721919218107 -62.459478952393617 0 -62.459478952393617 -49.287248254214944 0 0 0 0 1.2297500090598987 -73.947045370889072 0 -73.947045370889072 -75.839209767842533 0 0 0 0 -31.846367449678382 -30.88790778832459 0 -30.88790778832459 -71.50717827491053 0 0 0 0 0.39432542746822108 -0.34966724951419925 0 -0.34966724951419925 0.070013298372058941 0 0 0 0 -37.620690099080534 -40.553000339382528 0 -40.553000339382528 19.897778161704082 0 0 0 0 -13.165780876149711 -61.979627052298895 0 -61.979627052298895 25.116839549512861 0 0 0 0 -35.78616751539198 -45.465801925238097 0 -45.465801925238097 14.405759931361445 0 0 0 0 -35.889164411777529 -36.917417339656652 0 -36.917417339656652 3.7022415733111984 0 0 0 0 -29.690696922670213 -28.429140754737318 0 -28.429140754737318 8.2840018095237724 0 0 0 0 -36.610805704117865 -14.7230323326649 0 -14.7230323326649 -29.949989298748449 0 0 0 0 -27.918666094652963 -25.481242526149458 0 -25.481242526149458 13.612623759338931 0 0 0 0 -17.635974773707403 -25.631524460366222 0 -25.631524460366222 8.7542274062348042 0 0 0 0 -12.953384627299783 -21.304513512618996 0 -21.304513512618996 12.737711271923217 0 0 0 0 -25.766158337000888 -35.764219494428687 0 -35.764219494428687 8.2594081690494932 0 0 0 0 -10.525671074072307 -34.059016301760892 0 -34.059016301760892 6.889204152117145 0 0 0 0 -20.407573371075614 -32.410872250515126 0 -32.410872250515126 9.9830390124275254 0 0 0 0 -10.065550035841625 -51.729917517774652 0 -51.729917517774652 15.041335427714557 0 0 0 0 7.662826759177733 -50.407692275266641 0 -50.407692275266641 -6.3040379485591984 0 0 0 0 27.627747137570623 -12.70537057613933 0 -12.70537057613933 22.892226020219027 0 0 0 0 10.570021726402501 2.5356060804279821 0 2.5356060804279821 13.948917478390172 0 0 0 0 -12.780214288776733 -10.725061775026063 0 -10.725061775026063 23.095383637324289 0 0 0 0 -5.1959114437509015 -14.918721798071431 0 -14.918721798071431 -1.2164105123827085 0 0 0 0 -38.07175229496363 -17.130841625367786 0 -17.130841625367786 3.4491583356577848 0 0 0 0 -25.276850720705625 -26.098279540208409 0 -26.098279540208409 9.6156038619379842 0 0 0 0 -5.890909493815343 -11.724837275229447 0 -11.724837275229447 13.067684195774291 0 0 0 0 -28.720637359106149 -10.636998062313864 0 -10.636998062313864 16.373481289603092 0 0 0 0 -21.530776167552176 -15.284133590941678 0 -15.284133590941678 18.094044994765113 0 0 0 0 -17.949778194074497 -17.649483882262643 0 -17.649483882262643 11.957838437867025 0 0 0 0 -14.101256310429562 -19.691128715370496 0 -19.691128715370496 10.480773127958344 0 0 0 0 -11.275239715452017 -11.697096274733184 0 -11.697096274733184 15.518091846544166 0 0 0 0 -4.5151777366236274 -11.410270202913807 0 -11.410270202913807 13.874525723005945 0 0 0 0 13.374767937072116 -10.35462743147448 0 -10.35462743147448 2.4217754176207071 0 0 0 0 19.709645201146941 9.0997542295202152 0 9.0997542295202152 15.85825512952124 0 0 0 0 9.6526506605023314 -7.530670175279738 0 -7.530670175279738 12.030213936223618 0 0 0 0 -6.2862469614074143 -6.6619492951589336 0 -6.6619492951589336 18.463918707138873 0 0 0 0 8.2842910036171133 1.0404732430143326 0 1.0404732430143326 16.878866085315167 0 0 0 0 -8.5247454898394608 -10.204155311775366 0 -10.204155311775366 23.496862830280179 0 0 0 0 4.0307573290847358 -0.34700100762029251 0 -0.34700100762029251 18.60643873484878 0 0 0 0 8.3498986954427892 -2.1125838499283418 0 -2.1125838499283418 15.164920007081946 0 0 0 0 8.7588771429310839 5.1880629148651671 0 5.1880629148651671 26.02950822598541 0 0 0 0 -0.80525960975030575 0.052123212165068544 0 0.052123212165068544 2.3133255665975234 0 0 0 0 -26.79274889217595 -7.4102904393225799 0 -7.4102904393225799 22.516676888309121 0 0 0 0 -2.6583686805197431 108.34258129573391 0 108.34258129573391 -17.865731706544466 0 0 0 0 -29.084941860104664 -10.759842734102222 0 -10.759842734102222 9.2003743689001567 0 0 0 0 -26.699703513729219 -9.26087835627186 0 -9.26087835627186 4.0734082773751652 0 0 0 0 -37.261537262300408 -12.234437099615207 0 -12.234437099615207 9.4837365990529179 0 0 0 0 -25.472615031137138 -17.860733566766612 0 -17.860733566766612 -7.6080887180405625 0 0 0 0 -24.597893945149735 -9.2485337572511526 0 -9.2485337572511526 -8.7668542899882596 0 0 0 0 -22.923122798898476 -19.084709651180219 0 -19.084709651180219 -14.265233946319995 0 0 0 0 11.777034962118439 -12.165384137154444 0 -12.165384137154444 5.5434871983328105 0 0 0 0 4.9436513213772511 -1.8555118960553756 0 -1.8555118960553756 3.7323288165031947 0 0 0 0 42.272149120024096 22.737482054841969 0 22.737482054841969 9.3188642086578284 0 0 0 0 -17.986900544745367 -24.451736840984722 0 -24.451736840984722 -8.9825711235152994 0 0 0 0 79.762470448335534 -50.545828391674604 0 -50.545828391674604 18.153234013262647 0 0 0 0 -27.388102989403706 -36.045121283342951 0 -36.045121283342951 -4.859254556605265 0 0 0 0 -29.383835927922519 -30.922839142154317 0 -30.922839142154317 -3.7321884697837504 0 0 0 0 -18.176671027373231 -33.501513515078386 0 -33.501513515078386 -4.5762444187587334 0 0 0 0 -41.837702648384948 -27.965249037589274 0 -27.965249037589274 3.7444371382516692 0 0 0 0 -26.751347596058622 -26.853979287542188 0 -26.853979287542188 1.224775173130638 0 0 0 0 -42.019656327556731 -9.0865826142930928 0 -9.0865826142930928 12.666417892658956 0 0 0 0 -48.110795220956788 -24.081204584470015 0 -24.081204584470015 10.019827555082884 0 0 0 0 -46.664217172788995 -27.32573236350504 0 -27.32573236350504 16.384848171287558 0 0 0 0 -41.056205282915471 -30.131220495523621 0 -30.131220495523621 8.5546539810602553 0 0 0 0 -42.309872579280409 -36.852516668139174 0 -36.852516668139174 8.3409525275146734 0 0 0 0 -25.23387981956148 -30.097625833643633 0 -30.097625833643633 13.595467319110867 0 0 0 0 -37.163373235784093 -39.884109010311022 0 -39.884109010311022 8.9931502658096178 0 0 0 0 -31.637460145632758 -27.76172602246595 0 -27.76172602246595 14.390233056933539 0 0 0 0 -32.896016875476562 -32.516171861640942 0 -32.516171861640942 14.336493315353437 0 0 0 0 -26.151587850237775 -14.862752462202025 0 -14.862752462202025 30.823574612683842 0 0 0 0 -33.191529606048789 -25.898106931752864 0 -25.898106931752864 2.7856064567049543 0 0 0 0 -43.557247469492722 -36.949457892134888 0 -36.949457892134888 10.437662180059533 0 0 0 0 -38.600207129300543 -41.645721262220377 0 -41.645721262220377 2.5047886994698274 0 0 0 0 -18.706203908597672 51.163813907606709 0 51.163813907606709 83.368271995433133 0 0 0 0 -57.984154249183121 -6.6134336551676824 0 -6.6134336551676824 72.674344350940032 0 0 0 0 -34.024808216541601 2.3549259032900451 0 2.3549259032900451 32.088677626687968 0 0 0 0 20.291975422871474 6.9203165647038531 0 6.9203165647038531 20.88034366080592 0 0 0 0 -17.362531973654768 -18.905383518995677 0 -18.905383518995677 -13.466570389755361 0 0 0 0 -16.629847063822126 -22.439645759105133 0 -22.439645759105133 22.826661395679281 0 0 0 0 -33.904483324337889 -86.851358853482452 0 -86.851358853482452 55.408678689707955 0 0 0 0 77.367744487806704 -46.402336193726569 0 -46.402336193726569 21.627559286841461 0 0 0 0 -55.389295839450824 22.405156396634084 0 22.405156396634084 -28.756878491901603 0 0 0 0 0.76939234307381099 -0.35367415977679117 0 -0.35367415977679117 -0.92351324421156189 0 0 0 0 34.721127768395945 -107.47127517006084 0 -107.47127517006084 53.557756457591495 0 0 0 0 -43.565990604422041 -48.836490799849571 0 -48.836490799849571 -4.0731856737675116 0 0 0 0 -80.064193554591839 -28.53705247871676 0 -28.53705247871676 8.4465990502581008 0 0 0 0 -16.287051212952065 -41.134258710852919 0 -41.134258710852919 -2.8113092284174854 0 0 0 0 -14.974750361936458 -38.35564280006929 0 -38.35564280006929 -11.887580002058712 0 0 0 0 -32.262082590165846 -64.678329640977609 0 -64.678329640977609 -22.418480533595357 0 0 0 0 -1.0523584169768583 -49.165414579049866 0 -49.165414579049866 -30.203482355639608 0 0 0 0 -6.1243044424606978 -25.472360689087395 0 -25.472360689087395 2.6531793618423762 0 0 0 0 -5.7895949299381755 -96.461971688227095 0 -96.461971688227095 -32.849143166819545 0 0 0 0 -69.45966075688375 -53.399173934345527 0 -53.399173934345527 37.139842839571429 0 0 0 0 -43.080184756736344 5.8293774595886134 0 5.8293774595886134 81.697735167992505 0 0 0 0 -0.26635176787165449 -0.95842744704462746 0 -0.95842744704462746 -2.7952408530793198 0 0 0 0 -3.3337380749246215 -12.859659649370686 0 -12.859659649370686 -0.42127518090450078 0 0 0 0 -11.631237340945518 -9.1194555748234052 0 -9.1194555748234052 70.790854570023839 0 0 0 0 13.117539554277755 -29.90113682267247 0 -29.90113682267247 -16.351331868580019 0 0 0 0 -23.846246797336789 10.934576082250715 0 10.934576082250715 45.060958748537814 0 0 0 0 2.3018933346242569 -3.0743943003930698 0 -3.0743943003930698 1.3099026272975607 0 0 0 0 5.8506323521587724 -10.703327535910425 0 -10.703327535910425 10.534501557863331 0 0 0 0 16.009644150047848 -7.4872428335607992 0 -7.4872428335607992 1.0556068310079354 0 0 0 0 -20.321050554008934 -24.531249459135552 0 -24.531249459135552 2.8128854280819269 0 0 0 0 1.9298439035264892 -10.614879419345016 0 -10.614879419345016 -18.258662999278386 0 0 0 0 -1.1006664773405177 -14.009794511222239 0 -14.009794511222239 -7.0278434682290971 0 0 0 0 4.7182919975921322 -11.492827490993022 0 -11.492827490993022 -39.961548463454164 0 0 0 0 48.398799141226846 -18.938804169856198 0 -18.938804169856198 -10.768269253164007 0 0 0 0 -20.114672634545059 -22.782297974911671 0 -22.782297974911671 -1.0744777157451608 0 0 0 0 3.8793267383530461 -13.998898470596497 0 -13.998898470596497 6.7363515953391104 0 0 0 0 50.349826638069771 -15.397754280953095 0 -15.397754280953095 -23.763183830069863 0 0 0 0 13.754239733319992 2.4745065248752951 0 2.4745065248752951 -26.017711080727576 0 0 0 0 19.416085387642397 -10.805769323422496 0 -10.805769323422496 2.9505462889970602 0 0 0 0 64.098636997568519 10.433454569957547 0 10.433454569957547 -9.3485596057518308 0 0 0 0 11.255718200859974 -2.9307123843919669 0 -2.9307123843919669 36.168853519210543 0 0 0 0 2.6099406583289442 -7.1455576960837099 0 -7.1455576960837099 10.059208565669687 0 0 0 0 -34.282706404142118 -34.294019671294791 0 -34.294019671294791 -4.9885735488405771 0 0 0 0 -11.782040360260908 -22.26845787940465 0 -22.26845787940465 1.544034677877562 0 0 0 0 13.935866567227439 -10.65572029521001 0 -10.65572029521001 4.5512120895241654 0 0 0 0 -8.7236513249608834 -4.7367277606663265 0 -4.7367277606663265 3.1741889776321841 0 0 0 0 -5.2466456843430933 -3.9741958402951241 0 -3.9741958402951241 1.0269606453166489 0 0 0 0 -4.7923700005621868 -1.5241308202602681 0 -1.5241308202602681 2.9056048932707199 0 0 0 0 -7.7094456046143023 -12.84807181903102 0 -12.84807181903102 -7.6077554689106819 0 0 0 0 0.018186970666647539 -5.6830949219263402 0 -5.6830949219263402 -0.97415629573788465 0 0 0 0 -4.2170518426173658 -4.1503315909105822 0 -4.1503315909105822 1.3227718981970611 0 0 0 0 -3.1160094191109238 -2.4368012005216997 0 -2.4368012005216997 1.9274598369102023 0 0 0 0 -4.1585147908917861 -1.868001098615423 0 -1.868001098615423 2.1404073187532049 0 0 0 0 -4.2210163223935524 -1.8471599510894521 0 -1.8471599510894521 2.767669060611297 0 0 0 0 -3.6152313068814692 -2.6591359922867923 0 -2.6591359922867923 2.859577961485229 0 0 0 0 -1.0540116874908563 -2.2621903468900655 0 -2.2621903468900655 1.7327927487231136 0 0 0 0 89.906668618641561 -79.208388676413961 0 -79.208388676413961 37.103309652887219 0 0 0 0 -3.5291144951479509 -2.3613073631886436 0 -2.3613073631886436 2.456080794695481 0 0 0 0 -2.3313525383855449 -3.0946042261152797 0 -3.0946042261152797 2.5419752833295206 0 0 0 0 -3.011860678314406 -2.1218230675644918 0 -2.1218230675644918 2.2291719372551597 0 0 0 0 -1.5749874345499393 -6.7706886396706523 0 -6.7706886396706523 6.996549348699773 0 0 0 0 5.5064952329921653 -13.775468522210758 0 -13.775468522210758 9.2116702455286941 0 0 0 0 -1.4819312362233177 -8.2766147434149389 0 -8.2766147434149389 15.76621869272185 0 0 0 0 16.082545769888384 -20.092504271512553 0 -20.092504271512553 9.946287038461378 0 0 0 0 5.5259426029024326 -13.426782507067401 0 -13.426782507067401 12.737496209607343 0 0 0 0 8.9928316118239309 -20.1145248491448 0 -20.1145248491448 25.252821640993261 0 0 0 0 10.239556597931369 -40.104619032220398 0 -40.104619032220398 25.793767285216745 0 0 0 0 7.3812641254844493 -2.8724499565059887 0 -2.8724499565059887 25.072020327217615 0 0 0 0 2.7915461644297466 -6.4303867935668677 0 -6.4303867935668677 29.6516137746612 0 0 0 0 -1.339393156915321 -4.6843830523494034 0 -4.6843830523494034 13.598959741004364 0 0 0 0 1.1568363581318408 -1.7066205567953148 0 -1.7066205567953148 16.795624841517451 0 0 0 0 6.2146375841839472 -6.4317120941450412 0 -6.4317120941450412 17.20947374572188 0 0 0 0 2.0809976110394928 -9.1874431674359585 0 -9.1874431674359585 23.088496854616096 0 0 0 0 0.32710975584450352 -4.6681014628968569 0 -4.6681014628968569 12.263193549491916 0 0 0 0 -3.2447297336984775 -2.4128024226638445 0 -2.4128024226638445 14.387581189501361 0 0 0 0 0.61192000761257859 -1.9090848569939638 0 -1.9090848569939638 3.607776440014371 0 0 0 0 -0.46948465688910801 -3.0665279340428242 0 -3.0665279340428242 3.3307523699768353 0 0 0 0 -9.620399013889255 -19.968100962768403 0 -19.968100962768403 16.508199147607229 0 0 0 0 -3.532757025812316 2.7993838766451518 0 2.7993838766451518 3.7912096112322615 0 0 0 0 -6.2087918261495361 1.6943828412504445 0 1.6943828412504445 10.144599149200076 0 0 0 0 -3.1106890863738954 1.0954330031763675 0 1.0954330031763675 9.5857809791395994 0 0 0 0 -7.8712422528624302 5.2350159227016775 0 5.2350159227016775 4.251501458700659 0 0 0 0 -16.320020021477831 1.2997617591736343 0 1.2997617591736343 6.3305771437371732 0 0 0 0 -8.5344808958834619 -3.8202425683175534 0 -3.8202425683175534 9.3880851040696598 0 0 0 0 3.478688464681909 -4.5956523002214453 0 -4.5956523002214453 8.9301435456000036 0 0 0 0 5.4923400572079117 -2.2121781164942149 0 -2.2121781164942149 11.411106723438934 0 0 0 0 -17.379397176970087 3.0154790588330798 0 3.0154790588330798 3.657569249990047 0 0 0 0 0.084483846192597412 -4.1507185590380686 0 -4.1507185590380686 4.7581692526264305 0 0 0 0 3.4144163485470926 -6.6591613398140908 0 -6.6591613398140908 2.2575472320231711 0 0 0 0 -14.625021212486899 8.121834051332371 0 8.121834051332371 -6.3460114252466155 0 0 0 0 -0.81431636994165046 0.16718998448640576 0 0.16718998448640576 0.84340499052868889 0 0 0 0 -7.8284000852363533 1.1416961407821873 0 1.1416961407821873 0.73674752637634811 0 0 0 0 -4.3140030959330034 2.1262903893821203 0 2.1262903893821203 0.5691178004590256 0 0 0 0 -8.2259100248675168 5.8166766400109395 0 5.8166766400109395 -2.6374209373771009 0 0 0 0 -2.0336379403815954 -0.64874453186530445 0 -0.64874453186530445 -6.9244874111718673 0 0 0 0 -5.0685158534106449 5.056061434132971 0 5.056061434132971 -16.852358426578576 0 0 0 0 -2.0000869515206432 -0.25552552164026565 0 -0.25552552164026565 -4.7420238250706461 0 0 0 0 -4.7287889792132773 2.7487064193246624 0 2.7487064193246624 3.8113814719945367 0 0 0 0 -1.0764920776055078 -2.0154217142510333 0 -2.0154217142510333 2.2947282915083633 0 0 0 0 -3.2026096049594344 -1.1481524076571077 0 -1.1481524076571077 2.2232341680528407 0 0 0 0 -2.5266501035439433 -2.0098451237181507 0 -2.0098451237181507 2.3411380703892064 0 0 0 0 -2.1848217647457204 -1.7034270879844371 0 -1.7034270879844371 2.0588741349110933 0 0 0 0 -2.1342031133390265 -1.8262618919943634 0 -1.8262618919943634 2.2685576413150557 0 0 0 0 -1.503568815664039 -2.0342609347962934 0 -2.0342609347962934 2.2325849910537272 0 0 0 0 -0.60509076285234187 -2.8852130198683881 0 -2.8852130198683881 3.6807199067116017 0 0 0 0 -1.3346755657512404 -2.0338767165676472 0 -2.0338767165676472 2.5957183035452545 0 0 0 0 -1.4387543464981718 -1.7839151672826574 0 -1.7839151672826574 2.8128565053484635 0 0 0 0 0.10964123213489074 -3.2647356063662301 0 -3.2647356063662301 3.401366975883775 0 0 0 0 -2.2975328666652786 -1.7882789555733325 0 -1.7882789555733325 2.1906991779008251 0 0 0 0 -2.0720023384128581 -2.3938935710261831 0 -2.3938935710261831 2.9228581489394401 0 0 0 0 -1.9413371061091311 -1.6527495584250573 0 -1.6527495584250573 2.4551631070498843 0 0 0 0 1.3017659433485278 0.89521618599698627 0 0.89521618599698627 2.5945016255336668 0 0 0 0 0.3275699598261852 -0.11566208875517603 0 -0.11566208875517603 0.57050963546427758 0 0 0 0 1.7421765814578976 -3.591496076902331 0 -3.591496076902331 2.1970865179287102 0 0 0 0 2.398734484675515 -4.6839798506982788 0 -4.6839798506982788 3.3870698377254485 0 0 0 0 0.59565732893315726 -4.021874067241697 0 -4.021874067241697 4.3979180609048854 0 0 0 0 1.5589025783883699 -5.2390590678312492 0 -5.2390590678312492 4.5725579834452219 0 0 0 0 0.21535705573478481 -4.8372869745112439 0 -4.8372869745112439 6.2409078385799148 0 0 0 0 3.1532247395953164 0.086156679177292972 0 0.086156679177292972 -1.1686332031058555 0 0 0 0 -1.1807237057291786 -2.3717487396716024 0 -2.3717487396716024 -0.75884377276634041 0 0 0 0 -3.5188855284304736 -6.8694261027866332 0 -6.8694261027866332 2.0430321085041214 0 0 0 0 -2.735360978726888 -2.8039668145580485 0 -2.8039668145580485 3.2211119541655657 0 0 0 0 0.059391778249846539 -1.8426987002671922 0 -1.8426987002671922 2.7935149477161758 0 0 0 0 -0.92641855857101518 -2.7924085984536173 0 -2.7924085984536173 1.4014073255977113 0 0 0 0 -0.023498723217926454 -3.0714528770740799 0 -3.0714528770740799 -7.2724315107225266 0 0 0 0 -3.522228602890209 -7.3321328435490614 0 -7.3321328435490614 -12.685007325153492 0 0 0 0 -0.44629660238936708 -2.0918166762300849 0 -2.0918166762300849 2.1629211649986235 0 0 0 0 0.69685875098159755 -2.0685877409678568 0 -2.0685877409678568 0.44074119034373105 0 0 0 0 0.45664755061443429 -3.3502110107949647 0 -3.3502110107949647 4.7838145207024354 0 0 0 0 0.91179841200937517 -3.7370241451799302 0 -3.7370241451799302 2.2716599493245901 0 0 0 0 0.28612359350026395 -2.6586299964516247 0 -2.6586299964516247 2.8790735642908758 0 0 0 0 0.23785759868769674 -1.9085455059071137 0 -1.9085455059071137 1.2818171774997609 0 0 0 0 0.18895013441215269 -2.2075023276120191 0 -2.2075023276120191 0.052653609059234441 0 0 0 0 -0.022730892669642344 -2.6650931656254215 0 -2.6650931656254215 1.0137293093612243 0 0 0 0 0.80892472031688101 -4.4142642874641567 0 -4.4142642874641567 1.0193802778162722 0 0 0 0 -0.81885825781712995 -4.0305547685861924 0 -4.0305547685861924 -0.99153949950539655 0 0 0 0 -0.010785287813632749 -2.682889364356015 0 -2.682889364356015 0.72100990107719554 0 0 0 0 -1.215086391234351 -2.714218405664127 0 -2.714218405664127 -0.470930973519188 0 0 0 0 -1.8465939595080272 -7.0358493556925907 0 -7.0358493556925907 -5.4382133361559681 0 0 0 0 -2.1398936865799811 -2.4226193092899457 0 -2.4226193092899457 -1.4626307279546356 0 0 0 0 -2.5272471324533399 -2.2700711817635693 0 -2.2700711817635693 -3.9322000564878863 0 0 0 0 2.5167856600264713 1.7415021541426654 0 1.7415021541426654 2.9069309046085436 0 0 0 0 -0.082826167371106152 -1.2295120001165998 0 -1.2295120001165998 -0.69278613273463296 0 0 0 0 -8.6824874316798741 -17.031076194522001 0 -17.031076194522001 -12.006651518506033 0 0 0 0 -4.0153148279114248 -4.4195788251183217 0 -4.4195788251183217 9.0523036549614062 0 0 0 0 6.9706302328348215 1.7358175434420531 0 1.7358175434420531 -26.990156896531971 0 0 0 0 6.4411506011492747 -11.71110233328011 0 -11.71110233328011 -3.6609916280197581 0 0 0 0 -0.25427097503282425 0.46777330012733742 0 0.46777330012733742 0.33579070640253494 0 0 0 0 -15.236212999752752 -0.55436159968985521 0 -0.55436159968985521 9.4235804670254311 0 0 0 0 -24.224699143769612 -12.358991991963421 0 -12.358991991963421 4.6903069734448763 0 0 0 0 -8.4931136084869649 -5.1640943710665184 0 -5.1640943710665184 2.0711108149916981 0 0 0 0 -8.6018840904071112 -0.91164362086942674 0 -0.91164362086942674 4.2865953330124285 0 0 0 0 -0.10378209502414393 -11.163965702944324 0 -11.163965702944324 -10.58252228948578 0 0 0 0 -6.8926716426794883 -21.193303753573787 0 -21.193303753573787 -25.378853950887788 0 0 0 0 -81.035599134011136 -110.70208911690429 0 -110.70208911690429 -86.925667814969984 0 0 0 0 0.030705349068739451 -66.056542196450778 0 -66.056542196450778 -220.59555943318099 0 0 0 0 -1.1923741701929984 -0.73151168083036566 0 -0.73151168083036566 -0.58376858266951048 0 0 0 0 -0.88981476991830277 -50.796492838074016 0 -50.796492838074016 -250.65834898310311 0 0 0 0 -66.120542656277394 -7.9074432822272911 0 -7.9074432822272911 9.8785652317076824 0 0 0 0 -108.2618613477789 -135.22206108900198 0 -135.22206108900198 -132.50917266994895 0 0 0 0 -82.893025965619017 -55.96433920109115 0 -55.96433920109115 -176.19804509826656 0 0 0 0 -0.090569694933947176 -107.61220554733498 0 -107.61220554733498 -148.67110549013188 0 0 0 0 -46.41325280725323 -117.31419469406229 0 -117.31419469406229 -135.49353904780446 0 0 0 0 -58.875648725541396 -126.8776176677855 0 -126.8776176677855 -95.805817854917336 0 0 0 0 -50.000618483095195 -133.82885526496202 0 -133.82885526496202 -100.52077795136236 0 0 0 0 -57.788162902515069 -108.03269373087562 0 -108.03269373087562 -65.678966786929209 0 0 0 0 -54.077056114112565 -122.62574859234454 0 -122.62574859234454 -71.874487666417622 0 0 0 0 -58.841489297887165 -134.20530688527867 0 -134.20530688527867 -91.715963091499162 0 0 0 0 -55.162516517822951 -143.10458802424881 0 -143.10458802424881 -74.618413193825461 0 0 0 0 -48.835804462942178 -119.8576633612108 0 -119.8576633612108 -101.75217342763477 0 0 0 0 -37.328541061589931 -110.16425879327187 0 -110.16425879327187 -93.622742540701466 0 0 0 0 -36.471285222066626 -93.706026574592073 0 -93.706026574592073 -76.140999930516728 0 0 0 0 2.1613620878991924 -36.62071052238052 0 -36.62071052238052 -51.179932427103495 0 0 0 0 5.0884595931311196 -69.4174293211247 0 -69.4174293211247 -163.92053424274445 0 0 0 0 7.4327476869666498 -7.602607030419918 0 -7.602607030419918 -62.053296487559919 0 0 0 0 11.579533723846907 -29.865084642794841 0 -29.865084642794841 -56.984530403863459 0 0 0 0 -13.716892368971457 -28.170259753552727 0 -28.170259753552727 -11.571303173813781 0 0 0 0 -12.631882663827128 -18.486193551302904 0 -18.486193551302904 3.4825085766415782 0 0 0 0 -4.9466046038769491 -7.7808434426532926 0 -7.7808434426532926 -1.9387189782503356 0 0 0 0 -8.1185429283159465 -17.780485230343459 0 -17.780485230343459 -29.365849487011189 0 0 0 0 4.554507694521714 -5.7282415348640168 0 -5.7282415348640168 7.3528060720160902 0 0 0 0 -20.574052067005141 -26.278571181621885 0 -26.278571181621885 3.9908285950687059 0 0 0 0 -21.971691635888419 -53.916165236021527 0 -53.916165236021527 -52.325772463075197 0 0 0 0 -18.394491417006066 -37.025060742711247 0 -37.025060742711247 -25.067749872015991 0 0 0 0 -6.2875302702723275 -60.272632767154818 0 -60.272632767154818 -92.547246842969855 0 0 0 0 -39.004358103287814 -94.06373580850493 0 -94.06373580850493 -75.352622677193736 0 0 0 0 -29.45204833918433 -70.555237467314868 0 -70.555237467314868 -55.705468310330502 0 0 0 0 -38.226448249250097 -67.496016620491233 0 -67.496016620491233 -51.46091197068241 0 0 0 0 -27.897049252596844 -56.89164212929883 0 -56.89164212929883 -49.368324808970257 0 0 0 0 -41.295774618425639 -63.211627034623305 0 -63.211627034623305 -51.263984620004827 0 0 0 0 -57.339502852007399 -67.2647293772458 0 -67.2647293772458 -50.821759327379766 0 0 0 0 -43.804990747099509 -63.218112439258746 0 -63.218112439258746 -49.829015538661281 0 0 0 0 -61.08942149331051 -88.782213948846447 0 -88.782213948846447 -52.2564633852379 0 0 0 0 -58.101861443032249 -105.87523128917454 0 -105.87523128917454 -62.154115344236374 0 0 0 0 -51.121437371595675 -83.256047155098287 0 -83.256047155098287 -62.239366547133002 0 0 0 0 -46.636153181447298 -69.553002521687091 0 -69.553002521687091 -86.24255591578968 0 0 0 0 -37.656859763874309 -18.37990579989426 0 -18.37990579989426 -104.08459675282043 0 0 0 0 2.1158934095251212 1.3349058248674019 0 1.3349058248674019 -4.8759003537192722 0 0 0 0 -40.879241460716003 -36.148834456358003 0 -36.148834456358003 -53.553949640246017 0 0 0 0 -44.867186951199983 -43.843413719192014 0 -43.843413719192014 -53.713085584818032 0 0 0 0 -35.733293822555424 -50.681999121537039 0 -50.681999121537039 -57.071106108949685 0 0 0 0 -34.117127232237181 -59.586130866407274 0 -59.586130866407274 -46.085405878263288 0 0 0 0 -39.945447403482831 -52.941881610699788 0 -52.941881610699788 -33.21368801899132 0 0 0 0 9.9412953459013806 -16.949543722095768 0 -16.949543722095768 -9.9464002179593081 0 0 0 0 13.84387953829355 7.3058456386032162 0 7.3058456386032162 -21.337896321045719 0 0 0 0 -32.322058134985127 -45.511093177709206 0 -45.511093177709206 -49.829980214342243 0 0 0 0 12.689893397717242 -14.08176210604131 0 -14.08176210604131 -10.213870492058049 0 0 0 0 10.893203695795165 -7.7070256834367434 0 -7.7070256834367434 -4.0171510770530769 0 0 0 0 7.2366080640854378 -9.4407374513081983 0 -9.4407374513081983 6.9578901613424371 0 0 0 0 18.80036847710835 -26.0812128924631 0 -26.0812128924631 -7.5421749857541727 0 0 0 0 -0.92305625692279136 -17.70730076676773 0 -17.70730076676773 -7.9577646357583944 0 0 0 0 -5.1335626219170081 -32.466803530613788 0 -32.466803530613788 -5.9229041781645719 0 0 0 0 5.3822869720548567 -7.2003051849605004 0 -7.2003051849605004 8.8005238726955888 0 0 0 0 -16.544773798697861 -33.629851423191433 0 -33.629851423191433 -34.909418096705707 0 0 0 0 -16.677165918385072 -15.186026652081864 0 -15.186026652081864 9.6272743669164811 0 0 0 0 3.3255195154524699 -24.378257195683545 0 -24.378257195683545 -9.4747341095576303 0 0 0 0 -5.368607414951839 -19.557208209698274 0 -19.557208209698274 11.221492268717157 0 0 0 0 27.001214739273564 -39.566439489811955 0 -39.566439489811955 15.074498225646721 0 0 0 0 2.8117205853952782 -22.563715951773531 0 -22.563715951773531 3.5722817161122293 0 0 0 0 -4.5071333551707085 -27.108620876889105 0 -27.108620876889105 47.256542117020672 0 0 0 0 -9.1148029132841657 -3.0482916037786936 0 -3.0482916037786936 47.952537504484098 0 0 0 0 -0.073437583319261535 -0.27205225151930534 0 -0.27205225151930534 0.60596116565763225 0 0 0 0 -0.33242509977844747 10.638555277270825 0 10.638555277270825 28.248863454251932 0 0 0 0 0.014646301429820596 4.4300403686941081 0 4.4300403686941081 3.3380294621811117 0 0 0 0 -8.5535953706767032 1.4778584702755779 0 1.4778584702755779 18.781542901793273 0 0 0 0 -9.3085129278370005 -1.2641406660046641 0 -1.2641406660046641 8.9697421276687237 0 0 0 0 -8.4524364007011172 -3.3666181747635164 0 -3.3666181747635164 15.607697980145758 0 0 0 0 -13.880646826312841 -7.2828764843599174 0 -7.2828764843599174 25.121164474691795 0 0 0 0 -10.68894904867193 -11.641592781775216 0 -11.641592781775216 0.27005292485637256 0 0 0 0 -11.45544334969054 -7.7877730605073339 0 -7.7877730605073339 6.5281411415676303 0 0 0 0 -15.438260132101277 -12.310075069720938 0 -12.310075069720938 10.352515939173827 0 0 0 0 -11.664004693826428 -3.9032543465668823 0 -3.9032543465668823 14.535935838261139 0 0 0 0 2.5092754069792136 -19.215779646354335 0 -19.215779646354335 0.7835976273236156 0 0 0 0 2.6694163306919663 -4.9502471971643409 0 -4.9502471971643409 5.3896720993492071 0 0 0 0 -11.713877859092463 -10.945485440637412 0 -10.945485440637412 4.9104045348813088 0 0 0 0 -5.7178258910856172 -2.4941211954002593 0 -2.4941211954002593 -0.49127034178760987 0 0 0 0 -1.5472059485182399 -6.0573533053629944 0 -6.0573533053629944 1.8371938308773679 0 0 0 0 -9.9892184703312523 -7.5962269479850875 0 -7.5962269479850875 8.2561266928719874 0 0 0 0 -11.677768131336052 -8.3524090365272059 0 -8.3524090365272059 8.3785460796489133 0 0 0 0 -0.2206601756352029 -2.9778033700104061 0 -2.9778033700104061 -4.4094132007849112 0 0 0 0 -13.085822971534071 -8.0360097330253666 0 -8.0360097330253666 7.5371036952178656 0 0 0 0 -10.057020684922463 -6.1004765462530486 0 -6.1004765462530486 8.3678672603127779 0 0 0 0 -6.9108968544278468 -5.9101131222269032 0 -5.9101131222269032 7.9358136149789971 0 0 0 0 -8.2294658299542789 -3.0507070742105498 0 -3.0507070742105498 7.3113569556273887 0 0 0 0 -44.221069686791452 9.7875734684066629 0 9.7875734684066629 1.7153493247897131 0 0 0 0 12.980745350221696 2.2141541736873478 0 2.2141541736873478 -6.7726185587498549 0 0 0 0 4.0712367318501492 -1.36521689317442 0 -1.36521689317442 -1.5854187761251524 0 0 0 0 -0.35553187478581094 -0.14750014100909326 0 -0.14750014100909326 -0.021696400098075941 0 0 0 0 -12.40906038025787 -2.2103770776343481 0 -2.2103770776343481 13.999245204807721 0 0 0 0 -0.90953780695144815 -3.2077858057656385 0 -3.2077858057656385 3.86695212108134 0 0 0 0 -2.8814073300382006 2.761229816267587 0 2.761229816267587 0.61471497002787601 0 0 0 0 -2.4350099749681249 1.316562162986429 0 1.316562162986429 3.9869875566582778 0 0 0 0 -1.929216358508711 -1.6616968170078508 0 -1.6616968170078508 0.11133345774578629 0 0 0 0 -2.7595820127462503 1.6704431826201471 0 1.6704431826201471 7.0439729930562862 0 0 0 0 -1.4745352040911257 -0.63796327210684467 0 -0.63796327210684467 0.789808548507974 0 0 0 0 1.3606867668258928 4.2261431748017912 0 4.2261431748017912 4.8846066934656847 0 0 0 0 -2.9587835701095173 -0.20918391674968007 0 -0.20918391674968007 1.339850640617442 0 0 0 0 -2.2701391538867028 0.99392935221840162 0 0.99392935221840162 3.4160592947064288 0 0 0 0 -2.9453126181688276 1.3477722680936495 0 1.3477722680936495 7.3458738324152364 0 0 0 0 -3.866611409408506 3.1304922001218074 0 3.1304922001218074 5.8974450636078473 0 0 0 0 -3.5972206041260506 -2.8555619120024858 0 -2.8555619120024858 10.168392288312134 0 0 0 0 -4.1569193778523186 0.5526994376100447 0 0.5526994376100447 6.833096484093403 0 0 0 0 -3.6186534829394077 -1.3560091777744674 0 -1.3560091777744674 4.9061058568368026 0 0 0 0 -3.5157399686813733 -2.1803269756014743 0 -2.1803269756014743 3.1557560179680877 0 0 0 0 -2.7561562417195091 -3.5035044525233161 0 -3.5035044525233161 -1.241537524634623 0 0 0 0 0.1329931923901313 -0.75520047993541084 0 -0.75520047993541084 1.3539408969263604 0 0 0 0 -7.8000614339034655 -7.8543572083608524 0 -7.8543572083608524 -1.0393754036249447 0 0 0 0 -6.5748669667700597 -8.6349030484852847 0 -8.6349030484852847 -0.78599791689885024 0 0 0 0 -7.2100325570136192 -11.866039379085123 0 -11.866039379085123 -4.5901951237447065 0 0 0 0 -7.4218293150552199 -9.9749933109687845 0 -9.9749933109687845 1.8515399687003082 0 0 0 0 -3.6171467110580124 -6.263903905004554 0 -6.263903905004554 -0.57721667461373727 0 0 0 0 -2.9756602675988688 -5.8581703063537134 0 -5.8581703063537134 6.4593851036170236 0 0 0 0 -0.22703029871627223 -12.632915559739558 0 -12.632915559739558 5.3787068772428483 0 0 0 0 -3.9767732568943757 -7.3154220504638943 0 -7.3154220504638943 4.8958495686692913 0 0 0 0 -14.265234017839248 -20.963158974856015 0 -20.963158974856015 -12.073536574105674 0 0 0 0 -8.6885496376598894 -10.137195396577681 0 -10.137195396577681 -2.904476365904884 0 0 0 0 -2.4844155170721933 -10.59808173789952 0 -10.59808173789952 -7.1985659673682676 0 0 0 0 -3.4101361124194227 -8.9607570368361849 0 -8.9607570368361849 -8.2500288628853014 0 0 0 0 -7.9438860497434689 -11.931623046934391 0 -11.931623046934391 -6.5015635631571058 0 0 0 0 -16.08250172460248 -16.86730039665963 0 -16.86730039665963 -4.8369864193327885 0 0 0 0 -33.656538308787276 -19.390693738753725 0 -19.390693738753725 -1.833028144965283 0 0 0 0 -5.8006552005026606 3.5721663726994848 0 3.5721663726994848 -10.05974037724809 0 0 0 0 -38.71226745729814 17.438567171937962 0 17.438567171937962 -10.053662577588511 0 0 0 0 -34.152934762547375 -31.165553956685471 0 -31.165553956685471 0.8823662635012397 0 0 0 0 -7.8645804108855373 -7.9436506138476943 0 -7.9436506138476943 -4.4835761657827788 0 0 0 0 -12.186739248878439 -7.2717662451018441 0 -7.2717662451018441 -2.5330217575174174 0 0 0 0 -10.937130366204201 -8.6591801189086937 0 -8.6591801189086937 -1.4188535642260831 0 0 0 0 -10.700333945947932 -9.1008833179625981 0 -9.1008833179625981 -4.8728261995420326 0 0 0 0 -16.26399655921341 -11.751881419128949 0 -11.751881419128949 -2.2826928361264436 0 0 0 0 -11.7969965862153 -11.59063815760851 0 -11.59063815760851 0.020091093310838914 0 0 0 0 -12.195125348178863 -13.974293838238907 0 -13.974293838238907 -7.3548999004815414 0 0 0 0 -5.4038821715184895 -9.5474908676424093 0 -9.5474908676424093 -4.8061926511586535 0 0 0 0 -1.9765632673777844 -1.8211625677775043 0 -1.8211625677775043 0.69846157633062944 0 0 0 0 -8.3543742266650014 -3.5258425960949005 0 -3.5258425960949005 -0.69096546166664741 0 0 0 0 -8.280038351611438 -5.9074475391605574 0 -5.9074475391605574 -0.49025915249819718 0 0 0 0 -27.339604651238915 -18.524114385916164 0 -18.524114385916164 10.149869542873603 0 0 0 0 -4.8352197501299088 -1.241027123608319 0 -1.241027123608319 4.9464189637651543 0 0 0 0 4.4146657148597939 -4.3300118976454982 0 -4.3300118976454982 -2.3284592055893718 0 0 0 0 10.6070184302298 -9.2879355125255643 0 -9.2879355125255643 6.1420181719358879 0 0 0 0 1.1064731169226434 -28.010290628574694 0 -28.010290628574694 3.5561108792462619 0 0 0 0 3.0828758098468825 -31.214655826303442 0 -31.214655826303442 7.7079821219936093 0 0 0 0 -1.4506704266532324 -9.0012554819802517 0 -9.0012554819802517 -5.1258299072183036 0 0 0 0 11.900192026463628 -19.100320707687615 0 -19.100320707687615 -5.0090025198935564 0 0 0 0 -4.7577788653179596 -16.235683843496645 0 -16.235683843496645 0.57671519502810042 0 0 0 0 -9.7970334867350175 -13.212314740248075 0 -13.212314740248075 -1.0512704719526482 0 0 0 0 -9.7744343028480216 -11.865298628286837 0 -11.865298628286837 0.92518270624168508 0 0 0 0 -17.858809823443153 -18.072325534036281 0 -18.072325534036281 3.0087877902829234 0 0 0 0 -3.8509914787700836 -21.992669411773022 0 -21.992669411773022 3.083611501246196 0 0 0 0 -8.7306783276690112 -25.115377026597344 0 -25.115377026597344 5.8755820734850204 0 0 0 0 -3.3960579057657014 -29.506130889923725 0 -29.506130889923725 5.5865754589822245 0 0 0 0 2.8637186014957479 -38.297361162289235 0 -38.297361162289235 6.6502274209797179 0 0 0 0 -5.2182254839717643 -30.623218584859615 0 -30.623218584859615 7.2867484658172543 0 0 0 0 6.4820932244201686 -34.221241663165074 0 -34.221241663165074 9.0967342079622142 0 0 0 0 21.654209013050604 -42.11478244926252 0 -42.11478244926252 4.7236054567733845 0 0 0 0 8.697112610361728 -39.528143312378461 0 -39.528143312378461 9.5848748976714546 0 0 0 0 23.164979456934816 -32.336844652909235 0 -32.336844652909235 3.1839131237270522 0 0 0 0 1.7106801695235845 -36.05961976307421 0 -36.05961976307421 8.7804845036998813 0 0 0 0 3.4391481738657603 -34.67656914184272 0 -34.67656914184272 9.7235831104967474 0 0 0 0 4.6367308728822536 -35.124321510927984 0 -35.124321510927984 9.7780183560794001 0 0 0 0 4.0665055991003101 -37.085229148102599 0 -37.085229148102599 16.462262837508661 0 0 0 0 9.6525850523144072 -28.708050339647514 0 -28.708050339647514 2.5310995839254247 0 0 0 0 6.8619717047013182 -26.868937945777247 0 -26.868937945777247 4.2240564188557528 0 0 0 0 4.4025532659799751 -17.013565167538303 0 -17.013565167538303 -12.400959719459934 0 0 0 0 2.0747691469841811 -17.836226264689685 0 -17.836226264689685 19.549448112451728 0 0 0 0 4.0097547481818765 -23.580076948046326 0 -23.580076948046326 2.742463777564808 0 0 0 0 9.3749786778480484 -32.412108379323627 0 -32.412108379323627 6.475229900440354 0 0 0 0 37.131487253516752 -20.725399375867482 0 -20.725399375867482 -4.3197074385211351 0 0 0 0 12.395122300900766 -7.1880180051416573 0 -7.1880180051416573 44.275954278955169 0 0 0 0 17.011549989916602 -44.242005389134079 0 -44.242005389134079 24.784952743065787 0 0 0 0 43.45208913487204 -17.769277985120368 0 -17.769277985120368 -7.0143918596231742 0 0 0 0 7.2838704228834104 -19.981730614053959 0 -19.981730614053959 -3.4657068605483801 0 0 0 0 10.398961840599441 -16.95196180208859 0 -16.95196180208859 -0.5421311461368532 0 0 0 0 19.758999464888802 -7.0610636013373096 0 -7.0610636013373096 -24.20190249470761 0 0 0 0 6.0615002069480397 -4.3930929269743046 0 -4.3930929269743046 -7.0411087698544179 0 0 0 0 18.743582149707922 -10.97740186490398 0 -10.97740186490398 -8.4235556092498882 0 0 0 0 13.716114705841392 -14.204988693108135 0 -14.204988693108135 -10.49434318831436 0 0 0 0 9.8997510120994292 -7.3901637963568323 0 -7.3901637963568323 -4.9365581629798081 0 0 0 0 32.614340535354131 -10.82343151935595 0 -10.82343151935595 -29.542788759766722 0 0 0 0 17.983475906708918 -18.198978963967704 0 -18.198978963967704 4.4656162274447979 0 0 0 0 9.1996995569807041 9.3955364467829554 0 9.3955364467829554 -0.96842585302795214 0 0 0 0 14.668524568225621 -27.756617045665053 0 -27.756617045665053 -26.546992660044353 0 0 0 0 4.098337854618876 -21.069651293373227 0 -21.069651293373227 9.1929765062723163 0 0 0 0 -9.1993002352852109 -11.794798189638774 0 -11.794798189638774 -2.7808584858241465 0 0 0 0 25.722448925691879 -28.065893697516543 0 -28.065893697516543 -6.4205165562116235 0 0 0 0 13.846748365564963 -32.758986711120315 0 -32.758986711120315 2.7152257182491439 0 0 0 0 9.5062360657461795 -31.167775592653186 0 -31.167775592653186 17.141736078110625 0 0 0 0 15.157927971627942 -33.467801848806857 0 -33.467801848806857 18.059214728303004 0 0 0 0 21.758576906258895 -26.12712163243873 0 -26.12712163243873 -26.239663407855005 0 0 0 0 2.4046372700521417 -2.773066897384191 0 -2.773066897384191 -3.2102177782524177 0 0 0 0 8.4555931973591214 -6.2614187399690309 0 -6.2614187399690309 -33.079463947613476 0 0 0 0 10.339471663000381 -9.8218554174119941 0 -9.8218554174119941 -8.4528803841676137 0 0 0 0 -1.050910942720293 -17.456024273705907 0 -17.456024273705907 -14.713364082828321 0 0 0 0 3.5060455729553723 -11.00655438514309 0 -11.00655438514309 -6.1404654616017069 0 0 0 0 -4.6103791585264755 -11.543007641081104 0 -11.543007641081104 -16.319448256865357 0 0 0 0 -4.3029714199210503 -10.778183608468964 0 -10.778183608468964 -6.7073008359943742 0 0 0 0 14.227617828774783 -5.1564314228129433 0 -5.1564314228129433 -18.596741193228468 0 0 0 0 49.261551586312635 -29.482513370056722 0 -29.482513370056722 -18.762770593735809 0 0 0 0 26.766527040901565 -43.538998463192343 0 -43.538998463192343 -0.3665992539454237 0 0 0 0 23.460093853434955 -23.607064925940449 0 -23.607064925940449 1.6328817468415764 0 0 0 0 61.127059006822492 -35.888910832700446 0 -35.888910832700446 -7.0246139524469982 0 0 0 0 36.775408213063201 -2.5882039559841132 0 -2.5882039559841132 -76.667706696578307 0 0 0 0 -0.2663548442654502 0.81383937612375046 0 0.81383937612375046 0.47759536154317717 0 0 0 0 27.240545456852487 -54.783737866666797 0 -54.783737866666797 74.816829527577511 0 0 0 0 20.100979320422994 -26.92385536868926 0 -26.92385536868926 13.787870669198583 0 0 0 0 42.127998748490427 -27.348925276792215 0 -27.348925276792215 -13.187110616750942 0 0 0 0 12.281277594758194 -25.204470937995552 0 -25.204470937995552 13.51762635374098 0 0 0 0 23.829953342538829 -10.885240421909543 0 -10.885240421909543 -4.9826062657386956 0 0 0 0 29.101917228943989 -2.5560897042802679 0 -2.5560897042802679 -34.1705717832549 0 0 0 0 7.3836247901685965 -9.7093702923646958 0 -9.7093702923646958 -14.427650147699751 0 0 0 0 31.126466717343646 -13.580838579927104 0 -13.580838579927104 -36.373626810560495 0 0 0 0 -4.1309406007280813 -17.657962952099126 0 -17.657962952099126 -31.094267778581525 0 0 0 0 29.963050096372172 -19.811691980038404 0 -19.811691980038404 -26.488743435154731 0 0 0 0 26.919650453080521 -16.291881837047299 0 -16.291881837047299 -25.512698523916242 0 0 0 0 10.156809511554457 -36.157405182658977 0 -36.157405182658977 -45.433622897315558 0 0 0 0 -7.9285371334331103 -37.169328953674437 0 -37.169328953674437 -9.6831424820211396 0 0 0 0 24.088143069209764 -28.021072895744055 0 -28.021072895744055 -15.786097846361827 0 0 0 0 11.352467536742552 -40.332981324208504 0 -40.332981324208504 -27.611447949032566 0 0 0 0 6.5418411254449893 -42.092918916396002 0 -42.092918916396002 -7.1115102525249085 0 0 0 0 6.5597663722746802 -36.143586297234492 0 -36.143586297234492 -6.7336519453685924 0 0 0 0 23.540785506330394 -36.157110781198469 0 -36.157110781198469 -12.11899678325608 0 0 0 0 3.3114002947113477 -35.228680935674333 0 -35.228680935674333 -12.780438621628946 0 0 0 0 2.218122697158833 -43.988053823216092 0 -43.988053823216092 -11.65660989352449 0 0 0 0 -16.694615421003348 -39.473677635036928 0 -39.473677635036928 1.1595836460235205 0 0 0 0 -6.4297612767841201 -36.99917963726466 0 -36.99917963726466 1.7419243553695196 0 0 0 0 0.89044963247761189 -29.443328616900914 0 -29.443328616900914 4.0326715750799593 0 0 0 0 -1.7051102346958942 -31.277062153402369 0 -31.277062153402369 3.1647011187549197 0 0 0 0 13.512209823600642 -35.653283951904996 0 -35.653283951904996 -7.2802114886938512 0 0 0 0 20.646777316040243 -25.264412559601155 0 -25.264412559601155 -4.3229488281984914 0 0 0 0 29.091340982957263 -26.809845041148151 0 -26.809845041148151 -14.823457451954823 0 0 0 0 -5.4818541150429496 -9.0651018760744844 0 -9.0651018760744844 -15.230196557803097 0 0 0 0 29.518130087711143 -31.399019846837405 0 -31.399019846837405 -5.9910688703652681 0 0 0 0 17.447794784100552 -28.967338080748164 0 -28.967338080748164 -3.3487737858988318 0 0 0 0 -4.8148892731949182 -8.2216739286440177 0 -8.2216739286440177 -12.725099131416371 0 0 0 0 31.497359440586933 -42.295358721989487 0 -42.295358721989487 6.4107141838589996 0 0 0 0 29.633770866239502 -31.607940061156796 0 -31.607940061156796 7.843473767106417 0 0 0 0 -4.1226942448141006 -6.9074186181455524 0 -6.9074186181455524 -10.41888358178899 0 0 0 0 7.0673252737688017 -18.362608145622062 0 -18.362608145622062 -0.9121056199100579 0 0 0 0 -7.7875259682750766 -15.245469226456535 0 -15.245469226456535 9.365796594279896 0 0 0 0 -7.3524938645068687 -21.910322218900447 0 -21.910322218900447 11.35481257867815 0 0 0 0 9.0866734053188338 -20.400111642128984 0 -20.400111642128984 -0.60369631219865028 0 0 0 0 -3.3116563857290338 -5.4461278728064286 0 -5.4461278728064286 -7.9334180222124875 0 0 0 0 72.607683573100076 -45.513413839797977 0 -45.513413839797977 0.51714717884146921 0 0 0 0 5.2005498313683347 -10.499334824412017 0 -10.499334824412017 -5.2647554509588304 0 0 0 0 2.0226015492867191 -12.33693272407173 0 -12.33693272407173 -1.3793279994033867 0 0 0 0 -3.6775766806087518 -9.5442570741334904 0 -9.5442570741334904 -2.4085616657779951 0 0 0 0 57.618013334019452 -48.104921580735436 0 -48.104921580735436 2.2302325119599118 0 0 0 0 24.80198408763863 -31.561961285928533 0 -31.561961285928533 -0.61167047903927596 0 0 0 0 25.903242681521078 -30.848936315666833 0 -30.848936315666833 5.8115193809164793 0 0 0 0 34.600558735564846 -42.699721679893514 0 -42.699721679893514 -2.8625362126012988 0 0 0 0 22.657063790295979 -38.530786239348345 0 -38.530786239348345 -11.871576628232106 0 0 0 0 42.76287382785813 -31.601873824951326 0 -31.601873824951326 10.274177543269957 0 0 0 0 45.430831115249021 -36.602498516931632 0 -36.602498516931632 6.8749953769111016 0 0 0 0 30.884576322667272 -28.254571013262193 0 -28.254571013262193 -7.4881390215055035 0 0 0 0 36.717983265903968 -22.20537367331417 0 -22.20537367331417 -5.1415414656992198 0 0 0 0 28.951639664345748 -23.026684624452628 0 -23.026684624452628 8.3465622499275014 0 0 0 0 19.244105104045957 -8.214755301890591 0 -8.214755301890591 4.8292813752327675 0 0 0 0 23.461131962249056 -13.406689656691015 0 -13.406689656691015 -3.0085960995343157 0 0 0 0 22.502850216475053 -11.553461841173885 0 -11.553461841173885 -4.8907358814499275 0 0 0 0 47.252979214612424 -40.485325448309823 0 -40.485325448309823 16.200721316381987 0 0 0 0 33.207212943774721 -21.229016352439658 0 -21.229016352439658 0.70937697546310119 0 0 0 0 56.920389421343771 -27.519020971154418 0 -27.519020971154418 4.0615492385013567 0 0 0 0 76.562129736217685 -46.597161424239971 0 -46.597161424239971 6.8342938723840234 0 0 0 0 48.398655862140004 -33.27204892859902 0 -33.27204892859902 10.218889587604281 0 0 0 0 -5.0759495462798441 -6.216357931061907 0 -6.216357931061907 -3.5211561766890327 0 0 0 0 -2.3943331886536487 -4.0074877955160098 0 -4.0074877955160098 -5.0788178822613279 0 0 0 0 76.465395592726054 -27.577244936195711 0 -27.577244936195711 -0.3513349528057006 0 0 0 0 -3.7327985927504415 -9.1971585977236145 0 -9.1971585977236145 -4.5576424119507806 0 0 0 0 -0.84376352686507161 -1.1445032669143522 0 -1.1445032669143522 0.031074235476580725 0 0 0 0 161.42490077375987 -27.096942347779986 0 -27.096942347779986 -0.68635030136692876 0 0 0 0 96.75965060674389 -85.742093886547309 0 -85.742093886547309 30.225759879135694 0 0 0 0 -2.1924456263895991 -2.8740801411634038 0 -2.8740801411634038 -16.55097475348748 0 0 0 0 43.143590092733575 -45.32555309966483 0 -45.32555309966483 20.644417073984187 0 0 0 0 51.754635280896764 -37.249180922529376 0 -37.249180922529376 16.80462644299655 0 0 0 0 7.810885435592354 -19.983407244471664 0 -19.983407244471664 32.396422271468055 0 0 0 0 49.76364850599748 -42.700271640145615 0 -42.700271640145615 -22.233740726878295 0 0 0 0 -20.549093978625024 -54.566851245637054 0 -54.566851245637054 -23.983032741809893 0 0 0 0 -99.151930550218822 -169.72953062170313 0 -169.72953062170313 -37.107372617710553 0 0 0 0 35.830429264935447 -107.78969884016215 0 -107.78969884016215 -18.807688990175848 0 0 0 0 96.681460791567588 -169.05758994971143 0 -169.05758994971143 -97.498230989892363 0 0 0 0 53.236111867470754 -17.038212559400563 0 -17.038212559400563 47.635830011194344 0 0 0 0 12.98310976571247 -54.448412929876213 0 -54.448412929876213 -41.244163339235001 0 0 0 0 -18.334394185352721 -36.318804511435928 0 -36.318804511435928 17.501148784996076 0 0 0 0 -82.441731772749336 -76.600068033938896 0 -76.600068033938896 -31.318403197582256 0 0 0 0 -0.16952990445825833 0.27839439854895076 0 0.27839439854895076 -0.25118786353617573 0 0 0 0 0.81282462067974848 -60.606623303603243 0 -60.606623303603243 -76.342955491168595 0 0 0 0 55.675491394917117 -12.537639564554638 0 -12.537639564554638 -6.9048660421403838 0 0 0 0 -16.144903211523342 -24.346729504785571 0 -24.346729504785571 -26.498820998040401 0 0 0 0 -44.814961566903548 -41.805319531379155 0 -41.805319531379155 -32.733346789859752 0 0 0 0 -1.9017494630097644 -19.71956949812045 0 -19.71956949812045 15.141779537816817 0 0 0 0 -2.4660470114686177 -7.0195863210769858 0 -7.0195863210769858 2.6554699758346487 0 0 0 0 1.635592704840569 -3.2320133581619146 0 -3.2320133581619146 3.3706658341927511 0 0 0 0 -50.318156267276208 -61.832882595909268 0 -61.832882595909268 -25.293681916755418 0 0 0 0 0.016191924563372595 -0.36320184618655205 0 -0.36320184618655205 -1.5838145148961464 0 0 0 0 -13.386816916105545 33.92572076506417 0 33.92572076506417 -33.802090294625032 0 0 0 0 9.0468329544880817 -52.555775500373102 0 -52.555775500373102 -114.1418028557855 0 0 0 0 -0.85946811082430941 -27.04600337137822 0 -27.04600337137822 -28.99434678828834 0 0 0 0 3.7036524723225739 -29.14416136701584 0 -29.14416136701584 -42.176601649603981 0 0 0 0 -10.556422617145927 -18.178162264316711 0 -18.178162264316711 -15.195563444479831 0 0 0 0 -9.4848714576637576 -39.678093377029654 0 -39.678093377029654 -52.434986729432012 0 0 0 0 -13.528045483007872 -20.293320208653142 0 -20.293320208653142 -8.760891973129219 0 0 0 0 6.3882177713694546 -16.735518693800941 0 -16.735518693800941 -19.722046915636838 0 0 0 0 14.70917609645312 -6.1157304347966601 0 -6.1157304347966601 -14.538959826001246 0 0 0 0 -1.939923176618322 -11.359231741278791 0 -11.359231741278791 -5.5041512168090776 0 0 0 0 8.9647136260082334 -7.4853285893789234 0 -7.4853285893789234 0.24991330894999919 0 0 0 0 4.1265276843623724 -24.524437423044219 0 -24.524437423044219 -13.77648243269914 0 0 0 0 9.2065101010812214 -2.2330745723115797 0 -2.2330745723115797 -8.8280150399125432 0 0 0 0 18.707669203475234 -8.1289971249196924 0 -8.1289971249196924 -0.27125943347982684 0 0 0 0 17.345047380527831 -24.580506098691785 0 -24.580506098691785 16.670388837675546 0 0 0 0 13.287998921683538 -8.4686672839344226 0 -8.4686672839344226 6.640489884453018 0 0 0 0 29.737490524246823 -23.817737072280238 0 -23.817737072280238 8.1786059278156245 0 0 0 0 18.404412678944936 -8.9339922100787135 0 -8.9339922100787135 -0.0077925144373693911 0 0 0 0 11.15005470944925 -6.6519163705897881 0 -6.6519163705897881 4.8635698173789024 0 0 0 0 10.818460811195109 -2.4667112601343888 0 -2.4667112601343888 -3.0143987845273159 0 0 0 0 17.720747925239266 -5.3466216287056341 0 -5.3466216287056341 -5.1629972056607585 0 0 0 0 -0.43050458094275257 -0.79661093972012864 0 -0.79661093972012864 -0.95602292429949998 0 0 0 0 -2.7765689303028012 -4.6056224372186989 0 -4.6056224372186989 -5.9481005870447916 0 0 0 0 -8.411703338031657 -6.9810251825213072 0 -6.9810251825213072 -7.1871364432320206 0 0 0 0 -3.4885697700483433 0.74075485640378247 0 0.74075485640378247 11.120346984487242 0 0 0 0 -4.6382563601938287 -3.6268515347902879 0 -3.6268515347902879 -0.17967822823859159 0 0 0 0 -1.1006704757244243 -2.7892333287027569 0 -2.7892333287027569 -5.5684674617945831 0 0 0 0 -0.77626451494097637 -9.5477783799931331 0 -9.5477783799931331 -5.2590177968022545 0 0 0 0 15.371107557385585 -3.9200326108094714 0 -3.9200326108094714 -6.6965677341108858 0 0 0 0 5.1364011347441192 -4.331172439525858 0 -4.331172439525858 -16.472631922382334 0 0 0 0 17.611761523210589 -11.142750743350234 0 -11.142750743350234 -6.6237380123515717 0 0 0 0 -0.32625807502029858 -1.354791068177704 0 -1.354791068177704 -4.0626323596375098 0 0 0 0 -1.4499061038650325 -3.2925820431834154 0 -3.2925820431834154 -15.833659852048186 0 0 0 0 -0.61377174406334234 -0.080025347341688757 0 -0.080025347341688757 -3.9472834422006997 0 0 0 0 8.4978509906813997 -7.6929114453936336 0 -7.6929114453936336 -25.527684933711271 0 0 0 0 -5.7420325887809369 -12.843469245761813 0 -12.843469245761813 -9.7717081939169006 0 0 0 0 11.816393050843544 0.47486954080704891 0 0.47486954080704891 -48.336378636101472 0 0 0 0 -5.5616902104575274 8.9138126138570897 0 8.9138126138570897 -14.320060045413356 0 0 0 0 -2.5582640552947851 -12.606452443915259 0 -12.606452443915259 -16.073267939622383 0 0 0 0 -1.7830810906161787 -21.408194669702425 0 -21.408194669702425 -3.4253752428394364 0 0 0 0 1.5510983876320097 -8.7892939371818102 0 -8.7892939371818102 -20.052072205146487 0 0 0 0 0.35626022619908326 -6.0855302056179426 0 -6.0855302056179426 -1.7539576759722877 0 0 0 0 1.1467874748422702 -1.0840967003492317 0 -1.0840967003492317 -2.3661237056836502 0 0 0 0 -9.0843001210232615 -7.7687326968391517 0 -7.7687326968391517 -18.36898011119456 0 0 0 0 0.54373205132594826 -4.3955296429479844 0 -4.3955296429479844 -14.785564671151283 0 0 0 0 -7.7432753065804718 -6.7318485791370222 0 -6.7318485791370222 -12.050280593019124 0 0 0 0 -12.474606531512109 -10.8968127422213 0 -10.8968127422213 -11.74885387736731 0 0 0 0 -14.366528308595662 -11.581456957426326 0 -11.581456957426326 -13.541972784195423 0 0 0 0 -7.7191653378986018 -13.076311167204597 0 -13.076311167204597 -14.02557692186565 0 0 0 0 -10.906871697611024 -4.2743528492432263 0 -4.2743528492432263 5.4217138575936055 0 0 0 0 -238.46919035810242 146.13709495208263 0 146.13709495208263 -78.658203766594397 0 0 0 0 -10.634049073738424 -13.73377595407419 0 -13.73377595407419 -19.315429649473572 0 0 0 0 -10.188040028289834 -10.657873537519663 0 -10.657873537519663 -18.188339427277242 0 0 0 0 157.43993499554927 -85.389558468246605 0 -85.389558468246605 -196.95100374636695 0 0 0 0 -1.3984478423277507 -4.3835800813360954 0 -4.3835800813360954 -10.279734117977821 0 0 0 0 -13.023008298579953 -13.43105929627518 0 -13.43105929627518 -15.845354513535312 0 0 0 0 -8.8646181243530009 -7.1967763057359662 0 -7.1967763057359662 -4.7280715077258719 0 0 0 0 -50.489216478035814 -122.64722821952228 0 -122.64722821952228 5.8293990332583689 0 0 0 0 -17.071121803241113 -41.352653479497121 0 -41.352653479497121 3.0603282242232126 0 0 0 0 -3.2318056606761312 -2.1547521470461355 0 -2.1547521470461355 -0.32687298835888789 0 0 0 0 107.42088590702406 -83.343445395909384 0 -83.343445395909384 -35.283838170284525 0 0 0 0 -159.78551447749123 -93.789012806328628 0 -93.789012806328628 48.679067724476226 0 0 0 0 -0.58214136219918799 -1.1114871880796287 0 -1.1114871880796287 -2.3490374396426361 0 0 0 0 -196.72906084572105 4.0859893604362583 0 4.0859893604362583 25.439451576661668 0 0 0 0 -17.51030896436896 -6.0793596417054232 0 -6.0793596417054232 -24.163408206781241 0 0 0 0 -68.704527909633271 -10.933873904566099 0 -10.933873904566099 -0.80302004679106176 0 0 0 0 -77.549328271431932 -53.250787014328409 0 -53.250787014328409 -29.397084630242716 0 0 0 0 -44.246410020088206 -11.525503485749823 0 -11.525503485749823 -12.04212900109269 0 0 0 0 -40.413614856734057 -21.973124816280801 0 -21.973124816280801 -36.987940373475794 0 0 0 0 -25.409479118663512 -3.3303454667768619 0 -3.3303454667768619 -16.475206433941821 0 0 0 0 -55.380540464870137 -19.705906118178973 0 -19.705906118178973 -10.992249251035901 0 0 0 0 -58.171734011659282 -31.06492288655636 0 -31.06492288655636 -20.633393674088438 0 0 0 0 -40.677878421447531 -37.65223810043608 0 -37.65223810043608 -19.335159437146103 0 0 0 0 -50.924110063049739 -12.288226293881053 0 -12.288226293881053 -14.460675152926342 0 0 0 0 -44.391592275063886 -23.234262739427322 0 -23.234262739427322 -26.417492932657296 0 0 0 0 -50.153942611028469 -43.13566371344632 0 -43.13566371344632 -65.030129654681332 0 0 0 0 -48.116043129466561 -31.830007072797798 0 -31.830007072797798 -20.271379237004112 0 0 0 0 -45.069127044964262 -28.894031192854072 0 -28.894031192854072 -117.51762534299178 0 0 0 0 -70.781683947272541 -5.5205064017500263 0 -5.5205064017500263 -37.919248602389416 0 0 0 0 -54.474579413898027 -34.804822654235522 0 -34.804822654235522 -33.599057626495778 0 0 0 0 -57.701779962008004 -46.297504858494904 0 -46.297504858494904 -31.918743072483267 0 0 0 0 -74.048735427997599 -60.202406731078554 0 -60.202406731078554 -23.566376251152178 0 0 0 0 -97.764157527271891 -8.0511498039959406 0 -8.0511498039959406 -45.448713254188078 0 0 0 0 14.552628294530223 -44.487645020298942 0 -44.487645020298942 -144.72271305243885 0 0 0 0 -0.19538229208356039 0.2038882841081282 0 0.2038882841081282 -0.083930733876377062 0 0 0 0 -77.995765692528948 -84.44104028507536 0 -84.44104028507536 -47.53533275615473 0 0 0 0 -78.017131821103249 -66.272193687524123 0 -66.272193687524123 9.1685557693908777 0 0 0 0 -0.55399327083492267 -0.52535113047968096 0 -0.52535113047968096 -0.27266965178985991 0 0 0 0 -19.015720965819128 7.5605174712366079 0 7.5605174712366079 14.76355400306511 0 0 0 0 -2.7897964564199356 1.5965112851497452 0 1.5965112851497452 -37.121059603620779 0 0 0 0 13.343076444878534 -18.483596652077722 0 -18.483596652077722 -55.875418398147303 0 0 0 0 -6.6609876672446262 -34.664315411273492 0 -34.664315411273492 -68.566668218616542 0 0 0 0 -29.413848618642078 -58.374338482086387 0 -58.374338482086387 -72.059291257308132 0 0 0 0 21.325643224430678 -1.3627224690726507 0 -1.3627224690726507 -7.7598050344431613 0 0 0 0 21.164351328519842 -7.4012926803734445 0 -7.4012926803734445 -25.008732446292015 0 0 0 0 8.9611399099558184 -18.756487193003068 0 -18.756487193003068 -22.432922354311245 0 0 0 0 20.56060911541681 -12.709656355672905 0 -12.709656355672905 -23.576654864453303 0 0 0 0 22.674425475415774 -16.810876947517045 0 -16.810876947517045 -17.408100345401408 0 0 0 0 15.518130571651454 -32.20066071165013 0 -32.20066071165013 -24.108941137971215 0 0 0 0 4.9638690867723199 -27.355247981384764 0 -27.355247981384764 -20.276320660318561 0 0 0 0 -1.2815011185302865 -43.421572413345075 0 -43.421572413345075 -17.313086991620651 0 0 0 0 21.991522180425818 -22.284021092114926 0 -22.284021092114926 -9.9844861082920033 0 0 0 0 -33.253938224472222 -46.779113976404915 0 -46.779113976404915 -35.851492319453882 0 0 0 0 -53.472523734511924 -43.001859976220658 0 -43.001859976220658 -33.926279905327192 0 0 0 0 -56.558273696748074 -63.878547393174813 0 -63.878547393174813 -57.454541278439137 0 0 0 0 -31.861342827804037 -42.818047062019104 0 -42.818047062019104 -39.495562999656613 0 0 0 0 -15.185642984692095 -46.679032435730505 0 -46.679032435730505 -62.470662753130455 0 0 0 0 -1.2590670674944704 -41.696315213132493 0 -41.696315213132493 -41.335753032249386 0 0 0 0 -12.90967704875402 -35.314323182454643 0 -35.314323182454643 -36.543838548709573 0 0 0 0 -28.017576369256858 -37.915238708939796 0 -37.915238708939796 -22.372836050542901 0 0 0 0 -25.091013296536403 -45.522090584566286 0 -45.522090584566286 -21.700830330744452 0 0 0 0 -38.136571091294172 -32.67518590165605 0 -32.67518590165605 -10.754705368626674 0 0 0 0 -25.827907232120197 -37.577748700049824 0 -37.577748700049824 -10.593147046456579 0 0 0 0 -5.5047507650979242 -34.21383614540855 0 -34.21383614540855 -16.169021689775036 0 0 0 0 -26.128982293308582 -36.179990143554278 0 -36.179990143554278 -4.1750698610667314 0 0 0 0 -8.5767293300123129 -37.363258993860654 0 -37.363258993860654 -4.5356328777799035 0 0 0 0 -28.993963588312909 -29.07509403048789 0 -29.07509403048789 1.8848091910858784 0 0 0 0 -6.0812344519617909 -34.005562004515923 0 -34.005562004515923 -0.065123499681249086 0 0 0 0 10.987011724322656 -31.55631291958457 0 -31.55631291958457 -7.3743401658175571 0 0 0 0 11.303110924443899 -41.845245126976351 0 -41.845245126976351 -6.4567323402457077 0 0 0 0 7.1902797117945738 -37.144087483425665 0 -37.144087483425665 8.7939158423323533 0 0 0 0 5.6434669153868526 -40.639176684769382 0 -40.639176684769382 1.112930728329502 0 0 0 0 -16.863797216708917 -33.042090772485608 0 -33.042090772485608 2.8349517713149908 0 0 0 0 -8.7267141042993899 -32.871131114892023 0 -32.871131114892023 7.2868584442592805 0 0 0 0 -7.7600618458791359 -31.592144633874113 0 -31.592144633874113 1.4139419903576709 0 0 0 0 -10.437363872175411 -22.498618115536146 0 -22.498618115536146 2.8666330787100378 0 0 0 0 -15.627839266140654 -26.589245045759526 0 -26.589245045759526 7.0397849617673955 0 0 0 0 -24.986111511752824 -20.284823876580958 0 -20.284823876580958 2.4652877208436621 0 0 0 0 -19.37760789712047 -14.200995566556912 0 -14.200995566556912 0.36316910064670083 0 0 0 0 -24.333404271026666 -22.0795607591308 0 -22.0795607591308 4.1922681147070762 0 0 0 0 -12.31024515234094 -14.422274910831447 0 -14.422274910831447 1.964964675509691 0 0 0 0 -16.354433142593734 -8.5252733439892836 0 -8.5252733439892836 -0.7399820704222293 0 0 0 0 -15.53918216909733 -8.1283497642230031 0 -8.1283497642230031 -0.55441065702416381 0 0 0 0 -18.344605524019244 -6.2166936977099567 0 -6.2166936977099567 -1.6630058783985078 0 0 0 0 -22.909836206290493 -11.700834498108179 0 -11.700834498108179 1.3781993285866747 0 0 0 0 -32.321480677575892 -12.954248535061652 0 -12.954248535061652 0.24605701044811212 0 0 0 0 -24.746948214808071 -7.4552109793348791 0 -7.4552109793348791 -5.0452426232059224 0 0 0 0 -25.999099194652445 -7.0139273372885782 0 -7.0139273372885782 -1.7116392511570666 0 0 0 0 -23.358609318602248 -7.8536108610278461 0 -7.8536108610278461 -6.5330388947008444 0 0 0 0 -39.459953256488006 -8.8528692133652385 0 -8.8528692133652385 -4.3679288643834298 0 0 0 0 -34.823216258824687 -14.350844988331119 0 -14.350844988331119 -14.676576899485553 0 0 0 0 -43.034303579384868 -14.736299917634369 0 -14.736299917634369 -2.955683990307989 0 0 0 0 -36.305599145183805 -26.411114628857376 0 -26.411114628857376 -8.7885266832317939 0 0 0 0 -37.42843065992929 -24.40209076319843 0 -24.40209076319843 -2.2328145895232865 0 0 0 0 -33.204758031242818 -20.841752174097564 0 -20.841752174097564 2.7108189168193348 0 0 0 0 -24.942475579628081 -28.474026761769892 0 -28.474026761769892 -1.2632423330028359 0 0 0 0 -28.209477760170557 -17.458150657719898 0 -17.458150657719898 -2.5492055323793466 0 0 0 0 -2.5548334378944411 -5.8896255727978826 0 -5.8896255727978826 -7.6723991328641059 0 0 0 0 2.228998538608721 -9.2020271806140954 0 -9.2020271806140954 -8.5608075945538076 0 0 0 0 -6.4404731437928149 -75.959942303304615 0 -75.959942303304615 78.235765240711771 0 0 0 0 -4.4848870038877067 -3.0555050439197657 0 -3.0555050439197657 -9.1242575584965948 0 0 0 0 3.1864308471231197 -5.0861761646226569 0 -5.0861761646226569 -8.8982504931893516 0 0 0 0 -2.7219186659131083 1.4903404398260136 0 1.4903404398260136 -8.4055844767199233 0 0 0 0 -16.274796405292363 -2.5086310221688564 0 -2.5086310221688564 -4.4117194768223271 0 0 0 0 -17.090982703852205 -1.0129521951403149 0 -1.0129521951403149 -6.5993524134294503 0 0 0 0 -9.4629875993232417 -2.8860607675622987 0 -2.8860607675622987 -4.9211966445664075 0 0 0 0 -8.4581461589050377 -4.6340458926637211 0 -4.6340458926637211 -5.8573640155964313 0 0 0 0 -14.431327548103582 -3.2964589637135759 0 -3.2964589637135759 -3.7879715677086097 0 0 0 0 -10.397499055870867 -5.3136472864848656 0 -5.3136472864848656 -3.1890702715563748 0 0 0 0 -9.5400324354741315 -4.6310426362608723 0 -4.6310426362608723 -5.8562026681674979 0 0 0 0 -10.374299313360098 -6.6037768776463963 0 -6.6037768776463963 -2.9477500999164477 0 0 0 0 -10.064924510454148 -6.6787720246688878 0 -6.6787720246688878 -5.2097327296569347 0 0 0 0 4.1913163037264951 -4.2813857247755713 0 -4.2813857247755713 -3.9105196029741887 0 0 0 0 -7.8923189923643804 -8.1469595760341349 0 -8.1469595760341349 -5.9475509413837244 0 0 0 0 -6.3787518263598031 -6.2250808169519587 0 -6.2250808169519587 -5.2182573493328164 0 0 0 0 -2.6723382768118427 -9.1903466550631379 0 -9.1903466550631379 -6.5568282745271063 0 0 0 0 -6.5208036557745572 -7.9721056587598298 0 -7.9721056587598298 -6.8393893542670412 0 0 0 0 -1.5577327395840257 -34.453898642919285 0 -34.453898642919285 -2.9000601782299782 0 0 0 0 -21.333911996716779 -17.647673646476505 0 -17.647673646476505 -1.9506387707933754 0 0 0 0 -18.033370900466252 -19.306633643779151 0 -19.306633643779151 -8.2903141575134214 0 0 0 0 -19.329612272847953 -14.471810311694298 0 -14.471810311694298 -3.4481185668664693 0 0 0 0 -18.874609685626638 -14.568688306119384 0 -14.568688306119384 -1.168854862333319 0 0 0 0 -44.379338583319623 -10.753140171113046 0 -10.753140171113046 -2.3628678558779939 0 0 0 0 1.8274863667798869 -0.061965285304751205 0 -0.061965285304751205 -0.68547919010935843 0 0 0 0 0.23358785451273434 -14.357375344332468 0 -14.357375344332468 0.41434714669912864 0 0 0 0 -3.5815960425316007 -9.7777184653623408 0 -9.7777184653623408 2.950970153840899 0 0 0 0 -3.478757977906298 -10.506033817295247 0 -10.506033817295247 -1.3914049118029652 0 0 0 0 -2.1272009752137819 -11.506787970956793 0 -11.506787970956793 -2.2224595899278938 0 0 0 0 -8.327220287595992 -11.446230351099075 0 -11.446230351099075 -2.7657197958178585 0 0 0 0 -6.0447776840701408 -14.095323337891386 0 -14.095323337891386 -0.095141488069202751 0 0 0 0 -10.672736892829562 -11.297728768698107 0 -11.297728768698107 -2.9312034998529271 0 0 0 0 -11.690969279552519 -15.938782512984289 0 -15.938782512984289 -4.3058954816751793 0 0 0 0 -11.793664471068041 -12.440926867647249 0 -12.440926867647249 -4.8025517886744638 0 0 0 0 -10.348259662401688 -17.874045017400931 0 -17.874045017400931 -4.7524557514921497 0 0 0 0 -6.8880876027687918 -15.738332835851907 0 -15.738332835851907 -3.5285524967441688 0 0 0 0 0.95654772051420878 -15.773905733901302 0 -15.773905733901302 -4.1090697992913192 0 0 0 0 -5.9370394362395018 -13.384402629523265 0 -13.384402629523265 -0.5491756515311863 0 0 0 0 -7.4325709650220233 -13.259607670795049 0 -13.259607670795049 -2.6375595753934249 0 0 0 0 3.9385343794492655 -20.188295754348474 0 -20.188295754348474 -5.5658731597502538 0 0 0 0 -7.4179071732942248 -7.9923340734803787 0 -7.9923340734803787 -7.8748091301322347 0 0 0 0 -1.2436337778108282 -21.581831165837684 0 -21.581831165837684 9.2102744130406791 0 0 0 0 -0.51052237471463968 -2.5215118202724049 0 -2.5215118202724049 2.6676978827932025 0 0 0 0 2.687412749248324 10.802934445557639 0 10.802934445557639 72.553738971389066 0 0 0 0 -27.723689116948663 -17.80376766546442 0 -17.80376766546442 -1.1957982179997089 0 0 0 0 -25.568271451782493 -10.438713769093283 0 -10.438713769093283 0.33871558193914098 0 0 0 0 0.11736161950985391 -0.32182226895128707 0 -0.32182226895128707 1.2867436401305561 0 0 0 0 -54.679038800648414 -9.3415841387227374 0 -9.3415841387227374 67.595014812464342 0 0 0 0 48.980082996008605 169.25104440191285 0 169.25104440191285 -22.7651670554269 0 0 0 0 -143.91636133499946 85.73132638061432 0 85.73132638061432 7.5732410609525687 0 0 0 0 116.25680723515688 -125.21043831927091 0 -125.21043831927091 17.698445072362915 0 0 0 0 13.285585499295848 -31.757663464693451 0 -31.757663464693451 -0.55001990382584154 0 0 0 0 -3.7052482527215034 -47.949625022278951 0 -47.949625022278951 60.972092373485793 0 0 0 0 -15.756022374505847 -22.491137088418782 0 -22.491137088418782 9.2005136844254594 0 0 0 0 -37.7587236500367 -3.9590251889812862 0 -3.9590251889812862 96.771212445031779 0 0 0 0 0.23716830186572935 -0.12737979944993505 0 -0.12737979944993505 -0.033755399534395991 0 0 0 0 -67.588049066949679 54.284678306738442 0 54.284678306738442 53.155461036005363 0 0 0 0 -70.434213045857177 -81.613212696766823 0 -81.613212696766823 -31.988165948154972 0 0 0 0 24.541838104960334 -26.711609177614264 0 -26.711609177614264 -51.402333711919709 0 0 0 0 -296.93117607400927 -133.59106534093053 0 -133.59106534093053 -9.6849789030629836 0 0 0 0 -100.33174001870793 0.87974543112977699 0 0.87974543112977699 -26.290801385090163 0 0 0 0 -0.19661243737585821 0.2413886218099961 0 0.2413886218099961 -2.5562012572881905 0 0 0 0 -5.7136447906996182 -187.05633261015873 0 -187.05633261015873 -294.08314757196786 0 0 0 0 -216.75860561839545 -21.521440114752977 0 -21.521440114752977 -15.945106136245158 0 0 0 0 97.776493926651938 -69.29915068676263 0 -69.29915068676263 -14.013663106391505 0 0 0 0 49.118122651136218 11.32163214922457 0 11.32163214922457 -14.457852363278562 0 0 0 0 90.866416270340778 -33.071600081967517 0 -33.071600081967517 -144.42864157837721 0 0 0 0 -138.16451905853967 -70.888109572919717 0 -70.888109572919717 80.6501824677689 0 0 0 0 -16.139144664270134 1.5266758039240358 0 1.5266758039240358 -4.1301259135325381 0 0 0 0 -13.608172498445128 -15.057297526331922 0 -15.057297526331922 -10.78505414448739 0 0 0 0 -2.3396248764492782 -3.5983347349450767 0 -3.5983347349450767 -5.7197966615705518 0 0 0 0 58.034389268495943 36.695393744158764 0 36.695393744158764 -134.91439792976962 0 0 0 0 33.675444496437194 -2.8712470769169158 0 -2.8712470769169158 -6.8298325340430495 0 0 0 0 50.700858104345343 -3.6300636145039107 0 -3.6300636145039107 -57.116517302483771 0 0 0 0 40.301755584663624 -6.1518347022981743 0 -6.1518347022981743 -22.050600444012161 0 0 0 0 40.451157380956829 9.4919957407178117 0 9.4919957407178117 -6.8974234526481268 0 0 0 0 -7.9272194294489964 -4.4657537729660248 0 -4.4657537729660248 -12.385559518530044 0 0 0 0 -6.8202607650248837 -5.9852276102473816 0 -5.9852276102473816 7.2429607660285074 0 0 0 0 14.973956051424466 -65.948481139406567 0 -65.948481139406567 2.2652023439899267 0 0 0 0 90.079357538023032 -97.8140850046982 0 -97.8140850046982 -57.118622761420738 0 0 0 0 -9.7118931894046909 -21.51205109353009 0 -21.51205109353009 -19.500722565028809 0 0 0 0 -4.5875737333008146 -16.483382800194704 0 -16.483382800194704 -16.638104082604059 0 0 0 0 -12.200316298188227 -20.728277318372193 0 -20.728277318372193 -4.7426663362093677 0 0 0 0 -10.394716381332728 -22.216023727435186 0 -22.216023727435186 -9.2684213060892944 0 0 0 0 -10.540786002835375 -16.98289059223589 0 -16.98289059223589 -2.8857965724005226 0 0 0 0 -6.7253175715964062 -25.602881633415222 0 -25.602881633415222 5.6463021400995785 0 0 0 0 -5.3268441588397764 -21.084796729996356 0 -21.084796729996356 -5.6500391648642108 0 0 0 0 -3.7106665595783852 -17.440755260142396 0 -17.440755260142396 -3.1248063560528863 0 0 0 0 2.3388244153247797 -8.3681725146097961 0 -8.3681725146097961 1.7009150814510576 0 0 0 0 -56.214913206022175 -44.281173802560261 0 -44.281173802560261 -43.292037913044169 0 0 0 0 -0.15171553004783789 -0.33781645468619725 0 -0.33781645468619725 -2.0131412053858391 0 0 0 0 -9.7516302053008985 -19.084509865151631 0 -19.084509865151631 -8.1822474652992696 0 0 0 0 -25.038009467473785 -23.019542169946362 0 -23.019542169946362 0.19132684451778914 0 0 0 0 -0.025463034479757951 -2.4745926312165558 0 -2.4745926312165558 1.6224720342953631 0 0 0 0 -1.7009557763919574 -8.4630891430783244 0 -8.4630891430783244 6.5910037382880953 0 0 0 0 18.085246442355128 -21.3966427044395 0 -21.3966427044395 -37.186876313008725 0 0 0 0 0.39837385350354637 -0.031372952333047266 0 -0.031372952333047266 -14.135151255572126 0 0 0 0 -60.987281349403929 -42.943218580060147 0 -42.943218580060147 -24.745863976478176 0 0 0 0 -55.882879706514359 -49.148318892394855 0 -49.148318892394855 -45.237322343885808 0 0 0 0 -55.9262066676377 -50.119303302288827 0 -50.119303302288827 -49.914904031011247 0 0 0 0 -68.425527295836218 -35.908010390963682 0 -35.908010390963682 -28.431441970694095 0 0 0 0 -67.358343087046705 -41.031340886113639 0 -41.031340886113639 -4.1321787188171584 0 0 0 0 -0.20662999007137017 0.90197057653290713 0 0.90197057653290713 -7.9198241574868398 0 0 0 0 -134.76605802128051 -58.084867221660033 0 -58.084867221660033 -14.486203468259191 0 0 0 0 -77.924808143568953 -43.927244647619773 0 -43.927244647619773 -39.630576130126428 0 0 0 0 -61.494130904864505 -63.144942119349253 0 -63.144942119349253 -36.115449018765503 0 0 0 0 3.7870566706533282 -3.8356936123591368 0 -3.8356936123591368 -11.017112089988586 0 0 0 0 -19.563089160070376 -34.288520986115145 0 -34.288520986115145 -24.821861788337173 0 0 0 0 -30.072705068399955 -13.767129223710754 0 -13.767129223710754 -3.2330033638254463 0 0 0 0 -0.66968857187021058 1.4932525294375409 0 1.4932525294375409 -1.7245457097724284 0 0 0 0 -33.469801365660715 -27.231986845295296 0 -27.231986845295296 0.7774916458338339 0 0 0 0 1.1883431208081703 -0.37643645415578408 0 -0.37643645415578408 -0.062637639057005146 0 0 0 0 0.57223952361716002 -0.82937858200908821 0 -0.82937858200908821 0.38991251393171211 0 0 0 0 -5.9647315680776956 6.6558989655059122 0 6.6558989655059122 4.1538466687079563 0 0 0 0 0.69213995716983945 -0.49348355190437232 0 -0.49348355190437232 -0.22136012175404574 0 0 0 0 14.203586391995486 -0.54066777937850929 0 -0.54066777937850929 -9.7981278635506897 0 0 0 0 0.70637562261254061 -7.6473050155764213 0 -7.6473050155764213 -1.9350195833699217 0 0 0 0 -12.005213057949732 0.077947500392383517 0 0.077947500392383517 -4.9459826862430418 0 0 0 0 -4.612351958949148 -6.0412747062018752 0 -6.0412747062018752 -9.873026591974849 0 0 0 0 -1.455379138274111 1.5608263843867007 0 1.5608263843867007 -6.4333855780714657 0 0 0 0 -40.509161707204839 -23.971248772286799 0 -23.971248772286799 -5.3954512052632708 0 0 0 0 -32.268179657487053 -24.6152904284736 0 -24.6152904284736 -15.490888565654359 0 0 0 0 -74.011392253487429 -53.957291131694546 0 -53.957291131694546 -15.782493612502094 0 0 0 0 -56.707391104930139 -15.25185930628254 0 -15.25185930628254 13.021176709653446 0 0 0 0 -0.84111467039422649 0.092691040424323745 0 0.092691040424323745 0.19325686746609527 0 0 0 0 -31.459000385020772 -0.42844755530040857 0 -0.42844755530040857 18.688558567699147 0 0 0 0 4.4508887671036064 -69.912813120141436 0 -69.912813120141436 -27.54644089713338 0 0 0 0 18.832730196641933 5.8523717927510006 0 5.8523717927510006 -5.7313382951251697 0 0 0 0 -10.761978431921307 -81.578724591005539 0 -81.578724591005539 19.230174600917053 0 0 0 0 17.65671366450988 -43.523573160308842 0 -43.523573160308842 25.05279558912116 0 0 0 0 -1.0874359870322223 -95.733370464223299 0 -95.733370464223299 25.377260512025455 0 0 0 0 -72.246193368250715 -41.434184580913097 0 -41.434184580913097 -12.857313054546466 0 0 0 0 -45.939407697384013 -100.16154371979337 0 -100.16154371979337 12.925987381062441 0 0 0 0 -38.023617832423042 -84.618893414997729 0 -84.618893414997729 23.787246930165566 0 0 0 0 -55.406763576254889 -43.423243604297568 0 -43.423243604297568 -51.229874138951118 0 0 0 0 0.025711090469485498 -77.110471854970001 0 -77.110471854970001 103.89205424796819 0 0 0 0 13.124992043838574 -78.70343959566253 0 -78.70343959566253 63.448337575034202 0 0 0 0 8.57768832975853 -71.397766669076645 0 -71.397766669076645 55.934981080368743 0 0 0 0 9.3388309663223481 -81.775064130278679 0 -81.775064130278679 38.08522688400808 0 0 0 0 6.3502682713624381 -84.606798594692918 0 -84.606798594692918 51.535226432115905 0 0 0 0 1.0091273095313227 -54.552030765175914 0 -54.552030765175914 58.555439876883611 0 0 0 0 8.0158865294288262 -13.788679301518641 0 -13.788679301518641 1.9813678417403935 0 0 0 0 -1.6117576171260595 -0.29635503578511901 0 -0.29635503578511901 0.36273769788432375 0 0 0 0 -1.8472868378612475 -36.285361868590826 0 -36.285361868590826 86.925812653860703 0 0 0 0 5.3879698047894635 -40.365829619529222 0 -40.365829619529222 88.889024384561708 0 0 0 0 -2.747104318041238 -30.963525865942756 0 -30.963525865942756 104.97226550160053 0 0 0 0 -1.8440000357441022 -63.214209370582921 0 -63.214209370582921 117.20225287595531 0 0 0 0 0.29533675178208796 -0.15989553258211142 0 -0.15989553258211142 -0.14625926963840996 0 0 0 0 -6.7764576214867702 -18.957681169618354 0 -18.957681169618354 207.05670137527068 0 0 0 0 -0.0014310730186964974 -2.1169116684066216 0 -2.1169116684066216 0.50351221033633919 0 0 0 0 1.2661992956200265 -5.752041377862497 0 -5.752041377862497 -22.748486152975829 0 0 0 0 -0.12163461172744405 0.040811647842645016 0 0.040811647842645016 0.49062136744791829 0 0 0 0 1.6483600436204142 -11.474105460744795 0 -11.474105460744795 -14.760096401880219 0 0 0 0 3.0881766215061361 -1.39526619082244 0 -1.39526619082244 1.7913723146903067 0 0 0 0 -0.94238061081341584 -9.1553774738658831 0 -9.1553774738658831 -15.047499999685897 0 0 0 0 2.1575674142822621 -0.77626554141857262 0 -0.77626554141857262 -0.16870605040394615 0 0 0 0 -6.4158761523030989 -6.1813211094199687 0 -6.1813211094199687 -14.385746468024536 0 0 0 0 7.5877913321696724 -12.756054656204867 0 -12.756054656204867 -16.509889083121379 0 0 0 0 -4.5531410532348673 -9.361663185965881 0 -9.361663185965881 -12.819701461111208 0 0 0 0 0.0097624543759593507 -8.7321208153102816 0 -8.7321208153102816 -12.957729663339705 0 0 0 0 4.1242133944851957 1.5173497914875043 0 1.5173497914875043 7.1760849807342311 0 0 0 0 -0.0053845306556468131 -5.416189297105575 0 -5.416189297105575 11.354508702581825 0 0 0 0 2.564368843108241 -12.717357113554954 0 -12.717357113554954 11.492886523411926 0 0 0 0 1.5011592923092394 1.156207402443215 0 1.156207402443215 31.220165974970314 0 0 0 0 0.31769923159771807 -0.47066303129192377 0 -0.47066303129192377 0.42653044689937225 0 0 0 0 20.514158747770125 26.272595515662942 0 26.272595515662942 3.4425046338328684 0 0 0 0 23.779316848867893 3.7508163314159901 0 3.7508163314159901 -1.8463203337441882 0 0 0 0 15.105105090478901 -42.569136586245122 0 -42.569136586245122 -15.370882994369822 0 0 0 0 0.18947892847336334 17.634988497804443 0 17.634988497804443 -9.2540611048243591 0 0 0 0 0.82674011567532801 -0.155682811940415 0 -0.155682811940415 -0.17276654547543302 0 0 0 0 -2.153734103305851 7.4330835590812967 0 7.4330835590812967 -5.0207740388359525 0 0 0 0 -4.8960027026914759 25.289889896842396 0 25.289889896842396 -53.058384906866195 0 0 0 0 -1.0939168364257057 1.1261965169524046 0 1.1261965169524046 -1.9768785947053402 0 0 0 0 -18.829243169911933 0.69443178259371052 0 0.69443178259371052 33.027203052884033 0 0 0 0 -47.011365967977326 33.520899057238239 0 33.520899057238239 2.0235225572259878 0 0 0 0 -19.856226003354095 5.8555933153716069 0 5.8555933153716069 7.2177069017607209 0 0 0 0 -16.739432372429292 -1.3137955074407728 0 -1.3137955074407728 16.621166324055594 0 0 0 0 -9.3484762660445995 -6.7798104796602274 0 -6.7798104796602274 14.322688615967309 0 0 0 0 -11.766808639738883 -14.517186817153743 0 -14.517186817153743 21.815980068321551 0 0 0 0 0.062403875357075478 -0.65153544224802573 0 -0.65153544224802573 1.0171092093857013 0 0 0 0 -12.865577810733157 -0.37894762737778365 0 -0.37894762737778365 7.9755421365716757 0 0 0 0 -44.66976941777466 39.907302036593592 0 39.907302036593592 42.669751725991318 0 0 0 0 -68.970864504965903 -11.281695153486794 0 -11.281695153486794 37.886285925813354 0 0 0 0 -12.551761422997515 4.9965846767281619 0 4.9965846767281619 -2.8340079331796915 0 0 0 0 -14.065912572881643 2.553976350092853 0 2.553976350092853 1.4774859113304046 0 0 0 0 7.1911413180787349 -49.282334869378701 0 -49.282334869378701 -18.792979471308172 0 0 0 0 -12.671515809528501 -0.50903173009123748 0 -0.50903173009123748 4.1724594103052368 0 0 0 0 0.22690621957008261 -12.59186866869004 0 -12.59186866869004 3.9561558679010886 0 0 0 0 -10.802514742494168 -10.127105034396664 0 -10.127105034396664 6.6253108020118816 0 0 0 0 0.34672642260193243 -2.3226855073662591 0 -2.3226855073662591 -2.6464224169039881 0 0 0 0 2.3200747694763777 -11.8084562595227 0 -11.8084562595227 -0.48463884781085653 0 0 0 0 3.5392789693214581 -11.63242534703295 0 -11.63242534703295 -0.60774867137479305 0 0 0 0 -3.3034259667292645 -17.159764341278333 0 -17.159764341278333 -0.18514593618783692 0 0 0 0 4.5668256273274892 -14.507547789274213 0 -14.507547789274213 -0.49529832427117526 0 0 0 0 6.8106379819655558 -14.57187319193963 0 -14.57187319193963 -1.6570358778230911 0 0 0 0 0.95630057933624357 -15.748742755075639 0 -15.748742755075639 0.065985925361019326 0 0 0 0 10.592642859734042 -13.903553798806115 0 -13.903553798806115 -1.6442773540857161 0 0 0 0 12.787474531345651 -4.9843994406619458 0 -4.9843994406619458 -2.9448946527231783 0 0 0 0 6.5220907107795938 -13.558609473881006 0 -13.558609473881006 0.94708857806290325 0 0 0 0 11.826235780928982 -13.841993861673018 0 -13.841993861673018 0.48528193589118018 0 0 0 0 15.765879434700764 -18.726185977229761 0 -18.726185977229761 5.7323450444346236 0 0 0 0 3.6185262885555858 -15.153524449051474 0 -15.153524449051474 10.843507477718049 0 0 0 0 2.0966429116124345 -11.405358157494447 0 -11.405358157494447 1.8755540032816498 0 0 0 0 0.46873435970974242 -13.338314144267088 0 -13.338314144267088 4.1714142883283785 0 0 0 0 -37.128824939040669 21.381637960185522 0 21.381637960185522 5.3824108329627052 0 0 0 0 -5.4019308354218083 -1.9542517440158917 0 -1.9542517440158917 2.6319649095871682 0 0 0 0 0.083944376907574281 -0.3353811812282288 0 -0.3353811812282288 0.48675646986237453 0 0 0 0 0.4738969997624416 -1.0015310530520267 0 -1.0015310530520267 2.1245080017494544 0 0 0 0 -37.137358494985165 17.386048328859943 0 17.386048328859943 -11.430660177769028 0 0 0 0 19.297072696121177 -11.627925025820787 0 -11.627925025820787 -1.7017223394395842 0 0 0 0 -3.5916942153271521 -1.5982567006285535 0 -1.5982567006285535 2.1286410297073246 0 0 0 0 -5.3567004612548317 -0.45759795639324352 0 -0.45759795639324352 2.0907094717440486 0 0 0 0 -3.4826179399969988 0.44162196582487923 0 0.44162196582487923 0.64007598440548463 0 0 0 0 -1.4204660075665743 -0.34503228575249523 0 -0.34503228575249523 0.63403178021962958 0 0 0 0 -0.00091952176080667414 -3.2954256042762609 0 -3.2954256042762609 3.6639070446503865 0 0 0 0 0.30027667980175465 -4.3444125085366068 0 -4.3444125085366068 1.3102648429524493 0 0 0 0 0.43358211399754509 -7.4322108527708224 0 -7.4322108527708224 10.365075951655854 0 0 0 0 5.2896745097496023 -8.7076417275420681 0 -8.7076417275420681 4.5422797335213545 0 0 0 0 1.9779975496785482 -2.4780128063425764 0 -2.4780128063425764 -1.1614197056683224 0 0 0 0 49.577261609794277 -38.83820534806955 0 -38.83820534806955 7.9527065861911979 0 0 0 0 39.076807010702396 -78.890368626575764 0 -78.890368626575764 4.8786381863310453 0 0 0 0 -0.62617699578138541 -0.84050283754390165 0 -0.84050283754390165 -0.75170654206610266 0 0 0 0 23.659429138362611 -16.951836861793709 0 -16.951836861793709 15.58012685500762 0 0 0 0 -0.15969842213598895 -60.868150959023751 0 -60.868150959023751 -51.600902859766393 0 0 0 0 58.235686562140472 -28.41780006926183 0 -28.41780006926183 -190.35583251431945 0 0 0 0 31.59739490582615 13.967048500856436 0 13.967048500856436 -35.808288054549848 0 0 0 0 57.471124349764068 -1.8085791427356526 0 -1.8085791427356526 -144.12777048689713 0 0 0 0 11.175570083960338 -83.727394678830933 0 -83.727394678830933 7.3104542069202125 0 0 0 0 -0.41853305805358332 -0.46388541967948171 0 -0.46388541967948171 -0.34446897859798398 0 0 0 0 11.313507358088827 -65.624573052209598 0 -65.624573052209598 -44.640605130664881 0 0 0 0 19.741726010378443 -75.336338935487674 0 -75.336338935487674 -120.26694640528876 0 0 0 0 8.4207570645285159 -45.923115382694675 0 -45.923115382694675 -23.085735177211973 0 0 0 0 44.816246335165488 -15.221758602381669 0 -15.221758602381669 -8.3676297304364198 0 0 0 0 11.045982480223756 -21.555131478400654 0 -21.555131478400654 24.863716828391716 0 0 0 0 31.346844388310274 -20.35519241309612 0 -20.35519241309612 -10.319482435211285 0 0 0 0 25.410869158182322 -28.09288047580867 0 -28.09288047580867 -12.405846891211695 0 0 0 0 27.394128005261337 -31.054629828630368 0 -31.054629828630368 -12.327630713934923 0 0 0 0 35.883204165007555 -34.370440577956288 0 -34.370440577956288 -9.5995798594485677 0 0 0 0 46.742140727896185 -23.616561374304183 0 -23.616561374304183 -20.180075662709896 0 0 0 0 36.120841238283901 -36.142897726197589 0 -36.142897726197589 -31.410220795096393 0 0 0 0 46.129799664925031 -28.600559073952354 0 -28.600559073952354 -60.310185790851392 0 0 0 0 35.730919055804407 -53.160161507618795 0 -53.160161507618795 -32.773847071139244 0 0 0 0 29.48332894212399 -3.7164247513137525 0 -3.7164247513137525 -8.1212272772845608 0 0 0 0 0.10008258282505267 -41.633382882412207 0 -41.633382882412207 51.704906052002571 0 0 0 0 30.70194942811213 2.8996403602586724 0 2.8996403602586724 -88.540954128765406 0 0 0 0 -0.49074513653187068 -0.41352307647159847 0 -0.41352307647159847 -0.15111372960847902 0 0 0 0 39.309509904151128 -59.120205388642717 0 -59.120205388642717 -105.04795500147088 0 0 0 0 0.0034448545269600735 -97.3698692213203 0 -97.3698692213203 -27.031698987806521 0 0 0 0 7.9836992140407403 -75.812626173933197 0 -75.812626173933197 24.387895356262561 0 0 0 0 7.9916431488509261 -75.83953224463221 0 -75.83953224463221 -13.359577966293728 0 0 0 0 -0.0088500404635778445 -92.478875877066869 0 -92.478875877066869 25.34358019395404 0 0 0 0 4.498275648946219 -84.543758181748672 0 -84.543758181748672 27.650120242425714 0 0 0 0 -1.35269762712187 -95.06021846809108 0 -95.06021846809108 35.904900081568485 0 0 0 0 0.0099572947592629409 -89.526003596941109 0 -89.526003596941109 45.200185007097389 0 0 0 0 -10.531986746852454 -65.866866743936953 0 -65.866866743936953 36.112702459242428 0 0 0 0 -20.134966059986482 -103.29693159389905 0 -103.29693159389905 36.531262375076949 0 0 0 0 -4.9252290328076924 -86.028227232473 0 -86.028227232473 50.419004212877553 0 0 0 0 -0.50114784087054431 -75.390389735104691 0 -75.390389735104691 29.394526025299911 0 0 0 0 -6.9794971342798817 -90.95019831750642 0 -90.95019831750642 39.511963658473178 0 0 0 0 -3.7693846633192152 -80.908297138784746 0 -80.908297138784746 45.428577766178023 0 0 0 0 0.2747401318079028 -65.140174519672428 0 -65.140174519672428 103.1530970531503 0 0 0 0 25.731689706006364 -43.018488589687877 0 -43.018488589687877 24.943971557613168 0 0 0 0 0.56168691955281247 -68.645952534914159 0 -68.645952534914159 59.218917833441083 0 0 0 0 24.056075331929605 -58.200515639287914 0 -58.200515639287914 -16.305359907159982 0 0 0 0 32.888600125368612 -47.959776456619693 0 -47.959776456619693 -13.229195458076902 0 0 0 0 32.285582274087574 -32.468897194794408 0 -32.468897194794408 -3.2964261344695842 0 0 0 0 25.054576594267928 -52.028057070439218 0 -52.028057070439218 17.808622131507946 0 0 0 0 23.76225310078371 -48.811459190343157 0 -48.811459190343157 10.004743094697005 0 0 0 0 29.841187485868431 -39.363164488867369 0 -39.363164488867369 16.874285984940798 0 0 0 0 18.863589848760967 -57.773628097512074 0 -57.773628097512074 24.085106295702644 0 0 0 0 25.796806821286737 -73.974774014742025 0 -73.974774014742025 66.689733119618722 0 0 0 0 -11.180934780202733 -42.714731200321239 0 -42.714731200321239 40.458396479590192 0 0 0 0 59.59806382802708 -52.32376041481939 0 -52.32376041481939 22.516688565280674 0 0 0 0 34.44735675614902 -23.703306024883204 0 -23.703306024883204 67.368043468764881 0 0 0 0 30.53518279320997 -97.930159333562187 0 -97.930159333562187 61.145791455982362 0 0 0 0 -48.874653269984265 3.648783508631368 0 3.648783508631368 52.319031832977998 0 0 0 0 -33.65863569591238 -35.954269371504779 0 -35.954269371504779 92.648288947588298 0 0 0 0 -11.156978993090888 -12.102455580965398 0 -12.102455580965398 -4.5411273995414376 0 0 0 0 0.15071887894372971 -0.28605982864358381 0 -0.28605982864358381 0.8346607851755401 0 0 0 0 103.19028805742846 -36.468698175512031 0 -36.468698175512031 8.7870027241824573 0 0 0 0 -17.400918470557372 -13.837946364667914 0 -13.837946364667914 5.3611390568275965 0 0 0 0 -8.88409626815519 -26.839454968789596 0 -26.839454968789596 30.810227877835132 0 0 0 0 4.1079992612339993 -23.137503571930665 0 -23.137503571930665 9.6954094096981862 0 0 0 0 -2.83734834459392 -24.866092849753841 0 -24.866092849753841 9.2692148357582482 0 0 0 0 -16.086446294557391 -15.750393308456751 0 -15.750393308456751 32.733299823463312 0 0 0 0 -9.9824364316846186 -17.436855538012423 0 -17.436855538012423 9.4656135496416027 0 0 0 0 -15.717862175206392 -20.207191868406881 0 -20.207191868406881 32.053628722127996 0 0 0 0 -17.938517155155751 -23.782721144111747 0 -23.782721144111747 44.444315196553362 0 0 0 0 -14.720203609023883 -24.374530553911427 0 -24.374530553911427 30.97494567845871 0 0 0 0 -3.8072607935973792 -38.259517434054032 0 -38.259517434054032 48.397218646723559 0 0 0 0 -9.3533035174583219 -29.484893174350802 0 -29.484893174350802 20.717742917207943 0 0 0 0 -9.3407930376633885 -27.597049568166767 0 -27.597049568166767 23.238175470994975 0 0 0 0 -8.9078090155853715 -37.319899012904898 0 -37.319899012904898 43.976160828733555 0 0 0 0 6.6979059458026313 -46.71105757271016 0 -46.71105757271016 14.291781119295592 0 0 0 0 6.4356346661188581 -44.62051784406458 0 -44.62051784406458 -2.3164643634463573 0 0 0 0 -2.8313152943810564 -41.704653222643174 0 -41.704653222643174 23.465470196655062 0 0 0 0 -9.6356638786382973 -28.926839310510786 0 -28.926839310510786 20.572372759992504 0 0 0 0 -4.1044032888166839 -34.903896439267555 0 -34.903896439267555 -6.9210445865610382 0 0 0 0 -1.3224262428993825 -41.673311707378161 0 -41.673311707378161 -1.8379326739986936 0 0 0 0 4.5221231809082383 -47.670572035825444 0 -47.670572035825444 -18.682132929210638 0 0 0 0 -1.6004826808184589 -53.675899733876122 0 -53.675899733876122 -12.760469643510078 0 0 0 0 -2.4024879453409085 -51.433861827604915 0 -51.433861827604915 -18.077731044762913 0 0 0 0 3.9090828865846561 -54.841185014966868 0 -54.841185014966868 -17.92006146561107 0 0 0 0 -3.7091076433189301 -54.038128182432047 0 -54.038128182432047 -16.396705428620407 0 0 0 0 4.4016061309557699 -51.949515605199849 0 -51.949515605199849 -12.376074098393246 0 0 0 0 5.5435695829146425 -50.36222320816114 0 -50.36222320816114 -20.344387164843283 0 0 0 0 2.9752590190828414 -47.292068393933505 0 -47.292068393933505 0.84355698380204558 0 0 0 0 12.548709555792811 -45.415472952253822 0 -45.415472952253822 -11.294706363731166 0 0 0 0 17.592291954453685 -50.255570893401909 0 -50.255570893401909 -6.6581566404793193 0 0 0 0 17.107704590280264 -39.820165525307857 0 -39.820165525307857 -0.74568348867614986 0 0 0 0 17.978604031060968 -35.648174254027253 0 -35.648174254027253 -6.0775109043597695 0 0 0 0 36.221520257305201 -40.504831187196942 0 -40.504831187196942 -4.9068406201040489 0 0 0 0 22.346820696552641 -43.117129173280318 0 -43.117129173280318 -12.227477197127882 0 0 0 0 7.5670650156498596 -41.989874324734046 0 -41.989874324734046 -10.270534156977192 0 0 0 0 11.003698736344177 -49.865696158444507 0 -49.865696158444507 -22.931963294318848 0 0 0 0 2.0365183263202198 -46.659889572394604 0 -46.659889572394604 -23.943862139112753 0 0 0 0 6.6197122382527596 -51.592681814224306 0 -51.592681814224306 -43.766461060113215 0 0 0 0 8.5201256874861429 -34.426580283708063 0 -34.426580283708063 -6.3869743325390118 0 0 0 0 12.470496504678522 -46.112920130508883 0 -46.112920130508883 -24.272651817629594 0 0 0 0 3.9784117723429517 -43.53947289302323 0 -43.53947289302323 -24.975878176996957 0 0 0 0 4.0520692099689768 -38.381124603038643 0 -38.381124603038643 -61.820756187747975 0 0 0 0 6.6373582176092896 -43.113640445790224 0 -43.113640445790224 -25.854907204396113 0 0 0 0 3.9348439063228398 -55.841177578883389 0 -55.841177578883389 -40.856775395104705 0 0 0 0 3.9867648179515527 -49.03833003240743 0 -49.03833003240743 -59.699760624547707 0 0 0 0 -0.20758444313469226 -45.624444048817622 0 -45.624444048817622 -43.862471524998277 0 0 0 0 1.6637864966814959 -45.510424366938423 0 -45.510424366938423 -36.410231985726568 0 0 0 0 3.8521877561179281 -46.13192903109848 0 -46.13192903109848 -36.796542936222522 0 0 0 0 6.9923578475500108 -36.212421316313339 0 -36.212421316313339 -59.625830053581012 0 0 0 0 5.990055185622623 -35.912126814336261 0 -35.912126814336261 -31.977420618507949 0 0 0 0 2.7718256373227632 -48.672997180277889 0 -48.672997180277889 -26.85676049202857 0 0 0 0 7.5075152374447498 -37.06082053206319 0 -37.06082053206319 -31.494746221640526 0 0 0 0 1.6763682733544556 -46.224660199663958 0 -46.224660199663958 -22.008050899858063 0 0 0 0 -0.2667259725749318 -52.020270179310501 0 -52.020270179310501 -16.542490762352827 0 0 0 0 0.21229930324443558 -52.316228737867277 0 -52.316228737867277 -19.519641479266284 0 0 0 0 0.83785805205843644 -50.800671092554694 0 -50.800671092554694 -20.290623035038834 0 0 0 0 3.6596913807616147 -51.530509618363112 0 -51.530509618363112 -28.050741831182677 0 0 0 0 1.29056971000864 -47.748583260502528 0 -47.748583260502528 -25.224544511682325 0 0 0 0 2.5095886352137313 -51.580331122506323 0 -51.580331122506323 -24.53456063196063 0 0 0 0 -7.5278538558304717 -14.295586670869852 0 -14.295586670869852 -5.2250264536414761 0 0 0 0 1.8747168304798834 -30.647616148756242 0 -30.647616148756242 13.147431026218328 0 0 0 0 17.616170858535042 -32.911920274792692 0 -32.911920274792692 -5.9032358426557039 0 0 0 0 7.8839986638167829 -1.0113622686249073 0 -1.0113622686249073 -4.8641902445015148 0 0 0 0 1.9058684474694445 -2.4196028742667295 0 -2.4196028742667295 -0.85238293280788646 0 0 0 0 -1.5684302315130481 -40.825555528595032 0 -40.825555528595032 -8.4823045686553087 0 0 0 0 -11.69441608836496 -25.192716043535256 0 -25.192716043535256 -7.622088762540443 0 0 0 0 -7.5250837928397232 -40.607777155930307 0 -40.607777155930307 -3.2884779502564925 0 0 0 0 -0.16348426390686654 -41.310781126400798 0 -41.310781126400798 -11.804749313865614 0 0 0 0 -7.8453884645314247 -48.860002286166491 0 -48.860002286166491 -11.351413155385671 0 0 0 0 -4.5055915343473316 -47.566825152696765 0 -47.566825152696765 -13.065416533716416 0 0 0 0 0.42890673861211326 -42.514479865156773 0 -42.514479865156773 -10.172995036275097 0 0 0 0 6.3838166298264696 -34.461422159809445 0 -34.461422159809445 -6.683614613791633 0 0 0 0 16.990221149855643 -24.157114805104356 0 -24.157114805104356 -15.064122837991818 0 0 0 0 27.097875998904783 -20.9200286689329 0 -20.9200286689329 -2.6526298135859179 0 0 0 0 21.272310858887799 -15.712981227523006 0 -15.712981227523006 4.7424392336179224 0 0 0 0 12.403355644228213 -23.30430718567095 0 -23.30430718567095 -2.5320546383827605 0 0 0 0 17.812956863894215 -7.6425388361785735 0 -7.6425388361785735 29.856392013938603 0 0 0 0 11.687549321708502 -23.276285953406841 0 -23.276285953406841 18.989044041303714 0 0 0 0 21.100607807937195 -20.614175982391316 0 -20.614175982391316 32.664323174674792 0 0 0 0 17.805292019478657 -19.700825756808626 0 -19.700825756808626 33.602259994284395 0 0 0 0 26.092036240221205 -16.045805527952325 0 -16.045805527952325 29.301240414759377 0 0 0 0 24.391216099773374 -23.213307173573412 0 -23.213307173573412 32.498713449909701 0 0 0 0 20.542896761075099 -22.905468016499071 0 -22.905468016499071 33.909132500295527 0 0 0 0 14.149903663314824 -13.445424116754449 0 -13.445424116754449 2.6873203833770489 0 0 0 0 35.146263130845909 -3.5881785776964534 0 -3.5881785776964534 -17.833475588210604 0 0 0 0 6.5439924022424094 -6.6663871632600191 0 -6.6663871632600191 0.4950390187498197 0 0 0 0 6.1764551624582964 -7.0241273536285007 0 -7.0241273536285007 -0.86049588746300287 0 0 0 0 9.0477367621343863 -10.549872705626278 0 -10.549872705626278 4.2403944894164809 0 0 0 0 21.140615474207937 -13.155241115903188 0 -13.155241115903188 -7.4095320852308184 0 0 0 0 28.513517039435101 -30.367063743491599 0 -30.367063743491599 29.382324866423005 0 0 0 0 -7.7085938196796633 -26.528532360936424 0 -26.528532360936424 22.383034710057473 0 0 0 0 58.745539108545927 -12.239390526670832 0 -12.239390526670832 -27.592049494818639 0 0 0 0 27.030250171346779 -44.210549879897371 0 -44.210549879897371 93.655944847072533 0 0 0 0 6.9439055873438793 -5.2751447233340842 0 -5.2751447233340842 -6.4127228249657122 0 0 0 0 22.827427613712644 -22.843227825818758 0 -22.843227825818758 51.441770323160199 0 0 0 0 47.182225065460443 -60.57730328294565 0 -60.57730328294565 43.322783156203513 0 0 0 0 20.426162461630156 -28.251850416403613 0 -28.251850416403613 38.530036134441616 0 0 0 0 22.720863908376487 -24.971940578900103 0 -24.971940578900103 35.591661544101953 0 0 0 0 2.5729425202504359 3.7013597433970151 0 3.7013597433970151 -6.7836736385697467 0 0 0 0 27.582264514814597 -44.005519456054571 0 -44.005519456054571 25.203513803745409 0 0 0 0 29.749299873473319 -26.604146869105762 0 -26.604146869105762 2.7142818601987528 0 0 0 0 36.137293540719838 -39.393940064952403 0 -39.393940064952403 9.5889460564067122 0 0 0 0 20.258813038566586 -26.294114560252638 0 -26.294114560252638 20.227094193090124 0 0 0 0 35.174136828405608 -41.267197162795128 0 -41.267197162795128 12.456419198257208 0 0 0 0 61.320547054596318 -31.752241334445443 0 -31.752241334445443 12.526391327561214 0 0 0 0 1.2038915230288665 -3.2026517206324279 0 -3.2026517206324279 -4.2272779848840329 0 0 0 0 52.899015312512347 -17.592442305795885 0 -17.592442305795885 -8.0401619831955031 0 0 0 0 12.258807725904262 -24.059412924440039 0 -24.059412924440039 8.6000878393970197 0 0 0 0 40.791408685352508 -36.747905604426705 0 -36.747905604426705 12.189241706263601 0 0 0 0 38.227083590478287 -34.642527402512314 0 -34.642527402512314 15.889407930681045 0 0 0 0 51.090597481037548 -35.587127517852423 0 -35.587127517852423 15.924942211333018 0 0 0 0 51.186155903721556 -38.504646710159932 0 -38.504646710159932 41.060815352753707 0 0 0 0 41.115099325041228 -28.608254985242638 0 -28.608254985242638 39.004181041165793 0 0 0 0 41.846832864217504 -36.292216809436468 0 -36.292216809436468 57.000379507793696 0 0 0 0 66.976733191208041 5.4051232655137937 0 5.4051232655137937 69.777304274452945 0 0 0 0 19.294398177922631 -27.826903130657456 0 -27.826903130657456 24.519244453847932 0 0 0 0 39.242269462611603 -39.896411125767713 0 -39.896411125767713 29.919516984695292 0 0 0 0 5.9728095896134619 -19.894172332587914 0 -19.894172332587914 48.152013593348784 0 0 0 0 -2.0123526242769003 -4.6211192447703979 0 -4.6211192447703979 24.818279501660072 0 0 0 0 69.583813719062164 6.8784944474341501 0 6.8784944474341501 -183.37692209278703 0 0 0 0 -0.62201512943541104 -0.051120884423646373 0 -0.051120884423646373 -0.28689949471004716 0 0 0 0 -29.793688454351951 -43.204884161853862 0 -43.204884161853862 -25.268254958173202 0 0 0 0 -30.380087134170026 11.83914538092813 0 11.83914538092813 -60.354949866879906 0 0 0 0 -0.15190855089601585 -1.9567390291845399 0 -1.9567390291845399 -2.6718748630467388 0 0 0 0 36.599497709019488 -27.49200330765143 0 -27.49200330765143 47.514235407448723 0 0 0 0 93.693232831530622 -80.644937319808378 0 -80.644937319808378 -13.504294044847484 0 0 0 0 154.56585344031373 -0.5018993983794644 0 -0.5018993983794644 -116.19273521955711 0 0 0 0 93.217164050194697 -60.843414823877538 0 -60.843414823877538 -112.83118969358748 0 0 0 0 -96.127648742602105 -74.089690615309792 0 -74.089690615309792 -38.203730815617746 0 0 0 0 -127.05690099734056 -43.917238171256486 0 -43.917238171256486 -4.2783478645687865 0 0 0 0 -55.347948258429824 -48.769359382942639 0 -48.769359382942639 -15.507581216765175 0 0 0 0 -55.099928482144605 -37.958983898086899 0 -37.958983898086899 -26.224311454443523 0 0 0 0 -75.729189901245263 -8.6629881000471869 0 -8.6629881000471869 -7.2409453402742656 0 0 0 0 -27.334825974048726 -10.400648764160906 0 -10.400648764160906 -7.2173433575919717 0 0 0 0 -2.0793452890684421 -19.939968818893249 0 -19.939968818893249 -11.25480181292005 0 0 0 0 -38.208405371209665 -36.471201587889482 0 -36.471201587889482 -14.26460831562872 0 0 0 0 -20.102838643568248 -42.623526519424331 0 -42.623526519424331 -12.197470130871807 0 0 0 0 -19.019106758645648 -40.004648439229641 0 -40.004648439229641 -7.8299781230516601 0 0 0 0 -10.137796817361959 -51.943787075453656 0 -51.943787075453656 -15.286451277657761 0 0 0 0 -25.071886169109348 -56.584229846118888 0 -56.584229846118888 -22.675737791014399 0 0 0 0 -14.770902936339553 -48.081230312269327 0 -48.081230312269327 -16.655896718261829 0 0 0 0 -7.4139247506282118 -56.717337328699614 0 -56.717337328699614 -21.895488860631303 0 0 0 0 -0.99011784865831487 -47.107046213030088 0 -47.107046213030088 -31.412496456410736 0 0 0 0 -16.774446273244394 -49.395760853325555 0 -49.395760853325555 -17.940632800778076 0 0 0 0 -17.770977967822546 -44.668377628441704 0 -44.668377628441704 -27.916489452029964 0 0 0 0 -40.974046291590639 -62.402953583366298 0 -62.402953583366298 -34.31043806460184 0 0 0 0 -49.053728946048977 7.6768966759059367 0 7.6768966759059367 35.895539820150589 0 0 0 0 -11.956061657598184 -42.036173135292756 0 -42.036173135292756 -31.754631811332729 0 0 0 0 -4.7913834202772705 -22.44804342946918 0 -22.44804342946918 -7.6499960126411679 0 0 0 0 -29.298938101790554 -28.272751089901249 0 -28.272751089901249 -33.997668668231967 0 0 0 0 -46.343261136383262 -65.537592418530721 0 -65.537592418530721 -91.748277800350479 0 0 0 0 -45.255452896103634 23.010295598072844 0 23.010295598072844 -76.309550993222729 0 0 0 0 -344.87457502632242 -66.878566086209958 0 -66.878566086209958 176.90570238849341 0 0 0 0 -14.234745027633835 -20.041377805946013 0 -20.041377805946013 42.17262742578896 0 0 0 0 -2.0590840079930786 -60.183757225478075 0 -60.183757225478075 78.728540956669349 0 0 0 0 23.735800753711374 -33.932402873235333 0 -33.932402873235333 19.154936037137304 0 0 0 0 20.124987202540069 -15.257701036391154 0 -15.257701036391154 10.504677074944993 0 0 0 0 -119.03310182025962 -28.620017013416145 0 -28.620017013416145 22.328408075221887 0 0 0 0 90.46839965073741 -48.19994025144797 0 -48.19994025144797 19.164152101596301 0 0 0 0 0.092593114326488646 0.063557136931951419 0 0.063557136931951419 1.5101182987267663 0 0 0 0 -143.6173555085802 -98.940157679037497 0 -98.940157679037497 -97.882331636335948 0 0 0 0 -1.2725060362258676 -2.6310938080635928 0 -2.6310938080635928 4.4196423957275179 0 0 0 0 11.330343730345248 -13.001459222809444 0 -13.001459222809444 2.0529082198227115 0 0 0 0 -21.166345409220185 -20.122093422118041 0 -20.122093422118041 13.702288628475799 0 0 0 0 2.0943476345128147 -15.186739935199512 0 -15.186739935199512 3.3144901891628251 0 0 0 0 2.8128494558404782 -23.515053582703331 0 -23.515053582703331 15.063757681375137 0 0 0 0 11.051332064940652 -20.643451877793268 0 -20.643451877793268 6.6334786616662313 0 0 0 0 6.3619255338162475 -12.856357497014869 0 -12.856357497014869 11.637205378605358 0 0 0 0 -7.3029407397902659 -13.185959012491949 0 -13.185959012491949 -9.2592060075708815 0 0 0 0 -15.477415529721839 -50.760750051104765 0 -50.760750051104765 22.863819827324392 0 0 0 0 12.727706281690189 -15.951071642489296 0 -15.951071642489296 -18.779507332676076 0 0 0 0 -21.539614215103938 -24.940458348739412 0 -24.940458348739412 22.377806673515806 0 0 0 0 -17.303504431125475 -19.787099737229255 0 -19.787099737229255 6.2215938838962757 0 0 0 0 -18.336258971696225 -25.456901516059588 0 -25.456901516059588 10.209661812387822 0 0 0 0 -6.3256694705178234 -31.526621993139088 0 -31.526621993139088 -10.748251295422961 0 0 0 0 41.398947227344252 -106.41604863739121 0 -106.41604863739121 11.759715532474729 0 0 0 0 52.673152730461879 -26.844062867254252 0 -26.844062867254252 -1.7951000263747119 0 0 0 0 15.957691215144223 -24.580971025200142 0 -24.580971025200142 8.4265531673700025 0 0 0 0 36.860515231634054 -38.577122446068643 0 -38.577122446068643 -9.8100319288978426 0 0 0 0 9.2472970097587677 -24.222454354257934 0 -24.222454354257934 -15.719003303962381 0 0 0 0 -0.31266924781084526 -21.008200103849958 0 -21.008200103849958 14.164039427931129 0 0 0 0 19.082648460952441 -14.134393045670322 0 -14.134393045670322 -5.376430797699868 0 0 0 0 17.132682513503823 -20.318838923049043 0 -20.318838923049043 31.978033331522965 0 0 0 0 17.07405473408835 -23.220175198607649 0 -23.220175198607649 11.284358397435426 0 0 0 0 42.188713288742292 -23.423101955267157 0 -23.423101955267157 3.8689664245275708 0 0 0 0 45.817081290744682 -9.307414807641635 0 -9.307414807641635 33.950233547377138 0 0 0 0 23.460588730369636 -34.344773808986247 0 -34.344773808986247 25.771197325360845 0 0 0 0 16.016168318086784 -26.568371073214621 0 -26.568371073214621 23.238785010898937 0 0 0 0 219.6768639706479 -48.4151429733638 0 -48.4151429733638 -27.40277628781314 0 0 0 0 -0.066634322909568694 -0.58418533435677134 0 -0.58418533435677134 -0.79261031415405014 0 0 0 0 137.94247573963548 28.887183557586468 0 28.887183557586468 18.090571288335923 0 0 0 0 38.174731425370737 -29.996959159282142 0 -29.996959159282142 25.812462194149703 0 0 0 0 101.03031522592573 -42.746314653126319 0 -42.746314653126319 15.551429133873171 0 0 0 0 55.65791691834238 4.6466473960745134 0 4.6466473960745134 80.823637347317344 0 0 0 0 60.493056046127549 -21.519726810555426 0 -21.519726810555426 -1.890240088920109 0 0 0 0 23.227962084241881 -32.758106974242764 0 -32.758106974242764 8.0498076679959922 0 0 0 0 4.3512430862647307 -40.45652146478551 0 -40.45652146478551 26.736363402353163 0 0 0 0 22.153433154344384 -35.754275616681298 0 -35.754275616681298 35.601836122128532 0 0 0 0 20.431006583774433 -40.523699583722191 0 -40.523699583722191 -38.442418678996546 0 0 0 0 15.185376060566341 -23.85390901934079 0 -23.85390901934079 3.8242850614951749 0 0 0 0 -5.3064643804043499 -23.441368854143263 0 -23.441368854143263 5.3148855356266722 0 0 0 0 -3.4802139750127026 -48.645086352214889 0 -48.645086352214889 8.3076416371859523 0 0 0 0 11.401910445241811 -35.717794598460387 0 -35.717794598460387 -25.001786919792721 0 0 0 0 11.011301367281703 -45.211136756992346 0 -45.211136756992346 1.3634077626056751 0 0 0 0 51.466295221402106 -39.770394786341058 0 -39.770394786341058 -0.19620742459483154 0 0 0 0 13.918707243617973 -33.332699468699502 0 -33.332699468699502 6.6399881016131985 0 0 0 0 10.288595349222305 -38.880934102628999 0 -38.880934102628999 10.436044431477285 0 0 0 0 13.055373891684212 -34.429648886906762 0 -34.429648886906762 15.744380063866629 0 0 0 0 -0.057822033366964121 0.32263948480476756 0 0.32263948480476756 0.83598687463839383 0 0 0 0 -0.28922102900828506 -0.014778712694708318 0 -0.014778712694708318 0.99044343534214718 0 0 0 0 91.141497321350471 -19.652588065629971 0 -19.652588065629971 -23.300862936455815 0 0 0 0 -188.6880572543032 -74.217589984544134 0 -74.217589984544134 -12.193138356997224 0 0 0 0 -183.05425515599427 -9.3788042302190888 0 -9.3788042302190888 -9.4330361509018985 0 0 0 0 38.21757368703129 -2.2726137894071599 0 -2.2726137894071599 4.429374973726226 0 0 0 0 -59.446472190078566 -56.244315745497261 0 -56.244315745497261 -2.8648624920206203 0 0 0 0 -13.08669781558001 -14.244205255451789 0 -14.244205255451789 -2.5517426305905246 0 0 0 0 -1.1367991480767596 -2.7609386210580915 0 -2.7609386210580915 -0.25185620253072827 0 0 0 0 15.842259527762508 -107.31482737100214 0 -107.31482737100214 -18.312654333265527 0 0 0 0 12.879931976029184 -3.0177587417692848 0 -3.0177587417692848 9.0288413634953031 0 0 0 0 -2.6926885527791455 -1.1568122284770652 0 -1.1568122284770652 11.298859018089388 0 0 0 0 4.2368883867857221 -17.93324711085279 0 -17.93324711085279 8.2010800653442857 0 0 0 0 -1.7833538537652203 -15.740980653865336 0 -15.740980653865336 -5.5802722222288139 0 0 0 0 -10.973472257061076 -7.6951992844133201 0 -7.6951992844133201 9.1506952011113754 0 0 0 0 3.1193677840929013 -23.472095985419401 0 -23.472095985419401 9.9086579610793706 0 0 0 0 5.472347047758376 -30.808598604636245 0 -30.808598604636245 23.800578170428707 0 0 0 0 26.922245716210455 -18.380891428673749 0 -18.380891428673749 6.0668256329008727 0 0 0 0 -0.47001828001157264 -12.281126118681641 0 -12.281126118681641 2.9036740915307746 0 0 0 0 3.9602232942597766 -23.306823105617696 0 -23.306823105617696 9.2269296498143376 0 0 0 0 3.1806239555317006 -20.353113952251988 0 -20.353113952251988 1.7897176070109708 0 0 0 0 -18.988491606360185 -18.0796490249013 0 -18.0796490249013 -6.2597846922581084 0 0 0 0 1.5573079844343738 -9.7692023078429884 0 -9.7692023078429884 -3.8494308681765688 0 0 0 0 -17.096085168879654 -0.99638435220276733 0 -0.99638435220276733 -6.5687498254378625 0 0 0 0 -4.0953301411118446 -9.7791766728932998 0 -9.7791766728932998 0.074138842446700437 0 0 0 0 -1.8791527199173288 -12.226790655717195 0 -12.226790655717195 -8.3909435804234818 0 0 0 0 -7.7036365718414785 -13.321591941730711 0 -13.321591941730711 -7.2131868844806872 0 0 0 0 -4.5499691022469051 0.89083874116522566 0 0.89083874116522566 -22.125874664754519 0 0 0 0 -5.7279217245959444 -7.3213650995130592 0 -7.3213650995130592 -2.2754742245624584 0 0 0 0 -3.9412140832864679 -10.869988061559525 0 -10.869988061559525 -18.61540857932232 0 0 0 0 12.713370873763779 -24.0022990278203 0 -24.0022990278203 28.193934241895818 0 0 0 0 -23.571532854399265 -28.483550678265601 0 -28.483550678265601 89.124883364016867 0 0 0 0 -39.658823737976491 23.961883503311583 0 23.961883503311583 91.227643003429421 0 0 0 0 -6.4110875911719631 -4.747940411595664 0 -4.747940411595664 29.144898865276332 0 0 0 0 1.1644299214640341 1.8714121647060438 0 1.8714121647060438 1.6126434681864339 0 0 0 0 -1.5819955941542503 5.0452911447809896 0 5.0452911447809896 5.3718150247814265 0 0 0 0 13.518512553608161 -5.149008683719785 0 -5.149008683719785 2.6058206327161315 0 0 0 0 4.5028788803138013 -18.828095817662359 0 -18.828095817662359 -49.816749660383721 0 0 0 0 -0.78649434782255412 -4.661319737984627 0 -4.661319737984627 -9.2403636437593377 0 0 0 0 -0.64446384902430509 -10.067835058193836 0 -10.067835058193836 -5.8321471941817435 0 0 0 0 6.6013148500351235 12.806237609076561 0 12.806237609076561 -15.032101643871556 0 0 0 0 4.7998578706142325 -5.1754363642982923 0 -5.1754363642982923 -22.380521433909053 0 0 0 0 0.69963674390237429 -24.985016384831397 0 -24.985016384831397 -15.271723354841924 0 0 0 0 -0.54950374220061349 111.49088363103465 0 111.49088363103465 -40.60885979327395 0 0 0 0 -1.2776950984371069 -117.54254262191444 0 -117.54254262191444 -178.94078627341378 0 0 0 0 32.044019591223332 53.31523826299599 0 53.31523826299599 -125.90097509161126 0 0 0 0 -29.71340893674278 94.892896308605941 0 94.892896308605941 31.025102943068987 0 0 0 0 -10.777177470176866 -16.352258746455504 0 -16.352258746455504 -6.6829898084379238 0 0 0 0 7.9895325955640146 -6.4396502135368792 0 -6.4396502135368792 -7.0584563136339966 0 0 0 0 3.0221617244764012 -5.1554731018528308 0 -5.1554731018528308 -3.2031547917358481 0 0 0 0 -6.3838930721522047 -11.540355402715704 0 -11.540355402715704 -3.393658860605683 0 0 0 0 -1.8586320059146573 -5.1344426660952749 0 -5.1344426660952749 4.1974320507074445 0 0 0 0 -0.18924176157002393 -0.42840822516543753 0 -0.42840822516543753 -1.4917442162537746 0 0 0 0 16.162927235400275 -11.036720283512523 0 -11.036720283512523 15.22634278036594 0 0 0 0 0.85080086288508028 2.234025421039405 0 2.234025421039405 -2.0977037992161058 0 0 0 0 -3.6472526089928579 3.2486698525790416 0 3.2486698525790416 4.9556246695647133 0 0 0 0 -0.033964848489901556 -0.011234528833304891 0 -0.011234528833304891 0.33129519202349789 0 0 0 0 -2.7748416131281175 -7.4436645189843418 0 -7.4436645189843418 5.5422221802908673 0 0 0 0 -4.9313768733318284 -9.3548222356964743 0 -9.3548222356964743 -5.3675214023769513 0 0 0 0 -4.7113937728712827 -9.1242567364060072 0 -9.1242567364060072 -5.2219019336421839 0 0 0 0 -1.6169225254548785 -3.0380921458864965 0 -3.0380921458864965 -3.6084770760932265 0 0 0 0 -45.639424387325562 -4.5142030623001119 0 -4.5142030623001119 -16.344806515287019 0 0 0 0 -10.700221337287076 -16.074763740972685 0 -16.074763740972685 -6.9861259222388981 0 0 0 0 -10.901121897426492 -15.955635863050702 0 -15.955635863050702 -7.0353628405243853 0 0 0 0 -10.375179155338415 -9.9261322600137252 0 -9.9261322600137252 -4.8048366713015946 0 0 0 0 -11.173352367937696 -16.099844864615079 0 -16.099844864615079 -6.8428618594352884 0 0 0 0 -25.630088616079547 -22.157821031900198 0 -22.157821031900198 -2.749019755905465 0 0 0 0 4.4794328471970601 -6.6545291630232475 0 -6.6545291630232475 0.50558087018491449 0 0 0 0 -8.7468119696850408 -6.9948425056932138 0 -6.9948425056932138 -14.272189613247065 0 0 0 0 -8.316508101659565 -24.089767609600131 0 -24.089767609600131 -27.038269511489489 0 0 0 0 -8.3152768382824434 -3.9204629596697487 0 -3.9204629596697487 -5.4930174043656734 0 0 0 0 -1.36038004195143 -11.960438295329368 0 -11.960438295329368 -7.9760251892494125 0 0 0 0 11.567361076100497 -2.0177344291141708 0 -2.0177344291141708 -3.5531543949728075 0 0 0 0 -3.2445235968116322 -8.975516711923774 0 -8.975516711923774 33.363048720930237 0 0 0 0 78.748577685908458 11.31149597784588 0 11.31149597784588 -4.5392860629708593 0 0 0 0 53.41898616103208 -45.262385882563649 0 -45.262385882563649 6.6987234649309357 0 0 0 0 21.825899404235315 -6.6002916143602306 0 -6.6002916143602306 -20.81382986067365 0 0 0 0 -22.435806723244241 -7.6497419280526628 0 -7.6497419280526628 21.80899553515701 0 0 0 0 -1.244849841670657 -13.418099275850182 0 -13.418099275850182 -0.70363611716038577 0 0 0 0 -2.22181839927498 -11.521175337609748 0 -11.521175337609748 0.21802189789741533 0 0 0 0 0.36479827822495281 -7.2446786349976264 0 -7.2446786349976264 3.27726246117345 0 0 0 0 -0.28175955269067998 -5.2551222473972743 0 -5.2551222473972743 -0.07937875865097066 0 0 0 0 5.0440497602921823 -2.0442027415328994 0 -2.0442027415328994 3.7312219460000051 0 0 0 0 8.2120720290695317 -34.973849443778818 0 -34.973849443778818 -5.1279995768293247 0 0 0 0 10.290533209908745 -4.4221528260562764 0 -4.4221528260562764 -4.1003131647194095 0 0 0 0 7.4619883751332168 -6.8079231318466213 0 -6.8079231318466213 2.5720786580850259 0 0 0 0 16.334450579099212 -9.6025405399841475 0 -9.6025405399841475 -1.4055365313934089 0 0 0 0 17.363503882954319 -3.1135045909632026 0 -3.1135045909632026 -8.3102536552632955 0 0 0 0 2.0317581995136074 -2.0552280703047376 0 -2.0552280703047376 0.51263752761387948 0 0 0 0 -63.277971950989013 -130.14259359747939 0 -130.14259359747939 -26.519767020477957 0 0 0 0 20.499373918009951 -3.8851784113746817 0 -3.8851784113746817 -8.4319675331043982 0 0 0 0 12.83787662904615 -18.408397565171072 0 -18.408397565171072 -89.433991436139877 0 0 0 0 -1.8487443817125992 -2.7893913144442575 0 -2.7893913144442575 1.9587131985097663 0 0 0 0 61.53854376097479 -70.693137518456297 0 -70.693137518456297 -25.192648591173565 0 0 0 0 -57.532776098185423 -1.9522596918131967 0 -1.9522596918131967 13.659528655859958 0 0 0 0 -17.543598391544947 -16.13852453801519 0 -16.13852453801519 22.825279268441591 0 0 0 0 7.9672019824511846 -11.199054297180279 0 -11.199054297180279 11.5212174899197 0 0 0 0 -5.3638162991856007 -11.109941292621443 0 -11.109941292621443 12.564741797323222 0 0 0 0 11.583539522486497 -7.8254618293064464 0 -7.8254618293064464 0.49387412839425515 0 0 0 0 18.05987456445655 -62.280805910107347 0 -62.280805910107347 6.4754621622687409 0 0 0 0 43.158549948993823 -1.3292982323573597 0 -1.3292982323573597 -12.371077607692769 0 0 0 0 1.3891922451044074 -1.4758772940069447 0 -1.4758772940069447 -1.0191137491588407 0 0 0 0 -0.79791187755654391 -6.4899314933600181 0 -6.4899314933600181 4.8491552941068221 0 0 0 0 -15.32620417004 18.54602622517632 0 18.54602622517632 57.299958950711698 0 0 0 0 7.3567832308558962 -10.070498455600404 0 -10.070498455600404 -3.4204655257686696 0 0 0 0 -40.076705510401553 -19.32936816098163 0 -19.32936816098163 14.744809405074193 0 0 0 0 15.806548146822024 6.8724924655098221 0 6.8724924655098221 -16.509717225160784 0 0 0 0 9.3973822438054722 -12.359587747512609 0 -12.359587747512609 9.788376212291098 0 0 0 0 78.853267058873826 -10.032399397023255 0 -10.032399397023255 -0.4412228649998724 0 0 0 0 -1.0205859955294727 -7.0016696312904969 0 -7.0016696312904969 1.2233726605295487 0 0 0 0 9.4524996393311085 -21.240746751480401 0 -21.240746751480401 13.324765333345567 0 0 0 0 7.7970419329758442 -16.976022196799931 0 -16.976022196799931 7.7348266396775216 0 0 0 0 2.9917683676021625 -16.279388511139587 0 -16.279388511139587 13.507102945835868 0 0 0 0 -1.6973187157036591 -8.6930857122715679 0 -8.6930857122715679 16.599510274663771 0 0 0 0 4.5169608427459025 -17.048635504426784 0 -17.048635504426784 13.834661343365951 0 0 0 0 11.209497865492267 -33.539431409490589 0 -33.539431409490589 47.890463254096176 0 0 0 0 3.7255186817983486 -3.6686236550858666 0 -3.6686236550858666 28.458800896849425 0 0 0 0 4.3957268919912167 -17.867261117323324 0 -17.867261117323324 11.843496732631593 0 0 0 0 76.32263760873866 -50.493667426250795 0 -50.493667426250795 0.21667953758878866 0 0 0 0 45.963286361738028 -52.565250840771114 0 -52.565250840771114 19.499952699761707 0 0 0 0 4.0380314401591022 14.47668690246428 0 14.47668690246428 5.2637824488156184 0 0 0 0 0.21947014597405712 -0.64502908538283776 0 -0.64502908538283776 0.22687703872231424 0 0 0 0 -0.058928563139790668 -0.043051740717876541 0 -0.043051740717876541 -0.74069030199998309 0 0 0 0 6.6373676510638688 8.7641588163314736 0 8.7641588163314736 -25.978588857873547 0 0 0 0 -30.667975417636626 -53.785055559252214 0 -53.785055559252214 -24.515683638041082 0 0 0 0 26.850353422751596 8.9401806783239408 0 8.9401806783239408 -5.9906435828961548 0 0 0 0 5.7254044379951665 2.3091916970442981 0 2.3091916970442981 -31.102668136169086 0 0 0 0 1.1539464823552734 -0.78243639225761541 0 -0.78243639225761541 -1.6383416264064863 0 0 0 0 10.216451378746406 -7.2926588816840123 0 -7.2926588816840123 -5.2074622229367069 0 0 0 0 9.4021967894495901 -16.841149844899519 0 -16.841149844899519 6.788308232828058 0 0 0 0 26.767086723529246 -14.221629122983813 0 -14.221629122983813 -17.311909520229165 0 0 0 0 8.0361429065858445 -6.8935929406999676 0 -6.8935929406999676 -6.419726360010074 0 0 0 0 25.833506303928516 -22.340524470502714 0 -22.340524470502714 -13.138647141041474 0 0 0 0 22.808052303415025 -37.951986059897536 0 -37.951986059897536 34.191028270493007 0 0 0 0 16.338602314346645 -44.307654771386296 0 -44.307654771386296 38.492791714568739 0 0 0 0 7.2458283567702892 -31.722571834893188 0 -31.722571834893188 27.289026161106449 0 0 0 0 29.972893444592046 -43.05664826526845 0 -43.05664826526845 32.703524446234951 0 0 0 0 29.782819988511619 -35.79811697565674 0 -35.79811697565674 37.931017094073468 0 0 0 0 5.4463256095659744 -34.28560707385077 0 -34.28560707385077 15.335697692899885 0 0 0 0 15.14271938118759 -48.355698962518545 0 -48.355698962518545 22.740501824675448 0 0 0 0 11.731702473104633 -48.738525577399741 0 -48.738525577399741 34.077363870359477 0 0 0 0 13.245617740683201 -56.193837885944731 0 -56.193837885944731 -34.630171117023565 0 0 0 0 55.770197185531288 -16.10376481667663 0 -16.10376481667663 2.0103255908252322 0 0 0 0 8.1691777777602965 -24.151394805120731 0 -24.151394805120731 -33.520885246582111 0 0 0 0 -1.1587338571798682 -48.500009464017239 0 -48.500009464017239 -0.70077631333242607 0 0 0 0 -19.94593760953876 -40.600068133234345 0 -40.600068133234345 -40.017507526230474 0 0 0 0 -12.78471567714314 -79.465599010098231 0 -79.465599010098231 -167.68334605406108 0 0 0 0 11.792853928039222 -69.774478041103976 0 -69.774478041103976 -116.48440354934974 0 0 0 0 30.761404665036935 -33.526115589026631 0 -33.526115589026631 -58.914838423746914 0 0 0 0 57.976811305094998 -56.308808399258851 0 -56.308808399258851 -51.938147447133815 0 0 0 0 45.078531370812016 -69.075679918125388 0 -69.075679918125388 -64.37671189472394 0 0 0 0 76.7167478063825 -60.502913079973723 0 -60.502913079973723 -51.501187456844491 0 0 0 0 48.471747770496222 -42.78294723100953 0 -42.78294723100953 -40.822611345351106 0 0 0 0 8.8421092224289168 -61.788996714703899 0 -61.788996714703899 -33.761144579861138 0 0 0 0 40.399637826236244 4.8734025859419035 0 4.8734025859419035 1.535786411830486 0 0 0 0 184.38012840278566 68.230265404952661 0 68.230265404952661 -37.729550202506289 0 0 0 0 -0.16117351817336711 0.36799849937739104 0 0.36799849937739104 -1.092261678394415 0 0 0 0 52.104236540597412 -10.973810912422778 0 -10.973810912422778 -88.641874226456366 0 0 0 0 77.626540709232358 -55.199669392043688 0 -55.199669392043688 -116.1826154538212 0 0 0 0 -1.2200973832866673 -2.3003204668523516 0 -2.3003204668523516 -1.1409028750549748 0 0 0 0 -8.7734620368705691 -25.99597520159341 0 -25.99597520159341 -96.854639024808421 0 0 0 0 23.589336592350264 -45.66276941265005 0 -45.66276941265005 52.161954644604521 0 0 0 0 -0.43379342044965341 -0.31702712798993815 0 -0.31702712798993815 0.47378583497643234 0 0 0 0 93.432716683750186 -93.397216855075385 0 -93.397216855075385 -101.91871214007369 0 0 0 0 27.116303249246812 -8.7714225233639809 0 -8.7714225233639809 -106.35055395726886 0 0 0 0 -2.0069395504293368 -2.5546747859517112 0 -2.5546747859517112 -1.2202445305021783 0 0 0 0 -47.519232662699324 -94.030970770007116 0 -94.030970770007116 108.20365370044874 0 0 0 0 -14.346298993385972 22.918667073125107 0 22.918667073125107 42.883400902977883 0 0 0 0 25.214377212289037 -25.212448601223514 0 -25.212448601223514 20.199417926116439 0 0 0 0 -0.24412958147442687 -0.15045212241609462 0 -0.15045212241609462 0.25926760711475083 0 0 0 0 -7.6264873777622597 -2.5658901869769579 0 -2.5658901869769579 7.400013395366841 0 0 0 0 34.630297979440002 -41.26859437245912 0 -41.26859437245912 16.098049191532482 0 0 0 0 28.456261485076539 -33.616889880500821 0 -33.616889880500821 40.33113537198733 0 0 0 0 38.831562663271939 -36.189962156431534 0 -36.189962156431534 15.361956353761343 0 0 0 0 38.541012272760781 -32.491785714625621 0 -32.491785714625621 15.968638562131218 0 0 0 0 46.04278138158179 -29.836924719622857 0 -29.836924719622857 0.032366717474360485 0 0 0 0 29.966341862827448 -40.357760749016506 0 -40.357760749016506 19.312018152060773 0 0 0 0 20.379268279096323 -53.999454402649008 0 -53.999454402649008 0.010662913877240499 0 0 0 0 37.9610341970847 -42.453705102355343 0 -42.453705102355343 0.0018242761779732445 0 0 0 0 33.633067503661096 -45.263497268946139 0 -45.263497268946139 18.239472018392917 0 0 0 0 1.4364980458876744 -75.118262592880455 0 -75.118262592880455 104.21286215655618 0 0 0 0 31.618895817081466 -48.096969845304557 0 -48.096969845304557 38.26701522881558 0 0 0 0 25.749340316422604 -29.127042505761892 0 -29.127042505761892 -97.035024064420213 0 0 0 0 -4.930451175530834 21.312880621092063 0 21.312880621092063 -144.45138620790385 0 0 0 0 -0.18005423602990689 -1.0752931431758554 0 -1.0752931431758554 -0.74520301124607613 0 0 0 0 40.027020747126699 19.004597004266088 0 19.004597004266088 -264.08804206152672 0 0 0 0 8.121527857269939 -53.761335907618559 0 -53.761335907618559 -28.064958788287186 0 0 0 0 7.966398075061079 -49.878976766136475 0 -49.878976766136475 -79.775049899481928 0 0 0 0 -0.059405866571978549 -88.915987787943322 0 -88.915987787943322 -20.095383482139368 0 0 0 0 -10.126824975426644 -61.931072856073115 0 -61.931072856073115 16.705649999950765 0 0 0 0 -8.2141269597141218 -57.087298983528399 0 -57.087298983528399 0.0034105003087461228 0 0 0 0 9.8620148594554848 -44.09472517591621 0 -44.09472517591621 4.7703726335098509 0 0 0 0 -28.404197747327999 -55.416207618784028 0 -55.416207618784028 -0.012353920868918067 0 0 0 0 -20.396110088126079 -48.46077608892665 0 -48.46077608892665 -2.5298900286516073 0 0 0 0 -9.6342898543383626 -65.562018923146525 0 -65.562018923146525 -15.207074115003707 0 0 0 0 -16.508647747405576 -39.351293052374785 0 -39.351293052374785 -13.527812444586743 0 0 0 0 -1.8910269860371045 -57.853322896023201 0 -57.853322896023201 -23.862923768958353 0 0 0 0 10.153841511104474 -38.228968844378869 0 -38.228968844378869 -19.169979865552705 0 0 0 0 11.752427193203403 -30.000295937085866 0 -30.000295937085866 -7.1160599138329417 0 0 0 0 21.883197021046726 -24.395219637344326 0 -24.395219637344326 -10.985370756008706 0 0 0 0 21.800161308088718 -29.923702897710427 0 -29.923702897710427 15.817488184849935 0 0 0 0 11.106745992564356 -27.227833353774713 0 -27.227833353774713 -8.7183666008131695 0 0 0 0 9.6838822807112592 -21.279774957234622 0 -21.279774957234622 10.803968333171497 0 0 0 0 14.01793333440196 -38.964847871696406 0 -38.964847871696406 -42.07302610082661 0 0 0 0 0.89343744870802766 -39.550586762949933 0 -39.550586762949933 -35.344826775419278 0 0 0 0 5.6752652891809703 -20.461607317181006 0 -20.461607317181006 -14.826751423133828 0 0 0 0 -25.57095895150087 -34.454296776905721 0 -34.454296776905721 -31.174401407236473 0 0 0 0 6.1757657488578843 -12.518530490277044 0 -12.518530490277044 -16.855615168068653 0 0 0 0 3.542438746874268 -23.441740920093707 0 -23.441740920093707 10.117341932702402 0 0 0 0 9.3034461393199308 -10.651438262100783 0 -10.651438262100783 4.8008010471685338 0 0 0 0 8.4552516868679959 -13.367243420778323 0 -13.367243420778323 15.992490789149088 0 0 0 0 17.47635341510977 -30.930881687349029 0 -30.930881687349029 11.409795391331954 0 0 0 0 -13.666558167392395 -24.250730312505311 0 -24.250730312505311 10.729489869772806 0 0 0 0 5.2740911890923599 -24.374108751297172 0 -24.374108751297172 24.846576763142366 0 0 0 0 12.513125924859196 -26.591009796833532 0 -26.591009796833532 25.52296543155353 0 0 0 0 22.042388670914079 -20.600644495181768 0 -20.600644495181768 29.241099963033776 0 0 0 0 15.7107210934455 -26.411415375208207 0 -26.411415375208207 36.188201553413819 0 0 0 0 16.04392057642599 -31.165592675364678 0 -31.165592675364678 33.453842369439371 0 0 0 0 44.162799275371071 -29.444719805720524 0 -29.444719805720524 33.541479668201646 0 0 0 0 8.4387136227792325 -17.243249621757514 0 -17.243249621757514 25.818845894791593 0 0 0 0 14.680511054582894 -19.748778752004 0 -19.748778752004 19.663822111147965 0 0 0 0 14.210865508851157 -15.026058973152203 0 -15.026058973152203 25.093813361876528 0 0 0 0 15.00418666414771 -20.904654891715836 0 -20.904654891715836 30.74875304055422 0 0 0 0 16.741429438552586 -18.786922832914115 0 -18.786922832914115 32.663034214812797 0 0 0 0 18.408585480534384 -15.559238739206194 0 -15.559238739206194 26.080061962928994 0 0 0 0 14.115681647715974 -12.924379625894289 0 -12.924379625894289 28.691330687925074 0 0 0 0 14.560467813127616 -8.0223183597299794 0 -8.0223183597299794 29.82590173806966 0 0 0 0 18.827366424386128 -11.973898414100404 0 -11.973898414100404 25.296638767133118 0 0 0 0 10.330773426614542 -9.6261409289998028 0 -9.6261409289998028 24.792672556464822 0 0 0 0 13.796974635599327 -10.533767991062632 0 -10.533767991062632 26.585498802405709 0 0 0 0 20.655087925732005 -9.2970179967487638 0 -9.2970179967487638 21.189262419804436 0 0 0 0 17.104818557776525 -4.8372231483872383 0 -4.8372231483872383 31.680825091334555 0 0 0 0 16.237573692350452 -16.125214861190216 0 -16.125214861190216 24.213616318585991 0 0 0 0 22.278313820071162 -10.338733209990096 0 -10.338733209990096 19.411392283240275 0 0 0 0 7.3473198793026313 -15.853030829922318 0 -15.853030829922318 20.591495169490372 0 0 0 0 16.337248863565037 -9.2308004561800772 0 -9.2308004561800772 20.782745348093158 0 0 0 0 16.367599985676861 -13.962680228447425 0 -13.962680228447425 9.9998825611344273 0 0 0 0 -76.819196836432639 12.964207783799793 0 12.964207783799793 87.40435126221746 0 0 0 0 29.076540809746803 6.5610145454884332 0 6.5610145454884332 25.898141612397581 0 0 0 0 75.554871622700603 -24.98941718393155 0 -24.98941718393155 7.0280040071484109 0 0 0 0 -0.032303644561636702 0.20875410023257146 0 0.20875410023257146 0.4403714436087256 0 0 0 0 35.719166319100623 -34.219178216540968 0 -34.219178216540968 56.611241486994004 0 0 0 0 22.891593977847151 20.428217693652186 0 20.428217693652186 21.204215324374672 0 0 0 0 14.345938369853684 5.9127821792790201 0 5.9127821792790201 50.586849529986466 0 0 0 0 31.803740911707791 -2.6544794353849284 0 -2.6544794353849284 3.3271156218615943 0 0 0 0 17.94645025579328 -14.467849339646289 0 -14.467849339646289 6.5099753837872214 0 0 0 0 14.326190716572512 -13.424071963686568 0 -13.424071963686568 5.9338340333663542 0 0 0 0 34.606201311808036 -21.662573522709863 0 -21.662573522709863 -11.543862511105544 0 0 0 0 11.680901916917719 -45.941445705821934 0 -45.941445705821934 -72.157761616487733 0 0 0 0 10.677962170859246 -27.123089564256588 0 -27.123089564256588 28.502717120695706 0 0 0 0 17.896719428536016 -37.062591853602498 0 -37.062591853602498 -91.573796752330509 0 0 0 0 9.9746643834206665 -12.156309052364179 0 -12.156309052364179 5.6125552879051401 0 0 0 0 19.668273143872284 -48.859749959419787 0 -48.859749959419787 -97.99500813427403 0 0 0 0 51.745529378997162 -0.48800411157935741 0 -0.48800411157935741 0.90402584502953687 0 0 0 0 7.5323070850513432 -20.299873857284297 0 -20.299873857284297 65.58998930296184 0 0 0 0 15.409840563430407 33.004827561408547 0 33.004827561408547 98.676564757079177 0 0 0 0 0.050021413048788155 1.0946286965947216 0 1.0946286965947216 0.25752285053195578 0 0 0 0 1.1811244705661892 -0.62288593301094863 0 -0.62288593301094863 0.57545689646454079 0 0 0 0 -0.904234627580081 -35.741772090060294 0 -35.741772090060294 56.542842131786529 0 0 0 0 36.56019440214186 -2.6004142539095483 0 -2.6004142539095483 6.3805461078645749 0 0 0 0 23.36242596421107 15.09920063025038 0 15.09920063025038 8.9284248733165441 0 0 0 0 10.565420234899648 10.410015222470975 0 10.410015222470975 20.723410596217946 0 0 0 0 7.32721341251181 4.4981329275833559 0 4.4981329275833559 11.460769935396456 0 0 0 0 0.1374397258331661 -1.712817563775463 0 -1.712817563775463 5.7805285191622033 0 0 0 0 18.411912350982675 6.7925435092311091 0 6.7925435092311091 -4.1992670389481646 0 0 0 0 10.059735088689195 -7.3216442125203685 0 -7.3216442125203685 -2.4679703440564253 0 0 0 0 -29.582342201314532 -20.014260121013649 0 -20.014260121013649 -2.8101993741238402 0 0 0 0 -0.0061173632399667 -0.11183806390360473 0 -0.11183806390360473 0.69870633468237742 0 0 0 0 41.138280584538279 -17.159205608869115 0 -17.159205608869115 -27.457726627910233 0 0 0 0 38.206968813459753 -4.4254141868041188 0 -4.4254141868041188 0.016611751969321631 0 0 0 0 16.754945217851855 -15.422654238544965 0 -15.422654238544965 -5.6152221473384998 0 0 0 0 2.6247480862175507 -12.392209754030546 0 -12.392209754030546 -1.6047569378642947 0 0 0 0 1.6251204369364132 -13.608748246701111 0 -13.608748246701111 1.1525631595704908 0 0 0 0 -0.022121477371397358 -0.13123257477976225 0 -0.13123257477976225 0.4505814275038702 0 0 0 0 -13.359542947078353 -34.898134532799304 0 -34.898134532799304 -9.5864678357047524 0 0 0 0 -33.066851489160399 -26.712960120791649 0 -26.712960120791649 -7.1707105791811045 0 0 0 0 -70.576444971062301 -31.937467847768858 0 -31.937467847768858 -6.3491545748038334 0 0 0 0 -97.304631985255583 -43.708310277953387 0 -43.708310277953387 2.3806895255929703 0 0 0 0 59.188699327811037 -34.601578557210928 0 -34.601578557210928 -8.6486181809123082 0 0 0 0 -0.054092059083425958 0.12641287266709256 0 0.12641287266709256 0.18412746862811957 0 0 0 0 -27.571242424641241 -47.338185832761155 0 -47.338185832761155 -0.0052258629712014226 0 0 0 0 -38.985323569913817 -62.232901107916405 0 -62.232901107916405 19.593161835584397 0 0 0 0 -50.872848705193974 -30.921252771266154 0 -30.921252771266154 -11.895459239554839 0 0 0 0 -61.086483177898117 -57.079340406611664 0 -57.079340406611664 -2.7592571762070293 0 0 0 0 -2.0823147571409208 -11.217808084824355 0 -11.217808084824355 -0.013865371020074235 0 0 0 0 10.612289384294854 -3.6914527965836896 0 -3.6914527965836896 -1.8230587528214528 0 0 0 0 11.845893429368516 -12.004540973112853 0 -12.004540973112853 0.019488818696685416 0 0 0 0 -39.441229977607492 4.4250969256377601 0 4.4250969256377601 16.264169006253724 0 0 0 0 0.13245198719319973 -0.023102043336145073 0 -0.023102043336145073 -0.67842078514440374 0 0 0 0 11.762886904912193 -5.9648368903081064 0 -5.9648368903081064 1.8265294209286367 0 0 0 0 0.5987844797269446 -1.2120610595897503 0 -1.2120610595897503 -0.27810807284856764 0 0 0 0 -3.6826759287268942 0.46080477203304326 0 0.46080477203304326 6.002115123477779 0 0 0 0 2.7576289520693535 -11.060076796428802 0 -11.060076796428802 6.002115123481417 0 0 0 0 5.5083312789511183 -9.7743356117809981 0 -9.7743356117809981 5.6186544830161438 0 0 0 0 5.3771165941552681 -9.4611407079401033 0 -9.4611407079401033 5.3742641735775578 0 0 0 0 9.9722405190559584 -6.8674598112766034 0 -6.8674598112766034 -4.8158246233160753 0 0 0 0 13.36032867612721 -3.8839976336867039 0 -3.8839976336867039 1.1124090583653015 0 0 0 0 0.62514581222421839 -4.246939515577651 0 -4.246939515577651 6.9666800265522397 0 0 0 0 0.0623291844654279 -2.0940510300730502 0 -2.0940510300730502 4.6585824912570359 0 0 0 0 -0.37646449241512059 -1.3506453977227366 0 -1.3506453977227366 2.8132846421928548 0 0 0 0 249.03111806283323 -209.4039147426638 0 -209.4039147426638 139.79435256155739 0 0 0 0 261.56046743528168 -210.0394073412258 0 -210.0394073412258 63.781708664814687 0 0 0 0 357.84241774570592 -408.12344447180999 0 -408.12344447180999 -0.12906995723369619 0 0 0 0 769.55757419944894 -138.96584267017442 0 -138.96584267017442 -33.985800195306183 0 0 0 0 0.24331949266790964 -2.2302997394115032 0 -2.2302997394115032 4.8776678183969366 0 0 0 0 442.511064255934 -168.75380547983013 0 -168.75380547983013 -1.4384118556627072 0 0 0 0 0.84628390373787088 -0.89134759881696368 0 -0.89134759881696368 1.6941195722183338 0 0 0 0 -16.377280070168126 -7.0655505162076224 0 -7.0655505162076224 7.8113085052773386 0 0 0 0 0.29853246213133389 -344.42554814511459 0 -344.42554814511459 156.5833869486878 0 0 0 0 57.628592754426791 -273.53173116462676 0 -273.53173116462676 196.55122720952113 0 0 0 0 178.60380424747564 -298.10239100341914 0 -298.10239100341914 167.96684569443642 0 0 0 0 -0.040100444233758026 -219.47076214323079 0 -219.47076214323079 236.96365949454957 0 0 0 0 62.815873194263986 -152.03398591332689 0 -152.03398591332689 307.62122637987886 0 0 0 0 3.6454665155438306 -3.1498275956241741 0 -3.1498275956241741 11.455323574609793 0 0 0 0 62.415382083125223 -140.53067829780412 0 -140.53067829780412 161.83326489630917 0 0 0 0 -1.3260135531594379 0.72923575964427556 0 0.72923575964427556 6.4960376821354373 0 0 0 0 172.66865278914065 -192.71574450678008 0 -192.71574450678008 184.56214448587161 0 0 0 0 193.71885225593178 -217.00176083389943 0 -217.00176083389943 142.88004038853842 0 0 0 0 3.1523623017774298 -4.1036050364732546 0 -4.1036050364732546 8.8654162446255214 0 0 0 0 -1.6136555512813828 0.26101659175596836 0 0.26101659175596836 3.8524299947559513 0 0 0 0 2.4790627883503475 -1.5680418191095669 0 -1.5680418191095669 3.0363554597115581 0 0 0 0 -2.3557178498410849 -1.6868157418491592 0 -1.6868157418491592 10.159317470523092 0 0 0 0 3.5349792354918463 -2.4959436948074654 0 -2.4959436948074654 7.6489507168589626 0 0 0 0 -0.068893998753104313 1.8933860171129382 0 1.8933860171129382 3.3972674042435722 0 0 0 0 5.1841477815669208 -10.434555508167072 0 -10.434555508167072 4.949981171567936 0 0 0 0 0.18268975664068421 -3.2141846116783199 0 -3.2141846116783199 10.825703409783273 0 0 0 0 -10.671614588070952 -8.377055802004179 0 -8.377055802004179 46.795450651265583 0 0 0 0 -24.629784556867889 -16.703898342906541 0 -16.703898342906541 -71.540383956535152 0 0 0 0 18.849673008910031 -23.562547975575399 0 -23.562547975575399 -121.44257111437582 0 0 0 0 15.045687645872022 -33.722016288264967 0 -33.722016288264967 -143.48375278070853 0 0 0 0 -0.29695613958526224 -0.67202025229686768 0 -0.67202025229686768 0.030008244032977416 0 0 0 0 -20.064124083011848 70.315493947303366 0 70.315493947303366 -181.69791243212308 0 0 0 0 0.006361324467434315 -2.1779756030864519 0 -2.1779756030864519 0.99171638177358545 0 0 0 0 0.60333160297458477 -0.1464673552145932 0 -0.1464673552145932 1.9304997732895117 0 0 0 0 2.1011003356943547 -5.6495491362666144 0 -5.6495491362666144 3.9662117243460671 0 0 0 0 -0.031904448277096265 0.13507234494635867 0 0.13507234494635867 0.55609614156432841 0 0 0 0 -0.85284902279818198 -4.5724482216537581 0 -4.5724482216537581 12.499524693822423 0 0 0 0 -0.0025751055002904456 -6.7351612979703015 0 -6.7351612979703015 8.4147234820666199 0 0 0 0 0.94164578595882631 -2.2439433990966791 0 -2.2439433990966791 6.0174713720371074 0 0 0 0 0.17633404586376855 -1.654712014078541 0 -1.654712014078541 11.509276465135372 0 0 0 0 -0.57325508880224874 -1.1789840553600754 0 -1.1789840553600754 5.9229128637960642 0 0 0 0 35.756477665116108 -0.72095089406138868 0 -0.72095089406138868 -91.304214208081248 0 0 0 0 1.8790697855105378 -3.0654832688809392 0 -3.0654832688809392 3.198333353155153 0 0 0 0 1.4773970900647413 -3.3739481076518487 0 -3.3739481076518487 2.2191833073575129 0 0 0 0 -27.759079950843443 15.081521231434635 0 15.081521231434635 13.159067421814598 0 0 0 0 0.73964825899832776 -4.7112438616382697 0 -4.7112438616382697 4.1191898529889741 0 0 0 0 -1.7673975393495169 -0.025209915516722248 0 -0.025209915516722248 0.25233560968650082 0 0 0 0 0.31342311298999448 13.815239425640357 0 13.815239425640357 -37.510693804700168 0 0 0 0 -25.650177752210766 -2.8913236234693613 0 -2.8913236234693613 -14.163855769849761 0 0 0 0 1.2760447911514348 -7.2541728100645742 0 -7.2541728100645742 -57.283116612532467 0 0 0 0 -17.32765933139126 -25.594597543390591 0 -25.594597543390591 113.84440181040009 0 0 0 0 4.2121993106429727 60.040537424677495 0 60.040537424677495 21.563067359433262 0 0 0 0 -19.795987205285201 -6.9171035849549298 0 -6.9171035849549298 2.8233091561642141 0 0 0 0 -47.931844347971946 -5.5983390313094787 0 -5.5983390313094787 12.875238260492551 0 0 0 0 -18.924205272697691 -22.613420989910082 0 -22.613420989910082 20.25029704417102 0 0 0 0 -17.670815269455488 -10.758815571058221 0 -10.758815571058221 1.0761366146089131 0 0 0 0 -21.35045625757175 -11.611522026781131 0 -11.611522026781131 7.9836535881267991 0 0 0 0 29.860528288885916 -45.173838167686426 0 -45.173838167686426 12.720770430150878 0 0 0 0 6.395940470518326 -19.899337166619716 0 -19.899337166619716 57.728669041487592 0 0 0 0 25.082201752844412 -89.085174999869196 0 -89.085174999869196 56.782563673030054 0 0 0 0 -28.382511674280522 -20.003309229743536 0 -20.003309229743536 14.973507797699313 0 0 0 0 -17.647732005200851 -14.088281194996398 0 -14.088281194996398 12.988719414188381 0 0 0 0 7.7909858249267927 -29.009641917402405 0 -29.009641917402405 9.5830329155505751 0 0 0 0 2.1459683047311948 -1.5787028422793377 0 -1.5787028422793377 0.35870084912923872 0 0 0 0 0.44648568860537807 92.609212181504631 0 92.609212181504631 -105.34239482823432 0 0 0 0 39.521613430121079 -61.116486569746257 0 -61.116486569746257 60.72271943596752 0 0 0 0 16.015043394994336 -58.495349309002904 0 -58.495349309002904 -19.040597568980957 0 0 0 0 -2.1602796031321354 -0.45055228011058546 0 -0.45055228011058546 -0.025669955473736294 0 0 0 0 -12.749751593178644 -64.666944485547901 0 -64.666944485547901 187.28091859411143 0 0 0 0 49.010514240557313 -117.8379298593818 0 -117.8379298593818 -185.52748763688578 0 0 0 0 45.389655056889751 -9.7369923342193943 0 -9.7369923342193943 -12.689753882474179 0 0 0 0 78.320600485695991 -479.51014573123086 0 -479.51014573123086 268.81563352908415 0 0 0 0 -4.2138036814490079 -69.760971774229802 0 -69.760971774229802 -72.7673279741648 0 0 0 0 83.878337465875575 -42.282539823842399 0 -42.282539823842399 -73.345733842546906 0 0 0 0 38.038004435125004 -48.148089939521014 0 -48.148089939521014 -72.24573666874403 0 0 0 0 39.650996669464803 -40.785159540656423 0 -40.785159540656423 -80.444445483148002 0 0 0 0 22.393344132015955 -84.240385824316945 0 -84.240385824316945 -56.767320357050039 0 0 0 0 45.680925725689576 -30.166873294867401 0 -30.166873294867401 -43.746219469353264 0 0 0 0 -13.420480502174996 -64.369127890835443 0 -64.369127890835443 -66.060657904663458 0 0 0 0 -53.752003860416579 -60.82845975831799 0 -60.82845975831799 -47.523121750826249 0 0 0 0 0.26887709253179859 -0.1266922878788197 0 -0.1266922878788197 -0.43505317725166037 0 0 0 0 -28.925641776003431 -35.624799013803568 0 -35.624799013803568 -22.494142141111297 0 0 0 0 -19.195974319535708 -21.267928505034433 0 -21.267928505034433 -48.226591274446037 0 0 0 0 -17.693907399479258 -42.033000116432049 0 -42.033000116432049 -76.164267646570806 0 0 0 0 -12.513713111548896 -49.644122991345284 0 -49.644122991345284 -71.59307947799789 0 0 0 0 -7.2763668743746166 -50.499520785157074 0 -50.499520785157074 -74.211258922017805 0 0 0 0 -12.097700679543777 -65.005912098345107 0 -65.005912098345107 -58.394568248773794 0 0 0 0 -30.814812413877007 10.738228107086798 0 10.738228107086798 -0.92212472231949505 0 0 0 0 -12.854368528386658 -44.156826389700655 0 -44.156826389700655 -61.140205161558697 0 0 0 0 -53.84753581879886 -57.376250273069672 0 -57.376250273069672 -65.377092179744068 0 0 0 0 -12.662623216730651 -47.492252639405024 0 -47.492252639405024 -102.60001129207376 0 0 0 0 -62.065470370465846 -79.000530610113856 0 -79.000530610113856 -95.060326288803481 0 0 0 0 -79.473509335400195 -111.23048832853419 0 -111.23048832853419 -129.98290403130704 0 0 0 0 -103.52581359292526 -65.310875267156007 0 -65.310875267156007 -33.080082774558832 0 0 0 0 -1.4819178376958995 -2.31632095710426 0 -2.31632095710426 1.7368173104535387 0 0 0 0 0.28536962297368973 -19.28838941378126 0 -19.28838941378126 -76.267058529454516 0 0 0 0 -124.72617960429579 -100.39797445812655 0 -100.39797445812655 -64.954559202107703 0 0 0 0 30.152520041643015 -14.511764899809805 0 -14.511764899809805 -165.37817607782017 0 0 0 0 2.3410122463772862 -1.2645813530342185 0 -1.2645813530342185 -0.031211637962783811 0 0 0 0 -69.339019942981395 -70.158583764356081 0 -70.158583764356081 -86.524592960997325 0 0 0 0 -11.112295981060242 -41.377785993749967 0 -41.377785993749967 -59.039952327129868 0 0 0 0 -20.374796896423504 -56.563840070313745 0 -56.563840070313745 -82.904547072230343 0 0 0 0 -57.739289477629654 -45.061318354375544 0 -45.061318354375544 -46.755481761738338 0 0 0 0 -50.044191057699209 -27.101854950169582 0 -27.101854950169582 -60.30747205375701 0 0 0 0 -51.635625014596371 -42.142377524274707 0 -42.142377524274707 -71.431081107806676 0 0 0 0 -46.426867012582989 -16.374252687419357 0 -16.374252687419357 -87.569175825145066 0 0 0 0 -19.78029124525284 -42.147998401876919 0 -42.147998401876919 -63.575354065160354 0 0 0 0 -37.890636066109437 -49.662330642933739 0 -49.662330642933739 -86.588436755439034 0 0 0 0 -81.365123180503701 -8.899792583026283 0 -8.899792583026283 -99.561173174311989 0 0 0 0 -36.363520004923885 -34.398263732564374 0 -34.398263732564374 -160.6506877398233 0 0 0 0 -23.124084127327308 -26.454286605402785 0 -26.454286605402785 10.91976742285442 0 0 0 0 16.218272615287333 -10.341960307881891 0 -10.341960307881891 14.504281546869606 0 0 0 0 9.7780482672528706 5.4301313496707735 0 5.4301313496707735 20.006362057209117 0 0 0 0 1.4927894369711794 17.105825060784355 0 17.105825060784355 4.8707733828741766 0 0 0 0 11.94330602291538 -4.7706628342747095 0 -4.7706628342747095 1.0828658841813255 0 0 0 0 6.5823871467830486 -30.694973510154796 0 -30.694973510154796 -66.999024556324002 0 0 0 0 9.2217268182430416 -33.635725133211963 0 -33.635725133211963 -93.442190723722888 0 0 0 0 -4.4213004482812721 -52.257657644919163 0 -52.257657644919163 -69.161172600097416 0 0 0 0 9.7808096028516225 -3.6474674195465191 0 -3.6474674195465191 1.2254462248220452 0 0 0 0 7.3527336597603608 -25.968426388055377 0 -25.968426388055377 -65.050895916883746 0 0 0 0 6.3468405661733414 -31.833594797276419 0 -31.833594797276419 -52.248183478033752 0 0 0 0 -1.0945519886045076 -32.476476803409696 0 -32.476476803409696 -52.2875739472438 0 0 0 0 -4.0166867394325436 -30.901967829356636 0 -30.901967829356636 -28.567439993508742 0 0 0 0 -2.0305336512456051 -39.80603397089908 0 -39.80603397089908 -30.02667156410098 0 0 0 0 -8.6382775084548484 -41.7916915114929 0 -41.7916915114929 -30.007261121854611 0 0 0 0 -9.3063322836701445 -43.369491109227965 0 -43.369491109227965 -10.338870217550721 0 0 0 0 -7.7286333478859888 -51.102603009490849 0 -51.102603009490849 -28.002148791447325 0 0 0 0 -0.7489211568445171 -49.496516955932748 0 -49.496516955932748 -52.411483880861852 0 0 0 0 -1.8781899979671834 -40.934534340628943 0 -40.934534340628943 -41.854227225325303 0 0 0 0 -1.3804111239833219 -56.53245305980272 0 -56.53245305980272 -43.108378184306275 0 0 0 0 -1.6104584878057153 -42.803324031195189 0 -42.803324031195189 -54.064576237560686 0 0 0 0 -7.9728952234581811 -49.210246108907086 0 -49.210246108907086 -22.871490779973101 0 0 0 0 -1.0432793871850663 -65.001465349769205 0 -65.001465349769205 -2.3869537192622374 0 0 0 0 -23.083189909956445 -41.194341529649137 0 -41.194341529649137 15.284279358751519 0 0 0 0 -42.923454623531143 -26.887305067297348 0 -26.887305067297348 10.063995900887676 0 0 0 0 -13.586867314585106 -30.020173118326056 0 -30.020173118326056 0.9231328981650222 0 0 0 0 -12.673490966863028 -37.570051342599982 0 -37.570051342599982 -10.579452222165855 0 0 0 0 -18.684055723017082 -36.825193095060968 0 -36.825193095060968 -3.124394333042801 0 0 0 0 -9.6662843058038561 -34.933308924062658 0 -34.933308924062658 -16.713726756566757 0 0 0 0 -13.162585112876059 -38.583348883768849 0 -38.583348883768849 -12.026728428973001 0 0 0 0 -14.068568349099223 -34.013633698030389 0 -34.013633698030389 -4.202286327848924 0 0 0 0 -10.705790064440862 -32.605366138888712 0 -32.605366138888712 -7.0921525975645636 0 0 0 0 -11.291469238893569 -32.158126814587376 0 -32.158126814587376 -6.349455871812097 0 0 0 0 -11.833954115108497 -36.049908810968645 0 -36.049908810968645 -10.338944011655258 0 0 0 0 -10.336554450459516 -32.040751498814643 0 -32.040751498814643 -12.985627312480574 0 0 0 0 -10.007458575924147 -36.840915830531912 0 -36.840915830531912 -18.147035684953153 0 0 0 0 -39.07122383824526 -44.25911595600428 0 -44.25911595600428 -47.831135691556483 0 0 0 0 -48.679743520905504 -22.619437030874906 0 -22.619437030874906 -54.465941220163586 0 0 0 0 -8.324211034209668 -41.512692567753447 0 -41.512692567753447 -47.658044765244995 0 0 0 0 -42.888875987081292 -38.352250642694798 0 -38.352250642694798 -48.923938083898975 0 0 0 0 -47.190320636014803 -35.344198416249128 0 -35.344198416249128 -35.545005348361883 0 0 0 0 -32.270879467454506 -45.782446278315547 0 -45.782446278315547 -46.979713151923988 0 0 0 0 -8.0558247381077308 -54.909529017184468 0 -54.909529017184468 -56.26506698292269 0 0 0 0 -25.483169982652726 -35.043820447970575 0 -35.043820447970575 -32.167081763422175 0 0 0 0 -32.618046076475821 -60.464988813720993 0 -60.464988813720993 -14.010236123298455 0 0 0 0 -5.808252351124338 -45.007549819938049 0 -45.007549819938049 -30.533457143323176 0 0 0 0 12.35583809111904 -51.840655965466794 0 -51.840655965466794 -30.154695795220846 0 0 0 0 -35.200444634034739 -53.123388844087458 0 -53.123388844087458 -33.292425277373468 0 0 0 0 -31.835723387444432 -3.3768749288938125 0 -3.3768749288938125 9.7875269592641416 0 0 0 0 -61.065117606382501 -54.71885273733642 0 -54.71885273733642 52.109598284206186 0 0 0 0 0.86428208625789704 -0.85601544531861506 0 -0.85601544531861506 1.5733796566647626 0 0 0 0 -23.039764317294157 -33.692900411923802 0 -33.692900411923802 59.947250179313414 0 0 0 0 -0.43522813400360327 -0.072844357388557768 0 -0.072844357388557768 0.070214414879487208 0 0 0 0 26.42161958616407 -6.0440085025402368 0 -6.0440085025402368 53.321383353399824 0 0 0 0 37.397921087467694 -67.756318518251646 0 -67.756318518251646 39.262838168953749 0 0 0 0 22.463349233101383 -78.886250009971832 0 -78.886250009971832 94.849451485479221 0 0 0 0 22.39321929512289 -2.2968089474379667 0 -2.2968089474379667 123.57393115359628 0 0 0 0 1.2980662729680379 -0.82493184666265407 0 -0.82493184666265407 -1.275521688362435 0 0 0 0 64.335413739812793 -15.977904795823633 0 -15.977904795823633 -4.7349861180900916 0 0 0 0 3.0967209597427194 -5.9557427558029215 0 -5.9557427558029215 -7.9493814002714949 0 0 0 0 -9.5502386486323303 -0.22313164478327963 0 -0.22313164478327963 10.226269406424535 0 0 0 0 3.6151104069133293 -8.8069394633432161 0 -8.8069394633432161 12.433070832362997 0 0 0 0 -11.708784660571212 -19.595805840457047 0 -19.595805840457047 7.9520733287135954 0 0 0 0 4.6960099979305596 -17.178418983100983 0 -17.178418983100983 0.24978455163272884 0 0 0 0 3.7008740205733375 -18.473992444018677 0 -18.473992444018677 15.948889073522878 0 0 0 0 -10.358130739729177 -32.060090172531091 0 -32.060090172531091 1.734473154265288 0 0 0 0 -9.0305353023352382 -34.673624548324369 0 -34.673624548324369 -4.9682923738546378 0 0 0 0 -13.152361776833686 -31.032934986498731 0 -31.032934986498731 0.31608484593743924 0 0 0 0 -10.847394114026201 -28.795649476834114 0 -28.795649476834114 5.3178845470865781 0 0 0 0 -6.6230526636466038 -28.805601261671654 0 -28.805601261671654 -0.025290949382906547 0 0 0 0 -8.0506002134993651 -22.226541240270308 0 -22.226541240270308 6.5912819618179128 0 0 0 0 -20.295064143809213 -28.390413958886711 0 -28.390413958886711 3.899754179035881 0 0 0 0 -17.462312603636747 -18.882322796092922 0 -18.882322796092922 9.9412335909801186 0 0 0 0 -11.431797647119311 -31.411637545759731 0 -31.411637545759731 26.940172153088497 0 0 0 0 -13.280590711738569 -19.91836440762836 0 -19.91836440762836 10.775787687442062 0 0 0 0 2.696943214265783 -12.11852934509616 0 -12.11852934509616 10.453227809921486 0 0 0 0 -5.170572335138786 -21.668909220181376 0 -21.668909220181376 9.8603694154380719 0 0 0 0 -5.8736501335615685 -30.486938314003964 0 -30.486938314003964 29.640250653967087 0 0 0 0 -10.155998409396716 -25.08654012699435 0 -25.08654012699435 25.274117541261148 0 0 0 0 -7.4912275101810337 -23.318734263961233 0 -23.318734263961233 10.123188212226523 0 0 0 0 -3.6638071657971523 -24.170152088092436 0 -24.170152088092436 10.302855287074635 0 0 0 0 -4.5435496527330201 -29.769941463850273 0 -29.769941463850273 0.97032187557124416 0 0 0 0 -4.6834667382055954 -11.470694268976331 0 -11.470694268976331 -4.6727884756164713 0 0 0 0 -5.1811223559365942 -9.2839895186760675 0 -9.2839895186760675 0.36244439228123948 0 0 0 0 -8.6687437571169426 -18.737590884421479 0 -18.737590884421479 20.93840986802752 0 0 0 0 -6.7740540008824155 -36.787068767984238 0 -36.787068767984238 -27.122070268699645 0 0 0 0 -3.2671313220758584 -8.1131895972062296 0 -8.1131895972062296 1.8046798502857406 0 0 0 0 -5.4421543409672495 -8.4694399710488142 0 -8.4694399710488142 48.658345089093928 0 0 0 0 -3.0184229147933421 -4.501839512051701 0 -4.501839512051701 -5.3590461634085891 0 0 0 0 -17.06181289284109 -22.675607429486263 0 -22.675607429486263 -26.92308785052694 0 0 0 0 -16.636111110150694 -26.322613507396682 0 -26.322613507396682 -1.5859999502390565 0 0 0 0 51.948708918152988 -22.870229315839424 0 -22.870229315839424 -21.651263884291438 0 0 0 0 51.948708918145712 -22.870229315843062 0 -22.870229315843062 -21.651263884295076 0 0 0 0 0.65897549211308082 -2.5852699353161892 0 -2.5852699353161892 -0.17230857474295558 0 0 0 0 -17.813076358257831 -22.716213283220441 0 -22.716213283220441 0.2737732143014 0 0 0 0 -11.521201530706094 -16.386888512748556 0 -16.386888512748556 -48.515320174936278 0 0 0 0 -0.010851681757947595 -2.5917533979298213 0 -2.5917533979298213 -7.8153360075409921 0 0 0 0 -9.8449045407925126 -19.167348284539379 0 -19.167348284539379 9.4382947675394782 0 0 0 0 -14.982345866096583 -12.42431472521859 0 -12.42431472521859 -6.5691648721442277 0 0 0 0 -14.711229583626846 -17.181670744925214 0 -17.181670744925214 4.3389502416594041 0 0 0 0 -10.694633202808404 -15.875940943876117 0 -15.875940943876117 4.7439783475001605 0 0 0 0 -12.216555291691463 -19.70114898381712 0 -19.70114898381712 9.2847542939680352 0 0 0 0 -13.566472675926207 -17.084990193452086 0 -17.084990193452086 6.3946414179818021 0 0 0 0 -10.291177829666594 -21.569987415738979 0 -21.569987415738979 -3.0261687013912706 0 0 0 0 -14.104476614273722 -24.767685444924837 0 -24.767685444924837 0.75490196184091474 0 0 0 0 -0.94206450886503035 -15.541672210132219 0 -15.541672210132219 2.6269585793284023 0 0 0 0 -16.382924974338778 -17.112046736459433 0 -17.112046736459433 -11.470108232063012 0 0 0 0 -11.527526084417786 -26.470728195084462 0 -26.470728195084462 1.3098875526284246 0 0 0 0 -16.124297721082712 0.85908013871494404 0 0.85908013871494404 10.551628540269121 0 0 0 0 -3.2588118809699154 -25.845792684102435 0 -25.845792684102435 15.130748052809395 0 0 0 0 11.308609035273548 -7.7438423705839341 0 -7.7438423705839341 7.1092362053072975 0 0 0 0 63.880442498816592 -172.02296227259376 0 -172.02296227259376 6.6249317271467589 0 0 0 0 5.4081158326457626 13.887797536317066 0 13.887797536317066 29.395030471352584 0 0 0 0 51.94870891814935 -22.870229315842153 0 -22.870229315842153 -21.651263884296213 0 0 0 0 -61.681781447737194 24.389208596753633 0 24.389208596753633 7.6300090175427613 0 0 0 0 -4.7197386317125165 -5.1709447035955236 0 -5.1709447035955236 -2.7365057626211637 0 0 0 0 -97.230023093327418 -66.162761644784041 0 -66.162761644784041 -15.256352977208735 0 0 0 0 19.704897275822987 -91.584326118581885 0 -91.584326118581885 -40.466521014330965 0 0 0 0 20.814253300424298 -75.195347126943489 0 -75.195347126943489 -74.817287623972334 0 0 0 0 13.584283485954984 -72.927795156192587 0 -72.927795156192587 -44.039947344497705 0 0 0 0 -5.6641525703578282 -36.781093916301415 0 -36.781093916301415 -12.867744657665753 0 0 0 0 -2.5433738376977999 -28.084881240109098 0 -28.084881240109098 0.010262558975227876 0 0 0 0 39.816441284328903 -44.418803030962408 0 -44.418803030962408 -75.618456966900084 0 0 0 0 0.68379277460954946 -1.6382305423322547 0 -1.6382305423322547 -0.50741507228563165 0 0 0 0 62.973545143847417 -12.843047270511335 0 -12.843047270511335 -34.452489814359069 0 0 0 0 -61.491909179947527 -92.823676513330355 0 -92.823676513330355 -117.52772268724948 0 0 0 0 17.077092606632505 -17.109318492241982 0 -17.109318492241982 15.264888772682752 0 0 0 0 -4.3693189922178135 -18.854393483348304 0 -18.854393483348304 9.1343387901069946 0 0 0 0 15.20054029871153 -24.837409495942666 0 -24.837409495942666 -10.012798536442688 0 0 0 0 12.751148819647824 -32.099293193184167 0 -32.099293193184167 15.597369469773454 0 0 0 0 17.755967600041913 -19.398873588350398 0 -19.398873588350398 7.8191575492010088 0 0 0 0 0.085667055224863065 -6.0253180707229959 0 -6.0253180707229959 10.783614812006789 0 0 0 0 -35.431259122169536 -3.431401623310478 0 -3.431401623310478 1.2337327197255945 0 0 0 0 -4.4891825089600843 -29.159507057705014 0 -29.159507057705014 11.445258642517729 0 0 0 0 3.8605072638572073 -5.2794007449654892 0 -5.2794007449654892 -8.8326487804529563 0 0 0 0 0.1730791251638214 -4.5500505779756253 0 -4.5500505779756253 7.723496655805171 0 0 0 0 -51.748284422287426 -7.7559246699694029 0 -7.7559246699694029 36.056850268232665 0 0 0 0 9.4100630444195303 -21.776802754551682 0 -21.776802754551682 3.2072588137816638 0 0 0 0 34.53846653446999 -7.6686955239674717 0 -7.6686955239674717 -3.904371748718404 0 0 0 0 55.730959316158078 -44.789950564292667 0 -44.789950564292667 12.814256311427016 0 0 0 0 15.208832688051871 -32.000552264600628 0 -32.000552264600628 10.275992162754847 0 0 0 0 -15.911172606510718 -36.918138550456206 0 -36.918138550456206 2.7841835730896491 0 0 0 0 -3.3020648440350442 -44.018252905046438 0 -44.018252905046438 4.710989296914704 0 0 0 0 -67.860023938850645 -12.111031845686739 0 -12.111031845686739 12.712149257210967 0 0 0 0 -28.813978398966356 -16.416981821210356 0 -16.416981821210356 13.096855459771177 0 0 0 0 -34.67365878871442 -37.362400542666819 0 -37.362400542666819 4.4700054543191072 0 0 0 0 -107.90372223980194 21.438722946714734 0 21.438722946714734 8.4036940811329259 0 0 0 0 -122.71363058393945 -71.419395504128261 0 -71.419395504128261 -3.086733616384663 0 0 0 0 -76.639339909885166 -44.682545789662981 0 -44.682545789662981 5.8473077816634031 0 0 0 0 -29.111848064922924 -63.034245825737344 0 -63.034245825737344 -33.183962885228539 0 0 0 0 -39.233772018665604 -46.445724863092437 0 -46.445724863092437 0.275842167877272 0 0 0 0 -9.0245624948647674 -48.664564827065078 0 -48.664564827065078 -13.567546593423685 0 0 0 0 -0.34551701647251321 -53.459783658391643 0 -53.459783658391643 -36.88011112926506 0 0 0 0 -21.346599217677067 -49.54687096120324 0 -49.54687096120324 -13.049320530734803 0 0 0 0 16.421513858958406 -33.152959892373019 0 -33.152959892373019 -32.277711716447811 0 0 0 0 -46.019319209101923 -60.970145536308337 0 -60.970145536308337 -31.369552506932905 0 0 0 0 -5.5621830403042622 -68.852790599895343 0 -68.852790599895343 -80.012008364761641 0 0 0 0 43.565582986003392 29.561940235830662 0 29.561940235830662 -25.10960600872022 0 0 0 0 32.95903667494531 -12.671435301957899 0 -12.671435301957899 -85.626190727636185 0 0 0 0 16.025118389035924 -6.4446464968327746 0 -6.4446464968327746 -5.4663023247921956 0 0 0 0 -205.79349934437505 7.5532451051731186 0 7.5532451051731186 7.2405445168259348 0 0 0 0 -53.701769823298946 -75.678831017175526 0 -75.678831017175526 -36.90604073978102 0 0 0 0 52.082218606050446 -61.648718112856841 0 -61.648718112856841 -212.00438371031578 0 0 0 0 -198.56098525229845 -158.16666861609428 0 -158.16666861609428 -81.559098500882101 0 0 0 0 -0.52263357072945382 -1.9993271733430831 0 -1.9993271733430831 1.1186392421998406 0 0 0 0 -184.73365222406665 -113.91750336280984 0 -113.91750336280984 -27.421420436256085 0 0 0 0 -169.8908627624831 34.669781667280915 0 34.669781667280915 53.031476485128223 0 0 0 0 34.116405759878035 36.685781949664488 0 36.685781949664488 -3.3346580841243849 0 0 0 0 -82.447462045343855 9.5562472990704919 0 9.5562472990704919 11.381508591806323 0 0 0 0 -62.094374814785624 -40.117945894268814 0 -40.117945894268814 -20.876262318628505 0 0 0 0 1.3018831198271688 -0.74454138482664156 0 -0.74454138482664156 2.093664591049512 0 0 0 0 1.6158002694210154 -2.2480465287790139 0 -2.2480465287790139 22.199193564447341 0 0 0 0 12.868311920759311 -16.675145987901146 0 -16.675145987901146 18.151810865731022 0 0 0 0 18.107942730970535 -15.819268070246835 0 -15.819268070246835 -7.7525041950757441 0 0 0 0 14.012428768254956 -6.41403388087347 0 -6.41403388087347 1.4388761415776763 0 0 0 0 5.6093552319293849 -14.627441044634566 0 -14.627441044634566 0.1572622393759957 0 0 0 0 18.372724201667893 -12.820316448445737 0 -12.820316448445737 20.053117732614737 0 0 0 0 21.342839704535436 -13.42713906229028 0 -13.42713906229028 -12.513851227085979 0 0 0 0 20.456708470346257 -6.9603709748362235 0 -6.9603709748362235 -21.273807191959349 0 0 0 0 28.609146253152403 -21.861118837296999 0 -21.861118837296999 -6.4238813100955667 0 0 0 0 18.334410821724305 -32.119157126202481 0 -32.119157126202481 -35.779340851328016 0 0 0 0 24.784098343731216 -17.232040889121663 0 -17.232040889121663 -10.826521517194124 0 0 0 0 20.456425756181488 -26.457896862149028 0 -26.457896862149028 1.6439593078960115 0 0 0 0 31.89812114565018 -12.397982284370414 0 -12.397982284370414 -1.4657058876291558 0 0 0 0 20.236138703570688 -16.73364819524544 0 -16.73364819524544 8.8198686544864735 0 0 0 0 4.0681234093186731 -4.8619501556472713 0 -4.8619501556472713 1.6069982316623008 0 0 0 0 -2.9806447781065799 -31.098930597820981 0 -31.098930597820981 17.061587082991878 0 0 0 0 1.4656483295193539 -17.772125744720142 0 -17.772125744720142 37.038207720803257 0 0 0 0 8.4343366350094584 -30.153737027129409 0 -30.153737027129409 57.643122090950897 0 0 0 0 25.37915543784402 -21.462385733079827 0 -21.462385733079827 52.397312125586723 0 0 0 0 40.596672905470768 -47.956298098163643 0 -47.956298098163643 34.455664117913784 0 0 0 0 23.67633911676603 -30.994251656123424 0 -30.994251656123424 -14.364773236326528 0 0 0 0 23.500976693521807 -30.277542305461793 0 -30.277542305461793 13.527299631988171 0 0 0 0 27.643244793156555 -39.495995601274444 0 -39.495995601274444 30.758900931841708 0 0 0 0 19.191891167864696 -31.91159002849372 0 -31.91159002849372 5.0591698989319411 0 0 0 0 19.364822219070447 -27.989197645076757 0 -27.989197645076757 -0.085280410801715334 0 0 0 0 20.860086111386085 -18.672039784817237 0 -18.672039784817237 10.312797614533476 0 0 0 0 13.672846935181951 -45.158234745365462 0 -45.158234745365462 0.29421325650355357 0 0 0 0 29.833437355289789 -35.932946460017774 0 -35.932946460017774 -7.7288640538915843 0 0 0 0 35.002261834245019 -33.952553881446534 0 -33.952553881446534 -7.2479803435708163 0 0 0 0 27.360322026459471 -29.472038328741291 0 -29.472038328741291 -4.348058801143452 0 0 0 0 15.708516625370976 -34.369128649221238 0 -34.369128649221238 -4.6552459607555647 0 0 0 0 10.258094827004243 -31.524314204232724 0 -31.524314204232724 0.79293711670106859 0 0 0 0 37.049267146139755 -18.107691335966138 0 -18.107691335966138 1.8974719994639599 0 0 0 0 16.796171884016076 -25.322760080743137 0 -25.322760080743137 0.25049340431905875 0 0 0 0 -5.8274802326480426 -21.386643175230574 0 -21.386643175230574 21.29145915817935 0 0 0 0 -1.2960861107633335 -18.158371496578386 0 -18.158371496578386 16.293745346274694 0 0 0 0 21.702074989188304 -22.917971379597475 0 -22.917971379597475 32.796577607265135 0 0 0 0 8.5925835410098443 -35.369301852694662 0 -35.369301852694662 32.727851173300223 0 0 0 0 13.337471958309834 -23.340707428074893 0 -23.340707428074893 7.0721408369513483 0 0 0 0 21.800721342674251 -32.789249049407772 0 -32.789249049407772 15.542155275196819 0 0 0 0 15.723324335979214 -39.031951894200574 0 -39.031951894200574 9.214881332591176 0 0 0 0 7.3225946095474228 -37.233576956456545 0 -37.233576956456545 33.758674550208525 0 0 0 0 2.5908515677174364 -49.839652687951457 0 -49.839652687951457 0.52095047923830862 0 0 0 0 5.3082134163519186 -41.797718648580485 0 -41.797718648580485 6.1710024143558257 0 0 0 0 2.7945853652934147 -48.544939697022073 0 -48.544939697022073 -11.937300541681907 0 0 0 0 -8.9265300086816524 -47.961081125419923 0 -47.961081125419923 -8.7507529402191722 0 0 0 0 15.460937101801846 -35.249487345428861 0 -35.249487345428861 -17.900381565732459 0 0 0 0 16.666624711331224 -36.404969471582262 0 -36.404969471582262 -18.609366850068 0 0 0 0 23.870584833831117 -27.036727890400925 0 -27.036727890400925 -7.5808365879565827 0 0 0 0 18.938896593591835 -31.411557984502906 0 -31.411557984502906 7.9178521986355008 0 0 0 0 16.386548293502528 -38.278218838397152 0 -38.278218838397152 -10.555731594333338 0 0 0 0 7.8871406498651595 -10.090787242504234 0 -10.090787242504234 -12.807463143783025 0 0 0 0 -11.325307643943233 -8.4640940676040373 0 -8.4640940676040373 1.5867881986866905 0 0 0 0 -0.6072079207777783 -2.3515308026054029 0 -2.3515308026054029 -2.0533446021894761 0 0 0 0 -8.2231835071033856 -32.10935982349929 0 -32.10935982349929 -34.546663476070307 0 0 0 0 1.0605470730657629 -1.8568105494470806 0 -1.8568105494470806 1.3484738055766741 0 0 0 0 -16.194317886667704 -36.865472931756813 0 -36.865472931756813 6.0577432081981897 0 0 0 0 -32.096445224213312 -19.11205457262804 0 -19.11205457262804 19.524642850084092 0 0 0 0 9.2865665060244282 -2.3152193729217743 0 -2.3152193729217743 -59.154698882347475 0 0 0 0 -21.50601069405775 11.745959267783178 0 11.745959267783178 9.231714017698323 0 0 0 0 3.9665774271179544 -16.899481386275056 0 -16.899481386275056 8.0315848523860041 0 0 0 0 -4.1910860752691406 -10.674173534489114 0 -10.674173534489114 8.6931522482427681 0 0 0 0 -3.058117993248743 -15.715369820353772 0 -15.715369820353772 19.895858697859467 0 0 0 0 2.9350223076544353 -11.895074962694935 0 -11.895074962694935 -6.0344056024132442 0 0 0 0 3.3245735262898961 -8.8006405812557205 0 -8.8006405812557205 9.1297829756058491 0 0 0 0 38.261557286630705 -8.8756385955089172 0 -8.8756385955089172 -6.6250557869134354 0 0 0 0 32.115068195260392 -16.282699538109227 0 -16.282699538109227 2.6638237764427686 0 0 0 0 8.3980712988104642 0.60788190891844351 0 0.60788190891844351 13.044000668384797 0 0 0 0 15.550121729607781 -3.2939798048091689 0 -3.2939798048091689 10.269506641290263 0 0 0 0 -15.968508833684609 -16.677953267511839 0 -16.677953267511839 -16.490750076806762 0 0 0 0 -9.0245742987319773 43.527805443638783 0 43.527805443638783 -0.99085213636681146 0 0 0 0 74.019990211609183 -24.68293529742823 0 -24.68293529742823 27.60470587938471 0 0 0 0 99.902797277984064 -3.5392762970586773 0 -3.5392762970586773 -4.136729289768482 0 0 0 0 206.87990498194984 -121.52407787371314 0 -121.52407787371314 8.9502713422407396 0 0 0 0 40.187219702022048 16.251989465476072 0 16.251989465476072 5.0432214451848267 0 0 0 0 58.090768748978007 -25.890380905986376 0 -25.890380905986376 14.078154219138014 0 0 0 0 78.054231770428487 -69.202346252359348 0 -69.202346252359348 61.408605415008424 0 0 0 0 92.109659844671114 -22.214571925592281 0 -22.214571925592281 7.1256212817934284 0 0 0 0 26.737658998095867 -30.557471675150737 0 -30.557471675150737 102.17230574884707 0 0 0 0 44.796751510646573 -31.795591753860208 0 -31.795591753860208 26.436062891402798 0 0 0 0 43.927003396518558 -29.043171648919952 0 -29.043171648919952 4.0038012302593415 0 0 0 0 62.481236735911807 -13.655710295297467 0 -13.655710295297467 -0.61388971849919471 0 0 0 0 47.077801143626857 -39.056912795834251 0 -39.056912795834251 21.77372228016884 0 0 0 0 45.055527128045469 -21.930901738821603 0 -21.930901738821603 -9.4143841699933546 0 0 0 0 35.772856282359726 -27.10917346111205 0 -27.10917346111205 -5.268354386143983 0 0 0 0 34.907118619074026 -30.256723067956045 0 -30.256723067956045 3.8446881538709476 0 0 0 0 17.709810110762191 -18.730695407447001 0 -18.730695407447001 -2.8576738044321246 0 0 0 0 33.773469116444176 -26.391625296863822 0 -26.391625296863822 -7.3880986089716316 0 0 0 0 27.077836242384365 -28.677186880969202 0 -28.677186880969202 -4.980421226906401 0 0 0 0 29.58390115241491 -17.93011475711171 0 -17.93011475711171 -9.5448770589991909 0 0 0 0 26.932566245648786 -26.533442536234475 0 -26.533442536234475 -6.9940392076205171 0 0 0 0 23.662346507329858 -24.052223581451926 0 -24.052223581451926 0.5257483828054319 0 0 0 0 27.650563610158315 -25.241002261245285 0 -25.241002261245285 0.87284978619754838 0 0 0 0 13.412519914433084 -8.7693276154070059 0 -8.7693276154070059 -4.8382128588325184 0 0 0 0 10.204840483303997 -16.687430955953459 0 -16.687430955953459 2.6113146595789658 0 0 0 0 9.3992065865506618 -6.0882949992065143 0 -6.0882949992065143 -7.8722404154190677 0 0 0 0 8.181287033407898 -11.510903377856721 0 -11.510903377856721 7.0826188267096768 0 0 0 0 20.608207795364024 -2.3235229956221133 0 -2.3235229956221133 -14.710361980909511 0 0 0 0 20.203161795518099 -6.8203834088285475 0 -6.8203834088285475 -23.61235288509306 0 0 0 0 18.164323986428485 -6.3352859700629267 0 -6.3352859700629267 -9.4792948334943503 0 0 0 0 17.817108479001035 -14.159967077142028 0 -14.159967077142028 -5.7834874065783879 0 0 0 0 1.6401493278672206 2.4454346974250711 0 2.4454346974250711 -14.513489574045707 0 0 0 0 5.2688349004729389 -14.654148005568914 0 -14.654148005568914 -14.344781070508361 0 0 0 0 -5.1917923127002723 -4.1645703355243313 0 -4.1645703355243313 -6.5917837009344566 0 0 0 0 2.1689549765815173 -9.7704856717964503 0 -9.7704856717964503 0.12241802245353028 0 0 0 0 0.72471519239626669 -6.0399680117007613 0 -6.0399680117007613 3.4949790093380955 0 0 0 0 2.9565304257903335 -10.897516330027429 0 -10.897516330027429 -2.0530485285476061 0 0 0 0 2.5718518349029864 -7.8845439648127353 0 -7.8845439648127353 2.9489447236574051 0 0 0 0 0.61275704254421726 -10.091261104050318 0 -10.091261104050318 1.206219476825936 0 0 0 0 0.21093331981357721 -8.4787187497963536 0 -8.4787187497963536 -2.9823934634934197 0 0 0 0 2.661876719821521 -10.906817023943404 0 -10.906817023943404 9.0633724825947866 0 0 0 0 -0.65933880715238047 -6.2973566422278964 0 -6.2973566422278964 2.7978832974024499 0 0 0 0 1.5391693944349996 -5.7140520167243949 0 -5.7140520167243949 0.0085805622993158082 0 0 0 0 9.589882616442992 -8.724387720908453 0 -8.724387720908453 2.8250877189243511 0 0 0 0 1.7251082746819364 -6.5236131802247659 0 -6.5236131802247659 1.7990849728615146 0 0 0 0 -0.43320354111483539 -11.152087710860314 0 -11.152087710860314 0.80862650694325566 0 0 0 0 6.5652735734383896 -9.5865090239794881 0 -9.5865090239794881 -5.3917465248541703 0 0 0 0 3.8104859535503337 -9.4796836927271393 0 -9.4796836927271393 -0.84309437287703926 0 0 0 0 21.785847947614457 -15.811060340374752 0 -15.811060340374752 -0.34676003617778406 0 0 0 0 7.3341763233111124 -7.0431792092012984 0 -7.0431792092012984 2.9754339304363384 0 0 0 0 13.231393903300159 -12.926434876173516 0 -12.926434876173516 0.13520476737903664 0 0 0 0 4.8460593600420907 -9.8034298662105357 0 -9.8034298662105357 -0.38860999458881906 0 0 0 0 7.6288636468361801 -14.052019681695356 0 -14.052019681695356 2.7386093999757577 0 0 0 0 5.8103156351427643 -9.1532324891150729 0 -9.1532324891150729 -2.8169800464601567 0 0 0 0 -10.366602277466995 9.6708917915411803 0 9.6708917915411803 43.997208249220421 0 0 0 0 8.7251940836670201 -10.310547325386324 0 -10.310547325386324 -20.42805283906273 0 0 0 0 -1.2657540723830607 -18.941874682171147 0 -18.941874682171147 3.6276420739905006 0 0 0 0 -12.290700001446794 0.2080768277221523 0 0.2080768277221523 8.1734969403514697 0 0 0 0 12.63597452115846 -13.419274306754232 0 -13.419274306754232 4.3853372419434891 0 0 0 0 -4.5061743714622935 -17.622401581867962 0 -17.622401581867962 40.612103587847741 0 0 0 0 -7.1672835990825661 -14.460391289598192 0 -14.460391289598192 40.301506879941371 0 0 0 0 -11.650090633406762 -25.451852113638779 0 -25.451852113638779 27.914986501844396 0 0 0 0 0.92460649618346391 -6.9156372076234582 0 -6.9156372076234582 8.5060471088470351 0 0 0 0 -8.5414653659217947 11.525437798669373 0 11.525437798669373 18.972945943229661 0 0 0 0 1.925829068381784 -4.6274928582087167 0 -4.6274928582087167 6.9075289925920913 0 0 0 0 8.668439639236567 -0.43337527932453668 0 -0.43337527932453668 1.4897704489449097 0 0 0 0 -1.3648989057437966 -0.0051411088300277186 0 -0.0051411088300277186 1.6639657911421395 0 0 0 0 2.8232462973155634 -10.727697698261181 0 -10.727697698261181 7.1874354443698394 0 0 0 0 2.4982435125493794 -11.120746803413567 0 -11.120746803413567 8.0983872127508221 0 0 0 0 -5.6628745922877215 -8.6949299323250671 0 -8.6949299323250671 9.091087792730832 0 0 0 0 -32.473211854874535 -46.162470513976587 0 -46.162470513976587 117.53720447462365 0 0 0 0 -32.3380826699522 -73.431822135767788 0 -73.431822135767788 14.603444176427729 0 0 0 0 18.279578839899386 -10.096762978631887 0 -10.096762978631887 38.137408840975695 0 0 0 0 22.14255125025602 -43.635320470298211 0 -43.635320470298211 51.623417275901375 0 0 0 0 19.789885213988782 -14.198998901109917 0 -14.198998901109917 83.43405467474804 0 0 0 0 1.1082501598889394 -9.7895489426209679 0 -9.7895489426209679 6.9246464151383407 0 0 0 0 5.3717389023163378 -36.190496882128173 0 -36.190496882128173 9.9187936356629507 0 0 0 0 13.1136041596518 -57.064328509833331 0 -57.064328509833331 5.426627408949571 0 0 0 0 5.2111253712050711 -70.960858692748843 0 -70.960858692748843 -18.796742431377425 0 0 0 0 -1.3274440544043067 0.85587671625484063 0 0.85587671625484063 0.87338271621765351 0 0 0 0 13.132636432841991 -9.9605562598389952 0 -9.9605562598389952 -70.268901339291006 0 0 0 0 -5.8311725834827257 -51.093824560156918 0 -51.093824560156918 75.199364204687299 0 0 0 0 -9.4592718362346204 -66.514589195376175 0 -66.514589195376175 20.459310900558648 0 0 0 0 2.4549950661759041 -5.47919526278638 0 -5.47919526278638 2.2595468910884087 0 0 0 0 11.257138739455058 -25.577208900923324 0 -25.577208900923324 4.4506452594714574 0 0 0 0 25.519635217216091 -18.981189340417586 0 -18.981189340417586 -9.2805972381192987 0 0 0 0 7.1159210889727547 -15.279065109873954 0 -15.279065109873954 2.0070923969569776 0 0 0 0 1.0928860734406767 -12.056913250288893 0 -12.056913250288893 2.0999632904609413 0 0 0 0 11.014292558851594 -13.796168342915735 0 -13.796168342915735 1.706798971099488 0 0 0 0 -3.3795334791667297 -11.362445687116775 0 -11.362445687116775 4.3176275934995516 0 0 0 0 -14.962194794293282 -38.243970257164619 0 -38.243970257164619 38.265466624921828 0 0 0 0 7.7144314402413556 -23.356025654032692 0 -23.356025654032692 6.6346344706107629 0 0 0 0 30.374164564495914 9.0850204485604991 0 9.0850204485604991 -3.3118840867573454 0 0 0 0 -33.478450480725769 29.508932337609622 0 29.508932337609622 13.666925523142709 0 0 0 0 -3.0738631752383299 7.8237584985163267 0 7.8237584985163267 28.987633910570366 0 0 0 0 -8.5250309236367272 -3.8025134239784997 0 -3.8025134239784997 -0.33792319588605402 0 0 0 0 34.541364489479747 -85.001684481776465 0 -85.001684481776465 51.762319514240517 0 0 0 0 -0.14143747501152348 -3.4461662858792845 0 -3.4461662858792845 -7.3362126008434956 0 0 0 0 -33.505665720131219 -31.827626900610994 0 -31.827626900610994 118.34841303965368 0 0 0 0 32.757525427811288 -25.865527990991723 0 -25.865527990991723 -23.05316491949452 0 0 0 0 35.249798732429554 -40.851811195344453 0 -40.851811195344453 -9.1425484099709138 0 0 0 0 -0.24302858825969054 -0.21037333064716002 0 -0.21037333064716002 0.96376740777171932 0 0 0 0 9.38738923975734 29.408802697598276 0 29.408802697598276 -20.376059742709913 0 0 0 0 -44.929063804240286 -23.805624624888878 0 -23.805624624888878 -20.559985246384528 0 0 0 0 -6.104998052372407 -0.91587327850366407 0 -0.91587327850366407 -0.026111010832073234 0 0 0 0 -46.44246704026483 -37.905717971716285 0 -37.905717971716285 16.93572942326864 0 0 0 0 -40.03143770317638 -56.103153226733411 0 -56.103153226733411 -65.136515079144374 0 0 0 0 -26.190450242500901 -15.986082847291982 0 -15.986082847291982 -36.432858557913278 0 0 0 0 -14.706599974856317 -88.784308139817767 0 -88.784308139817767 -122.81999543499842 0 0 0 0 -121.73161845162758 -35.980007440021836 0 -35.980007440021836 -37.19907757667329 0 0 0 0 37.354953334571064 10.50238898371299 0 10.50238898371299 -137.29815692117609 0 0 0 0 32.869097271012151 37.620416575937725 0 37.620416575937725 -24.531535029289444 0 0 0 0 7.2900583834057215 -10.009306251550697 0 -10.009306251550697 -6.1169588886846213 0 0 0 0 -118.57302447947495 -161.70874059419202 0 -161.70874059419202 -65.257352754451858 0 0 0 0 -0.21707247810427699 0.40366613791228101 0 0.40366613791228101 -1.486053513820849 0 0 0 0 -31.622065797531377 -46.301551380494857 0 -46.301551380494857 -210.54979154461216 0 0 0 0 -141.80195926062197 -217.35930637440288 0 -217.35930637440288 -150.99767755439279 0 0 0 0 -0.094962210921205825 -1.4467587200270806 0 -1.4467587200270806 -6.4079055551229231 0 0 0 0 43.041358717166531 -4.5996435742117683 0 -4.5996435742117683 -76.436173801279438 0 0 0 0 -176.80928939618661 -119.29266123693742 0 -119.29266123693742 -14.202170389529783 0 0 0 0 152.78292774392503 -89.11066443607433 0 -89.11066443607433 -21.884425475713215 0 0 0 0 -39.357231063221889 -11.763140570351879 0 -11.763140570351879 20.919957062618778 0 0 0 0 -13.798236364997138 -132.14870499177505 0 -132.14870499177505 76.915147080995666 0 0 0 0 -88.684551022452979 -210.90284637828881 0 -210.90284637828881 -283.51144959003796 0 0 0 0 166.80266111333731 59.567278823518791 0 59.567278823518791 -1.9961590901657473 0 0 0 0 359.15375470969229 184.218089644266 0 184.218089644266 58.946472809460829 0 0 0 0 254.04198417725456 -38.462559713278097 0 -38.462559713278097 -388.24077219596256 0 0 0 0 -236.77867527791068 -152.05193879055514 0 -152.05193879055514 -26.2613459457516 0 0 0 0 -186.7507461283576 -188.33968236055352 0 -188.33968236055352 -74.0392251676858 0 0 0 0 280.13380991258373 13.882189863908025 0 13.882189863908025 -254.27765824914241 0 0 0 0 -0.034966639084906603 -0.68217786484036225 0 -0.68217786484036225 -2.8322757421477434 0 0 0 0 127.71881472903897 -2.8696935143725568 0 -2.8696935143725568 -311.26543194799069 0 0 0 0 -33.695226057753644 19.710012928007927 0 19.710012928007927 22.962864887338583 0 0 0 0 0.87722783110021751 0.90217685270378922 0 0.90217685270378922 -0.41581727637720434 0 0 0 0 -346.12445708853193 -416.78936753134985 0 -416.78936753134985 -283.49304451402713 0 0 0 0 -0.24621459383048183 -0.86230245108877313 0 -0.86230245108877313 -3.027205906441587 0 0 0 0 -160.39331700675484 -105.35540389589369 0 -105.35540389589369 -40.836344741648645 0 0 0 0 5.1635977819460095 45.472650068184521 0 45.472650068184521 -245.86939490951954 0 0 0 0 -68.436340461850705 -8.5011009642312274 0 -8.5011009642312274 23.861673839346622 0 0 0 0 -14.565711647354874 -17.251529523702629 0 -17.251529523702629 -3.3399132370905136 0 0 0 0 52.862712208858284 -2.7785851700509738 0 -2.7785851700509738 -14.618321917814683 0 0 0 0 -0.53105060114275382 -4.1368770665601424 0 -4.1368770665601424 -6.2847257773439509 0 0 0 0 13.092544629198528 13.767089456203394 0 13.767089456203394 -0.42134141530618763 0 0 0 0 2.3249897851919741 -22.974539935739813 0 -22.974539935739813 6.0313127146182524 0 0 0 0 3.670306661761515 -5.1799974909235971 0 -5.1799974909235971 -3.6906600553011231 0 0 0 0 -0.19069670421545393 -3.3305355746990379 0 -3.3305355746990379 2.1156113216148213 0 0 0 0 0.77638952664999472 -1.6781416650130332 0 -1.6781416650130332 -5.4766802112565216 0 0 0 0 10.714365971868119 -11.495653115797722 0 -11.495653115797722 -7.9732603643906259 0 0 0 0 2.7513755812988165 -7.205784066394699 0 -7.205784066394699 -2.1665348072929191 0 0 0 0 12.250154070642566 -4.8807760774707276 0 -4.8807760774707276 -4.989462692351708 0 0 0 0 6.0978074070665116 -7.7329705564702635 0 -7.7329705564702635 -4.4138462077262375 0 0 0 0 3.0897449278550084 -11.656581419227223 0 -11.656581419227223 -9.2328880989953177 0 0 0 0 4.279760798472239 0.22306008000271049 0 0.22306008000271049 -22.529933520894701 0 0 0 0 -0.082862484131149827 1.2197811106949601 0 1.2197811106949601 -3.6994749948250956 0 0 0 0 23.557408793136347 1.8406482816890275 0 1.8406482816890275 -6.0913565814207686 0 0 0 0 21.545282898698133 -5.5606546111184798 0 -5.5606546111184798 -10.738493785282117 0 0 0 0 0.2917485932357522 -29.055898709399116 0 -29.055898709399116 -37.633754549759033 0 0 0 0 9.3215978234802606 -10.352577669538732 0 -10.352577669538732 -10.38988576520569 0 0 0 0 2.2686385395127395 -6.8607149820209479 0 -6.8607149820209479 2.9221733576828033 0 0 0 0 -8.101907107495208 -2.5238508694637858 0 -2.5238508694637858 -79.930102949292632 0 0 0 0 -12.898041839016514 -19.71446947134973 0 -19.71446947134973 -28.820570318639739 0 0 0 0 1.7264776867596083 0.028825062639953103 0 0.028825062639953103 -31.269200747010473 0 0 0 0 -11.712042043372094 5.487010064534843 0 5.487010064534843 -75.968382628081599 0 0 0 0 5.0949453527901341 5.8503769203916782 0 5.8503769203916782 -16.58898917023015 0 0 0 0 1.444202241207293 -2.4173279301424522 0 -2.4173279301424522 1.6979522835316416 0 0 0 0 0.067433398020511959 -0.66960912737704348 0 -0.66960912737704348 -81.309093175907037 0 0 0 0 6.215679265329527 17.897865433427796 0 17.897865433427796 -68.074018620332936 0 0 0 0 5.7124991295710323 -6.974841475264002 0 -6.974841475264002 3.1598249818202788 0 0 0 0 11.900517744417812 -11.750864772411205 0 -11.750864772411205 7.2292407474415086 0 0 0 0 6.200408152948512 -10.374551769264144 0 -10.374551769264144 -9.9168912508130234 0 0 0 0 0.73535557217155656 -5.6266021229735088 0 -5.6266021229735088 -10.59231159252522 0 0 0 0 1.8511995172341449 -1.0379254318735249 0 -1.0379254318735249 -0.16764826989457049 0 0 0 0 -3.5350102871134368 -5.9417947792117047 0 -5.9417947792117047 3.333425161868945 0 0 0 0 15.680240676352696 -25.12177522445927 0 -25.12177522445927 -27.122914394800318 0 0 0 0 20.767276876689721 8.1967686826901627 0 8.1967686826901627 -23.476480783281659 0 0 0 0 18.89802895424873 -20.433035877988004 0 -20.433035877988004 -48.823702353613044 0 0 0 0 3.4545435351037668 -18.738401961629279 0 -18.738401961629279 -0.54751866263904958 0 0 0 0 16.394864191136037 -51.572123030452957 0 -51.572123030452957 -125.44997836684706 0 0 0 0 0.08698047714735857 2.3156808374125202 0 2.3156808374125202 -6.4516489426309249 0 0 0 0 15.102345869066113 -21.358295827760315 0 -21.358295827760315 -115.94316423253076 0 0 0 0 -1.5973448917868183 -4.8827682675946846 0 -4.8827682675946846 -0.65467540324971196 0 0 0 0 2.4625491008241731 -5.6034570105180848 0 -5.6034570105180848 1.6997257686627414 0 0 0 0 3.4858171319301618 -8.0305105215738877 0 -8.0305105215738877 -11.898535286924016 0 0 0 0 0.43052471272075543 -1.3118911527232795 0 -1.3118911527232795 0.50827545472215263 0 0 0 0 -113.16088980777749 32.755718147971493 0 32.755718147971493 58.198746900947299 0 0 0 0 3.646832161052771e-05 -0.43652817880892769 0 -0.43652817880892769 -1.0433943930449328 0 0 0 0 -33.296426827113464 8.0567938894537292 0 8.0567938894537292 -6.9619405248304247 0 0 0 0 -46.755660027742124 -12.548498517826374 0 -12.548498517826374 28.060154765840707 0 0 0 0 -33.971357951493701 -30.692837268355106 0 -30.692837268355106 -25.284052707023875 0 0 0 0 -243.58931003194584 94.470903731739782 0 94.470903731739782 -88.777997307799524 0 0 0 0 -4.4950559181297649 -31.308345716277472 0 -31.308345716277472 -144.72075244379084 0 0 0 0 -6.550425172499672 -57.796414864242251 0 -57.796414864242251 -399.84941472457467 0 0 0 0 -108.13216029444811 -188.42614333094571 0 -188.42614333094571 -217.21358756548943 0 0 0 0 -54.557090538076409 -95.256479707975814 0 -95.256479707975814 -76.191231451135536 0 0 0 0 -36.939608239279551 -126.44055610037867 0 -126.44055610037867 -178.37447832048383 0 0 0 0 -100.83921645270766 -96.331079442292776 0 -96.331079442292776 -56.264380805601832 0 0 0 0 -11.083612066408023 -24.713321008766798 0 -24.713321008766798 -15.220483845142553 0 0 0 0 11.980977419978444 -16.692870691860662 0 -16.692870691860662 -37.272820646630663 0 0 0 0 -42.642207591347415 -59.03865847302859 0 -59.03865847302859 -38.032785840099677 0 0 0 0 -30.083164975677391 -91.568030815136808 0 -91.568030815136808 -87.197752574644255 0 0 0 0 -14.623452900084885 -77.727991749172361 0 -77.727991749172361 -94.743315345538576 0 0 0 0 -25.779877062314199 -70.166815545814643 0 -70.166815545814643 -94.92865536555837 0 0 0 0 -18.368749355116961 -84.660180397240765 0 -84.660180397240765 -93.788644264743198 0 0 0 0 -55.899515997763046 -77.384648449718952 0 -77.384648449718952 -82.269311351083161 0 0 0 0 0.025034573720645881 1.4058736277648318 0 1.4058736277648318 -3.6816348327188919 0 0 0 0 -63.357706670272535 -127.9709506916281 0 -127.9709506916281 -143.65452953921522 0 0 0 0 -98.44583790210163 -56.419633937312028 0 -56.419633937312028 -103.59688061799534 0 0 0 0 76.754254680670783 37.812679892382221 0 37.812679892382221 -14.678934700645186 0 0 0 0 -3.2230502007369068 14.230531152041294 0 14.230531152041294 16.024088537513308 0 0 0 0 21.870509851407405 10.90424282233289 0 10.90424282233289 -27.679846735910758 0 0 0 0 5.8000120965552924 -125.47568037943347 0 -125.47568037943347 -6.836127774175111 0 0 0 0 -182.18719096118821 -228.49903719648319 0 -228.49903719648319 -140.69836203359955 0 0 0 0 -1.9163930589402298 -152.41795467956581 0 -152.41795467956581 -198.66759688671937 0 0 0 0 -63.100302870620226 -14.948907510558911 0 -14.948907510558911 -29.263069166176138 0 0 0 0 -31.992758011877868 -54.04296388343937 0 -54.04296388343937 -34.860599614268722 0 0 0 0 -14.972340876956878 -76.593933111180377 0 -76.593933111180377 -110.50409682023019 0 0 0 0 18.954595833788517 -22.845749282262204 0 -22.845749282262204 -37.140082093987075 0 0 0 0 -32.062417340792308 -63.292159753726992 0 -63.292159753726992 6.3829707268923812 0 0 0 0 20.805130622449724 24.061547374494694 0 24.061547374494694 61.668911872805438 0 0 0 0 -3.6862527187577143 -29.971469695131418 0 -29.971469695131418 46.008327648831255 0 0 0 0 32.631717143580317 -48.697485501983465 0 -48.697485501983465 46.75078434245404 0 0 0 0 10.462198852395886 -42.048098415270033 0 -42.048098415270033 -86.393284807293128 0 0 0 0 48.064797243800058 -15.855752202483927 0 -15.855752202483927 -21.787357443914743 0 0 0 0 -14.854477925854553 -29.987973647107083 0 -29.987973647107083 -18.927736399526111 0 0 0 0 -4.7956193176132729 -3.2383412699809924 0 -3.2383412699809924 -2.6140962671706802 0 0 0 0 101.5384926298002 -14.910159888890121 0 -14.910159888890121 21.555169242763441 0 0 0 0 15.105434286313994 8.6099672991695115 0 8.6099672991695115 15.349359462950815 0 0 0 0 0.35605396162167047 -0.48820806562785624 0 -0.48820806562785624 1.881634551784451 0 0 0 0 170.0726320978647 49.022456035059804 0 49.022456035059804 167.13539667377881 0 0 0 0 46.384648707967244 -75.790355940953305 0 -75.790355940953305 100.12288970165173 0 0 0 0 -0.019025859298970715 -1.0130271043084882 0 -1.0130271043084882 -0.45565133404332947 0 0 0 0 -113.2101130144365 -8.9741731328103924 0 -8.9741731328103924 246.85346923237853 0 0 0 0 -172.34130887580977 -70.698700573695533 0 -70.698700573695533 245.56675831934047 0 0 0 0 1.4380509793973033 -4.5848025801183212 0 -4.5848025801183212 -0.013952357316156849 0 0 0 0 -0.27115005856830976 -4.2783018769678165 0 -4.2783018769678165 0.87940151203702044 0 0 0 0 1.976333145325043 -5.1365386176921675 0 -5.1365386176921675 0.50518147923867218 0 0 0 0 1.3936885138919024 -5.1072280127209524 0 -5.1072280127209524 1.1374544052496276 0 0 0 0 10.565903877169148 -65.278218871837453 0 -65.278218871837453 139.53416293177361 0 0 0 0 -15.310692174689393 -29.458224653768411 0 -29.458224653768411 97.456620941129586 0 0 0 0 -5.9193321943694173 -7.259922294882017 0 -7.259922294882017 8.6709485641049469 0 0 0 0 -35.409381301361464 -54.609008915929735 0 -54.609008915929735 136.76352431361011 0 0 0 0 -1.5712029419651969 -1.814279173841534 0 -1.814279173841534 -0.78039207927470855 0 0 0 0 2.2533574508828451 -3.1059292676175119 0 -3.1059292676175119 2.1723531928091688 0 0 0 0 -1.8141494685223734 -6.0849200259226564 0 -6.0849200259226564 -0.0018217183878732612 0 0 0 0 0.45253392606086784 0.21473580970639716 0 0.21473580970639716 -0.40452302954018649 0 0 0 0 -17.458754995612253 1.6077156848177765 0 1.6077156848177765 3.0128656854340079 0 0 0 0 2.2259389927785378 -2.0724284343687032 0 -2.0724284343687032 0.5218188162871229 0 0 0 0 5.9431226268543469 -12.192055998208161 0 -12.192055998208161 1.5929314755767336 0 0 0 0 0.92641366115519297 -3.4383172621722942 0 -3.4383172621722942 -0.86478132804532404 0 0 0 0 2.3204011791676749 -5.7518371610422037 0 -5.7518371610422037 -3.9450536451163316 0 0 0 0 -14.733412275648334 3.0802555813825165 0 3.0802555813825165 18.189519190593273 0 0 0 0 -0.12987617152293751 -2.817279929506185 0 -2.817279929506185 -4.3816675018097158 0 0 0 0 0.42379544135110336 -8.2897263084614679 0 -8.2897263084614679 37.053136328613618 0 0 0 0 -0.2386333238179601 -0.38951325051737129 0 -0.38951325051737129 0.42691537680784819 0 0 0 0 -0.10848100056743526 -0.60959406816449047 0 -0.60959406816449047 -1.3327999763812528 0 0 0 0 -2.5973546322438779 -3.1926405384465397 0 -3.1926405384465397 -7.8871898054185294 0 0 0 0 3.3601302936927482 -11.294944497605741 0 -11.294944497605741 19.352471541853447 0 0 0 0 5.4443293777878807 -7.2817460210728768 0 -7.2817460210728768 -3.307666623928526 0 0 0 0 1.1434688588857806 -5.7444862285850746 0 -5.7444862285850746 -1.1337215932443723 0 0 0 0 -0.32856355933563464 -3.1288615306802967 0 -3.1288615306802967 -2.9857677175095887 0 0 0 0 -0.55091109337098487 -6.5042961035511428 0 -6.5042961035511428 -3.5805173770455454 0 0 0 0 1.404602426211726 -7.4170104174168934 0 -7.4170104174168934 2.2874857484008331 0 0 0 0 6.4076624542926766 -14.343140687149742 0 -14.343140687149742 -2.7476518637759 0 0 0 0 3.0532107519829879 -12.9843573440412 0 -12.9843573440412 -0.97190733479965274 0 0 0 0 0.23249070050519371 -4.1075987019441413 0 -4.1075987019441413 -5.5316332135970185 0 0 0 0 4.6592641292863846 -6.3447243575819812 0 -6.3447243575819812 -4.7492120915667329 0 0 0 0 2.3942248992761961 -3.9899746597152443 0 -3.9899746597152443 -1.7191935750815901 0 0 0 0 -7.1022472046006442 -8.2871850817919039 0 -8.2871850817919039 -1.152216507398407 0 0 0 0 0.22897677590754029 -4.3488497309608647 0 -4.3488497309608647 -2.5198355969332624 0 0 0 0 -0.33626227677668741 -3.7408419865741607 0 -3.7408419865741607 -6.684199366361284 0 0 0 0 1.9449784202879528 -5.5484256922763961 0 -5.5484256922763961 -5.496102975874237 0 0 0 0 0.52703613761850221 -3.2192030692380973 0 -3.2192030692380973 3.1672417548398144 0 0 0 0 -6.020099131968891 -32.239956921082012 0 -32.239956921082012 -18.366036992250883 0 0 0 0 28.214360028636293 15.669441054878007 0 15.669441054878007 -8.1585764908231795 0 0 0 0 24.326052758957303 -1.5741602021644212 0 -1.5741602021644212 -7.8430475841269072 0 0 0 0 -13.151374359202237 24.976762169367248 0 24.976762169367248 56.686114716645534 0 0 0 0 27.519958030313319 -17.319318257763371 0 -17.319318257763371 -28.432858601938278 0 0 0 0 -0.02990513158611563 -0.67371342028062031 0 -0.67371342028062031 -0.52651229235227603 0 0 0 0 20.818712858053004 7.4791825587999483 0 7.4791825587999483 -1.82086491744667 0 0 0 0 7.9635518687919102 -19.497837314414937 0 -19.497837314414937 53.694581398151968 0 0 0 0 -0.54703428519602326 -2.4297323647133311 0 -2.4297323647133311 -5.256962423163472 0 0 0 0 8.5456910563489146 -5.7437504615036232 0 -5.7437504615036232 -13.309434336417326 0 0 0 0 5.2668764508625827 -20.178120994152778 0 -20.178120994152778 53.805722030654579 0 0 0 0 12.111933092732215 -36.780055741288379 0 -36.780055741288379 68.614503134671395 0 0 0 0 32.56720904006761 -52.255200299754506 0 -52.255200299754506 58.643490876298529 0 0 0 0 8.7838795594134353 -21.993543847761885 0 -21.993543847761885 43.092928646197834 0 0 0 0 17.018929582562123 -42.644912452535209 0 -42.644912452535209 46.51083432617088 0 0 0 0 15.57802025399269 -41.423178727558479 0 -41.423178727558479 54.504168627368927 0 0 0 0 -14.803595998648234 35.780988832917501 0 35.780988832917501 152.84757679817994 0 0 0 0 5.0826468497707538 -21.751167510266896 0 -21.751167510266896 107.9081362434863 0 0 0 0 2.0059379855101724 -65.832451138830947 0 -65.832451138830947 110.51330260124269 0 0 0 0 -33.629634709121092 -41.759689277227153 0 -41.759689277227153 98.476788603305977 0 0 0 0 6.2908438174617913 -62.056842001436962 0 -62.056842001436962 78.463764886862919 0 0 0 0 -121.73072062407846 -112.41461316040477 0 -112.41461316040477 162.38331713169464 0 0 0 0 -48.37173273487133 -91.11974855515291 0 -91.11974855515291 103.04812493125064 0 0 0 0 -35.619541769716307 -42.401461045501492 0 -42.401461045501492 152.6366602666676 0 0 0 0 0.56075366981852426 -0.57201260670430898 0 -0.57201260670430898 -0.29673469528800389 0 0 0 0 -5.05920541082196 -90.598542328478288 0 -90.598542328478288 102.92400990921647 0 0 0 0 2.1177402992366297 -9.8369776745689705 0 -9.8369776745689705 -37.548992900268786 0 0 0 0 14.103635395302263 -62.363224248239931 0 -62.363224248239931 -0.047387457963850466 0 0 0 0 51.728733161700802 -59.528655497044383 0 -59.528655497044383 37.237354333023177 0 0 0 0 40.50541438507571 -89.083464241604815 0 -89.083464241604815 80.543773067783832 0 0 0 0 21.430060404742107 -40.217509353400601 0 -40.217509353400601 24.943339753401233 0 0 0 0 14.948380250650189 -31.108961111256122 0 -31.108961111256122 0.049225702403418836 0 0 0 0 18.789766068700146 -44.576714279296084 0 -44.576714279296084 31.915572168833023 0 0 0 0 7.5595521842224116 -27.760045361425 0 -27.760045361425 27.549626943524345 0 0 0 0 3.0829529404836649 -24.897891903683558 0 -24.897891903683558 35.629406111969729 0 0 0 0 2.5451918799999476 -12.546861817550962 0 -12.546861817550962 17.996809012685844 0 0 0 0 -1.3887858650678027 -26.161103515638388 0 -26.161103515638388 44.936383575699438 0 0 0 0 -5.8315695656356183 -10.580647801114537 0 -10.580647801114537 30.154031313732958 0 0 0 0 7.4398200497207654 -15.081414906699138 0 -15.081414906699138 16.783613957442867 0 0 0 0 4.7035873804870789 -15.326763760236645 0 -15.326763760236645 21.238389287853352 0 0 0 0 2.4801565710015439 -21.078266074019893 0 -21.078266074019893 17.61370013247506 0 0 0 0 8.7093790666594941 -20.809753039849966 0 -20.809753039849966 16.859162759143146 0 0 0 0 11.964451123005233 -16.635784842742396 0 -16.635784842742396 11.903115624085331 0 0 0 0 15.795487594312817 -15.502792939621031 0 -15.502792939621031 0.011762816658669401 0 0 0 0 0.31828286548094376 0.031692995486356068 0 0.031692995486356068 -0.61567379610681172 0 0 0 0 -47.656288871354263 0.52812425166757748 0 0.52812425166757748 9.2672897671345709 0 0 0 0 -14.84601215250359 -2.4904239221305033 0 -2.4904239221305033 3.2460435823768421 0 0 0 0 -5.4691910397218635 -8.4177676022845844 0 -8.4177676022845844 5.8052064266594243 0 0 0 0 0.18417262970616743 -0.80407110310695984 0 -0.80407110310695984 0.22835234800489701 0 0 0 0 5.9470902985428893 -12.054403636234838 0 -12.054403636234838 11.26982413504993 0 0 0 0 3.5211295009740127 -9.3567534474538547 0 -9.3567534474538547 14.245575597029529 0 0 0 0 52.722481766213377 -16.435756015781408 0 -16.435756015781408 -9.9936059634892445 0 0 0 0 24.437640485869565 -26.26894181924763 0 -26.26894181924763 0.024501477031662944 0 0 0 0 -14.913525947754806 -27.524055415455223 0 -27.524055415455223 -0.024319768147893831 0 0 0 0 12.973501508814707 -11.982478186739172 0 -11.982478186739172 1.9275928831448255 0 0 0 0 -10.668625692751448 -23.272943804375245 0 -23.272943804375245 3.673534988171923 0 0 0 0 21.478660769567341 -8.4411359731411721 0 -8.4411359731411721 4.3374512492355279 0 0 0 0 0.96106246646945692 -12.673440974617733 0 -12.673440974617733 4.3971048562598298 0 0 0 0 14.532727662187426 -9.2289981962085221 0 -9.2289981962085221 -4.302200975156893 0 0 0 0 -2.1480302486208984 -8.2262157117434072 0 -8.2262157117434072 5.4312611365185148 0 0 0 0 0.17781882930195003 -5.7283113402269166 0 -5.7283113402269166 1.7500815524992452 0 0 0 0 -2.9279406538378225 -17.373120734880104 0 -17.373120734880104 -10.037512215666993 0 0 0 0 2.5829625850155979 -6.2855241251766891 0 -6.2855241251766891 2.5109218101434472 0 0 0 0 4.8316428512507628 -8.9288055242705013 0 -8.9288055242705013 4.1748626570642955 0 0 0 0 -5.8822940109694173 -4.6772410008215957 0 -4.6772410008215957 9.217334379978638 0 0 0 0 -5.5289706547273454 -2.7042136048603425 0 -2.7042136048603425 7.2445939080280368 0 0 0 0 4.2574879439198412 -5.0881553235958563 0 -5.0881553235958563 5.009542792719003 0 0 0 0 -2.397957555455978 -5.9215432672995902 0 -5.9215432672995902 2.8966219754488094 0 0 0 0 -0.40859012802684447 -6.7040179077484936 0 -6.7040179077484936 6.3855588543019621 0 0 0 0 -5.7622498878299666 -2.0482856493108557 0 -2.0482856493108557 2.6084190158162528 0 0 0 0 -7.1392490779026048 -17.817565404937341 0 -17.817565404937341 -8.8276977099567375 0 0 0 0 1.2766016759879903 -12.481007637604307 0 -12.481007637604307 -4.0550457513018046 0 0 0 0 3.5450951618119806 -3.9179724819862329 0 -3.9179724819862329 0.60138643446011741 0 0 0 0 1.165990665012032 -9.5228955787497398 0 -9.5228955787497398 -5.2229826561624577 0 0 0 0 -3.8423622565378537 -9.525576277816981 0 -9.525576277816981 -4.4413971289686742 0 0 0 0 1.332182054034547 -8.8055942238329408 0 -8.8055942238329408 -6.8838927054111991 0 0 0 0 0.37110984834725969 -12.697856736025642 0 -12.697856736025642 -9.6046814936471492 0 0 0 0 -2.1223733991298559 -10.182006882406768 0 -10.182006882406768 -7.4205260041435395 0 0 0 0 -5.3757829363253222 -13.896845584677067 0 -13.896845584677067 -2.7580956688013885 0 0 0 0 -1.0612630065274971 -10.298836447760323 0 -10.298836447760323 -15.174787988440585 0 0 0 0 -2.640445416722514 -7.50186689677912 0 -7.50186689677912 -2.402692773111994 0 0 0 0 2.2630361073850311 -1.8774013257360824 0 -1.8774013257360824 1.9092809115463893 0 0 0 0 -1.5225398989155678 -1.4184830385671034 0 -1.4184830385671034 -4.6706413298088592 0 0 0 0 -10.162096865463582 -1.16521812100018 0 -1.16521812100018 59.189337912950577 0 0 0 0 0.79666017651570797 -0.68688341279725407 0 -0.68688341279725407 0.54689597358284203 0 0 0 0 31.174155132583564 -9.1808954694042768 0 -9.1808954694042768 -15.492957766996369 0 0 0 0 -1.7197170968784121 -9.6683428507512872 0 -9.6683428507512872 2.0899413842216745 0 0 0 0 0.091540526683729695 -34.309719703585415 0 -34.309719703585415 -30.478195824292925 0 0 0 0 -12.046154432006915 -40.726353389291944 0 -40.726353389291944 12.447612085848732 0 0 0 0 -9.435408201932205 -54.43650009205885 0 -54.43650009205885 39.239197600676562 0 0 0 0 -4.2332047947993487 -30.041490363904813 0 -30.041490363904813 -4.008274909998363 0 0 0 0 -11.056070725990139 -41.993790929257557 0 -41.993790929257557 -28.835876430535791 0 0 0 0 -7.5077636832603503 -50.267150860415484 0 -50.267150860415484 -20.135161518410314 0 0 0 0 -10.274003741915976 -51.520948139708707 0 -51.520948139708707 -31.121284906465007 0 0 0 0 -2.4423374871848864 -52.380225986298683 0 -52.380225986298683 -61.165329166940865 0 0 0 0 45.471087759588272 -46.36205185293602 0 -46.36205185293602 -90.797192645331961 0 0 0 0 16.960577488216131 -25.09814819056237 0 -25.09814819056237 -47.852581732880935 0 0 0 0 16.647452272599367 -17.280408020794312 0 -17.280408020794312 -51.85086757955105 0 0 0 0 2.1963760477151482 -28.868789880006261 0 -28.868789880006261 -17.052566288348999 0 0 0 0 -27.580495298890128 -72.93823020934542 0 -72.93823020934542 -18.640446028577571 0 0 0 0 49.978670421467541 -59.639013796408108 0 -59.639013796408108 -76.510477011055627 0 0 0 0 -112.01908531678112 -85.929345949777598 0 -85.929345949777598 -88.922519064944936 0 0 0 0 -48.416431622193841 -13.055228451273251 0 -13.055228451273251 -78.768919250934232 0 0 0 0 -16.380084551125037 -85.256627038392253 0 -85.256627038392253 -154.14040642242253 0 0 0 0 -10.103355755458779 4.4534191397206087 0 4.4534191397206087 -42.550734876870592 0 0 0 0 6.4931653401894209 20.169593847189844 0 20.169593847189844 23.977767156902701 0 0 0 0 -27.128174414617092 -41.178245683310706 0 -41.178245683310706 -42.409355417221377 0 0 0 0 -23.207158942922888 -3.6680369575824443 0 -3.6680369575824443 25.922649125886892 0 0 0 0 58.958337130253312 -3.6437755064453086 0 -3.6437755064453086 -9.7443077573789196 0 0 0 0 -2.3364997528059108 -6.9373963763280262 0 -6.9373963763280262 4.2082399293164627 0 0 0 0 -5.9133252790520601 -20.259775584016779 0 -20.259775584016779 13.578664365915756 0 0 0 0 -20.090255843017985 -58.179812363480778 0 -58.179812363480778 -32.64679488596812 0 0 0 0 -0.074105191323281527 -0.037496285092210258 0 -0.037496285092210258 0.33830929651719543 0 0 0 0 80.858135797535397 45.58708021316852 0 45.58708021316852 -16.374219235467535 0 0 0 0 -83.087341432599032 22.088834302012856 0 22.088834302012856 7.5110496155684814 0 0 0 0 -3.7226605487440794 -6.7629330893182757 0 -6.7629330893182757 5.343658419761006 0 0 0 0 -6.1560531210386671 -12.562025074859775 0 -12.562025074859775 35.13393394038394 0 0 0 0 71.364994668725558 -44.784195471571365 0 -44.784195471571365 -13.660093602535198 0 0 0 0 -88.096941969562295 2.119196195612858 0 2.119196195612858 32.739326670718583 0 0 0 0 -0.32572575661708036 -0.092519087052204796 0 -0.092519087052204796 0.56603771110992795 0 0 0 0 57.238784900437622 -21.771560995540312 0 -21.771560995540312 -14.446131993368908 0 0 0 0 38.886180049718178 -32.357967843790448 0 -32.357967843790448 -15.016028659490985 0 0 0 0 -60.237961112834455 -66.130799707183542 0 -66.130799707183542 57.667040648973853 0 0 0 0 -26.750823284378384 -29.108954073697532 0 -29.108954073697532 1.0111608754887129 0 0 0 0 24.27428715820497 -56.046644205976918 0 -56.046644205976918 5.777061231987318 0 0 0 0 15.762709388358417 -19.679920342150581 0 -19.679920342150581 -10.035005707282835 0 0 0 0 12.031484776064644 -26.257909208728961 0 -26.257909208728961 -5.6609232271603105 0 0 0 0 7.7735580016260428 -12.534012567213722 0 -12.534012567213722 1.7793964672164293 0 0 0 0 -4.7763681660871953 -18.752141535279407 0 -18.752141535279407 -0.96130710935904062 0 0 0 0 14.344299270761439 -15.832357712253724 0 -15.832357712253724 -10.823183581981539 0 0 0 0 1.1440859540842605 -2.3928344241957422 0 -2.3928344241957422 1.9454732674517388 0 0 0 0 -2.8979345570235182 -13.369149591681889 0 -13.369149591681889 4.3854147377642221 0 0 0 0 23.768086222923557 -15.646284691547407 0 -15.646284691547407 3.1029823532226146 0 0 0 0 3.9322561503695397 -20.612774436701329 0 -20.612774436701329 21.437994634449751 0 0 0 0 -17.774463157015475 -2.2802524427463595 0 -2.2802524427463595 -9.1870599434296309 0 0 0 0 -1.124717693988714 -12.439011649534223 0 -12.439011649534223 -6.0404881969420785 0 0 0 0 -3.1811990454987473 -7.1369348674077813 0 -7.1369348674077813 6.880675127084146 0 0 0 0 -94.556416691141976 1.8249793938002767 0 1.8249793938002767 76.244522159722237 0 0 0 0 -75.367318034583718 -47.520619811387405 0 -47.520619811387405 50.983566041613813 0 0 0 0 -209.59203564167751 62.430666785070571 0 62.430666785070571 -16.441319259698503 0 0 0 0 -89.175117045733941 -38.517246726552912 0 -38.517246726552912 51.536256231401239 0 0 0 0 -122.88147732611333 -189.60613050230859 0 -189.60613050230859 -131.64670758615284 0 0 0 0 -72.685116899429886 58.626622645670068 0 58.626622645670068 206.87833955308997 0 0 0 0 -11.983936930877462 -14.517363811709401 0 -14.517363811709401 68.925199551336846 0 0 0 0 -0.078520198028480426 -0.51562048458831455 0 -0.51562048458831455 0.59189707321160512 0 0 0 0 -117.56967979327612 -110.00204627025414 0 -110.00204627025414 74.692420523297187 0 0 0 0 -142.65928760029999 -77.214802822050842 0 -77.214802822050842 189.09580653180819 0 0 0 0 -75.677082180989146 -51.052226370777134 0 -51.052226370777134 75.529232078733912 0 0 0 0 -153.12947600386178 -88.232147503065789 0 -88.232147503065789 75.292789248589017 0 0 0 0 -94.715649076483032 -77.00366471461075 0 -77.00366471461075 -12.303796438376594 0 0 0 0 -100.7059431581863 -95.685497271639179 0 -95.685497271639179 6.3763509593518393 0 0 0 0 -182.04381782890619 -85.526423226508086 0 -85.526423226508086 15.560925468587811 0 0 0 0 -155.38790199637879 -67.372802468823465 0 -67.372802468823465 -14.211077348980325 0 0 0 0 -229.77030825969086 10.551713903503696 0 10.551713903503696 -39.077702272279566 0 0 0 0 25.163374911110225 -6.8791108552882179 0 -6.8791108552882179 7.8319300842777011 0 0 0 0 -247.53683796686846 -2.3228075127190095 0 -2.3228075127190095 -34.37596349739033 0 0 0 0 -1.2574271584894401 -3.3043595324474886 0 -3.3043595324474886 1.3564653883019275 0 0 0 0 5.8439906297359236 -9.3384460467047745 0 -9.3384460467047745 2.0780941651345595 0 0 0 0 1.5761227093558667 -1.7358472339520503 0 -1.7358472339520503 0.22472608164254382 0 0 0 0 12.998514203990851 -60.918036806593591 0 -60.918036806593591 -46.333997130102944 0 0 0 0 -0.64267496082090392 -3.6119674739137881 0 -3.6119674739137881 -2.222254099760228 0 0 0 0 -310.96762285196507 7.6517610889904972 0 7.6517610889904972 16.544356298260936 0 0 0 0 -294.73422881453712 -50.08119019431615 0 -50.08119019431615 15.298899489190717 0 0 0 0 -217.29348610125999 -86.351210407354301 0 -86.351210407354301 4.7055384588547895 0 0 0 0 1.5046672613547154 -4.2889748573080606 0 -4.2889748573080606 -0.41323758819415701 0 0 0 0 -0.035229581158091605 -14.401005483694462 0 -14.401005483694462 9.8864962936131633 0 0 0 0 14.869957128269562 -15.417307400113714 0 -15.417307400113714 2.8009173082537018 0 0 0 0 1.2967530765595257 -10.54077741306628 0 -10.54077741306628 6.2152077278424258 0 0 0 0 5.9012497224874343 -6.8766992554769928 0 -6.8766992554769928 1.5269641423822398 0 0 0 0 2.9969458975381258 -5.4653401514542566 0 -5.4653401514542566 4.7973008078597559 0 0 0 0 14.639454803974388 -11.341090238870947 0 -11.341090238870947 -13.974024119654132 0 0 0 0 4.6585844413580162 -26.046364808014914 0 -26.046364808014914 -22.724984853735805 0 0 0 0 -4.1246919389620871 -12.670416991276397 0 -12.670416991276397 -2.4503045276269404 0 0 0 0 0.85197019733348855 -0.96770447079762523 0 -0.96770447079762523 -0.016313626726706332 0 0 0 0 1.1064436568335623 -13.723860746751598 0 -13.723860746751598 -3.8375749258011638 0 0 0 0 1.8503981635755622 -22.584314314636003 0 -22.584314314636003 -10.003034434048459 0 0 0 0 -5.7202997828583193 -29.080446644400581 0 -29.080446644400581 8.9201144002872752 0 0 0 0 -8.4895128488256546 -25.775129938554755 0 -25.775129938554755 -0.022143364438306889 0 0 0 0 6.9566747179153481 -3.1175944300371157 0 -3.1175944300371157 6.2904954165205709 0 0 0 0 -40.142672738612646 -10.154019049601629 0 -10.154019049601629 6.6778827132138758 0 0 0 0 -0.12145174923182378 0.50676924931284639 0 0.50676924931284639 0.079505719676447484 0 0 0 0 -364.2154960367734 -4.252854483594092 0 -4.252854483594092 -5.8862044242632692 0 0 0 0 -59.544995668573961 3.8072131639637519 0 3.8072131639637519 112.38194953362108 0 0 0 0 66.04338345484112 2.0552394672899936 0 2.0552394672899936 -4.8739302529311317 0 0 0 0 -5.7834972576747532 -38.02751818053548 0 -38.02751818053548 -13.227340484918386 0 0 0 0 24.678712575281494 -23.383128249532547 0 -23.383128249532547 0.02990212763324962 0 0 0 0 -0.95541077278003717 -0.73111777281646617 0 -0.73111777281646617 -1.0426698438518969 0 0 0 0 -610.42447405262089 -39.843471912036421 0 -39.843471912036421 72.035416299995632 0 0 0 0 -355.17984563042364 -133.34647221136584 0 -133.34647221136584 -0.10269031121266202 0 0 0 0 -238.00903199708483 -64.343700633659864 0 -64.343700633659864 -7.4385723696977948 0 0 0 0 -191.24951117713704 -152.6982369762336 0 -152.6982369762336 -1.7201969070886776 0 0 0 0 -138.80693573786596 -92.946962718398481 0 -92.946962718398481 66.123626363845688 0 0 0 0 -116.24734650876769 -139.96162022486988 0 -139.96162022486988 -0.013521547058189753 0 0 0 0 -63.382679317530346 -111.28662760907446 0 -111.28662760907446 -4.147173936933541 0 0 0 0 -18.753804171797015 -143.28997557194225 0 -143.28997557194225 0.006697635059026652 0 0 0 0 1.3821289631021045 -133.0134211820814 0 -133.0134211820814 -0.67909727339610981 0 0 0 0 -28.987589781984525 -138.95197893387194 0 -138.95197893387194 21.956139907590114 0 0 0 0 -18.188222118086514 -137.27860802706982 0 -137.27860802706982 -3.6593234392180705 0 0 0 0 83.1701457358742 -143.52708108900242 0 -143.52708108900242 -21.20195014005003 0 0 0 0 0.042880269131824633 -0.70933873306655393 0 -0.70933873306655393 1.2560523988943331 0 0 0 0 -25.503891725944641 -109.92920796990984 0 -109.92920796990984 34.734277989131442 0 0 0 0 -247.36631688160833 -32.957028866283281 0 -32.957028866283281 30.328955851447972 0 0 0 0 28.782000040684579 -97.354445059647333 0 -97.354445059647333 -78.660455341878333 0 0 0 0 -100.34130799007994 -94.892362277088068 0 -94.892362277088068 -13.270437243056222 0 0 0 0 -74.761107561562085 -151.18639790996258 0 -151.18639790996258 3.1637820105497667 0 0 0 0 -128.21156493758235 -175.73006236226502 0 -175.73006236226502 39.159906778787899 0 0 0 0 -143.05997643180319 -120.27568910241826 0 -120.27568910241826 19.807681007512656 0 0 0 0 -154.70297298992165 -123.6163953984119 0 -123.6163953984119 22.963060584224877 0 0 0 0 -199.7798088754389 -78.167744717568894 0 -78.167744717568894 3.7450371363943304 0 0 0 0 -106.09942245130566 -202.76656578440088 0 -202.76656578440088 69.822339397687756 0 0 0 0 -205.60475651650779 -138.27216789974136 0 -138.27216789974136 55.023449520439044 0 0 0 0 -65.674443455112169 -63.588933520592946 0 -63.588933520592946 -13.225524509474781 0 0 0 0 -42.757326975975502 -27.493832991390263 0 -27.493832991390263 -17.674354653923729 0 0 0 0 -90.741757333245232 -53.311042198773521 0 -53.311042198773521 -0.014891177332174266 0 0 0 0 0.0056615005642406402 -0.27877438098953 0 -0.27877438098953 0.64730459041255273 0 0 0 0 41.005395666880304 -106.48358268733409 0 -106.48358268733409 -6.0154864920377804 0 0 0 0 2.0215278902110185 -38.84401229359537 0 -38.84401229359537 -39.639817460417817 0 0 0 0 131.45025368414508 -65.574256434072595 0 -65.574256434072595 -34.806244979156872 0 0 0 0 63.300308644569668 -144.10056298511563 0 -144.10056298511563 -0.031276095853172592 0 0 0 0 -1.1500759888617722 -113.34477601303479 0 -113.34477601303479 -1.4587920276171644 0 0 0 0 -34.635881738498 -67.530825814529976 0 -67.530825814529976 -26.055927404675458 0 0 0 0 -3.6250996401799966 -46.375773105154622 0 -46.375773105154622 -11.645369929785375 0 0 0 0 35.374829082078122 -92.869695578985556 0 -92.869695578985556 9.2489140364687046 0 0 0 0 -67.500403366805813 -81.95424757341334 0 -81.95424757341334 -34.761041945746911 0 0 0 0 0.21839310930531575 -0.8009872425070057 0 -0.8009872425070057 1.2684290672525123 0 0 0 0 3.3865349758128218 -65.491863697724966 0 -65.491863697724966 -50.843217455587364 0 0 0 0 -100.18680079390742 -20.052458016722994 0 -20.052458016722994 41.583492364841732 0 0 0 0 65.695679629008737 -79.490832226999828 0 -79.490832226999828 -23.215839474099994 0 0 0 0 -139.99775174955801 -80.673873817375807 0 -80.673873817375807 99.303038184154502 0 0 0 0 -0.059527717169018501 -0.34418403203778425 0 -0.34418403203778425 0.87581583345277636 0 0 0 0 3.0880684287917575 -26.824157777140499 0 -26.824157777140499 -29.324214919662722 0 0 0 0 -42.319672129461196 -42.718105346571974 0 -42.718105346571974 58.039417536338078 0 0 0 0 -7.4554907817826006 -2.5343724663107423 0 -2.5343724663107423 -5.2735846285140724 0 0 0 0 3.2353283929451209 -90.082992340999226 0 -90.082992340999226 84.665205601897469 0 0 0 0 -75.88453382748321 -101.04671677445367 0 -101.04671677445367 105.76356431579552 0 0 0 0 -78.796273574549645 -50.173733165009708 0 -50.173733165009708 126.20998058099212 0 0 0 0 -13.449653128495356 -24.755415512519903 0 -24.755415512519903 89.014476484411716 0 0 0 0 -34.230060625542592 -68.739023014237318 0 -68.739023014237318 65.077296361421759 0 0 0 0 1.1871745795061521 -2.0585635210847073 0 -2.0585635210847073 1.6911042095638606 0 0 0 0 0.68637797953090462 -1.3005075851760495 0 -1.3005075851760495 0.97540052144368161 0 0 0 0 -39.364158888424754 -49.378801766257311 0 -49.378801766257311 73.000864151540554 0 0 0 0 278.44095850757458 -42.108483141526449 0 -42.108483141526449 164.73927363055554 0 0 0 0 434.57887271271557 -543.5064141353796 0 -543.5064141353796 191.23527669158557 0 0 0 0 45.940268983702254 -230.07532325529837 0 -230.07532325529837 -309.02139873650412 0 0 0 0 0.58132981458666233 -1.0322861103057761 0 -1.0322861103057761 0.89448705415687257 0 0 0 0 -428.6829893862905 417.99959676154685 0 417.99959676154685 -121.63551805032421 0 0 0 0 31.726049556861312 -255.37139371745798 0 -255.37139371745798 -159.40791331154469 0 0 0 0 17.042294378073166 27.660497310191204 0 27.660497310191204 147.68968102029612 0 0 0 0 -50.326503603980427 35.387751345468587 0 35.387751345468587 337.75514955777362 0 0 0 0 -39.576624018151165 -67.70781801919793 0 -67.70781801919793 181.22821452234348 0 0 0 0 8.0506862472177545 -145.94083337352458 0 -145.94083337352458 216.80864002764429 0 0 0 0 -67.039399666383815 -202.42749048609221 0 -202.42749048609221 -28.980273272110935 0 0 0 0 -149.33251165257752 -97.78423361768364 0 -97.78423361768364 -59.709706291503608 0 0 0 0 26.552891316251589 -252.63773289205983 0 -252.63773289205983 -66.830584759904013 0 0 0 0 -1.4211949109158013 -202.97660119206557 0 -202.97660119206557 -127.90613365653189 0 0 0 0 3.3750056735594001 -119.70029344595147 0 -119.70029344595147 -67.084152208681189 0 0 0 0 51.57229954498132 -159.89245221389365 0 -159.89245221389365 -86.584475621009915 0 0 0 0 86.220529569188784 -119.18036376130613 0 -119.18036376130613 -99.772530601569088 0 0 0 0 53.037133505305974 -154.69631884237424 0 -154.69631884237424 -94.601019230925885 0 0 0 0 40.068159801515321 -59.033563623084774 0 -59.033563623084774 27.663273576144547 0 0 0 0 -54.71028603403829 -72.184966502070893 0 -72.184966502070893 36.806832897009372 0 0 0 0 91.594849116955629 -32.647256120315433 0 -32.647256120315433 -37.829509003745443 0 0 0 0 3.4696982547255857 -124.00559070515828 0 -124.00559070515828 -55.477640879647879 0 0 0 0 -8.31263412352655 -58.791365581755599 0 -58.791365581755599 -151.56929080165537 0 0 0 0 19.517164306015275 -164.48332435069915 0 -164.48332435069915 -164.25348326096355 0 0 0 0 61.342850316265185 -159.43563327360516 0 -159.43563327360516 -224.79385803276455 0 0 0 0 -11.159878633258813 -90.501539974160551 0 -90.501539974160551 -291.65672783622131 0 0 0 0 -170.2754964069602 -138.37695106504179 0 -138.37695106504179 -174.17445706347462 0 0 0 0 69.116373832225236 21.260985432671077 0 21.260985432671077 -180.68329432681094 0 0 0 0 -66.015444798657427 -146.05259152721555 0 -146.05259152721555 -140.38674170385093 0 0 0 0 -9.2581006230735508 -163.03525652835665 0 -163.03525652835665 -174.94728018259048 0 0 0 0 -34.136910391061974 -225.7777675063453 0 -225.7777675063453 -350.99498641343234 0 0 0 0 -65.079520294341819 -192.19594757867526 0 -192.19594757867526 -451.61198504959248 0 0 0 0 -216.40345817721254 -252.0359932422416 0 -252.0359932422416 -172.97173863191892 0 0 0 0 4.2036680426726889 -101.05170211738186 0 -101.05170211738186 -360.08483212334193 0 0 0 0 -117.87629903765151 -196.42493945839806 0 -196.42493945839806 -163.07335587881971 0 0 0 0 1.9024005228073637 -3.8057617163533486 0 -3.8057617163533486 3.7253855276347956 0 0 0 0 -111.69285900522982 133.42763082877718 0 133.42763082877718 195.54047067517195 0 0 0 0 -108.43743004706789 -104.93594111003767 0 -104.93594111003767 -27.786926212909748 0 0 0 0 -155.89740971175638 -113.14680656665405 0 -113.14680656665405 -20.248353393672915 0 0 0 0 -65.313936333563333 -83.577769378269295 0 -83.577769378269295 -4.0835860478828181 0 0 0 0 -101.92871431663502 -79.463575185744048 0 -79.463575185744048 42.040592366016426 0 0 0 0 -114.93622311416914 -130.87738258164154 0 -130.87738258164154 15.614419199038821 0 0 0 0 -139.81113232299356 -131.87057911495594 0 -131.87057911495594 31.000514508938068 0 0 0 0 -96.284853748376463 -104.56945421577984 0 -104.56945421577984 43.933841703365033 0 0 0 0 -115.75331776216262 -124.02827080310271 0 -124.02827080310271 -5.7458068708619976 0 0 0 0 -134.56730864106589 -117.82759972551023 0 -117.82759972551023 14.909469346508558 0 0 0 0 -134.20913984645694 -98.041678190972448 0 -98.041678190972448 -15.885170188179472 0 0 0 0 -175.66709193933343 -88.404990553738571 0 -88.404990553738571 7.2779468259850546 0 0 0 0 -182.32725695231807 -100.97979743135511 0 -100.97979743135511 -9.7655474727907858 0 0 0 0 0.21273821841231344 -1.6895735075156662 0 -1.6895735075156662 2.2188841993605593 0 0 0 0 -273.63638755182137 -109.72886522375939 0 -109.72886522375939 138.39979879322345 0 0 0 0 -181.08082689982916 -62.004059195227455 0 -62.004059195227455 -42.545768006614111 0 0 0 0 -188.38987438285199 -75.71004605831331 0 -75.71004605831331 -21.521724020691181 0 0 0 0 -171.66179596499023 -101.48667440961617 0 -101.48667440961617 -6.1111023730281886 0 0 0 0 -171.56827745698001 -82.628586396485844 0 -82.628586396485844 -42.584609988170996 0 0 0 0 -251.27045692417346 -81.256948938325877 0 -81.256948938325877 -27.439954149536788 0 0 0 0 -275.14628427289449 -116.13690975131658 0 -116.13690975131658 -20.523984347633814 0 0 0 0 0.1720093048372624 -1.004830622952877 0 -1.004830622952877 0.94970883561685326 0 0 0 0 -215.33294409654764 -180.48299536793638 0 -180.48299536793638 11.112971581549573 0 0 0 0 -191.32444688925716 -306.02473305450621 0 -306.02473305450621 -213.65327922078995 0 0 0 0 -14.388953277973542 -160.576041633567 0 -160.576041633567 -29.957123644728199 0 0 0 0 -170.38710701292945 -109.2760850594529 0 -109.2760850594529 -79.994848462058144 0 0 0 0 -169.85213840757228 -96.764542835313478 0 -96.764542835313478 -97.625915830891245 0 0 0 0 -196.39116633887124 -147.70653116358608 0 -147.70653116358608 -182.42908194449228 0 0 0 0 -1.1774148732320464 -1.376884784678623 0 -1.376884784678623 2.0057639667095053 0 0 0 0 -83.349751529860896 -145.65362046692644 0 -145.65362046692644 -84.931497847310311 0 0 0 0 -75.833178369010284 -76.521627837119013 0 -76.521627837119013 -68.649271966820379 0 0 0 0 -0.62443122367190096 -1.3097233949751583 0 -1.3097233949751583 1.7440944842002253 0 0 0 0 -77.992179859322732 -49.199328119228994 0 -49.199328119228994 2.0938270893739173 0 0 0 0 -67.395423692984195 -162.76908693100086 0 -162.76908693100086 -166.41854265419352 0 0 0 0 -115.87893351943046 -103.01064813121889 0 -103.01064813121889 -53.652353614343156 0 0 0 0 -2.7597347430464652 -93.351475242016932 0 -93.351475242016932 -154.94808973419003 0 0 0 0 0.44865530379952911 -0.40137382617143658 0 -0.40137382617143658 0.15535419500547221 0 0 0 0 20.030956373439722 -12.788964305192167 0 -12.788964305192167 -23.11562543560558 0 0 0 0 -43.91385375827349 -59.703698461315071 0 -59.703698461315071 -48.163599050289577 0 0 0 0 -55.115063476383511 -144.30458510440076 0 -144.30458510440076 -157.63879283861206 0 0 0 0 -83.610415934002958 -138.27721524503431 0 -138.27721524503431 -85.243574221941344 0 0 0 0 -53.722173849934279 -126.12812864940133 0 -126.12812864940133 -128.71341409170236 0 0 0 0 3.3694716726318461 -20.070154703827939 0 -20.070154703827939 -41.565108090975627 0 0 0 0 7.6057865841792136 -2.9354198411337507 0 -2.9354198411337507 1.0957360237335418 0 0 0 0 -19.499520038834817 -1.1684498255135622 0 -1.1684498255135622 11.453648679123035 0 0 0 0 -1.6217659918341383 -21.275607784583372 0 -21.275607784583372 -34.422155188865872 0 0 0 0 -2.1225514407287847 -18.021677476059267 0 -18.021677476059267 -42.667582226171362 0 0 0 0 -2.7714773190659798 -27.217362339173633 0 -27.217362339173633 -41.021283260588234 0 0 0 0 -5.638052999996944 -32.515406839796924 0 -32.515406839796924 -28.838986660555747 0 0 0 0 -7.1595484958368161 -29.320219038936557 0 -29.320219038936557 -17.76712779823356 0 0 0 0 -6.3891474621377711 -29.732806341642572 0 -29.732806341642572 -22.19194944866922 0 0 0 0 -3.8311635699834596 -25.466298774339521 0 -25.466298774339521 -22.939268531798007 0 0 0 0 -1.1809624458182952 -21.738055767213154 0 -21.738055767213154 -34.363923947056037 0 0 0 0 -1.3079912754665202 -22.440895740293854 0 -22.440895740293854 -24.662580547161269 0 0 0 0 3.925258838638797 -11.68005034660564 0 -11.68005034660564 -37.118008184024802 0 0 0 0 -1.2354670310642177 -20.680466549913035 0 -20.680466549913035 -15.345905076923373 0 0 0 0 -3.4627124965127223 -24.169967450750846 0 -24.169967450750846 -15.177732677409494 0 0 0 0 -3.2673381191312956 -16.646129915177426 0 -16.646129915177426 -16.683439432952582 0 0 0 0 -4.1081835133067557 -22.500189426298675 0 -22.500189426298675 -2.5583229873664095 0 0 0 0 -10.028545105508101 -29.112726882618517 0 -29.112726882618517 -7.6836404092755402 0 0 0 0 -7.7935271794701464 -24.896106542894131 0 -24.896106542894131 -6.4893077352826367 0 0 0 0 -6.5362387683435941 -23.281613180618479 0 -23.281613180618479 2.0525865052477457 0 0 0 0 -15.503224430358159 -30.787577094612061 0 -30.787577094612061 2.4325719103018173 0 0 0 0 -10.262230850852575 -29.677224715252123 0 -29.677224715252123 -4.6365989503246965 0 0 0 0 -11.65280364329692 -34.433775098232218 0 -34.433775098232218 -3.2435791713737672 0 0 0 0 -10.49453031883013 -35.358786929744383 0 -35.358786929744383 -7.4373866673831799 0 0 0 0 -10.542592017275638 -31.182739504012716 0 -31.182739504012716 -10.368781367975316 0 0 0 0 -9.5291832493717834 -34.380462745971727 0 -34.380462745971727 -15.328356796031585 0 0 0 0 -7.8262477529684702 -25.535502719499164 0 -25.535502719499164 -14.484687442341965 0 0 0 0 -9.9333605377064487 -32.559021286271673 0 -32.559021286271673 -9.8672610612557037 0 0 0 0 -11.339853878475878 -48.745256483731737 0 -48.745256483731737 -0.05140412997934618 0 0 0 0 -2.831647324502228 -26.49832792748839 0 -26.49832792748839 41.904979083199578 0 0 0 0 0.18674403185684696 -25.373496841935776 0 -25.373496841935776 9.3735162372768173 0 0 0 0 16.380162984365427 -34.710282017773352 0 -34.710282017773352 0.82536146637448837 0 0 0 0 1.362344262516558 -25.666299585676825 0 -25.666299585676825 -5.6738662089774152 0 0 0 0 8.5631423684608308 -20.728624607731035 0 -20.728624607731035 -7.8412542482137724 0 0 0 0 12.481084751950704 -16.751763766164004 0 -16.751763766164004 -4.2880925822737481 0 0 0 0 1.7644331207777668 -17.142429137496947 0 -17.142429137496947 -11.594147820233047 0 0 0 0 4.5019110257968435 -23.624083743718074 0 -23.624083743718074 -10.156712464038719 0 0 0 0 -1.1003973640385993 -9.3377356752116611 0 -9.3377356752116611 -23.373284603846514 0 0 0 0 -0.78226458429048762 -14.539242116536116 0 -14.539242116536116 -10.794328956824188 0 0 0 0 4.805134299213023 -45.511954441848502 0 -45.511954441848502 12.714622108718686 0 0 0 0 -11.69449739922605 -10.368915627645698 0 -10.368915627645698 0.054693058579616149 0 0 0 0 15.913667978763883 -23.427755130461946 0 -23.427755130461946 -9.9811471854918636 0 0 0 0 8.1947393004477362 -24.405948969118981 0 -24.405948969118981 49.401155434090469 0 0 0 0 4.3861682903620904 -4.8512132659978064 0 -4.8512132659978064 1.1552813869933551 0 0 0 0 -93.553790027549439 -316.93005963314772 0 -316.93005963314772 -405.22431243321626 0 0 0 0 -2.7385718619977517 -0.3513094096009759 0 -0.3513094096009759 0.37775381206494174 0 0 0 0 -59.583547856955192 -262.68789372106767 0 -262.68789372106767 -378.25105452210846 0 0 0 0 3.2253975210711161 -2.8509001198842761 0 -2.8509001198842761 -0.57522777439222494 0 0 0 0 -111.96074768964354 -244.38674816955609 0 -244.38674816955609 -348.71356355886383 0 0 0 0 -112.34649141557185 -160.52595248283671 0 -160.52595248283671 -454.51083030647715 0 0 0 0 -109.1673720457344 -224.60228988552097 0 -224.60228988552097 -404.15796054171005 0 0 0 0 1.5241324211310712 -211.75279739154394 0 -211.75279739154394 -439.12282523405611 0 0 0 0 -451.47791243305733 -67.563048241167053 0 -67.563048241167053 684.29837341378152 0 0 0 0 1.9026273932916009 -1.0314751455199733 0 -1.0314751455199733 0.31162982151336394 0 0 0 0 -31.642966792763218 -14.824781859224458 0 -14.824781859224458 5.1370208324206033 0 0 0 0 41.438175002349453 -22.159924600553495 0 -22.159924600553495 -39.340490772829071 0 0 0 0 -134.59503530087159 -337.07379173967456 0 -337.07379173967456 -324.05646614617353 0 0 0 0 -98.905652727539092 59.321834524853131 0 59.321834524853131 188.77109539884441 0 0 0 0 -259.60984985387631 -80.936988710120204 0 -80.936988710120204 -147.45500512280159 0 0 0 0 -88.998446862511628 -162.11978181517588 0 -162.11978181517588 -117.80460255319849 0 0 0 0 -270.67966511716349 -42.20562698474896 0 -42.20562698474896 228.50653518892432 0 0 0 0 -222.08233288982774 -383.47563451945098 0 -383.47563451945098 -176.2201659052007 0 0 0 0 -0.69257201675692315 -0.63523367293953825 0 -0.63523367293953825 0.82324524333461113 0 0 0 0 -382.17962713516681 -186.16712457731774 0 -186.16712457731774 -367.95455839183705 0 0 0 0 -215.77612903268692 -212.04226918693939 0 -212.04226918693939 26.273948585920152 0 0 0 0 -311.55900449329602 -324.57587376063293 0 -324.57587376063293 8.7289032262015098 0 0 0 0 63.4983143324921 -177.69847838259193 0 -177.69847838259193 -395.21424839148813 0 0 0 0 20.661473746669799 9.5711689048375774 0 9.5711689048375774 104.14494567238489 0 0 0 0 -2.0395747934772572 -1.2175758675602886 0 -1.2175758675602886 -0.34546264425149253 0 0 0 0 -146.32515812522058 -132.25370809777496 0 -132.25370809777496 223.2019666682736 0 0 0 0 -43.142528774015773 -211.53026047017192 0 -211.53026047017192 -315.65405701738382 0 0 0 0 22.182218519220385 10.441852641367973 0 10.441852641367973 -140.80493191720598 0 0 0 0 -150.75214184683136 -120.40535389076467 0 -120.40535389076467 -174.74703819918795 0 0 0 0 -246.25644854303027 -48.470626657152479 0 -48.470626657152479 -183.50389476923738 0 0 0 0 -4.8619370460791576 -0.13104249405974144 0 -0.13104249405974144 0.32088534428364923 0 0 0 0 0.56846875358601778 -129.20992141173605 0 -129.20992141173605 -304.30779245537815 0 0 0 0 -0.15322023873343937 -157.08166057469305 0 -157.08166057469305 -482.2509724282354 0 0 0 0 -159.31436865270462 11.862435197511331 0 11.862435197511331 180.11910404788978 0 0 0 0 -2.2977320321012726 -1.0807738975968704 0 -1.0807738975968704 -0.39746593010449249 0 0 0 0 59.004039250652568 74.840168421842463 0 74.840168421842463 1.5140950883051119 0 0 0 0 -89.677023033071237 -78.883415741149292 0 -78.883415741149292 92.998553885577167 0 0 0 0 -42.401757229762552 -64.924444477720499 0 -64.924444477720499 64.450931788247544 0 0 0 0 -4.34017148619197 -2.3087320974731647 0 -2.3087320974731647 -0.47720997308447455 0 0 0 0 70.806780975658057 -93.448001306530387 0 -93.448001306530387 -96.231782071645284 0 0 0 0 7.3975962770587103 -118.75999656602426 0 -118.75999656602426 -362.643674352159 0 0 0 0 -30.226552699014974 -29.301175849289393 0 -29.301175849289393 -275.45500509485646 0 0 0 0 13.704043536257814 -84.284188527666629 0 -84.284188527666629 -189.2302703950736 0 0 0 0 -71.002138582263797 -117.45479891564901 0 -117.45479891564901 -186.99880869620688 0 0 0 0 -69.075630511428244 -84.050270705071853 0 -84.050270705071853 -96.036946800453734 0 0 0 0 -13.405844111816236 -11.237131693895435 0 -11.237131693895435 -101.00193822186338 0 0 0 0 -67.415343263941395 -76.882992287048182 0 -76.882992287048182 -143.36638059620782 0 0 0 0 -15.069234453744684 -91.077744011328832 0 -91.077744011328832 -202.5075438153799 0 0 0 0 -51.558717018069046 -53.733995304462951 0 -53.733995304462951 -137.49666175663151 0 0 0 0 -66.768182203116339 -27.51853294952889 0 -27.51853294952889 -71.301845938622137 0 0 0 0 -54.988751141843295 25.847274776112727 0 25.847274776112727 -2.4186080447179847 0 0 0 0 -68.892747092589161 -108.81174627679411 0 -108.81174627679411 -117.80064773874619 0 0 0 0 -79.213324748434388 -98.852363307009 0 -98.852363307009 -114.02307544597807 0 0 0 0 -87.99853580410354 -110.25659829575034 0 -110.25659829575034 -110.2596570634887 0 0 0 0 -148.74289260332216 -178.58691558862847 0 -178.58691558862847 -183.67604434823079 0 0 0 0 -101.62494061844018 -97.263648882153575 0 -97.263648882153575 -109.33314084042286 0 0 0 0 -34.401486548160392 -225.60004912067325 0 -225.60004912067325 -364.53883162507736 0 0 0 0 139.55532967013096 -10.218556517787874 0 -10.218556517787874 14.513070112983769 0 0 0 0 -1.9084043506336936 0.37897897853472173 0 0.37897897853472173 -0.42030227500588069 0 0 0 0 367.8325382907824 -56.566202421570779 0 -56.566202421570779 5.219954647661325 0 0 0 0 35.479830814017532 -169.04491736046202 0 -169.04491736046202 -37.299469918318209 0 0 0 0 -35.069442686997718 -178.32891042911342 0 -178.32891042911342 -15.631239305021154 0 0 0 0 -3.8364500212205712 -194.67559589052144 0 -194.67559589052144 23.515998304737877 0 0 0 0 26.781979261944798 -84.517774080726667 0 -84.517774080726667 106.3887558121387 0 0 0 0 -28.312064293023468 -161.02152927826864 0 -161.02152927826864 -22.640460113543668 0 0 0 0 -303.15102818616242 -191.82683390497095 0 -191.82683390497095 81.06492870418333 0 0 0 0 -74.45982289640142 -32.522758684115615 0 -32.522758684115615 24.471351181811769 0 0 0 0 20.803742899889585 -114.95045044489507 0 -114.95045044489507 -78.623211075278959 0 0 0 0 1.5233666006326843 -1.3685596958235529 0 -1.3685596958235529 0.69217511541461363 0 0 0 0 -34.875600652041612 5.7884144510680926 0 5.7884144510680926 85.92999718252031 0 0 0 0 -79.496648914800971 -254.66266882049786 0 -254.66266882049786 -574.02878922176114 0 0 0 0 -5.4572995938462761 -0.88200688383619408 0 -0.88200688383619408 0.63781311634958193 0 0 0 0 -291.76057801751631 91.003849548635117 0 91.003849548635117 91.989709785373179 0 0 0 0 -64.871069554948917 -37.626120391227232 0 -37.626120391227232 5.8021444627847814 0 0 0 0 -24.470191988742954 -51.27933798515005 0 -51.27933798515005 27.292520985516603 0 0 0 0 -21.599728933283586 -3.6599105837303796 0 -3.6599105837303796 86.482075297972187 0 0 0 0 -64.369971331085253 -30.952590330318344 0 -30.952590330318344 70.199414910599444 0 0 0 0 -48.881369830280164 -120.26843374773216 0 -120.26843374773216 -506.34421160343118 0 0 0 0 -3.8491893801498769 -3.0259656946547331 0 -3.0259656946547331 1.7695825828088658 0 0 0 0 -630.92408763861386 -339.60545449249366 0 -339.60545449249366 -161.12319308715996 0 0 0 0 147.18192417447062 -165.55503235102287 0 -165.55503235102287 -480.72090276755625 0 0 0 0 110.06983668924477 42.520280141912735 0 42.520280141912735 -67.086892240287852 0 0 0 0 189.82315166869012 -33.222022258419202 0 -33.222022258419202 -351.70090543610422 0 0 0 0 -117.04732415358194 -219.54423796524497 0 -219.54423796524497 -52.050425189841917 0 0 0 0 -531.64658481824608 -232.63740778682404 0 -232.63740778682404 47.265206441687042 0 0 0 0 -140.53217368699188 -399.90603166754772 0 -399.90603166754772 -347.21258144921194 0 0 0 0 -161.53126361027989 -119.97058113359526 0 -119.97058113359526 70.720774580273428 0 0 0 0 -186.94651898006487 -151.06917587375483 0 -151.06917587375483 36.027783784291387 0 0 0 0 -24.954508690550028 -182.04773649422532 0 -182.04773649422532 -47.572887893817096 0 0 0 0 -136.16600803527763 -220.01306848074819 0 -220.01306848074819 -0.98141612463950878 0 0 0 0 -42.905838807716009 -192.44752996649095 0 -192.44752996649095 -4.7257692080311244 0 0 0 0 -121.22252903569461 -160.71990088087477 0 -160.71990088087477 5.3436636223668756 0 0 0 0 -113.0713784871823 -144.90129414328203 0 -144.90129414328203 35.933167899929686 0 0 0 0 -145.55122553767615 -122.5351479093988 0 -122.5351479093988 26.922197473599226 0 0 0 0 -125.06768124394875 -70.243551577706967 0 -70.243551577706967 40.913593510947067 0 0 0 0 -216.31670085259066 -70.577781154924196 0 -70.577781154924196 43.974809123845262 0 0 0 0 -71.639989332421464 2.694041927186845 0 2.694041927186845 -1.0455293644365611 0 0 0 0 -64.541891676448358 -25.400022529565831 0 -25.400022529565831 16.865427717360035 0 0 0 0 -55.426434030629025 -37.60475959483756 0 -37.60475959483756 17.270464088131121 0 0 0 0 -78.713906092692014 -62.387941170763952 0 -62.387941170763952 19.805280234370002 0 0 0 0 -64.548733776620793 -57.419391137786079 0 -57.419391137786079 21.403163363373096 0 0 0 0 -39.116302349262696 -52.89354035048882 0 -52.89354035048882 10.87833757039698 0 0 0 0 -40.304602726682788 -49.502212803785142 0 -49.502212803785142 5.2712255879851 0 0 0 0 -58.17695617350364 -65.285278201217807 0 -65.285278201217807 4.1445842350130988 0 0 0 0 -62.010873885385081 -65.454326691593451 0 -65.454326691593451 12.971952626142411 0 0 0 0 -77.226033103364898 -65.303334644547249 0 -65.303334644547249 25.287018605045887 0 0 0 0 -90.522270660774666 -73.026441662563229 0 -73.026441662563229 21.142819575448812 0 0 0 0 -70.152831147078814 -71.767163116564006 0 -71.767163116564006 10.247202938870032 0 0 0 0 -93.858142015133126 -111.6627454079171 0 -111.6627454079171 29.095532240869034 0 0 0 0 -103.10255536668774 -99.014230416443752 0 -99.014230416443752 12.400631274209445 0 0 0 0 -59.217431670022847 -122.99008055227876 0 -122.99008055227876 -33.83215881990327 0 0 0 0 -72.312085263765766 -149.58397166919167 0 -149.58397166919167 7.247412719228123 0 0 0 0 -100.63657072529168 -128.45741225411075 0 -128.45741225411075 -2.3947421529956046 0 0 0 0 -59.892631203993005 -117.87284382435428 0 -117.87284382435428 0.32120870469952933 0 0 0 0 -73.806421184563078 -103.90541376996043 0 -103.90541376996043 -13.484753341730539 0 0 0 0 -50.031859350176092 -96.211738688647529 0 -96.211738688647529 -12.535727348915771 0 0 0 0 -69.633264797766969 -82.473110700850157 0 -82.473110700850157 -2.2394170575589669 0 0 0 0 -69.838965989200005 -91.331747751553849 0 -91.331747751553849 14.167688205032391 0 0 0 0 -59.254147946827345 -82.240091037787352 0 -82.240091037787352 -4.8016433848097222 0 0 0 0 -52.428781531492859 -78.585176104590573 0 -78.585176104590573 -25.033146261397633 0 0 0 0 -45.691440742171835 -69.229868894522951 0 -69.229868894522951 -12.188919340853317 0 0 0 0 -38.915894558469518 -73.035911825965741 0 -73.035911825965741 -22.768290244423042 0 0 0 0 -58.811481034687745 -87.964415468041125 0 -87.964415468041125 -19.35021201660129 0 0 0 0 -50.937744226492669 -101.91992805696373 0 -101.91992805696373 -41.959223074227339 0 0 0 0 -39.033223301115413 -85.07147173579142 0 -85.07147173579142 -37.519888076709321 0 0 0 0 -29.05574423917642 -69.526145878549869 0 -69.526145878549869 -39.064357919717395 0 0 0 0 -42.968264504306717 -81.025370160194143 0 -81.025370160194143 -38.46172906090942 0 0 0 0 -41.805895309178595 -67.270646234675951 0 -67.270646234675951 -31.746044916544633 0 0 0 0 -31.569427976704901 -64.374411138744108 0 -64.374411138744108 -41.127766916521068 0 0 0 0 -29.135481645411346 -58.744678269798897 0 -58.744678269798897 -30.177657204225852 0 0 0 0 -31.792578098073136 -53.75475022765113 0 -53.75475022765113 -39.508061718755926 0 0 0 0 -29.839770327969745 -48.357946110330886 0 -48.357946110330886 -24.912631742133726 0 0 0 0 -38.760083567973197 -59.68441822188106 0 -59.68441822188106 -14.12698433411424 0 0 0 0 -38.949701730722154 -54.522256016243773 0 -54.522256016243773 -26.583407813986014 0 0 0 0 -37.725952675971712 -50.466613789030816 0 -50.466613789030816 -13.75761636475363 0 0 0 0 -34.2355651963735 -39.758135319774738 0 -39.758135319774738 -16.06668387713944 0 0 0 0 -34.992337569921347 -35.044689786715026 0 -35.044689786715026 -28.070796484564198 0 0 0 0 -23.948817248363412 -50.582474504689344 0 -50.582474504689344 -5.5887414833305229 0 0 0 0 -36.66297914668985 -38.913757707298373 0 -38.913757707298373 -1.3266364724076993 0 0 0 0 -37.726579166092051 -50.838514261569799 0 -50.838514261569799 -12.053145693231272 0 0 0 0 -42.153903259836625 -57.479462491048253 0 -57.479462491048253 4.5360928524205519 0 0 0 0 -35.079392696874493 -45.220754003870752 0 -45.220754003870752 -0.14716828679956961 0 0 0 0 -42.940709280034753 -55.496197899324216 0 -55.496197899324216 -0.30827995966683375 0 0 0 0 -49.097549211315709 -65.361651791350596 0 -65.361651791350596 -16.109498188281577 0 0 0 0 -47.850353849822568 -59.4612856605454 0 -59.4612856605454 -3.5038739138217352 0 0 0 0 -101.85990089598272 -69.148290040064239 0 -69.148290040064239 -55.671943121998993 0 0 0 0 -29.927247793741117 -71.47608300270258 0 -71.47608300270258 -95.415844929208106 0 0 0 0 -35.7327487046241 -105.95871296777295 0 -105.95871296777295 -66.023989917117433 0 0 0 0 -9.503698110987898 -129.11311402276169 0 -129.11311402276169 -71.409234661536175 0 0 0 0 -25.740011562445261 -117.42236648290043 0 -117.42236648290043 -54.359117692405562 0 0 0 0 -51.747673010551807 -143.64531716396232 0 -143.64531716396232 -24.379177820781479 0 0 0 0 -23.223695236736603 -164.84323965280419 0 -164.84323965280419 -25.78440854055134 0 0 0 0 -38.900691904639643 -113.89430246593292 0 -113.89430246593292 -30.170667134643736 0 0 0 0 -42.943058910876061 -92.018736547585831 0 -92.018736547585831 -49.761379600433429 0 0 0 0 -51.476273678777034 -85.689093471160049 0 -85.689093471160049 -51.475229870326984 0 0 0 0 -55.949579604856353 -93.838837166493477 0 -93.838837166493477 -57.185691607683111 0 0 0 0 -64.050132301201302 -77.679258986785499 0 -77.679258986785499 -53.035733472270067 0 0 0 0 -85.170791249691092 -91.54996411261709 0 -91.54996411261709 -35.001212353608935 0 0 0 0 -86.375488986020173 -93.334281122529319 0 -93.334281122529319 -34.946684709924739 0 0 0 0 -38.355983077380188 -83.445840373392457 0 -83.445840373392457 -47.731286223617587 0 0 0 0 -50.447294056551982 -91.237220019320375 0 -91.237220019320375 -47.057591769216742 0 0 0 0 -30.077082007563149 -79.08826226309975 0 -79.08826226309975 -51.011040177836435 0 0 0 0 -34.81044914435688 -107.81663253401348 0 -107.81663253401348 -50.785033895899687 0 0 0 0 -19.996330361530966 -94.588047993869623 0 -94.588047993869623 -51.05445082769802 0 0 0 0 9.1154675705683985 -83.442660074191963 0 -83.442660074191963 -53.93186818338836 0 0 0 0 -73.267355885084612 -130.55225484675907 0 -130.55225484675907 -39.20090807120323 0 0 0 0 -64.151845664140637 -107.78384698582749 0 -107.78384698582749 -40.084063097336184 0 0 0 0 -52.309519189454932 -97.80830112930289 0 -97.80830112930289 -41.685864675661264 0 0 0 0 -5.8693171972809068 -45.080372914191685 0 -45.080372914191685 -57.615816013324547 0 0 0 0 -16.144802066744887 -38.512047549593262 0 -38.512047549593262 -53.310590987872274 0 0 0 0 -9.5171971403924545 -49.6162657783143 0 -49.6162657783143 -52.946051628332498 0 0 0 0 -9.5735952497707331 -39.824160395075523 0 -39.824160395075523 -63.380128232514835 0 0 0 0 -11.819807083847991 -38.046991515926493 0 -38.046991515926493 -71.676956351409899 0 0 0 0 -10.886458867345937 -41.906552957152599 0 -41.906552957152599 -60.359225918845254 0 0 0 0 -9.8749731588322902 -41.92208674570611 0 -41.92208674570611 -65.832441493039369 0 0 0 0 -18.761775088820286 -30.002652303184732 0 -30.002652303184732 -80.432497921276081 0 0 0 0 -28.080622737914382 -24.665175611622544 0 -24.665175611622544 -61.266264781435893 0 0 0 0 -34.035231038023994 -9.7430086071162805 0 -9.7430086071162805 -85.673511612636503 0 0 0 0 -69.503734693236765 -6.7017967081483221 0 -6.7017967081483221 -54.942502247871744 0 0 0 0 -11.076607694933045 -39.71980685856397 0 -39.71980685856397 -60.827636574809731 0 0 0 0 -14.288255906707491 -34.087048910674639 0 -34.087048910674639 -70.502371464714088 0 0 0 0 -11.488988545184839 -33.760529305895034 0 -33.760529305895034 -75.771900438005105 0 0 0 0 -17.728685152342223 -30.937643375909829 0 -30.937643375909829 -56.900844636118563 0 0 0 0 -23.370480728910479 -22.746272555770702 0 -22.746272555770702 -68.791386922686797 0 0 0 0 -17.175381039334752 -31.511231346368731 0 -31.511231346368731 -61.039667934310842 0 0 0 0 -22.396425216538773 -30.304573717204221 0 -30.304573717204221 -45.827657224843279 0 0 0 0 -24.088755640426825 -25.905811428281595 0 -25.905811428281595 -56.408245966425511 0 0 0 0 -30.582265533106693 -27.11480070941434 0 -27.11480070941434 -42.29529037589964 0 0 0 0 -31.215807708202192 -27.088388527656207 0 -27.088388527656207 -42.271900454677962 0 0 0 0 -42.026208201619738 -27.155898057364539 0 -27.155898057364539 -39.731129202606098 0 0 0 0 -37.710024888576299 -16.626866924951173 0 -16.626866924951173 -57.532124092171216 0 0 0 0 -45.420846720029658 -24.375879182844074 0 -24.375879182844074 -36.106976803275757 0 0 0 0 -30.995999867609498 -28.137352023722997 0 -28.137352023722997 -22.840456551492025 0 0 0 0 -39.393604508937642 -34.078688508637242 0 -34.078688508637242 -25.903530936469906 0 0 0 0 -30.724604618080775 -32.143124705560695 0 -32.143124705560695 -27.309522079201997 0 0 0 0 -25.844496456753404 -34.246895469272204 0 -34.246895469272204 -43.542242416879162 0 0 0 0 -32.138610776992209 -43.571176007030772 0 -43.571176007030772 -34.877790869195451 0 0 0 0 -24.395206625739775 -38.413820489906811 0 -38.413820489906811 -38.09325681914197 0 0 0 0 -14.982207318887959 -35.44488431008358 0 -35.44488431008358 -55.223488308307424 0 0 0 0 -17.446523854827319 -42.021025457042924 0 -42.021025457042924 -47.937093383541651 0 0 0 0 -18.249973666077267 -47.921308263867445 0 -47.921308263867445 -46.509720491190819 0 0 0 0 -22.104772663082258 -52.465288132158094 0 -52.465288132158094 -39.68694426429829 0 0 0 0 -22.04501120799749 -58.85095814914618 0 -58.85095814914618 -42.323296802005643 0 0 0 0 -20.458064295009535 -60.815629972692477 0 -60.815629972692477 -46.33491184869672 0 0 0 0 -33.375555109755624 -74.257562126272205 0 -74.257562126272205 -44.045285696185601 0 0 0 0 -19.95134641252298 -72.156352426951344 0 -72.156352426951344 -52.847793597989948 0 0 0 0 -7.6568642181591713 -69.278930139280419 0 -69.278930139280419 -52.670683025540711 0 0 0 0 -16.027406941037043 -70.368085718415955 0 -70.368085718415955 -48.073922059527831 0 0 0 0 -0.14623982114972023 -63.704246199504269 0 -63.704246199504269 -51.64445944621275 0 0 0 0 -14.288950701097747 -61.415684522486117 0 -61.415684522486117 -51.580324147595093 0 0 0 0 -2.1321576881382498 -50.400006769697939 0 -50.400006769697939 -54.794518918573885 0 0 0 0 -10.803879735267401 -50.523016212198854 0 -50.523016212198854 -51.31905766633281 0 0 0 0 -11.486392056909608 -59.39145257148266 0 -59.39145257148266 -50.173547817021245 0 0 0 0 6.2039467575214076 -65.001076047594324 0 -65.001076047594324 -38.143653368451851 0 0 0 0 7.3428195660967503 -51.004259059790684 0 -51.004259059790684 -43.187138450895873 0 0 0 0 4.3521404230104963 -58.737419316071282 0 -58.737419316071282 -47.216543008995359 0 0 0 0 0.69474061626624461 -76.952313584612057 0 -76.952313584612057 -49.355776715647153 0 0 0 0 26.758862007307471 -69.852661317118873 0 -69.852661317118873 -43.157220435058662 0 0 0 0 2.7955777700922226 -65.837164815542337 0 -65.837164815542337 -35.965634599981058 0 0 0 0 23.620258319809182 -41.738285754376193 0 -41.738285754376193 -23.772757329799333 0 0 0 0 -6.1417833524001253 -30.092268564298479 0 -30.092268564298479 5.5400481057977231 0 0 0 0 -3.2871583197529617 -35.878032747288444 0 -35.878032747288444 7.5053628172563549 0 0 0 0 -5.196677279413052 -57.384588462665306 0 -57.384588462665306 -38.760379621255197 0 0 0 0 5.8844789343473138 -11.036278337378842 0 -11.036278337378842 15.82904402615325 0 0 0 0 -8.3169960842333239 -50.270930809694619 0 -50.270930809694619 -54.60111319421776 0 0 0 0 -4.2290775976453006 -59.844723481488472 0 -59.844723481488472 -18.288727818799089 0 0 0 0 -4.2493724079959065 -60.445903137583628 0 -60.445903137583628 -33.814416194896239 0 0 0 0 0.21306521602673456 -57.066928359521626 0 -57.066928359521626 -47.964347217166505 0 0 0 0 -4.0697025476238196 -49.895375548270749 0 -49.895375548270749 -60.520836670195905 0 0 0 0 -4.1772164110279846 -51.473843312984172 0 -51.473843312984172 -39.449040836378117 0 0 0 0 14.173167857909036 -44.092219715904861 0 -44.092219715904861 14.259186367821258 0 0 0 0 8.8137362462593956 -11.604759141300121 0 -11.604759141300121 -13.339826744085713 0 0 0 0 15.699932709071618 -17.207946468879982 0 -17.207946468879982 -5.9601867445489916 0 0 0 0 21.259522291103167 -18.673049578987275 0 -18.673049578987275 -10.125889419758096 0 0 0 0 11.632389900978426 -4.7966500952763109 0 -4.7966500952763109 -8.2976108419137802 0 0 0 0 84.410711128814 -69.310978943593 0 -69.310978943593 -37.080334037555076 0 0 0 0 42.18982015801339 -19.264976180620579 0 -19.264976180620579 -100.84173655010454 0 0 0 0 -19.502827333533787 -55.281421848028913 0 -55.281421848028913 -29.54425577886559 0 0 0 0 -4.0917841681057325 -29.490374965684168 0 -29.490374965684168 12.427344969049955 0 0 0 0 -58.766463054620544 -51.090332298041176 0 -51.090332298041176 -28.446217125179828 0 0 0 0 -74.217955079150215 -34.414934328989148 0 -34.414934328989148 -36.033580445226107 0 0 0 0 -50.342111117264722 -56.156429770482646 0 -56.156429770482646 -27.486959075886261 0 0 0 0 -36.88490904147875 -47.104883276117107 0 -47.104883276117107 -32.044625777503825 0 0 0 0 14.106063959580752 -60.315226933479607 0 -60.315226933479607 48.403964472474399 0 0 0 0 12.701630402707451 -6.5082196595412825 0 -6.5082196595412825 -17.722134468750255 0 0 0 0 25.44226374061509 11.110483102173703 0 11.110483102173703 -16.022638871654181 0 0 0 0 28.087669429065954 -25.044707269919172 0 -25.044707269919172 -9.7964587672622656 0 0 0 0 14.645306059898479 -5.5812173891378647 0 -5.5812173891378647 -9.1549045826723283 0 0 0 0 12.426326917835013 -12.770525454774202 0 -12.770525454774202 -3.0787866037353524 0 0 0 0 5.7959324802218362 -14.372636991834497 0 -14.372636991834497 1.3680280057701566 0 0 0 0 13.253790761470155 -9.9169297669931353 0 -9.9169297669931353 -6.9938905922382499 0 0 0 0 5.1152425246554598 -16.910836196846454 0 -16.910836196846454 7.7180269392195928 0 0 0 0 5.4413097864344309 -11.352699956893048 0 -11.352699956893048 -2.7443011240393389 0 0 0 0 0.64813510619842418 -10.056038844308205 0 -10.056038844308205 -1.5104372554465044 0 0 0 0 8.09634416100943 -10.039304678590263 0 -10.039304678590263 -0.56666561222303358 0 0 0 0 -16.587157696204017 -28.774099253150325 0 -28.774099253150325 18.957782197198412 0 0 0 0 -26.706075517044155 -27.916484148261588 0 -27.916484148261588 -4.384558769969999 0 0 0 0 -3.0600515825070218 -27.869811226601541 0 -27.869811226601541 -4.5196838642783632 0 0 0 0 9.5732941767132615 -10.546716556385036 0 -10.546716556385036 6.6695930773448708 0 0 0 0 -0.69365667277007215 -2.5133868416828697 0 -2.5133868416828697 3.1580396678710834 0 0 0 0 -15.855971536536707 -33.052061806210524 0 -33.052061806210524 -7.5456116431168994 0 0 0 0 0.41736977455319801 -8.5508810228925629 0 -8.5508810228925629 7.7769666512410058 0 0 0 0 3.9884953181499441 -14.979457613701015 0 -14.979457613701015 -4.7899280531946715 0 0 0 0 0.47880033938190536 -16.468702912900426 0 -16.468702912900426 6.8823435231961412 0 0 0 0 -4.7522049704167557 -10.233710958551455 0 -10.233710958551455 -0.26829164359605784 0 0 0 0 13.792002112533737 -30.163240840763137 0 -30.163240840763137 16.686187730185338 0 0 0 0 -4.3840590819744589 -13.145724144415777 0 -13.145724144415777 -4.5302801248076046 0 0 0 0 5.0144183162412759 -19.30298653209752 0 -19.30298653209752 1.6922039232322277 0 0 0 0 -0.87056530810167831 -14.227340596867462 0 -14.227340596867462 3.90094373706863 0 0 0 0 -0.89373012568978405 -7.8229000312223302 0 -7.8229000312223302 -0.64335306694253092 0 0 0 0 -16.755199512177427 -5.3199495428341237 0 -5.3199495428341237 14.197504198242314 0 0 0 0 -20.326488334052449 -11.024823942329533 0 -11.024823942329533 -8.4273395916025038 0 0 0 0 -24.559940200036664 -43.588480688112099 0 -43.588480688112099 -8.7854617462435272 0 0 0 0 -12.509235896898899 -25.915900625565605 0 -25.915900625565605 -16.579143526543632 0 0 0 0 -7.950497668211483 -24.0049455088174 0 -24.0049455088174 -2.1114235653440119 0 0 0 0 -7.3801802042839881 -28.554950224955974 0 -28.554950224955974 -3.5856292237199341 0 0 0 0 -3.280316191769316 -29.447147486235735 0 -29.447147486235735 -14.572081605252606 0 0 0 0 -1.4737311948911156 -25.37517311999818 0 -25.37517311999818 -5.8646233049257717 0 0 0 0 -6.7533774459421432 -3.3865004906052603 0 -3.3865004906052603 -0.24084016575601197 0 0 0 0 -6.0984619838752678 -20.933057210169864 0 -20.933057210169864 13.493532495351246 0 0 0 0 -4.5627528864627038 -26.309486287984328 0 -26.309486287984328 -2.6805992735025939 0 0 0 0 -7.134845607512716 -26.522886808827025 0 -26.522886808827025 0.73468692973847283 0 0 0 0 -6.2835686231901491 -26.226965665968237 0 -26.226965665968237 -1.4918436269254016 0 0 0 0 -11.694848903990533 -36.653634764252274 0 -36.653634764252274 -2.0051744304946624 0 0 0 0 -11.835432842456896 -33.554853241191495 0 -33.554853241191495 -3.917280865192879 0 0 0 0 -8.7023654014699332 -35.338231110209563 0 -35.338231110209563 -3.03208942213314 0 0 0 0 -8.8793600926351246 -31.328490932397472 0 -31.328490932397472 -1.6852830709976843 0 0 0 0 -25.217955473822677 -19.889065681897094 0 -19.889065681897094 10.074447710470849 0 0 0 0 -25.813128886852382 -48.373461150258663 0 -48.373461150258663 -11.573947503834916 0 0 0 0 -12.753668699090895 -35.998843340624262 0 -35.998843340624262 0.14984786269633332 0 0 0 0 -12.45457531743773 -33.132017871190328 0 -33.132017871190328 -0.38765670274733566 0 0 0 0 -14.02485282592329 -13.497220548453392 0 -13.497220548453392 -5.6093796391043256 0 0 0 0 17.833143346155339 -41.945114955652571 0 -41.945114955652571 21.843071595798392 0 0 0 0 4.6142554595903675 -17.507664954358916 0 -17.507664954358916 3.0051175130538468 0 0 0 0 47.748660251006186 -63.443506783645716 0 -63.443506783645716 -5.4135662134558515 0 0 0 0 7.9352294423460989 -32.065225755150095 0 -32.065225755150095 6.5711611002461723 0 0 0 0 -17.85015203347939 -45.964022076417677 0 -45.964022076417677 3.5505791347641207 0 0 0 0 14.510618507956451 -53.298954232420101 0 -53.298954232420101 -7.6785835299997416 0 0 0 0 46.731839544380819 -50.916554912697393 0 -50.916554912697393 -10.303362377107987 0 0 0 0 9.4673868187555854 -49.491176174824659 0 -49.491176174824659 -2.5862317086612165 0 0 0 0 6.0042019237730528 -60.245464649475252 0 -60.245464649475252 -1.3821018991366145 0 0 0 0 -23.99751221626866 -50.400539318274241 0 -50.400539318274241 6.628326995361931 0 0 0 0 9.1516040871847508 -70.224434471332643 0 -70.224434471332643 6.873446623530981 0 0 0 0 1.7258380066302834 -4.2982552350369296 0 -4.2982552350369296 -2.0519178344256321 0 0 0 0 -13.534066571777036 -17.058908909674159 0 -17.058908909674159 -10.731370181351767 0 0 0 0 48.647120148903923 -27.454873903039697 0 -27.454873903039697 -57.134448830024212 0 0 0 0 43.513582097024482 -32.980382353744062 0 -32.980382353744062 -38.123440230712731 0 0 0 0 44.924123124535981 -43.173027507145889 0 -43.173027507145889 -43.00781237710089 0 0 0 0 44.215636820655163 -24.58048065101616 0 -24.58048065101616 -15.825886784277827 0 0 0 0 -86.355981607331614 -211.35018523662893 0 -211.35018523662893 -282.7640957601534 0 0 0 0 -234.41467310811407 117.23968597253213 0 117.23968597253213 -85.55078840817805 0 0 0 0 -54.35102779637873 -259.44848505581376 0 -259.44848505581376 -368.89360643205237 0 0 0 0 -392.34669918342979 -288.90052168069064 0 -288.90052168069064 -57.126996095194045 0 0 0 0 -144.4078145315957 -115.7800435258232 0 -115.7800435258232 18.89594370832765 0 0 0 0 12.786155073909413 -0.84429629990427202 0 -0.84429629990427202 -32.394755257581892 0 0 0 0 3.4647577155147404 -3.5291163157453136 0 -3.5291163157453136 -9.9989448416855637 0 0 0 0 9.6846931691331974 -10.141751190245031 0 -10.141751190245031 -9.1923184279858106 0 0 0 0 11.858374087917127 -7.9176429376529995 0 -7.9176429376529995 -11.590201918902494 0 0 0 0 24.023817348542366 -4.7852478735497357 0 -4.7852478735497357 -12.384190715127261 0 0 0 0 36.200820043114391 -8.3621525599060078 0 -8.3621525599060078 -11.491330987359788 0 0 0 0 -156.59499421305463 -192.41007378279755 0 -192.41007378279755 -72.594712875312553 0 0 0 0 2.7730925032798144 -3.4071563109515974 0 -3.4071563109515974 -8.672153705694587 0 0 0 0 -41.612920773562223 -147.26323790641118 0 -147.26323790641118 -199.02745781121484 0 0 0 0 23.593283989659767 -14.530304228831028 0 -14.530304228831028 1.2738234557955366 0 0 0 0 28.651753415148505 -6.7904892592550823 0 -6.7904892592550823 6.526840071337574 0 0 0 0 133.78702124789993 -0.40557982481095678 0 -0.40557982481095678 -38.52724192075766 0 0 0 0 2.1874165451369754 -3.2930855618714912 0 -3.2930855618714912 -5.8082643044700006 0 0 0 0 -195.36752941432451 -141.49448642170046 0 -141.49448642170046 -60.967782392038714 0 0 0 0 -185.35334934941829 -171.68336020021957 0 -171.68336020021957 29.301809927638715 0 0 0 0 -114.80096899973114 -88.774696341207346 0 -88.774696341207346 -1.9777053207640165 0 0 0 0 -196.16110650708856 -269.28476713457303 0 -269.28476713457303 -193.99505754798338 0 0 0 0 -1.9973315527492819 -3.8808899838379176 0 -3.8808899838379176 -1.6799480686000123 0 0 0 0 -250.96569371237626 -8.941424406756596 0 -8.941424406756596 31.514279753697338 0 0 0 0 -299.02270181966651 -199.35258228345947 0 -199.35258228345947 -38.850146802897143 0 0 0 0 57.960435941467949 26.623950750740732 0 26.623950750740732 -62.63082089927957 0 0 0 0 -41.507974049488666 -116.13320616844817 0 -116.13320616844817 -51.041435467273914 0 0 0 0 2.8514076744975085 -29.592199615749706 0 -29.592199615749706 -7.3020790192640561 0 0 0 0 1.9795399851859772 -7.6260751893082857 0 -7.6260751893082857 -13.949660222058498 0 0 0 0 24.391605934342806 -19.757455080723048 0 -19.757455080723048 -7.3090432373792282 0 0 0 0 2.4298119516573453 -7.9429468084996024 0 -7.9429468084996024 7.5103014321631925 0 0 0 0 -5.5068144603958444 -38.779965196861895 0 -38.779965196861895 16.211899388056736 0 0 0 0 -70.984946493174675 -5.3305423199426514 0 -5.3305423199426514 -8.7267237393769506 0 0 0 0 5.1897350492220866 -8.3533386132806378 0 -8.3533386132806378 6.0049169158467315 0 0 0 0 2.4071545546640891 -22.271505075069371 0 -22.271505075069371 -17.430742385287886 0 0 0 0 -15.536158397312192 -28.596394169249834 0 -28.596394169249834 -18.004785988782373 0 0 0 0 22.469399969649658 -35.488258708726335 0 -35.488258708726335 -100.11686587431723 0 0 0 0 -9.7345933084245644 37.228172611182799 0 37.228172611182799 -247.04445495193613 0 0 0 0 0.2731154675792471 -2.8194952291641169 0 -2.8194952291641169 -1.5856986562916546 0 0 0 0 46.878589703849229 6.6013177848999476 0 6.6013177848999476 -27.984593629163555 0 0 0 0 -149.62013100075228 -113.67058980547972 0 -113.67058980547972 -15.452485967527082 0 0 0 0 -98.72566382578907 -101.19870915664342 0 -101.19870915664342 -12.483265072461109 0 0 0 0 -94.386603055378259 -76.881733610999163 0 -76.881733610999163 -17.038465515109237 0 0 0 0 -126.24638832174242 -77.336147340325624 0 -77.336147340325624 10.486306540365149 0 0 0 0 -113.71927909331998 -83.532546400723731 0 -83.532546400723731 -19.202137630419202 0 0 0 0 -24.11336211739399 -48.775693226463773 0 -48.775693226463773 -61.024042606408329 0 0 0 0 4.324561308577719 -5.0438650972990828 0 -5.0438650972990828 5.9658712691117977 0 0 0 0 -113.59920527629379 -85.754766883414959 0 -85.754766883414959 -26.991950894876027 0 0 0 0 -91.123403831583573 -82.8016220298598 0 -82.8016220298598 -58.306270077031513 0 0 0 0 -112.41718900662923 -111.89444282428678 0 -111.89444282428678 -64.186798737819117 0 0 0 0 -24.192201531920091 -54.629168998517343 0 -54.629168998517343 -58.109044109553452 0 0 0 0 -58.952877431531078 -81.635300760726295 0 -81.635300760726295 -74.53945730869782 0 0 0 0 -56.925747199728448 -105.19023139056662 0 -105.19023139056662 -84.078874332045416 0 0 0 0 -20.172505869138149 -88.964413170989246 0 -88.964413170989246 -77.237885370647746 0 0 0 0 -61.967518803971871 -87.278518164212983 0 -87.278518164212983 -54.124120154071989 0 0 0 0 -59.205945948075623 -77.969696937299886 0 -77.969696937299886 -58.157225002378254 0 0 0 0 3.0591646210907779 -3.5405885447649403 0 -3.5405885447649403 3.25710818946866 0 0 0 0 50.149892749400351 -112.84734204475626 0 -112.84734204475626 -164.96349398829443 0 0 0 0 3.96159742415648 -68.064750946129607 0 -68.064750946129607 -100.89419577882273 0 0 0 0 -3.1441946330451174 -75.545736253014184 0 -75.545736253014184 -107.8594257518871 0 0 0 0 -9.8760557316988979 -124.6883811712114 0 -124.6883811712114 -109.10320008933377 0 0 0 0 -29.444616177791431 -107.07065503666036 0 -107.07065503666036 -107.5212153612668 0 0 0 0 -170.77594099995622 -174.09541846430147 0 -174.09541846430147 -69.890294726625143 0 0 0 0 -62.599655647139116 -190.50492931321605 0 -190.50492931321605 -184.3468386180607 0 0 0 0 -78.08652389373691 -113.7052647157343 0 -113.7052647157343 -33.831837083409482 0 0 0 0 -85.93034691921855 -150.97426018507178 0 -150.97426018507178 -91.227301154209272 0 0 0 0 -50.928121459381373 -119.05907565717462 0 -119.05907565717462 -70.80527433336465 0 0 0 0 -49.730991820953477 -115.81755605518993 0 -115.81755605518993 -62.379477163301999 0 0 0 0 -49.892306065235516 -111.30848710769988 0 -111.30848710769988 -63.597395588927611 0 0 0 0 -56.413056885526203 -109.20610347360434 0 -109.20610347360434 -63.455894384935164 0 0 0 0 -41.189679130451623 -90.30821850567736 0 -90.30821850567736 -38.688303561291832 0 0 0 0 -63.468816378676848 -78.363248083221606 0 -78.363248083221606 -18.054597401431238 0 0 0 0 -67.939076088803176 -114.45441650788325 0 -114.45441650788325 -56.908960034501433 0 0 0 0 -102.05684891213059 -103.32427700322887 0 -103.32427700322887 -60.310668646987324 0 0 0 0 -67.025931004227914 -103.78674620919719 0 -103.78674620919719 -64.043100905473693 0 0 0 0 -53.286251201657251 -114.45555065433109 0 -114.45555065433109 -79.668180650432987 0 0 0 0 -65.241601417252241 -112.44724076684361 0 -112.44724076684361 -70.814606767406076 0 0 0 0 -56.528121036618941 -112.26416220528392 0 -112.26416220528392 -72.285984816922792 0 0 0 0 -68.75465495826802 -110.50099707062691 0 -110.50099707062691 -65.727657586534406 0 0 0 0 -71.024467375255426 -113.36304758356437 0 -113.36304758356437 -72.645871712823464 0 0 0 0 -70.718570330973307 -96.281346951689557 0 -96.281346951689557 -90.758638255731057 0 0 0 0 -123.64859605681977 -43.900097646113863 0 -43.900097646113863 -66.783190929009834 0 0 0 0 -75.785132826915287 -52.712556475568817 0 -52.712556475568817 -65.200410336739878 0 0 0 0 -94.257377766008858 -77.059189876357323 0 -77.059189876357323 -72.832920694756467 0 0 0 0 -91.409285765867935 -88.349136420285504 0 -88.349136420285504 -60.042082884843694 0 0 0 0 -128.747528516903 -82.152580739077166 0 -82.152580739077166 -41.853745727890782 0 0 0 0 -114.36403897933678 -104.9809042071538 0 -104.9809042071538 -12.498772547791305 0 0 0 0 -112.29561547209323 -113.47115872476388 0 -113.47115872476388 -51.469525614793383 0 0 0 0 -88.82131752372635 -105.24826232724502 0 -105.24826232724502 -54.726044328002899 0 0 0 0 -69.696482229624053 -104.12508146897198 0 -104.12508146897198 -69.035250228482255 0 0 0 0 -54.797816208681979 -117.65479938799672 0 -117.65479938799672 -77.758781580538198 0 0 0 0 -12.792924895707074 -97.789043058277457 0 -97.789043058277457 -76.65445692250114 0 0 0 0 -66.52320087787416 -146.71561259406008 0 -146.71561259406008 -106.26444271303262 0 0 0 0 28.280293229749986 -114.10528781261655 0 -114.10528781261655 -104.7483995558141 0 0 0 0 19.083026860459086 -85.599405526465489 0 -85.599405526465489 -153.43431409952245 0 0 0 0 131.90859548242952 59.459446881093754 0 59.459446881093754 -67.145119430590057 0 0 0 0 104.32932661672839 -117.45919585468801 0 -117.45919585468801 -380.29280358256983 0 0 0 0 -98.149465054075108 -269.47866488853833 0 -269.47866488853833 -266.23556970365826 0 0 0 0 -289.52839765141698 -211.23124450697651 0 -211.23124450697651 -45.084259592713352 0 0 0 0 -239.59830183844497 -90.782146551971891 0 -90.782146551971891 64.296589363857493 0 0 0 0 -21.279994594352956 -58.362704824750836 0 -58.362704824750836 -27.479920779946042 0 0 0 0 -17.476084731452261 -35.647731677848242 0 -35.647731677848242 -12.668823293603054 0 0 0 0 -35.126618632334186 -49.442186216215475 0 -49.442186216215475 -7.7763144330092473 0 0 0 0 -37.0089485694443 -79.901020177513146 0 -79.901020177513146 -52.499372811555077 0 0 0 0 -15.607204827600981 -85.235558372579362 0 -85.235558372579362 -74.304033215934396 0 0 0 0 -35.466931762567583 -90.688969797201935 0 -90.688969797201935 -54.218909084096595 0 0 0 0 5.6416814803314992 -33.87086906282002 0 -33.87086906282002 -39.051102174202242 0 0 0 0 35.92771450897817 -33.167004833183455 0 -33.167004833183455 -68.714022188886929 0 0 0 0 -20.897193251870249 -88.064839962795304 0 -88.064839962795304 -73.506275072897552 0 0 0 0 -8.2472070025496578 -15.858622669704346 0 -15.858622669704346 10.259539614768073 0 0 0 0 13.71442699819454 -22.192008183889811 0 -22.192008183889811 -39.50381041550645 0 0 0 0 -9.9575240811473122 -55.627426279710562 0 -55.627426279710562 -39.936037306517392 0 0 0 0 0.75352057239706483 -20.359994443406322 0 -20.359994443406322 -21.488576429257591 0 0 0 0 -0.95589893251508329 -10.644967379334048 0 -10.644967379334048 -0.42711231160137686 0 0 0 0 12.46907751233789 -8.7429699267931937 0 -8.7429699267931937 -7.4258208386836486 0 0 0 0 -2.874291851062253 -23.368640476149267 0 -23.368640476149267 0.14692690440097067 0 0 0 0 -0.16855428109497872 -0.39399859902932732 0 -0.39399859902932732 -0.28886615201351873 0 0 0 0 -19.008038033780394 -4.920731347837318 0 -4.920731347837318 23.644272561436082 0 0 0 0 -17.87183222192084 -11.359069404114734 0 -11.359069404114734 2.640529905736912 0 0 0 0 6.5018462637967787 -5.5488922423810436 0 -5.5488922423810436 2.5409846253023716 0 0 0 0 3.8168231009234472 -7.3829719289917044 0 -7.3829719289917044 5.2167782039462125 0 0 0 0 14.187894147808947 -9.5391881964396816 0 -9.5391881964396816 -15.843432494442823 0 0 0 0 -25.169159883676002 -15.467218384210355 0 -15.467218384210355 16.558667139915997 0 0 0 0 -15.997148228497736 -41.154305105621461 0 -41.154305105621461 -21.898809929085473 0 0 0 0 -50.308851371079982 -72.189179278974734 0 -72.189179278974734 -31.396135701652383 0 0 0 0 -82.132051396951283 -63.210660526416177 0 -63.210660526416177 -16.979252060254112 0 0 0 0 -44.15758880967087 -34.490745830347123 0 -34.490745830347123 -0.65629484665987547 0 0 0 0 -31.588896707286494 -43.967644543801725 0 -43.967644543801725 2.0441698148670184 0 0 0 0 4.9820588502798273 -25.315310246035551 0 -25.315310246035551 4.0630326269383659 0 0 0 0 -4.1577024654346815 -5.514868019539108 0 -5.514868019539108 -15.907574427619693 0 0 0 0 4.1930744828531212 -7.2925283571096635 0 -7.2925283571096635 4.298525801693259 0 0 0 0 -161.68673999594557 -19.443584596221626 0 -19.443584596221626 6.2735109578388801 0 0 0 0 1.7455589886018306 -0.16645863659020765 0 -0.16645863659020765 0.78014011030769836 0 0 0 0 -66.555307743340109 5.0715717354532899 0 5.0715717354532899 11.10164951357001 0 0 0 0 -149.8363468065827 -94.100894254431296 0 -94.100894254431296 -21.038278716068817 0 0 0 0 -91.32297456502846 -62.877496169375377 0 -62.877496169375377 -6.0573369807680137 0 0 0 0 -96.282704012316117 -104.25143040675357 0 -104.25143040675357 -37.594733339230515 0 0 0 0 23.301577580893252 -21.077912196984926 0 -21.077912196984926 11.137035973886668 0 0 0 0 20.687860657204624 -12.049057244291816 0 -12.049057244291816 -10.046704201255125 0 0 0 0 7.7476082509488151 -10.885821714900885 0 -10.885821714900885 5.5462524621361808 0 0 0 0 7.9308291201123211 -3.8840069046491408 0 -3.8840069046491408 -13.139695978498821 0 0 0 0 -4.4422193892582982 1.1056619018254423 0 1.1056619018254423 -5.9393834518523363 0 0 0 0 7.4142773252933694 -15.460457804066209 0 -15.460457804066209 -0.22538844232985866 0 0 0 0 4.4646652482283722 -1.9410866080311617 0 -1.9410866080311617 -9.4684718037418349 0 0 0 0 9.5803727005568362 0.25094657721638214 0 0.25094657721638214 -13.964904403795117 0 0 0 0 7.4290499623646156 -2.2561104612800591 0 -2.2561104612800591 -5.6927761232946068 0 0 0 0 16.416060085341087 0.024138457871231367 0 0.024138457871231367 -6.8397429524375184 0 0 0 0 16.287877899266682 -7.0109131738395689 0 -7.0109131738395689 -1.7923486742110981 0 0 0 0 14.069636041142985 1.0688488525011053 0 1.0688488525011053 -11.098424254976635 0 0 0 0 12.170008143847781 -3.5546389435121455 0 -3.5546389435121455 -7.8845488714650855 0 0 0 0 19.239610455889306 -0.20446295108376944 0 -0.20446295108376944 -6.4977844477016333 0 0 0 0 4.7403648880181208 -2.7515987979286365 0 -2.7515987979286365 -12.015462409626707 0 0 0 0 12.469719681767856 -0.55545337080729951 0 -0.55545337080729951 -17.738139936209336 0 0 0 0 6.7371308759098518 -2.6459350823863375 0 -2.6459350823863375 -3.4028808481663013 0 0 0 0 2.6292839003149311 -6.7457993703255852 0 -6.7457993703255852 1.9003451904718531 0 0 0 0 14.45622450820224 -13.530099181959031 0 -13.530099181959031 22.86818876551115 0 0 0 0 27.212156230007167 -22.585939276012141 0 -22.585939276012141 -1.6844970264864969 0 0 0 0 3.3850912144207541 4.8118967714381142 0 4.8118967714381142 -10.468621272215387 0 0 0 0 29.746538205135948 -1.3177054899533687 0 -1.3177054899533687 -7.5623880436578474 0 0 0 0 3.2887344698377605 -1.7955656806200784 0 -1.7955656806200784 -6.8784767587339246 0 0 0 0 28.886214643996937 -32.182396334999794 0 -32.182396334999794 32.782295573520059 0 0 0 0 -0.30359038925159965 1.0666810937730915 0 1.0666810937730915 -0.94814731208632708 0 0 0 0 33.442501531761991 -13.95675398626372 0 -13.95675398626372 14.759838240623139 0 0 0 0 2.5343615013043745 -6.6905638960524811 0 -6.6905638960524811 22.707331714825159 0 0 0 0 16.513230115590432 -31.707257080915952 0 -31.707257080915952 37.760993182893799 0 0 0 0 25.780425656006628 -25.059440920575071 0 -25.059440920575071 20.523925836150738 0 0 0 0 14.167150841443799 -24.026673226134335 0 -24.026673226134335 27.449092122440561 0 0 0 0 0.25520566063467953 -0.98960781333599535 0 -0.98960781333599535 1.2513719478209495 0 0 0 0 25.980595401913888 -26.546387483100261 0 -26.546387483100261 17.171487006169627 0 0 0 0 21.163344148508259 -34.691607875862246 0 -34.691607875862246 18.429945602847056 0 0 0 0 22.995331664843434 -27.177467306673861 0 -27.177467306673861 -24.18936522156946 0 0 0 0 32.275116272961895 0.74881172915411298 0 0.74881172915411298 -24.281652142537496 0 0 0 0 11.4368826568234 -15.100731858637118 0 -15.100731858637118 -17.003767121130295 0 0 0 0 47.872737027318067 -6.8935134934653206 0 -6.8935134934653206 -30.89752114426301 0 0 0 0 70.34434629616544 0.38675019434685964 0 0.38675019434685964 -35.877460210115714 0 0 0 0 47.377918054026395 54.997547532335375 0 54.997547532335375 37.332515090615743 0 0 0 0 16.337393029762097 3.9086136306905246 0 3.9086136306905246 -21.73628782222022 0 0 0 0 -4.5553981572525117 -28.11960741044004 0 -28.11960741044004 -32.136345312908816 0 0 0 0 -0.0795876107434772 0.30166527767502416 0 0.30166527767502416 -0.067958888907750925 0 0 0 0 31.972794126130793 -3.5714002623881242 0 -3.5714002623881242 -99.534516118639658 0 0 0 0 -0.56721548518229881 -0.12951420945078951 0 -0.12951420945078951 0.192898515598104 0 0 0 0 -29.578138974128706 -31.160385248319471 0 -31.160385248319471 -36.032866876319531 0 0 0 0 3.2151067121776578 -24.246627800896022 0 -24.246627800896022 -67.754280438304136 0 0 0 0 -3.5468450428067158 -3.010420066596641 0 -3.010420066596641 0.9874799742621081 0 0 0 0 10.013475075988936 -0.17493874858064373 0 -0.17493874858064373 -17.319676154569606 0 0 0 0 0.91424676115894243 -1.3894614838368327 0 -1.3894614838368327 -0.770188829266651 0 0 0 0 0.18723729772545994 -3.6153228710218173 0 -3.6153228710218173 -0.7960933992851551 0 0 0 0 8.3276863386926347 -6.650518211933818 0 -6.650518211933818 0.17303436583749887 0 0 0 0 1.704058165224879 -0.16854221333631614 0 -0.16854221333631614 -4.0563105377276969 0 0 0 0 -29.785955781752818 -58.381295284428234 0 -58.381295284428234 -38.412188359430729 0 0 0 0 7.8386747814774935 1.5194792396669072 0 1.5194792396669072 -1.7003767879868974 0 0 0 0 -54.596031531838889 -27.614859043898832 0 -27.614859043898832 -46.45614773537045 0 0 0 0 15.085186644757414 -45.198376079559239 0 -45.198376079559239 -48.109110154415248 0 0 0 0 35.139939415079425 -8.8183645105855248 0 -8.8183645105855248 -36.069649335184749 0 0 0 0 35.76191823463796 -21.314003860517005 0 -21.314003860517005 2.2517584226261533 0 0 0 0 22.659574768326365 -73.03280155888956 0 -73.03280155888956 -75.680862973938929 0 0 0 0 -66.250227105721933 -85.953070886364003 0 -85.953070886364003 -108.90498396930343 0 0 0 0 -171.56618838794384 -131.49568047000321 0 -131.49568047000321 -48.651186315932136 0 0 0 0 0.12519059746939565 0.43586844086978616 0 0.43586844086978616 -0.28806112910269377 0 0 0 0 -9.7984064467691496 2.6533578324269911 0 2.6533578324269911 -9.0987861683770461 0 0 0 0 -88.300852487820066 -111.45660281954588 0 -111.45660281954588 -53.60093699396748 0 0 0 0 -11.117992411314845 -74.870529560474097 0 -74.870529560474097 -131.40780885763161 0 0 0 0 -29.36018134882579 -8.5650536558587191 0 -8.5650536558587191 -43.757440103474437 0 0 0 0 50.236004497185604 -74.417349095339887 0 -74.417349095339887 -17.775394460804819 0 0 0 0 126.0585525847556 124.52588342173965 0 124.52588342173965 63.5971056747494 0 0 0 0 141.00837608809979 -2.4510000392256188 0 -2.4510000392256188 -74.884472559411734 0 0 0 0 1.0404407699618581 -0.58026380376926312 0 -0.58026380376926312 0.3447071263977719 0 0 0 0 -9.1149878688083845 -53.885676533817787 0 -53.885676533817787 -46.428068848603289 0 0 0 0 7.1578919804396719 -14.939072921468323 0 -14.939072921468323 -29.467632980506096 0 0 0 0 -11.35897307156938 -7.8235047637081152 0 -7.8235047637081152 -32.181465815776392 0 0 0 0 5.7258968984033345 -11.018430701331454 0 -11.018430701331454 -36.531473895565796 0 0 0 0 -11.385190980668995 -22.604719004766594 0 -22.604719004766594 -44.343338360322377 0 0 0 0 14.05201537819039 -9.6500779761827289 0 -9.6500779761827289 -47.901195806924079 0 0 0 0 3.3223354545347483 -1.991371375492264 0 -1.991371375492264 1.0532090329180264 0 0 0 0 1.5117000875447957 -0.75586530202008362 0 -0.75586530202008362 -29.517270279027798 0 0 0 0 -4.236214498224939 -22.472225741146588 0 -22.472225741146588 -26.769906979128791 0 0 0 0 43.145163207062978 -66.417722431397124 0 -66.417722431397124 -78.556636812172655 0 0 0 0 180.92205925475355 -161.60991325282521 0 -161.60991325282521 66.160880051674212 0 0 0 0 -31.040994061716447 85.809279210255227 0 85.809279210255227 197.76366531986787 0 0 0 0 0.45294356493677057 -1.1704965525503823 0 -1.1704965525503823 1.0015857553285166 0 0 0 0 -64.44482521343042 -2.3486418240270268 0 -2.3486418240270268 12.097372835038186 0 0 0 0 -1.4494469663580993 -1.1455526073436673 0 -1.1455526073436673 1.0790505635241148 0 0 0 0 4.4953827940869298 -6.0313670985613435 0 -6.0313670985613435 3.5765046245831869 0 0 0 0 -353.06829306564214 -203.35017663048347 0 -203.35017663048347 -390.34435782958099 0 0 0 0 79.462712388479304 -112.21067501880862 0 -112.21067501880862 54.207492918542812 0 0 0 0 0.89650080183993541 0.0056014386074103584 0 0.0056014386074103584 -2.6631828927850449 0 0 0 0 -65.659386857996651 -4.5498435566642002 0 -4.5498435566642002 63.7751109671226 0 0 0 0 -28.243926738692608 37.329537150186297 0 37.329537150186297 -16.300369590866467 0 0 0 0 35.788820733029752 -75.852574945814922 0 -75.852574945814922 13.88036731210741 0 0 0 0 16.79506460900302 -67.187875228766643 0 -67.187875228766643 66.266041729887093 0 0 0 0 65.759727824666697 -23.536705086848087 0 -23.536705086848087 46.827890796821521 0 0 0 0 2.5640236943677337 -29.983646519371177 0 -29.983646519371177 11.125148573561091 0 0 0 0 7.6195402798398391 1.4986906188132707 0 1.4986906188132707 -11.504894033718301 0 0 0 0 -0.5842810034937429 -23.414238900710188 0 -23.414238900710188 24.079302925511001 0 0 0 0 5.6345122381643833 -6.6605270343156455 0 -6.6605270343156455 1.4911563886761514 0 0 0 0 14.338452001228688 9.1845156010267601 0 9.1845156010267601 -73.387063829599356 0 0 0 0 7.4889989593511928 -5.0567929540684418 0 -5.0567929540684418 -24.361042979708145 0 0 0 0 -0.22429647063381708 -11.845513853089869 0 -11.845513853089869 -18.667966949928086 0 0 0 0 0.7528208707799422 4.3385667123457097 0 4.3385667123457097 -15.888824600006046 0 0 0 0 12.02380426941636 3.6062435658786853 0 3.6062435658786853 -24.268522759436109 0 0 0 0 11.226885327769651 -1.9268603565014928 0 -1.9268603565014928 -12.53180458015413 0 0 0 0 13.958126707258998 4.7413693292528478 0 4.7413693292528478 -6.0611352447140234 0 0 0 0 6.6321479388607258 -6.5344779847710015 0 -6.5344779847710015 6.8668132280618011 0 0 0 0 26.461795122246258 -8.9140110847038159 0 -8.9140110847038159 4.3244702093288652 0 0 0 0 9.0880824389787449 7.2121808372885425 0 7.2121808372885425 2.5898004425962426 0 0 0 0 0.35173012861155861 -0.45059899452897412 0 -0.45059899452897412 -0.56236644884590703 0 0 0 0 26.146292091865689 -3.051705089821553 0 -3.051705089821553 0.54287789553927723 0 0 0 0 21.098626085027718 3.9952763111959939 0 3.9952763111959939 3.3208619311772054 0 0 0 0 18.228653267463415 -4.3621894193365733 0 -4.3621894193365733 4.342666423843184 0 0 0 0 0.068638744298159082 -0.15526299796388443 0 -0.15526299796388443 0.026908540926811497 0 0 0 0 132.25091798359472 -9.0539955683307198 0 -9.0539955683307198 0.015877449925710607 0 0 0 0 -173.18248404990345 -94.114730275634429 0 -94.114730275634429 24.674841039491184 0 0 0 0 85.073440498059426 -82.030508772580106 0 -82.030508772580106 17.315325256076903 0 0 0 0 33.35262996806523 -5.2725788197112706 0 -5.2725788197112706 -0.40926622268671053 0 0 0 0 44.044488750569599 -48.809878933825985 0 -48.809878933825985 19.396139559554285 0 0 0 0 38.285348002168575 -49.918673319871232 0 -49.918673319871232 21.89294991684983 0 0 0 0 43.737281988836912 -56.821540092870691 0 -56.821540092870691 -0.092292905545036774 0 0 0 0 59.285807458330055 -61.084985887235234 0 -61.084985887235234 26.358514861120057 0 0 0 0 20.428730506102511 -66.793153024393177 0 -66.793153024393177 36.79700259954916 0 0 0 0 19.253931785735404 -70.696347378236169 0 -70.696347378236169 78.58257539155602 0 0 0 0 15.021896306724557 -36.359122794690848 0 -36.359122794690848 49.571770144552829 0 0 0 0 29.780554201992118 -46.746670796514991 0 -46.746670796514991 24.15793772462348 0 0 0 0 16.222944162434942 -78.001963117258128 0 -78.001963117258128 1.4700018477315098 0 0 0 0 35.179031508871503 -107.00298973931922 0 -107.00298973931922 47.394380542898944 0 0 0 0 33.274410080397502 -69.085407880182174 0 -69.085407880182174 -0.11454405591030081 0 0 0 0 37.761860209282986 -89.21754361641149 0 -89.21754361641149 18.06311694496253 0 0 0 0 34.999601770096433 -73.38767506530985 0 -73.38767506530985 -1.2588321691837336 0 0 0 0 34.00225915568808 -73.4468314949454 0 -73.4468314949454 23.84980124093272 0 0 0 0 34.923901704480613 -84.58674402948327 0 -84.58674402948327 28.666880371027219 0 0 0 0 52.048171160056881 -83.689173629538345 0 -83.689173629538345 27.931814919616954 0 0 0 0 4.4332547975373018 -101.04873246519219 0 -101.04873246519219 -11.19325735336497 0 0 0 0 22.268702408505533 -67.26954443225759 0 -67.26954443225759 18.487299289623479 0 0 0 0 55.766847930957283 -67.238284694095455 0 -67.238284694095455 16.361088036662295 0 0 0 0 54.539805802147384 -50.295457848870569 0 -50.295457848870569 32.698405840052146 0 0 0 0 37.041756409355457 -68.215392841865196 0 -68.215392841865196 0.018502973187423777 0 0 0 0 56.184026740534819 -57.388794474007 0 -57.388794474007 -2.4028698545680527 0 0 0 0 34.528977681925198 -73.249436487615185 0 -73.249436487615185 -14.218215951965249 0 0 0 0 14.539043281306931 -46.981033099641536 0 -46.981033099641536 -6.5620679415751511 0 0 0 0 -12.261122427845294 -64.01762765390049 0 -64.01762765390049 -0.021801812097712845 0 0 0 0 0.15150809969054535 -14.050227186410666 0 -14.050227186410666 -3.8585062636072323 0 0 0 0 -2.4055926748596903 -8.8202916754926264 0 -8.8202916754926264 -1.6033150708244648 0 0 0 0 -10.999660269637388 -11.830270017042494 0 -11.830270017042494 -1.545674551069169 0 0 0 0 -7.3915652758023498 -11.456841979930687 0 -11.456841979930687 -2.8987870963755995 0 0 0 0 0.43733478495323652 -7.7906659158452385 0 -7.7906659158452385 -3.8974770901236155 0 0 0 0 -3.1464010986005633 -14.234176993541041 0 -14.234176993541041 -14.976902731439623 0 0 0 0 -15.548371782058894 -17.990440178591598 0 -17.990440178591598 -15.450464748726517 0 0 0 0 9.6246022068298771 -7.3501497765228123 0 -7.3501497765228123 -17.063655439917056 0 0 0 0 15.651853114457936 -20.205428504036263 0 -20.205428504036263 -11.996275429482921 0 0 0 0 71.021936372671007 -41.429470476154165 0 -41.429470476154165 -46.997216306453026 0 0 0 0 111.21558330259859 -0.8084046448011577 0 -0.8084046448011577 -18.153912228457557 0 0 0 0 -18.68066657236659 -3.2019129855952997 0 -3.2019129855952997 77.886469054702502 0 0 0 0 50.638390926094871 -68.359871181969083 0 -68.359871181969083 30.30264213726241 0 0 0 0 84.174342922723554 2.4016991631742712 0 2.4016991631742712 -28.02328121305527 0 0 0 0 118.43076349455532 -43.085018602549098 0 -43.085018602549098 -19.070398829598048 0 0 0 0 152.16956458822551 -49.650181868858454 0 -49.650181868858454 15.326900989652131 0 0 0 0 79.762366838784146 -36.338862308079115 0 -36.338862308079115 35.116543182011355 0 0 0 0 95.97444519282044 -54.349560705643853 0 -54.349560705643853 -0.00043463594738568645 0 0 0 0 100.12698416171861 -45.585496199410045 0 -45.585496199410045 17.234537827687745 0 0 0 0 107.66896723601803 -39.028606364265215 0 -39.028606364265215 -0.00079876784184307326 0 0 0 0 38.815181093191313 -51.580584883608935 0 -51.580584883608935 54.168674117563569 0 0 0 0 21.915544951374613 14.74890824292288 0 14.74890824292288 -24.873508703643893 0 0 0 0 1.1655981744185482 -0.23644107996664232 0 -0.23644107996664232 -0.16192147010520586 0 0 0 0 80.604657882639913 -83.781899178514323 0 -83.781899178514323 75.311119810936361 0 0 0 0 -2.4812317787400389 -10.537405600218335 0 -10.537405600218335 -7.5998295985009463 0 0 0 0 2.4057691718189744 -5.2014694524714287 0 -5.2014694524714287 -11.189994917590411 0 0 0 0 2.8524793658528296 -0.23575978532822717 0 -0.23575978532822717 -0.26949888908147024 0 0 0 0 24.803306737929915 -10.575195438840638 0 -10.575195438840638 2.5289831731352024 0 0 0 0 19.945754994812887 -7.0612098167093791 0 -7.0612098167093791 0.056336255842325045 0 0 0 0 15.962235950865761 -11.533218121216123 0 -11.533218121216123 10.274180337006328 0 0 0 0 7.3011325155594022 -6.61007232663178 0 -6.61007232663178 8.1165655432178028 0 0 0 0 -0.24107131967662099 -1.3365673446421624 0 -1.3365673446421624 0.00072570432894281112 0 0 0 0 0.42024185534852876 0.48438654846212614 0 0.48438654846212614 0.18994470969456501 0 0 0 0 4.9406342763504654 -5.8904621458277688 0 -5.8904621458277688 3.3215926399925593 0 0 0 0 0.40966467185561584 -0.63517109817246364 0 -0.63517109817246364 -0.22401789678281858 0 0 0 0 3.3598846594723 -1.1812839026151778 0 -1.1812839026151778 -2.4215340918271977 0 0 0 0 3.6507668341762383 -2.7518716235292686 0 -2.7518716235292686 1.354753377589077 0 0 0 0 3.5252609757105411 -0.67130562157668727 0 -0.67130562157668727 -2.2330344042873307 0 0 0 0 4.1700726721537649 -2.6262807859548047 0 -2.6262807859548047 -7.5657198913759203 0 0 0 0 1.0814828114510604 -1.4248224519854844 0 -1.4248224519854844 0.60471887430581006 0 0 0 0 4.8617576609922253 -0.57389003085245349 0 -0.57389003085245349 -3.9674354079033947 0 0 0 0 -3.5118224751840899 -6.6940180332658201 0 -6.6940180332658201 -1.9516900164308026 0 0 0 0 -0.21157778578344733 -4.1920633969657501 0 -4.1920633969657501 -0.84191161443595774 0 0 0 0 -4.1324961327300116 -4.3341097419452126 0 -4.3341097419452126 -3.4399719626380829 0 0 0 0 -0.72905450529378868 -6.0583199044549474 0 -6.0583199044549474 -7.1327411680740624 0 0 0 0 -7.7952468816673672 -5.0478498152261864 0 -5.0478498152261864 0.75082591002865229 0 0 0 0 0.15534275400477782 -5.6431968089700604 0 -5.6431968089700604 4.8222905141155934 0 0 0 0 0.87842277412416436 -0.500169136114895 0 -0.500169136114895 -0.66103161997830995 0 0 0 0 0.55199261723068194 0.38322998925320917 0 0.38322998925320917 -1.5611959971104312 0 0 0 0 7.6801856162444437 -1.6743556892715787 0 -1.6743556892715787 -2.5468545828807692 0 0 0 0 6.0828691833585253 -1.4160122478133417 0 -1.4160122478133417 -2.4056469167253454 0 0 0 0 9.4700778405231176 0.7983849423862921 0 0.7983849423862921 -0.28682220265727665 0 0 0 0 -8.1452297238629399 -1.442640632389157 0 -1.442640632389157 -9.9912714251204306 0 0 0 0 -17.197944400009874 -13.780859944194162 0 -13.780859944194162 -9.7083692737759861 0 0 0 0 -9.7171533174864635 -4.8212313998608352 0 -4.8212313998608352 -30.716558719832392 0 0 0 0 3.0186342560409685 -4.467574532773142 0 -4.467574532773142 -3.6516679322739947 0 0 0 0 6.0031743771814945 -3.8061384305528918 0 -3.8061384305528918 -6.2490468513551605 0 0 0 0 6.0473471563964267 -3.4448082853232336 0 -3.4448082853232336 -4.8600918731517595 0 0 0 0 7.8357752158690346 -2.2075978509774359 0 -2.2075978509774359 -4.0165254765379359 0 0 0 0 7.9360087955165 -2.227308254730815 0 -2.227308254730815 -4.6113342314752117 0 0 0 0 5.6821868751885631 -3.8992019776860616 0 -3.8992019776860616 -2.6978210221304835 0 0 0 0 6.0169387155747245 -2.9477319150537369 0 -2.9477319150537369 -1.1576851410227391 0 0 0 0 5.627516375438006 -3.0276844350155443 0 -3.0276844350155443 -3.1000534267150215 0 0 0 0 5.1452720508159473 -4.2382973796002261 0 -4.2382973796002261 0.095061724741754006 0 0 0 0 5.5832474674034529 -3.2091023233297165 0 -3.2091023233297165 1.1378638945461717 0 0 0 0 5.2309236806950139 -4.2655084260932199 0 -4.2655084260932199 -1.1061290118632314 0 0 0 0 3.6196779697567791 -0.91417453558237227 0 -0.91417453558237227 -1.8876945696210718 0 0 0 0 8.0897473406912468 -4.1970334928582815 0 -4.1970334928582815 0.22932120666155242 0 0 0 0 7.8109409128264815 -4.4634453156941163 0 -4.4634453156941163 -0.0092481753399624722 0 0 0 0 5.8291048766695894 0.26310086803425747 0 0.26310086803425747 -1.1332736515778379 0 0 0 0 -1.2714955715196226 -0.88842946856606986 0 -0.88842946856606986 0.93761898511496611 0 0 0 0 -1.6611612728083855 -1.8782122159136634 0 -1.8782122159136634 -0.34203106323548127 0 0 0 0 0.97519350367780078 -1.8754711695558761 0 -1.8754711695558761 -0.081514502848712311 0 0 0 0 0.53090829269968864 -3.3923308717099978 0 -3.3923308717099978 0.5517460700043415 0 0 0 0 -0.056970051286270973 -0.04952473681812819 0 -0.04952473681812819 -0.028365933359694395 0 0 0 0 1.2368203799833282 -2.7650104159656621 0 -2.7650104159656621 -0.0039253369832294993 0 0 0 0 2.7532642642254359 -0.37264582765601517 0 -0.37264582765601517 -1.2007284187093319 0 0 0 0 -0.22274489561182076 0.10814627692548129 0 0.10814627692548129 0.04352751324532278 0 0 0 0 -0.08636202318962205 -1.2611983697397591 0 -1.2611983697397591 0.0019321041436342057 0 0 0 0 0.24431286845183564 -0.39647099990567725 0 -0.39647099990567725 -0.15277791485239689 0 0 0 0 -31.077297501467001 21.242333939245782 0 21.242333939245782 -14.017271328269999 0 0 0 0 23.686172639805591 -31.599676834939601 0 -31.599676834939601 0.047181359113559924 0 0 0 0 -106.40956775434006 -28.723495733338495 0 -28.723495733338495 -2.6602765663519676 0 0 0 0 -93.50156338502893 -44.15786824716497 0 -44.15786824716497 6.579706097872986 0 0 0 0 -83.535367655391383 -51.067040791345789 0 -51.067040791345789 2.9683059100198079 0 0 0 0 1.3422945857533097 -3.9373335287114166 0 -3.9373335287114166 -1.3883958474851141 0 0 0 0 -3.0953243785426707 -0.38903282886510482 0 -0.38903282886510482 3.0223162667582528 0 0 0 0 -11.581261979929195 -4.1952171494929189 0 -4.1952171494929189 -0.8103665796261339 0 0 0 0 -85.672836573157838 -39.929949549401499 0 -39.929949549401499 -0.54391043990744947 0 0 0 0 -46.835280256085753 -50.512108958127101 0 -50.512108958127101 3.3272768943079427 0 0 0 0 36.259004530680613 -48.230053873767247 0 -48.230053873767247 -1.9306552530983936 0 0 0 0 -57.96109315334138 -48.585441592489133 0 -48.585441592489133 -31.678248374708346 0 0 0 0 -63.403160005182144 -41.918599543438177 0 -41.918599543438177 14.775537360261296 0 0 0 0 -15.769523897815816 -58.700757818000056 0 -58.700757818000056 5.2384285824555263 0 0 0 0 10.564164399202127 -49.433402068278156 0 -49.433402068278156 2.1884756173203641 0 0 0 0 38.516355556035705 -17.15057733374033 0 -17.15057733374033 -0.89639824338155449 0 0 0 0 8.3320126531416463 -42.152031070800149 0 -42.152031070800149 -20.527232994554652 0 0 0 0 -63.836983877497914 -37.273425398505424 0 -37.273425398505424 -7.0800582358315296 0 0 0 0 -26.438736878242707 -74.672619168542951 0 -74.672619168542951 -29.912737820184702 0 0 0 0 -119.49668724265211 -106.85955000529168 0 -106.85955000529168 -31.034819076301574 0 0 0 0 -66.803549639258506 -93.742707095059018 0 -93.742707095059018 -46.571484687212433 0 0 0 0 -91.397106144710051 -18.667284368475066 0 -18.667284368475066 -70.18572593584031 0 0 0 0 -7.5223883949120136 -38.217397697459546 0 -38.217397697459546 37.261096900774646 0 0 0 0 0.16210591007367015 0.18505017938431223 0 0.18505017938431223 0.1372032553352458 0 0 0 0 -7.8733196309913183 -8.5984262562433287 0 -8.5984262562433287 -2.2843915221374118 0 0 0 0 -0.91562985644468142 -1.477411803742342 0 -1.477411803742342 3.6386034423751283 0 0 0 0 -6.8476286307013652 -5.2190857864334248 0 -5.2190857864334248 0.35034992133478227 0 0 0 0 -6.1207048126921109 -7.1509858408485343 0 -7.1509858408485343 -3.8530781021618168 0 0 0 0 -9.791934654384022 -7.5730813107857102 0 -7.5730813107857102 -2.3333419472128298 0 0 0 0 -7.8853878939371498 -6.1650666785562862 0 -6.1650666785562862 -3.8526094357603142 0 0 0 0 1.049457328014098 -3.2433440458668024 0 -3.2433440458668024 -3.7585434625039582 0 0 0 0 -2.029250632142066 -5.8759801009016428 0 -5.8759801009016428 -6.1495305307071249 0 0 0 0 1.8976941566587753 -3.0207657105742918 0 -3.0207657105742918 -6.350923672596295 0 0 0 0 2.1898590218224854 -8.2695205813079156 0 -8.2695205813079156 -14.207997848659943 0 0 0 0 -5.2990032709740262 -9.7170391960567031 0 -9.7170391960567031 -13.534895783552201 0 0 0 0 -7.0569541200929962 -8.027456411834919 0 -8.027456411834919 -7.4897223687949008 0 0 0 0 -4.9285266059068817 -7.6533796190869907 0 -7.6533796190869907 -3.9985666698263458 0 0 0 0 -3.3785278173563711 -3.9020410757548234 0 -3.9020410757548234 6.9331944813247901 0 0 0 0 -7.4406913434177113 -9.8088951914860445 0 -9.8088951914860445 -10.021552249614615 0 0 0 0 1.4384409402983565 0.19668568406119746 0 0.19668568406119746 -0.836054186956801 0 0 0 0 -5.0017872672888188 -9.8877036432222667 0 -9.8877036432222667 -13.512103312864838 0 0 0 0 -0.30498953356185154 -0.90916325279950172 0 -0.90916325279950172 -0.7491692968282031 0 0 0 0 -3.4106572341576111 -8.8970736741060819 0 -8.8970736741060819 -25.952057175085429 0 0 0 0 1.3773917572055758 -4.5684851792403336 0 -4.5684851792403336 -1.1004236435945174 0 0 0 0 -1.8017635690176732 -5.8527091785805112 0 -5.8527091785805112 -5.519766582993114 0 0 0 0 0.7347675776181859 -4.684643186723406 0 -4.684643186723406 -1.3354825862006692 0 0 0 0 2.385431048999834 -5.1072142838561732 0 -5.1072142838561732 -7.0610108299575796 0 0 0 0 -4.2238872887392063 -6.5111638944108563 0 -6.5111638944108563 0.16012364951893687 0 0 0 0 -3.5820801718346047 -8.3020201129183988 0 -8.3020201129183988 -11.627429531275993 0 0 0 0 -6.4652028684832832 -9.1013586304562004 0 -9.1013586304562004 -0.02535587128740957 0 0 0 0 0.64614986725064227 -9.2608956526491966 0 -9.2608956526491966 -2.9538239403045736 0 0 0 0 3.3614572258174036 -9.8215155244539325 0 -9.8215155244539325 -6.2704514244558283 0 0 0 0 4.9097885053270147 0.48834299129521241 0 0.48834299129521241 -0.26180183312681038 0 0 0 0 -40.747475636911986 -129.02299742229843 0 -129.02299742229843 -113.50369822844232 0 0 0 0 -4.9903287530726175 -3.2481698163659587 0 -3.2481698163659587 -4.2618577589601045 0 0 0 0 0.370564630616812 -2.2469084645663884 0 -2.2469084645663884 3.661666760353917 0 0 0 0 -91.003540760478245 -81.5163505571727 0 -81.5163505571727 -59.067786356637953 0 0 0 0 -5.3295408862377371 -11.522625967270869 0 -11.522625967270869 -3.177634997995483 0 0 0 0 -10.151722108417744 -14.62679996406041 0 -14.62679996406041 -12.888008317671847 0 0 0 0 -4.9037263708760293 -9.7355478556519301 0 -9.7355478556519301 -20.165773251501378 0 0 0 0 -6.2264773270017031 -21.65824949862872 0 -21.65824949862872 -34.951063435300966 0 0 0 0 0.029931558027143979 0.048555801186225267 0 0.048555801186225267 -0.075444263414244261 0 0 0 0 -16.284222283646159 -19.442648457231371 0 -19.442648457231371 -10.594792186180712 0 0 0 0 -7.1319933027089064 -7.6500889532067049 0 -7.6500889532067049 -11.816361216759105 0 0 0 0 -10.01725771544352 -9.4089474606362273 0 -9.4089474606362273 -1.7620301444094366 0 0 0 0 -2.7032355738210754 -10.555154017971745 0 -10.555154017971745 -5.9296180914861907 0 0 0 0 -10.590134728502562 -11.980639729123141 0 -11.980639729123141 -3.7951574488070037 0 0 0 0 -4.780524849476933 -13.420222733092487 0 -13.420222733092487 -6.5891370723311411 0 0 0 0 -7.1903050645464646 -10.322552741975187 0 -10.322552741975187 -5.0537557896459475 0 0 0 0 -7.0313281435919635 -11.242438147442044 0 -11.242438147442044 -3.701952062260716 0 0 0 0 -5.3554892313823075 -13.108549172652602 0 -13.108549172652602 -1.6479899341629789 0 0 0 0 -6.1153245291109712 -7.0993813126907988 0 -7.0993813126907988 4.6788277948770993 0 0 0 0 -11.762131500670876 -18.602897523128377 0 -18.602897523128377 -0.070566725002208841 0 0 0 0 -19.552624890224251 1.6282713507443987 0 1.6282713507443987 33.404317160711798 0 0 0 0 -3.2390450388920726 -25.523493544217672 0 -25.523493544217672 -3.732941395749549 0 0 0 0 -10.508817642245049 -17.49795116281166 0 -17.49795116281166 -9.2473218894065212 0 0 0 0 -9.5468522111523271 -17.31881886043675 0 -17.31881886043675 0.49175573868524225 0 0 0 0 0.09010625794326188 -9.1837340748106726 0 -9.1837340748106726 -1.4830059168612024 0 0 0 0 1.5185295675225827 -8.8099344605457528 0 -8.8099344605457528 -11.079415635548571 0 0 0 0 -2.6367349892079037 -6.9370472086143131 0 -6.9370472086143131 -10.354823812256676 0 0 0 0 5.6148454628419131 -17.345945034190891 0 -17.345945034190891 -8.0735707073199592 0 0 0 0 -1.1541593239053185 -15.707829216866006 0 -15.707829216866006 -15.362264145360088 0 0 0 0 2.3557661216727865 -9.3781187317126751 0 -9.3781187317126751 3.6517294798359217 0 0 0 0 -12.441355991732053 -17.572382724528325 0 -17.572382724528325 -14.608540461444136 0 0 0 0 -7.5434220958266209 -8.5905754306050426 0 -8.5905754306050426 2.934970721642717 0 0 0 0 -7.6908730493651092 -18.240774318257536 0 -18.240774318257536 -18.991133522948076 0 0 0 0 1.8540022059678449 -12.305368886703036 0 -12.305368886703036 -15.507406318737367 0 0 0 0 -4.1516923709496041 -20.496150825880704 0 -20.496150825880704 -26.596552907270961 0 0 0 0 2.6361624834032327 -6.8076076922107269 0 -6.8076076922107269 -11.354394276362633 0 0 0 0 -5.0311438845083103 -6.8679606607975074 0 -6.8679606607975074 -4.2127292425939231 0 0 0 0 -8.994845799686118 -11.486158879613868 0 -11.486158879613868 -9.4451042332912039 0 0 0 0 4.0906727281108033 -3.7255416246925961 0 -3.7255416246925961 -12.126986523584492 0 0 0 0 5.1140728887221485 -18.205603122361026 0 -18.205603122361026 -6.4596527134081043 0 0 0 0 -3.8625191809632859 -6.8944732385641307 0 -6.8944732385641307 -7.6197747831860312 0 0 0 0 8.5916202519745184 -8.6874459641622934 0 -8.6874459641622934 -14.939617214535247 0 0 0 0 9.7192996747980942 -14.921628595316179 0 -14.921628595316179 -20.138250415009679 0 0 0 0 -0.43175832996894314 -13.665796525512633 0 -13.665796525512633 -17.677175521980644 0 0 0 0 0.56041831183847535 -11.01694271749966 0 -11.01694271749966 -15.594211675734186 0 0 0 0 1.6660448911643471 -5.1315930407927226 0 -5.1315930407927226 -23.266822126112856 0 0 0 0 3.3260181829373323 -8.5186910126667499 0 -8.5186910126667499 -19.687548779517783 0 0 0 0 1.406664056972204 -12.952622223731396 0 -12.952622223731396 -16.630061033358288 0 0 0 0 -0.70222468080373801 -12.723353060332556 0 -12.723353060332556 -3.0485782170671882 0 0 0 0 -10.938039593578651 -12.349316384514168 0 -12.349316384514168 -5.3778405541274878 0 0 0 0 2.2194671044318355 -3.9198331384728071 0 -3.9198331384728071 -3.7032027766651581 0 0 0 0 24.333803498905127 1.0595994296163553 0 1.0595994296163553 6.0567916291274742 0 0 0 0 13.80933142073718 1.5565219286008869 0 1.5565219286008869 -0.76780064571903495 0 0 0 0 41.85542644551316 23.935877044325252 0 23.935877044325252 -2.9573020080351853 0 0 0 0 5.256632318555436 -4.0092929320041684 0 -4.0092929320041684 2.0317683573181995 0 0 0 0 1.2364529603801637 0.64878686301296717 0 0.64878686301296717 -2.2942760672922731 0 0 0 0 19.865444997591112 -10.823706613276954 0 -10.823706613276954 -12.516946313562585 0 0 0 0 1.4212461364861486 -1.3828045897331247 0 -1.3828045897331247 -1.2473311826721698 0 0 0 0 -20.711036443357443 -22.19605992190327 0 -22.19605992190327 -12.195228772854534 0 0 0 0 -3.439860288311138 -24.813614033814702 0 -24.813614033814702 -25.835183659091854 0 0 0 0 -5.8796142535666149 -19.823160178252692 0 -19.823160178252692 -26.764984995301347 0 0 0 0 34.912907038642516 -0.14332071889657527 0 -0.14332071889657527 -33.049541434156708 0 0 0 0 19.924138479022076 -15.07249072468403 0 -15.07249072468403 -28.517273559548812 0 0 0 0 8.9632299210479687 -7.6512225647275045 0 -7.6512225647275045 -32.286318571954325 0 0 0 0 -19.396076467385683 -27.501249845327948 0 -27.501249845327948 -24.509759851993294 0 0 0 0 0.24085276618370699 -37.590460871946561 0 -37.590460871946561 -44.881723828693794 0 0 0 0 72.912829566397704 -27.269198889927793 0 -27.269198889927793 -57.84503530181064 0 0 0 0 -20.621747160048471 -108.29486436567277 0 -108.29486436567277 38.681809118228557 0 0 0 0 -2.9190309512639203 -3.0900274419884681 0 -3.0900274419884681 0.16587225387775106 0 0 0 0 46.26924723861157 -6.8373938985532732 0 -6.8373938985532732 -12.815379126499465 0 0 0 0 0.085633649365071562 0.2310151676525507 0 0.2310151676525507 -1.3444364992333391 0 0 0 0 -118.95245393422738 -82.163652148217807 0 -82.163652148217807 -28.213284198265228 0 0 0 0 -0.024666583628367711 0.016246099054729513 0 0.016246099054729513 -0.50940494185473995 0 0 0 0 -218.84867333609054 -76.834686579335539 0 -76.834686579335539 43.681526840740844 0 0 0 0 -87.672698840280646 -15.423924661197816 0 -15.423924661197816 -36.622678969339177 0 0 0 0 49.491069594863802 21.023139531720517 0 21.023139531720517 -21.849361301661247 0 0 0 0 -100.2127130340341 -83.04097614762577 0 -83.04097614762577 -45.299323525909131 0 0 0 0 12.690180235886146 35.702355303443255 0 35.702355303443255 -75.247672985307872 0 0 0 0 -56.533659784235169 -3.0750011640730008 0 -3.0750011640730008 -30.082912868292624 0 0 0 0 -73.97789965839911 -11.310488237995742 0 -11.310488237995742 9.2020831680401898 0 0 0 0 -44.522442608999881 -43.237389964468093 0 -43.237389964468093 -34.766273823093798 0 0 0 0 14.895631121989936 2.8185131774207548 0 2.8185131774207548 -5.8767240270826733 0 0 0 0 -0.20901186429132679 0.40804979659283802 0 0.40804979659283802 -0.40631881919976109 0 0 0 0 0.86393952732189661 -0.38870435411938686 0 -0.38870435411938686 0.36426365456680365 0 0 0 0 62.401656656372325 -53.873501762818705 0 -53.873501762818705 -42.813308288355984 0 0 0 0 -38.299912940456124 4.0187916895665694 0 4.0187916895665694 35.665439127365516 0 0 0 0 112.24893270070606 -112.25368456398792 0 -112.25368456398792 -40.605970863587572 0 0 0 0 13.38983893166187 0.90240845066000475 0 0.90240845066000475 -7.7260244072240312 0 0 0 0 10.347353631599617 -0.10661223223905836 0 -0.10661223223905836 -3.8802244742728362 0 0 0 0 12.121837186847188 -0.69946956123385462 0 -0.69946956123385462 -8.6607233844588336 0 0 0 0 12.491574171292086 -1.3273466923637898 0 -1.3273466923637898 -7.5956540836245949 0 0 0 0 9.1769966840211055 -2.6672819235313909 0 -2.6672819235313909 -7.8241579552814073 0 0 0 0 1.8382034176247544 -3.4456025301460613 0 -3.4456025301460613 -5.8737754174890142 0 0 0 0 9.6057200028117222 -5.0448311451700647 0 -5.0448311451700647 -9.4502228075343737 0 0 0 0 2.8974083321336117 -2.5738675865529075 0 -2.5738675865529075 -2.5536722936535945 0 0 0 0 1.9724163969677448 -2.0192907372582631 0 -2.0192907372582631 -1.1331721384129558 0 0 0 0 3.5935651135941953 -6.4341998441232136 0 -6.4341998441232136 -9.5661598989645427 0 0 0 0 5.2862232634743123 -15.203437183588903 0 -15.203437183588903 -20.12104707055596 0 0 0 0 5.9963818412288674 -38.536058192643395 0 -38.536058192643395 -27.287476692943756 0 0 0 0 -5.2454406058641325 -12.110629813250853 0 -12.110629813250853 -17.934222940719792 0 0 0 0 -0.97656993382315704 -1.0603061131732829 0 -1.0603061131732829 -24.517624772328418 0 0 0 0 -7.3181303067158296 -5.8354905701962707 0 -5.8354905701962707 -20.261613731592661 0 0 0 0 1.288706077070028 0.026436762127463709 0 0.026436762127463709 0.33151422713597789 0 0 0 0 -14.958730345009826 24.401715581578173 0 24.401715581578173 -45.33204722813025 0 0 0 0 14.726027387121576 1.3228085554874269 0 1.3228085554874269 -24.190742183836846 0 0 0 0 9.4261316789270495 -4.9973332984227454 0 -4.9973332984227454 -23.517951943272237 0 0 0 0 -135.16362671356364 -182.67916783997043 0 -182.67916783997043 -0.32183824500998526 0 0 0 0 0.015958712112478679 -22.944255978120054 0 -22.944255978120054 20.701804818660548 0 0 0 0 0.4831086806661915 -13.671137823543177 0 -13.671137823543177 15.38602692028735 0 0 0 0 -5.4216914679159345 -8.9240143065624125 0 -8.9240143065624125 51.679551457311391 0 0 0 0 0.43194330396545411 -12.226601246616838 0 -12.226601246616838 14.958183100203314 0 0 0 0 0.021519337569770869 -15.904377483257122 0 -15.904377483257122 -8.679785522309885 0 0 0 0 0.077874317895165746 0.069379678718004101 0 0.069379678718004101 -0.64707433030150519 0 0 0 0 55.017789381130569 -144.30830657196748 0 -144.30830657196748 -750.19342151496494 0 0 0 0 -2.3882095789080395 -1.1946718087256833 0 -1.1946718087256833 -0.85237071523291874 0 0 0 0 -133.53152064581082 -375.94419379165538 0 -375.94419379165538 -177.08791034606111 0 0 0 0 0.54345308917338464 -424.19313331698839 0 -424.19313331698839 -446.70137074033119 0 0 0 0 -45.559959166364933 -35.085881624006106 0 -35.085881624006106 -283.97296390796146 0 0 0 0 -22.491852705692054 -84.565803797635908 0 -84.565803797635908 -180.13440490773974 0 0 0 0 -14.511744048821129 -65.98907899608912 0 -65.98907899608912 -155.73009110297517 0 0 0 0 5.6739166920397111 -5.0467872516869647 0 -5.0467872516869647 -8.7506458279203798 0 0 0 0 -6.784492377882458 -2.4660050312022754 0 -2.4660050312022754 -0.71387793962607127 0 0 0 0 -10.250487738849188 3.8961090504781168 0 3.8961090504781168 3.455842559312714 0 0 0 0 -6.0874135876456421 -11.862773290614314 0 -11.862773290614314 33.772067591837185 0 0 0 0 -4.3142430437721018 -2.2516399720410085 0 -2.2516399720410085 -0.68685739700505621 0 0 0 0 -2.6501675445964068 -1.5772996524818197 0 -1.5772996524818197 -0.29633955712919224 0 0 0 0 0.78135199841017311 -18.293197467635764 0 -18.293197467635764 -5.4930449246376156 0 0 0 0 -2.3342555687977438 -14.498128541444203 0 -14.498128541444203 15.264619100530808 0 0 0 0 -3.3148751112739774 -6.4926378677878347 0 -6.4926378677878347 10.47304573040492 0 0 0 0 -8.7895682454909547 -16.287398625578135 0 -16.287398625578135 17.752915786534459 0 0 0 0 -6.8096718206388687 -8.5860380398207781 0 -8.5860380398207781 -6.4615927299819305 0 0 0 0 -18.702414736408173 -23.725521272383958 0 -23.725521272383958 -0.45063492095027868 0 0 0 0 9.7229218573154377 -6.8612716150039219 0 -6.8612716150039219 -7.6087630935200181 0 0 0 0 13.503288011590485 11.844153203954193 0 11.844153203954193 -17.803413048055518 0 0 0 0 -10.060566434854138 -5.3303078993785658 0 -5.3303078993785658 -1.9280026743838778 0 0 0 0 -5.0990178959727928 -5.9217730065374781 0 -5.9217730065374781 -1.8333393669759062 0 0 0 0 -0.35808327700578957 -5.5899668139054484 0 -5.5899668139054484 -8.0939649659740098 0 0 0 0 -12.985681478699917 0.5187398120706348 0 0.5187398120706348 4.7336490204634174 0 0 0 0 -23.552929369739104 -28.277284241940379 0 -28.277284241940379 -0.042996218036932987 0 0 0 0 -4.2337408601358817 -2.187519643500174 0 -2.187519643500174 0.37023873292869958 0 0 0 0 -31.274491687538102 -55.711045853316364 0 -55.711045853316364 -76.199604612053008 0 0 0 0 -3.9474267284350546 -2.7978149265591234 0 -2.7978149265591234 0.064207246012549568 0 0 0 0 -12.8109903944287 -19.399204461415138 0 -19.399204461415138 -23.675704300986126 0 0 0 0 -9.8602627967256922 -30.099402092193031 0 -30.099402092193031 15.074183986707794 0 0 0 0 85.333732672592305 -19.697503033889006 0 -19.697503033889006 -12.026022901009128 0 0 0 0 72.468217339650437 -12.041646393556221 0 -12.041646393556221 6.8569849708328547 0 0 0 0 0.081521069066241125 -0.93829102389049979 0 -0.93829102389049979 -0.51589911066977034 0 0 0 0 61.694469887057494 -29.139137360938548 0 -29.139137360938548 -7.8750102885005617 0 0 0 0 84.122692398959771 -7.1247290247993078 0 -7.1247290247993078 -4.0318042155195144 0 0 0 0 -0.48499059121384391 -0.43243672573301595 0 -0.43243672573301595 0.24109105891317029 0 0 0 0 20.982146883547102 6.9897825639018265 0 6.9897825639018265 -9.8048486421473626 0 0 0 0 16.117591867938245 -11.884831148774538 0 -11.884831148774538 -14.983711924802265 0 0 0 0 53.662084356484229 -12.545796493654052 0 -12.545796493654052 -15.621989251365449 0 0 0 0 -4.0201893734183614 -8.609477239347143 0 -8.609477239347143 -2.1738277096592356 0 0 0 0 16.444679359306974 -9.9626895167584735 0 -9.9626895167584735 -4.7739862683447427 0 0 0 0 1.1367014414293521 -2.2098385280475767 0 -2.2098385280475767 -2.9668151550238449 0 0 0 0 1.9422923312919593 -1.7307393714283634 0 -1.7307393714283634 -1.868175299291007 0 0 0 0 -11.455028648255393 -9.6260025192123067 0 -9.6260025192123067 2.7859618374695856 0 0 0 0 -28.388881011642297 -65.924547170105143 0 -65.924547170105143 -94.056896727579442 0 0 0 0 13.730330992965719 -13.346803855775761 0 -13.346803855775761 -73.347935243333268 0 0 0 0 -56.357195739269628 -33.69177861457365 0 -33.69177861457365 -45.655338801376274 0 0 0 0 -43.055328517172626 -29.550265814709306 0 -29.550265814709306 -24.398133275055443 0 0 0 0 1.0991145719822519 -2.2288522311610777 0 -2.2288522311610777 3.4492598651184068 0 0 0 0 -44.111668656211805 -75.587629542127615 0 -75.587629542127615 -81.20128716064437 0 0 0 0 -4.1276638426252248 -8.3687761577753008 0 -8.3687761577753008 -4.7601158752040647 0 0 0 0 -5.2958454144991265 -10.092045237452112 0 -10.092045237452112 -6.2036104274584432 0 0 0 0 -6.0320482373535924 -10.345560681677853 0 -10.345560681677853 -4.4937157911335817 0 0 0 0 -5.6947712417138305 -7.5039818264061182 0 -7.5039818264061182 4.3059488490432667 0 0 0 0 -18.173001327457314 -6.9693069626978286 0 -6.9693069626978286 16.039256759815089 0 0 0 0 -3.9361136402724242 -1.1502153542148221 0 -1.1502153542148221 12.094903862796855 0 0 0 0 -5.7658837495187072 -9.5035693912032002 0 -9.5035693912032002 -6.1849400447536027 0 0 0 0 0.99612968517998723 -2.7677244962747096 0 -2.7677244962747096 1.5989170972489006 0 0 0 0 -5.0240488247718531 -7.0450719898558845 0 -7.0450719898558845 7.5922741702671548 0 0 0 0 -3.0273246178694535 -6.5524220829283877 0 -6.5524220829283877 14.572567766971588 0 0 0 0 -12.77004968169058 -36.042621072681868 0 -36.042621072681868 -65.066551773277922 0 0 0 0 -38.875763952310081 -70.896188074398196 0 -70.896188074398196 -63.320013977861663 0 0 0 0 -36.607955521560768 -35.77096536464353 0 -35.77096536464353 -40.939929844669678 0 0 0 0 -46.544100978071583 -61.054920712514104 0 -61.054920712514104 -21.340914220198584 0 0 0 0 -17.54451084142238 -66.732260253183995 0 -66.732260253183995 -108.14835517405118 0 0 0 0 -0.54794226592358086 0.42589592870591275 0 0.42589592870591275 2.4241335834314111 0 0 0 0 7.1321712809119617 4.7327614613957394 0 4.7327614613957394 -19.65426059807578 0 0 0 0 -5.8815262707248621 -44.289839549105636 0 -44.289839549105636 -44.034008166374406 0 0 0 0 -24.684795667919389 -28.583708125329395 0 -28.583708125329395 -9.0788732392356906 0 0 0 0 27.065002497816749 1.4292035490261696 0 1.4292035490261696 -22.268299941561054 0 0 0 0 -13.029446886969708 -40.591508496261667 0 -40.591508496261667 -28.839086872851112 0 0 0 0 -19.063310839937913 -30.515426471355113 0 -30.515426471355113 -13.648477462388655 0 0 0 0 10.797108882862418 -5.7901890186559264 0 -5.7901890186559264 -8.7942246099307511 0 0 0 0 -5.9790485043395165 -20.581694463065105 0 -20.581694463065105 -2.582016356926033 0 0 0 0 1.8675623573153644 -19.297337677252017 0 -19.297337677252017 -22.287506968101297 0 0 0 0 -5.1076708979535397 -18.044379692463281 0 -18.044379692463281 -22.31079251464871 0 0 0 0 10.445425760261383 -5.3801743972944465 0 -5.3801743972944465 -9.8201868050207821 0 0 0 0 -14.928030576056699 -28.899792072662422 0 -28.899792072662422 -19.866081662581792 0 0 0 0 10.586085554445287 -5.0205876821600448 0 -5.0205876821600448 -10.423204220968188 0 0 0 0 -2.6386955721363847 -8.850254458397103 0 -8.850254458397103 -67.866605926767079 0 0 0 0 -4.8747440770293906 0.3213210956146213 0 0.3213210956146213 -29.099870862672105 0 0 0 0 0.90333668018865865 -21.364490475117236 0 -21.364490475117236 -23.889940517412924 0 0 0 0 1.1540990708635945 -21.188372022050316 0 -21.188372022050316 -26.719567922954411 0 0 0 0 -3.7356080227255006 -19.044602584293443 0 -19.044602584293443 -24.302933573544578 0 0 0 0 -1.3363572456873953 -22.947285319163711 0 -22.947285319163711 -19.575660517635697 0 0 0 0 3.5601415379333048 -23.239535230679394 0 -23.239535230679394 -25.076385744818253 0 0 0 0 3.3106259740263226 -20.163250267280773 0 -20.163250267280773 -27.568560709201847 0 0 0 0 -0.010986008533232894 -25.638773922180729 0 -25.638773922180729 -44.286022695161591 0 0 0 0 -3.0936274484483874 -22.274058401206275 0 -22.274058401206275 -28.252639150145114 0 0 0 0 0.0066881259645015234 -25.82958152153833 0 -25.82958152153833 -20.50793381254698 0 0 0 0 3.9904840839753888 -17.004439909743269 0 -17.004439909743269 -12.872969582837868 0 0 0 0 -0.11346657409740146 -20.651049323416828 0 -20.651049323416828 -3.5559692674323742 0 0 0 0 4.6099215963677125 -18.370898425746418 0 -18.370898425746418 -3.9500750032857468 0 0 0 0 -0.004759803105116589 -23.268081339765558 0 -23.268081339765558 -0.36040229899117548 0 0 0 0 -17.098517892847667 10.968792761333134 0 10.968792761333134 -43.026770782729727 0 0 0 0 0.67901429064233199 -0.30166160735238279 0 -0.30166160735238279 0.26280660974908443 0 0 0 0 -0.0062784001311229076 -3.1823209771660004 0 -3.1823209771660004 -3.2406834320208873 0 0 0 0 1.3137287260856141 -2.1662486911162731 0 -2.1662486911162731 3.503559057401251 0 0 0 0 -22.871615205918715 -41.381909911328876 0 -41.381909911328876 -3.5327915198897131 0 0 0 0 -48.429631473280097 -5.1830194904366635 0 -5.1830194904366635 97.635196669210018 0 0 0 0 -13.575804327378137 -3.0908251236637625 0 -3.0908251236637625 -1.1464922565845654 0 0 0 0 -0.6391796641251446 -2.5869471872413996 0 -2.5869471872413996 0.11185798934368307 0 0 0 0 -2.990597044542874 -8.0858853913412947 0 -8.0858853913412947 -4.5882034245387331 0 0 0 0 0.00018233209448226262 -3.1821163239101224 0 -3.1821163239101224 -3.2410594939124167 0 0 0 0 -2.9905970445452112 -4.7646194651742917 0 -4.7646194651742917 -2.8175554821700644 0 0 0 0 0.0019883241839124821 -4.4701592328465267 0 -4.4701592328465267 2.1830809089851755 0 0 0 0 1.2027711793962226 -2.1440554183900531 0 -2.1440554183900531 -3.0221994483090384 0 0 0 0 -0.67200893728603717 0.41257346923637961 0 0.41257346923637961 0.4842851161383166 0 0 0 0 5.4029813196029863 -0.75862342190248455 0 -0.75862342190248455 -74.558222318805747 0 0 0 0 5.8338944597350064 -12.513742582549213 0 -12.513742582549213 -18.770515380199868 0 0 0 0 5.5113016563082056 -16.783080716125369 0 -16.783080716125369 -43.171346618932148 0 0 0 0 4.0350660498411344 -1.8718609178681618 0 -1.8718609178681618 -28.250218856836 0 0 0 0 5.756877938456455 -7.4266063195727838 0 -7.4266063195727838 -19.79843813655043 0 0 0 0 1.121413136544426 -1.094960176222628 0 -1.094960176222628 -2.0980724038124166 0 0 0 0 1.2027711794003726 -6.1939581317832531 0 -6.1939581317832531 -6.6694629395205993 0 0 0 0 -7.6094684463932936 -23.715874745250403 0 -23.715874745250403 -15.753401178471904 0 0 0 0 -14.450027887942902 -11.784009671195383 0 -11.784009671195383 -3.4189623150821511 0 0 0 0 -17.590569967564079 -26.852109155728613 0 -26.852109155728613 -11.810388447855075 0 0 0 0 8.6285996606966364 -3.6294868664158457 0 -3.6294868664158457 -23.987344795707031 0 0 0 0 8.7785511276906121 -6.0000016476387827 0 -6.0000016476387827 -11.211733018174378 0 0 0 0 -9.3774575246645782 -35.812786931803657 0 -35.812786931803657 -22.378037450835109 0 0 0 0 -38.835121198451816 -63.7881531138828 0 -63.7881531138828 -43.547721423765324 0 0 0 0 -25.153132929230196 -42.930013792883983 0 -42.930013792883983 -22.456713396018586 0 0 0 0 -25.83374484865999 -43.821283795450654 0 -43.821283795450654 -13.166803016069025 0 0 0 0 -46.903011162910843 -45.932586536255258 0 -45.932586536255258 -12.470352365546205 0 0 0 0 -37.094140457204048 -51.413446655920779 0 -51.413446655920779 -26.434824352741998 0 0 0 0 -1.1821849263502244 3.0521071213793185 0 3.0521071213793185 6.2820694409074633 0 0 0 0 -30.553188860407317 -27.760737615724793 0 -27.760737615724793 -10.977858541940805 0 0 0 0 -18.201643303920719 -28.040214913811724 0 -28.040214913811724 -10.977404791559479 0 0 0 0 -40.336581776891762 -13.006795039101235 0 -13.006795039101235 19.972564778906417 0 0 0 0 -9.4120523706668173 -4.9086472513171699 0 -4.9086472513171699 13.789315979575829 0 0 0 0 -22.352015222569207 -15.94271031735525 0 -15.94271031735525 -17.824634298722231 0 0 0 0 -10.108530821944441 -44.016385777019423 0 -44.016385777019423 -63.47556101894952 0 0 0 0 -11.119265566798276 -40.120756671167328 0 -40.120756671167328 -76.62776748815304 0 0 0 0 -18.443205566201868 -24.918831276696437 0 -24.918831276696437 -73.755779302075098 0 0 0 0 -17.009359360314193 -30.158376949020749 0 -30.158376949020749 -55.598190344426257 0 0 0 0 5.1847375413344707 -38.192816233422491 0 -38.192816233422491 -53.174955957178099 0 0 0 0 -0.65291928453370929 -44.883322555582708 0 -44.883322555582708 -29.067423806073748 0 0 0 0 -13.688372284712386 -30.896736207571848 0 -30.896736207571848 -43.828480372885679 0 0 0 0 -30.030794227412116 -55.176616687480418 0 -55.176616687480418 -23.448112337464408 0 0 0 0 -69.282596987082798 -37.535480106838804 0 -37.535480106838804 -31.289199745722726 0 0 0 0 -39.065323305143465 -61.025055407905256 0 -61.025055407905256 -106.59946457589467 0 0 0 0 -83.156689766001364 -62.803791552831171 0 -62.803791552831171 4.5312290915135236 0 0 0 0 -2.6355107888042895 1.374393739518827 0 1.374393739518827 4.7749334674641126 0 0 0 0 -41.038755481065891 -61.28708266726062 0 -61.28708266726062 -28.590094167620919 0 0 0 0 0.10885468519569486 -4.941539304191096 0 -4.941539304191096 3.1588003710714858 0 0 0 0 -15.446326735150478 -15.884054126255364 0 -15.884054126255364 0.49715945146272134 0 0 0 0 -32.642103565642174 -67.260806933055392 0 -67.260806933055392 -26.318780179280566 0 0 0 0 -48.677231889501854 -30.965597834236178 0 -30.965597834236178 3.2391092403167931 0 0 0 0 -57.988168992011197 -53.112917298190951 0 -53.112917298190951 58.885397970621852 0 0 0 0 -27.23457001080169 -65.910706402191863 0 -65.910706402191863 13.883609052092652 0 0 0 0 -45.01473940681899 -65.936641491238333 0 -65.936641491238333 47.609928645312266 0 0 0 0 -26.349644194175198 -75.080450455301616 0 -75.080450455301616 42.608108811543389 0 0 0 0 -4.5770098223292734 -61.505741994921209 0 -61.505741994921209 2.599285062031413 0 0 0 0 7.3300255622234545 -78.060872639622175 0 -78.060872639622175 23.684535292741202 0 0 0 0 -17.26191131390442 -58.653153772270343 0 -58.653153772270343 3.2686113280269637 0 0 0 0 13.073549444350647 -49.940370208301829 0 -49.940370208301829 -29.664380624278692 0 0 0 0 -45.469878432078985 -59.53958205188701 0 -59.53958205188701 13.038297695200527 0 0 0 0 -18.351150043483358 -48.424810988663012 0 -48.424810988663012 -20.698979172075269 0 0 0 0 27.823721100918192 -33.74774739620625 0 -33.74774739620625 -56.235232789611473 0 0 0 0 39.544669793067442 -53.289605096638297 0 -53.289605096638297 -42.369661717031704 0 0 0 0 9.4108359374149586 -43.76688500144337 0 -43.76688500144337 -27.821346796476064 0 0 0 0 22.644639217956865 -49.44440257489623 0 -49.44440257489623 -38.070976876653731 0 0 0 0 30.586948657779431 -63.34216612219825 0 -63.34216612219825 -16.943448900219664 0 0 0 0 7.1223195652974596 -57.101284668142029 0 -57.101284668142029 2.2483342595151043 0 0 0 0 50.462955567658355 -67.740427561904653 0 -67.740427561904653 -12.455683472150668 0 0 0 0 23.393904421121078 -47.539221690326485 0 -47.539221690326485 -21.668090256735013 0 0 0 0 38.942775605657516 -52.213192499153593 0 -52.213192499153593 -7.358724184352468 0 0 0 0 39.423862603583984 -32.083329062431403 0 -32.083329062431403 -26.238446905572346 0 0 0 0 52.432726274266315 -55.582809857583925 0 -55.582809857583925 -32.619774594646515 0 0 0 0 39.158370548859239 -38.694745833773595 0 -38.694745833773595 -41.662790943370055 0 0 0 0 19.55866243897799 -7.8715707330538862 0 -7.8715707330538862 -33.606985773811175 0 0 0 0 18.45379141993908 -31.927615234580117 0 -31.927615234580117 -62.17170916264331 0 0 0 0 20.093499070404505 -24.685722695776349 0 -24.685722695776349 -46.348929470069379 0 0 0 0 31.816729341418977 -37.869929637097812 0 -37.869929637097812 -39.228733110266603 0 0 0 0 24.177085641094891 -31.690535713340068 0 -31.690535713340068 -58.856502039350744 0 0 0 0 37.427971905999584 -41.892871581671443 0 -41.892871581671443 -59.80507617292642 0 0 0 0 29.747682303885085 -24.851565968686373 0 -24.851565968686373 -79.527054248257627 0 0 0 0 21.570542464345635 -17.4773420845695 0 -17.4773420845695 -86.6314547072609 0 0 0 0 5.4230390252687357 -22.68512380182483 0 -22.68512380182483 -64.466675582472817 0 0 0 0 23.481723124477867 -39.937429669105768 0 -39.937429669105768 -80.486692773210962 0 0 0 0 20.878417603592425 -22.031678284532973 0 -22.031678284532973 -113.5332947797142 0 0 0 0 9.5966211490449496 -32.214030073937465 0 -32.214030073937465 -121.25951573337079 0 0 0 0 26.181280728600541 -24.960997362684793 0 -24.960997362684793 -75.153901247460453 0 0 0 0 9.9580061535234563 10.081924849777351 0 10.081924849777351 -105.07885616379644 0 0 0 0 13.858407087333035 -18.427273406210588 0 -18.427273406210588 -72.280860726383935 0 0 0 0 21.054110272489197 -25.391921492037 0 -25.391921492037 -73.592089236653464 0 0 0 0 28.731335251329256 -38.205800034482365 0 -38.205800034482365 -60.749791642943819 0 0 0 0 22.118710239225493 -35.52472131214995 0 -35.52472131214995 -63.474854523046815 0 0 0 0 14.894254734055721 -37.821791736312662 0 -37.821791736312662 -51.71527762043479 0 0 0 0 4.953704489293159 -34.764981117732532 0 -34.764981117732532 -51.620689767139822 0 0 0 0 12.951282897454803 -27.591094881812751 0 -27.591094881812751 -64.061132633240391 0 0 0 0 1.5255774226316134 -29.744606155493329 0 -29.744606155493329 -48.032774874731331 0 0 0 0 -7.2409868045059795 -1.69606826893909 0 -1.69606826893909 3.8998892394584947 0 0 0 0 -0.90832887694159581 -17.446707434296968 0 -17.446707434296968 -42.915445581819768 0 0 0 0 -6.5500455723285995 -6.0333203106056317 0 -6.0333203106056317 25.85587795810261 0 0 0 0 -18.746369440164926 -28.785883769158204 0 -28.785883769158204 -48.078008335958657 0 0 0 0 16.402150043964866 -8.6101196027598235 0 -8.6101196027598235 -56.589248605329885 0 0 0 0 -3.222161787045458 -6.730906352963629 0 -6.730906352963629 12.954425857493788 0 0 0 0 -27.239338975004102 -20.764670998788006 0 -20.764670998788006 0.62964132610431989 0 0 0 0 -11.91009216344537 -0.10494994369764754 0 -0.10494994369764754 40.459461828701023 0 0 0 0 -64.977980762714651 -41.43325053137869 0 -41.43325053137869 10.470209641265683 0 0 0 0 -3.6725624304926896 -5.2506783960175198 0 -5.2506783960175198 28.469539782028733 0 0 0 0 -3.1789195124656544 -7.0197337676472671 0 -7.0197337676472671 15.89206146871777 0 0 0 0 -5.150349966158501 -9.682691533272191 0 -9.682691533272191 16.837951030478507 0 0 0 0 -5.4319922584818414 -14.417454175159946 0 -14.417454175159946 15.555134469917903 0 0 0 0 -2.0611319047929939 -7.723291744370794 0 -7.723291744370794 11.747040975062568 0 0 0 0 0.82089288378483616 -7.1603707410858988 0 -7.1603707410858988 17.426124697498381 0 0 0 0 -12.606899803008673 6.099725064582799 0 6.099725064582799 -54.287586202641251 0 0 0 0 -4.84996231574587 -7.4305469346409154 0 -7.4305469346409154 34.960107198254263 0 0 0 0 0.38863255898831994 -16.767824062473665 0 -16.767824062473665 39.878953349284984 0 0 0 0 -5.7088584580125001 -1.8230398106609105 0 -1.8230398106609105 -0.85656288962553084 0 0 0 0 -8.4948443647204499 224.12389716557595 0 224.12389716557595 -447.82214575558828 0 0 0 0 7.9400703272040118 -14.661512275590212 0 -14.661512275590212 23.861533193401556 0 0 0 0 19.170450218238329 -14.089095893085073 0 -14.089095893085073 23.641058742603491 0 0 0 0 20.424875279140451 -1.9313182773629478 0 -1.9313182773629478 26.807759594616073 0 0 0 0 -2.5323155395344656 -4.2787287179744453 0 -4.2787287179744453 26.729535637663503 0 0 0 0 1.6230985761176271 -6.6934721398965848 0 -6.6934721398965848 14.010030456816821 0 0 0 0 1.6109444512694608 -12.672782961464691 0 -12.672782961464691 28.133872316526322 0 0 0 0 5.927952723771341 -7.1417230588958773 0 -7.1417230588958773 17.40431701720081 0 0 0 0 -2.3073136964885634 -8.0425965494450793 0 -8.0425965494450793 17.950444684935064 0 0 0 0 -27.637075863665814 -6.7954198060679118 0 -6.7954198060679118 24.406577249325892 0 0 0 0 -0.73644646460525109 -5.4555536969830882 0 -5.4555536969830882 10.353143117781656 0 0 0 0 46.812767803206953 -125.71529375471073 0 -125.71529375471073 -275.60605375659725 0 0 0 0 -44.520699980183053 -13.660331916752511 0 -13.660331916752511 54.519944579002185 0 0 0 0 -28.284524872376551 -4.5220844474151818 0 -4.5220844474151818 17.735635702221771 0 0 0 0 -2.4932008416361526 -0.91122960054332047 0 -0.91122960054332047 -0.300109613217308 0 0 0 0 1.0825840473698918 6.7400541737515596 0 6.7400541737515596 28.822714370668109 0 0 0 0 9.4428120291995583 6.5273052221764374 0 6.5273052221764374 28.734280052540271 0 0 0 0 0.37686783068056684 -138.70121781127091 0 -138.70121781127091 -274.99380693076455 0 0 0 0 -31.773022598732496 -176.53458417012007 0 -176.53458417012007 -245.28130957393842 0 0 0 0 -87.053688861582486 -30.865626388645978 0 -30.865626388645978 63.801654190852787 0 0 0 0 28.196614695464405 -15.969369728086917 0 -15.969369728086917 -18.095873389789631 0 0 0 0 -168.09858199378868 -4.1856725506549992 0 -4.1856725506549992 -50.198647093431646 0 0 0 0 -0.57893374190134494 -0.87401833154403263 0 -0.87401833154403263 -1.4352792407953814 0 0 0 0 30.725325259573538 -58.845624481768112 0 -58.845624481768112 -250.22180807183031 0 0 0 0 -38.419491939232103 96.976840305173027 0 96.976840305173027 -117.26080718607045 0 0 0 0 -94.036655075447925 -97.713977827925191 0 -97.713977827925191 -230.44194838399108 0 0 0 0 -10.044658317114227 -40.763858540918591 0 -40.763858540918591 -124.9693059060819 0 0 0 0 -59.496694772158662 -29.617727951722372 0 -29.617727951722372 -101.83301650739304 0 0 0 0 -42.754420624216436 -12.49513631901209 0 -12.49513631901209 -49.288150758822667 0 0 0 0 -11.467375257787353 -23.003780663144425 0 -23.003780663144425 -84.216836019320908 0 0 0 0 -34.198897912996472 -37.907527011941056 0 -37.907527011941056 -93.987333610080896 0 0 0 0 -31.437301127412866 -30.334362514595568 0 -30.334362514595568 -104.85985249219448 0 0 0 0 -15.096550695889164 -41.214726393034653 0 -41.214726393034653 -81.097166541931983 0 0 0 0 -101.66324815478583 38.219936414840049 0 38.219936414840049 -25.737954931420973 0 0 0 0 -103.43470987831824 -50.558759806217495 0 -50.558759806217495 -73.122639100076412 0 0 0 0 -85.307188392351236 23.857593927354174 0 23.857593927354174 -24.368996244089431 0 0 0 0 -19.610577278923301 26.996114087873138 0 26.996114087873138 -24.24651282933587 0 0 0 0 -27.522296784933133 -15.493654342380978 0 -15.493654342380978 -48.701103331251034 0 0 0 0 -20.292050509931869 -8.8396630005172483 0 -8.8396630005172483 -42.602942657646054 0 0 0 0 10.515708858663857 -16.109479141803604 0 -16.109479141803604 -40.943163502486641 0 0 0 0 -31.267883738823002 14.153878259798148 0 14.153878259798148 -25.992849540063617 0 0 0 0 3.6562976487730339 1.2579747006348043 0 1.2579747006348043 -22.076811492006527 0 0 0 0 -46.026965566725266 37.66232180118277 0 37.66232180118277 -24.367313834371089 0 0 0 0 -3.6694366346309835 35.841973190561475 0 35.841973190561475 -30.754256187070496 0 0 0 0 -39.052353291130203 51.702141907611349 0 51.702141907611349 -22.356216468979255 0 0 0 0 -62.459390453634114 64.193443583152657 0 64.193443583152657 -28.089786467671729 0 0 0 0 -113.41210531008073 16.375052946223605 0 16.375052946223605 1.6580742799706059 0 0 0 0 -2.199118177712073 -1.9028895301747752 0 -1.9028895301747752 1.1207107753901031 0 0 0 0 7.9951110231304483 1.5631570596833626 0 1.5631570596833626 74.857637044056901 0 0 0 0 -47.070506152132992 9.7677445931003319 0 9.7677445931003319 -5.9154311775128008 0 0 0 0 -1.0944025221164004 -3.5282515929983784 0 -3.5282515929983784 -2.0277656470191694 0 0 0 0 -48.068938706019253 46.471006651021526 0 46.471006651021526 -26.678377840715825 0 0 0 0 -47.859592898785195 45.819819794276555 0 45.819819794276555 -25.72938419577622 0 0 0 0 -38.271625304470945 29.956514323996089 0 29.956514323996089 -3.0843249587996979 0 0 0 0 -89.827620952441066 46.041391171705982 0 46.041391171705982 50.167055941756644 0 0 0 0 -96.627902710850321 31.513070616020741 0 31.513070616020741 22.997412340202573 0 0 0 0 -55.497103439975035 57.171952482613051 0 57.171952482613051 -52.804380488129937 0 0 0 0 -107.56869815552272 57.169543505694492 0 57.169543505694492 8.3355667868891032 0 0 0 0 -66.568267772410763 14.945488586497959 0 14.945488586497959 -48.491449373056639 0 0 0 0 -40.479270687974349 51.938469899787378 0 51.938469899787378 3.2852898624259979 0 0 0 0 -25.107526453135506 24.550318213407081 0 24.550318213407081 -12.665304525737156 0 0 0 0 37.856306570050947 43.252157693010304 0 43.252157693010304 -10.514871426339596 0 0 0 0 23.949432996392716 1.5330424445082826 0 1.5330424445082826 -5.6514252279057473 0 0 0 0 27.994683200689906 17.23759861691542 0 17.23759861691542 -16.905188053024176 0 0 0 0 101.49459721812855 21.17234907689226 0 21.17234907689226 -8.2988252304967318 0 0 0 0 45.930285274451307 52.355612467197716 0 52.355612467197716 11.400633666108661 0 0 0 0 -28.894550594499378 45.773493572118241 0 45.773493572118241 19.877161268261261 0 0 0 0 30.036760436338227 19.216920852315525 0 19.216920852315525 29.631745159785169 0 0 0 0 153.64581626298423 56.745565660090506 0 56.745565660090506 22.763261815469377 0 0 0 0 55.450490208066185 36.15583059677374 0 36.15583059677374 87.241364027851887 0 0 0 0 65.133296870815684 92.998244631283342 0 92.998244631283342 49.886762185396947 0 0 0 0 -81.728468122457343 69.394970942446889 0 69.394970942446889 72.588871460806331 0 0 0 0 -113.32773507454112 18.086081081070006 0 18.086081081070006 44.378594038589881 0 0 0 0 -121.65369753433151 17.807925414816509 0 17.807925414816509 69.433421248968443 0 0 0 0 -151.72623135757385 77.375404731760682 0 77.375404731760682 -14.707931014287169 0 0 0 0 8.1188847862502325 -15.51497275793368 0 -15.51497275793368 18.185513941539938 0 0 0 0 -366.02952824285057 -110.86412659826146 0 -110.86412659826146 8.2347133680323168 0 0 0 0 -294.36786712516368 -67.238647168577472 0 -67.238647168577472 22.053880528837908 0 0 0 0 -84.354816406081227 -119.1538748516241 0 -119.1538748516241 53.074057198031369 0 0 0 0 -151.20096705838296 51.448596355151494 0 51.448596355151494 183.56811850017584 0 0 0 0 -82.094241970884468 -108.18492914152648 0 -108.18492914152648 -81.625498695346778 0 0 0 0 -268.70125888737675 -178.47358695834146 0 -178.47358695834146 179.0819342402865 0 0 0 0 -60.625889381732122 -73.790560910257682 0 -73.790560910257682 -45.155820558823507 0 0 0 0 451.69654230196011 -12.046535040347408 0 -12.046535040347408 -141.88887889023317 0 0 0 0 21.722311620251276 -145.54752257988412 0 -145.54752257988412 -49.753753567764534 0 0 0 0 198.35055196772737 -319.27051935036388 0 -319.27051935036388 186.46817778096465 0 0 0 0 -10.838081559933926 38.406883477483461 0 38.406883477483461 383.53583333662391 0 0 0 0 398.49344541809671 112.73786475941012 0 112.73786475941012 79.620238041443372 0 0 0 0 420.91108069079644 -291.51766199247254 0 -291.51766199247254 213.84253149430515 0 0 0 0 41.647539803809195 -140.33107100753568 0 -140.33107100753568 458.85783276234451 0 0 0 0 4.3000487141618819 -1.0699584446046195 0 -1.0699584446046195 0.39713448071946189 0 0 0 0 36.846595215491107 245.3562079553908 0 245.3562079553908 -211.56979608222514 0 0 0 0 70.539966341031686 242.5671725852244 0 242.5671725852244 -314.80599565525864 0 0 0 0 204.57381106387766 200.17310352776894 0 200.17310352776894 81.597491909763448 0 0 0 0 -2.2483229351983027 -3.6136221819378989 0 -3.6136221819378989 -113.12840171262792 0 0 0 0 42.860433415502484 50.823446603159027 0 50.823446603159027 -54.450434593449245 0 0 0 0 55.023284955386771 50.358791019882574 0 50.358791019882574 -334.51484258640176 0 0 0 0 55.683750787171448 -34.283121733840744 0 -34.283121733840744 9.7569470601993089 0 0 0 0 11.251007770694208 -4.5575703605549407 0 -4.5575703605549407 -0.3187098060575666 0 0 0 0 227.72311925586473 -72.325179505724918 0 -72.325179505724918 -252.38071247284643 0 0 0 0 8.8075486890538741 -6.9117919172158508 0 -6.9117919172158508 58.388675013771717 0 0 0 0 -27.965337112726047 2.2578502732321795 0 2.2578502732321795 177.37850868375972 0 0 0 0 15.037665545260097 -112.81505249823385 0 -112.81505249823385 181.75599567139398 0 0 0 0 44.180568050178408 -167.32682162218498 0 -167.32682162218498 275.50449630453022 0 0 0 0 90.906601666645656 -88.859492094308735 0 -88.859492094308735 45.044971877758144 0 0 0 0 39.812644338474456 -139.19295328813064 0 -139.19295328813064 188.85712594543111 0 0 0 0 49.878918081325992 -176.20946996654504 0 -176.20946996654504 196.38031601921466 0 0 0 0 8.8490496892700321 -140.29386284664133 0 -140.29386284664133 187.27470164153601 0 0 0 0 54.575659316291421 -117.06518471980871 0 -117.06518471980871 95.05419179200544 0 0 0 0 43.421704504875379 -105.78545412662606 0 -105.78545412662606 113.57666636332306 0 0 0 0 86.946831958754046 -149.28723434494805 0 -149.28723434494805 137.27299917531855 0 0 0 0 77.326211369996599 -126.47993094546564 0 -126.47993094546564 120.39303777517853 0 0 0 0 171.75733810826205 -188.29553990268323 0 -188.29553990268323 157.88406018928436 0 0 0 0 163.9124523982864 -112.65983611056799 0 -112.65983611056799 93.008063072826189 0 0 0 0 129.09183629531253 -105.13001058316695 0 -105.13001058316695 95.749674132076279 0 0 0 0 204.2427782787081 -57.529110688509263 0 -57.529110688509263 13.863276253518052 0 0 0 0 140.86921032867394 -115.026294743172 0 -115.026294743172 71.350122550946253 0 0 0 0 91.358570960048382 -81.058300311357016 0 -81.058300311357016 25.52865342853147 0 0 0 0 75.754170443166004 -73.026967644334718 0 -73.026967644334718 48.886788871368481 0 0 0 0 102.38139235446579 -37.356236508870097 0 -37.356236508870097 -9.0577179247193271 0 0 0 0 72.682189395626665 -19.972398933806744 0 -19.972398933806744 10.248329926902443 0 0 0 0 47.524202363074437 -25.688918555772034 0 -25.688918555772034 -25.78099508262676 0 0 0 0 67.91707346738076 -50.626203150217407 0 -50.626203150217407 -18.21894582762252 0 0 0 0 46.935711815825925 -20.601921649785254 0 -20.601921649785254 -9.8106002480417374 0 0 0 0 71.737357385018186 -76.229826940234943 0 -76.229826940234943 4.6129334516663221 0 0 0 0 57.466743922781461 -49.14841444814374 0 -49.14841444814374 2.2261929272117413 0 0 0 0 57.232468695554417 -91.076355882754797 0 -91.076355882754797 31.822469364031349 0 0 0 0 25.179584693516517 -70.813370172836585 0 -70.813370172836585 23.153014979759973 0 0 0 0 31.925625778272661 -75.786399746430106 0 -75.786399746430106 12.698004334835787 0 0 0 0 8.8360266252220754 -94.367053735960326 0 -94.367053735960326 58.39051386515348 0 0 0 0 31.807730735721634 -120.11767810338802 0 -120.11767810338802 83.603446352215542 0 0 0 0 22.018571009928564 -94.66471093022551 0 -94.66471093022551 80.695790063047752 0 0 0 0 93.149294579478919 -108.63989000421725 0 -108.63989000421725 55.342005296148272 0 0 0 0 43.717279328830045 -74.543503067635356 0 -74.543503067635356 38.008252139818069 0 0 0 0 -71.322651048594707 -101.48384482291658 0 -101.48384482291658 113.12250661482631 0 0 0 0 -24.024646238535752 -90.546936674075369 0 -90.546936674075369 73.531302623016018 0 0 0 0 -10.818331754817336 -88.232218857016051 0 -88.232218857016051 59.753177172016876 0 0 0 0 -4.2911499456922684 -105.13669987558387 0 -105.13669987558387 74.558196618578222 0 0 0 0 -7.201601376364124 -71.360819041168725 0 -71.360819041168725 25.50342217907064 0 0 0 0 -77.693548831419321 -55.407625926617584 0 -55.407625926617584 106.6943894647402 0 0 0 0 -39.578188762556238 -80.355347119293583 0 -80.355347119293583 68.18003469477344 0 0 0 0 -70.447120112835364 -92.672519535448259 0 -92.672519535448259 145.17880658850481 0 0 0 0 -114.18052609677761 -95.616869486322685 0 -95.616869486322685 145.34150993393769 0 0 0 0 -138.72342387757635 -112.77773297013391 0 -112.77773297013391 136.59330713238705 0 0 0 0 -108.93615426393808 -81.18238069965264 0 -81.18238069965264 107.31595120083148 0 0 0 0 -143.41964074682255 -109.40976128130842 0 -109.40976128130842 166.34888957927387 0 0 0 0 -60.985981136280316 -144.10918601940375 0 -144.10918601940375 143.23148484077865 0 0 0 0 -10.813153530991258 -117.28938300708069 0 -117.28938300708069 117.21030204495537 0 0 0 0 -14.069168991671177 -102.80898772382079 0 -102.80898772382079 132.42946940891397 0 0 0 0 -237.78602045793286 -44.062180559845046 0 -44.062180559845046 138.52591045880763 0 0 0 0 178.52729882353742 -177.27203429552537 0 -177.27203429552537 127.76784461996249 0 0 0 0 113.80440582417941 26.743541573060384 0 26.743541573060384 -15.749356387821535 0 0 0 0 75.2585080409699 -67.488558304397884 0 -67.488558304397884 -59.058138835736827 0 0 0 0 0.24021618061291505 0.037176859399565387 0 0.037176859399565387 0.35764229083858012 0 0 0 0 4.0283552803880944 -3.3381977680924138 0 -3.3381977680924138 1.7494102705392685 0 0 0 0 -40.429865925539161 -16.891253218601605 0 -16.891253218601605 15.259800809684748 0 0 0 0 19.885108980852237 -19.653077692203169 0 -19.653077692203169 -8.6962379253964173 0 0 0 0 23.307171508393367 -21.952659004428824 0 -21.952659004428824 -6.174323580321925 0 0 0 0 12.917720061741544 -11.219557406161858 0 -11.219557406161858 6.2685536704430023 0 0 0 0 -133.56544859879796 -130.57722034566359 0 -130.57722034566359 -76.720843560598951 0 0 0 0 31.093300653908955 -22.49694538058111 0 -22.49694538058111 -14.510462537549003 0 0 0 0 4.0909748122123126 -2.7465990859368219 0 -2.7465990859368219 -1.890602865146306 0 0 0 0 -98.095843498696922 -144.08750516289274 0 -144.08750516289274 -86.2996315341843 0 0 0 0 -140.73421222565594 -104.33853260578326 0 -104.33853260578326 -92.089199894366061 0 0 0 0 -311.37243038545967 -160.59207596589113 0 -160.59207596589113 47.933450263994018 0 0 0 0 -0.22236663476616769 -0.065919530948836069 0 -0.065919530948836069 0.43657384292732715 0 0 0 0 -160.55911120947349 -179.36551747393969 0 -179.36551747393969 33.178448903488061 0 0 0 0 -150.00714329781113 -86.505466873977298 0 -86.505466873977298 109.83992455718726 0 0 0 0 -85.440446180065919 -165.81519537207987 0 -165.81519537207987 -1.7711314831376512 0 0 0 0 -48.96134997788613 -197.63098849979815 0 -197.63098849979815 123.0842987092492 0 0 0 0 -82.785228259716519 -120.75773104147049 0 -120.75773104147049 6.9901024468508695 0 0 0 0 -127.64354863621338 -137.09316326559019 0 -137.09316326559019 -21.272995861947493 0 0 0 0 -73.459964247223979 -177.90881604836613 0 -177.90881604836613 -80.953973845808832 0 0 0 0 -97.946177073319291 -140.85081165333932 0 -140.85081165333932 -124.70022035541842 0 0 0 0 -48.566271707888518 -192.01904559107061 0 -192.01904559107061 -36.846500487044977 0 0 0 0 -69.618699796424153 -145.06992443376504 0 -145.06992443376504 -117.78940589940976 0 0 0 0 -81.667664710726967 -159.90516493815721 0 -159.90516493815721 -116.1362213314078 0 0 0 0 -33.004955688404152 -162.6841304603995 0 -162.6841304603995 -170.21400991662995 0 0 0 0 -69.11415796745132 -164.13921169014793 0 -164.13921169014793 -167.34682522940057 0 0 0 0 -0.13458854374221119 -176.47129816034703 0 -176.47129816034703 -96.076111444773233 0 0 0 0 -20.548514752554183 -125.93851478857323 0 -125.93851478857323 -176.94834660592778 0 0 0 0 -33.652667392103467 -179.98312327606072 0 -179.98312327606072 -128.90346931611748 0 0 0 0 -36.061853198862082 -147.15986989888552 0 -147.15986989888552 -184.99557195306261 0 0 0 0 -30.872788883978501 -146.07641751973279 0 -146.07641751973279 -98.357013538743558 0 0 0 0 -44.377154784797312 -175.52119907665428 0 -175.52119907665428 22.120200356275745 0 0 0 0 -21.821345969063259 -118.25937006611093 0 -118.25937006611093 48.403532462044495 0 0 0 0 0.38086146182652542 -216.76853239677291 0 -216.76853239677291 182.57903104896832 0 0 0 0 -118.79650010885234 -146.82356795077567 0 -146.82356795077567 428.87683070873209 0 0 0 0 -82.216345088221715 -65.656767946029504 0 -65.656767946029504 172.86282306524345 0 0 0 0 -105.08371590895877 -127.16844378858877 0 -127.16844378858877 143.66351546155965 0 0 0 0 -149.72620171721655 -71.673329325301097 0 -71.673329325301097 223.55286169972896 0 0 0 0 -71.593651448547462 0.84356596764973801 0 0.84356596764973801 150.93171815762344 0 0 0 0 -80.134425428619352 -45.801926396296096 0 -45.801926396296096 110.38947719730641 0 0 0 0 0.37810062717220205 -0.72049958820748117 0 -0.72049958820748117 1.5594702454570566 0 0 0 0 -0.89708411709310287 -117.83650045975122 0 -117.83650045975122 74.869298394449288 0 0 0 0 15.030635864277428 163.48055802296039 0 163.48055802296039 420.06486602442567 0 0 0 0 6.3076224819596973 -10.887877031526386 0 -10.887877031526386 -3.9199401692867468 0 0 0 0 4.9838519306804301 -7.4462840764153952 0 -7.4462840764153952 -3.4086967590428685 0 0 0 0 6.4595662515948788 -5.7773257749722688 0 -5.7773257749722688 -1.6710771899888641 0 0 0 0 2.6102831858424906 -13.653187753747261 0 -13.653187753747261 -8.3485415842478687 0 0 0 0 0.23328537384280068 -6.1032354076434814 0 -6.1032354076434814 -0.50362389243619265 0 0 0 0 -4.7933331538365564 -10.780257685505603 0 -10.780257685505603 -3.7207964332828851 0 0 0 0 -0.2024060075136731 -5.6822569489402213 0 -5.6822569489402213 -7.9487368074333062 0 0 0 0 -4.2655445904383669 -9.0116792408880428 0 -9.0116792408880428 17.304756086718839 0 0 0 0 0.065570939261146322 -0.22534039699050012 0 -0.22534039699050012 0.23203404388951832 0 0 0 0 -36.820815672127537 34.620541317784955 0 34.620541317784955 -49.367198481924788 0 0 0 0 -4.4949804553871218 -12.229875842569527 0 -12.229875842569527 -3.7203034109952569 0 0 0 0 4.9583068376344883 -3.2283112509174217 0 -3.2283112509174217 -0.38742887899024936 0 0 0 0 5.3182828403187159 -4.1328667108682566 0 -4.1328667108682566 -10.754843750255532 0 0 0 0 -0.27959859321493141 -1.5146804672406931 0 -1.5146804672406931 1.5565821309668522 0 0 0 0 0.5316956054601647 -6.2293953421123449 0 -6.2293953421123449 0.76165670861452028 0 0 0 0 1.8009687624507933 -10.518411447987091 0 -10.518411447987091 -8.0733444691434215 0 0 0 0 1.411598439417503 -4.7952783402233763 0 -4.7952783402233763 -4.7354717774360324 0 0 0 0 1.0597307130174158 -8.3093172856561068 0 -8.3093172856561068 -1.9108004076688303 0 0 0 0 2.4851136226266917 -4.4070992429502436 0 -4.4070992429502436 1.0829784582957078 0 0 0 0 2.5605068536951876 -8.6035929909121478 0 -8.6035929909121478 -5.5176748826561379 0 0 0 0 2.5635369987290382 -6.7968226391486235 0 -6.7968226391486235 -6.5350174196735296 0 0 0 0 6.4955470697177589 -5.7655229388719818 0 -5.7655229388719818 -6.5204886518291119 0 0 0 0 6.6903861761375083 -8.5076160694770806 0 -8.5076160694770806 -5.6651072985641804 0 0 0 0 -0.63343395012952897 -5.4019014252262423 0 -5.4019014252262423 -4.1609540023400768 0 0 0 0 1.8941949596477059 -4.3791461791915047 0 -4.3791461791915047 -1.1859878867926366 0 0 0 0 3.0849138367929569 -4.3019627022824221 0 -4.3019627022824221 -4.3515487210158099 0 0 0 0 14.707901007056599 -5.1499846594958854 0 -5.1499846594958854 -18.413783855898146 0 0 0 0 0.19040729805185075 -0.60022883306720498 0 -0.60022883306720498 0.45276977026069076 0 0 0 0 8.7523589082170474 2.556940822089814 0 2.556940822089814 -24.611386903066887 0 0 0 0 10.596873290233816 -6.1980851150231047 0 -6.1980851150231047 2.4333817798942619 0 0 0 0 1.4272218216483452 -4.5226359387779667 0 -4.5226359387779667 -2.4016104579077364 0 0 0 0 5.7360969413651963 -2.6107308187868234 0 -2.6107308187868234 -3.5303810720318554 0 0 0 0 0.3594029307787423 -5.6619381429627538 0 -5.6619381429627538 -6.2033500418328913 0 0 0 0 -0.97748409434074901 -7.1347735887905817 0 -7.1347735887905817 -2.3059822391176801 0 0 0 0 5.7722618308648412 -3.1742108574665853 0 -3.1742108574665853 -3.3467284395224155 0 0 0 0 39.374825580054676 -14.384832552559601 0 -14.384832552559601 -30.042317504409766 0 0 0 0 10.666461231248832 -30.118351400051324 0 -30.118351400051324 34.258858991505804 0 0 0 0 0.26636071941244843 0.21780300447622025 0 0.21780300447622025 -0.16524448801262936 0 0 0 0 8.8853496492067734 0.73867966760735726 0 0.73867966760735726 -0.82589594558157842 0 0 0 0 34.535612341241176 3.6362413125698367 0 3.6362413125698367 3.1573725059297431 0 0 0 0 48.208190626792543 -29.465987894729096 0 -29.465987894729096 0.47278700395690976 0 0 0 0 21.063058960676244 -17.706538049224037 0 -17.706538049224037 -4.6076532276601938 0 0 0 0 25.203617739148285 -30.659196336528112 0 -30.659196336528112 1.2629055487886944 0 0 0 0 9.1743796862665477 -39.67538390180016 0 -39.67538390180016 5.5395146249356912 0 0 0 0 4.4107165070668088 -23.679789350114334 0 -23.679789350114334 -1.0430382397462381 0 0 0 0 14.175937445347699 -15.261559035623577 0 -15.261559035623577 -5.8739641872481343 0 0 0 0 26.49125583731302 -9.5258608453632405 0 -9.5258608453632405 -10.322287583774596 0 0 0 0 16.272918706535165 -17.826474140892969 0 -17.826474140892969 -3.9226554806482454 0 0 0 0 41.119747098028029 -18.309847003634786 0 -18.309847003634786 -0.61406048393860146 0 0 0 0 2.239554714290799 -6.0066504748143199 0 -6.0066504748143199 -1.3810086943186839 0 0 0 0 -24.675153406262325 14.410698642381249 0 14.410698642381249 4.2620171359849337 0 0 0 0 2.2288369415214895 -4.4678484722669989 0 -4.4678484722669989 -0.70486243586286434 0 0 0 0 8.2274194912824896 -6.9868658772466006 0 -6.9868658772466006 -1.1620774704497308 0 0 0 0 3.9918957774060821 -5.8465274150745117 0 -5.8465274150745117 -3.1481030782167405 0 0 0 0 0.42148641881885851 -4.6533303705746221 0 -4.6533303705746221 -1.6961837017151993 0 0 0 0 2.295751882440527 -3.3625396126371925 0 -3.3625396126371925 -0.99787648990604794 0 0 0 0 -0.098214928978373806 -4.854199891323983 0 -4.854199891323983 -2.4047437696014136 0 0 0 0 6.0595098715293716 -4.5794636998762144 0 -4.5794636998762144 10.559710373621783 0 0 0 0 2.357342125021308 -3.4234361909181636 0 -3.4234361909181636 -1.5896523562341471 0 0 0 0 -1.0630103466578245 -1.6480505434602879 0 -1.6480505434602879 -0.052564773776735407 0 0 0 0 8.5308032516650201 -2.5761038251912396 0 -2.5761038251912396 -3.4971042045908689 0 0 0 0 -11.325646242022231 -26.281273052692995 0 -26.281273052692995 8.3552160840845318 0 0 0 0 52.454499849665808 -10.9455800121832 0 -10.9455800121832 -45.377457769012835 0 0 0 0 6.2103897305483997 -28.276253421565343 0 -28.276253421565343 7.2906221169760101 0 0 0 0 7.8451141130783526 -7.7242644483610547 0 -7.7242644483610547 -3.5840393343223695 0 0 0 0 3.322459151922871 -7.2533383531348905 0 -7.2533383531348905 -2.1929558907442583 0 0 0 0 2.5596801944410394 -1.6242874827210816 0 -1.6242874827210816 -0.022306767446551135 0 0 0 0 -5.8675391886159787 -18.085877630897812 0 -18.085877630897812 1.7036914964537573 0 0 0 0 42.109778501898973 1.8686207084642774 0 1.8686207084642774 -3.4762510515065514 0 0 0 0 -0.32849965440163942 -7.6039260491056666 0 -7.6039260491056666 -6.4443011559196748 0 0 0 0 8.9135464180817507 -1.5646710528999392 0 -1.5646710528999392 -12.937890178815906 0 0 0 0 17.891142930885508 -3.4181844147042284 0 -3.4181844147042284 -13.447069074260071 0 0 0 0 12.81080798379935 -8.7143566644117527 0 -8.7143566644117527 -9.7200912309308478 0 0 0 0 10.68849281734083 -6.9512705435536191 0 -6.9512705435536191 -11.152172659498319 0 0 0 0 7.3223504168740874 -14.245907800979694 0 -14.245907800979694 -5.8344974276597554 0 0 0 0 8.5085279823431534 -3.1184001845061893 0 -3.1184001845061893 -2.8722146398230652 0 0 0 0 5.4351018762286003 -5.6592550954728722 0 -5.6592550954728722 -9.0254846946918406 0 0 0 0 10.334825489092054 -6.3932199816044886 0 -6.3932199816044886 -10.606089819446424 0 0 0 0 22.052620968885094 -7.9538394119208533 0 -7.9538394119208533 -5.1152920366694161 0 0 0 0 7.2532893427769523 -10.372949214066466 0 -10.372949214066466 2.2239545664597244 0 0 0 0 17.498310939429757 -2.8226530755528074 0 -2.8226530755528074 -10.363807289063516 0 0 0 0 25.546496435727022 -17.139022524879692 0 -17.139022524879692 0.9418477948565851 0 0 0 0 18.542249175179677 -10.881240060300115 0 -10.881240060300115 -3.3408925546318642 0 0 0 0 4.9250718344768192 -4.532613625690832 0 -4.532613625690832 -2.1748402106560363 0 0 0 0 14.981075550906553 -2.0634634371053835 0 -2.0634634371053835 -1.6421982841566205 0 0 0 0 4.3217508042733748 -4.9364311472009454 0 -4.9364311472009454 0.60229829112100219 0 0 0 0 4.8805023094823072 -2.7255265278141874 0 -2.7255265278141874 -3.935748181514036 0 0 0 0 14.989481636232895 -3.0620688604253417 0 -3.0620688604253417 -2.5659608972273418 0 0 0 0 3.996593518599866 -8.0082757410898466 0 -8.0082757410898466 -3.859353666764946 0 0 0 0 0.48780760972022108 -11.405287118499473 0 -11.405287118499473 -5.3051834727144751 0 0 0 0 2.4014176310204736 -5.6265332364564955 0 -5.6265332364564955 -0.014175035352192111 0 0 0 0 11.569980445896471 -3.108451814984825 0 -3.108451814984825 -5.1788046162501953 0 0 0 0 6.0175198885444843 -7.1806618609698489 0 -7.1806618609698489 -3.7164601906706594 0 0 0 0 -0.70745543957764312 -14.206392300499829 0 -14.206392300499829 -2.1033840909512946 0 0 0 0 1.2912148232165563 -7.275412325862078 0 -7.275412325862078 -3.7633657739935007 0 0 0 0 2.9403424621286831 -6.7781966972706869 0 -6.7781966972706869 -3.1569465386819502 0 0 0 0 -11.18314661990371 -0.94030907066553482 0 -0.94030907066553482 -16.611726224873564 0 0 0 0 1.0022230235494902 -8.3265717466048272 0 -8.3265717466048272 -4.3559635859282935 0 0 0 0 3.940510592112604 -7.0211397751610232 0 -7.0211397751610232 -4.8540057828078886 0 0 0 0 6.3101901201052897 -10.822189119890027 0 -10.822189119890027 -6.261852180105052 0 0 0 0 1.775003005431536 -3.7633524740418149 0 -3.7633524740418149 -4.7101861980968494 0 0 0 0 1.079165236071276 -23.647751107533622 0 -23.647751107533622 18.057608645967775 0 0 0 0 7.2162352676095907 -26.459012421148145 0 -26.459012421148145 13.222542856088694 0 0 0 0 11.712910446323804 -18.449441110837142 0 -18.449441110837142 -7.1726483067977824 0 0 0 0 2.685984882125922 -17.159562393993838 0 -17.159562393993838 3.2289160415384686 0 0 0 0 1.8156815080442357 -19.667356667994227 0 -19.667356667994227 14.4764856353504 0 0 0 0 27.622297111753142 -55.041553619026672 0 -55.041553619026672 44.010332174148061 0 0 0 0 3.3872435956000118 -8.2611484920253133 0 -8.2611484920253133 -2.3389272603712925 0 0 0 0 4.2992143372060063 -4.438944699021512 0 -4.438944699021512 0.20401307155658088 0 0 0 0 12.421377745145946 -24.075874969138567 0 -24.075874969138567 0.51132359469193034 0 0 0 0 3.4108557462095632 -6.1084665271264385 0 -6.1084665271264385 -17.127020620473559 0 0 0 0 7.4873765039337741 -13.292206356149109 0 -13.292206356149109 -11.965667006534204 0 0 0 0 6.0790684325847906 -16.575655102685005 0 -16.575655102685005 -7.0142986241007748 0 0 0 0 6.2396690385855891 -17.029338390102112 0 -17.029338390102112 -4.1467072015911981 0 0 0 0 4.639664681526483 -10.497955438955614 0 -10.497955438955614 -14.474073358758687 0 0 0 0 5.3395089131190616 -7.6852242265777022 0 -7.6852242265777022 -17.921645578668176 0 0 0 0 8.128335102102028 -12.982113589730034 0 -12.982113589730034 -7.1745161410508445 0 0 0 0 1.054673031587523 -5.7511894617670158 0 -5.7511894617670158 -5.0055041776765599 0 0 0 0 2.3176054948653473 -11.181662611112188 0 -11.181662611112188 -14.587633496747003 0 0 0 0 0.31344791770516167 -8.442228616065222 0 -8.442228616065222 -17.746521906701673 0 0 0 0 2.3724523096989287 -11.44149455790739 0 -11.44149455790739 -4.413161909333212 0 0 0 0 3.5134037709044605 -10.42335314656566 0 -10.42335314656566 -3.7655831953070447 0 0 0 0 0.34190459315446731 -7.1555973348526827 0 -7.1555973348526827 -3.9552684217777667 0 0 0 0 0.78063529588143865 -8.7253207998842299 0 -8.7253207998842299 -8.895018212035211 0 0 0 0 17.599697539786575 -18.486606984838545 0 -18.486606984838545 -13.147266261139521 0 0 0 0 1.3708693168705661 -6.9895874078620608 0 -6.9895874078620608 -2.5886411735785551 0 0 0 0 3.646490343799087 -21.529308009274246 0 -21.529308009274246 5.7807788044035533 0 0 0 0 1.3409644157462992 -3.0459830026224815 0 -3.0459830026224815 -2.5085284753597872 0 0 0 0 26.052338432620672 -1.5277470891205667 0 -1.5277470891205667 3.7948089259061817 0 0 0 0 0.31400008462878759 -13.493711815197457 0 -13.493711815197457 2.8726033119291969 0 0 0 0 -3.6789188354960061 -4.7314168739285378 0 -4.7314168739285378 6.4178270198917744 0 0 0 0 0.66505411127036496 -13.478801317033685 0 -13.478801317033685 0.38923870034341235 0 0 0 0 -2.3759975497323467 -9.0039825402809583 0 -9.0039825402809583 -4.0291527100644089 0 0 0 0 -21.202780471085134 -24.293714430931686 0 -24.293714430931686 10.872632594574043 0 0 0 0 -67.444708012335468 -49.653483527113167 0 -49.653483527113167 -2.9231441001911662 0 0 0 0 -18.189370547994258 -33.19188176896705 0 -33.19188176896705 -7.6354763909707799 0 0 0 0 2.9213109878468799 -36.819486544595065 0 -36.819486544595065 -19.567284819193446 0 0 0 0 2.013629130748086 -27.867176723163084 0 -27.867176723163084 -20.94721221744112 0 0 0 0 11.139131850119156 -18.544698813010655 0 -18.544698813010655 -14.576601601755101 0 0 0 0 19.442324732544876 -22.838411428338077 0 -22.838411428338077 -29.72341624335786 0 0 0 0 2.4177327401557704 -32.131206165014646 0 -32.131206165014646 -46.676576477286289 0 0 0 0 -76.714562710701102 -150.44635126085529 0 -150.44635126085529 -213.70463574199857 0 0 0 0 -84.502295160811627 -45.821242309501031 0 -45.821242309501031 28.721225865936503 0 0 0 0 -53.439507211063756 50.201812012259325 0 50.201812012259325 135.26488822082911 0 0 0 0 -170.45983161895492 -132.44514798755336 0 -132.44514798755336 89.244442855722809 0 0 0 0 49.772140113669593 107.37217333377248 0 107.37217333377248 -155.61784754429345 0 0 0 0 26.26520984005947 -16.313901299529789 0 -16.313901299529789 -29.504445667048913 0 0 0 0 2.7719681916509629 -1.47568224668764 0 -1.47568224668764 -0.47418285958411754 0 0 0 0 -9.1132837787608878 -10.045406852777887 0 -10.045406852777887 9.9884479775892032 0 0 0 0 1.2604804578286348 64.019949788045778 0 64.019949788045778 53.713002232411782 0 0 0 0 4.9312625618536003 -4.7502106472390118 0 -4.7502106472390118 0.85206708027679845 0 0 0 0 11.364971525079454 -9.3645958047236491 0 -9.3645958047236491 -20.089840780848135 0 0 0 0 13.304421697135695 -3.7842344827331544 0 -3.7842344827331544 -18.512467661792471 0 0 0 0 -0.8949419584023417 -7.7807579240388804 0 -7.7807579240388804 -3.0757691188629224 0 0 0 0 75.374994226578565 27.423989314598657 0 27.423989314598657 15.993404180204379 0 0 0 0 5.5465629256041211 -25.654156366035636 0 -25.654156366035636 -5.663870504935403 0 0 0 0 1.9746522121276939 -15.223632198947598 0 -15.223632198947598 -3.2682460153923785 0 0 0 0 5.7897056198664316 -6.3564840673189575 0 -6.3564840673189575 2.588280551738686 0 0 0 0 0.44582916537547135 -27.12819832657442 0 -27.12819832657442 3.7837353403892848 0 0 0 0 1.1144316419630229 -5.671672723647827 0 -5.671672723647827 -0.65041386731511075 0 0 0 0 -2.8863230789884256 -6.7615510247262591 0 -6.7615510247262591 -10.406390008989547 0 0 0 0 -0.0019491392605459623 -16.031331813059126 0 -16.031331813059126 -15.044998651028436 0 0 0 0 -0.72299714216278232 -2.2366735541704159 0 -2.2366735541704159 -1.7184151079586591 0 0 0 0 0.58735097714634321 -12.06232243309023 0 -12.06232243309023 -23.62356581997301 0 0 0 0 42.180246623212952 -1.4381568186709046 0 -1.4381568186709046 -24.867439102239587 0 0 0 0 -5.3994557018068008 -8.5694366711559269 0 -8.5694366711559269 -2.8840656805450635 0 0 0 0 3.5467029510920334 -5.7826180239346847 0 -5.7826180239346847 -4.8114788757403701 0 0 0 0 39.745305956213997 -2.8354669116906734 0 -2.8354669116906734 -16.067988772007993 0 0 0 0 6.1256967756307859 -7.971644699765875 0 -7.971644699765875 -12.134035180490173 0 0 0 0 3.4139832200882729 -3.8936844824448364 0 -3.8936844824448364 -0.089521376779003958 0 0 0 0 5.0963041385816155 -6.735339854915372 0 -6.735339854915372 3.0359671518519313 0 0 0 0 3.5075141581701246 -7.8474879884975053 0 -7.8474879884975053 -4.0024231395583456 0 0 0 0 4.3178368371146698 -3.6187186678800103 0 -3.6187186678800103 -4.2368310287879503 0 0 0 0 -2.2253791144757997 -10.205441824844456 0 -10.205441824844456 -9.0727640946497559 0 0 0 0 6.8881449413274822 -4.7807408881080846 0 -4.7807408881080846 0.044520147466755589 0 0 0 0 1.9155112554437892 -10.153465733249789 0 -10.153465733249789 -9.3712475209458717 0 0 0 0 1.9736102956503601 -9.5642479019443272 0 -9.5642479019443272 -3.4644857114317347 0 0 0 0 3.1815701651187283 -10.237367800263428 0 -10.237367800263428 -6.0504930696724841 0 0 0 0 4.5725209120550971 -13.123398142030624 0 -13.123398142030624 -0.063413890426090802 0 0 0 0 9.0519150741674821 -14.599390001573965 0 -14.599390001573965 -7.4452800876101719 0 0 0 0 9.8942161870509153 -4.593122407222836 0 -4.593122407222836 -0.26302558216411853 0 0 0 0 10.846054137077413 -3.35124538428623 0 -3.35124538428623 -8.612305355539398 0 0 0 0 9.8079376518480785 -13.475666188041487 0 -13.475666188041487 -9.9329590984852985 0 0 0 0 2.5671115703757454 -8.2180509375122845 0 -8.2180509375122845 -2.0538672291833269 0 0 0 0 0.78734729833195161 -8.6976658514045084 0 -8.6976658514045084 -7.2362643335718531 0 0 0 0 2.8919715119427565 -12.93786882540735 0 -12.93786882540735 -4.6539279695841742 0 0 0 0 8.89434180999001 -10.833252245382369 0 -10.833252245382369 -7.1884344711897938 0 0 0 0 -86.203963409099742 10.871848502406692 0 10.871848502406692 -11.317819265441358 0 0 0 0 -17.754360819706562 -1.6107388135146721 0 -1.6107388135146721 -13.597352546727052 0 0 0 0 -6.2783244535331733 -6.2362488412910464 0 -6.2362488412910464 2.9923001029802379 0 0 0 0 -6.0317244529578602 -8.5977730010581581 0 -8.5977730010581581 9.5898259493369551 0 0 0 0 -7.6592566178187553 -29.275311620473531 0 -29.275311620473531 8.1578691278264159 0 0 0 0 -1.7151039443672111 0.29192156235530931 0 0.29192156235530931 0.39230587950395446 0 0 0 0 3.7626086315811271 -7.8919833824409373 0 -7.8919833824409373 0.72377240751771588 0 0 0 0 -3.14589809552308 6.2592700377617803 0 6.2592700377617803 2.5122323341252013 0 0 0 0 -6.4257804951448634 3.1947422580069542 0 3.1947422580069542 26.490584504010883 0 0 0 0 35.506218886741408 -13.375146001550092 0 -13.375146001550092 -2.6347816092234098 0 0 0 0 5.6702161214634543 -24.48837260070286 0 -24.48837260070286 8.4524210080962803 0 0 0 0 11.236717524547203 -37.381247556607832 0 -37.381247556607832 24.770017526767333 0 0 0 0 -1.8722834001590805 -3.2052801759665925 0 -3.2052801759665925 2.0242587072200324 0 0 0 0 13.820604358168566 1.3433905731617415 0 1.3433905731617415 5.872647979192152 0 0 0 0 12.512090785814507 -32.44543300724763 0 -32.44543300724763 9.0219891455153629 0 0 0 0 4.8041887072175911 -7.443797876716534 0 -7.443797876716534 2.4784057914873365 0 0 0 0 2.9626592903786104 -8.5936982086614648 0 -8.5936982086614648 -0.22879127883788897 0 0 0 0 9.4969835844485715 -16.15232987663012 0 -16.15232987663012 2.415277705972585 0 0 0 0 1.7453689631662854 -6.3994886119838892 0 -6.3994886119838892 -2.7040622766386022 0 0 0 0 11.171203291558413 -28.571228770713901 0 -28.571228770713901 -2.5646478825359509 0 0 0 0 -2.9126697031424555 -9.2314121804665774 0 -9.2314121804665774 3.5959674201744747 0 0 0 0 4.6904557598908134 -9.8068815081049294 0 -9.8068815081049294 10.156655928122804 0 0 0 0 -134.63491684399196 -6.3949912564735314 0 -6.3949912564735314 35.513155767438548 0 0 0 0 3.8454902122381007 -8.5834266572434501 0 -8.5834266572434501 6.0698317649426983 0 0 0 0 10.340883888721692 -19.437287065623252 0 -19.437287065623252 2.7347223160099929 0 0 0 0 -8.216426308755203 -0.45090980953046511 0 -0.45090980953046511 6.9974509900924744 0 0 0 0 17.972568240142209 -28.953051730802969 0 -28.953051730802969 5.6478878957765346 0 0 0 0 -0.60782433705418804 -4.5392279743275363 0 -4.5392279743275363 7.6854863962173372 0 0 0 0 38.159935452906211 -17.350425067130288 0 -17.350425067130288 -3.1680285384479703 0 0 0 0 0.37138527591259374 -0.97656392156137528 0 -0.97656392156137528 4.6316776051390018 0 0 0 0 112.53150845859636 -23.530474339656251 0 -23.530474339656251 3.1244395444564148 0 0 0 0 6.6930689460978101 -25.67702195391854 0 -25.67702195391854 1.2415282246940933 0 0 0 0 -20.38960947248961 -50.652489814927577 0 -50.652489814927577 28.281642155097074 0 0 0 0 22.30524047003928 -0.6566873319932256 0 -0.6566873319932256 -10.015496940174671 0 0 0 0 -13.642409961173144 14.981409038040965 0 14.981409038040965 15.448630334351037 0 0 0 0 -24.171477961760502 -22.31762344844168 0 -22.31762344844168 -2.3645448753704841 0 0 0 0 1.9972093687151755 -11.751838274110696 0 -11.751838274110696 -4.5396002456882343 0 0 0 0 -9.9109811664268364 -41.160018363788893 0 -41.160018363788893 18.312929843933489 0 0 0 0 20.983627993991831 -14.965114849607517 0 -14.965114849607517 -10.083202509662897 0 0 0 0 -2.0458547636983226 -9.1577647351398959 0 -9.1577647351398959 -14.585476637592082 0 0 0 0 -50.804927887920712 -19.815818935424062 0 -19.815818935424062 25.716424349814076 0 0 0 0 -4.2080869321862338 -0.61317857246001495 0 -0.61317857246001495 7.619242086264947 0 0 0 0 35.377115824861903 -16.16228532260493 0 -16.16228532260493 12.815688066391886 0 0 0 0 5.6991111171300872 -61.068913329547058 0 -61.068913329547058 -14.815490577431092 0 0 0 0 27.401350381134762 -67.763856953337324 0 -67.763856953337324 27.771817028920736 0 0 0 0 -1.1552496656601434 -5.7248745552999285 0 -5.7248745552999285 -12.227011504128075 0 0 0 0 -0.55229851204057923 5.9983494849680028 0 5.9983494849680028 -22.528847499761468 0 0 0 0 -0.59490750256174252 -0.32973326202415931 0 -0.32973326202415931 0.163858748497546 0 0 0 0 -0.50339882064690755 4.5782600308366455 0 4.5782600308366455 -3.4592713461261155 0 0 0 0 8.4730622299366587 -4.0411545000783917 0 -4.0411545000783917 -0.33252451528187521 0 0 0 0 7.0815132827974594 -0.90775420871386814 0 -0.90775420871386814 -33.025192927771968 0 0 0 0 8.2311514658067608 -6.4450475180638023 0 -6.4450475180638023 -19.988543526040303 0 0 0 0 16.15130762664819 -7.4951029630642552 0 -7.4951029630642552 -3.1768272364547556 0 0 0 0 3.681278141664591 -7.2613155212903999 0 -7.2613155212903999 -5.5392120078121394 0 0 0 0 20.145542898521398 -10.389394617046719 0 -10.389394617046719 -17.137721651821266 0 0 0 0 21.473406604857303 -1.0667129219154958 0 -1.0667129219154958 -11.478709179027646 0 0 0 0 8.3759391717094331 -10.245301139899766 0 -10.245301139899766 -7.932913650660339 0 0 0 0 0.76895871178476227 -24.79715922854075 0 -24.79715922854075 -32.733568092972249 0 0 0 0 2.4884631521572373 -12.085290228134227 0 -12.085290228134227 -6.455184018570435 0 0 0 0 1.2273339791172475 -15.674287271041976 0 -15.674287271041976 -7.3265941367998835 0 0 0 0 -0.99462390306462112 -13.967591369246975 0 -13.967591369246975 -5.5257015898655482 0 0 0 0 3.8868323421734203 -14.983390715496398 0 -14.983390715496398 -9.0531248065635737 0 0 0 0 2.3142585117975001 -8.5688042491746508 0 -8.5688042491746508 -6.4874414875876472 0 0 0 0 16.89590480894185 -2.2364507963957294 0 -2.2364507963957294 -4.1443406624948693 0 0 0 0 1.3941359851623929 -9.6544701654777327 0 -9.6544701654777327 -9.2346759535139427 0 0 0 0 0.13000950865740357 -6.1237522823774659 0 -6.1237522823774659 -7.8718425286169875 0 0 0 0 2.2317558563199782 -12.098346514317655 0 -12.098346514317655 -11.370560576968273 0 0 0 0 3.2495959365110139 -10.517724430973885 0 -10.517724430973885 -8.664874462266198 0 0 0 0 2.2384074619494641 -12.300773356657828 0 -12.300773356657828 -6.6404848702786694 0 0 0 0 24.541508774849348 -7.2165954179733944 0 -7.2165954179733944 -16.748907763729221 0 0 0 0 16.170886658813288 -1.1713578479393618 0 -1.1713578479393618 -20.779192049752055 0 0 0 0 15.579145846544634 -6.778294652481236 0 -6.778294652481236 -12.81251651738512 0 0 0 0 6.9495707869357375 -9.3025814142811214 0 -9.3025814142811214 -13.516584918806984 0 0 0 0 12.452989700577291 -13.731519394210409 0 -13.731519394210409 -6.60490862616507 0 0 0 0 14.907350022836454 -9.3640580163519189 0 -9.3640580163519189 -27.871242502439145 0 0 0 0 13.561679301277081 -6.9474065507547493 0 -6.9474065507547493 -11.59216366466535 0 0 0 0 17.546440759261486 -12.518451481658758 0 -12.518451481658758 -6.3711121677752089 0 0 0 0 1.4795165093722957 -2.9356928752232028 0 -2.9356928752232028 -5.4044399585524161 0 0 0 0 14.977807129945575 -12.973218313217785 0 -12.973218313217785 2.3639442999156017 0 0 0 0 21.010640794542269 -9.9421219972341532 0 -9.9421219972341532 -6.4448696442677829 0 0 0 0 14.960082659393606 -9.4877662421031346 0 -9.4877662421031346 -6.0771430364475236 0 0 0 0 12.04672688527512 -12.548704885628922 0 -12.548704885628922 2.8904150606088024 0 0 0 0 5.3262621875022091 0.094908766758635466 0 0.094908766758635466 -5.6637028031682348 0 0 0 0 9.0322364670691968 -7.0712500498134432 0 -7.0712500498134432 -2.0555919242822256 0 0 0 0 -1.666739466794787 -2.0410748146540669 0 -2.0410748146540669 -2.2599314848574501 0 0 0 0 13.879675184960433 0.21317302382294656 0 0.21317302382294656 -27.166465786038316 0 0 0 0 3.7074708265142817 -3.0119277866983794 0 -3.0119277866983794 -6.5809742624934415 0 0 0 0 -10.078979940109662 22.83299736438039 0 22.83299736438039 -39.634561053086145 0 0 0 0 -21.411747979274196 -5.6798922291181952 0 -5.6798922291181952 14.508293555069258 0 0 0 0 21.534568490275717 -19.409343402419836 0 -19.409343402419836 0.43627733104767685 0 0 0 0 -0.68035404378918152 -0.80558824247339289 0 -0.80558824247339289 -0.57812161538810258 0 0 0 0 -93.743285517999993 34.775187910189288 0 34.775187910189288 48.077716033610159 0 0 0 0 19.756928836455245 -41.42761341614505 0 -41.42761341614505 -83.452719927586713 0 0 0 0 6.2726907580561146 -24.373004700173624 0 -24.373004700173624 13.323890032052986 0 0 0 0 9.6668251428200165 -21.766558488665396 0 -21.766558488665396 -18.813747519261597 0 0 0 0 19.269033618963476 -13.187999952000609 0 -13.187999952000609 -1.499924909470792 0 0 0 0 -37.032771431651099 -21.429928071219365 0 -21.429928071219365 14.110174868341346 0 0 0 0 3.5810473606488813 15.11567477101562 0 15.11567477101562 16.293241388799743 0 0 0 0 0.43060536855614373 15.988294115959889 0 15.988294115959889 17.057061362120294 0 0 0 0 179.8658354748253 61.835185159192974 0 61.835185159192974 -11.48872522657075 0 0 0 0 59.935158509107623 -86.353258550636724 0 -86.353258550636724 -17.938557544272044 0 0 0 0 -174.5513224879362 -200.45995114439847 0 -200.45995114439847 -72.521610084560962 0 0 0 0 -124.83576644714594 30.953986160303657 0 30.953986160303657 61.595362070248484 0 0 0 0 -79.57274100972154 11.178173111642536 0 11.178173111642536 32.737389129987605 0 0 0 0 46.064718477258907 65.662169249150566 0 65.662169249150566 5.2649274558589241 0 0 0 0 6.6601896521176513 68.087858324617628 0 68.087858324617628 37.248804780326282 0 0 0 0 -74.952386246306105 56.628509060246415 0 56.628509060246415 44.411641063462412 0 0 0 0 -272.05369693858097 -113.618199387294 0 -113.618199387294 -73.990381282600538 0 0 0 0 9.2879952219943789 -5.4470608399698222 0 -5.4470608399698222 -117.83420966590074 0 0 0 0 -27.776785048098645 -345.506514149346 0 -345.506514149346 -52.831497084875537 0 0 0 0 0.57126420636016917 -1.8979874084512742 0 -1.8979874084512742 -2.1958876392027808 0 0 0 0 -2.2162468066194636 -2.4797872189758374 0 -2.4797872189758374 -3.8605196858094528 0 0 0 0 -20.887602022779902 -290.17663596287093 0 -290.17663596287093 -476.35392698895703 0 0 0 0 -263.21650106045979 -208.84795440214702 0 -208.84795440214702 -224.50826096741184 0 0 0 0 -268.15377609959251 -229.10534234735542 0 -229.10534234735542 -604.98096687277939 0 0 0 0 -308.60011766647494 -279.78080317410604 0 -279.78080317410604 -254.63076240695136 0 0 0 0 -280.31501481853638 -257.32604538555643 0 -257.32604538555643 -288.66554472929511 0 0 0 0 -342.9094917349762 -208.00889521027011 0 -208.00889521027011 -40.448402146433182 0 0 0 0 28.453602300221519 -82.634870113782085 0 -82.634870113782085 -104.89301956604572 0 0 0 0 54.876258557415895 -2.3187170846865968 0 -2.3187170846865968 -40.666157992713806 0 0 0 0 0.23606175028293386 -3.4565909345166501 0 -3.4565909345166501 -3.23158729013368 0 0 0 0 26.991798997963542 -21.43303202381594 0 -21.43303202381594 78.41879462457473 0 0 0 0 17.048942780053949 38.073144339105056 0 38.073144339105056 64.500103586862679 0 0 0 0 18.727125691869333 35.721291150718798 0 35.721291150718798 60.455495101747829 0 0 0 0 66.3172354586045 26.397380360040074 0 26.397380360040074 29.398603326631928 0 0 0 0 2.5554662289191583 -23.117583717181674 0 -23.117583717181674 -5.1805695033381198 0 0 0 0 33.067281982776876 -42.410303742963833 0 -42.410303742963833 2.8589574936672761 0 0 0 0 27.258748599816954 25.721558386013157 0 25.721558386013157 67.168220261735314 0 0 0 0 -86.888427240271994 -64.650668410154594 0 -64.650668410154594 84.96415245774665 0 0 0 0 -0.81732419681975443 -83.190492285881533 0 -83.190492285881533 -44.82796105213265 0 0 0 0 89.827870870772585 0.64578190539623392 0 0.64578190539623392 -19.324873203269817 0 0 0 0 57.539258479807813 -56.388954340965313 0 -56.388954340965313 -39.485032096810983 0 0 0 0 21.966104886883841 -31.829915925104842 0 -31.829915925104842 -32.088044620506139 0 0 0 0 53.319672178561632 -62.694977090657403 0 -62.694977090657403 -11.468528880796839 0 0 0 0 -0.96870823843983089 -22.237242391398325 0 -22.237242391398325 24.867132963132079 0 0 0 0 139.15703239213144 -26.483353944401827 0 -26.483353944401827 -11.564042652546732 0 0 0 0 0.23617831227560071 -0.93317416892836658 0 -0.93317416892836658 -0.096974931500687145 0 0 0 0 -2.7976228215669892 -13.273561244868869 0 -13.273561244868869 4.3881036123291608 0 0 0 0 57.382481129282951 -24.954247253560425 0 -24.954247253560425 -7.2842390636915297 0 0 0 0 18.868585882055413 -66.309644666461509 0 -66.309644666461509 -29.270290473739351 0 0 0 0 1.0296832416172812 -0.95909550964372725 0 -0.95909550964372725 -0.2254457038961748 0 0 0 0 72.952568021634534 15.324585519982747 0 15.324585519982747 -11.548617623833707 0 0 0 0 14.757076342075379 -6.9033267390891524 0 -6.9033267390891524 -42.994402222110701 0 0 0 0 43.268180000151915 -30.611873585300714 0 -30.611873585300714 22.848911348295815 0 0 0 0 -3.162088083560544 -8.1265169967087605 0 -8.1265169967087605 -9.5915639890479127 0 0 0 0 16.941314205740468 -12.188037389427677 0 -12.188037389427677 -15.367591288307267 0 0 0 0 2.1634603326155388 -8.7563435441935322 0 -8.7563435441935322 -5.4232118279295385 0 0 0 0 19.32155854223015 -9.5421078886665782 0 -9.5421078886665782 -3.6813413230804599 0 0 0 0 22.522200409097195 -23.466082424899014 0 -23.466082424899014 -2.4105649341081516 0 0 0 0 26.092977810701314 -23.000114674620022 0 -23.000114674620022 10.0906151078525 0 0 0 0 57.240897236027195 -62.33516244133844 0 -62.33516244133844 15.642645920211947 0 0 0 0 16.153911123675243 2.528743885951144 0 2.528743885951144 -3.7831632107784117 0 0 0 0 13.066244904760879 -4.3112239988525971 0 -4.3112239988525971 2.2678502779563132 0 0 0 0 2.5047113593200532 -3.3273667160358329 0 -3.3273667160358329 -8.3308468424294464 0 0 0 0 1.9496715515229539 -1.5720057868983832 0 -1.5720057868983832 -0.60852253098654074 0 0 0 0 20.905115702569674 -22.461231632581075 0 -22.461231632581075 15.433407244428963 0 0 0 0 59.939960928540359 -55.910897486651507 0 -55.910897486651507 -21.5677547190719 0 0 0 0 2.0976675287392936 -16.127779818679016 0 -16.127779818679016 25.177325875933331 0 0 0 0 -61.509091855082261 4.7424773946005985 0 4.7424773946005985 14.047216493767621 0 0 0 0 -18.577094392750041 -46.39846243216352 0 -46.39846243216352 -17.18780366580819 0 0 0 0 -33.883171030151971 -4.2041272000727758 0 -4.2041272000727758 -12.623399919596409 0 0 0 0 -88.616476357033207 -58.821361498433305 0 -58.821361498433305 -67.060863361792485 0 0 0 0 3.0110518989126831 -43.626158529236534 0 -43.626158529236534 -52.155799395412487 0 0 0 0 13.775923357878128 -14.882766121647933 0 -14.882766121647933 4.2064932722458366 0 0 0 0 18.965393822187707 -67.452411837507498 0 -67.452411837507498 61.330723297480517 0 0 0 0 -53.853384829913921 -33.256354818992833 0 -33.256354818992833 35.431142082741644 0 0 0 0 120.18768300471856 13.834951440056216 0 13.834951440056216 38.115345242454978 0 0 0 0 369.37931274831226 4.8904281404960557 0 4.8904281404960557 -209.2414351284483 0 0 0 0 -36.300924669013511 2.3137999382358885 0 2.3137999382358885 -22.872514223121868 0 0 0 0 245.5161336623496 141.18286301662283 0 141.18286301662283 -180.66405197824304 0 0 0 0 0.24183658711473122 -0.26610856635237568 0 -0.26610856635237568 1.2980659500620293 0 0 0 0 -0.070408558829349488 -1.2370276241967537 0 -1.2370276241967537 -0.96694847315032262 0 0 0 0 -150.25699424392951 71.647057334601186 0 71.647057334601186 -64.937629515390199 0 0 0 0 -31.150399094030945 30.047287715505377 0 30.047287715505377 29.750526429577008 0 0 0 0 -89.560489167546621 -152.743984698595 0 -152.743984698595 -79.25287145416354 0 0 0 0 233.63124743563822 -139.84336441941139 0 -139.84336441941139 -313.11742535805104 0 0 0 0 -119.47046656961447 -2.0189755270661749 0 -2.0189755270661749 30.078128660838388 0 0 0 0 36.895849515601185 5.1541904509188683 0 5.1541904509188683 -15.409052146889394 0 0 0 0 10.560613370496867 -35.464001010440853 0 -35.464001010440853 -151.6012202012698 0 0 0 0 -1.0538506421675109 -0.94924119587660716 0 -0.94924119587660716 -0.73508590163648435 0 0 0 0 -123.99052221217676 -230.17433745403179 0 -230.17433745403179 235.38668263094957 0 0 0 0 87.780096328765467 49.840992171755111 0 49.840992171755111 -57.487862409076932 0 0 0 0 -77.392138694084679 37.893820404185874 0 37.893820404185874 -21.442794617904724 0 0 0 0 46.086113589884008 13.400128844436608 0 13.400128844436608 -80.1589399280424 0 0 0 0 -31.154048732865704 -46.339044894683639 0 -46.339044894683639 -7.4851595364488048 0 0 0 0 -107.8580542067532 -109.56552148685357 0 -109.56552148685357 -59.457624585358587 0 0 0 0 -16.159140803813898 34.983011803835154 0 34.983011803835154 -31.630549857101641 0 0 0 0 -4.0507273271350641 18.24261384585634 0 18.24261384585634 -118.32774862557608 0 0 0 0 -0.13055462139585217 -2.9863096570947159 0 -2.9863096570947159 -2.53089675034265 0 0 0 0 153.82419115861603 -66.5296203602297 0 -66.5296203602297 -38.780590291789963 0 0 0 0 35.899660107663294 -128.48261671002876 0 -128.48261671002876 118.32499056423228 0 0 0 0 28.991280614996867 10.092683313627504 0 10.092683313627504 -26.127768922336656 0 0 0 0 -25.04169732486389 20.630926564409833 0 20.630926564409833 3.4643431930308566 0 0 0 0 56.80851069968503 27.535282036156275 0 27.535282036156275 -173.04977470630274 0 0 0 0 77.426346941229895 -72.305884594536906 0 -72.305884594536906 -269.63867854279192 0 0 0 0 -54.473744188556793 -218.95962491128046 0 -218.95962491128046 -145.40961934885001 0 0 0 0 -94.680095081359127 -175.01315112627947 0 -175.01315112627947 126.80326056279569 0 0 0 0 19.373941739672318 -117.69372447606662 0 -117.69372447606662 2.2111115647543329 0 0 0 0 57.040395817617537 -57.939559177101728 0 -57.939559177101728 -100.8712164400971 0 0 0 0 7.3878395175797777 -88.996670118855889 0 -88.996670118855889 -65.003754404258643 0 0 0 0 63.995038396285963 -168.70874308109114 0 -168.70874308109114 -91.827944262435494 0 0 0 0 58.290787289675791 -167.09957855659309 0 -167.09957855659309 -70.166640633264933 0 0 0 0 162.09609143124544 -171.37561597165291 0 -171.37561597165291 -62.432087093027462 0 0 0 0 54.170211106114039 -178.45488212375835 0 -178.45488212375835 -58.302079295902445 0 0 0 0 60.394572258583139 -179.26646054681123 0 -179.26646054681123 -76.806944099676002 0 0 0 0 66.409814500730135 -113.20922107554316 0 -113.20922107554316 -66.249475774372513 0 0 0 0 223.80619566041423 -209.22784468684017 0 -209.22784468684017 -61.135448176615256 0 0 0 0 122.85694258048261 -200.68436860208135 0 -200.68436860208135 -61.436956955176356 0 0 0 0 30.131498596761958 -118.88657895128145 0 -118.88657895128145 -29.283404848203872 0 0 0 0 64.614048793380789 -106.87123539633512 0 -106.87123539633512 -31.603209477767223 0 0 0 0 -83.513412536607575 -11.094367361152877 0 -11.094367361152877 -61.958461705574337 0 0 0 0 -96.01388863027023 -142.48999971030491 0 -142.48999971030491 -22.421300849384806 0 0 0 0 71.473844817365716 -61.244324400385892 0 -61.244324400385892 12.21922781059402 0 0 0 0 96.643509555665219 -157.8944964303588 0 -157.8944964303588 42.128052073196159 0 0 0 0 -2.3771344572961386 -3.6921953045824014 0 -3.6921953045824014 -3.9001053042561811 0 0 0 0 70.740923912877406 -260.14830358966231 0 -260.14830358966231 77.100164681966589 0 0 0 0 109.9736998197377 -50.247727146691432 0 -50.247727146691432 -30.467376232247034 0 0 0 0 -1.1496274984240715 -1.6875340590769661 0 -1.6875340590769661 -1.8573188074416613 0 0 0 0 -224.98794200302791 -25.417788003676606 0 -25.417788003676606 169.30251614516925 0 0 0 0 -212.27107676755804 -123.24880864344027 0 -123.24880864344027 146.56666875980164 0 0 0 0 -125.43904543915687 60.215435809693417 0 60.215435809693417 50.457592820933087 0 0 0 0 -119.42240133848713 -104.2523742159517 0 -104.2523742159517 -316.28219265508142 0 0 0 0 -200.43683439649521 -191.95141270641477 0 -191.95141270641477 -236.65390566061706 0 0 0 0 -202.45391078020521 -30.507168505333993 0 -30.507168505333993 -24.201496874988152 0 0 0 0 -285.03514758690835 36.2684724011865 0 36.2684724011865 -39.702391212770749 0 0 0 0 -190.88084800320075 67.34919177303118 0 67.34919177303118 -174.39204872577284 0 0 0 0 -182.26422405257108 24.81922236317132 0 24.81922236317132 -185.36475664405316 0 0 0 0 -278.54403666788062 20.919046884432305 0 20.919046884432305 -182.90494438469977 0 0 0 0 -166.00908347097811 8.1871118556473448 0 8.1871118556473448 -332.07234960478957 0 0 0 0 -358.53603462516003 -20.443838024792058 0 -20.443838024792058 -200.54882002600061 0 0 0 0 -250.94431451905018 -22.702849331318589 0 -22.702849331318589 -334.26915945786914 0 0 0 0 -444.98963990230914 -27.761619479691944 0 -27.761619479691944 -320.76586552155868 0 0 0 0 -461.78403059377979 27.191238575144098 0 27.191238575144098 -538.93632431594415 0 0 0 0 -257.36849604817235 -113.30509689032624 0 -113.30509689032624 -465.86413112457103 0 0 0 0 -222.32252501988341 -69.003626613272672 0 -69.003626613272672 -515.37497845697908 0 0 0 0 -220.20995425011961 -111.15976694744722 0 -111.15976694744722 -300.50694578517596 0 0 0 0 -93.797608835865503 -251.20315430303003 0 -251.20315430303003 -718.36974454273377 0 0 0 0 -264.84321496595476 -214.8524333358655 0 -214.8524333358655 -397.8181407459906 0 0 0 0 -497.68722837118457 -258.83301076730368 0 -258.83301076730368 -389.2814528234145 0 0 0 0 -344.47468557267621 -85.591221799577852 0 -85.591221799577852 -476.37343281690482 0 0 0 0 -662.36266725199175 -224.05114022180032 0 -224.05114022180032 -489.37277259226357 0 0 0 0 -62.963427924203643 -554.57285485406192 0 -554.57285485406192 -636.27893959208723 0 0 0 0 12.574521061749238 37.488996646666237 0 37.488996646666237 -522.99696755630225 0 0 0 0 97.710351262579024 -131.39113260566501 0 -131.39113260566501 -480.08584578919147 0 0 0 0 98.01198645743716 20.569488184639567 0 20.569488184639567 -802.71911914847942 0 0 0 0 70.53240414017273 -1.3653765129815838 0 -1.3653765129815838 -518.41499329940052 0 0 0 0 -22.520191616712616 -200.09738147380847 0 -200.09738147380847 -347.79627493905855 0 0 0 0 206.49694297236147 -124.20474990108119 0 -124.20474990108119 -379.97325892406525 0 0 0 0 -0.70513247741545904 -1.9831540740433944 0 -1.9831540740433944 -2.6856586756353633 0 0 0 0 239.80142817125977 -21.569837011798825 0 -21.569837011798825 -406.22732165245452 0 0 0 0 -80.192447777169946 25.719414823213356 0 25.719414823213356 2.7847662931809509 0 0 0 0 -9.2983349300047848 -6.2403591524839612 0 -6.2403591524839612 -0.88007956619534866 0 0 0 0 0.00023189812600321602 -16.77385486367757 0 -16.77385486367757 -0.17991271526469177 0 0 0 0 -4.9948860050599251 -6.097916708744151 0 -6.097916708744151 5.8133989824737 0 0 0 0 4.0469153291924158 -4.9725979525264847 0 -4.9725979525264847 -3.8152368465121071 0 0 0 0 1.2160711546106846 -5.1615642695827439 0 -5.1615642695827439 7.3886593987428135 0 0 0 0 -16.217989628643409 -15.216332790151 0 -15.216332790151 24.50071851535813 0 0 0 0 -2.3837122149161587 -7.1475115521501493 0 -7.1475115521501493 6.232980661817237 0 0 0 0 0.0055113629259722074 -21.568735529515379 0 -21.568735529515379 21.405873733841872 0 0 0 0 -6.588907350662339 7.3538295334237773 0 7.3538295334237773 29.645611091839555 0 0 0 0 -0.062741436170682618 -0.12017293635158666 0 -0.12017293635158666 0.10516415871381923 0 0 0 0 -0.0088052881947078276 -4.3595038363246204 0 -4.3595038363246204 3.1962086398370957 0 0 0 0 -1.5927446525238338 0.65763197033083998 0 0.65763197033083998 4.0421869680340023 0 0 0 0 -0.42103610446864792 -1.7089290780443633 0 -1.7089290780443633 2.3072902832043596 0 0 0 0 -0.014493471908394681 -101.71517205088315 0 -101.71517205088315 -309.36482063256335 0 0 0 0 -133.1231428714309 -109.55313154530631 0 -109.55313154530631 -87.347389676804596 0 0 0 0 0.0091599757069147358 0.033468865279644433 0 0.033468865279644433 0.004691853158833581 0 0 0 0 24.824598919964046 -47.814126822943763 0 -47.814126822943763 -386.94088388377349 0 0 0 0 -0.36112143783668671 -0.45781482634085258 0 -0.45781482634085258 0.3551615416503715 0 0 0 0 -50.914700504245047 -186.17819155261964 0 -186.17819155261964 -251.99216105656524 0 0 0 0 -77.661561826989782 -138.4170538176686 0 -138.4170538176686 -179.57634263193449 0 0 0 0 1.2524879620177671 -7.2218057190107174 0 -7.2218057190107174 6.5511383040748115 0 0 0 0 3.3646458386025273 -6.2161592205639913 0 -6.2161592205639913 5.3432935678351541 0 0 0 0 30.191949958989426 -5.0850074881936962 0 -5.0850074881936962 -28.281754996449308 0 0 0 0 1.4124363335652497 -0.66480718882425549 0 -0.66480718882425549 -1.9913464549681734 0 0 0 0 -95.776272607454302 -179.22669476290775 0 -179.22669476290775 -159.57289549587631 0 0 0 0 -81.210361444147566 -124.90816542251923 0 -124.90816542251923 -199.60216589508127 0 0 0 0 -21.636351408611517 -73.945877288422707 0 -73.945877288422707 -177.16078509640465 0 0 0 0 0.54052604819764838 -1.7583535739617666 0 -1.7583535739617666 1.3331563002516589 0 0 0 0 -0.73904684928857023 -1.799756637621158 0 -1.799756637621158 0.3237028066878338 0 0 0 0 2.2457637608683321 -3.870086130018084 0 -3.870086130018084 3.2283400100877966 0 0 0 0 -1.0174638036951364 -10.008373904314794 0 -10.008373904314794 3.1350364202035053 0 0 0 0 -4.9932542937956441 -2.2394963118679811 0 -2.2394963118679811 3.2695295270168572 0 0 0 0 0.39281224439764628 -7.7970303513457111 0 -7.7970303513457111 6.6929004797519838 0 0 0 0 -1.7654964840531484 -3.6312095498359565 0 -3.6312095498359565 5.8778023518540152 0 0 0 0 1.198270625939184 -6.6356433766521512 0 -6.6356433766521512 9.5137757162031722 0 0 0 0 -25.109503550392219 -18.309891742667105 0 -18.309891742667105 26.138126931964052 0 0 0 0 4.6021479593873664 -33.702192579802045 0 -33.702192579802045 40.611632706396904 0 0 0 0 -4.6025933685268683 -13.967745422741018 0 -13.967745422741018 0.76255154669615877 0 0 0 0 7.0202969728849176 -8.9074851015596508 0 -8.9074851015596508 6.3931584761417657 0 0 0 0 -10.546536261763322 -29.583866337630297 0 -29.583866337630297 10.1886038663406 0 0 0 0 10.228098129569844 -17.19963059219549 0 -17.19963059219549 -4.5003541801420397 0 0 0 0 28.360633004915144 -23.62459346116475 0 -23.62459346116475 -7.3554557638249207 0 0 0 0 22.314161369798967 -18.699116980962344 0 -18.699116980962344 -0.73902304348393955 0 0 0 0 19.066459633306295 -25.12659249921694 0 -25.12659249921694 0.07303035665245261 0 0 0 0 36.950664640514674 -12.799279777002241 0 -12.799279777002241 1.4751245877528163 0 0 0 0 38.862412921111172 -29.223275474238108 0 -29.223275474238108 0.79909870522521942 0 0 0 0 18.108099141462844 -4.309880865644601 0 -4.309880865644601 -5.7874925306573459 0 0 0 0 34.556079236193909 -55.731544626956861 0 -55.731544626956861 -8.9822226370356475 0 0 0 0 -87.619969696119369 -87.330111392597473 0 -87.330111392597473 -13.970932746110236 0 0 0 0 -29.125004660612831 -12.7040303787835 0 -12.7040303787835 15.50170767725831 0 0 0 0 -28.670202869099739 -13.906227800476699 0 -13.906227800476699 13.196243530006541 0 0 0 0 -0.81027136610143202 -0.48731809660970349 0 -0.48731809660970349 0.89261002967073555 0 0 0 0 -5.8796161749978637 1.7371542769467396 0 1.7371542769467396 9.3142639660075019 0 0 0 0 -6.137969274281204 6.4682709098879059 0 6.4682709098879059 38.74169420229002 0 0 0 0 -3.0896689743702161 -4.6181905279258775 0 -4.6181905279258775 5.7603014479990167 0 0 0 0 -26.747644482325995 -13.146482498082605 0 -13.146482498082605 5.6863357821227964 0 0 0 0 -27.478539595511393 -8.5272811095055658 0 -8.5272811095055658 9.7898347037607891 0 0 0 0 -1.9322356835554224 -1.7964698752677446 0 -1.7964698752677446 1.926972823733839 0 0 0 0 -1.2869858555059182 -2.6397659898066195 0 -2.6397659898066195 2.0844344993925006 0 0 0 0 0.74969844935466767 -2.7236902431879511 0 -2.7236902431879511 2.7679854544695592 0 0 0 0 -4.0590557575087587 -4.8706279824534704 0 -4.8706279824534704 2.6025049993104403 0 0 0 0 0.28739096480212467 -3.7061168202661285 0 -3.7061168202661285 5.6735916369916284 0 0 0 0 -2.5930699448108498 -7.341551797718239 0 -7.341551797718239 -0.27894257790194388 0 0 0 0 -184.205045358598 46.735873816624803 0 46.735873816624803 0.1053579495703616 0 0 0 0 -0.42806975835358685 -1.2416953538594218 0 -1.2416953538594218 -0.0041025133093386401 0 0 0 0 -206.65392341549523 -61.104000474060513 0 -61.104000474060513 75.5295236982858 0 0 0 0 -76.155335292221935 -119.94482956760226 0 -119.94482956760226 65.949251434046801 0 0 0 0 -29.481354752562765 -7.9687393164613241 0 -7.9687393164613241 19.426142688673281 0 0 0 0 -27.638650884857725 -6.9043943910126586 0 -6.9043943910126586 12.362969232835894 0 0 0 0 32.970175265023499 -26.113389162745534 0 -26.113389162745534 80.089730059172524 0 0 0 0 158.929522803287 -248.76203721648363 0 -248.76203721648363 268.10357612122925 0 0 0 0 218.17083683280543 -52.618228141037093 0 -52.618228141037093 -103.07271041282911 0 0 0 0 -111.81235260301582 -141.79358231998185 0 -141.79358231998185 106.05652840434681 0 0 0 0 -9.5733910268991167 -110.62460523765446 0 -110.62460523765446 -51.640829471439702 0 0 0 0 -91.614928701036661 -154.51933895244088 0 -154.51933895244088 -2.6170916843780105 0 0 0 0 -0.58480153372861832 -0.71621696937731727 0 -0.71621696937731727 -1.5918540491854873 0 0 0 0 -100.25072496470602 -140.85106613848495 0 -140.85106613848495 24.864353495158866 0 0 0 0 50.831506881797395 -28.384129737864669 0 -28.384129737864669 17.712196317660982 0 0 0 0 171.04653180663445 140.83791548006752 0 140.83791548006752 82.570022135163072 0 0 0 0 2.6252353687870151 -4.2037072263180484 0 -4.2037072263180484 -5.3948516085797369 0 0 0 0 144.83139185852866 -335.39382917261213 0 -335.39382917261213 176.19966440225699 0 0 0 0 0.60568952162058309 1.0089174391942706 0 1.0089174391942706 0.53819119094557166 0 0 0 0 161.30242324442224 -40.421891415927803 0 -40.421891415927803 46.347951357234876 0 0 0 0 6.2721325478586571 -0.44048022404384746 0 -0.44048022404384746 1.7101487480954809 0 0 0 0 137.10832413299499 -137.13579166409909 0 -137.13579166409909 55.180390164513028 0 0 0 0 115.39285914526226 -63.412483527205495 0 -63.412483527205495 -149.90091778601527 0 0 0 0 17.486002076144359 -21.586670961739401 0 -21.586670961739401 -162.66927030502325 0 0 0 0 -42.153150914873549 -101.0162534926817 0 -101.0162534926817 -80.778385707554207 0 0 0 0 -43.910990731820675 -12.497680478562522 0 -12.497680478562522 14.706871104626771 0 0 0 0 7.443781860706828 -14.015071384026662 0 -14.015071384026662 12.853247333026152 0 0 0 0 -32.182306957456603 -10.423376578172252 0 -10.423376578172252 9.6882816673896741 0 0 0 0 -0.25565303750673252 -6.0009537983600616 0 -6.0009537983600616 1.032926297413516 0 0 0 0 12.021389223808569 -17.985913906111673 0 -17.985913906111673 -32.19977063717505 0 0 0 0 -5.980641665211806 -29.452317390420028 0 -29.452317390420028 -13.30125186580225 0 0 0 0 205.80508340700317 -45.405127036629892 0 -45.405127036629892 8.6577394827036187 0 0 0 0 231.40518500880353 -33.083371172751527 0 -33.083371172751527 -5.6271735176580933 0 0 0 0 2.9998652796803302 -5.1012708007251639 0 -5.1012708007251639 8.7973866124118238 0 0 0 0 613.47197484563731 -0.99127089114222144 0 -0.99127089114222144 -45.740082996847832 0 0 0 0 0.86525659973193925 -1.3784006594088964 0 -1.3784006594088964 3.1938669254092384 0 0 0 0 -80.800305776728237 -55.451548932651463 0 -55.451548932651463 115.10767236785887 0 0 0 0 3.9218614621695451 -84.169395013788403 0 -84.169395013788403 -53.126803123919416 0 0 0 0 -17.146325671670638 -140.24611091256213 0 -140.24611091256213 9.6428336633857725 0 0 0 0 35.189758263690237 -242.40958355421833 0 -242.40958355421833 166.1774192115644 0 0 0 0 239.04549511774223 -267.88539227301794 0 -267.88539227301794 18.11241617855444 0 0 0 0 79.75245842188815 -232.76045915236068 0 -232.76045915236068 11.071631295839836 0 0 0 0 146.73760475198105 -196.35381723739692 0 -196.35381723739692 -37.633376302688248 0 0 0 0 87.13551251000581 -214.96452963657674 0 -214.96452963657674 -8.9542359114370811 0 0 0 0 86.759524496738777 -225.00228960167817 0 -225.00228960167817 -46.844550549611995 0 0 0 0 83.082549004286193 -235.79838421559339 0 -235.79838421559339 -52.507853862397951 0 0 0 0 81.245361604464961 -256.90770591145065 0 -256.90770591145065 -43.480867055869567 0 0 0 0 129.92623198242472 -223.4933033751206 0 -223.4933033751206 -46.202478755164947 0 0 0 0 136.32787348236707 -239.05662686659412 0 -239.05662686659412 -69.550065759251993 0 0 0 0 40.21953770397613 -219.05437649970872 0 -219.05437649970872 -59.310596995630476 0 0 0 0 -60.744327994947525 -282.91040262996194 0 -282.91040262996194 -12.751516639273632 0 0 0 0 72.766679184349414 -250.71999318758094 0 -250.71999318758094 -63.844736563985606 0 0 0 0 -32.009144011595708 -193.29150987939772 0 -193.29150987939772 -36.93270000001894 0 0 0 0 -4.7839382973611464 -138.07586714254001 0 -138.07586714254001 -11.839113389872182 0 0 0 0 -194.89111768214389 -112.38777232953771 0 -112.38777232953771 32.674215661933204 0 0 0 0 -346.75508691075083 -183.80216258624637 0 -183.80216258624637 23.331180069002357 0 0 0 0 -99.519988250061942 -227.81981789816155 0 -227.81981789816155 9.4869075443716611 0 0 0 0 -380.06752417145617 -277.7232691130057 0 -277.7232691130057 50.3040769927361 0 0 0 0 -12.671922981039643 -274.38146317113342 0 -274.38146317113342 688.3259667121938 0 0 0 0 53.995758575902073 -334.65449221690278 0 -334.65449221690278 626.68467515142663 0 0 0 0 -376.52999958086002 -422.28233248071592 0 -422.28233248071592 642.87932947000695 0 0 0 0 -138.95844683180974 101.74507083658993 0 101.74507083658993 -37.948583059811426 0 0 0 0 -347.82809519910211 179.95428940065597 0 179.95428940065597 -41.133242537879596 0 0 0 0 -2.6424972380015674 -0.81819541262122808 0 -0.81819541262122808 0.49819650391632209 0 0 0 0 -12.528562463490744 71.538006494516026 0 71.538006494516026 27.488032893649347 0 0 0 0 -89.700220271912258 43.090684291378921 0 43.090684291378921 17.189319121769017 0 0 0 0 -21.771357937774155 -76.35693430716924 0 -76.35693430716924 76.426831974466154 0 0 0 0 26.518061690178001 -41.234694097492309 0 -41.234694097492309 43.615451711330707 0 0 0 0 257.84600253338056 77.678151853276333 0 77.678151853276333 153.13876876573886 0 0 0 0 -122.64328012823262 94.012385869798777 0 94.012385869798777 79.085708769402572 0 0 0 0 -93.924875752893968 -136.83794355470923 0 -136.83794355470923 49.103407326263778 0 0 0 0 -0.92678906187938992 -32.231317588292427 0 -32.231317588292427 -42.557365457338619 0 0 0 0 -129.28070836295592 -70.738418581917358 0 -70.738418581917358 -7.5232587151411963 0 0 0 0 -202.98918905460687 15.17376277597964 0 15.17376277597964 57.896992045814386 0 0 0 0 -11.197577045531716 6.024594819424351 0 6.024594819424351 9.4545993584167718 0 0 0 0 7.3587828509171231 -20.074596166473725 0 -20.074596166473725 -20.235897570202724 0 0 0 0 -32.130655848106471 6.2674027439940119 0 6.2674027439940119 25.273640801014153 0 0 0 0 -82.323699691472939 25.84269100368067 0 25.84269100368067 55.945925577392728 0 0 0 0 -94.338116322878705 4.2097215313463039 0 4.2097215313463039 35.003899136616042 0 0 0 0 119.65799658190463 -283.92896314672464 0 -283.92896314672464 581.10187750207251 0 0 0 0 55.672092017168325 -65.16592989430319 0 -65.16592989430319 360.28671442751261 0 0 0 0 16.114699608470801 -203.64575854304911 0 -203.64575854304911 151.87192157874733 0 0 0 0 -7.4568336602278684 -1.0912168188523772 0 -1.0912168188523772 1.60258745912774 0 0 0 0 10.35194018540642 -298.52307422809668 0 -298.52307422809668 504.81750172047055 0 0 0 0 -80.049019122259779 -236.46922980457953 0 -236.46922980457953 312.68707816713913 0 0 0 0 -13.506631065933561 -131.45993888127433 0 -131.45993888127433 425.53546644844118 0 0 0 0 -94.748591422294339 -44.922110391349861 0 -44.922110391349861 203.23568133244862 0 0 0 0 131.06784319118015 -189.5502291742996 0 -189.5502291742996 -395.03419223130823 0 0 0 0 -0.39453941056308395 -349.01334439977654 0 -349.01334439977654 87.521496884338831 0 0 0 0 19.938719051708176 -146.60082156175622 0 -146.60082156175622 212.85406115059686 0 0 0 0 41.417437631913344 -331.72801417518394 0 -331.72801417518394 523.97986267144006 0 0 0 0 0.53932849286684359 -14.14096618361009 0 -14.14096618361009 1331.3054536470008 0 0 0 0 -120.42562321126661 -199.47394286699841 0 -199.47394286699841 514.07041572789876 0 0 0 0 -114.27642742110402 -189.56728323599236 0 -189.56728323599236 507.42093542626844 0 0 0 0 -73.789225168860867 -1.9647760575539905 0 -1.9647760575539905 718.48602457794141 0 0 0 0 -124.91423914722236 -204.14675523646611 0 -204.14675523646611 1021.9101264663122 0 0 0 0 57.827020608778184 -20.381230645895357 0 -20.381230645895357 13.867322596743179 0 0 0 0 -0.2681810942773879 -0.81190755505008028 0 -0.81190755505008028 2.1300969113885309 0 0 0 0 45.324330027571705 367.90099673103441 0 367.90099673103441 933.32185310808597 0 0 0 0 -0.74384226223510552 0.2183379817167328 0 0.2183379817167328 0.50573875693427617 0 0 0 0 -0.01659067137983733 -14.431339753774328 0 -14.431339753774328 1.6884616319075576 0 0 0 0 -9.4343875568010844 3.6589359438112297 0 3.6589359438112297 11.480987728841683 0 0 0 0 -0.19109491070877382 -1.5978532953228779 0 -1.5978532953228779 1.8492186081415252 0 0 0 0 -0.78095946864765153 -0.21816720187554495 0 -0.21816720187554495 1.4265977126924341 0 0 0 0 -4.3304282726020062 -0.38311288872656135 0 -0.38311288872656135 3.7873111018948258 0 0 0 0 -6.6045638373107067 -4.9954592033896006 0 -4.9954592033896006 0.20555558771229698 0 0 0 0 -2.7630720098968595 -64.686188455944375 0 -64.686188455944375 175.41263417182495 0 0 0 0 -1.7789607176055142 167.92588155672615 0 167.92588155672615 336.86835160542523 0 0 0 0 1.5059598015650408 -20.020435557567907 0 -20.020435557567907 395.07929997994302 0 0 0 0 -90.924729802427464 -78.918153578908004 0 -78.918153578908004 389.89502917846676 0 0 0 0 -9.1182424353292646 -1.5708182428978867 0 -1.5708182428978867 3.795886232048165 0 0 0 0 5.0397873942060869 -20.357222140755709 0 -20.357222140755709 17.571424774718253 0 0 0 0 1.3006487056961902 -4.882982508022387 0 -4.882982508022387 5.5547747941850414 0 0 0 0 -3.2320654795676091 -8.1651976882151303 0 -8.1651976882151303 0.41102861459330597 0 0 0 0 0.45053281448776517 -2.6870964408912741 0 -2.6870964408912741 2.7339910058758186 0 0 0 0 -9.2498101803957979 -10.932077545034872 0 -10.932077545034872 0.031307645753258839 0 0 0 0 -4.0651656592599466 -12.350205422445015 0 -12.350205422445015 -4.9487271732532463 0 0 0 0 -4.0881991041096626 -6.3169958218613829 0 -6.3169958218613829 0.43480160317631089 0 0 0 0 2.6673534251960618 -4.315816854285984 0 -4.315816854285984 3.0596096408393656 0 0 0 0 -1.0611757436927292 -3.9023594669024533 0 -3.9023594669024533 6.3843902257540321 0 0 0 0 -1.5513967809965834e-05 -4.4886974396486039 0 -4.4886974396486039 3.2057607323140473 0 0 0 0 1.0120002931312513 -1.593503950235029 0 -1.593503950235029 2.3737926854716349 0 0 0 0 -2.069004142878839 -3.3549265509350334 0 -3.3549265509350334 3.6196252865920542 0 0 0 0 -2.8600544265819536 -2.034242729920674 0 -2.034242729920674 5.1532033578645224 0 0 0 0 -0.74700886411388723 -2.3480186699502639 0 -2.3480186699502639 3.4131567760525456 0 0 0 0 1.261138940372085 -7.5483584716649528 0 -7.5483584716649528 6.4412684039827059 0 0 0 0 -0.077314392976404633 -322.75861331534293 0 -322.75861331534293 -559.84011815254553 0 0 0 0 132.54736883971964 -132.44227343627972 0 -132.44227343627972 -1027.9089846971785 0 0 0 0 21.791598069024985 -70.080408275789978 0 -70.080408275789978 -670.37233794303461 0 0 0 0 3.0762513499594206 -163.83377169007235 0 -163.83377169007235 -279.44498333779711 0 0 0 0 71.112371550465468 -193.52342857127087 0 -193.52342857127087 -151.65224825881842 0 0 0 0 -103.07681061678522 -302.26999279351185 0 -302.26999279351185 -215.73382214999583 0 0 0 0 0.09677493829622108 -335.34231688377929 0 -335.34231688377929 144.97463996637316 0 0 0 0 -0.14206606410478884 -1.7607255570165226 0 -1.7607255570165226 0.40787641428934651 0 0 0 0 -100.19895952652496 -178.95864143844597 0 -178.95864143844597 640.25211786991576 0 0 0 0 65.382978199753779 -95.783206992648388 0 -95.783206992648388 88.642732333286403 0 0 0 0 -25.962877086983099 -325.95956541557348 0 -325.95956541557348 -17.641907521599478 0 0 0 0 -35.846490083116805 -271.30528048396809 0 -271.30528048396809 -53.433830824016468 0 0 0 0 29.138546993380714 -221.32219618112151 0 -221.32219618112151 -78.329254559047968 0 0 0 0 -0.61734612600103844 -3.5658008661570877 0 -3.5658008661570877 0.66175428371656642 0 0 0 0 -43.153046293880834 -125.11550951303207 0 -125.11550951303207 127.98735573214981 0 0 0 0 -3.129152739581059 -144.77050645765382 0 -144.77050645765382 -285.59493896899176 0 0 0 0 -125.64130983305677 -370.9162550234862 0 -370.9162550234862 -235.09371251225093 0 0 0 0 -20.09062285550408 -268.43489135253151 0 -268.43489135253151 -177.01663456354072 0 0 0 0 -46.64568534852333 -259.42917909558105 0 -259.42917909558105 -178.28642576631029 0 0 0 0 30.523633666033675 -319.69084817737348 0 -319.69084817737348 -257.08469007778331 0 0 0 0 -4.421862005658113 -190.37218917480436 0 -190.37218917480436 -313.66647548660546 0 0 0 0 8.3526406692772071 -226.35162918181027 0 -226.35162918181027 -212.42235632805478 0 0 0 0 2.36389963457259 -87.675555825074525 0 -87.675555825074525 -234.14869309123691 0 0 0 0 -126.08269447147541 -192.53286640227202 0 -192.53286640227202 -105.97198708318865 0 0 0 0 -32.929875442045159 -95.181412901183194 0 -95.181412901183194 -118.13456252795083 0 0 0 0 -61.379643088981538 -89.842983309225019 0 -89.842983309225019 -64.451026505083973 0 0 0 0 -53.573650751055538 -68.400991026453084 0 -68.400991026453084 -34.972690638681343 0 0 0 0 -84.620506861216199 -31.017041377486748 0 -31.017041377486748 -9.7100999009639963 0 0 0 0 -24.671569702855777 1.6476648254090378 0 1.6476648254090378 -22.70031822048395 0 0 0 0 3.5993618179036275 -61.593831726355802 0 -61.593831726355802 -31.443272133058599 0 0 0 0 -362.39399621855591 -261.89610266019315 0 -261.89610266019315 -46.326669965905808 0 0 0 0 -98.985144155509715 -129.76239259568098 0 -129.76239259568098 10.621647026977371 0 0 0 0 -0.55303363390756743 -2.4818922710695261 0 -2.4818922710695261 0.51617215489422008 0 0 0 0 -365.2980429721365 -339.29813101928528 0 -339.29813101928528 -325.79289823799786 0 0 0 0 -243.14223407853569 -510.70522451373472 0 -510.70522451373472 -126.686216531235 0 0 0 0 -85.009723539806146 -341.88470970819913 0 -341.88470970819913 42.472307187027354 0 0 0 0 -195.98555238419021 -381.18804275425072 0 -381.18804275425072 36.898663786741963 0 0 0 0 -240.46101373828242 26.930577971551884 0 26.930577971551884 94.623367318046348 0 0 0 0 92.997080567820376 -224.08126825721376 0 -224.08126825721376 -165.36181778586797 0 0 0 0 -3.2333083952562447 -358.587694933281 0 -358.587694933281 -308.89441020719187 0 0 0 0 -2.3603311501493138 -1.8925629485280506 0 -1.8925629485280506 -1.1246829215300203 0 0 0 0 46.939377341695945 -146.65111074439892 0 -146.65111074439892 212.72978199504246 0 0 0 0 30.466254687398759 -199.97013739901558 0 -199.97013739901558 257.0418400168312 0 0 0 0 101.60811746091349 -215.65785564613361 0 -215.65785564613361 -10.971202949957842 0 0 0 0 33.201667065105539 -305.54868161828676 0 -305.54868161828676 2.1719280932684342 0 0 0 0 -35.436324136153416 -251.05238396184336 0 -251.05238396184336 -11.395115896624461 0 0 0 0 131.79817313475905 -253.24927503646973 0 -253.24927503646973 17.652972950431831 0 0 0 0 207.00155620372061 -226.70636905192828 0 -226.70636905192828 17.126282116242237 0 0 0 0 148.59440432903466 -274.81752148770147 0 -274.81752148770147 216.61579195128434 0 0 0 0 83.935630452127043 -204.89438489589861 0 -204.89438489589861 179.39990226203827 0 0 0 0 42.073635759517856 -162.72713080305994 0 -162.72713080305994 367.76037654195216 0 0 0 0 159.27988930404467 -230.5132112494282 0 -230.5132112494282 199.95758915784518 0 0 0 0 53.988297895943106 -112.89332782286033 0 -112.89332782286033 304.5528281938241 0 0 0 0 -7.8840818044009104 -6.6688119971758457 0 -6.6688119971758457 -0.19150350727956145 0 0 0 0 16.292329476384111 -32.570462773167833 0 -32.570462773167833 16.752750420637312 0 0 0 0 -6.3799891655071406 -63.213977795085839 0 -63.213977795085839 64.611772625684125 0 0 0 0 -7.0766516661907843 -3.462985621732944 0 -3.462985621732944 -1.4293779405367113 0 0 0 0 21.721390973731104 -19.461721447776199 0 -19.461721447776199 1.9082626371359765 0 0 0 0 11.104068900408492 -23.718353719859124 0 -23.718353719859124 -24.14060598324977 0 0 0 0 10.797137339483925 -19.568296973613883 0 -19.568296973613883 4.1806734973843049 0 0 0 0 16.023403448953104 -17.610292589004757 0 -17.610292589004757 -2.8278571574592206 0 0 0 0 6.5201380395064916 -21.492805463282593 0 -21.492805463282593 8.6526619856654179 0 0 0 0 8.9395769740767719 -6.3098938598891436 0 -6.3098938598891436 4.4209784959684839 0 0 0 0 4.8871692936813815 -13.255124668411099 0 -13.255124668411099 6.5011432474843787 0 0 0 0 -12.003799809977863 -28.652100764536158 0 -28.652100764536158 30.102208786577762 0 0 0 0 3.3715114142678431 -13.658316191332688 0 -13.658316191332688 25.040752776527825 0 0 0 0 5.1638952827943285 -4.254034681247731 0 -4.254034681247731 10.22331091011938 0 0 0 0 -3.4962695777484853 -8.4431424694005166 0 -8.4431424694005166 0.16316722655279303 0 0 0 0 -108.9843936369798 -76.060777945577655 0 -76.060777945577655 11.10692433297578 0 0 0 0 4.7020722087743199 -15.91652524914328 0 -15.91652524914328 12.177799295903643 0 0 0 0 11.94345232149135 -13.236124556066898 0 -13.236124556066898 10.258134759782934 0 0 0 0 -115.17060629410844 -51.138435558303854 0 -51.138435558303854 -35.164213049883529 0 0 0 0 -107.14116680554434 -118.14938144081975 0 -118.14938144081975 -203.03438206974306 0 0 0 0 -296.19365989344078 -107.89194700053531 0 -107.89194700053531 14.546056208730306 0 0 0 0 -155.66983070347123 7.5388429035153877 0 7.5388429035153877 -71.429050094159265 0 0 0 0 -240.80030085331782 -142.29250020536222 0 -142.29250020536222 -119.32743858113645 0 0 0 0 -139.9190839928342 -200.05509780508646 0 -200.05509780508646 -361.6638909424837 0 0 0 0 3.0466317292888636 -6.4620477513749028 0 -6.4620477513749028 -1.0737987388094647 0 0 0 0 -101.65877123248174 -39.87616867314307 0 -39.87616867314307 -141.2157225105168 0 0 0 0 -102.36971754531146 -45.251712066030954 0 -45.251712066030954 12.073256311437262 0 0 0 0 -242.03064304887903 55.377983768216382 0 55.377983768216382 239.46171441759952 0 0 0 0 8.9938864115956676 -13.666991448503609 0 -13.666991448503609 -1.2701387517736293 0 0 0 0 2.5263404884445375 -17.99966730199198 0 -17.99966730199198 8.300290925078265 0 0 0 0 -112.43712249531063 -38.435183741156678 0 -38.435183741156678 64.364878248748482 0 0 0 0 -28.545437812634191 -15.867702498423341 0 -15.867702498423341 -67.309819427029822 0 0 0 0 -196.67082590548671 -51.177802629416647 0 -51.177802629416647 1.0623959784343242 0 0 0 0 -95.317823926798155 -138.58833579508951 0 -138.58833579508951 59.197177003865363 0 0 0 0 -134.22095806376819 -50.15334473918017 0 -50.15334473918017 200.03784520217823 0 0 0 0 -196.30963380094363 -97.559069295099789 0 -97.559069295099789 113.03751572132705 0 0 0 0 4.6544014174651238 -14.234145909187419 0 -14.234145909187419 8.5526573741267384 0 0 0 0 -104.88142445888934 -94.418841162698129 0 -94.418841162698129 22.800469316513954 0 0 0 0 -110.55936749490684 -26.282188129930717 0 -26.282188129930717 0.59607127863228015 0 0 0 0 -110.18781822878736 -4.7804159942280648 0 -4.7804159942280648 122.28183788592719 0 0 0 0 -10.090464417700797 -0.17688593445060796 0 -0.17688593445060796 2.2814430096270968 0 0 0 0 -63.986109457633574 -34.955469872058757 0 -34.955469872058757 -20.746817437258869 0 0 0 0 -100.2263755194499 -4.0697787994666328 0 -4.0697787994666328 19.098441600227261 0 0 0 0 -143.38386503217771 -95.535553394868202 0 -95.535553394868202 48.950042078471597 0 0 0 0 -88.358494157188034 -21.459041989214029 0 -21.459041989214029 -24.152571653761925 0 0 0 0 -47.830044216869283 -12.217622657987988 0 -12.217622657987988 -13.282284691425332 0 0 0 0 -45.55641329410895 -4.8499780687037877 0 -4.8499780687037877 6.4204307646568024 0 0 0 0 -59.059811635008373 -15.827735191835245 0 -15.827735191835245 -7.0592153594245701 0 0 0 0 -49.087250056960329 -11.644902740547309 0 -11.644902740547309 -10.001684269845782 0 0 0 0 -53.723399383219657 -10.405715063158368 0 -10.405715063158368 -1.5555744716556319 0 0 0 0 -53.857202294486342 -10.812614937490366 0 -10.812614937490366 -2.3395526870434651 0 0 0 0 -41.732679155073129 -8.0712138488305527 0 -8.0712138488305527 -11.109155275322564 0 0 0 0 -36.590489577840344 -5.6903447068496433 0 -5.6903447068496433 -10.851718939072725 0 0 0 0 -4.4246991880976498 -0.73746647630572681 0 -0.73746647630572681 -0.10292450474899717 0 0 0 0 -42.207470485402155 -5.9916493205361121 0 -5.9916493205361121 -10.863611366663584 0 0 0 0 -42.209155529242707 -6.0277810731308819 0 -6.0277810731308819 -6.1425065990396206 0 0 0 0 -45.766265954312985 0.28165553325939641 0 0.28165553325939641 4.0177812960862411 0 0 0 0 -49.655507505201967 -2.8369306077130148 0 -2.8369306077130148 23.109999282563308 0 0 0 0 -43.374362926559115 -2.6427262741033246 0 -2.6427262741033246 -5.8293442192386919 0 0 0 0 -64.454510489245877 -13.881188917027089 0 -13.881188917027089 2.6645466600703003 0 0 0 0 -59.504438098010723 -4.9769509728282628 0 -4.9769509728282628 16.062179088704774 0 0 0 0 -63.232671027362812 -10.733455946230009 0 -10.733455946230009 8.8118631397883291 0 0 0 0 -53.393135408885428 -9.8144884332059519 0 -9.8144884332059519 -2.0723481542648869 0 0 0 0 -53.534791596801369 -9.589534520483312 0 -9.589534520483312 -1.3946897272232945 0 0 0 0 -52.398220118688187 -8.2258618504364449 0 -8.2258618504364449 -0.094420666538667319 0 0 0 0 -13.143352555453021 -25.821979844035582 0 -25.821979844035582 19.427917481006659 0 0 0 0 -10.698611804252927 -6.1011707022361659 0 -6.1011707022361659 0.21769064890979117 0 0 0 0 -32.238454267174347 -1.6074705321483194 0 -1.6074705321483194 8.7324387003823176 0 0 0 0 3.1254605206595443 -19.667065050956182 0 -19.667065050956182 17.642673829950553 0 0 0 0 -20.809846725460375 -12.473194642129101 0 -12.473194642129101 -2.889610127706419 0 0 0 0 4.8384443348581954 -21.753583055316 0 -21.753583055316 18.460338172006573 0 0 0 0 -1.1903443514711398 -15.830152165226309 0 -15.830152165226309 -22.853448480938368 0 0 0 0 -11.02135855526285 -37.489732639339877 0 -37.489732639339877 5.2297198494816257 0 0 0 0 2.1023697742784861 -23.374982044789249 0 -23.374982044789249 -5.5850545640025757 0 0 0 0 9.33271854274426 -15.257208670130694 0 -15.257208670130694 -12.902936645462432 0 0 0 0 -0.11737375559940233 -0.50893444330367332 0 -0.50893444330367332 -0.24555222972181534 0 0 0 0 -3.8253989120730694 3.2283446333635766 0 3.2283446333635766 4.8767527574638052 0 0 0 0 -1.5824619223967602 -7.0456098319427838 0 -7.0456098319427838 -16.434515173629507 0 0 0 0 -41.47957279678667 -6.5708791992899478 0 -6.5708791992899478 -4.5657070503575596 0 0 0 0 -11.91752777009242 -5.9243914138194214 0 -5.9243914138194214 41.61320843672911 0 0 0 0 -8.0524391827133783 -3.231445993260202 0 -3.231445993260202 -1.4089518836752464 0 0 0 0 -3.8839182759038522 -31.271101522177617 0 -31.271101522177617 40.202622784599953 0 0 0 0 9.291465750822681 -41.987845294032013 0 -41.987845294032013 48.109750362742474 0 0 0 0 -15.824994892351242 -23.066876303057128 0 -23.066876303057128 111.0803332581191 0 0 0 0 0.52491377217953783 -1.0004764672592317 0 -1.0004764672592317 -0.95745833225739563 0 0 0 0 -17.292147933612796 -28.620838243811892 0 -28.620838243811892 94.921796907303303 0 0 0 0 -4.0999750915797222 -38.909462333605568 0 -38.909462333605568 77.358561576326167 0 0 0 0 23.742258341604611 -12.125095656499781 0 -12.125095656499781 58.783327498716545 0 0 0 0 -8.7241007617139985 -17.343787569066862 0 -17.343787569066862 77.134359135622219 0 0 0 0 14.344657321853447 9.707790182954227 0 9.707790182954227 -16.889733365052052 0 0 0 0 11.465521008511132 -18.210491080880388 0 -18.210491080880388 -21.249579419413465 0 0 0 0 -6.3505823728378914 -3.6005824146789402 0 -3.6005824146789402 -1.4510586551199363 0 0 0 0 -16.730995276084286 -13.128271337222941 0 -13.128271337222941 -12.064542953778989 0 0 0 0 -1.9676262898454411 -21.774443275434759 0 -21.774443275434759 29.751928637287165 0 0 0 0 -4.1261227025914877 13.498351654404892 0 13.498351654404892 3.329591116175834 0 0 0 0 -5.2936799392672356 -5.0418686427775814 0 -5.0418686427775814 -2.4626522149141556 0 0 0 0 -20.213972226305486 -18.393515796335123 0 -18.393515796335123 33.816540585455641 0 0 0 0 -14.996976622152943 -0.0061460635547518905 0 -0.0061460635547518905 -2.2400573396173513 0 0 0 0 -7.83696003051773 -18.271078507581478 0 -18.271078507581478 -28.310332708743317 0 0 0 0 0.58164966885442482 -39.49514374721241 0 -39.49514374721241 -50.077014470589347 0 0 0 0 -21.379356598937648 -0.63918142930765498 0 -0.63918142930765498 16.313446292242588 0 0 0 0 -19.858797814180434 -64.165170326564066 0 -64.165170326564066 -63.988701438338921 0 0 0 0 -26.759448795134631 -64.881334324274576 0 -64.881334324274576 -59.9962898597405 0 0 0 0 -4.5018200428675712 -5.4438547556339572 0 -5.4438547556339572 -2.3340955390554825 0 0 0 0 -8.2323900569881516 -45.150425617960309 0 -45.150425617960309 87.57680672633046 0 0 0 0 17.189600533339217 -113.94559590666699 0 -113.94559590666699 -388.86680729621776 0 0 0 0 -3.0665521231516522 -4.1980033613252967 0 -4.1980033613252967 -2.128759629367905 0 0 0 0 0.25672616688461858 27.339539404950472 0 27.339539404950472 11.913443903642928 0 0 0 0 44.306870018142945 16.305008469023392 0 16.305008469023392 -83.575929273875772 0 0 0 0 -2.1714345937284563 -0.51703908502669016 0 -0.51703908502669016 -0.47316989602783432 0 0 0 0 -19.751786802382412 -0.9317846937702825 0 -0.9317846937702825 -0.79066753009112745 0 0 0 0 -36.457268770216615 25.990907229436743 0 25.990907229436743 12.32479029885053 0 0 0 0 -40.244500765085149 -22.744348020986919 0 -22.744348020986919 2.2969378583975413 0 0 0 0 -2.3002123281694367 -47.678288649448177 0 -47.678288649448177 51.655710981408333 0 0 0 0 -12.788421074648795 -5.7989695465212208 0 -5.7989695465212208 35.791599807351076 0 0 0 0 16.95208195241139 -3.3575392865013782 0 -3.3575392865013782 -38.653717000222628 0 0 0 0 7.5297601255479094 -41.925328386901697 0 -41.925328386901697 -20.080288600629046 0 0 0 0 33.607628787725844 -17.310280838045401 0 -17.310280838045401 2.4348758736864511 0 0 0 0 -2.779205294810204 -2.4452393047924099 0 -2.4452393047924099 -1.5697676901921804 0 0 0 0 25.987400360769243 6.8023781752776813 0 6.8023781752776813 -13.906147842647442 0 0 0 0 -0.83513464770516777 -0.6494524286321619 0 -0.6494524286321619 -0.26642852615892942 0 0 0 0 -25.440244845463894 -9.2134905119372945 0 -9.2134905119372945 28.629030790666775 0 0 0 0 -23.571273818510235 -2.8765222749516397 0 -2.8765222749516397 -1.1722626736068378 0 0 0 0 23.150175009961458 -12.75873851348021 0 -12.75873851348021 82.658687579219588 0 0 0 0 -1.0348609826833126 -34.382216980532831 0 -34.382216980532831 96.831949616218509 0 0 0 0 -15.394696735169418 -18.320321644694189 0 -18.320321644694189 164.14686253950421 0 0 0 0 0.15817002253244539 0.19950188628902865 0 0.19950188628902865 0.21743935044022555 0 0 0 0 23.526897400324742 -11.500166232885192 0 -11.500166232885192 -42.112791610118109 0 0 0 0 2.5215525188868924 -35.926515803177494 0 -35.926515803177494 29.742984809990617 0 0 0 0 2.3421670325433297 -36.214685968823844 0 -36.214685968823844 42.198253208229175 0 0 0 0 21.878126838411845 -46.58938759921665 0 -46.58938759921665 88.437658074312196 0 0 0 0 13.688663137687172 -18.656231632026238 0 -18.656231632026238 66.200090626266899 0 0 0 0 -0.020911403824356967 -28.737863381792607 0 -28.737863381792607 60.605090994478033 0 0 0 0 1.3537947422119032 -22.183489143105191 0 -22.183489143105191 52.629640611382456 0 0 0 0 0.96781656218809076 -28.133139462789927 0 -28.133139462789927 64.380862465483659 0 0 0 0 12.056072690691508 -5.2133798391098765 0 -5.2133798391098765 -1.6652163645933342 0 0 0 0 -0.87935819379730873 0.04300186472518952 0 0.04300186472518952 -0.12774778858282332 0 0 0 0 33.492447318265476 36.70854225281596 0 36.70854225281596 -165.25350514010051 0 0 0 0 0.0213172454823507 -10.404365692884483 0 -10.404365692884483 48.822730326737656 0 0 0 0 -0.13174518740503061 0.43369558343598058 0 0.43369558343598058 -0.15764557229887788 0 0 0 0 4.9851656095870567 -19.179816627419427 0 -19.179816627419427 54.129351821630735 0 0 0 0 44.70514055161766 -57.830665684452242 0 -57.830665684452242 -35.286672992096101 0 0 0 0 5.4376881904499896 -24.092987519309077 0 -24.092987519309077 24.849192549923885 0 0 0 0 6.6565528269456991 -17.310249033671425 0 -17.310249033671425 44.527788976004331 0 0 0 0 0.18221959605064342 -0.63940240798999159 0 -0.63940240798999159 -0.62406976834483729 0 0 0 0 -25.44180954859894 58.515317672862409 0 58.515317672862409 32.004401355177379 0 0 0 0 -76.460482184731518 -88.046619798034044 0 -88.046619798034044 162.44815817464826 0 0 0 0 -1.0159328611485066 -1.6264636535394812 0 -1.6264636535394812 -1.4385123882117949 0 0 0 0 0.1244049858643058 -132.5962329034771 0 -132.5962329034771 -17.480384040899935 0 0 0 0 66.43985600544238 -19.789228106366409 0 -19.789228106366409 38.98513266324494 0 0 0 0 10.300599166775328 -132.55900118167281 0 -132.55900118167281 254.44824828387573 0 0 0 0 266.9555488655451 -308.99840887605706 0 -308.99840887605706 205.68768533680421 0 0 0 0 -1.0620355873495466 -1.0191666455682258 0 -1.0191666455682258 0.97950890571960514 0 0 0 0 16.677147043263176 -118.71813730689661 0 -118.71813730689661 193.66561764513767 0 0 0 0 184.04251035027846 -112.80194748058108 0 -112.80194748058108 134.49186200334594 0 0 0 0 28.685421651141951 -82.64328649454103 0 -82.64328649454103 134.96724884930191 0 0 0 0 13.838053980902885 -36.088093491716748 0 -36.088093491716748 114.14413869838279 0 0 0 0 65.393187521787013 -11.911929474601266 0 -11.911929474601266 86.696081726980083 0 0 0 0 -75.915355231642479 -76.788634215761476 0 -76.788634215761476 113.7436183888085 0 0 0 0 -11.639718140158958 -7.9531681150918851 0 -7.9531681150918851 -4.8092038710054048 0 0 0 0 18.80525421553557 -207.75561259129927 0 -207.75561259129927 159.24045265791847 0 0 0 0 75.592452801719901 -59.156662680743239 0 -59.156662680743239 95.875887046768867 0 0 0 0 -67.85710855563218 -204.30203666755239 0 -204.30203666755239 -50.170222405199638 0 0 0 0 -175.08409779259421 -4.1135997679932075 0 -4.1135997679932075 87.334309051628679 0 0 0 0 113.14996656069434 -54.587005619215006 0 -54.587005619215006 -144.40367755441366 0 0 0 0 91.955034232395064 -57.115942201627149 0 -57.115942201627149 -29.050387863046581 0 0 0 0 87.97822006123323 -154.84842623639116 0 -154.84842623639116 36.854484651866642 0 0 0 0 -6.5012056786677128 -4.8613192289845575 0 -4.8613192289845575 -3.2427260409496066 0 0 0 0 90.245573287194361 -42.122122414281748 0 -42.122122414281748 -140.65194704018722 0 0 0 0 -1.8461292343760256 -1.6383024877420751 0 -1.6383024877420751 -1.3868610881675432 0 0 0 0 148.90769094452844 -118.72980746367648 0 -118.72980746367648 -181.64481933933894 0 0 0 0 120.87017096929503 -132.44662151085572 0 -132.44662151085572 142.63814053704914 0 0 0 0 -52.821213678141248 -238.77649800826612 0 -238.77649800826612 77.746250120696686 0 0 0 0 -89.348626438747488 15.720344651078904 0 15.720344651078904 64.533825846609034 0 0 0 0 175.17903287052741 -196.44807246642313 0 -196.44807246642313 23.716791697465851 0 0 0 0 263.65679756371537 -169.2996753819059 0 -169.2996753819059 32.009557135495015 0 0 0 0 223.74956530515283 -153.30409598912183 0 -153.30409598912183 -89.925650191332238 0 0 0 0 136.26176650378989 -171.58772327162242 0 -171.58772327162242 41.558173911526865 0 0 0 0 151.76338962785121 -275.81103206211674 0 -275.81103206211674 273.96691833068462 0 0 0 0 241.91570119403514 -149.6635677484287 0 -149.6635677484287 42.686993761038138 0 0 0 0 231.37797850796352 -250.06048039153561 0 -250.06048039153561 189.42979198412968 0 0 0 0 363.89932043447516 -117.75433480236234 0 -117.75433480236234 270.78223968936936 0 0 0 0 357.39976154587202 -380.6977522515981 0 -380.6977522515981 313.7216374486311 0 0 0 0 229.3928405162751 -296.30334108381726 0 -296.30334108381726 138.02941959386953 0 0 0 0 0.67711435290221988 -1.86195943357861 0 -1.86195943357861 0.90402107859551251 0 0 0 0 -65.548117637088581 -125.51896299427563 0 -125.51896299427563 749.18267175559959 0 0 0 0 194.90273087921014 -305.60012915581706 0 -305.60012915581706 593.78938581934426 0 0 0 0 460.06732056706096 -445.75824510522682 0 -445.75824510522682 405.5478192993005 0 0 0 0 130.56345285045245 -314.09262676378876 0 -314.09262676378876 446.00455253718451 0 0 0 0 192.06635327297306 -236.50340969409513 0 -236.50340969409513 303.42382392568015 0 0 0 0 261.57138330356474 -308.00803642605058 0 -308.00803642605058 442.83843656411409 0 0 0 0 251.48643619202721 -336.08985406584225 0 -336.08985406584225 364.8637063666207 0 0 0 0 -4.7612423142566058 -50.425991277733999 0 -50.425991277733999 -22.96324720563598 0 0 0 0 8.5938909640701731 -1.3953133550360797 0 -1.3953133550360797 -0.69418713813833444 0 0 0 0 6.4011068095050341 -13.749663972450694 0 -13.749663972450694 6.7407419061047911 0 0 0 0 16.372362029616852 -38.455557998748588 0 -38.455557998748588 -74.549817715660993 0 0 0 0 35.680293615680057 -110.55022677012289 0 -110.55022677012289 268.90877894649338 0 0 0 0 51.527090723921901 -128.44822387467184 0 -128.44822387467184 125.68290453530466 0 0 0 0 225.59080350903105 -286.93596738702331 0 -286.93596738702331 241.23998385051391 0 0 0 0 219.26413212831812 -547.58388715717888 0 -547.58388715717888 741.56503008988147 0 0 0 0 348.41413935846867 -372.50827027064577 0 -372.50827027064577 284.31724339723797 0 0 0 0 1.9922754147526653 0.13061550049157122 0 0.13061550049157122 0.30595748252974619 0 0 0 0 -39.317348768753618 -85.748165139046904 0 -85.748165139046904 219.50096051939477 0 0 0 0 154.35715321651605 -235.10429431161396 0 -235.10429431161396 174.06729255278105 0 0 0 0 210.91190076573923 -237.3357237803356 0 -237.3357237803356 102.89066967620693 0 0 0 0 185.87294457043481 -139.79227665727117 0 -139.79227665727117 -76.154581180318075 0 0 0 0 171.63652852233463 -176.00218066509603 0 -176.00218066509603 55.982006957812885 0 0 0 0 168.07980486338249 -211.64374469389887 0 -211.64374469389887 137.34059474910333 0 0 0 0 -14.611435053248897 -61.294484695221144 0 -61.294484695221144 -20.693621521915563 0 0 0 0 -110.95386267295942 -83.717199187018807 0 -83.717199187018807 28.502046659869393 0 0 0 0 58.075720006551819 -76.98924190814887 0 -76.98924190814887 -42.336416404521913 0 0 0 0 62.877597903432616 18.672403599523648 0 18.672403599523648 -227.73704066981685 0 0 0 0 0.6491045506845694 -87.982639064967316 0 -87.982639064967316 -19.618835923298093 0 0 0 0 36.497279618444736 -71.596451557134344 0 -71.596451557134344 70.415490323469839 0 0 0 0 52.084338144271783 -107.60853544092375 0 -107.60853544092375 -12.535371822573268 0 0 0 0 -39.772957988931466 -116.22516142975493 0 -116.22516142975493 94.629752742951041 0 0 0 0 -93.746753139234443 -86.019449277452935 0 -86.019449277452935 -55.670661222683293 0 0 0 0 -81.90748521380101 -55.307568196975865 0 -55.307568196975865 10.215379211581222 0 0 0 0 137.78111851323592 -148.79993481070608 0 -148.79993481070608 93.465850656533988 0 0 0 0 -227.36469711640007 146.06167301601528 0 146.06167301601528 -54.090189496264429 0 0 0 0 -140.36489388468544 71.459264212829112 0 71.459264212829112 -72.446365644606203 0 0 0 0 -127.70036576284838 41.273559099341128 0 41.273559099341128 -21.289401286457405 0 0 0 0 -161.26962177835958 25.70257306485928 0 25.70257306485928 -14.427354871789021 0 0 0 0 -165.91452521878091 87.613682228613015 0 87.613682228613015 1.7072191326969914 0 0 0 0 -296.37434684091386 -15.303681714513459 0 -15.303681714513459 78.488283261734978 0 0 0 0 -1.6456014565193309 -0.95028296544855007 0 -0.95028296544855007 0.75113517573464428 0 0 0 0 -448.20374344595359 171.50831768849292 0 171.50831768849292 96.341265100921873 0 0 0 0 -392.61412613355242 -122.64341641695955 0 -122.64341641695955 57.845095185435639 0 0 0 0 40.141561595402436 -82.235836044312919 0 -82.235836044312919 103.11395420915596 0 0 0 0 45.93519081183058 -73.288080375215543 0 -73.288080375215543 98.87598019689085 0 0 0 0 32.709635891334074 -79.949035553199508 0 -79.949035553199508 99.474172441609426 0 0 0 0 47.206307550544807 -62.493679547176271 0 -62.493679547176271 82.742039984335861 0 0 0 0 42.87861103801697 -50.705361717858977 0 -50.705361717858977 42.234687709600848 0 0 0 0 63.558812200310058 -29.267494713242968 0 -29.267494713242968 19.652472914138343 0 0 0 0 30.336962999084335 -48.649232316107259 0 -48.649232316107259 52.20063400087929 0 0 0 0 64.449267813235565 -74.565010154510674 0 -74.565010154510674 70.346694789183402 0 0 0 0 88.25374843458485 -47.164299236540501 0 -47.164299236540501 30.879945429208419 0 0 0 0 -120.11623885544032 159.16972259074737 0 159.16972259074737 -8.5227722587023891 0 0 0 0 -189.91203285214306 -67.441924763250654 0 -67.441924763250654 21.219349908566983 0 0 0 0 106.04104569579249 -96.749989832115261 0 -96.749989832115261 73.137085666405255 0 0 0 0 68.419677082683847 -88.287548324406089 0 -88.287548324406089 102.62122985353076 0 0 0 0 -3.1217467217901893 -2.4928933378392735 0 -2.4928933378392735 0.8842450017996395 0 0 0 0 -89.735789099616795 6.633590144325467 0 6.633590144325467 -10.618934789310515 0 0 0 0 -66.714551862572989 -5.1358596695646384 0 -5.1358596695646384 19.217449371024259 0 0 0 0 -157.14764961335641 37.844357656186048 0 37.844357656186048 -7.3915439117718051 0 0 0 0 -160.50696914982473 39.268477313210042 0 39.268477313210042 8.5997789953053143 0 0 0 0 -150.76100861287887 37.319075287177156 0 37.319075287177156 -35.361048307354395 0 0 0 0 -150.4406055338859 48.71485532170027 0 48.71485532170027 -11.105767025616842 0 0 0 0 -144.52509602705459 31.240587665552198 0 31.240587665552198 -6.9891321901486663 0 0 0 0 -151.2936881763253 33.204711608933394 0 33.204711608933394 52.58275787370485 0 0 0 0 -96.750232948783832 64.149732343377877 0 64.149732343377877 -9.7700387766381027 0 0 0 0 129.6938985771535 -165.45445239917728 0 -165.45445239917728 145.70385310863742 0 0 0 0 102.17376285348109 -119.05372078474988 0 -119.05372078474988 95.607068923469399 0 0 0 0 31.771221941808108 -107.73527090904702 0 -107.73527090904702 122.08696078014486 0 0 0 0 99.495759562305466 -121.58026982096442 0 -121.58026982096442 97.230619644402623 0 0 0 0 73.887837336854318 -83.261291407554268 0 -83.261291407554268 73.804564049163218 0 0 0 0 58.986840329738698 -77.246497769206599 0 -77.246497769206599 98.325597003737357 0 0 0 0 20.175255550847993 -89.524757894671637 0 -89.524757894671637 114.97220777338771 0 0 0 0 18.249248473207444 -55.407785817411877 0 -55.407785817411877 76.322188760008657 0 0 0 0 36.752351802446583 -70.825921158301924 0 -70.825921158301924 45.711016031769759 0 0 0 0 85.874625793223458 -123.89529192175826 0 -123.89529192175826 113.61747787784464 0 0 0 0 85.941591103923656 -119.97767343584121 0 -119.97767343584121 139.23850684908257 0 0 0 0 142.50672583640358 -223.37808686011181 0 -223.37808686011181 211.67166975040027 0 0 0 0 185.94570005521564 -154.3897854994168 0 -154.3897854994168 129.25623115126666 0 0 0 0 291.33567734483199 -283.73175331318106 0 -283.73175331318106 179.86342034997188 0 0 0 0 253.12427803552418 -164.89758845889958 0 -164.89758845889958 136.70360274122277 0 0 0 0 152.95484434647915 -182.0250222902938 0 -182.0250222902938 174.95338953533258 0 0 0 0 141.49497757321024 -135.66971836017069 0 -135.66971836017069 116.59043283244125 0 0 0 0 166.82239081079024 -185.77824797658454 0 -185.77824797658454 112.63435099940577 0 0 0 0 172.03469926762114 -167.82926500128073 0 -167.82926500128073 171.88092891456381 0 0 0 0 153.82313217389037 -201.57826844434754 0 -201.57826844434754 155.14090894908668 0 0 0 0 -1.8908623610443787 -1.6818198661311001 0 -1.6818198661311001 1.3896555596435942 0 0 0 0 161.21319717654046 -206.53955567309299 0 -206.53955567309299 134.97633527182046 0 0 0 0 89.162640085443257 -129.84826839501815 0 -129.84826839501815 175.77309095918326 0 0 0 0 157.55573371701303 -211.98879213639748 0 -211.98879213639748 140.23414760035308 0 0 0 0 -9.8543599607880878 -134.59180204520004 0 -134.59180204520004 97.526363155908257 0 0 0 0 17.449340905009876 -55.589586876258579 0 -55.589586876258579 79.405499804673582 0 0 0 0 57.167544283560346 -154.3110965207922 0 -154.3110965207922 -12.183234988436254 0 0 0 0 54.55871645589923 -147.52707157683267 0 -147.52707157683267 123.28478135301879 0 0 0 0 89.628452505344924 -105.33607254406742 0 -105.33607254406742 72.652681422768865 0 0 0 0 200.78053210550934 -210.59984377188687 0 -210.59984377188687 118.61270163043503 0 0 0 0 125.72159806852551 -133.80561512112024 0 -133.80561512112024 69.599973631860507 0 0 0 0 4.627489473121841 -304.14006026950392 0 -304.14006026950392 449.81121866308274 0 0 0 0 0.34109767551740333 -0.48132675990360774 0 -0.48132675990360774 -0.011892849558032492 0 0 0 0 64.635645914698216 0.054443154208740907 0 0.054443154208740907 -281.67262090803661 0 0 0 0 99.320602630559733 -132.99639010601982 0 -132.99639010601982 303.48073570190616 0 0 0 0 88.243769626628364 -236.48531098049847 0 -236.48531098049847 183.61416676396152 0 0 0 0 -1.1556076718124153 -1.0335348999514924 0 -1.0335348999514924 1.0650291624981829 0 0 0 0 -72.247919873783758 -87.683081368355943 0 -87.683081368355943 227.29788875959275 0 0 0 0 84.013888511328332 -160.23242327427533 0 -160.23242327427533 146.85161397651393 0 0 0 0 58.209455486121442 -172.31189699065345 0 -172.31189699065345 162.70087124940642 0 0 0 0 132.38130439341057 -210.61758609051083 0 -210.61758609051083 116.97154033918264 0 0 0 0 109.82677436141967 -218.92424351273507 0 -218.92424351273507 183.41449981746746 0 0 0 0 208.91754357902391 -269.0152983135572 0 -269.0152983135572 157.47556267396646 0 0 0 0 287.70611898337393 -130.2231648390466 0 -130.2231648390466 51.94188873010944 0 0 0 0 125.78239127394727 -163.84684888952665 0 -163.84684888952665 145.07562135772923 0 0 0 0 22.287729136622147 -16.863791323531586 0 -16.863791323531586 37.437328255469311 0 0 0 0 0.75054866209188376 -1.4583888198175794 0 -1.4583888198175794 -1.2797593197876014 0 0 0 0 97.706907924686675 -150.27983342154232 0 -150.27983342154232 138.56705409317374 0 0 0 0 -40.212628493129159 -81.854864834403088 0 -81.854864834403088 -8.0721818624733714 0 0 0 0 -1.2787285576869181 16.845374152747013 0 16.845374152747013 32.496049498014145 0 0 0 0 -164.31129812741983 -31.850168892196962 0 -31.850168892196962 -13.122471636143928 0 0 0 0 74.859161758209666 35.595428480020018 0 35.595428480020018 -1.7585772949821887 0 0 0 0 -5.4179958710697065 -56.655647345133389 0 -56.655647345133389 47.901481007289931 0 0 0 0 3.7152137662008737 -9.4667393900649817 0 -9.4667393900649817 12.042273727643058 0 0 0 0 36.741982912084495 -56.575365733721142 0 -56.575365733721142 -8.1180808833385889 0 0 0 0 11.113871154775552 -12.13479189777695 0 -12.13479189777695 -5.2808464953740781 0 0 0 0 47.951945962594436 -4.5068316657478817 0 -4.5068316657478817 -5.1986775484410828 0 0 0 0 0.63568680308427972 -4.9108598654112328 0 -4.9108598654112328 1.4840928843801531 0 0 0 0 -2.0675290839030787 -11.012493419133843 0 -11.012493419133843 -0.40929576830783576 0 0 0 0 -1.4828643461025877 -16.787816989930889 0 -16.787816989930889 19.302437835810906 0 0 0 0 -6.9732794599705787 -18.737610821678206 0 -18.737610821678206 6.1298666540816127 0 0 0 0 2.4436688216137754 -13.763822150758534 0 -13.763822150758534 22.709257950755656 0 0 0 0 -19.526220093437189 -40.869010057838238 0 -40.869010057838238 17.557025735007301 0 0 0 0 -16.09045815562294 -15.232440374674979 0 -15.232440374674979 -4.8768742164198464 0 0 0 0 -3.3768376431221441 -27.79850441681856 0 -27.79850441681856 12.251855035251197 0 0 0 0 -15.608543526732547 -31.253719441816031 0 -31.253719441816031 13.317192083344707 0 0 0 0 -3.4959393505123444 -37.713306797820678 0 -37.713306797820678 38.160704176530999 0 0 0 0 -10.216681234475345 -17.387936998125042 0 -17.387936998125042 53.980367479340202 0 0 0 0 -16.324356204240075 -30.998995339402768 0 -30.998995339402768 37.202294489466112 0 0 0 0 -7.7667657937238346 -28.056462515962892 0 -28.056462515962892 31.748870050240839 0 0 0 0 -17.239175854075484 -22.035105073317254 0 -22.035105073317254 2.058775256023182 0 0 0 0 54.31084646589261 12.847557103490317 0 12.847557103490317 -137.31173850445953 0 0 0 0 56.630016712758334 -87.235284527044982 0 -87.235284527044982 -65.740051980011771 0 0 0 0 16.947481445728044 -123.01643031647032 0 -123.01643031647032 63.511580050457454 0 0 0 0 -29.244825045775542 18.63261806471349 0 18.63261806471349 21.993183067586557 0 0 0 0 -17.481578695660996 -11.451794912686966 0 -11.451794912686966 -8.1124081184773029 0 0 0 0 1.4416105733317295 -21.232082025629381 0 -21.232082025629381 49.458026695423541 0 0 0 0 -20.285715888369396 -3.0989371874156006 0 -3.0989371874156006 44.135906744995111 0 0 0 0 -76.947184488488801 -94.724296811843033 0 -94.724296811843033 192.01519819963414 0 0 0 0 -3.2467884392781343 27.884558507210841 0 27.884558507210841 170.59226384069007 0 0 0 0 -15.498130442069899 -10.351986245720989 0 -10.351986245720989 -6.1813722602415062 0 0 0 0 1.5301546050409343 -34.686420110503605 0 -34.686420110503605 126.86253077687161 0 0 0 0 -96.176938302610779 -32.598262680163089 0 -32.598262680163089 51.847783016279436 0 0 0 0 -0.84854962739594697 -0.022636176809953668 0 -0.022636176809953668 0.30075915843335022 0 0 0 0 12.196005076319125 13.796741862006115 0 13.796741862006115 81.384988195761252 0 0 0 0 18.671598094415458 -26.590744040349364 0 -26.590744040349364 50.905383692934947 0 0 0 0 -3.9222899017563577 -16.926601010805371 0 -16.926601010805371 94.688529464106978 0 0 0 0 -1.7546238910490501 -18.265955071011376 0 -18.265955071011376 52.948563661533626 0 0 0 0 -10.739514036501987 0.32980631744521816 0 0.32980631744521816 72.316430474405024 0 0 0 0 -6.7414747675065883 -11.502180135146773 0 -11.502180135146773 43.397184278823261 0 0 0 0 -19.477224273074171 -6.3100192542965488 0 -6.3100192542965488 42.774176617782928 0 0 0 0 -16.60645704651472 2.0391121824491165 0 2.0391121824491165 47.314913229820831 0 0 0 0 -10.59494647177371 8.8356989688811609 0 8.8356989688811609 47.2131451634923 0 0 0 0 1.895843616532602 5.3492654694296107 0 5.3492654694296107 42.799227267850256 0 0 0 0 -1.6444526791334297 0.17459248641012604 0 0.17459248641012604 0.3153282124060075 0 0 0 0 0.69910910119824621 0.85843797316260861 0 0.85843797316260861 68.785435722842976 0 0 0 0 0.78313998888052083 21.784575425273488 0 21.784575425273488 78.532114458337674 0 0 0 0 -18.124656809942508 -12.137228819038683 0 -12.137228819038683 35.741666226239886 0 0 0 0 -14.291909922535524 14.111035782644194 0 14.111035782644194 108.58797399150899 0 0 0 0 -5.5427802303147473 40.322930126048732 0 40.322930126048732 80.209113573299874 0 0 0 0 -11.098637466585842 1.60771042180113 0 1.60771042180113 42.756972051711045 0 0 0 0 -1.3611047883911827 0.21154144292320787 0 0.21154144292320787 0.18534978265089475 0 0 0 0 36.133673471084649 37.375005406756031 0 37.375005406756031 4.762158971588633 0 0 0 0 -2.2429898985312775 34.188908001367963 0 34.188908001367963 22.587623200350663 0 0 0 0 -15.853838894044884 8.0353571976338571 0 8.0353571976338571 48.857768570807366 0 0 0 0 0.00086104461324820747 0.036968257290213025 0 0.036968257290213025 -0.048157928980868903 0 0 0 0 22.998408368834248 17.793786109509142 0 17.793786109509142 -11.64127572399093 0 0 0 0 -39.903804703891183 12.23468889875312 0 12.23468889875312 8.4932373564465706 0 0 0 0 -61.400805957807279 -52.880540196800666 0 -52.880540196800666 -87.552210481356042 0 0 0 0 -98.627777387043238 37.441551492612007 0 37.441551492612007 -10.890165401985996 0 0 0 0 -16.704236245826905 -26.867616588987175 0 -26.867616588987175 35.399669595902424 0 0 0 0 -16.746220439278659 46.761246199915377 0 46.761246199915377 54.822177584897418 0 0 0 0 -5.3818414907805163 -17.716414227280211 0 -17.716414227280211 14.376148328185309 0 0 0 0 11.514572748700004 -9.4332917963282625 0 -9.4332917963282625 7.2296619070137353 0 0 0 0 -3.6775495993358618 -27.624234083699093 0 -27.624234083699093 1.5613384249663795 0 0 0 0 -1.69685792216751 -21.800152627039552 0 -21.800152627039552 7.8327126138540279 0 0 0 0 8.3895223038613835 -20.802524932732069 0 -20.802524932732069 0.61549763611162689 0 0 0 0 2.20716897482896 -24.046969859703268 0 -24.046969859703268 0.48396755296062111 0 0 0 0 3.7889996602621747 -7.5806700760053758 0 -7.5806700760053758 15.353055458816494 0 0 0 0 -3.1537757066653285 17.034402313400733 0 17.034402313400733 55.449072973665807 0 0 0 0 20.690797010007827 50.031372797544918 0 50.031372797544918 -14.082934769291569 0 0 0 0 4.7844763053158204 38.451886180657539 0 38.451886180657539 43.833836258744896 0 0 0 0 -0.42495914454730155 27.858812539067458 0 27.858812539067458 35.771475705741977 0 0 0 0 19.586023847479282 10.364596184929724 0 10.364596184929724 43.705547802931505 0 0 0 0 13.22874838366431 -39.771090099137865 0 -39.771090099137865 13.657752111735135 0 0 0 0 -0.50055345886622682 0.079910514839969693 0 0.079910514839969693 0.068246277449525827 0 0 0 0 4.3027425752971693 -8.9866697783021738 0 -8.9866697783021738 18.086605807453072 0 0 0 0 -7.5257716130819858 -17.444913776722728 0 -17.444913776722728 12.709601368622771 0 0 0 0 -12.419923437509624 -0.02533248050713155 0 -0.02533248050713155 29.289929773335984 0 0 0 0 -12.623421985220716 0.11648682394854859 0 0.11648682394854859 31.646720273350638 0 0 0 0 -36.281368568260405 -30.36636411770246 0 -30.36636411770246 33.751155444958158 0 0 0 0 -17.49651541516387 -23.063258631840796 0 -23.063258631840796 21.055943578067854 0 0 0 0 -15.241270688479688 -21.686161610884255 0 -21.686161610884255 13.195568122004801 0 0 0 0 -15.891807346955062 -20.268346622480067 0 -20.268346622480067 14.030939829694944 0 0 0 0 -25.468730024419415 -26.091346797998085 0 -26.091346797998085 13.70780070788868 0 0 0 0 -9.6910147048319004 -23.218492664590315 0 -23.218492664590315 9.1795709009898019 0 0 0 0 -12.664371539928197 -22.951092532554867 0 -22.951092532554867 14.193743184039704 0 0 0 0 -17.545768728764301 -32.463262525985783 0 -32.463262525985783 7.0134225212523233 0 0 0 0 -14.239078296725211 -29.659871514119232 0 -29.659871514119232 9.0467475148143421 0 0 0 0 -21.943416208323924 -32.92586600309437 0 -32.92586600309437 15.431262306375174 0 0 0 0 -25.39074281588498 -31.682042026979623 0 -31.682042026979623 16.543664703638115 0 0 0 0 -36.051723499020511 -20.9084120085721 0 -20.9084120085721 25.91660823067923 0 0 0 0 -33.92625325889378 -13.984769249781493 0 -13.984769249781493 18.419666735313513 0 0 0 0 -52.424881506846532 -29.252755342718046 0 -29.252755342718046 24.248762765805282 0 0 0 0 -37.488848683111655 -30.110986597153669 0 -30.110986597153669 24.107809887399014 0 0 0 0 -18.024655360718214 -20.903627712375055 0 -20.903627712375055 13.948217506264086 0 0 0 0 -16.873012337270495 -13.09488675379248 0 -13.09488675379248 15.954612521045419 0 0 0 0 -17.026491572453551 -12.927528638718286 0 -12.927528638718286 17.535982076135952 0 0 0 0 -44.111224255982222 2.4356283929830624 0 2.4356283929830624 16.900516076901113 0 0 0 0 -54.535396006859855 -8.8622398104171225 0 -8.8622398104171225 33.671686799930285 0 0 0 0 -61.03594416752253 -14.388643014412537 0 -14.388643014412537 31.124988472164659 0 0 0 0 -11.875085825172079 -22.613829431094814 0 -22.613829431094814 12.946123414730209 0 0 0 0 5.7050282182282981 -10.352706875322049 0 -10.352706875322049 21.030665584188462 0 0 0 0 -15.704418176786007 -18.057872232895988 0 -18.057872232895988 12.819785014957233 0 0 0 0 -11.205693640330153 -20.137150063424542 0 -20.137150063424542 12.108312344404112 0 0 0 0 -9.7761529096658535 -22.901771084779284 0 -22.901771084779284 19.637314426990997 0 0 0 0 -5.2035752591153397 -19.088088717719529 0 -19.088088717719529 12.003434004690234 0 0 0 0 -9.3770508189326165 -21.614686846613722 0 -21.614686846613722 13.173432779476457 0 0 0 0 -15.294464083061456 -26.895579909172511 0 -26.895579909172511 23.033773986776396 0 0 0 0 -9.1863510817611314 -25.058006325583847 0 -25.058006325583847 21.848748370892508 0 0 0 0 -12.843361313105593 -7.2620216715353827 0 -7.2620216715353827 6.6680302053121432 0 0 0 0 -11.189886900303065 -22.693732564478296 0 -22.693732564478296 34.302991599684901 0 0 0 0 -2.1182748776717659 -26.270654337953147 0 -26.270654337953147 20.068187294393397 0 0 0 0 -6.4208372142227574 -23.027690430887105 0 -23.027690430887105 29.376836496327996 0 0 0 0 -22.263762434019554 14.924140726685437 0 14.924140726685437 17.426636071178109 0 0 0 0 74.20972005427484 42.862750464702003 0 42.862750464702003 2.2497263733429236 0 0 0 0 -4.0772124788633857 -2.2355443922027707 0 -2.2355443922027707 -0.71479635687202858 0 0 0 0 -4.6306431689777696 -31.232536847556275 0 -31.232536847556275 40.716363597946383 0 0 0 0 -10.650545732925117 -4.9306039134123463 0 -4.9306039134123463 -1.6453109401449142 0 0 0 0 -36.695226032500614 -125.4565045646541 0 -125.4565045646541 104.66025960337447 0 0 0 0 -50.231273520438435 19.864977565243635 0 19.864977565243635 15.49385611465641 0 0 0 0 -51.682151969780307 10.007505565164593 0 10.007505565164593 18.524609507431251 0 0 0 0 -14.799348528771191 -7.0892473545666235 0 -7.0892473545666235 14.2806062523332 0 0 0 0 5.7137638651881275 -18.9661721036382 0 -18.9661721036382 14.815708437274225 0 0 0 0 -17.266585291334849 -7.8521347812159092 0 -7.8521347812159092 20.043172942157071 0 0 0 0 16.943783415301368 -19.773495804346567 0 -19.773495804346567 16.764785628008667 0 0 0 0 -8.9540108547540349 -2.7730220364493103 0 -2.7730220364493103 -0.74125001084995645 0 0 0 0 -6.4539669372329627 -22.27101868255977 0 -22.27101868255977 78.478249194022283 0 0 0 0 -13.100929986521805 -31.480545726395576 0 -31.480545726395576 20.232819245350811 0 0 0 0 3.3144835477414745 -10.065962427792329 0 -10.065962427792329 56.150744618239514 0 0 0 0 9.7049614371999837 -24.142283730569034 0 -24.142283730569034 29.376321021955611 0 0 0 0 6.0286748876735601 -70.283108268818069 0 -70.283108268818069 92.420862153031521 0 0 0 0 12.243375898807926 -39.723158100889123 0 -39.723158100889123 48.642320231889244 0 0 0 0 1.1070473819190454 12.044613064459043 0 12.044613064459043 -14.9556108695906 0 0 0 0 85.559932894899021 -59.673799288167174 0 -59.673799288167174 13.572067077411702 0 0 0 0 -185.54740975591108 105.4886058522161 0 105.4886058522161 29.663875542048117 0 0 0 0 -270.36603579849242 -78.023582298223346 0 -78.023582298223346 38.270590430211996 0 0 0 0 37.888806591163586 96.78074250877296 0 96.78074250877296 -54.185659103064609 0 0 0 0 -107.31935473575459 -38.132179891483247 0 -38.132179891483247 47.452098590707465 0 0 0 0 -108.12159636996545 -36.798582623638367 0 -36.798582623638367 45.741310157465705 0 0 0 0 -108.29674776455158 9.9914466600230298 0 9.9914466600230298 36.128088261104949 0 0 0 0 -117.29812282840157 -70.290842455767915 0 -70.290842455767915 43.444193637366425 0 0 0 0 -58.406175237255411 -71.4865743385526 0 -71.4865743385526 -5.354638544796444 0 0 0 0 -33.047534080636979 -45.68551235504674 0 -45.68551235504674 -82.421533811205791 0 0 0 0 -109.45804647168529 -114.82343399174988 0 -114.82343399174988 -64.218702912260596 0 0 0 0 -53.932975917081421 -50.480947761158404 0 -50.480947761158404 4.0161362504604767 0 0 0 0 3.722031254070771 7.2573532065309792 0 7.2573532065309792 -17.490060007913598 0 0 0 0 -19.591786236083863 -28.026669317917367 0 -28.026669317917367 3.7606651507621791 0 0 0 0 -38.006480067663688 -50.914241419430255 0 -50.914241419430255 -23.554411658154663 0 0 0 0 1.3646415041980617 15.394761064258546 0 15.394761064258546 15.957524757278861 0 0 0 0 -12.052571278200958 25.360998654100058 0 25.360998654100058 33.764297585553777 0 0 0 0 -22.159218766378672 -27.855676239267723 0 -27.855676239267723 52.98961051481956 0 0 0 0 -15.938098059160069 -30.114771373302062 0 -30.114771373302062 45.713778149356585 0 0 0 0 -34.360869407308655 -66.79106772844807 0 -66.79106772844807 83.42765580609057 0 0 0 0 -34.776256218333856 -61.152911187767131 0 -61.152911187767131 32.329466533571576 0 0 0 0 -57.599074370622475 -62.76052424561658 0 -62.76052424561658 42.212991329659872 0 0 0 0 -32.472365759689183 -73.050043760830704 0 -73.050043760830704 38.955541795938643 0 0 0 0 -65.336165123869932 -75.553113782364107 0 -75.553113782364107 53.753982616523899 0 0 0 0 0.22153006965754685 -78.550184011297915 0 -78.550184011297915 42.213709688873223 0 0 0 0 -32.180989712967857 -70.648878645855575 0 -70.648878645855575 49.14017118062975 0 0 0 0 -26.340006072649658 -67.452245340379477 0 -67.452245340379477 25.388189223374866 0 0 0 0 -11.526828784745248 -79.84686824436676 0 -79.84686824436676 33.494749445956131 0 0 0 0 -47.019217479981307 -75.171032988260549 0 -75.171032988260549 42.390168042038795 0 0 0 0 -53.093547507151015 -63.701820774597536 0 -63.701820774597536 30.085808564907438 0 0 0 0 -55.964673150228919 -59.402717656105551 0 -59.402717656105551 44.250448965295313 0 0 0 0 -63.326565770813431 -44.991080201747764 0 -44.991080201747764 30.868725269667266 0 0 0 0 -50.762299630530038 -34.30801239418588 0 -34.30801239418588 38.596224284398886 0 0 0 0 -76.169740274228843 -31.994210054588166 0 -31.994210054588166 38.579760866428174 0 0 0 0 -72.21911186086777 -36.752077492794115 0 -36.752077492794115 44.23944394875889 0 0 0 0 -63.470626142304354 -65.206877277324054 0 -65.206877277324054 42.646959637714644 0 0 0 0 -85.971782157316284 -53.9711034359716 0 -53.9711034359716 44.235294005068027 0 0 0 0 -4.1258369878407848 -10.1058927579993 0 -10.1058927579993 9.3048235173819194 0 0 0 0 -1.3033209901117289 -6.0324797382154429 0 -6.0324797382154429 4.9092319748615409 0 0 0 0 -0.78390591281572597 -11.587232723781881 0 -11.587232723781881 9.9369951797234535 0 0 0 0 -5.6140075257377831 -0.61494577326244659 0 -0.61494577326244659 0.68400493524309613 0 0 0 0 75.634546401564876 -114.60214016377904 0 -114.60214016377904 414.76256326815201 0 0 0 0 120.71452121476705 -219.03214866660437 0 -219.03214866660437 325.17384963784934 0 0 0 0 304.17251201193903 -491.7416793985185 0 -491.7416793985185 395.25186017675287 0 0 0 0 0.5400961915800675 -0.87134035233709994 0 -0.87134035233709994 -0.008217422836198196 0 0 0 0 350.56681492928419 25.96433104953212 0 25.96433104953212 -353.66225178033847 0 0 0 0 107.75540390445758 -221.75352471108977 0 -221.75352471108977 244.91038683669376 0 0 0 0 -6.8324325082217001 -1.8699097858541336 0 -1.8699097858541336 10.056436329785356 0 0 0 0 3.6620025986239901 -3.9684244752094577 0 -3.9684244752094577 3.4007091932125881 0 0 0 0 8.21033444430077 -97.133435762253839 0 -97.133435762253839 173.57958346148928 0 0 0 0 11.679340440129636 -43.392895546699947 0 -43.392895546699947 29.493721960901894 0 0 0 0 25.979683059139006 -100.79675327666337 0 -100.79675327666337 186.32117976656173 0 0 0 0 222.89580528531405 -46.607366191684036 0 -46.607366191684036 14.537308816388304 0 0 0 0 150.33535665764248 -162.44632394190285 0 -162.44632394190285 160.25734102113029 0 0 0 0 0.88405109032026186 -1.1420957548838215 0 -1.1420957548838215 1.7462742225331915 0 0 0 0 10.408291490160991 -32.252278505145568 0 -32.252278505145568 256.33651995926266 0 0 0 0 37.782812441613714 -24.29386962515855 0 -24.29386962515855 105.80784956791922 0 0 0 0 111.48826962368094 -201.531186104879 0 -201.531186104879 178.81750529978228 0 0 0 0 -13.456387107004957 -106.83417836956778 0 -106.83417836956778 239.23426074991312 0 0 0 0 136.56849634715536 30.775500911107258 0 30.775500911107258 134.5736335292404 0 0 0 0 -15.937412992691861 48.509202783421188 0 48.509202783421188 105.16615742762315 0 0 0 0 18.718691185931675 -40.677309880935809 0 -40.677309880935809 106.32945039978468 0 0 0 0 53.135829947052287 -70.879896770214046 0 -70.879896770214046 74.663621712331405 0 0 0 0 52.34636398822613 -96.405069292208736 0 -96.405069292208736 72.285299579265939 0 0 0 0 -16.997119300579868 -35.958702574534158 0 -35.958702574534158 133.72865983729753 0 0 0 0 46.994306467926208 -47.17326031455616 0 -47.17326031455616 7.6981229597231504 0 0 0 0 0.50544267494361605 -67.801603570559791 0 -67.801603570559791 62.416178002215929 0 0 0 0 55.601758302049802 -77.480267600308025 0 -77.480267600308025 27.241046345528957 0 0 0 0 -4.730188173462011 -52.81795527249551 0 -52.81795527249551 18.944610142141983 0 0 0 0 32.594061782843255 9.7091489957382464 0 9.7091489957382464 1.5337093213738626 0 0 0 0 70.806633589686498 -37.294860142607831 0 -37.294860142607831 3.3220543516172256 0 0 0 0 118.71240384898573 3.4418263377047964 0 3.4418263377047964 -8.7972747914964202 0 0 0 0 127.40340273639504 -95.10698682319844 0 -95.10698682319844 35.882093673857526 0 0 0 0 8.7700799921271937 11.369923655067851 0 11.369923655067851 -22.549085449957602 0 0 0 0 -4.1058022091428938 1.8939528427617915 0 1.8939528427617915 -24.287909139606199 0 0 0 0 -4.0081094276702061 -7.8178929044324832 0 -7.8178929044324832 -13.613853455812205 0 0 0 0 10.906663029943502 -13.501849399223261 0 -13.501849399223261 11.2064898989629 0 0 0 0 1.5580729153596966 -3.573037971808287 0 -3.573037971808287 4.3922481541859142 0 0 0 0 -5.8427964137681556 -13.133736629116356 0 -13.133736629116356 -2.796621744483673 0 0 0 0 -0.70640881930739852 -16.164795922744815 0 -16.164795922744815 5.7605408692716082 0 0 0 0 -2.4550823475174184 -5.4595051546966715 0 -5.4595051546966715 2.9082599719977225 0 0 0 0 -1.4274054428788077 -15.493055199589435 0 -15.493055199589435 6.1295612954149874 0 0 0 0 -0.26267253782857924 -5.0499608523848023 0 -5.0499608523848023 -0.29638035366595972 0 0 0 0 3.4726707158471273 -5.1215549624133994 0 -5.1215549624133994 4.6214832889754618 0 0 0 0 -11.789744340958805 4.2050515433784312 0 4.2050515433784312 -5.8937271169561427 0 0 0 0 -1.223182377181729 16.268123390423625 0 16.268123390423625 -5.7801956046855594 0 0 0 0 -1.4492164122834765 -4.8789937704024169 0 -4.8789937704024169 -14.818909355799406 0 0 0 0 -4.1230009942814831 -9.2001561178321936 0 -9.2001561178321936 -9.9897277038512584 0 0 0 0 -0.14623207504762537 -1.2189632967241475 0 -1.2189632967241475 -1.0474419450964003 0 0 0 0 6.6942856334494536 -7.1717129330055513 0 -7.1717129330055513 -7.6670136840773466 0 0 0 0 9.7268686230673893 -3.1650652124768044 0 -3.1650652124768044 -8.134673633451257 0 0 0 0 3.2524132900334575 -4.4645102737348523 0 -4.4645102737348523 0.27286823204666444 0 0 0 0 2.0572570128597363 -3.05242505782644 0 -3.05242505782644 8.0879303829533455 0 0 0 0 0.63837035382861984 -4.8384364988917881 0 -4.8384364988917881 0.53456747687981609 0 0 0 0 -0.21754034412879264 -3.4631179412244819 0 -3.4631179412244819 -0.130912943023759 0 0 0 0 0.7246101596329142 -5.9103101587935853 0 -5.9103101587935853 1.1171737981601524 0 0 0 0 0.034439952482999026 -5.528952979571379 0 -5.528952979571379 -2.299856014142355 0 0 0 0 -2.4775311250077721 -2.2685168490825163 0 -2.2685168490825163 -2.0267374492850649 0 0 0 0 16.188935130812752 -6.1812418669369436 0 -6.1812418669369436 -6.9097168317871365 0 0 0 0 -0.17741491968182821 -0.40531549485097518 0 -0.40531549485097518 0.49265278228397325 0 0 0 0 -2.7274943736567305 -3.3134751314960402 0 -3.3134751314960402 -2.1147545067331368 0 0 0 0 -3.9179315210458299 -8.4953346927704843 0 -8.4953346927704843 -7.8677930335559267 0 0 0 0 15.205312780209169 -5.8482591575514107 0 -5.8482591575514107 -1.345136885609179 0 0 0 0 -7.4520617460066205 -3.7145561398488098 0 -3.7145561398488098 -0.62391683282612576 0 0 0 0 -0.68775330463677165 -2.5239151840260092 0 -2.5239151840260092 -7.5352491785631983 0 0 0 0 7.3054416651325482 -23.092997544890522 0 -23.092997544890522 8.9850459900685564 0 0 0 0 1.2593680980789941 3.2889253404694045 0 3.2889253404694045 -37.231208901337027 0 0 0 0 -2.2646088822183366 -1.8708806813834702 0 -1.8708806813834702 -1.6428934191890998 0 0 0 0 33.173132304167666 -17.606617432346752 0 -17.606617432346752 -3.5903866664034467 0 0 0 0 12.000849536488772 -14.17673096727674 0 -14.17673096727674 -1.4436634296230295 0 0 0 0 18.941542109489092 -24.197415349289031 0 -24.197415349289031 1.3730015509270288 0 0 0 0 -34.203785967485601 -36.82085753881438 0 -36.82085753881438 10.835886384672222 0 0 0 0 29.46108107420531 -48.261312964766148 0 -48.261312964766148 10.465198934460659 0 0 0 0 7.8298694139298277 -27.951790190584774 0 -27.951790190584774 4.2102550351182799 0 0 0 0 -104.21763931813348 -41.244755550468767 0 -41.244755550468767 29.131393712411864 0 0 0 0 -1.0937716287839976 1.132298131735638 0 1.132298131735638 -202.29220753138384 0 0 0 0 -1.0286907205489459 -0.65611879781109295 0 -0.65611879781109295 -0.45559498375991847 0 0 0 0 -67.512348643328551 -95.989536629107988 0 -95.989536629107988 -129.93806807943491 0 0 0 0 -139.74082420894592 -24.465080534979847 0 -24.465080534979847 -37.385869898757505 0 0 0 0 -2.3417550297135676 -61.573401276802201 0 -61.573401276802201 -93.46139216255267 0 0 0 0 -36.542171399958079 -47.220323320968646 0 -47.220323320968646 -53.481560644789852 0 0 0 0 1.7011157390870721 -7.8379551827814566 0 -7.8379551827814566 -36.157288531232993 0 0 0 0 0.24110152002805307 15.045685579100883 0 15.045685579100883 -87.818354556329723 0 0 0 0 6.9258829502646222 -5.4643491069184051 0 -5.4643491069184051 -49.453792299745146 0 0 0 0 9.1032019941917497 -39.200872368054632 0 -39.200872368054632 -49.828820571308597 0 0 0 0 11.938946889706131 -44.449553295845021 0 -44.449553295845021 -43.165326807385895 0 0 0 0 16.960973805204048 -25.773648809127621 0 -25.773648809127621 -63.682899467695506 0 0 0 0 18.659394851288994 -33.285780929881923 0 -33.285780929881923 -30.506356464521104 0 0 0 0 12.405534735134097 -20.734360858376817 0 -20.734360858376817 -40.338696513592481 0 0 0 0 11.528862000963272 -36.026479955938044 0 -36.026479955938044 -31.419902236085363 0 0 0 0 7.8695442436105623 -11.969665400506756 0 -11.969665400506756 -26.168928192581689 0 0 0 0 12.740057647551112 -23.787820583662892 0 -23.787820583662892 -20.970556069866689 0 0 0 0 8.5084641911967083 -11.79224654397018 0 -11.79224654397018 -26.395245429495617 0 0 0 0 8.117751150505228 -10.323398342609607 0 -10.323398342609607 -17.48962487900053 0 0 0 0 -32.117929278170777 -63.581385148765889 0 -63.581385148765889 -0.31395266564095436 0 0 0 0 -33.000743708274058 -65.800291569893261 0 -65.800291569893261 -1.6114273948808204 0 0 0 0 -29.340905309724121 -58.128766004101863 0 -58.128766004101863 10.197336412497634 0 0 0 0 -16.838724392579024 -48.237452803730321 0 -48.237452803730321 -7.8218809911702465 0 0 0 0 -14.050192606835619 -37.321149645172682 0 -37.321149645172682 6.0057860752172019 0 0 0 0 -29.629263345761956 -44.336420800103951 0 -44.336420800103951 6.1626383502949764 0 0 0 0 -45.379569517651873 -44.100684812647216 0 -44.100684812647216 25.490018059841077 0 0 0 0 -33.120880223513836 -46.722071630164351 0 -46.722071630164351 21.922928205269727 0 0 0 0 -40.845961199006751 -63.760213024447239 0 -63.760213024447239 30.085678598483355 0 0 0 0 -40.404404947969851 -57.61956111418931 0 -57.61956111418931 11.785183980447528 0 0 0 0 -37.236297990523781 -67.114195186539291 0 -67.114195186539291 13.098097577042779 0 0 0 0 -40.756242932475061 -69.019700702406453 0 -69.019700702406453 25.758126051925046 0 0 0 0 -31.56723935568175 -73.834922247860163 0 -73.834922247860163 9.306694479935004 0 0 0 0 -30.96439115075168 -67.358564912395423 0 -67.358564912395423 -4.721735350252402 0 0 0 0 -42.017331874122874 -64.87875252087133 0 -64.87875252087133 -5.0457871185961096 0 0 0 0 -40.958435044632552 -67.229960047481654 0 -67.229960047481654 13.119735657536751 0 0 0 0 -34.564847013002236 -74.1322677077207 0 -74.1322677077207 -27.686169184838946 0 0 0 0 -15.323192907526845 -61.416888980996077 0 -61.416888980996077 -52.547116332498717 0 0 0 0 -54.25118957254881 -102.88881036760705 0 -102.88881036760705 -80.921193177444366 0 0 0 0 -48.296139146500082 4.5211373251012219 0 4.5211373251012219 -124.30412442674282 0 0 0 0 -25.346851012246248 -37.02808011643242 0 -37.02808011643242 -49.548988400015446 0 0 0 0 -14.859000536997428 -26.377017161515369 0 -26.377017161515369 -42.609641399166549 0 0 0 0 -8.2431584268084066 -25.244014278307986 0 -25.244014278307986 -6.045633035812898 0 0 0 0 -11.876232008861507 -34.204323784041208 0 -34.204323784041208 -26.697250422313893 0 0 0 0 -14.806996347570987 -46.126932106874847 0 -46.126932106874847 -5.7635477176122549 0 0 0 0 -13.562129081010198 -51.609189693871826 0 -51.609189693871826 -30.077556273741493 0 0 0 0 -16.328586840267235 -41.038089804823016 0 -41.038089804823016 0.81566946809448382 0 0 0 0 -3.4471182839670291 -29.977896698787333 0 -29.977896698787333 -5.1535354365641979 0 0 0 0 0.29207751620106137 -23.805826767832968 0 -23.805826767832968 1.5787886052454496 0 0 0 0 -4.1302023054138317 -35.425580486843842 0 -35.425580486843842 -20.392723836108075 0 0 0 0 -0.76003257501201915 -7.7610308476486694 0 -7.7610308476486694 -11.471769825330881 0 0 0 0 8.2936568433323146 -16.456524712139256 0 -16.456524712139256 -4.6974478287453394 0 0 0 0 7.1952237916709976 11.422772084379254 0 11.422772084379254 18.923371583562925 0 0 0 0 -17.500055940243556 -16.207665629219605 0 -16.207665629219605 -13.023504930189574 0 0 0 0 -1.2868441159664599 -13.079420261582527 0 -13.079420261582527 -25.703379433009729 0 0 0 0 -20.15370839739353 -0.76382689599120113 0 -0.76382689599120113 -55.422180354773971 0 0 0 0 -72.039673242007211 -5.4240443971006016 0 -5.4240443971006016 -13.243977385731966 0 0 0 0 -41.893840442853616 -5.7275567668287977 0 -5.7275567668287977 3.2689374668122753 0 0 0 0 -25.013304967897511 -15.961183038604389 0 -15.961183038604389 -11.369018466202419 0 0 0 0 -35.276641821687463 -11.494687121502167 0 -11.494687121502167 5.2814000585523218 0 0 0 0 -20.688386047492713 8.5109724384524839 0 8.5109724384524839 -7.1233665961378954 0 0 0 0 -18.748020308510149 -7.4428103369793348 0 -7.4428103369793348 19.295038940119525 0 0 0 0 -31.25679951071038 -0.073948414557818865 0 -0.073948414557818865 15.179123253573877 0 0 0 0 -20.48593472251946 -17.717419871812339 0 -17.717419871812339 9.3420570343161558 0 0 0 0 -21.678255812275609 -5.0211044512585055 0 -5.0211044512585055 25.392981543529118 0 0 0 0 3.7834210130720254 -6.2426651640376871 0 -6.2426651640376871 11.069604418151815 0 0 0 0 -2.5160696983722914 -8.5585311600603262 0 -8.5585311600603262 7.6382166545410035 0 0 0 0 -6.1813742592371455 0.10040590990709575 0 0.10040590990709575 21.340199900935218 0 0 0 0 149.36855232021708 121.57218685663543 0 121.57218685663543 -7.9971800562661883 0 0 0 0 3.3363730142279819 -6.0862036323587478 0 -6.0862036323587478 11.791155783339365 0 0 0 0 -21.963850285402799 -0.20442983157181227 0 -0.20442983157181227 22.895832459658365 0 0 0 0 5.0745282629268331 -85.158699364693433 0 -85.158699364693433 -44.048362238102897 0 0 0 0 7.4083948988704833 -48.865517034379081 0 -48.865517034379081 18.26782666579652 0 0 0 0 -16.473486130439142 -85.9218684656025 0 -85.9218684656025 9.3806311335267765 0 0 0 0 39.711236430160625 -64.874222933356464 0 -64.874222933356464 -7.0959958907407099 0 0 0 0 6.6254972531926342 -48.102819710795103 0 -48.102819710795103 -11.213031417488992 0 0 0 0 19.992573123624425 -51.374802930310238 0 -51.374802930310238 -20.327445431002332 0 0 0 0 7.5905150536104884 -58.504493150695964 0 -58.504493150695964 -19.600430492236626 0 0 0 0 16.032571040740436 -39.405343878463157 0 -39.405343878463157 -38.010769091899419 0 0 0 0 7.9420555869979808 -61.348557710714061 0 -61.348557710714061 -50.417661976601948 0 0 0 0 2.1709345803747055 -63.621046015052116 0 -63.621046015052116 -23.238869455973827 0 0 0 0 17.458484654423955 -78.46459652731221 0 -78.46459652731221 -14.900938825185904 0 0 0 0 -0.1789047757051776 -93.561749567757602 0 -93.561749567757602 -27.627260492910068 0 0 0 0 8.4793828456406573 -62.250569245830121 0 -62.250569245830121 -25.484340146102397 0 0 0 0 16.921476512386107 -55.1933633477569 0 -55.1933633477569 -27.497140127132191 0 0 0 0 -20.426130424027406 -34.880099799510177 0 -34.880099799510177 2.9910147927952266 0 0 0 0 -17.008445655743799 -53.89119493426665 0 -53.89119493426665 -27.137244721939993 0 0 0 0 -19.330016712339102 -62.335603770483715 0 -62.335603770483715 -50.062260749552479 0 0 0 0 -58.876193743417161 -38.405355309610599 0 -38.405355309610599 -11.814184102027525 0 0 0 0 -43.291247229610235 -23.102768368592081 0 -23.102768368592081 -41.622037074099268 0 0 0 0 -17.418183621546177 -36.666697861395022 0 -36.666697861395022 -11.741468776845899 0 0 0 0 -13.856242825868321 -6.4262146397576547 0 -6.4262146397576547 20.378266106976476 0 0 0 0 3.1246549406237136 -16.826270851844356 0 -16.826270851844356 25.462720171873059 0 0 0 0 -0.10013200053504079 -21.609707493688944 0 -21.609707493688944 33.119063366560738 0 0 0 0 -15.625398420941224 -17.591950270507215 0 -17.591950270507215 28.887666609431662 0 0 0 0 23.804409174473221 -42.10852972022365 0 -42.10852972022365 35.654184186730163 0 0 0 0 22.108363010574521 -14.478716278207701 0 -14.478716278207701 30.975802489912816 0 0 0 0 5.7014204327285825 -36.231742302085856 0 -36.231742302085856 2.3233463032938744 0 0 0 0 -0.31435019641597783 -0.36105222430047768 0 -0.36105222430047768 0.099807563227211404 0 0 0 0 55.647597451113143 -80.001045584061785 0 -80.001045584061785 -31.335732554848907 0 0 0 0 61.546300969228923 -44.522585656939015 0 -44.522585656939015 -19.562182535999078 0 0 0 0 14.025462538220381 -10.192345020788594 0 -10.192345020788594 9.0547970552859098 0 0 0 0 -13.542454783546646 -33.563295732696879 0 -33.563295732696879 17.006337755416553 0 0 0 0 -7.7828524403919346 -64.043959398346487 0 -64.043959398346487 -67.410956360709008 0 0 0 0 -13.257768901970167 -57.684974725276575 0 -57.684974725276575 -2.0897786711780455 0 0 0 0 -8.9481877581340541 5.2783628116835359 0 5.2783628116835359 10.094699653034411 0 0 0 0 -12.093288184801168 -2.6897661764551941 0 -2.6897661764551941 26.594408512819655 0 0 0 0 1.9984583825157642 -7.8742507943017586 0 -7.8742507943017586 4.8973581704449884 0 0 0 0 2.3959001223816472 -31.113762591658354 0 -31.113762591658354 49.723797991742117 0 0 0 0 64.118308009911573 7.566156157390278 0 7.566156157390278 31.175572557108126 0 0 0 0 58.63877890404251 -32.974509631790838 0 -32.974509631790838 2.8112129713741751 0 0 0 0 0.020798913106928441 -0.16469626041389862 0 -0.16469626041389862 0.68872983889451223 0 0 0 0 -22.443995115379948 0.6815165192567747 0 0.6815165192567747 32.253872556267169 0 0 0 0 40.761745525623326 -25.650769005650087 0 -25.650769005650087 18.435917917573306 0 0 0 0 103.28790845814319 -42.367612578267824 0 -42.367612578267824 -0.40949546353385813 0 0 0 0 37.371147213359563 -71.757385995623167 0 -71.757385995623167 26.331122583837896 0 0 0 0 -0.47020839603996301 -0.46644652156830002 0 -0.46644652156830002 0.24120524667959808 0 0 0 0 45.218173158681566 -46.243323289364696 0 -46.243323289364696 24.029950051923663 0 0 0 0 38.174907951331647 -22.216910677710125 0 -22.216910677710125 21.592287596648532 0 0 0 0 7.2235149253897362 -15.305346509379717 0 -15.305346509379717 24.242129293211349 0 0 0 0 6.0523228323762623 -17.9187714438726 0 -17.9187714438726 22.113095348748175 0 0 0 0 14.557459203816848 -10.189180252488072 0 -10.189180252488072 9.7371474929152555 0 0 0 0 18.856989596676613 -22.797404997393414 0 -22.797404997393414 17.303801904586464 0 0 0 0 -0.50798696554897571 -0.36150237175091338 0 -0.36150237175091338 0.56631553930307477 0 0 0 0 70.403076107396373 -30.804061833072069 0 -30.804061833072069 5.3030194445652796 0 0 0 0 -0.42213638658828945 -0.27164862106071763 0 -0.27164862106071763 0.4689798058742185 0 0 0 0 39.446638709465418 -39.419302430534017 0 -39.419302430534017 22.518883306825046 0 0 0 0 40.288794888250209 -22.762081335263247 0 -22.762081335263247 52.974371787067867 0 0 0 0 23.838799409322974 -51.135201061091038 0 -51.135201061091038 16.95327769269943 0 0 0 0 69.286734399974648 -30.136680303514481 0 -30.136680303514481 0.4568381351402877 0 0 0 0 26.203049908647699 -12.732462626523443 0 -12.732462626523443 -6.091057775367517 0 0 0 0 46.261915967280402 -30.517346656695736 0 -30.517346656695736 -1.487809734958546 0 0 0 0 37.299330019608988 3.949811233291598 0 3.949811233291598 -7.7277592666882811 0 0 0 0 13.479787544659303 -24.102480267673513 0 -24.102480267673513 27.587202393949866 0 0 0 0 0.79125255912814652 -0.36151692434532645 0 -0.36151692434532645 -1.4887922179181414 0 0 0 0 -11.456621070919937 -4.0720580389152019 0 -4.0720580389152019 -7.0468449459144722 0 0 0 0 20.812434386078621 -13.139085084463318 0 -13.139085084463318 5.1902939221015458 0 0 0 0 50.107025193598929 -37.967091475622965 0 -37.967091475622965 22.963668584412972 0 0 0 0 53.684669197505173 -32.285120139495461 0 -32.285120139495461 6.4558927820248755 0 0 0 0 53.877213078828035 -27.438772363495822 0 -27.438772363495822 -0.81788626298452982 0 0 0 0 2.8184382754898252 -14.309637069588916 0 -14.309637069588916 26.502315453625897 0 0 0 0 0.38467107523618649 -1.710831489616492 0 -1.710831489616492 1.7759056052758044 0 0 0 0 -10.260637403082669 -10.91814110083723 0 -10.91814110083723 10.341945598223901 0 0 0 0 -0.63996823764732724 -12.085012766399416 0 -12.085012766399416 -5.4604870393209159 0 0 0 0 4.7773075954769411 -7.3331884889281582 0 -7.3331884889281582 0.46025813105188718 0 0 0 0 -9.9519128375386572 -14.545043164904882 0 -14.545043164904882 12.021601654610663 0 0 0 0 -9.652954477290443 -7.0653764966591108 0 -7.0653764966591108 -1.2546888091256161 0 0 0 0 -5.9963722843310592 -35.624296893333849 0 -35.624296893333849 16.755033466641635 0 0 0 0 -7.5696233177068279 -6.9742481879762863 0 -6.9742481879762863 -0.080503451941922322 0 0 0 0 -9.3373077962936577 -4.6378838294116065 0 -4.6378838294116065 13.672006216097202 0 0 0 0 4.6526568127984884 -7.2694982947827533 0 -7.2694982947827533 11.540083822591797 0 0 0 0 145.37007412619096 73.947480827077811 0 73.947480827077811 -37.266379655666242 0 0 0 0 19.361153217669425 7.487627502144278 0 7.487627502144278 68.726803465838202 0 0 0 0 -17.201001716891597 -7.3637561978670476 0 -7.3637561978670476 16.968862213456703 0 0 0 0 -14.932124971473968 -12.161415177076918 0 -12.161415177076918 29.487927039037004 0 0 0 0 -14.770407339951362 -12.53241515057681 0 -12.53241515057681 26.820654975160899 0 0 0 0 -12.789236258549636 -13.213236107774108 0 -13.213236107774108 11.297343063689823 0 0 0 0 -12.835680160644188 -14.572766984113173 0 -14.572766984113173 23.073072698979615 0 0 0 0 -22.062048289064478 -16.404629528388284 0 -16.404629528388284 18.844522145479999 0 0 0 0 -33.868642723190305 -24.76396418117065 0 -24.76396418117065 8.782952047531694 0 0 0 0 -17.712607471310093 -25.921674587739062 0 -25.921674587739062 5.8508624711099628 0 0 0 0 -15.835451479935728 -5.2221425681734672 0 -5.2221425681734672 12.785335490184707 0 0 0 0 -25.462242782790781 -17.481068270295395 0 -17.481068270295395 0.25287337970166845 0 0 0 0 -25.963776762864654 -12.882334130486242 0 -12.882334130486242 7.7418369805158136 0 0 0 0 94.49037824161087 28.330910880087686 0 28.330910880087686 -0.78165696957512409 0 0 0 0 97.460621607087319 -41.33029850785374 0 -41.33029850785374 -47.852726600674941 0 0 0 0 5.8992015930292574 -8.8223368200701167 0 -8.8223368200701167 13.289305513053964 0 0 0 0 -2.7396547511984863 -43.456722501378408 0 -43.456722501378408 25.671413672986091 0 0 0 0 31.058589252521415 -77.352988482324804 0 -77.352988482324804 -68.731154535312271 0 0 0 0 9.0606836402585031 -48.360649499243664 0 -48.360649499243664 -7.4651127688657652 0 0 0 0 33.628824633025715 -73.474110701365589 0 -73.474110701365589 -24.185394674014788 0 0 0 0 3.4863408135445297 -112.36557035802213 0 -112.36557035802213 -177.69967665332388 0 0 0 0 -5.3602742067232612 -52.318060127310673 0 -52.318060127310673 -27.603122711055221 0 0 0 0 -136.06746510592757 -135.04084070479848 0 -135.04084070479848 -39.265164393026339 0 0 0 0 -135.81896311631317 -129.72663925154257 0 -129.72663925154257 -51.055645870095759 0 0 0 0 -252.90445221330492 -112.11049655649367 0 -112.11049655649367 1.6601727847660186 0 0 0 0 -128.03699826526059 23.62224624180044 0 23.62224624180044 9.6724802768276277 0 0 0 0 -1.9734268435724602 -1.6679850972255243 0 -1.6679850972255243 -1.4951831967102454 0 0 0 0 -459.10340949705716 -12.79927843370865 0 -12.79927843370865 18.43827607113144 0 0 0 0 -342.58090422136581 -255.75675072173124 0 -255.75675072173124 -127.8620008799071 0 0 0 0 -93.602045828797145 -42.970767544196406 0 -42.970767544196406 -390.75710215874506 0 0 0 0 -97.322817501071995 -31.767254689312495 0 -31.767254689312495 -29.790341130616071 0 0 0 0 29.447544751136888 12.471600344808053 0 12.471600344808053 -157.80323986873555 0 0 0 0 -346.22248858355579 -36.252204579301633 0 -36.252204579301633 -65.361761721736002 0 0 0 0 -253.18595117741899 -301.27306968099219 0 -301.27306968099219 -278.65678281483724 0 0 0 0 -144.1994478073583 -172.10849710958831 0 -172.10849710958831 -100.25814987072772 0 0 0 0 -107.13298791684156 -12.515054752143669 0 -12.515054752143669 -65.251722732131711 0 0 0 0 -111.25504499426359 -46.480235871389027 0 -46.480235871389027 32.608342438224099 0 0 0 0 -32.655466150341226 -129.33547876352577 0 -129.33547876352577 -113.21774326005556 0 0 0 0 -25.988027227319435 -113.84880619208161 0 -113.84880619208161 -78.018003080972449 0 0 0 0 -74.472048485288724 -92.398042675317583 0 -92.398042675317583 -15.593301997349272 0 0 0 0 -53.203315570910945 -119.75602129002345 0 -119.75602129002345 -126.37488950718921 0 0 0 0 -34.734702451292151 -144.85094767922965 0 -144.85094767922965 -192.30412956611508 0 0 0 0 -13.555415340295895 -104.56256015716053 0 -104.56256015716053 -118.02299319874356 0 0 0 0 -10.041676196085632 -24.161063536174538 0 -24.161063536174538 -81.204817949598691 0 0 0 0 -13.855549669644461 -22.482680027093011 0 -22.482680027093011 -44.929917723211474 0 0 0 0 34.317224287395675 -21.620931353880678 0 -21.620931353880678 -178.32815425662284 0 0 0 0 48.054906395717808 -44.062746163918746 0 -44.062746163918746 -350.65877785976693 0 0 0 0 12.947719877741747 12.685501671673137 0 12.685501671673137 -36.925473788392082 0 0 0 0 -56.270264297066205 -37.824830996900801 0 -37.824830996900801 -4.8174095910628125 0 0 0 0 19.158467229396592 -73.536593022354737 0 -73.536593022354737 3.8249945199177091 0 0 0 0 32.123390030051269 -46.513804160245854 0 -46.513804160245854 39.162144838028325 0 0 0 0 -3.0685513848340329 -5.8929545842984981 0 -5.8929545842984981 -2.8391962914697828 0 0 0 0 1.8268141304716083 -1.4031167497496924 0 -1.4031167497496924 -3.5309271434142193 0 0 0 0 -21.535104011951944 -6.1157063631596884 0 -6.1157063631596884 8.3250595891677222 0 0 0 0 31.318094286806627 -19.356540811638297 0 -19.356540811638297 -44.729350179125674 0 0 0 0 2.1948820381083589 -3.3561747015838153 0 -3.3561747015838153 4.238165822808531 0 0 0 0 -50.749053439749787 -43.894779111257549 0 -43.894779111257549 -40.096574129411692 0 0 0 0 93.221299884179189 28.067314115553017 0 28.067314115553017 15.875828952167467 0 0 0 0 28.426518192916546 -120.52906168919162 0 -120.52906168919162 -130.02998098570856 0 0 0 0 -75.823286046980115 -113.11920397698009 0 -113.11920397698009 -34.788317278387694 0 0 0 0 49.061274721890413 -108.28051407515773 0 -108.28051407515773 -65.162375892809905 0 0 0 0 -361.94550014978029 -276.40509060989098 0 -276.40509060989098 -63.697917823559692 0 0 0 0 -230.81207184644268 -88.956246322389916 0 -88.956246322389916 -111.55320763729503 0 0 0 0 -136.75393103139504 -231.45405614892047 0 -231.45405614892047 19.914483205739089 0 0 0 0 0.67542980738942648 -1.5625785991708039 0 -1.5625785991708039 -2.1453808686248017 0 0 0 0 -632.27444013221896 -331.15150351812827 0 -331.15150351812827 -44.611930582051173 0 0 0 0 -152.06091855546242 -183.61491204550748 0 -183.61491204550748 -201.94276724559086 0 0 0 0 -157.66938549211443 -162.13869668837779 0 -162.13869668837779 -19.410481657019318 0 0 0 0 -25.898682006578383 3.6980616465746152 0 3.6980616465746152 -55.781170520817 0 0 0 0 -110.30866514569857 -116.20673828515896 0 -116.20673828515896 -208.3718273780546 0 0 0 0 -264.56834341351089 -196.68249308476888 0 -196.68249308476888 -245.01112459746128 0 0 0 0 -196.82910545647746 -105.03018332058832 0 -105.03018332058832 -130.22964834736922 0 0 0 0 -42.171544284127663 -82.724962879742861 0 -82.724962879742861 -88.155899948698789 0 0 0 0 -119.77441017836213 -150.23823344190009 0 -150.23823344190009 -90.393672565173802 0 0 0 0 1.069020079087954 -1.4620780129205375 0 -1.4620780129205375 0.75460661111088179 0 0 0 0 296.92238611771518 108.72187456157258 0 108.72187456157258 13.006824373226209 0 0 0 0 149.8591117062449 -158.82391807751378 0 -158.82391807751378 -183.47840786921529 0 0 0 0 122.62272283991899 -84.886474284401061 0 -84.886474284401061 -141.03039314245962 0 0 0 0 21.267734452320838 -157.9433517071534 0 -157.9433517071534 -90.07915203382646 0 0 0 0 -2.9700568430146177 -42.85148369420267 0 -42.85148369420267 -145.14400899087377 0 0 0 0 -37.28405507681714 -4.4574555878380124 0 -4.4574555878380124 -107.45429915318587 0 0 0 0 -24.655367266538633 -40.113012983985072 0 -40.113012983985072 -101.40093907493929 0 0 0 0 2.2132464118056987 -63.043717210151954 0 -63.043717210151954 -92.593877959208839 0 0 0 0 -124.6854303382031 -57.754682516735784 0 -57.754682516735784 -256.20005304956794 0 0 0 0 -166.71526750117528 -0.63017502526827229 0 -0.63017502526827229 -159.12072008688619 0 0 0 0 -173.82844248564197 -46.771082667924929 0 -46.771082667924929 -218.19288786903462 0 0 0 0 -29.550688955242549 -14.47027833985203 0 -14.47027833985203 -168.57408158241424 0 0 0 0 -106.83115500624729 -7.9968440989039777 0 -7.9968440989039777 -142.29946414054393 0 0 0 0 -105.15820827983589 21.565770830612792 0 21.565770830612792 -109.06873729278459 0 0 0 0 -113.5972854905915 -2.8059916073937075 0 -2.8059916073937075 -110.20538302351724 0 0 0 0 -186.7279039919822 30.592347017655811 0 30.592347017655811 -33.098277663681074 0 0 0 0 -188.80646677552738 51.646644414750853 0 51.646644414750853 -86.465997174828772 0 0 0 0 -138.6678319371199 35.846340100187717 0 35.846340100187717 -169.73651507333307 0 0 0 0 -202.61916028312771 27.493778724520325 0 27.493778724520325 -84.260018497373778 0 0 0 0 -129.94710216711019 -16.659140915487342 0 -16.659140915487342 -8.7775792573297622 0 0 0 0 -224.9239014280617 -24.697925569926262 0 -24.697925569926262 16.003475818411971 0 0 0 0 -132.9455371495273 -8.6252390091408984 0 -8.6252390091408984 -20.418988637815346 0 0 0 0 -50.937569442560743 -21.252231589797702 0 -21.252231589797702 -75.464391267068322 0 0 0 0 -43.289894138364389 -38.321438087508113 0 -38.321438087508113 -37.99070528599691 0 0 0 0 -89.590400240986583 -15.360586321972846 0 -15.360586321972846 -19.374175561817083 0 0 0 0 -133.6485226823138 -58.244248188942493 0 -58.244248188942493 27.603402171273956 0 0 0 0 -194.71996877777275 -135.70920614190521 0 -135.70920614190521 -21.102851305352942 0 0 0 0 21.424610488166536 -4.3489673133921087 0 -4.3489673133921087 -49.045529921403613 0 0 0 0 0.095707271168365526 -0.11553482013198035 0 -0.11553482013198035 -0.26789066580094278 0 0 0 0 -36.174443830146402 -19.755762231574977 0 -19.755762231574977 -31.783510774153456 0 0 0 0 -39.763144794786456 9.3222284371207493 0 9.3222284371207493 15.32978764253312 0 0 0 0 7.3636964315890054 6.2908851515965125 0 6.2908851515965125 0.36881067250556043 0 0 0 0 4.1632299390846583 -5.5529801818394162 0 -5.5529801818394162 -2.2374563515652426 0 0 0 0 -35.005196350295023 -9.8280954058870975 0 -9.8280954058870975 19.473874419335516 0 0 0 0 -2.9081401138375895 -12.426607679022936 0 -12.426607679022936 36.289979742839023 0 0 0 0 -6.1884268905714634 18.292237894712116 0 18.292237894712116 44.678692289847277 0 0 0 0 12.13001035172374 21.200060558948508 0 21.200060558948508 28.524145991032583 0 0 0 0 38.878047685130696 -2.5893250130704928 0 -2.5893250130704928 43.601154478970443 0 0 0 0 3.4278778951666729 -6.6297757029200497 0 -6.6297757029200497 13.259815936932574 0 0 0 0 63.447040871748186 38.003717644878407 0 38.003717644878407 36.955759802754983 0 0 0 0 19.267142470786666 2.9832447687145986 0 2.9832447687145986 8.2327291243955898 0 0 0 0 12.973482638296218 21.478277500995773 0 21.478277500995773 55.305147852807067 0 0 0 0 71.148687075288763 77.562602745124991 0 77.562602745124991 66.717523833096038 0 0 0 0 37.273095650996765 9.7299603334286076 0 9.7299603334286076 31.230066323610572 0 0 0 0 6.9688338853866298 30.826645816521705 0 30.826645816521705 23.247290156670147 0 0 0 0 25.030170818469287 1.8860455878283346 0 1.8860455878283346 69.616259904551498 0 0 0 0 -68.172060266490803 -1.8500537079501669 0 -1.8500537079501669 71.822281822742298 0 0 0 0 -4.8757120849518287 -33.341837765297669 0 -33.341837765297669 13.515484666888028 0 0 0 0 -37.945167239785803 -75.649692554137175 0 -75.649692554137175 -31.308905597064495 0 0 0 0 -26.587461199874497 -99.22420914438112 0 -99.22420914438112 -72.830072122948422 0 0 0 0 0.082742253453373937 -0.1907854929781001 0 -0.1907854929781001 -0.24807713422472766 0 0 0 0 
</DataArray>
<DataArray type="Float64" Name="cross_section_updated" format="ascii">
1 1 1 1 1 0.0095146011191482686 1 1 1 1 1 1 1 1 0.0098513608547969485 1 1 1 1 1 1 0.009996887477888166 1 0.01011244196261088 1 0.0099202548509571588 1 0.01013462929328819 1 1 1 0.010106756161375168 1 1 0.009610190155221212 1 1 1 1 1 1 1 0.0091519838580526661 1 1 1 1 0.0099657348528105899 0.0099666962833961197 1 1 1 1 1 1 0.0089909101627561518 1 1 1 1 1 1 1 1 1 1 1 1 1 1 1 0.010009871316260311 1 1 1 1 1 1 1 1 1 1 0.0097267387373214196 1 1 0.0099970393035891843 1 1 0.0092245176702336132 1 0.0094460557636251961 0.010646181307265388 1 0.010001840436348894 0.0094807874276182751 1 1 1 0.010546219152585199 1 1 1 1 0.01021367609651128 1 1 0.0094675166837529003 1 1 0.0095094160759824665 1 1 1 0.01081030023485181 1 1 1 1 0.011575376391561889 0.010037627575280362 1 1 0.0095189119502741039 1 1 0.0098255193649317979 1 1 1 1 0.0099046630785421062 1 1 1 1 1 1 1 1 1 0.0099952194352869589 0.010498856207478773 1 0.0099870510822816227 1 1 1 1 0.0099974015504885536 1 0.010151426004939321 1 1 0.0098425818051193145 1 1 1 0.01000991934428011 1 1 1 0.011079344704789211 0.010461276481313921 1 0.0098205228004696853 1 1 1 1 1 1 1 1 1 1 1 1 1 1 0.0090931111360783978 1 0.010308353537418007 0.010130835308791667 0.01004610851535985 1 1 1 1 0.00976970040306256 1 1 1 0.0092001820402914762 1 0.0095775495473246729 0.0099444534696759637 1 0.0099794795288953991 0.010100707200386708 1 1 1 0.0099993560332858888 1 1 0.009767247960162654 1 1 1 0.010001739510026048 1 1 1 1 1 0.010334885317748857 1 1 1 1 1 0.0099988321487925972 0.0098033615494530855 1 1 1 1 0.01000983039747956 1 1 1 1 1 0.0090982842555147932 1 1 1 0.010034011794402185 1 1 1 1 1 0.0099569571145436166 1 1 1 1 1 0.0098564529387564874 1 1 1 1 1 1 1 0.010033388533714566 1 1 1 0.0088632675050244782 1 1 1 1 1 1 1 1 1 1 1 0.0096932639982391915 1 1 1 1 1 0.0093435683920290447 1 1 1 0.011569789758149412 1 1 1 1 0.010343249314024763 1 1 1 0.0098293398158053723 1 1 1 1 1 0.011705314562423481 1 1 1 1 1 1 0.010072428923183267 1 1 1 1 1 1 1 1 1 0.010421269344524366 1 1 1 1 1 1 0.010728200186149185 1 1 1 1 0.010583956458132071 1 1 1 1 1 1 0.010675360712892365 1 1 1 1 1 0.010383982900008495 1 1 1 0.0099341255157786804 1 1 1 1 1 1 1 1 1 1 0.0098725694779860547 1 1 1 1 1 1 1 1 1 1 1 1 1 1 1 1 1 1 1 1 1 1 1 1 1 1 1 1 1 1 1 0.0099837941094054819 1 1 0.0099384439622073745 1 1 1 1 1 1 0.0099653644198602863 1 1 1 1 1 1 1 1 1 0.010082929409661014 1 1 0.010155358332844283 1 1 1 1 0.0099815703104548029 1 1 0.010129891531640494 1 1 1 0.0090325863566641275 1 1 1 0.0096735649676957525 1 1 1 0.0098052285137614457 1 1 1 1 0.011434963461384666 1 1 0.0099713792728906743 1 1 0.010983006434207337 1 1 1 1 1 0.010347884768591616 1 1 1 1 1 1 1 1 0.010495006336167644 1 1 1 0.010202987198993022 1 1 1 1 1 0.0098650517065970687 1 1 1 1 1 1 1 1 1 1 1 1 1 1 1 1 1 0.009670280220358516 1 1 1 1 1 1 1 1 1 1 1 1 1 1 1 1 1 1 1 1 1 1 1 1 0.0098575435811597938 1 1 1 1 0.010412073201209498 1 1 1 1 1 1 1 0.0094094957099996705 1 1 1 1 1 0.0086988803339822975 1 1 1 1 1 1 1 1 1 1 1 1 1 1 1 1 0.011880535986982722 1 0.011620986527243232 1 1 0.01005942873212297 1 0.010001400139140868 1 1 1 1 1 1 0.011524403914788662 1 1 1 1 1 1 1 0.010025371357894755 1 1 0.01006542807469861 1 1 0.010202489462722945 1 1 1 1 1 0.011851884311785285 1 0.0089324360387512507 1 0.010112922104532216 1 1 1 1 0.010348216606866774 1 1 1 0.0091441657212239548 1 0.010016119273478846 1 1 1 1 1 0.0095327650056674408 1 0.0099980288509456255 1 1 1 1 1 1 1 1 1 1 1 1 1 1 1 0.0098348266121970722 1 1 1 1 1 1 1 1 1 1 1 1 1 1 1 0.010407577839431786 1 1 1 1 1 1 1 1 1 1 1 1 1 1 1 1 1 1 0.011478043093468122 1 1 1 1 1 1 1 1 1 0.012072492450501505 1 1 0.012722136069639583 1 1 1 1 1 1 1 1 1 1 0.011229772291464036 1 0.011944275518833801 1 1 1 1 1 1 1 1 1 0.0096163800962081481 1 1 1 1 1 1 1 0.012356110586653564 1 1 1 1 1 1 1 0.010901866294446021 1 1 1 1 1 0.00886165443359015 1 1 1 1 1 1 1 1 1 1 0.0091790600495579005 1 1 1 1 1 1 1 1 1 1 1 1 0.0098155760979533428 1 1 1 1 1 1 1 1 1 1 1 1 1 1 1 1 1 1 1 0.009927426742490926 0.0091837845421504118 1 1 1 1 0.010061673213820163 0.0094800620158446529 1 1 1 1 1 1 1 1 1 1 1 1 1 0.010306440978533652 1 1 1 1 1 1 1 1 1 1 1 1 1 1 1 1 1 1 1 1 1 1 1 1 1 1 1 1 1 1 1 1 1 1 1 1 1 1 1 1 1 1 1 1 0.0099710368452046918 1 1 0.0081703067517900109 1 1 0.0087152759670339475 1 1 0.0098828137603862061 1 1 1 1 0.0094883235938774887 1 0.010901818064201279 1 0.0099991333318240738 1 1 0.011386681387817458 1 1 0.0099721503135531339 1 1 1 1 0.0099531816011470056 1 1 1 1 1 1 0.010130562260778042 1 0.0099923773360802923 1 1 1 1 1 1 1 0.0086735757180853076 1 1 1 1 0.0099477933574301566 1 1 1 1 1 1 0.009923781461285891 1 1 1 0.0099747772562673188 1 1 1 1 1 1 1 1 1 1 1 1 1 1 0.0099946838621527562 1 1 1 0.010005882157587668 0.0096844982035743116 1 1 1 1 1 1 1 0.010123582641305464 1 1 1 1 1 1 0.0099478428977481659 1 1 0.0097274816611116702 1 1 1 1 1 0.01111007591367829 0.0098401009225318799 0.0091720417604768192 1 1 1 1 0.0094344827272083744 1 1 0.0097885928617151945 1 0.009905412090088531 1 1 1 1 0.0099235429093517194 1 1 0.010003297302877492 1 1 1 1 1 0.0097580370949008344 1 1 0.0098465489748023015 1 1 0.0099577777473418751 1 1 1 0.010051390975479524 1 0.0096821508656945183 1 1 1 1 1 1 1 1 0.010038663381665775 1 1 1 0.0093558282167996287 0.010626203795282653 1 1 0.0098839965394822236 1 1 0.0096726232752837905 1 1 1 1 1 1 1 1 1 1 1 1 1 1 1 0.010211940348034639 1 1 1 1 1 1 1 0.010095190061522152 1 1 1 1 1 1 1 1 1 1 1 1 1 1 1 1 1 0.010200056275917751 0.010104866214395596 1 1 1 1 1 1 1 1 1 1 1 1 1 1 1 1 1 1 1 1 1 0.010269134461297338 1 1 1 1 0.011019514975025983 1 1 0.010696748024798659 1 1 1 1 1 0.010956941329286797 1 1 1 1 1 1 1 1 0.0099811657965385141 1 1 1 1 1 1 1 1 1 1 1 1 1 1 1 1 1 1 1 1 1 0.0099751796472198305 1 1 1 0.010007389983993711 1 1 1 1 1 1 1 1 1 1 1 1 1 1 1 1 1 1 0.0092224291157316333 1 1 0.0097114449287374581 1 1 1 1 1 1 1 1 1 1 1 1 1 1 1 1 1 1 1 1 1 1 1 1 1 1 1 1 1 1 1 1 1 1 1 1 1 1 1 1 0.010100738923381126 1 1 0.009937785650292439 1 1 0.0099767538499015429 1 1 1 1 1 1 1 0.010110446241670961 1 1 1 1 0.0099170395969988938 1 1 1 0.010120254993895614 1 1 1 0.0096593777953837851 1 1 1 1 1 0.01005494461001601 1 0.010128221902911986 1 1 1 1 1 1 1 1 1 1 1 1 1 1 1 1 1 1 1 1 1 1 1 1 1 0.0097794536099691035 1 0.0095907901944956419 1 1 1 1 1 1 0.0098686697689764312 1 1 1 1 1 0.0099708342737708198 1 1 1 1 1 0.0098898499137815322 1 1 1 1 1 1 1 1 0.010385141205024911 1 1 1 1 1 1 1 1 1 0.010676805620809473 1 1 0.010017716931161167 1 1 1 1 1 1 1 1 0.010261558563719448 1 1 1 1 1 0.010053950258314705 1 1 1 1 0.010045726396802806 1 1 0.0099310395423450326 1 1 1 0.0098155319626752405 1 1 1 1 1 1 1 1 1 1 1 1 1 1 0.0099367325711718791 1 1 1 1 1 1 1 0.0097738916234462649 1 0.0098893992031160588 1 1 1 1 1 1 1 1 1 1 0.010061057960019482 1 1 0.0094553096546388642 1 1 1 1 1 1 0.0098584426174935305 1 1 1 1 1 1 1 0.0097967055756900175 1 1 1 1 1 1 1 1 1 1 1 1 1 1 1 1 1 1 1 1 1 1 1 1 1 1 1 1 1 1 1 1 0.010420139700155593 1 1 1 0.011147869508287136 1 1 1 0.011718850154600873 1 1 1 1 0.0084542723353284322 1 1 1 1 1 0.0086617400796543398 1 1 1 0.010008575237987805 1 1 1 1 1 1 1 1 1 1 1 1 1 1 1 1 0.0099891933400982 1 1 1 1 1 1 1 1 1 1 0.010300523575790869 1 1 0.010194849103851154 1 1 1 0.010100553367496466 1 1 1 1 1 0.0095091251560666112 1 1 0.010474184271948255 1 0.010007297489298239 1 1 0.010875063802832237 1 1 0.0090896351361263155 1 1 0.0097149847404769084 1 1 1 1 1 1 1 1 1 1 1 1 0.01048352321186282 1 1 1 1 1 1 1 1 0.01042454214773708 1 1 1 1 1 1 1 1 1 1 0.010182303227025083 1 0.010321520176026026 1 1 1 0.010081040109519133 1 1 1 1 1 1 0.010013376133312393 1 1 1 1 1 1 1 1 1 1 1 1 1 1 1 1 1 1 1 1 1 1 1 1 1 1 1 1 1 1 0.0099519682443620257 1 1 0.010214410310049611 1 0.010059871197701258 1 1 1 1 0.0096897169060500988 1 1 1 1 1 1 1 0.01058786717855768 1 1 1 1 1 1 1 1 1 1 1 1 1 1 1 1 1 0.0097719669592083412 1 1 0.010257342195657574 1 1 1 1 1 1 1 1 1 1 1 1 1 1 1 1 1 0.010125542049335766 1 1 1 1 1 1 1 1 0.010226395504293282 1 1 1 1 1 0.011409984643547331 1 0.0099686471660533627 1 1 1 1 1 1 1 1 1 1 1 1 1 1 0.010116287375384071 1 1 0.010920432902283046 1 1 1 1 1 1 1 1 1 1 1 1 1 1 1 1 1 1 1 0.010019566538562952 1 1 1 1 1 0.01197875294409149 1 0.009966865228218897 0.010821491907024482 1 1 0.0095528886158954655 1 1 0.011145382822597881 1 1 1 1 1 1 0.011172381204072402 1 1 0.0087149432477731728 1 0.01007792164320782 1 1 1 0.0095525105289096229 1 1 1 1 1 1 0.010402400212447075 1 1 1 1 1 1 0.010993076370304914 1 1 1 1 1 1 1 1 1 1 0.0099447281541737952 1 1 1 1 1 1 1 1 0.01056663895508154 1 1 1 1 1 1 1 1 1 1 0.0099812167928689174 1 1 1 0.010217769808878939 1 1 1 1 1 1 1 1 1 1 0.0097920098794808726 1 1 0.0086372478748541204 1 1 1 0.0091364245618166286 1 1 1 1 1 1 1 1 1 0.010004569354435583 1 1 1 0.009648538121990978 1 1 1 1 1 1 1 0.0092072532660557073 1 1 1 1 1 0.0099755315552920998 1 1 1 1 1 1 1 1 1 1 1 1 0.010110108128909211 1 1 1 1 0.0082999098634169814 1 1 1 0.0089581380203077113 1 1 1 1 1 1 0.010872418334607732 1 1 0.010177068172702647 1 1 1 1 1 1 1 1 1 1 1 1 1 0.0096704178982610946 1 1 1 1 1 1 1 1 1 1 1 1 0.0093614256980125155 1 0.010044696295512906 1 1 1 0.010044496609497877 1 1 0.0090538511531046053 1 1 1 1 1 1 1 1 1 1 1 1 1 1 1 1 1 1 1 1 0.01073382001832702 1 1 1 1 1 1 1 1 1 1 1 1 1 1 1 1 1 1 1 1 1 1 1 0.010208870292072472 1 1 1 0.01058397915186445 1 1 1 1 1 1 1 1 0.010039021565428203 1 1 1 1 1 1 1 0.010973678791993886 1 1 1 1 1 1 1 1 0.011583836393178963 1 1 1 1 0.009998352658049027 1 1 0.0099418068870250741 1 1 1 1 1 1 1 1 1 1 1 1 1 1 1 1 1 1 1 1 1 1 1 1 1 1 1 1 1 1 1 1 1 1 1 1 1 1 1 1 1 1 1 1 1 1 0.010070822140036878 1 1 1 1 1 1 1 1 0.010031800579739365 1 1 0.0099251400908013272 1 1 1 1 1 1 1 1 1 1 0.0098299645180722432 1 1 1 1 1 1 1 1 1 1 1 1 1 1 1 1 1 1 1 1 1 1 1 1 1 1 1 1 1 1 1 1 1 1 1 1 1 1 1 1 1 1 1 1 1 1 1 1 1 1 1 1 1 1 1 1 1 1 1 1 1 1 1 1 1 1 1 1 1 1 1 1 1 1 1 1 1 1 1 1 1 1 0.0099058930587812115 1 1 1 1 0.0099057175165330781 1 1 1 1 1 1 1 1 1 1 1 1 1 1 1 1 1 1 1 1 1 1 1 1 1 1 0.010041849764794147 1 1 1 1 1 1 1 0.010012256616455223 1 1 1 1 1 1 1 1 1 1 1 1 1 0.0098165694392313343 1 0.0096185923203353264 1 1 1 1 1 1 1 1 1 1 1 1 1 1 0.0098165208630570482 1 1 1 1 1 1 1 1 1 1 1 1 1 1 1 1 1 1 1 1 1 0.009492332135653439 1 1 1 1 0.01013843482122875 1 0.00999846075594415 1 1 1 1 1 1 0.010024425390389901 0.010101886884920927 1 1 1 1 1 1 1 0.010280645143678985 1 1 1 1 1 1 1 1 1 1 1 1 1 1 1 1 1 0.0097557163716721733 1 1 1 1 1 0.010089464912424 1 1 1 1 1 1 1 0.0099409562581886969 1 1 1 1 1 1 1 1 1 1 1 1 1 1 1 1 1 0.01027676470371129 1 1 1 1 1 1 1 1 1 1 1 1 1 1 1 1 1 1 1 0.010064226741233499 1 1 1 1 1 0.010731976380236742 1 1 1 1 1 1 1 1 1 1 1 1 1 1 1 1 1 1 1 1 1 0.009953985426343754 1 1 0.0099838575704093678 1 1 1 1 1 1 1 1 1 1 1 1 1 1 1 1 1 1 1 1 1 1 1 1 1 1 1 1 1 1 1 1 0.010305583079012255 1 1 1 1 1 1 1 1 1 1 1 1 1 1 1 1 0.0098619591515172085 1 1 1 1 1 1 0.0099701287247046383 1 1 1 1 1 0.010100134433804458 1 0.0095683685682841114 1 1 1 1 0.0092406397977087291 1 1 1 1 1 1 1 1 1 1 1 1 0.010944460291192965 0.010719479741599966 1 1 1 1 1 1 0.0099918824449351188 1 1 1 0.0098644042913334437 0.0087022877844895059 1 1 0.0089413530677410931 1 0.010252807589601306 1 0.0077560922392442 1 1 1 1 0.0095481769178907897 1 1 1 0.0097014139373415229 1 1 1 1 1 1 0.0089794613262376179 0.01099150837403305 1 1 1 1 1 1 1 1 0.0089404386829392644 1 1 1 1 0.010120545308477107 1 0.0099518239419975549 1 1 1 1 1 1 1 1 1 1 1 1 0.0099305340466058507 1 1 1 1 1 1 1 0.0097910525171442525 1 1 1 1 1 1 1 1 1 1 1 1 1 1 1 1 1 1 1 1 0.010009129958874194 1 0.0096273566874520728 1 1 1 1 1 1 1 1 1 1 1 1 1 1 1 1 1 1 1 1 1 1 0.01014661946296532 1 0.0098504228004191487 1 1 1 1 1 1 1 0.01011219549315244 1 1 1 1 1 1 0.0099362325029285995 1 1 1 1 1 1 1 1 0.0099880811125679196 1 1 1 1 1 1 1 1 1 1 1 1 1 1 1 1 1 1 1 1 1 1 1 1 1 0.0099716922240543175 1 1 1 0.00944681874935447 0.0094899586448187606 1 1 1 0.0098723354424702717 1 1 1 0.010168403201313948 1 1 1 1 1 1 1 1 1 0.0080706923003429493 1 1 1 1 1 1 0.0099703009029281833 1 0.011865202830868921 1 1 1 1 0.0072970263952913082 0.0099699089549715667 0.010589730870856556 1 1 1 1 1 1 1 1 1 1 1 1 1 1 1 0.0093232214740894027 1 1 1 1 1 1 1 1 0.0083656648230151162 1 1 1 1 1 1 1 1 1 1 1 0.0095846433268701493 1 0.008838297556059499 1 1 1 1 1 1 1 1 1 1 1 1 1 1 1 1 1 1 0.0092629689241834155 0.0099730768595446689 1 1 1 1 1 1 0.0097056517554649779 1 1 1 1 1 0.0094971521454308289 1 1 1 1 1 1 1 1 1 1 1 1 0.010102037469672481 1 1 1 1 0.010240716139103587 1 1 0.0099512654308635158 1 1 1 1 1 1 1 1 0.010236297438071661 1 1 1 1 1 1 1 1 1 1 1 1 1 0.0086609257584270745 1 1 1 1 0.0092520258876635543 1 1 1 0.010540270283424987 1 0.010359680006663798 1 0.011047306546864047 1 1 1 1 1 1 1 1 1 1 1 0.011038384409760651 1 1 1 1 1 0.01174061806870493 1 1 0.011052800806411611 1 0.0097926958449490488 1 1 1 1 0.0095828355432474293 1 1 1 1 1 1 0.0097724297327650683 1 1 1 1 1 1 1 1 1 0.0095610765053602501 1 1 1 1 1 1 0.0090582286507910822 1 1 1 1 1 1 1 1 1 1 1 1 1 1 0.011240103805141795 1 1 1 0.0099742294644607418 0.010661814624960766 1 0.010031456341131281 1 0.010168375489418277 0.010709868082379403 0.01042998420263935 1 1 1 1 1 0.0099970313231522914 1 1 1 1 1 1 1 0.0098456148410590687 1 0.009996686371443882 1 1 1 1 1 1 1 1 1 0.0099970280037531278 1 1 1 1 1 1 0.0095450952349805437 1 1 1 0.0098426281194003776 1 1 1 1 1 1 1 0.0098165109723085692 1 1 1 1 1 0.0095403649956706197 0.010090173084648124 1 1 1 1 1 1 0.010010839530457494 0.0096752672360122735 1 1 1 1 0.0098029916549831099 1 1 1 1 0.0091517172400507815 0.0097836608692841408 1 0.0098662711481390108 1 0.0099559203465342059 1 1 1 1 1 0.009900015558822018 1 1 1 1 0.009952562576635033 1 1 1 1 1 1 1 0.010059838260115413 1 0.010035008614910811 1 1 1 1 1 1 1 1 1 1 1 1 1 1 1 1 0.009749118515966106 0.0098890724208203599 1 1 0.010240647541704697 1 1 1 1 1 1 0.0084221736910110815 1 1 0.0099295593676959875 1 1 0.0086322837647445014 1 0.0099497331558587275 1 1 0.010825168611071082 1 1 1 1 1 1 1 1 1 1 1 1 1 1 1 1 1 1 1 0.0099960940933142214 1 0.0099989376311811554 1 1 1 1 1 1 1 1 1 0.010138710247032034 1 1 1 1 0.0075017737186567762 1 1 1 0.010322091225817499 1 1 0.0099799886890513355 1 1 1 1 0.0078590092303867237 1 1 1 0.0099293984166285779 1 0.010415756624565019 1 1 1 1 1 1 1 1 1 1 1 1 1 1 0.0099779685611423863 1 1 1 1 0.0097978467712548263 0.0099560934815810867 1 1 1 1 1 1 1 1 1 1 1 1 0.0099781249204387041 1 1 1 1 1 1 0.010127342430898353 1 1 1 1 0.010081505661305886 1 1 1 1 1 1 1 1 1 1 1 1 1 1 1 0.010024866503711691 1 1 1 1 1 1 1 1 1 1 1 1 1 1 1 1 1 1 1 1 1 1 1 0.0092812736288532989 1 1 1 1 0.0098889255434306995 1 1 0.009958603468126756 1 0.0097141729480268585 1 1 0.01011650803528099 1 1 1 1 1 0.0099553507170435929 0.01000563139942119 1 1 1 1 1 1 1 0.0099969034063014627 1 1 1 1 1 1 1 1 0.0099969465000878388 1 1 1 1 1 1 1 1 1 1 1 1 1 1 1 1 0.010294603508767326 1 1 1 1 1 1 1 1 1 1 1 0.0098281357497276012 0.0096717315482741286 1 1 1 1 0.0096815947672840297 1 1 1 0.009531687541704921 1 1 1 1 1 1 0.0088847338692773746 1 0.010036847002372199 1 1 0.01066827537498808 1 1 1 0.010610491242407353 0.0096229329372304051 1 0.010168132497602886 0.0095446333255519537 1 0.009110814529184063 1 1 1 1 0.010278925483167348 1 1 1 1 1 1 1 1 1 1 1 1 1 0.0089152714864630632 0.010468305691889048 1 0.010043975786646611 1 1 1 1 1 1 1 1 1 1 1 1 1 1 1 1 0.010111829803132572 1 1 1 1 0.0099946443752554539 0.010002568871624297 1 1 1 1 1 1 1 1 1 1 1 1 1 1 1 0.0098812512886350089 1 1 1 1 1 1 1 1 0.0099643571884708119 1 1 1 1 1 1 1 1 1 0.010286052017211606 1 1 1 1 1 1 1 1 1 1 1 1 1 1 0.010097415969415581 1 1 1 1 1 1 1 1 1 1 1 0.0097072893505149461 1 1 1 1 1 1 1 1 1 0.0098289295727009944 1 1 0.0099710957959642174 1 1 0.0098881107775886674 0.010848655297273174 1 1 1 0.010618675072573948 1 1 1 0.0097372733951350925 1 1 1 1 1 0.0097952428185588136 1 1 1 1 1 1 1 1 1 1 1 1 1 0.01078454334351055 1 0.0099930308533808139 1 1 0.0090921616064082063 0.010003418950564249 1 1 1 1 1 0.010519378476226179 1 1 1 1 1 1 1 1 1 1 1 0.010028099638641038 1 1 1 1 1 1 1 1 1 1 1 1 1 0.0099641079448681696 0.0099712305746795342 1 1 1 1 1 1 1 1 1 1 1 1 1 1 1 1 1 1 1 1 0.010175288590444186 1 1 0.0093590097536502721 1 1 1 1 1 1 1 0.010065797949764511 1 1 1 1 1 1 1 0.010297240057574531 1 1 1 0.010064101694034206 0.0098651235193153025 1 1 0.0094885272036396989 1 1 1 1 0.01003614470998845 0.00996920762312682 1 0.0094525160513156924 1 1 1 1 1 1 1 1 1 1 1 1 1 0.010012959229334258 1 1 0.010018898089586567 1 1 1 0.010020692888012604 1 1 1 1 1 1 1 1 1 1 1 1 1 0.01038495737473193 1 1 1 1 1 1 1 1 1 1 1 1 0.010954085236133813 1 1 1 1 1 1 1 1 1 1 1 1 0.010234906166867921 1 1 0.01009117741764998 1 1 1 1 1 1 1 1 1 1 1 1 1 1 1 1 1 0.01000310578906973 1 1 0.010011532308258457 1 1 0.0103241745871717 1 1 0.0093408842983782967 1 1 1 1 0.010485122174131334 0.010180358200148943 0.010182627224856813 1 0.010014353165027317 1 1 1 1 1 1 0.0099970644393266514 1 1 1 1 1 1 1 1 1 1 1 1 1 1 1 1 1 1 1 1 1 1 1 1 0.010007671105891328 1 1 1 1 0.010013178017485098 1 1 1 1 1 1 1 1 1 0.010005517839832655 0.010071914512688036 1 1 1 1 1 1 1 1 1 0.010118895630010255 1 1 1 1 1 1 0.010071335820574482 1 0.010622199009884974 1 1 0.01002407386778147 1 1 1 0.010056844304965631 0.010293576461623289 1 1 0.0097513059130347659 0.010191298100267608 1 1 1 1 1 1 0.010027945792640266 1 1 1 1 0.0098097646993632326 1 1 1 1 1 1 1 1 1 1 1 1 0.01001404079540269 1 1 0.010013022608112043 1 1 1 1 1 0.0094530572811834263 0.010153401524653126 1 1 1 0.0097725972998212902 1 1 1 1 1 1 1 1 1 0.0099155015747389302 1 1 1 1 1 1 1 1 1 1 1 1 1 1 1 1 1 1 1 1 1 0.0099831196733743445 1 1 1 1 1 1 1 1 1 0.0099320036249463221 1 1 1 1 1 1 1 1 0.0096573019104044932 1 1 1 1 1 1 0.0099474502684873817 1 1 1 1 1 1 1 1 1 1 1 1 0.0098550606004706338 1 1 1 0.0098288881179063939 1 1 1 1 1 1 1 1 1 1 1 1 0.0099076103319832489 1 1 1 1 1 1 1 1 1 1 0.010040275654223616 1 1 1 1 1 1 1 1 1 1 1 0.010056332962943065 1 1 1 0.0099803572769340421 1 1 1 1 1 1 1 1 1 1 1 0.01137697945008263 1 1 1 0.0099991927262023262 1 1 0.0088493552385516244 1 1 1 1 1 1 1 1 1 1 1 1 1 0.0099659321755659336 1 1 0.010052280210797489 1 1 0.01027659742860506 1 1 0.0095871656726869252 0.0093352343797371666 1 1 1 0.0091018038930355954 1 1 0.0098861630990448174 1 1 1 1 0.01003269440261018 1 1 1 1 1 1 1 1 1 1 1 1 1 0.0095698645804263936 1 1 1 1 0.00985564703333143 1 1 1 1 1 0.010288167164231815 1 1 1 0.010007081333374355 1 1 1 1 1 1 1 1 0.010067566818085108 1 1 1 1 1 1 0.010798649564891082 1 1 1 1 1 0.011187572281729986 1 0.010209649723878066 1 1 1 0.010379943594077384 0.011476910553927775 1 1 1 1 1 1 0.0098890378263285228 1 1 1 1 1 1 1 1 1 0.0082949476048875415 1 1 1 0.0089750282582481185 1 1 0.0093826659878605365 1 0.010530320202245969 1 1 1 1 1 1 1 0.010029423037807971 1 1 1 1 0.0084333974326761159 1 1 1 1 1 1 0.0089665503297512075 1 1 1 1 1 1 1 1 1 1 1 1 0.010020275440090367 1 1 1 1 0.010570991409254708 1 0.010864598207890024 1 1 1 1 1 0.010205630084143425 1 1 1 0.0098995765785299967 1 1 1 1 0.0098319584798945824 1 1 1 1 1 1 1 1 1 1 1 1 1 1 1 1 1 1 1 1 1 1 1 1 1 1 1 1 1 1 0.009622773332127358 1 1 1 1 1 1 1 1 1 1 1 1 1 1 1 1 1 1 1 1 1 1 1 1 1 1 1 1 1 1 1 1 1 1 1 1 1 1 1 1 1 1 1 1 1 1 1 1 1 1 1 1 1 1 1 1 1 1 1 1 1 1 1 1 1 1 1 0.010197245973733213 1 1 1 1 1 1 1 1 1 1 1 1 1 1 1 1 1 1 1 1 1 1 1 1 0.010088229071617862 1 1 1 1 1 1 1 1 1 1 0.010109090396128078 1 1 1 1 1 1 1 0.0099937763495877713 0.010038664990334293 1 1 1 1 1 1 1 1 1 1 1 1 1 1 1 1 1 1 1 1 1 1 1 1 1 1 1 1 1 1 1 0.010047682585173934 1 1 1 1 1 1 1 1 1 1 0.010505147938388772 0.0099628464048653366 1 0.0094931133833666536 1 1 1 1 1 1 0.0096660690965428425 1 1 1 1 1 0.0097481727105720312 1 1 1 1 1 0.010194297568142959 1 1 1 1 0.010000641993511104 1 1 1 1 1 1 1 1 1 1 1 1 1 1 1 1 1 1 1 0.0099357079524832557 1 1 1 1 1 1 1 1 1 0.0099516874900773371 1 1 1 1 1 1 1 1 1 1 0.010076937235961562 1 1 1 0.0099831635827763894 1 1 1 0.0099236468018528874 1 1 0.0099641124460362693 0.010223780897441368 1 1 1 1 0.0096389492081322414 1 1 1 1 1 1 1 1 0.009837325826386625 1 1 1 1 1 1 1 1 1 1 1 1 1 1 1 1 1 1 1 1 1 1 1 1 1 1 1 1 1 1 1 1 1 0.0099854164427853054 1 1 0.0093480664876564503 1 0.0098780149198949528 1 0.010016551570890625 1 1 1 0.009400174148641513 0.0099112313939128116 0.01013757729641945 1 1 1 0.0100821179101344 1 1 1 1 1 1 1 1 1 1 1 1 1 1 0.0099510454965662347 1 1 1 1 1 1 1 1 1 1 1 1 1 1 1 0.010466202138069787 1 1 0.0099518285141277502 0.0097812932769414732 1 1 1 0.010484489689689212 1 1 0.0092245882695245942 1 0.0099203464061073787 1 0.0099767185728842668 1 1 1 1 1 1 1 1 0.0080439468835405079 1 1 0.0081333780690565401 1 1 1 0.0099801314276258338 1 0.0084060880106995601 1 1 1 1 1 1 1 1 1 1 1 1 1 1 1 1 1 1 1 1 1 1 1 1 1 1 1 1 1 1 1 1 1 1 1 1 1 1 1 1 1 1 1 1 1 0.0099087948698362415 1 1 1 1 1 1 0.009754930209255783 0.010002485133162245 1 1 1 1 1 0.0099949083944030973 1 0.010005275083370289 0.009749793726706011 1 0.010095295111680995 0.010275775298392627 1 0.010279281019257286 1 0.0098672078105510163 1 1 1 1 1 1 1 1 1 0.0098639613015746412 1 1 1 1 1 1 0.009976047122051853 1 1 1 1 1 1 1 1 1 1 1 0.0090843657605053241 0.0092274062553217243 1 1 1 1 1 1 0.0098825707362540822 0.0086042226447120788 1 1 0.0099407839412887083 1 1 1 1 1 1 1 1 0.009981936536220086 1 1 1 1 1 1 1 1 1 1 1 1 1 1 1 1 1 1 1 1 0.0099522853179919157 1 0.0099806813026247082 1 1 0.010100311508984744 1 1 1 1 0.01016530959303308 0.010422210417978355 0.0095364493230997421 1 1 1 0.010603773578455301 0.0098132575878769474 1 1 0.0097846111968056797 1 1 1 0.010004563688903264 1 0.011012322344614441 1 1 0.010274732571710906 1 0.0093363695636866743 0.0091758209389484671 1 0.011089455915677109 1 1 1 1 1 0.0099963271276396325 0.01123770023820108 1 1 1 1 1 1 1 0.0099331073127447433 1 1 1 1 1 0.010015005653655758 1 1 1 0.0098409325347313392 1 1 1 1 0.010046047278309985 1 0.010393033691423297 1 0.010521561777347513 1 1 0.0098189081246254275 0.010745344341943248 1 1 1 0.0099482181872171081 1 0.010731508208638198 1 1 1 1 1 1 1 1 1 1 1 1 1 1 1 1 1 1 1 1 0.010066210086707409 1 1 1 1 1 1 1 1 1 0.0097096718410904469 1 1 1 1 0.0090654354123400512 1 1 1 1 0.0083675317142020058 1 1 1 1 1 1 1 1 1 1 0.010187135792635939 1 1 1 1 0.010161286716797823 1 1 1 1 1 1 1 1 1 1 1 1 1 1 1 1 1 1 1 0.010026707487489557 1 1 0.01046365539302359 1 1 0.009998447563459769 1 1 1 0.010019678223350046 0.010660853931598466 1 1 1 1 1 1 1 1 0.010761039320051203 1 1 1 1 1 1 1 1 1 1 1 1 1 1 1 1 1 1 1 1 0.010236287625190141 1 1 1 1 1 1 1 1 1 1 1 1 1 1 1 1 1 1 1 1 1 1 1 1 1 1 0.010170328696652273 1 1 1 1 1 1 1 1 1 0.01001393277107198 1 1 0.0097351085785203385 1 0.0098317673167586678 0.010012123374831166 1 1 1 1 1 1 0.0099129741466948591 1 1 1 1 1 1 1 1 1 1 1 1 1 1 1 1 1 1 1 1 1 1 1 1 1 1 1 1 1 1 1 1 1 1 1 0.0099939927624715444 1 1 1 1 1 1 1 1 1 1 1 1 1 1 1 1 1 1 1 1 1 1 1 1 1 1 1 1 1 0.0099972600132363539 1 1 1 1 1 1 1 0.010031659582296171 1 1 0.0099807680786757214 1 1 1 1 1 0.0099984192402043908 1 0.0095522750880616524 1 1 0.010366404704668859 1 1 1 1 1 1 1 1 1 1 1 1 1 1 1 1 1 1 1 1 1 1 1 1 1 1 1 1 1 1 1 1 1 1 1 1 1 1 1 0.010395634897917009 1 0.010913254990420628 1 1 1 1 1 1 1 0.010584547230246669 0.010858801475135117 1 1 1 0.00770098608210152 1 1 1 1 1 1 1 1 1 1 0.0099943927429808153 1 1 0.010428881078237556 1 1 0.0096644485623599424 1 1 1 1 1 1 1 0.010146612141279914 1 1 1 1 1 1 1 0.0099811005973911276 1 1 1 1 1 1 1 1 1 1 1 0.0095267821593260135 1 1 1 1 1 0.0093289929111521914 1 1 1 1 1 1 0.0098866791706076415 1 1 1 1 0.00884303923677939 1 0.0099604518037756384 1 1 1 0.0094607150374562809 0.010229033572314306 1 0.0094261833225494709 1 1 1 1 1 1 0.01021323268988285 1 1 1 1 1 1 1 1 0.0099226984751152741 1 1 0.0095796042163454279 1 1 1 0.0091006653460187527 1 1 0.009734181590816602 1 1 0.0097886738512937884 1 1 1 1 0.0088281337351263801 1 1 1 0.0096455503528820666 1 1 1 1 0.0098741985617518263 1 1 1 1 1 1 1 1 1 1 1 1 1 1 1 0.010277579108935583 1 1 1 1 1 0.010330060734985822 1 1 1 1 1 1 1 1 1 1 1 1 1 1 1 1 1 0.010153220549431364 1 1 0.0097702258370921165 1 1 1 1 1 1 0.0094827150822303086 1 1 1 1 1 1 1 1 1 1 1 1 1 1 1 1 1 0.0099540960900378166 1 1 1 1 1 1 1 1 1 0.0095636466767623097 1 0.0098595478669890914 1 1 0.01068881568390629 1 1 1 0.011139225352210267 0.010521083474651482 1 1 1 1 1 1 1 1 0.010664026635645479 1 1 1 0.010416818032115404 1 0.010379884785167676 0.010644624070168147 1 1 0.0092545217310319276 1 1 1 1 1 1 1 1 0.010000695038222476 1 1 1 0.0097953368199729211 0.010510593491206097 0.0094546230195189287 1 0.010385715776395979 1 1 0.0088675226062113321 1 1 0.011054847591647564 1 0.009998624217580708 1 1 1 1 1 1 1 1 1 1 1 1 1 1 1 1 1 1 1 1 1 1 1 1 1 1 1 1 1 1 1 1 1 1 1 1 1 1 1 1 1 1 1 1 1 1 1 1 1 1 1 1 0.0090906349517924871 1 1 0.011004401856291273 1 1 1 1 1 1 1 1 0.01006840630631569 1 1 0.010239576427286404 1 1 1 0.0099999251089696265 1 1 1 1 1 1 1 1 1 1 1 1 1 1 1 1 1 1 1 1 0.0097647784492361743 1 0.0099734425492407439 1 0.010008929732251487 1 1 1 0.010020259822120325 1 1 0.0097552815073592217 1 1 1 1 1 1 1 1 1 1 1 1 1 1 1 1 1 1 1 1 1 0.010611661304570712 1 1 0.0080327777903390074 1 1 0.0080154774576757896 1 1 1 1 1 1 1 0.0080776932631402756 1 1 1 1 1 0.010433232028059873 1 1 1 0.01014098063129423 1 1 0.0098573409385564088 1 1 1 1 1 1 1 1 1 1 1 1 1 1 1 1 1 1 1 1 1 1 1 1 1 1 1 1 1 1 1 1 0.00823142529860715 1 1 0.01017059611297351 1 1 1 0.010043044810373679 0.010064342534271195 1 0.0099985501601470867 1 0.0098472176925443466 1 1 1 0.0099956403205721106 1 1 1 1 1 0.010476051102778714 1 1 1 1 1 1 1 1 1 1 0.010326315553678279 1 1 1 1 1 0.010122652822396364 1 1 1 1 0.0099264383323899273 1 1 1 1 1 1 1 1 1 1 1 1 0.0098786517317435013 1 1 1 1 1 1 1 0.0096604598084353965 1 1 1 1 1 1 1 1 1 1 1 1 1 1 1 1 1 1 1 0.0093866842769502728 1 1 1 1 1 1 0.010068758686627497 1 1 1 1 1 1 1 1 1 1 1 1 0.0099817007066209679 1 1 1 1 1 1 1 1 1 0.0099388636163697426 1 0.0090157822126703969 1 1 1 1 1 1 1 1 1 0.0099557555272760199 1 0.0099993235142071604 1 1 1 1 1 1 1 1 1 0.010664869392574258 1 1 1 1 1 1 1 0.010048912574089523 1 1 1 0.0099387743713946278 1 1 1 1 1 1 0.0097193818969218432 1 1 1 1 1 1 0.0086873580298989939 1 1 1 1 0.0085339053707787701 1 1 1 0.0085115072527115771 1 1 1 0.0083145003995396261 1 1 1 0.0090568850469032562 1 1 1 1 1 0.010165428448017476 0.010193588558194041 1 1 1 1 1 1 1 1 1 1 1 1 1 0.010170368447126434 1 1 1 1 0.0097992145745590901 1 1 1 1 1 1 1 1 1 1 1 1 1 1 1 1 1 1 1 0.010109464790708197 1 0.010138456458405533 1 1 1 1 1 1 1 1 1 1 1 1 0.010258009730079761 1 1 1 1 1 0.010195636940365505 1 1 1 1 1 1 1 0.010004143845984326 1 1 1 0.0099946044472698919 0.010203863050488336 1 1 1 1 1 1 1 1 1 1 0.010073612221073745 1 1 1 1 1 1 0.010229348367670674 1 1 1 1 1 1 1 1 1 1 1 1 0.01160933436761062 1 1 0.011273560599849741 1 1 1 1 0.011474532502016344 1 1 1 1 1 0.011413926197627357 0.0099921012965329924 1 1 0.011690002830060548 1 1 1 1 1 0.011218874650975154 1 0.0082722239223226458 1 0.011331509746941434 0.0089634110193769333 1 0.012170137358398572 1 1 0.0083582680245997062 1 1 1 1 1 1 1 0.0080472559727214031 0.008369544106147344 1 0.0072356296900426042 1 0.0091106369763017669 1 1 1 1 1 1 1 1 1 1 1 0.0069873851194415214 1 1 1 1 1 1 1 1 1 1 1 1 1 1 1 0.0097193590226620462 1 1 1 1 1 1 1 1 0.0071724237368244615 1 1 1 1 1 1 1 1 1 1 1 1 1 1 1 1 0.009128991380791875 1 1 1 1 1 1 1 1 1 1 1 1 1 0.0096950766190447256 1 0.010054514130944608 1 1 1 1 1 1 1 1 1 1 1 1 1 1 1 1 1 1 1 0.010114626111878433 1 1 1 0.010060111980933826 1 1 1 1 1 1 1 1 1 1 1 1 1 1 1 1 1 1 1 1 1 1 1 1 1 1 1 0.011558997071265118 1 1 1 1 1 1 1 1 0.010166337169891699 1 1 1 1 1 1 1 1 0.011889030734930483 0.010543951728950177 1 1 1 1 1 1 1 1 1 1 1 1 1 1 1 1 1 1 1 1 1 1 1 1 1 1 1 1 1 1 0.0099807522709181931 1 1 1 1 1 1 1 1 1 1 1 0.010005362680119085 0.01053202412006606 1 1 1 0.0098748810783291143 0.011902189770825118 1 1 1 0.0081985929071092048 1 1 1 0.011727505877683597 1 1 1 1 1 0.011434161436983756 1 1 0.011482907735619403 1 1 1 1 1 1 1 1 1 1 1 1 1 1 1 1 1 1 1 1 1 1 1 1 1 1 1 1 1 1 0.010449965533088841 1 1 1 1 1 1 1 1 1 1 1 1 1 1 0.010000207026959806 1 1 1 1 1 1 1 1 1 1 1 1 1 1 1 1 1 1 1 1 1 0.010028235536977369 1 1 1 1 1 1 1 1 0.0097239888833840788 1 0.0097622044220356634 1 1 0.010315377227010123 0.010185469509685085 1 1 0.0098942449914688965 1 1 1 0.0096503162884176499 0.010172178429772404 1 0.010189343193287872 1 0.0095758514289037717 1 1 0.010020612323965603 1 1 1 1 0.010008859999507447 1 1 1 1 1 1 1 1 0.0098361144873708936 1 1 1 1 1 1 1 1 1 1 1 1 1 1 1 1 1 1 1 1 1 1 1 0.0111841290929725 1 1 1 1 1 1 1 1 1 1 1 1 1 1 1 1 0.0096667087210484341 1 1 1 1 1 1 1 1 1 0.010558014499787091 0.011635259148155207 1 1 1 0.011448297740538432 1 1 1 1 1 1 1 1 0.010068032736493751 1 1 1 1 1 1 1 1 1 1 1 0.010914520707556739 1 0.0093305935522046916 1 1 1 1 1 1 1 1 1 1 1 0.0099652708439833884 1 1 1 1 1 1 0.009894299417499048 1 1 1 1 1 1 1 1 1 1 1 1 1 1 1 1 1 1 1 1 1 1 1 1 1 1 1 1 1 1 1 1 1 1 1 1 1 0.01016175709269111 0.0090290498460936647 1 1 1 0.010280414461755621 1 1 1 1 1 1 1 1 1 1 1 1 1 1 1 1 1 1 1 1 1 1 1 1 1 1 1 1 1 1 1 1 1 1 1 1 1 1 0.01049911568874087 1 1 1 1 1 0.0086737712098630265 1 1 1 1 1 0.01005592888861476 1 0.010388285514452681 1 1 0.00768466044391743 1 1 1 1 1 1 1 0.01002096803029736 1 1 1 1 1 1 1 1 1 1 1 1 1 1 1 1 1 1 1 1 1 1 1 1 1 1 1 0.0079508088081043041 1 1 0.0082325539653733994 1 1 0.0085356400355197162 1 1 1 1 0.0088670450824376336 1 1 1 1 1 1 1 1 1 1 1 1 1 1 1 1 1 1 1 1 1 1 1 0.0092285830885248405 1 1 0.010080575032608586 1 1 1 1 1 1 1 1 1 1 1 1 1 1 1 0.009960650574847324 1 1 1 1 1 1 0.010584555462375569 1 0.009845158825857462 1 1 1 1 1 1 1 1 1 1 1 1 1 1 1 1 1 1 1 1 1 0.010008544025113322 1 1 1 0.0098930774247895127 0.0093095637226437381 1 1 1 1 0.0095610533455394563 1 1 1 0.0085029889322947236 1 1 1 1 1 1 0.0099948918189045645 1 0.0085864476284719903 1 1 1 1 0.0095271319706950082 1 1 1 1 0.0090340293061703884 1 1 1 1 0.0099945844857311523 1 1 0.0097148694747604056 1 1 1 1 1 1 1 1 1 1 1 1 1 1 1 1 1 1 1 1 1 0.0099888560624611603 1 1 0.0099244850481920461 1 1 1 1 1 1 1 1 1 1 1 1 1 1 1 1 1 1 1 1 1 1 1 1 1 1 1 1 1 1 1 1 1 1 1 1 1 1 1 1 1 1 1 1 1 1 1 1 1 1 1 1 1 1 1 1 1 1 1 0.0088470624362088392 1 1 1 1 1 1 1 1 1 1 1 1 1 1 0.010148709261533141 1 1 1 1 1 1 1 1 1 1 0.0099966509565035007 1 1 1 1 1 1 1 1 1 1 1 1 1 1 1 1 1 0.010405846581901544 1 1 1 0.010129245950157547 1 1 1 1 1 1 1 1 0.010027306197958693 1 1 1 1 1 0.0097434200445018493 1 1 1 1 1 1 1 1 0.0091995142911426228 1 1 1 1 1 1 0.010026360342843932 1 1 1 1 1 1 1 1 1 1 1 1 0.0099775294685645957 1 1 0.010243933196913687 0.010625113438557605 1 0.0086339099333211117 1 1 1 1 1 0.0092009134996667782 1 1 1 1 1 1 1 1 0.010116052103697717 0.010066023025586568 1 0.0099960664280739197 1 1 1 1 1 1 1 1 1 0.0099337465693001316 1 1 1 1 1 1 1 1 1 1 1 1 1 1 1 1 1 0.0098426709388428589 1 1 1 1 0.0100310210229624 1 1 1 0.0099975089414344048 1 1 1 0.010217554390895093 1 1 1 1 1 1 1 1 0.010072689096727394 1 1 1 1 0.010067188294860537 1 1 1 1 1 1 1 1 1 0.010120057027628072 1 1 1 1 1 1 1 1 1 1 1 1 1 1 1 1 1 1 1 1 1 1 1 1 1 1 0.010058352624886156 0.010258231092245492 1 1 1 1 1 1 1 1 1 1 1 1 1 0.0098473118922940677 1 1 1 1 1 1 0.0099169033436822956 1 1 1 1 1 1 1 1 1 1 1 1 1 1 1 1 0.0099303224947620318 1 1 1 1 1 1 1 1 1 1 1 1 1 1 1 1 1 1 1 1 1 1 1 1 1 1 1 1 1 1 1 1 0.01009133612295331 1 1 1 1 1 1 1 1 1 1 1 1 1 1 1 1 1 1 1 1 1 1 1 1 1 1 1 1 1 1 1 1 1 1 1 1 1 1 1 1 1 1 1 1 1 1 1 1 1 1 1 1 1 1 1 1 1 1 1 1 1 1 1 0.010008441092420526 1 1 1 1 1 1 1 1 1 1 0.012784113850387193 1 1 1 1 1 1 1 1 0.012016472186813544 1 0.010169683165722122 1 0.010416619468716555 0.010974051172555144 1 1 1 1 0.010003687645772214 1 1 1 1 0.010015016417150335 1 1 1 1 1 1 0.0095750246189338743 1 1 1 1 1 1 1 1 1 1 1 1 1 1 0.0099370645334292233 1 1 0.0097314383088308639 1 1 1 1 1 1 1 1 1 1 1 1 1 1 1 1 1 1 1 1 1 1 1 1 1 1 1 1 1 1 1 1 1 1 1 0.010149544624154856 1 0.010474319097390605 1 1 1 1 1 1 0.0083510869036383193 1 1 1 1 1 1 1 1 1 1 1 1 1 1 1 1 1 1 1 1 0.0099203286664396838 1 1 1 1 1 1 1 1 1 1 1 1 1 1 1 1 1 1 0.010059475746614709 0.010077190600629636 1 1 1 1 1 1 0.01011536495989401 1 1 1 1 1 1 1 1 1 1 1 1 1 1 1 1 1 0.0083341410810065797 1 1 1 1 1 1 1 1 1 1 1 1 1 1 1 1 1 1 1 1 1 1 0.010386466334058138 1 0.01011297207798301 0.0098837496288719691 1 1 1 0.0099996382654260699 0.01088736752001012 1 0.0089043393790839559 0.0099974728701738638 1 1 1 0.0083639611660641048 1 1 0.010754216158383392 1 1 1 1 1 1 1 1 1 1 1 1 1 0.0098476847815021831 1 1 1 0.010999766941148837 1 1 0.010236350494227338 1 1 1 0.0097544936078940506 1 1 1 0.011948118693329401 1 0.010957301601540567 1 1 0.010096156743093119 1 1 0.0099853405532107555 1 1 0.011920760021900666 1 1 1 1 1 1 1 1 1 1 1 1 1 0.010050488075484318 0.0099570211102315599 1 1 1 1 0.010135599077133906 0.010394126606049575 1 1 0.01021180435483285 1 1 1 1 1 1 1 1 1 1 1 1 1 1 1 1 1 1 1 1 1 1 1 1 0.0098928691566227221 1 1 0.0097505001419141597 1 1 0.009996771842713973 1 1 0.0096636437640029889 1 1 1 0.010000066654370095 1 1 1 1 1 1 1 1 1 1 1 1 1 1 0.0099172928892250992 1 1 1 1 1 1 1 1 1 1 1 1 1 1 1 1 1 1 1 1 1 1 1 1 1 1 1 1 1 1 1 1 1 1 1 1 1 1 1 1 1 1 1 1 1 1 1 1 1 1 1 1 1 1 1 0.010041150850559033 1 1 1 1 0.012431813358424207 0.012038140442361886 1 1 1 1 0.011566698088666026 1 1 1 1 0.0100093486255034 0.010101780456161936 1 1 1 1 1 0.010600398535080565 1 1 1 0.01007101775866219 1 1 1 1 1 0.010046551839421464 1 1 1 1 1 0.010016684931318309 1 1 1 1 1 1 1 1 0.009960191395000477 1 0.0098876729750056961 1 1 1 1 1 1 1 0.010494459424947816 0.010031606708551433 1 1 1 1 0.010518374143321758 1 0.010182203336175765 1 1 1 1 1 1 1 1 0.010428165003276039 1 1 1 0.010206454471233823 1 1 1 0.010045275095967317 0.0110296772580195 1 1 1 1 1 0.0099257879499357309 1 1 0.010076096163315814 1 0.010001059305648038 1 1 1 1 0.010235753234662057 1 0.010347064917946656 0.010065513073782785 1 0.010441357799979505 0.0098566607103858627 1 1 1 1 1 1 1 1 1 1 1 1 1 1 1 1 0.010301320352509868 1 1 1 0.0097763390635297424 1 1 1 1 1 1 1 1 1 1 1 1 0.0099573657899598555 1 1 1 1 1 1 1 1 1 1 1 1 1 0.0099863382460199553 1 1 1 0.0099522904956410273 1 1 1 1 1 1 1 1 1 1 1 1 1 1 1 0.011358640635208403 1 1 1 0.011102082124822102 1 1 1 1 1 1 1 1 1 1 1 1 1 1 1 1 1 1 1 1 1 1 1 1 1 1 1 1 1 1 1 1 1 1 1 1 1 1 1 1 1 0.010030630006370417 1 0.0099696681263763322 1 1 1 1 0.010082153863438031 1 0.0092957334628699217 1 0.011688052884720142 1 1 1 1 1 1 1 1 1 1 1 1 1 0.011833358486601794 1 1 1 1 1 1 1 0.0092455806246641986 1 1 0.010561506795330623 1 0.010004618435679756 1 1 1 1 0.0099958414102605201 1 1 0.010005686263903035 0.0085416749190150108 0.007672084620850431 1 1 1 1 1 1 1 1 1 1 1 1 1 1 1 1 1 1 1 1 1 1 1 1 0.0099597317454119764 1 1 1 1 1 1 1 0.011115374093318992 1 1 0.009373642593613148 0.010800352735725622 1 1 1 1 1 1 1 1 1 1 1 1 1 1 1 1 1 1 1 1 1 1 1 1 1 1 1 1 0.0098168293858036694 1 1 1 1 1 0.010108371427658911 1 1 1 0.011161911556510997 1 1 1 1 1 1 1 1 1 0.012808844903081778 0.010244126048248182 1 1 1 1 1 1 1 1 1 1 0.013255149348830104 1 1 1 1 1 1 1 1 1 0.011238514925967573 1 1 1 1 1 1 1 1 1 1 1 1 1 1 1 1 1 0.010044471546895561 1 0.010201259230004193 1 1 1 1 1 1 1 1 1 1 1 1 1 1 1 1 1 1 1 1 1 1 1 1 1 1 1 1 1 1 1 1 1 1 1 1 1 0.010506515107546585 1 0.010299640481836783 1 1 1 1 1 1 1 1 1 0.010445580519987098 1 1 1 0.0094048551293758158 1 1 0.01001644762251569 1 0.010285614822636922 1 1 0.010149979259660234 1 1 1 1 1 0.010352042084067531 1 1 1 1 1 1 1 1 0.01095770092828032 1 0.010762475082151583 1 0.010047469209434374 1 1 1 1 1 1 1 1 1 1 1 1 0.009954265187836946 1 1 1 0.0098719362989240118 1 1 1 0.0099618001269505038 1 0.010190698953245028 1 1 1 1 1 0.0090691037353715191 1 0.0092033813143535259 1 1 1 0.010067422457687436 1 1 0.0093764574500793622 1 1 1 1 1 1 1 1 1 0.0098472189464507229 1 1 0.0093362571936549989 1 1 1 1 1 1 1 1 1 1 1 1 0.0097057595240114154 1 1 0.010100242255323183 1 0.0096833443720365387 1 1 1 1 1 0.009155849953886297 1 1 1 0.010440346988838878 0.0095438606424813333 1 1 1 1 1 1 0.0096122465678345776 1 1 1 1 0.010533392724625321 1 1 1 1 0.010139379352182931 0.0099956832823909561 1 1 0.011058476450903574 1 1 1 0.010001396355031696 1 1 1 1 1 1 0.0093959868733212524 1 1 0.010489938086270748 1 0.010176745783359399 1 0.010013923264965495 1 1 1 1 1 1 1 1 1 1 1 1 1 1 1 1 1 1 0.0096459977869374856 1 1 1 1 1 1 1 1 1 1 1 1 1 1 1 1 1 1 1 1 1 1 0.010193431980666905 1 1 0.0099379546475206523 1 1 1 1 1 1 1 1 1 1 0.0097485032337958008 1 1 0.0099999717781106418 1 1 1 0.010197273475479206 1 1 1 1 0.0099987055413383354 0.010003415080831817 1 1 1 0.010291013093155981 1 0.0104604090330414 0.0094628199207491687 1 1 0.0092792858519078081 1 1 1 1 0.0091590083686005162 1 0.010528078723724545 1 1 1 1 1 0.010017133847517758 1 1 0.0093737257189273962 1 1 1 1 1 1 1 1 1 1 1 1 1 1 1 0.010016934961712735 1 1 1 1 1 1 1 1 1 1 1 1 1 1 1 1 1 1 1 0.0099798802631627225 1 1 1 0.009941916542732826 1 1 1 1 1 1 1 1 1 1 1 0.010203913338810482 1 0.010457874200202074 1 1 1 1 0.0099621266674161223 1 1 1 1 0.010624519766553705 1 1 1 1 1 1 1 1 0.010393952218629814 1 1 0.010136646211819637 1 1 1 1 1 1 1 1 1 1 1 1 1 1 1 1 1 1 1 1 1 1 1 1 0.010068829088064399 1 1 0.010025641523070141 1 1 0.010176474540205403 1 1 1 0.010038110973438026 1 1 1 1 1 1 1 1 1 1 0.010019482763363875 1 1 1 1 1 0.01030767094862035 1 1 1 1 1 1 1 0.010065223772143948 1 1 1 1 1 1 1 1 1 1 1 0.0099860517274450618 0.010871428137839766 0.0099217988950363305 1 0.0096218896344008979 1 1 1 0.010002526300704338 1 1 1 0.010797338339771 1 1 1 1 0.010008373922206621 1 1 1 1 1 1 0.010002775984349583 1 1 1 1 1 0.0098629031114417388 1 1 1 1 1 1 1 1 1 1 1 1 0.0101526976177004 1 1 1 1 1 1 1 1 1 1 1 1 1 1 0.010074024513186584 1 1 1 1 1 1 1 1 1 0.01017001800013061 1 1 1 1 0.010096085143144851 1 1 1 1 1 1 1 1 0.010270594239641351 0.010186480604657372 1 1 1 1 0.010135164539633654 1 1 1 1 1 1 1 1 1 1 1 1 1 1 1 1 1 1 1 1 1 1 1 1 1 1 1 1 1 1 1 0.01055845099941775 1 1 1 1 1 1 1 1 1 1 1 1 1 0.010292165231519101 1 1 1 1 1 1 1 0.0101394676138187 1 1 1 1 1 1 0.010126745738118954 1 1 0.010146757504417604 1 1 1 1 0.010072535869024844 1 1 1 1 1 1 0.010862791566065001 1 1 1 1 1 1 1 1 1 1 1 1 1 1 1 1 1 1 1 1 1 1 1 1 1 1 1 1 1 1 1 1 1 1 1 1 1 1 0.0087975252899192315 1 1 0.010656103790404421 1 0.0098043816169344211 1 0.010473379322290482 1 1 1 1 1 0.010239090534308451 1 1 1 1 1 1 1 1 0.010045212005845298 1 1 1 1 1 0.0097640447973163253 1 1 1 1 1 0.0096101203549701572 1 1 1 0.009742696832272248 1 1 1 0.0095067416295885748 1 1 1 1 1 1 1 1 1 1 1 1 1 1 1 1 1 1 1 0.0098057387380357363 1 1 1 1 1 1 1 1 1 0.010238540577583334 1 1 0.0095368687841181181 1 1 1 1 1 1 0.010032141995399696 1 1 1 1 1 1 1 1 1 1 1 1 1 1 1 1 1 1 1 1 1 1 1 1 1 1 1 1 1 1 1 1 1 1 1 1 1 1 1 1 1 1 1 1 1 1 1 1 1 1 1 1 1 1 1 1 1 1 1 1 1 1 1 1 1 1 1 1 1 1 1 1 1 1 1 1 1 1 1 1 1 1 1 1 1 1 1 1 1 1 1 1 1 1 1 1 1 1 1 1 1 1 1 1 1 1 1 1 1 1 1 1 1 1 1 1 1 1 1 1 1 1 1 1 1 1 1 1 1 1 1 1 1 1 1 1 1 1 1 1 1 1 1 1 0.012282276659101574 1 1 1 1 1 1 1 1 1 1 0.010372670927024451 1 1 1 1 1 1 1 1 1 1 1 1 0.010360630321574613 1 1 0.0093324287977779065 0.0090980793139345227 1 1 0.011469702020192532 1 1 1 1 0.0099971151007293511 1 0.01103706666203735 1 1 1 1 0.0092126759621196062 1 0.01043489874456051 0.0092173851061341308 1 1 1 0.0084240174874742543 1 1 1 1 0.0099864466124510529 1 1 1 1 1 1 1 1 1 1 1 1 0.0080430397641999586 1 1 1 1 1 1 1 1 1 1 1 0.010051819031544973 0.0073638222772606727 1 1 1 1 1 1 1 1 1 1 0.0093180228435646509 1 1 1 1 1 0.0094260813454702351 1 1 1 1 0.0096757337229849607 1 1 1 1 0.0094393077409458161 1 1 1 1 1 0.0084933570629307387 1 0.011214078758083387 1 1 0.011389780390771273 1 1 1 1 0.010051910546307247 1 1 1 1 1 1 1 0.011025514700873174 1 1 1 1 1 1 1 1 1 0.010666373608449541 1 1 1 1 1 1 1 1 1 1 1 1 1 1 1 1 1 1 1 1 1 1 1 1 1 1 1 1 1 1 1 1 1 1 1 1 1 1 1 1 1 1 1 1 1 1 1 1 1 1 1 1 1 1 1 1 1 1 1 0.010008218681270716 1 1 1 0.010927230242197293 1 1 1 1 1 1 1 1 1 0.010841649630924882 1 0.010092491696473443 1 1 1 1 1 1 1 1 1 1 0.0093047414742292792 1 1 1 1 1 1 1 1 1 0.01052936932350601 1 1 1 1 1 0.0094606914910844355 1 0.010008884294393958 1 1 1 1 1 0.010002834734472631 1 1 1 1 1 1 1 1 1 1 0.0099897266768695335 1 0.0099443851008902302 1 1 0.0096690997312493133 1 0.010085286993839603 1 0.010882629654220287 0.0096544728441881368 1 1 1 1 1 1 1 1 1 0.0099501533617418446 1 1 1 1 1 1 1 0.010129437657634998 1 1 1 1 1 1 0.010424917995866553 1 1 1 1 1 0.010135429700007699 1 0.0098642244364310298 0.01094205061670897 1 1 0.010004078874186102 1 1 1 1 1 1 1 1 0.010613981197875905 1 1 1 1 1 1 1 1 1 1 0.010005579520519677 1 1 1 0.010017171142928178 1 1 1 1 1 1 1 1 1 1 1 1 1 1 1 1 1 1 1 1 1 1 1 1 1 1 1 1 1 1 1 1 1 1 1 1 1 1 1 1 1 1 1 1 1 1 1 1 1 1 1 0.010094804310996604 1 1 1 0.010250629680676655 1 1 1 1 1 0.010000026619635054 1 0.010003600956083568 1 1 0.010134277031651812 1 0.010121411748507288 1 1 1 1 1 1 1 0.010000857761113556 0.0098374830293535397 1 1 1 1 1 1 1 1 1 1 1 1 1 1 1 1 1 0.010128930170853961 1 1 1 0.01011601311988922 1 0.0099009994827916337 0.01039336477928636 0.010000695572850032 1 1 0.010000300708036413 1 0.0099781119301603719 1 1 1 1 1 0.0099912044659882047 0.010037394915219123 1 1 1 1 1 1 1 1 1 1 1 1 1 1 1 1 0.01002343528568677 1 0.010285481569208742 1 1 1 1 0.0097376911549170928 1 0.0094801261351797339 1 1 1 1 1 1 0.0099975325562498708 1 0.010005587027529426 1 0.0095492587322707906 0.0096404731047762034 1 0.010409204301730413 1 1 0.010266057173719857 1 0.0087606797469418421 1 1 1 0.01042744976567693 1 1 1 1 1 0.010000470652054849 1 1 1 1 1 1 1 1 1 0.0098344998142822944 1 1 1 1 1 1 0.0091993234837511578 0.0085576018236153562 1 0.010595766575477146 1 1 0.0097666819091795226 1 1 1 0.0091126737050124945 1 1 1 1 0.0087243603832046351 1 1 1 1 1 1 1 1 1 0.010336351188784898 1 1 1 0.01077504962476853 0.0097598695180276494 1 0.0099438005158593822 1 1 1 1 1 1 1 1 1 1 1 1 0.0098623758738605929 1 0.0099505292600307136 1 1 1 1 1 1 1 1 1 0.0099434042279141089 0.010100393867082759 1 1 1 1 1 1 1 1 1 1 0.010383671239023009 0.010267619509856205 1 1 1 1 1 1 0.010120572676306847 1 1 1 1 1 1 1 1 1 0.010006488613646846 1 0.0097201549662321845 1 1 1 1 1 1 0.0092487201270815417 1 1 0.0096012701652036844 0.0096821523426449639 1 1 1 1 1 1 0.010341663367150759 1 0.0088161347399357097 1 1 1 1 0.0096089025421306345 1 0.0096456468709818326 1 1 1 1 0.010020774089526559 1 1 0.010042597537979285 1 1 1 1 1 0.010016949686186941 0.010110138120690164 1 1 1 1 1 0.010451121724365853 1 1 1 1 0.0098917798436600722 1 1 1 0.010406729150989544 0.0099540013616004185 1 1 1 1 1 1 0.0099446459712293628 1 1 1 1 1 1 0.010190260406989409 1 1 1 0.010069737402645284 1 0.0099979859294501081 1 1 1 1 1 1 1 1 1 1 1 1 1 1 1 1 0.01006505651562592 1 0.0104582510334319 1 1 1 0.010222546362025652 1 1 1 1 1 0.0099870311150941533 1 1 1 1 1 0.0099653563978127288 1 1 0.0078404675746430834 1 1 0.009978549252088853 1 1 1 1 1 1 0.0099934108477559552 1 1 1 0.010717843234295744 1 1 1 1 1 1 1 1 1 1 1 1 0.0099845094732525595 1 0.01065859294332043 1 1 1 1 1 1 1 1 1 1 1 1 1 1 1 1 1 1 1 1 1 1 1 1 1 1 1 1 1 1 1 1 1 1 1 1 1 1 1 1 1 1 1 1 1 1 1 0.0092507297519245392 1 1 1 1 0.0111653539340099 1 1 1 1 1 1 1 0.011261442638461426 1 1 1 1 0.0093848855544373961 1 1 1 1 1 1 1 1 1 1 1 1 1 1 0.0097280126221601943 1 1 1 1 1 1 1 0.0098058205391471191 1 1 1 1 1 1 1 1 1 1 1 1 1 1 1 1 1 1 1 1 1 1 1 1 0.0099730094507428022 1 1 0.0094883003763012314 1 1 1 1 1 1 1 1 1 1 1 1 1 1 1 1 1 1 1 1 1 1 1 1 0.012643707597516145 1 1 1 1 1 1 1 1 1 1 1 1 1 1 0.01044955175158563 1 1 1 1 1 1 1 0.011279326825841216 1 1 1 1 1 1 1 1 1 1 1 1 1 1 1 1 1 1 1 1 1 1 1 1 1 1 1 1 1 1 1 1 1 1 1 1 1 1 1 1 1 1 1 1 1 1 1 1 1 1 1 1 1 1 0.010036799958841056 0.010040066221718578 1 1 1 0.011977929026710726 1 1 0.010074718204223735 1 1 1 0.010039470121100427 1 1 1 1 1 1 1 1 1 1 1 1 1 1 1 1 1 1 1 1 1 1 1 1 1 1 1 0.01016934056473329 1 1 1 1 1 1 0.0099281157962270335 1 1 1 0.010025766777465714 1 1 0.010568188751231592 1 0.00999656433681868 0.0095704369453127533 1 1 1 0.010478969602903031 1 0.0096656457546741154 1 1 1 0.010119555971778308 0.010483632784099424 1 0.0099841029905427502 1 1 1 0.010527453204414946 1 0.0097906632531624838 0.0098358397814395648 1 1 0.010029756203536891 1 1 1 1 1 1 1 1 1 1 1 0.0094240732473288603 1 0.010125871357776935 1 0.010661568894627134 1 1 0.010237759213618289 1 0.0096440770431331924 0.0099924808276947909 1 1 1 1 1 0.0101027994719646 0.010043402149501859 1 1 1 1 1 1 1 1 0.010683016356859421 1 1 1 1 1 1 1 0.0099998971972442285 1 0.010750966525627018 0.009690391275778705 1 1 1 0.010009857047786392 0.010968059357357804 1 1 0.0098236192674115604 1 1 0.0089669489037241708 0.010683733040060543 1 0.0093723809249714532 1 1 1 1 1 1 1 0.010681514178636067 1 1 1 1 1 1 1 1 0.0098557028694329554 1 1 1 1 0.009736418597289442 1 1 0.0099697619538620021 1 0.0099992527017668583 1 1 1 1 1 1 1 1 1 1 1 1 1 1 1 1 1 1 1 0.010252315180626928 1 1 0.010776344733357424 1 1 1 1 1 1 0.010994165947700533 1 0.010022308013751965 1 1 0.010075898846883896 1 1 1 0.0097677779819049116 1 1 0.010566229194543524 0.010862515839099054 1 0.009677839938626866 1 1 1 1 1 1 1 1 0.010509817293594063 1 0.0099885483710924483 1 1 1 1 1 0.0093011982797476661 1 1 0.010001106343779702 0.0094207456506551247 1 1 1 1 1 0.010020748771111896 1 1 0.011114527865761293 1 1 0.0092833686232231035 1 1 0.011703036379770815 1 0.011096398897695741 1 0.0099342208642618484 1 0.01088975110706167 1 0.010483027453635878 1 1 1 1 1 1 1 1 1 0.0081583799696761522 1 1 1 1 1 0.0086716324590909825 1 0.0099596688948546432 1 1 1 1 1 0.0097848333689137135 1 1 1 1 1 1 1 1 0.0097418428434749814 1 1 0.0088826269079416015 1 1 1 1 1 1 1 1 1 1 1 0.0093631144895708739 1 1 1 1 1 1 0.0096218699477175727 1 1 1 1 1 0.0098753157039236754 1 1 1 1 1 1 1 1 1 1 1 1 1 1 1 1 1 1 1 0.0098700520576455956 0.0094349301803850483 1 1 1 1 1 1 1 1 0.0097089756856891841 1 1 1 1 1 1 1 1 1 1 1 1 1 1 1 0.010030082161329204 0.010952076627915988 1 1 0.0099349292774854152 1 1 1 0.0084892394543448196 1 0.0098506093089008127 1 1 1 1 1 1 0.0092876424446869249 0.009876708237835154 1 1 1 1 1 1 1 1 1 1 1 1 1 1 1 0.010135481028947221 0.0098860728881991194 1 1 1 1 1 1 1 0.0098164742777322699 1 1 1 1 1 1 1 1 0.0097249965162427079 1 1 1 1 1 1 1 1 1 1 1 1 1 1 1 1 1 1 1 1 1 1 1 1 1 0.0093228074281686384 1 1 0.0096836294984251094 1 1 1 1 1 1 1 1 1 1 1 1 1 1 1 1 1 1 1 1 1 1 1 1 1 1 1 1 1 1 0.0096391779297435309 1 1 1 1 1 1 0.011006341518017328 1 1 1 1 0.010015618768892962 1 1 0.0099437863356290311 1 1 0.0099985279581765868 1 0.0099592761535634792 1 1 1 0.010796121274125971 1 0.010000777962371008 1 1 1 0.010187344861766113 1 0.010662485500536171 1 1 1 0.0098984535046987218 0.011290259034861399 1 1 1 0.01124874179521183 1 1 1 1 1 1 1 1 1 1 1 1 0.010066934906013087 1 1 0.0097368986403715101 1 1 0.0098483093567300877 1 0.010375345801398045 1 0.010709905842724745 1 1 0.0098583126835734385 1 1 1 1 1 1 1 1 1 1 0.0098145018586824617 1 1 1 0.0093167639432067389 1 0.01015216467223088 1 0.010442653571599406 1 1 1 1 1 0.012066956309890594 1 0.0094575633701464226 1 1 1 1 0.011126571121199328 1 0.010378584497127771 1 1 1 1 1 1 1 1 1 1 1 1 1 1 1 1 1 1 1 1 1 1 1 1 1 1 1 0.0097400444255541525 1 1 1 1 1 1 1 1 1 1 1 1 1 1 1 1 1 1 0.009374207794402397 1 1 1 1 1 1 1 1 1 1 1 1 1 1 0.010236375718794592 1 0.009977477982556231 1 1 0.010266026604201908 0.010002934394387108 0.010081270797815048 1 1 1 1 1 0.0092577835158269457 1 0.010699158759823392 1 0.010443715533744256 1 1 1 0.010592113739286457 1 1 0.0099981121062112169 1 0.010062728417792089 0.010445268407469208 0.0096080089853805926 1 1 1 1 1 1 1 0.010006128801678893 1 1 1 1 1 0.009979502765884175 1 1 1 1 1 1 1 1 1 1 1 1 1 1 1 1 1 1 0.0099734577510561771 1 1 1 1 1 1 1 0.0096415714352901406 1 1 1 1 1 1 1 1 1 1 1 1 0.0088390619406481831 1 1 0.0091279721910787013 1 1 1 1 1 1 1 1 1 1 0.0092809211023353669 1 0.01196211363071694 1 1 1 1 1 1 1 0.009982734384590004 1 1 1 1 0.011689655056784947 1 1 1 1 1 1 1 1 1 1 0.010141407872390215 1 1 1 1 1 0.0054253606222136085 1 1 1 1 1 1 0.0099976827377510312 1 1 1 1 1 1 1 1 1 1 1 1 0.0089035450087705283 1 1 1 1 1 1 1 1 0.0099650838097016907 1 1 1 1 0.0091807134712288442 1 1 1 0.01004796860468905 1 1 1 1 1 1 0.0091789647521985668 1 1 1 0.0092536659875631644 1 1 1 1 1 1 1 0.0093105226990509004 1 1 0.009504660783453911 1 1 0.0097687438505788173 1 1 1 1 1 1 1 1 0.0095671063186826364 1 0.0098906866393546969 1 1 1 1 1 0.010016707182893872 1 1 1 1 1 1 1 1 1 0.0099260620905858507 1 1 0.010005880344148912 1 1 1 1 0.0099613257734805661 1 1 0.0098208562342151605 1 1 1 1 0.0099387132059441507 1 1 1 1 1 1 0.0083153081574969846 1 1 1 1 1 1 1 0.0090001031160339556 1 0.0096755621346498351 1 1 1 1 1 1 1 1 1 1 1 1 1 1 0.010181795406244342 1 1 1 1 1 1 1 1 0.010589660150245166 0.011357878854281142 1 1 1 1 1 1 0.010179498296887317 1 1 1 1 1 1 1 1 1 1 1 1 1 1 1 1 1 1 1 1 1 1 1 0.0099171751397283941 1 1 1 1 1 1 1 1 1 1 1 1 1 1 1 0.0097417976204266926 1 1 1 1 1 1 1 1 1 1 1 1 1 1 1 1 1 1 1 1 1 1 1 1 1 1 1 1 1 0.0098789857877425065 1 1 1 1 1 1 1 1 1 1 1 0.010005080945193661 1 1 1 0.009940272581798356 1 1 1 1 1 1 1 1 1 0.0099793669252504422 1 1 1 1 1 1 0.011808774309766339 1 1 1 0.009803208343410948 0.0092074286897129171 1 0.011886661100974354 0.012963733072736121 1 0.0073294397641451899 1 1 1 1 1 1 1 1 1 1 1 0.0074860427156697136 1 1 1 1 0.0077870445694635596 1 1 0.0099311462637277116 1 1 1 1 1 1 1 1 1 1 0.0098486832265955553 1 1 1 1 1 1 0.0098693505353844111 1 1 1 0.0099933197472613366 1 1 1 1 1 1 1 1 1 1 1 1 0.011907699758741262 1 1 1 1 1 1 0.0099518135725165675 0.012248412108902231 1 1 1 1 1 1 1 1 1 1 1 1 1 1 1 1 1 1 1 1 1 1 1 1 1 0.012622291490946961 1 1 1 1 1 1 1 0.0086962270082618573 1 1 1 1 1 0.009495463866997662 1 0.0087391588937946723 1 1 1 1 1 1 1 0.0090198233987355478 1 1 1 1 1 1 1 1 1 1 1 1 1 1 1 1 1 1 1 1 1 1 1 1 1 1 1 1 1 1 1 1 1 1 1 1 1 1 1 1 1 1 1 1 1 1 1 0.0094439092802221496 1 1 1 0.010012607940805083 1 1 1 0.010718717625946606 1 1 1 1 1 0.010246162477532824 1 1 1 1 1 1 1 1 1 1 1 1 1 1 1 1 1 1 1 1 1 1 0.010660650021162154 1 1 1 1 0.0094710020515285306 0.010885037457608156 1 1 1 1 0.010003203084728567 1 1 0.010510802883067496 1 0.010281782684663848 1 0.0095030559609564774 0.010229222992379119 1 1 0.010004173682609535 0.0094252731952708009 1 1 1 1 1 1 0.0096151453439410582 1 1 1 1 1 1 1 1 0.0098571768400035533 1 1 1 1 1 1 1 1 1 1 1 1 1 1 1 1 1 1 1 1 1 1 1 1 1 1 1 1 1 1 1 1 1 1 1 1 1 1 1 1 1 1 1 1 1 1 1 1 1 1 1 1 1 1 1 1 1 1 1 1 1 1 0.011464661289716641 1 1 1 0.011497021714871805 1 1 1 1 1 1 1 1 1 1 1 1 1 1 1 1 1 1 1 1 1 1 1 1 1 1 1 1 0.0099670656009702898 1 1 1 1 1 1 1 1 1 1 1 1 0.010069376365772931 1 1 1 1 0.0099639888105951153 1 1 1 1 1 1 0.0099961239434826123 1 0.0099992007338577868 1 1 1 1 1 1 1 1 0.010045056703670523 1 1 1 1 1 1 0.010182957886145989 1 0.010895371885035388 1 1 0.0086331402110408663 1 1 1 0.011606988912675437 1 1 1 1 1 1 1 1 1 1 1 1 1 1 1 0.011900770865370603 1 1 1 1 1 1 1 1 1 1 0.0096680730771412093 1 1 1 1 1 1 1 1 1 1 1 1 1 1 1 1 1 1 1 1 1 1 1 1 0.0091298577990383614 0.010007364785222767 1 1 0.010620772906913798 1 1 1 1 1 1 1 1 0.0098986579056073096 1 1 1 1 1 1 1 1 1 0.010176429355533343 1 1 1 1 1 1 1 1 1 1 1 1 1 1 1 1 1 1 1 1 1 1 1 1 1 1 1 1 0.0099860081861929788 1 1 1 1 1 1 1 1 1 0.011658088035217742 1 1 1 1 1 1 1 1 1 1 1 0.0099926884389316441 
</DataArray>
</CellData>
</Piece>
</UnstructuredGrid>
</VTKFile>
